xcoord,ycoord,g,damage,sigma_xx,sigma_yy,tau_xy,e_xx,e_yy,e_xy,elocal,enonlocal_true,
0.5283121635,0.5283121635,8,0,-0.05743939327754137,-0.057467242995382,0.06991558131711774,-1.378322640918268e-07,-1.379436629631893e-07,5.59324650536942e-07,1.417743672877006e-07,1.089601629774451e-06
1.9716878365,0.5283121635,8,0,-0.06276430921326619,-0.07876690673828127,0.06240447047723947,-1.378322640918268e-07,-2.018426541918871e-07,4.992357638179158e-07,8.182385985433866e-08,1.209012921986114e-06
0.5283121635,1.9716878365,8,0,-0.0774690221838676,-0.06247465022196356,0.06192820741347631,-1.979211508108055e-07,-1.379436629631893e-07,4.954256593078105e-07,8.15890766315013e-08,1.192403395609262e-06
1.9716878365,1.9716878365,8,0,-0.08279393811959242,-0.08377431396486283,0.05441709657362515,-1.979211508108055e-07,-2.018426541918871e-07,4.353367725890012e-07,1.779531481650692e-08,1.330969630435665e-06
3.0283121635,0.5283121635,8,0,-0.405028161703522,-0.1370183593350088,0.2521196573945718,-1.186475429983263e-06,-1.144362205092106e-07,2.016957259156574e-06,4.916239280891149e-07,1.365893186202308e-06
4.4716878365,0.5283121635,8,0,-0.3798033442892478,-0.0361190896779123,0.2483058025198643,-1.186475429983263e-06,1.882615884620789e-07,1.986446420158914e-06,7.087704788588966e-07,1.675086746552339e-06
3.0283121635,1.9716878365,8,0,-0.4151984413694811,-0.1395609292513631,0.2899568835159423,-1.216986268981249e-06,-1.144362205087769e-07,2.319655068127539e-06,6.184632220308636e-07,1.5061209142132e-06
4.4716878365,1.9716878365,8,0,-0.3899736239552431,-0.03866165959441112,0.2861430286411806,-1.216986268981249e-06,1.882615884620789e-07,2.289144229129444e-06,8.286662188751138e-07,1.846076885698282e-06
5.528312163500001,0.5283121635,8,0,-1.11966597917138,-0.1411852726945612,0.3637685447573313,-3.469982915192767e-06,4.439399107145081e-07,2.910148358058651e-06,9.256131235847889e-07,1.933154736547618e-06
6.9716878365,0.5283121635,8,0,-1.086680282684303,-0.009242486746253831,0.4309679034062894,-3.469982915192767e-06,8.397682685594302e-07,3.447743227250315e-06,1.444461874352774e-06,2.329016036701839e-06
5.528312163500001,1.9716878365,8,0,-0.9404676894408692,-0.09638570026220455,0.4132470894880279,-2.932388046001017e-06,4.439399107136408e-07,3.305976715904223e-06,1.11845833364271e-06,2.119955571341266e-06
6.9716878365,1.9716878365,8,0,-0.9074819929537381,0.03555708568631968,0.4804464481369995,-2.932388046001017e-06,8.397682685592133e-07,3.843571585095996e-06,1.646374914186503e-06,2.528250084174814e-06
8.028312163500001,0.5283121635,8,0,-2.085853608286675,-0.1642769631589561,0.3889402356024803,-6.543309975990193e-06,1.14299660452068e-06,3.111521884819842e-06,1.44595225185111e-06,2.645374575485675e-06
9.471687836500001,0.5283121635,8,0,-2.049803036425516,-0.02007467571432187,0.5761227013233883,-6.543309975990193e-06,1.575603466854583e-06,4.608981610587106e-06,2.184108478864028e-06,3.113820876733891e-06
8.028312163500001,1.9716878365,8,0,-1.586700366364173,-0.03948865267805962,0.443016093394069,-5.045850250222906e-06,1.142996604521548e-06,3.544128747152552e-06,1.614476778197498e-06,2.846000910686593e-06
9.471687836500001,1.9716878365,8,0,-1.550649794503105,0.1047136347662132,0.6301985591150041,-5.045850250222906e-06,1.575603466854366e-06,5.041588472920033e-06,2.426044222630147e-06,3.305817800067136e-06
10.5283121635,0.5283121635,8,0,-3.198618309663546,-0.2072590127662503,0.3625223656364581,-1.006977138071035e-05,1.895665806878836e-06,2.900178925091665e-06,2.06889403074942e-06,3.519305156506431e-06
11.9716878365,0.5283121635,8,0,-3.161800000310236,-0.05998577535301231,0.7033899315699531,-1.006977138071035e-05,2.33748551911855e-06,5.627119452559625e-06,2.9456941399165e-06,4.158662509314364e-06
10.5283121635,1.9716878365,8,0,-2.289638133840967,0.01998603118939446,0.417749829666463,-7.342830853242609e-06,1.895665806878836e-06,3.341998637331704e-06,2.188615951813858e-06,3.700070077225354e-06
11.9716878365,1.9716878365,8,0,-2.252819824487649,0.1672592686026686,0.7586173955998767,-7.342830853242609e-06,2.337485519118658e-06,6.068939164799014e-06,3.210044454742608e-06,4.317370440086582e-06
13.0283121635,0.5283121635,8,0,-4.413625481896985,-0.2725059490972568,0.3067228972103609,-1.390559678279255e-05,2.658881348406366e-06,2.453783177682888e-06,2.749261162853442e-06,4.788914382291193e-06
14.4716878365,0.5283121635,8,0,-4.377271313334329,-0.1270892748466284,0.8414931994835601,-1.390559678279255e-05,3.095131371158252e-06,6.73194559586848e-06,3.737303174209089e-06,5.871437168094606e-06
13.0283121635,1.9716878365,8,0,-2.987571342501797,0.08400758575154044,0.3612541500543737,-9.62743436460698e-06,2.658881348406366e-06,2.89003320043499e-06,2.826544470573054e-06,4.932557418170887e-06
14.4716878365,1.9716878365,8,0,-2.951217173939139,0.2294242600021689,0.8960244523275457,-9.62743436460698e-06,3.095131371158252e-06,7.168195618620365e-06,4.035333066836592e-06,5.995979135662197e-06
15.5283121635,0.5283121635,8,0,-5.746452408377712,-0.3753975139071832,0.236410141404206,-1.808832969568293e-05,3.395889882199183e-06,1.891281131233648e-06,3.437432479949909e-06,7.064799618036366e-06
16.9716878365,0.5283121635,8,0,-5.714332615856421,-0.2469183438220168,1.036629526381072,-1.808832969568293e-05,3.781327392454682e-06,8.293036211048574e-06,4.541116742426821e-06,9.242603677457324e-06
15.5283121635,1.9716878365,8,0,-3.612534048439424,0.1580820760773887,0.284589830186157,-1.168657461586807e-05,3.395889882199183e-06,2.276718641489256e-06,3.481324387193225e-06,7.179921011757567e-06
16.9716878365,1.9716878365,8,0,-3.58041425591811,0.2865612461626454,1.084809215163023,-1.168657461586807e-05,3.781327392454953e-06,8.678473721304182e-06,4.915463818377375e-06,9.351088653104744e-06
18.0283121635,0.5283121635,8,0,-7.309734688151405,-0.5530472994667999,0.1468520467256025,-2.294871316251105e-05,4.078036392227364e-06,1.17481637380482e-06,4.090797288127083e-06,1.18150843675496e-05
19.4716878365,0.5283121635,8,0,-7.274302475466333,-0.4113184487265158,1.369704430763036,-2.294871316251105e-05,4.503222944448216e-06,1.095763544610429e-05,5.556282012114742e-06,1.666542825524937e-05
18.0283121635,1.9716878365,8,0,-4.048794997384872,0.2621876232248335,0.2000003657532496,-1.316589409021145e-05,4.078036392227364e-06,1.600002926025997e-06,4.115071495252005e-06,1.192652762130804e-05
19.4716878365,1.9716878365,8,0,-4.013362784699782,0.4039164739651897,1.422852749790676,-1.316589409021145e-05,4.503222944448433e-06,1.138282199832541e-05,6.17778348427629e-06,1.679159009318419e-05
20.5283121635,0.5283121635,8,0,-9.356389688107866,-0.9344125273809214,0.08973303579590756,-2.919291698004043e-05,4.494991662867343e-06,7.178642863672605e-07,4.498815517381808e-06,2.268812098570185e-05
21.9716878365,0.5283121635,8,0,-9.393695924083953,-1.083637471285278,2.119175020007864,-2.919291698004043e-05,4.047316831154273e-06,1.695340016006291e-05,6.0841753021427e-06,3.429207963667352e-05
20.5283121635,1.9716878365,8,0,-3.944544396875934,0.4185487954270615,0.03377368183176701,-1.295738110634463e-05,4.494991662867343e-06,2.701894546541361e-07,4.496037336837229e-06,2.276874614797879e-05
21.9716878365,1.9716878365,8,0,-3.981850632852023,0.2693238515227045,2.063215666043737,-1.295738110634463e-05,4.047316831154273e-06,1.650572532834989e-05,7.394004959997505e-06,3.423357770326369e-05
23.0283121635,0.5283121635,8,0,-12.57817505209934,-1.403748148521986,-0.7270865561570392,-3.91271616479003e-05,5.570545966409116e-06,-5.816692449256314e-06,5.758988897237035e-06,4.881438515606286e-05
24.4716878365,0.5283121635,8,0,-12.19407386701809,0.1326565918030251,3.056092575676609,-3.91271616479003e-05,1.017976018738415e-05,2.444874060541287e-05,1.30440819659441e-05,7.688610302878756e-05
23.0283121635,1.9716878365,8,0,-2.489697367209584,1.118371272700453,-0.1509347785351803,-8.861728593231031e-06,5.570545966409116e-06,-1.207478228281442e-06,5.59575788125936e-06,4.87657961666932e-05
24.4716878365,1.9716878365,8,0,-2.105596182128331,2.654776013025464,3.632244353298468,-8.861728593231031e-06,1.017976018738415e-05,2.905795482638775e-05,1.802955863311571e-05,7.700372380187618e-05
25.5283121635,0.5283121635,8,0.1286487787615825,-19.50352990109197,-3.022903724353863,-1.999549691324963,-6.885050625021855e-05,6.804985014554525e-06,-1.835815127207218e-05,7.902729349034306e-06,0.0001148536164850947
26.9716878365,0.5283121635,8,0.531411834598849,-11.02846892837904,-3.785710200103146,3.766983070162431,-6.885050625021855e-05,-7.02428644310519e-06,6.431204794833136e-05,6.667875110156902e-06,0.000190511074416466
25.5283121635,1.9716878365,8,0.1000563510190971,4.655990226899551,3.077779758368188,-3.620858332835685,1.381969297018499e-05,6.804985014554525e-06,-3.218742272973157e-05,2.678380150853105e-05,0.000111308037899138
26.9716878365,1.9716878365,8,0.480245773199627,2.09003939735731,-0.6183972034920727,3.279829557705646,1.381969297018499e-05,-7.02428644310519e-06,5.048277649067181e-05,3.07060453955185e-05,0.0001767912393004603
28.0283121635,0.5283121635,8,0.6962993154867542,1.690449097455169,15.91860216953281,-29.26112392268596,-2.412060623277985e-05,0.000163276443528655,-0.0007707884878714456,0.0004661988167655352,0.0002545731972159114
29.4716878365,0.5283121635,8,0.8169977723021125,8.324977778579274,38.81756695684493,-17.11036119271146,-2.412060623277985e-05,0.0006423759618550115,-0.000747984826543572,0.0008100515682406454,0.0003539367136207823
28.0283121635,1.9716878365,8,0.6488076268625762,4.624286471207165,19.0752721428852,-12.80486767906865,-1.316944904906149e-06,0.000163276443528655,-0.0002916889695450881,0.0002484412661376189,0.0002316957721172479
29.4716878365,1.9716878365,8,0.7833444727078878,11.50275076369391,46.36765729575954,-7.281936029112841,-1.316944904906149e-06,0.0006423759618550118,-0.0002688853082172145,0.0006693273966524682,0.0003162145439435997
30.5283121635,0.5283121635,8,0.8402467792816357,18.94798962317429,42.17121429248678,5.887950990012408,0.0001683633997438177,0.0007498408701793888,0.0002948523210254409,0.0007962892128942374,0.0003898449238212144
31.9716878365,0.5283121635,8,0.8395447956890481,16.55088132308861,32.43504566187852,2.709253116077512,0.0001683633997438177,0.000564340941438443,0.0001350783542465673,0.000596615465312378,0.0003885844620969576
30.5283121635,1.9716878365,8,0.8142114516894938,12.14125998833205,46.57026710161907,2.53955277710217,8.589432964943806e-06,0.0007498408701793888,0.0001093523922844952,0.0007538660900977131,0.0003502913676772503
31.9716878365,1.9716878365,8,0.8206324246159254,8.94892745126363,33.86987759899701,-1.130499445513022,8.589432964943806e-06,0.0005643409414384429,-5.042157449437854e-05,0.0005655312936783723,0.000358872209655759
33.0283121635,0.5283121635,8,0.8333289697692496,13.32221837154871,28.10038910987822,2.208893897852749,0.0001209015596361,0.0004755683716878317,0.0001060241312383855,0.0004963899892974115,0.0003779696168757543
34.4716878365,0.5283121635,8,0.8141636150161056,13.97092185518747,27.79880144364042,1.346194080144183,0.0001209015596361,0.0004185371295413444,5.795179798663654e-05,0.000437572532698399,0.000350229782139971
33.0283121635,1.9716878365,8,0.8170102739814872,11.69434389725645,30.11862536125992,1.120649418972729,7.282922638435132e-05,0.0004755683716878317,4.899288909189818e-05,0.000482358294171816,0.0003539533327645618
34.4716878365,1.9716878365,8,0.7987443575553321,11.90517748930946,29.29909402632438,0.02315838212692868,7.282922638435132e-05,0.0004185371295413444,9.205558401492557e-07,0.0004248268455876801,0.0003319338692025545
35.5283121635,0.5283121635,8,0.796711223211631,11.55618836695988,27.17412273278813,1.032633483184402,7.496972941062572e-05,0.000382275122508388,4.063710744875645e-05,0.0003906154334733926,0.0003297278162624603
36.9716878365,0.5283121635,8,0.7667608392193886,12.44166949210173,27.9093320038021,0.7700387319180383,7.496972941062572e-05,0.0003402367190522067,2.641198774136731e-05,0.000348898669913684,0.0003014552385634595
35.5283121635,1.9716878365,8,0.7816502348236309,11.37699735751682,28.92852534952741,-0.03824658177047463,6.074460970323663e-05,0.000382275122508388,-1.401296007424839e-06,0.0003870725496751892,0.0003146130394505033
36.9716878365,1.9716878365,8,0.751339448727803,12.0852168887542,29.45988238549022,-0.4857091432567698,6.074460970323663e-05,0.0003402367190522067,-1.562641571481395e-05,0.0003457933270516579,0.0002893111160986443
38.0283121635,0.5283121635,8,0.7410093570988369,11.13030895044395,28.09567806785143,0.7168504350031286,5.073714648507275e-05,0.0003127600354568857,2.214289835256158e-05,0.0003172353255647391,0.0002818749283752204
39.4716878365,0.5283121635,8,0.7001243603950877,12.06198104843259,29.22938137630621,0.5883386737393461,5.073714648507275e-05,0.0002797307433039642,1.569553764392427e-05,0.0002845113736457683,0.000256653103809719
38.0283121635,1.9716878365,8,0.7254313439059775,11.20970420438568,29.63808311838265,-0.3736328144343925,4.428978577643554e-05,0.0003127600354568856,-1.088639380035999e-05,0.0003159741788312823,0.0002715502796067887
39.4716878365,1.9716878365,8,0.6843504520446746,12.01809050921532,30.59729846264867,-0.6839239718916973,4.428978577643554e-05,0.0002797307433039642,-1.733375450899729e-05,0.0002834803404051152,0.0002483286952759121
40.5283121635,0.5283121635,8,0.6663919390131889,11.15849271017538,29.67671427091013,0.6020509160849633,3.586785409332835e-05,0.0002579035148139708,1.443732299043613e-05,0.000260585771020264,0.0002395927337426631
41.97168783650001,0.5283121635,8,0.6154663531399907,12.00934232188976,30.79687336312122,0.52977634370969,3.586785409332835e-05,0.0002312997097412801,1.10216902585392e-05,0.000234193931415266,0.0002182047604870589
40.5283121635,1.9716878365,8,0.6507139307678758,11.28521168993846,30.97196071327237,-0.5311978378617213,3.245222136143149e-05,0.0002579035148139708,-1.216648208225457e-05,0.0002600795671863138,0.0002325233350810569
41.97168783650001,1.9716878365,8,0.6001666149535351,12.03193933191619,31.90840542864181,-0.7787812140406077,3.245222136143149e-05,0.0002312997097412801,-1.55821148141515e-05,0.0002338249421014202,0.0002125638723258267
43.0283121635,0.5283121635,8,0.5750198334717874,11.33750155212256,31.23510751222893,0.5850105853748767,2.657046103881986e-05,0.0002138507863552292,1.101247787921962e-05,0.0002156357705926489,0.0002039252674244792
44.4716878365,0.5283121635,8,0.5164645021182878,12.05071561357731,32.14316107011876,0.5359191351703619,2.657046103881986e-05,0.0001927832461978253,8.866677007469087e-06,0.0001947066470230643,0.0001863009401251295
43.0283121635,1.9716878365,8,0.5602592595368052,11.41674797751674,32.24134422578074,-0.5527025664515401,2.442466016706934e-05,0.0002138507863552292,-1.005506227818434e-05,0.0002153584801853315,0.0001991800116528795
44.4716878365,1.9716878365,8,0.5026885458136702,12.03833079768087,32.96999410860826,-0.7584536244278151,2.442466016706934e-05,0.0001927832461978253,-1.220086314993488e-05,0.0001945157437577994,0.0001825740870466406
45.52831216350001,0.5283121635,8,0.4715664107397048,11.47421448171517,32.44055660404175,0.6104035839801233,2.037160634191354e-05,0.0001790772037788622,9.24095055856794e-06,0.0001803506164165207,0.0001746438918331258
46.97168783650001,0.5283121635,8,0.408913939610265,12.02789030377702,33.05984554454279,0.5703839903269576,2.037160634191354e-05,0.0001626991396753728,7.719809733978469e-06,0.0001640603856121909,0.0001604205709310834
45.52831216350001,1.9716878365,8,0.4587162931286711,11.47878100695369,33.16081171348057,-0.4829004094945819,1.885046551732411e-05,0.0001790772037788621,-7.137113544921454e-06,0.0001801373202819241,0.0001715497048980531
46.97168783650001,1.9716878365,8,0.3974651689057858,11.95534557246562,33.62380471920225,-0.652112479263001,1.885046551732411e-05,0.0001626991396753728,-8.658254369510926e-06,0.0001639018998843206,0.0001580364573510153
48.0283121635,0.5283121635,8,0.3623524659021792,11.45696487354505,33.17439091420173,0.6486062865571737,1.587518859977251e-05,0.0001521098629571897,8.137489780774992e-06,0.0001530442465168145,0.000151080853094407
49.47168783650001,0.5283121635,8,0.2994085608748985,11.8550720168187,33.51776153290351,0.6107464999003586,1.587518859977251e-05,0.000139557485049967,6.974067518302064e-06,0.0001405440573465312,0.0001397875903372074
48.0283121635,1.9716878365,8,0.3520452274421613,11.39087904168884,33.64781715299405,-0.3575809789800912,1.47117663372996e-05,0.0001521098629571897,-4.414888126447712e-06,0.0001528515361264089,0.000149133913431054
49.47168783650001,1.9716878365,8,0.2906710020776797,11.72784174315571,33.86701388049278,-0.4946071647840921,1.47117663372996e-05,0.0001395574850499671,-5.578310388920627e-06,0.0001403862047198109,0.0001383249586711104
50.5283121635,0.5283121635,8,0.2538887726947783,11.23656062075798,33.46396805629813,0.6824281945260029,1.231159538312277e-05,0.0001314756375371073,7.317173842734124e-06,0.0001321521439977004,0.0001324166254088236
51.97168783650001,0.5283121635,8,0.1940142693065149,11.49835221750199,33.58969611892201,0.644107750942726,1.231159538312277e-05,0.0001219479974192344,6.393242226643628e-06,0.000122651238185856,0.0001235720374800144
50.5283121635,1.9716878365,8,0.2463328776917467,11.11824137672395,33.74483078050432,-0.2082444695679155,1.13876637670323e-05,0.0001314756375371073,-2.210466275138828e-06,0.0001319771390523244,0.0001312500196458133
51.97168783650001,1.9716878365,8,0.1879887279621768,11.33423282257378,33.77829211403647,-0.3181458023412242,1.13876637670323e-05,0.0001219479974192344,-3.134397891229324e-06,0.0001224985925866205,0.0001227298815273715
53.0283121635,0.5283121635,8,0.1517642259450472,10.80789910104005,33.4065525548995,0.704414729841651,9.266332922783962e-06,0.0001158341252516909,6.643574830372721e-06,0.0001162990887407277,0.0001178349732368413
54.4716878365,0.5283121635,8,0.09755994011493455,10.95890778542769,33.3827435945206,0.6654995711346714,9.266332922783962e-06,0.0001086583559761436,5.899556996345479e-06,0.0001091325141085404,0.0001110056101663486
53.0283121635,1.9716878365,8,0.1468326494168631,10.65914480737812,33.5478779981259,-0.05675636559807615,8.522315088756719e-06,0.0001158341252516909,-5.321944451745216e-07,0.0001161478197934003,0.0001171899486422979
54.4716878365,1.9716878365,8,0.09398702586208219,10.77759936860852,33.4587374243029,-0.1445331103388621,8.522315088756719e-06,0.0001086583559761436,-1.276212279201737e-06,0.0001089957913719662,0.0001105747086475533
55.5283121635,0.5283121635,8,0.06025123993995735,10.19049824966369,33.11054486667977,0.7135161882048874,6.513611686158421e-06,0.0001040717999642751,6.074101662314929e-06,0.00010436385408993,0.0001066152146569379
56.97168783650001,0.5283121635,8,0.01364444432401948,10.25573972574209,32.99203756027043,0.6749322705131686,6.513611686158421e-06,9.871686518310429e-05,5.474149897604551e-06,9.900722078377903e-05,0.0001014497941298884
55.5283121635,1.9716878365,8,0.05761377930306705,10.03063639540849,33.15635605180849,0.08471661989648088,5.913659921448063e-06,0.0001040717999642751,7.191668811441619e-07,0.0001042409205733146,0.0001063137260415833
56.97168783650001,1.9716878365,8,0.01213201566949104,10.07390765452732,32.99323648483803,0.01472109959665117,5.913659921448063e-06,9.87168651831043e-05,1.192151164338247e-07,9.889387216287835e-05,0.0001012877450661556
58.0283121635,0.5283121635,8,0,9.55120447869789,32.20306918933661,0.7108059311993349,4.801398980363959e-06,9.540885782291884e-05,5.686447449594679e-06,9.56141800442857e-05,9.817199416537086e-05
59.47168783650001,0.5283121635,8,0,9.244312028776891,30.97549938965262,0.64927269132131,4.801398980363959e-06,9.172614842386685e-05,5.194181530570481e-06,9.192512984887294e-05,9.438229865193018e-05
58.0283121635,1.9716878365,8,0,9.387115839023155,32.16204702941793,0.2504672563178366,4.309133061339754e-06,9.540885782291884e-05,2.003738050542693e-06,9.551662819583755e-05,9.809260291226372e-05
59.47168783650001,1.9716878365,8,0,9.080223389102157,30.93447722973393,0.1889340164398123,4.309133061339754e-06,9.172614842386685e-05,1.511472131518498e-06,9.183352985930445e-05,9.438929318548276e-05
60.5283121635,0.5283121635,8,0,8.566731649729288,30.10386821669893,0.6627298070402656,3.330446705774571e-06,8.947899297365314e-05,5.301838456322125e-06,8.961939970981474e-05,9.199132710107917e-05
61.9716878365,0.5283121635,8,0,8.362012194421105,29.28499039546621,0.6077690788681569,3.330446705774571e-06,8.702235950995496e-05,4.862152630945255e-06,8.71539052139556e-05,8.924876685786537e-05
60.5283121635,1.9716878365,8,0,8.420169707936994,30.06722773125086,0.3556506240779925,2.89076088039769e-06,8.947899297365314e-05,2.84520499262394e-06,8.954827903299834e-05,9.204606462246891e-05
61.9716878365,1.9716878365,8,0,8.215450252628811,29.24834991001813,0.300689895905888,2.89076088039769e-06,8.702235950995495e-05,2.405519167247104e-06,8.708697270188854e-05,8.934755486107722e-05
63.0283121635,0.5283121635,8,0,7.583098822723636,28.60848481886442,0.6029163388183214,1.379128377624098e-06,8.548067236218724e-05,4.823330710546572e-06,8.555980132132857e-05,8.750449648260849e-05
64.47168783650001,0.5283121635,8,0,7.436820976593779,28.02337343434499,0.5569567208502932,1.379128377624098e-06,8.372533820862895e-05,4.455653766802346e-06,8.379594667092246e-05,8.548162143828063e-05
63.0283121635,1.9716878365,8,0,7.460539841475569,28.57784507355241,0.3834995696235393,1.011451433879896e-06,8.548067236218724e-05,3.067996556988315e-06,8.551417825677532e-05,8.762529532418888e-05
64.47168783650001,1.9716878365,8,0,7.314261995345714,27.99273368903299,0.3375399516555124,1.011451433879896e-06,8.372533820862898e-05,2.700319613244099e-06,8.375321578995782e-05,8.561850452678152e-05
65.5283121635,0.5283121635,8,0,6.650132320367563,27.47261659998159,0.545474868108427,-6.976698548090692e-07,8.259226726364702e-05,4.363798944867416e-06,8.264938608151436e-05,8.417238954533588e-05
66.97168783650001,0.5283121635,8,0,6.538442883963889,27.02585885436689,0.508182866430034,-6.976698548090692e-07,8.125199402680293e-05,4.065462931440271e-06,8.130238420348245e-05,8.261837653909708e-05
65.5283121635,1.9716878365,8,0,6.550686982558515,27.44775526552932,0.377940713502914,-9.960058682362104e-07,8.259226726364702e-05,3.023525708023312e-06,8.261959980412666e-05,8.431565900412989e-05
66.97168783650001,1.9716878365,8,0,6.43899754615484,27.00099751991462,0.3406487118245247,-9.960058682362104e-07,8.125199402680291e-05,2.725189694596198e-06,8.127456181465434e-05,8.276300963908801e-05
68.0283121635,0.5283121635,8,0,5.782916352773441,26.55888588764792,0.4949552067639719,-2.741776381243328e-06,8.036210175825459e-05,3.959641654111775e-06,8.0409241175455e-05,8.158901005447366e-05
69.47168783650001,0.5283121635,8,0,5.692003214923769,26.19523333624923,0.4649441223369016,-2.741776381243328e-06,7.927114410405853e-05,3.719552978695213e-06,7.931329589911773e-05,8.033074152499314e-05
68.0283121635,1.9716878365,8,0,5.702886794301265,26.53887849802988,0.3585854999894652,-2.981865056659854e-06,8.036210175825459e-05,2.868683999915722e-06,8.038677934522513e-05,8.17323430778662e-05
69.47168783650001,1.9716878365,8,0,5.611973656451593,26.17522594663119,0.3285744155623966,-2.981865056659854e-06,7.927114410405853e-05,2.628595324499173e-06,7.929213953698446e-05,8.046915903186803e-05
70.5283121635,0.5283121635,8,0,4.982896914218102,25.78496238600647,0.4517686725222897,-4.682699783307249e-06,7.852556210384621e-05,3.614149380178318e-06,7.856478873991044e-05,7.947536462703265e-05
71.97168783650001,0.5283121635,8,0,4.904062726578148,25.46962563544665,0.4276653333271458,-4.682699783307249e-06,7.757955185216676e-05,3.421322666617166e-06,7.76151100547852e-05,7.839670001156508e-05
70.5283121635,1.9716878365,8,0,4.918621343031052,25.76889349320971,0.3335173910623581,-4.875526496868397e-06,7.852556210384621e-05,2.668139128498865e-06,7.854689619538684e-05,7.960944196688097e-05
71.97168783650001,1.9716878365,8,0,4.839787155391098,25.45355674264989,0.3094140518672145,-4.875526496868397e-06,7.757955185216676e-05,2.475312414937716e-06,7.759812497049767e-05,7.852383531110066e-05
73.0283121635,0.5283121635,8,0,4.247000014419379,25.09737589050541,0.4151291839635336,-6.487500666262312e-06,7.691400283808178e-05,3.321033471708269e-06,7.694705048790922e-05,7.764321339093084e-05
74.47168783650001,0.5283121635,8,0,4.174308058602266,24.80660806723695,0.395769778430302,-6.487500666262312e-06,7.604169936827643e-05,3.166158227442416e-06,7.60720549032961e-05,7.666331427591476e-05
73.0283121635,1.9716878365,8,0,4.195374932997423,25.08446962014992,0.3060912502378618,-6.642375910528178e-06,7.691400283808178e-05,2.448730001902895e-06,7.693193980403524e-05,7.776520703263587e-05
74.47168783650001,1.9716878365,8,0,4.12268297718031,24.79370179688146,0.2867318447046349,-6.642375910528178e-06,7.604169936827643e-05,2.293854757637079e-06,7.605760556787608e-05,7.677820268750372e-05
75.5283121635,0.5283121635,8,0,3.57121234485522,24.45865063726888,0.3839418851644197,-8.139041006278401e-06,7.541071216337624e-05,3.071535081315358e-06,7.543893230135753e-05,7.596013248768387e-05
76.97168783650001,0.5283121635,8,0,3.500246875440127,24.17478875960851,0.3683971557443502,-8.139041006278401e-06,7.455912653039513e-05,2.947177245954802e-06,7.458537589558975e-05,7.501890323021437e-05
75.5283121635,1.9716878365,8,0,3.52975973306836,24.44828748432217,0.2774936810417805,-8.263398841638981e-06,7.541071216337624e-05,2.219949448334244e-06,7.542543388726838e-05,7.60700613067802e-05
76.97168783650001,1.9716878365,8,0,3.458794263653267,24.1644256066618,0.2619489516217139,-8.263398841638981e-06,7.455912653039513e-05,2.095591612973711e-06,7.457238017592261e-05,7.512238742075152e-05
78.0283121635,0.5283121635,8,0,2.952073565468873,23.84037923144326,0.3571252017530591,-9.625667975654211e-06,7.392755468824332e-05,2.857001614024473e-06,7.395197048406194e-05,7.43264602645858e-05
79.47168783650001,0.5283121635,8,0,2.879248504762133,23.5490789886163,0.3446637671045211,-9.625667975654211e-06,7.305365395976243e-05,2.757310136836169e-06,7.307663626739064e-05,7.337590015853396e-05
78.0283121635,1.9716878365,8,0,2.918843073072755,23.83207160834423,0.2478876106929487,-9.725359452842565e-06,7.392755468824332e-05,1.98310088554359e-06,7.393930603243215e-05,7.442559536976496e-05
79.47168783650001,1.9716878365,8,0,2.846018012366015,23.54077136551727,0.2354261760444112,-9.725359452842565e-06,7.305365395976243e-05,1.88340940835529e-06,7.306436552753344e-05,7.346959797010729e-05
80.5283121635,0.5283121635,8,0,2.387304718711134,23.21926517008909,0.3336943111115437,-1.093603703619565e-05,7.239180476931617e-05,2.66955448889235e-06,7.241318025849434e-05,7.266159275825727e-05
81.97168783650001,0.5283121635,8,0,2.309445978140841,22.90783020780792,0.3237371544499476,-1.093603703619565e-05,7.145749988247267e-05,2.589897235599581e-06,7.147784708416859e-05,7.166062875444784e-05
80.5283121635,1.9716878365,8,0,2.360752300946883,23.21262706564803,0.2169062002561072,-1.10156942894884e-05,7.239180476931617e-05,1.735249602048858e-06,7.24008290341184e-05,7.275173230593611e-05
81.97168783650001,1.9716878365,8,0,2.282893560376591,22.90119210336686,0.2069490435945136,-1.10156942894884e-05,7.145749988247269e-05,1.655592348756109e-06,7.146580776350369e-05,7.174648423798554e-05
83.02831216350002,0.5283121635,8,0,1.876108890360423,22.57467740641024,0.3127607254684428,-1.205619347597484e-05,7.073808058822442e-05,2.502085803747543e-06,7.075697985605049e-05,7.089591104251009e-05
84.47168783650002,0.5283121635,8,0,1.79017679227112,22.23094901405302,0.3048397567441363,-1.205619347597484e-05,6.970689541115278e-05,2.43871805395309e-06,6.972507605869138e-05,6.980762740376893e-05
83.02831216350002,1.9716878365,8,0,1.854986307095619,22.56939676059404,0.1838625783344879,-1.211956122576925e-05,7.073808058822442e-05,1.470900626675903e-06,7.074460798321978e-05,7.097908197340259e-05
84.47168783650002,1.9716878365,8,0,1.769054209006315,22.22566836823682,0.1759416096101813,-1.211956122576925e-05,6.970689541115278e-05,1.40753287688145e-06,6.971294786152244e-05,6.988774806458e-05
85.5283121635,0.5283121635,8,0,1.419375330198211,21.88699411075002,0.2935011600243412,-1.296759423196574e-05,6.89028808902415e-05,2.348009280194729e-06,6.891971239870944e-05,6.896687952091052e-05
86.97168783650002,0.5283121635,8,0,1.322256718183668,21.49851966269185,0.2872242773101408,-1.296759423196574e-05,6.773745754606698e-05,2.297794218481126e-06,6.775380964729649e-05,6.775819722722882e-05
85.5283121635,1.9716878365,8,0,1.402636976293712,21.8828095222739,0.1478232420025283,-1.301780929367924e-05,6.89028808902415e-05,1.182585936020226e-06,6.890714854424152e-05,6.904524887571829e-05
86.97168783650002,1.9716878365,8,0,1.305518364279169,21.49433507421573,0.1415463592883287,-1.301780929367924e-05,6.773745754606698e-05,1.13237087430663e-06,6.774142694900043e-05,6.783483219513731e-05
88.02831216350002,0.5283121635,8,0,1.019897621951396,21.13634724955517,0.2751150274510225,-1.364540540939967e-05,6.682039310101542e-05,2.20092021960818e-06,6.68354403143291e-05,6.682002749284943e-05
89.47168783650001,0.5283121635,8,0,0.9082273458157406,20.68966614501255,0.2701363204888121,-1.364540540939967e-05,6.548034978738756e-05,2.161090563910497e-06,6.549510301717556e-05,6.546558240597422e-05
88.02831216350002,1.9716878365,8,0,1.006621070052143,21.13302811158036,0.1076096132475382,-1.368523506509743e-05,6.682039310101542e-05,8.60876905980306e-07,6.682269445521639e-05,6.689591454993755e-05
89.47168783650001,1.9716878365,8,0,0.8949507939164878,20.68634700703774,0.1026309062853262,-1.368523506509743e-05,6.548034978738756e-05,8.210472502826095e-07,6.548247855477382e-05,6.55411605196008e-05
90.52831216350002,0.5283121635,8,0,0.6826687867956434,20.30154108914139,0.2567755270866488,-1.405669275356705e-05,6.441879645581592e-05,2.05420421669319e-06,6.443223706130587e-05,6.441916591109971e-05
91.97168783650001,0.5283121635,8,0,0.5526542598545472,19.781482981377,0.2527682438513493,-1.405669275356705e-05,6.285862213252277e-05,2.022145950810794e-06,6.28719106691153e-05,6.291474796797814e-05
90.52831216350002,1.9716878365,8,0,0.6719826981681845,20.29886956698452,0.06175373667500636,-1.408875101944943e-05,6.441879645581592e-05,4.940298934000509e-07,6.441957365217247e-05,6.449508199475097e-05
91.97168783650001,1.9716878365,8,0,0.5419681712270883,19.77881145922014,0.05774645343970682,-1.408875101944943e-05,6.285862213252277e-05,4.619716275176545e-07,6.285931551506713e-05,6.299189634636976e-05
93.02831216350002,0.5283121635,8,0,0.4153022040657977,19.35899386521082,0.237573216791074,-1.41582280391581e-05,6.161653860542198e-05,1.900585734328592e-06,6.162845437353103e-05,6.177833575047844e-05
94.47168783650002,0.5283121635,8,0,0.2625304557212278,18.74790687183254,0.2342027461787629,-1.41582280391581e-05,5.978327762528715e-05,1.873621969430104e-06,5.979514476248232e-05,6.017801777691682e-05
93.02831216350002,1.9716878365,8,0,0.4063142824329828,19.35674688480262,0.008415594274220376,-1.418519180405655e-05,6.161653860542198e-05,6.732475419376301e-08,6.161655355436051e-05,6.18569482337155e-05
94.47168783650002,1.9716878365,8,0,0.253542534088413,18.74565989142434,0.005045123661910772,-1.418519180405655e-05,5.978327762528715e-05,4.036098929528618e-08,5.9783283131043e-05,6.025939797423902e-05
95.5283121635,0.5283121635,8,0,0.2286308769417689,18.2815831158418,0.2164475702538405,-1.389364768645978e-05,5.831816126914033e-05,1.731580562030724e-06,5.832854025144623e-05,5.904800241379872e-05
96.97168783650002,0.5283121635,8,0,0.04783826493938292,17.55841266783225,0.2133412936265961,-1.389364768645978e-05,5.61486499251117e-05,1.706730349012769e-06,5.615904541583176e-05,5.756106100185704e-05
95.5283121635,1.9716878365,8,0,0.2203474726024446,18.27951226475697,-0.05474134774973918,-1.391849789947775e-05,5.831816126914033e-05,-4.379307819979135e-07,5.831882499587513e-05,5.913176997356632e-05
96.97168783650002,1.9716878365,8,0,0.03955486060005953,17.55634181674743,-0.05784762437698267,-1.391849789947775e-05,5.614864992511171e-05,-4.627809950158614e-07,5.614941406322911e-05,5.764858324303669e-05
98.02831216350002,0.5283121635,8,0,0.1375538233348532,17.03727884082063,0.1920991015108537,-1.318965083798497e-05,5.440924923195812e-05,1.536792812086829e-06,5.441798246233459e-05,5.673834494794968e-05
99.47168783650002,0.5283121635,8,0,-0.07766448704760798,16.17640559929078,0.1888091775814156,-1.318965083798497e-05,5.182662950736858e-05,1.510473420651325e-06,5.183540124180601e-05,5.597758430031833e-05
98.02831216350002,1.9716878365,8,0,0.1287806928563517,17.035085558201,-0.1307283640628366,-1.321597022942047e-05,5.440924923195812e-05,-1.045826912502692e-06,5.441329242970977e-05,5.682812294625509e-05
99.47168783650002,1.9716878365,8,0,-0.08643761752610768,16.17421231667116,-0.1340182879922744,-1.321597022942047e-05,5.18266295073686e-05,-1.072146303938195e-06,5.183104745663798e-05,5.606977046028907e-05
0.5283121635,3.0283121635,8,0,-0.1309014409596209,-0.3982966961658497,0.2457317725055691,-1.00247254138107e-07,-1.169828274963022e-06,1.965854180044553e-06,4.839557807064564e-07,1.320827294274455e-06
1.9716878365,3.0283121635,8,0,-0.1359121607717186,-0.4183395754142408,0.2865991393822214,-1.00247254138107e-07,-1.229956912708195e-06,2.292793115057771e-06,6.128987167646718e-07,1.476755707651667e-06
0.5283121635,4.4716878365,8,0,-0.02192179595516559,-0.3710517849147359,0.238215692787314,2.266916808752588e-07,-1.169828274963022e-06,1.905725542298512e-06,7.097506511686144e-07,1.568886144513945e-06
1.9716878365,4.4716878365,8,0,-0.02693251576726335,-0.391094664163127,0.2790830596640748,2.266916808752588e-07,-1.229956912708195e-06,2.232664477312598e-06,8.312792147612206e-07,1.753093969209327e-06
3.0283121635,3.0283121635,8,0,-0.4323730658893297,-0.4525690720912722,0.605298989976222,-1.021538553172837e-06,-1.102322577980607e-06,4.842391919809776e-06,1.35960229418913e-06,1.668575074258989e-06
4.4716878365,3.0283121635,8,0,-0.3983037221371605,-0.3162916970825955,0.6758594810803306,-1.021538553172837e-06,-6.934904529545772e-07,5.406875848642644e-06,1.850894716325598e-06,2.036706916350942e-06
3.0283121635,4.4716878365,8,0,-0.2442117562785251,-0.4055287446887066,0.6564030056044486,-4.570546243403149e-07,-1.102322577981041e-06,5.251224044835589e-06,1.86567170988653e-06,1.972180365412989e-06
4.4716878365,4.4716878365,8,0,-0.2101424125263559,-0.2692513696800299,0.7269634967085165,-4.570546243403149e-07,-6.934904529550109e-07,5.815707973668132e-06,2.334983512632009e-06,2.386527706418623e-06
5.528312163500001,3.0283121635,8,0,-0.8230274559538764,-0.3305301504878653,0.8550109100513363,-2.369263738662112e-06,-3.992745167980677e-07,6.840087280410691e-06,2.174791546728012e-06,2.326257662695531e-06
6.9716878365,3.0283121635,8,0,-0.7901123925384658,-0.1988698968262227,0.9801220787388897,-2.369263738662112e-06,-4.293755813140204e-09,7.840976629911118e-06,2.908157074316509e-06,2.749193171020113e-06
5.528312163500001,4.4716878365,8,0,-0.489397672787045,-0.2471227046962929,0.9043835051744794,-1.368374389161509e-06,-3.992745167985014e-07,7.235068041395835e-06,2.766016780767066e-06,2.703084623213412e-06
6.9716878365,4.4716878365,8,0,-0.4564826093716253,-0.1154624510346143,1.029494673862033,-1.368374389161509e-06,-4.293755813465465e-09,8.235957390896262e-06,3.48774397298956e-06,3.15358686241526e-06
8.028312163500001,3.0283121635,8,0,-1.271723193163524,-0.2386797303175336,0.9705484514099512,-3.878570433869251e-06,2.536034175147119e-07,7.76438761127961e-06,2.585259541281556e-06,3.07189874837857e-06
9.471687836500001,3.0283121635,8,0,-1.245922574854746,-0.1354772570824201,1.181999456321972,-3.878570433869251e-06,5.632108372200526e-07,9.455995650575776e-06,3.565950993660697e-06,3.530611273320626e-06
8.028312163500001,4.4716878365,8,0,-0.707853846731558,-0.09771239370981309,1.009249378873241,-2.186962394573135e-06,2.536034175138445e-07,8.073995030985926e-06,3.25071773142466e-06,3.488436783098322e-06
9.471687836500001,4.4716878365,8,0,-0.6820532284227344,0.005490079525481195,1.220700383785275,-2.186962394573135e-06,5.632108372197273e-07,9.765603070282201e-06,4.260856624357562e-06,3.9527615401519e-06
10.5283121635,3.0283121635,8,0,-1.729743622200084,-0.196863098914821,0.9704622094295159,-5.37768911190841e-06,7.538329812326397e-07,7.763697675436127e-06,2.634549589879237e-06,3.921541658056503e-06
11.9716878365,3.0283121635,8,0,-1.712145125299556,-0.1264691113127113,1.30070302869951,-5.37768911190841e-06,9.650149440389687e-07,1.040562422959608e-05,3.886833485417665e-06,4.530870806480719e-06
10.5283121635,4.4716878365,8,0,-0.8491014374801078,0.02329744726517302,0.9968599547802528,-2.735762557748483e-06,7.538329812326397e-07,7.974879638242022e-06,3.361505265347392e-06,4.3458483486266e-06
11.9716878365,4.4716878365,8,0,-0.8315029405796255,0.09369143486710196,1.327100774050261,-2.735762557748483e-06,9.650149440384266e-07,1.061680619240208e-05,4.736288043629208e-06,4.955456724156656e-06
13.0283121635,3.0283121635,8,0,-2.124678764812839,-0.1960528567449882,0.8749747116114777,-6.642129762005093e-06,1.072373870266308e-06,6.999797692891821e-06,2.423546336812998e-06,5.144206927204654e-06
14.4716878365,3.0283121635,8,0,-2.11783475828725,-0.1686768306426333,1.359704890678811,-6.642129762005093e-06,1.154501948573373e-06,1.087763912543049e-05,3.947794625122615e-06,6.210543222786667e-06
13.0283121635,4.4716878365,8,0,-0.8320649539666058,0.1271005959665699,0.8852407213998201,-2.764288329466394e-06,1.072373870266308e-06,7.081925771198561e-06,3.181251774897493e-06,5.578801103426806e-06
14.4716878365,4.4716878365,8,0,-0.8252209474410171,0.1544766220689248,1.369970900467181,-2.764288329466394e-06,1.154501948573373e-06,1.095976720373744e-05,5.014759170377499e-06,6.672201242747686e-06
15.5283121635,3.0283121635,8,0,-2.348823885697883,-0.2271941434901648,0.678016665355913,-7.334481119441092e-06,1.152037849389779e-06,5.424133322847304e-06,1.944704955790296e-06,7.415597728331667e-06
16.9716878365,3.0283121635,8,0,-2.35622889590393,-0.256814184314355,1.364064849383319,-7.334481119441092e-06,1.063177726917208e-06,1.091251879506655e-05,3.749182008202179e-06,9.641531567928351e-06
15.5283121635,4.4716878365,8,0,-0.5193620616247854,0.2301713125281096,0.6669091500468551,-1.846095647221801e-06,1.152037849389779e-06,5.335273200374841e-06,2.712952497520182e-06,7.944357098479287e-06
16.9716878365,4.4716878365,8,0,-0.5267670718308285,0.2005512717039374,1.352957334074275,-1.846095647221801e-06,1.063177726917262e-06,1.08236586725942e-05,5.21245615845673e-06,1.032655139231116e-05
18.0283121635,3.0283121635,8,0,-2.195204005948575,-0.2788231388262561,0.3228576772360711,-6.801594307974435e-06,8.639291605148404e-07,2.582861417888568e-06,1.075652039604057e-06,1.227794487036728e-05
19.4716878365,3.0283121635,8,0,-2.233162096306696,-0.4306555002587401,1.273454088249911,-6.801594307974435e-06,4.084320762173885e-07,1.018763270599929e-05,3.043858384130444e-06,1.725482612309042e-05
18.0283121635,4.4716878365,8,0,0.3397197567550083,0.3549078018496397,0.2659205416989641,8.031769801363148e-07,8.639291605148404e-07,2.127364333591713e-06,1.897668881135056e-06,1.312659139573556e-05
19.4716878365,4.4716878365,8,0,0.3017616663969416,0.2030754404173726,1.216516952712797,8.031769801363148e-07,4.084320762180391e-07,9.73213562170238e-06,5.47587350351977e-06,1.839424865480972e-05
20.5283121635,3.0283121635,8,0,-1.125412452329035,-0.2047481690981884,-0.5296170872314058,-3.437521312174359e-06,2.451358207490248e-07,-4.236936697851247e-06,1.210655849254209e-06,2.324791437782881e-05
21.9716878365,3.0283121635,8,0,-1.124632167524799,-0.2016270298812471,0.692033508520502,-3.437521312174359e-06,2.544992383998485e-07,5.536268068164017e-06,1.735697998792454e-06,3.464445473199136e-05
20.5283121635,4.4716878365,8,0,2.132322469676079,0.60968556140309,-0.5284466600250665,6.335683453840979e-06,2.451358207490248e-07,-4.227573280200531e-06,6.99740121775575e-06,2.447640116493063e-05
21.9716878365,4.4716878365,8,0,2.133102754480314,0.6128067006200313,0.693203935726855,6.335683453840979e-06,2.544992383998485e-07,5.54563148581484e-06,7.410149973849528e-06,3.582549358359582e-05
23.0283121635,3.0283121635,8,0,2.000840108317156,0.5759479156979332,-2.50781644715692,5.941930014056551e-06,2.423612435796616e-07,-2.006253157725536e-05,1.35203556556847e-05,4.870256335869855e-05
24.4716878365,3.0283121635,8,0,1.997296355300266,0.5617729036303745,-1.235452147148888,5.941930014056551e-06,1.998362073769855e-07,-9.883617177191108e-06,8.786159346166262e-06,7.571349003265528e-05
23.0283121635,4.4716878365,8,0,5.393811575005224,1.42419078236995,-2.513132076682268,1.612084441412075e-05,2.423612435796616e-07,-2.010505661345814e-05,2.099116497229908e-05,4.857839710391425e-05
24.4716878365,4.4716878365,8,0,5.390267821988334,1.410015770302391,-1.240767776674223,1.612084441412075e-05,1.998362073769855e-07,-9.926142213393784e-06,1.754126246104572e-05,7.207088504826427e-05
25.5283121635,3.0283121635,8,0.05802715557313601,13.11384714621982,8.240679871315207,-12.40216790257882,3.755072896222707e-05,1.685727774975755e-05,-0.0001053293030766705,8.087541336565193e-05,0.0001063609039758529
26.9716878365,3.0283121635,8,0.421350065995316,10.25231195231285,13.8483392644758,-8.908685075247094,3.755072896222707e-05,6.24087794057883e-05,-0.0001231651062478128,0.0001128040450054918,0.0001630802693188668
25.5283121635,4.4716878365,8,0,7.97641507617468,7.262003065842905,-7.472225177579991,1.971492579108465e-05,1.685727774975755e-05,-5.977780142063993e-05,4.820913510184308e-05,9.639066133097253e-05
26.9716878365,4.4716878365,8,0.2967559166794398,8.278852043926285,15.7849020310999,-6.822663526794043,1.971492579108465e-05,6.24087794057883e-05,-7.761360459178227e-05,8.535247450139487e-05,0.0001393410378225148
28.0283121635,3.0283121635,8,0.5927172504969914,5.183271128459681,17.96769877873801,-15.09030588005041,5.431874025551459e-06,0.0001309901272624358,-0.0002964094285547724,0.0002291639629435924,0.0002099268781969866
29.4716878365,3.0283121635,8,0.7400286091152355,6.380864521702932,23.75829327989493,-9.774111031129793,5.431874025551459e-06,0.0002728063524102866,-0.0003007749736727696,0.000340337089849832,0.0002811948284767448
28.0283121635,4.4716878365,8,0.46616248784436,6.017035761610287,23.35658508250552,-10.31595638786521,1.066328907554437e-06,0.0001309901272624358,-0.0001545932034069213,0.0001669975946257604,0.0001733305790783904
29.4716878365,4.4716878365,8,0.6284294878992008,8.579305131869411,33.82195005466778,-7.383047949038252,1.066328907554437e-06,0.0002728063524102868,-0.0001589587485249182,0.0002943454605550323,0.0002232413562278067
30.5283121635,3.0283121635,8,0.7794206084078215,3.158412220644151,24.25853780655543,-4.01685009438134,-4.216128747139415e-05,0.0003404696633823023,-0.0001456836040896496,0.000353867497886534,0.0003125400896976676
31.9716878365,3.0283121635,8,0.7940546142666838,3.687587570518743,25.60400354621185,-3.206651623919634,-4.216128747139415e-05,0.0003835130416261892,-0.00012456318406947,0.0003924384873604446,0.0003269089856536298
30.5283121635,4.4716878365,8,0.6855816689661974,6.715613801520567,35.13199824047516,-4.033996063419636,-2.104086745121446e-05,0.0003404696633823023,-0.0001026402258457621,0.0003476138922871094,0.0002489552363463709
31.9716878365,4.4716878365,8,0.7218258256055505,6.939276666394235,35.07338908030773,-2.834588085290906,-2.104086745121446e-05,0.0003835130416261893,-8.151980582558253e-05,0.0003875788505247164,0.0002692960861435938
33.0283121635,3.0283121635,8,0.7933558812858212,9.515919024282667,27.11368045892707,1.571725216735944,4.239170495183232e-05,0.0003830307039060657,6.084761478878135e-05,0.0003877638364987654,0.0003261791957266184
34.4716878365,3.0283121635,8,0.7764269455032116,9.468996550936053,26.02893250198448,0.7199916751632257,4.239170495183232e-05,0.0003386695545043382,2.576309302688596e-05,0.0003417981747728417,0.0003098164766111243
33.0283121635,4.4716878365,8,0.7297510642531314,9.284389500878314,34.6691099030284,0.5569312156348588,7.307183189937018e-06,0.0003830307039060657,1.648646538705378e-05,0.0003832777280659897,0.000274315126310543
34.4716878365,4.4716878365,8,0.7192044021669397,8.608684959506508,31.86995874765846,-0.6527815447883267,7.307183189937018e-06,0.0003386695545043383,-1.859805637484163e-05,0.0003390035485430781,0.0002676865492552371
35.5283121635,3.0283121635,8,0.7598488773183146,10.02836990231944,25.91870982454056,1.092730243289941,4.728612425785586e-05,0.0003119584646538386,3.64014202752932e-05,0.0003165700442485658,0.0002958444134313912
36.9716878365,3.0283121635,8,0.7293180724278112,10.65783149039001,26.63195188464197,0.4688642030080293,4.728612425785586e-05,0.0002833435594553613,1.385727395141257e-05,0.00028742922999035,0.0002740347460516693
35.5283121635,4.4716878365,8,0.7055621885393625,10.08268857797043,31.22453701927289,0.2865805572653669,2.474197793397527e-05,0.0003119584646538386,7.786515076815912e-06,0.0003129865237510816,0.0002596823503686948
36.9716878365,4.4716878365,8,0.6765479770596761,10.30495156250877,31.21625273217362,-0.5966732100838024,2.474197793397527e-05,0.0002833435594553613,-1.475763124706472e-05,0.0002846131268879413,0.0002444430493911512
38.0283121635,3.0283121635,8,0.7033723204594754,10.21660565561542,27.04878063233191,0.682106884947192,3.726595444237242e-05,0.0002642464574458611,1.839631111981926e-05,0.0002671781311496074,0.0002584519802387007
39.4716878365,3.0283121635,8,0.6622740007607349,10.96908511879722,28.14423834811996,0.2386966206721862,3.726595444237242e-05,0.0002406871096748405,5.654207759185978e-06,0.0002435878099511995,0.000237688739693135
38.0283121635,4.4716878365,8,0.6517854056861061,10.51439370001357,31.38312123075157,-0.2247305891157429,2.452385108173924e-05,0.0002642464574458611,-5.163036651201637e-06,0.0002654071174974353,0.0002329914096392471
39.4716878365,4.4716878365,8,0.6121207284414139,10.95055956231698,31.91187138252259,-0.8681290831181238,2.452385108173924e-05,0.0002406871096748405,-1.790514001183483e-05,0.0002422643206395232,0.0002169442489832829
40.5283121635,3.0283121635,8,0.6289200438229898,10.46180633465074,28.70427276601297,0.5003985421125,2.833449202267476e-05,0.0002249763868779207,1.07879400928635e-05,0.0002268819250547529,0.0002234369111763704
41.97168783650001,3.0283121635,8,0.5790576509214275,11.18833929237965,29.84437262955262,0.1554186008430962,2.833449202267476e-05,0.0002056132417423012,2.953727058981864e-06,0.0002075668828829167,0.0002052634321117208
40.5283121635,4.4716878365,8,0.5803088746067389,10.73631113620283,32.1905130952083,-0.4498671818590391,2.050027898879316e-05,0.0002249763868779207,-8.575205042756189e-06,0.0002259898297756447,0.0002056817380702092
41.97168783650001,4.4716878365,8,0.5329654308160165,11.19382063653065,32.80735883901951,-0.9579706877478015,2.050027898879316e-05,0.0002056132417423012,-1.640941807663781e-05,0.0002069582110456198,0.0001909591466895489
43.0283121635,3.0283121635,8,0.539973790050259,10.7122694086974,30.37660952402311,0.5153538781911173,2.169001303143863e-05,0.0001926745325219614,8.96216549482989e-06,0.000193995083321817,0.0001930060201919523
44.4716878365,3.0283121635,8,0.4838282830014203,11.33205619113353,31.33351067933506,0.2346498205208467,2.169001303143863e-05,0.0001766884666817502,3.636771450947086e-06,0.000178033378828087,0.0001776916271210702
43.0283121635,4.4716878365,8,0.4962650167769078,10.83588555767186,33.03925339175152,-0.4422730403301686,1.636461898755583e-05,0.0001926745325219614,-7.023900345381356e-06,0.000193432013444505,0.0001808836176060853
44.4716878365,4.4716878365,8,0.4438041624880917,11.22342679651154,33.51629098186256,-0.8585782669397352,1.636461898755583e-05,0.0001766884666817502,-1.234929438926415e-05,0.0001776594144674359,0.0001680793516164147
45.52831216350001,3.0283121635,8,0.4411511201852476,10.87240843037208,31.72124565525304,0.6601854078876247,1.684661237239847e-05,0.0001660736250974982,9.450646594928681e-06,0.0001670596140962302,0.0001674748752309133
46.97168783650001,3.0283121635,8,0.381837078421934,11.3559544249017,32.40637879608802,0.4247674692937753,1.684661237239847e-05,0.0001530594044140054,5.497158816441665e-06,0.000154032785489072,0.0001548765830483747
45.52831216350001,4.4716878365,8,0.4042229764673067,10.80571330218825,33.62106896550703,-0.2653869454528779,1.289312459391151e-05,0.0001660736250974982,-3.563574088564223e-06,0.000166592410226159,0.0001594364204826977
46.97168783650001,4.4716878365,8,0.3493299074566178,11.09565492712257,33.89615649262309,-0.6113909175860632,1.289312459391151e-05,0.0001530594044140054,-7.517061867051158e-06,0.0001536934190228089,0.0001486277594877307
48.0283121635,3.0283121635,8,0.3379768351114245,10.87250848566396,32.60884031736629,0.8679869157732025,1.314901858713172e-05,0.0001444817754121032,1.048890083378629e-05,0.0001452683332195585,0.0001465410498091952
49.47168783650001,3.0283121635,8,0.278745324035456,11.21896936078287,33.02113851773968,0.665611396243928,1.314901858713172e-05,0.0001340614778529269,7.382816843205033e-06,0.0001348058957397105,0.000136366241673148
48.0283121635,4.4716878365,8,0.3089026796408769,10.63446238174208,33.8620430416959,0.005926442406353603,1.004293459655044e-05,0.0001444817754121032,6.860327460999531e-08,0.0001448304053531187,0.0001414041543202317
49.47168783650001,4.4716878365,8,0.254280697477568,10.82742270750693,33.94817810175521,-0.2831385001174287,1.004293459655044e-05,0.0001340614778529269,-3.037480715971266e-06,0.0001344542804226454,0.0001324775589829353
50.5283121635,3.0283121635,8,0.2360137321787159,10.68055209120296,33.04825918889858,1.086063916895864,1.01299717896775e-05,0.0001272404908647559,1.137260144733305e-05,0.0001278961566107584,0.0001296812929175859
51.97168783650001,3.0283121635,8,0.1797562446375302,10.90550932953046,33.23572969002065,0.908466577707214,1.01299717896775e-05,0.0001190255054136908,8.860454680872353e-06,0.0001196199861896836,0.0001215924814066666
50.5283121635,4.4716878365,8,0.2149385853001388,10.31778681033671,33.79557162926858,0.3098653101386217,7.617825023216823e-06,0.0001272404908647559,3.15761599626788e-06,0.0001274878780236707,0.0001265620575557055
51.97168783650001,4.4716878365,8,0.1630295263103963,10.42703434332554,33.73826910059429,0.06752983587797258,7.617825023216823e-06,0.0001190255054136908,6.454692298071818e-07,0.0001192699061470755,0.0001193272024408765
53.0283121635,3.0283121635,8,0.1400909888433103,10.29567840374171,33.12223736095417,1.282543328130568,7.498910837713184e-06,0.0001136801865822609,1.193189801702745e-05,0.0001142392383565034,0.0001163161187332662
54.4716878365,3.0283121635,8,0.08910545734472249,10.42117500015803,33.14630380321778,1.124946042964366,7.498910837713184e-06,0.0001072914894025842,9.879923440402871e-06,0.0001077798859044252,0.0001099896393406829
53.0283121635,4.4716878365,8,0.1264365422083052,9.861652897636242,33.49880599728559,0.6052922113387379,5.446936261088584e-06,0.0001136801865822609,5.543200837350708e-06,0.0001138780816214061,0.0001145737956190604
54.4716878365,4.4716878365,8,0.07925827016476328,9.904053134206857,33.3471856426562,0.4018147133184015,5.446936261088584e-06,0.0001072914894025842,3.491226260726163e-06,0.0001074580250295853,0.0001088221017870911
55.5283121635,3.0283121635,8,0.05401264821030693,9.734627993532925,32.93138970105463,1.444873838156101,5.080086757365051e-06,0.0001031649571888195,1.22189696124167e-05,0.0001036506984174632,0.0001059039117449217
56.97168783650001,3.0283121635,8,0.01007581751859142,9.783759392281455,32.84891165635179,1.304417791851956,5.080086757365051e-06,9.827975870094243e-05,1.054155714092946e-05,9.86928592414647e-05,0.0001010679757595249
55.5283121635,4.4716878365,8,0.04676769150581409,9.276193879593905,33.0503516876492,0.8738484473766099,3.40267428587783e-06,0.0001031649571888195,7.333771124539595e-06,0.0001033512393903446,0.0001050857668800813
56.97168783650001,4.4716878365,8,0.005956857694773693,9.268661693465418,32.84664047464268,0.702833066185695,3.40267428587783e-06,9.827975870094246e-05,5.656358653052394e-06,9.841994899011698e-05,0.0001006296039115731
58.0283121635,3.0283121635,8,0,9.143657421392604,32.05258816619819,1.607806733123911,3.61763321549778e-06,9.525335619472011e-05,1.286245386499128e-05,9.575495024360157e-05,9.798562776822762e-05
59.47168783650001,3.0283121635,8,0,8.8617335110903,30.92489252498898,1.43318838395861,3.61763321549778e-06,9.187026927109248e-05,1.146550707166888e-05,9.229822626806085e-05,9.440043243443446e-05
58.0283121635,4.4716878365,8,0,8.678008490285146,31.93617593342132,1.184920867670455,2.220686422175409e-06,9.525335619472011e-05,9.479366941363642e-06,9.551472406570816e-05,9.777275749266875e-05
59.47168783650001,4.4716878365,8,0,8.396084579982844,30.80848029221211,1.010302518505156,2.220686422175409e-06,9.187026927109248e-05,8.082420148041244e-06,9.207464679190144e-05,9.442387089497736e-05
60.5283121635,3.0283121635,8,0,8.237890061592084,30.11183944404547,1.624207903718564,2.271776641858293e-06,8.976757417167183e-05,1.299366322974851e-05,9.026514268443359e-05,9.212231033314168e-05
61.9716878365,3.0283121635,8,0,8.041091484837089,29.32464513702549,1.467781583284946,2.271776641858293e-06,8.740599125061189e-05,1.174225266627957e-05,8.782885929153304e-05,8.948356034009283e-05
60.5283121635,4.4716878365,8,0,7.820753207102419,30.00755523042305,1.329010038586075,1.020366078389296e-06,8.976757417167183e-05,1.06320803086886e-05,9.00876189353772e-05,9.227587996717803e-05
61.9716878365,4.4716878365,8,0,7.623954630347423,29.22036092340307,1.172583718152452,1.020366078389296e-06,8.740599125061189e-05,9.380669745219619e-06,8.766325875684981e-05,8.975634621567519e-05
63.0283121635,3.0283121635,8,0,7.323289214422592,28.67541872743242,1.542715601017335,4.941905042063556e-07,8.590270855624566e-05,1.234172480813868e-05,8.634627176186382e-05,8.779130155339716e-05
64.47168783650001,3.0283121635,8,0,7.177834066234071,28.09359813467834,1.412027326398046,4.941905042063556e-07,8.415724677798342e-05,1.129621861118437e-05,8.453690724743059e-05,8.580671456144201e-05
63.0283121635,4.4716878365,8,0,6.974787148771163,28.58829321101956,1.324532878734556,-5.513156927479325e-07,8.590270855624566e-05,1.059626302987645e-05,8.622618178795327e-05,8.812404016440601e-05
64.47168783650001,4.4716878365,8,0,6.829332000582645,28.00647261826549,1.193844604115274,-5.513156927479325e-07,8.415724677798345e-05,9.550756832922195e-06,8.442560480844517e-05,8.618403085014972e-05
65.5283121635,3.0283121635,8,0,6.445957207552036,27.5556138727013,1.432742290776355,-1.417428033994523e-06,8.302119862660251e-05,1.146193832621084e-05,8.340839214244648e-05,8.451295438337479e-05
66.97168783650001,3.0283121635,8,0,6.332767249944778,27.10285404227227,1.326115946412697,-1.417428033994523e-06,8.166291913531542e-05,1.060892757130158e-05,8.200022586522267e-05,8.296292283589064e-05
65.5283121635,4.4716878365,8,0,6.161620289248943,27.48452964312552,1.26295735436547,-2.270438788903802e-06,8.302119862660251e-05,1.010365883492376e-05,8.331937639935501e-05,8.490870592479931e-05
66.97168783650001,4.4716878365,8,0,6.048430331641685,27.03176981269649,1.156331010001812,-2.270438788903802e-06,8.166291913531542e-05,9.250648080014493e-06,8.191703795799242e-05,8.33644627466912e-05
68.0283121635,3.0283121635,8,0,5.622323699686275,26.6421797503133,1.320561696966975,-3.32230796125456e-06,8.075711624125353e-05,1.05644935757358e-05,8.108767112858792e-05,8.19310267505345e-05
69.47168783650001,3.0283121635,8,0,5.529288696599765,26.27003973796726,1.234309367335465,-3.32230796125456e-06,7.964069620421542e-05,9.874474938683719e-06,7.993348440711688e-05,8.066186576457431e-05
68.0283121635,4.4716878365,8,0,5.392317487335594,26.58467819722563,1.181009192337214,-4.012326598306601e-06,8.075711624125353e-05,9.448073538697709e-06,8.101956510545038e-05,8.233050761552915e-05
69.47168783650001,4.4716878365,8,0,5.29928248424909,26.21253818487961,1.094756862705708,-4.012326598306601e-06,7.964069620421547e-05,8.758054901645662e-06,7.986930265340016e-05,8.104993284243598e-05
70.5283121635,3.0283121635,8,0,4.856414986741443,25.8630669577834,1.215301184861794,-5.149925608654103e-06,7.887668227551372e-05,9.722409478894354e-06,7.915698328321799e-05,7.979666193073962e-05
71.97168783650001,3.0283121635,8,0,4.775506250578602,25.53943201313204,1.14569548468417,-5.149925608654103e-06,7.790577744155964e-05,9.165563877473358e-06,7.815787735957117e-05,7.870204208365952e-05
70.5283121635,4.4716878365,8,0,4.670799786267766,25.81666315766498,1.093938080617537,-5.706771210075133e-06,7.887668227551372e-05,8.751504644940295e-06,7.910245027635155e-05,8.017407904436607e-05
71.97168783650001,4.4716878365,8,0,4.589891050104928,25.49302821301363,1.024332380439916,-5.706771210075133e-06,7.790577744155966e-05,8.194659043519325e-06,7.810608215064324e-05,7.906177674102836e-05
73.0283121635,3.0283121635,8,0,4.147457282341724,25.16912966073765,1.119156900794487,-6.863440425096599e-06,7.722324908848708e-05,8.953255206355893e-06,7.746090518356712e-05,7.793665731385202e-05
74.47168783650001,3.0283121635,8,0,4.072974173647907,24.87119722596238,1.063021370630564,-6.863440425096599e-06,7.632945178416126e-05,8.504170965044515e-06,7.654621602609597e-05,7.694020708238968e-05
73.0283121635,4.4716878365,8,0,3.997762535237931,25.1317059739617,1.00743223775376,-7.312524666407976e-06,7.722324908848708e-05,8.05945790203008e-06,7.741490738645741e-05,7.828307455142144e-05
74.47168783650001,4.4716878365,8,0,3.923279426544116,24.83377353918643,0.9512967075898413,-7.312524666407976e-06,7.632945178416129e-05,7.61037366071873e-06,7.650220717567434e-05,7.726792290869747e-05
75.5283121635,3.0283121635,8,0,3.4932375638919,24.52464972728976,1.031547348989285,-8.441359577377726e-06,7.568428907621371e-05,8.25237879191428e-06,7.588618560828782e-05,7.62254308567437e-05
76.97168783650001,3.0283121635,8,0,3.420835897807684,24.23504306295289,0.9863173569329501,-8.441359577377726e-06,7.48154690832031e-05,7.890538855463601e-06,7.500200459757618e-05,7.526907612361586e-05
75.5283121635,4.4716878365,8,0,3.372624251741664,24.4944963992522,0.9229448498629619,-8.803199513828436e-06,7.568428907621371e-05,7.383558798903695e-06,7.584529884482732e-05,7.653997954211476e-05
76.97168783650001,4.4716878365,8,0,3.300222585657449,24.20488973491534,0.8777148578066271,-8.803199513828436e-06,7.481546908320313e-05,7.021718862453016e-06,7.496261900859344e-05,7.556635292221749e-05
78.0283121635,3.0283121635,8,0,2.891631373394453,23.90193756999951,0.950801398988421,-9.868329661137358e-06,7.417289512528286e-05,7.606411191907368e-06,7.434465453913637e-05,7.456640593915828e-05
79.47168783650001,3.0283121635,8,0,2.81773764775089,23.60636266742526,0.9144375995061392,-9.868329661137358e-06,7.32861704175601e-05,7.315500796049114e-06,7.34467552383089e-05,7.360303002730259e-05
78.0283121635,4.4716878365,8,0,2.794661241441694,23.87769503701132,0.8399608105230737,-1.015924005699564e-05,7.417289512528288e-05,6.71968648418459e-06,7.43065415132234e-05,7.485197246382074e-05
79.47168783650001,4.4716878365,8,0,2.720767515798129,23.58212013443707,0.8035970110407936,-1.015924005699564e-05,7.32861704175601e-05,6.428776088326349e-06,7.340980818436364e-05,7.387387537536076e-05
80.5283121635,3.0283121635,8,0,2.341330478380929,23.27800152681083,0.8748252413392672,-1.113014369062969e-05,7.261654050308989e-05,6.998601930714138e-06,7.276250213209875e-05,7.288033069204198e-05
81.97168783650001,3.0283121635,8,0,2.262768958301287,22.96375544649226,0.8456972006474781,-1.113014369062969e-05,7.167380226213418e-05,6.765577605179825e-06,7.181176942075952e-05,7.186925530128546e-05
80.5283121635,4.4716878365,8,0,2.263655703202828,23.2585828330163,0.7569829612198093,-1.136316801616399e-05,7.261654050308989e-05,6.055863689758475e-06,7.272557259455239e-05,7.314152846899066e-05
81.97168783650001,4.4716878365,8,0,2.185094183123188,22.94433675269774,0.7278549205280236,-1.136316801616399e-05,7.167380226213421e-05,5.822839364224189e-06,7.177575648653742e-05,7.211881660039661e-05
83.02831216350002,3.0283121635,8,0,1.842234104466455,22.63238099969542,0.8013306134787864,-1.221075566546367e-05,7.094983191545216e-05,6.410644907830292e-06,7.107319412461095e-05,7.109820926490388e-05
84.47168783650002,3.0283121635,8,0,1.755968643680036,22.28731915654974,0.7781081018751569,-1.221075566546367e-05,6.991464638601513e-05,6.224864815001255e-06,7.003243407787741e-05,7.000274770920179e-05
83.02831216350002,4.4716878365,8,0,1.780307406856769,22.61689932529299,0.6719324222991605,-1.239653575829273e-05,7.094983191545216e-05,5.375459378393284e-06,7.103641510359981e-05,7.134050014697478e-05
84.47168783650002,4.4716878365,8,0,1.69404194607035,22.27183748214732,0.6487099106955275,-1.239653575829273e-05,6.991464638601513e-05,5.18967928556422e-06,6.999636692931583e-05,7.023681192036319e-05
85.5283121635,3.0283121635,8,0,1.395721186622532,21.94561977886524,0.7278658589534922,-1.309018802590008e-05,6.910940634307071e-05,5.822926871627937e-06,6.921239969446911e-05,6.915790149200428e-05
86.97168783650002,3.0283121635,8,0,1.298656921600068,21.55736271877538,0.7094249449397816,-1.309018802590008e-05,6.794463516280115e-05,5.675399559518253e-06,6.804388495692587e-05,6.794520025764228e-05
85.5283121635,4.4716878365,8,0,1.346545415919334,21.93332583618944,0.5822694614197967,-1.323771533800968e-05,6.910940634307073e-05,4.658155691358374e-06,6.917522857139929e-05,6.938730480850845e-05
86.97168783650002,4.4716878365,8,0,1.24948115089687,21.54506877609958,0.563828547406087,-1.323771533800968e-05,6.794463516280116e-05,4.510628379248696e-06,6.800724141305133e-05,6.817009644404317e-05
88.02831216350002,3.0283121635,8,0,1.004914511382311,21.19807999053481,0.6517484015314485,-1.374273755600446e-05,6.702992436060555e-05,5.213987212251588e-06,6.711397941400207e-05,6.700534935647257e-05
89.47168783650001,3.0283121635,8,0,0.8937257442433788,20.75332492197909,0.6370896426528521,-1.374273755600446e-05,6.569565915493837e-05,5.096717141222816e-06,6.577732573235116e-05,6.565033017719033e-05
88.02831216350002,4.4716878365,8,0,0.9658244877060271,21.18830748461574,0.4849652508230462,-1.386000762703331e-05,6.702992436060555e-05,3.87972200658437e-06,6.707641839175069e-05,6.722844375096731e-05
89.47168783650001,4.4716878365,8,0,0.8546357205670949,20.74355241606002,0.4703064919444497,-1.386000762703331e-05,6.569565915493837e-05,3.762451935555598e-06,6.57401190231669e-05,6.58730091147559e-05
90.52831216350002,3.0283121635,8,0,0.6750029806524482,20.36890901878862,0.5699349934039034,-1.413511767694306e-05,6.464050647560163e-05,4.559479947231228e-06,6.470642621905765e-05,6.4604862140357e-05
91.97168783650001,3.0283121635,8,0,0.5459641869736434,19.8527538440734,0.5581077686323198,-1.413511767694306e-05,6.309204095145597e-05,4.464862149058559e-06,6.315652074001523e-05,6.310360952519988e-05
90.52831216350002,4.4716878365,8,0,0.6434637145948976,20.36102420227424,0.376376802885693,-1.422973547511571e-05,6.464050647560163e-05,3.011014423085544e-06,6.466923374525298e-05,6.48288709921765e-05
91.97168783650001,4.4716878365,8,0,0.5144249209160927,19.84486902755902,0.3645495781141103,-1.422973547511571e-05,6.309204095145597e-05,2.916396624912882e-06,6.311953109341571e-05,6.333166722726016e-05
93.02831216350002,3.0283121635,8,0,0.4136733939585975,19.43502859040054,0.4788362677700084,-1.422426801165292e-05,6.186115277411485e-05,3.830690142160067e-06,6.19093384166112e-05,6.197087940033079e-05
94.47168783650002,3.0283121635,8,0,0.2624747677145045,18.83023408542417,0.4688619653167021,-1.422426801165292e-05,6.004676925918574e-05,3.750895722533617e-06,6.009409678973259e-05,6.03774557629501e-05
93.02831216350002,4.4716878365,8,0,0.3870752540831317,19.42837905543168,0.252038328403875,-1.430406243127932e-05,6.186115277411485e-05,2.016306627231e-06,6.187449475828009e-05,6.220353265286549e-05
94.47168783650002,4.4716878365,8,0,0.2358766278390405,18.82358455045531,0.2420640259505692,-1.430406243127932e-05,6.004676925918576e-05,1.936512207604554e-06,6.005937652823717e-05,6.06186154426295e-05
95.5283121635,3.0283121635,8,0,0.231704856190774,18.37003931343092,0.3740646996848798,-1.395457591093426e-05,5.859876191802633e-05,2.992517597479039e-06,5.862960597157549e-05,5.925335885449477e-05
96.97168783650002,3.0283121635,8,0,0.05323434693916163,17.65615727642447,0.3648501062697115,-1.395457591093426e-05,5.645711580700698e-05,2.918800850157692e-06,5.648735134546646e-05,5.777569262521378e-05
95.5283121635,4.4716878365,8,0,0.2071326070836532,18.36389625115415,0.1063589358074597,-1.402829265825562e-05,5.859876191802633e-05,8.508714864596779e-07,5.860125395577206e-05,5.950177829507322e-05
96.97168783650002,4.4716878365,8,0,0.02866209783204265,17.6500142141477,0.09714434239229273,-1.402829265825562e-05,5.6457115807007e-05,7.771547391383418e-07,5.645925792105269e-05,5.803543967427543e-05
98.02831216350002,3.0283121635,8,0,0.1437926583033589,17.14293659690192,0.2500907387023572,-1.325421277095079e-05,5.474236298344345e-05,2.000725909618858e-06,5.475707709992698e-05,5.695854108706153e-05
99.47168783650002,3.0283121635,8,0,-0.06813615216143631,16.29522135504274,0.2403205918223283,-1.325421277095079e-05,5.219921725786592e-05,1.922564734578626e-06,5.221333209585995e-05,5.620370779653254e-05
98.02831216350002,4.4716878365,8,0,0.117738933289953,17.13642316564857,-0.06780247699483224,-1.3332373945991e-05,5.474236298344345e-05,-5.42419815958658e-07,5.474344346718909e-05,5.72250720756831e-05
99.47168783650002,4.4716878365,8,0,-0.0941898771748404,16.2887079237894,-0.07757262387485905,-1.3332373945991e-05,5.219921725786593e-05,-6.205809909988724e-07,5.220068644290057e-05,5.647744524422496e-05
0.5283121635,5.528312163500001,8,0,-0.1104134972955713,-1.057451983707631,0.3256307776990834,4.926383956202769e-07,-3.295515550027963e-06,2.605046221592668e-06,8.972771584061826e-07,1.753844121340021e-06
1.9716878365,5.528312163500001,8,0,-0.07509998745468066,-0.9161979443440689,0.3755859029248865,4.926383956202769e-07,-2.871753431937275e-06,3.004687223399092e-06,1.065840322566823e-06,1.949757626506915e-06
0.5283121635,6.9716878365,8,0,0.02280016997340611,-1.024148566890387,0.3786010424603652,8.922793974272091e-07,-3.295515550027963e-06,3.028808339682922e-06,1.382531033196978e-06,2.011099861076003e-06
1.9716878365,6.9716878365,8,0,0.05811367981429674,-0.8828945275268245,0.4285561676862495,8.922793974272091e-07,-2.871753431937275e-06,3.428449341489996e-06,1.555955817107392e-06,2.210714468711422e-06
3.0283121635,5.528312163500001,8,0,-0.2216517084384685,-0.83489654426786,0.7863943849884821,-4.136823158881135e-08,-2.494347574906377e-06,6.291155079907857e-06,2.10837297963768e-06,2.18111608226322e-06
4.4716878365,5.528312163500001,8,0,-0.1710408869019777,-0.6324532581218968,0.8577934370169571,-4.136823158881135e-08,-1.887017716468487e-06,6.862347496135656e-06,2.588912540122173e-06,2.617285633010103e-06
3.0283121635,6.9716878365,8,0,-0.03125423636250374,-0.7872971762488687,0.8623106172931913,5.29824184639083e-07,-2.494347574906377e-06,6.89848493834553e-06,2.783860623505659e-06,2.448333785084147e-06
4.4716878365,6.9716878365,8,0,0.01935658517398706,-0.5848538901029056,0.9337096693216255,5.29824184639083e-07,-1.887017716468487e-06,7.469677354573004e-06,3.246871504125511e-06,2.897907222666395e-06
5.528312163500001,5.528312163500001,8,0,-0.3417793648516719,-0.5458359986064545,1.028363769126913,-6.570251686401863e-07,-1.473251703659317e-06,8.226910153015304e-06,3.068512384319233e-06,2.948982795822364e-06
6.9716878365,5.528312163500001,8,0,-0.2981877055976298,-0.3714693615902862,1.146182876998327,-6.570251686401863e-07,-9.501517926108118e-07,9.169463015986615e-06,3.783485075009585e-06,3.419026746643554e-06
5.528312163500001,6.9716878365,8,0,-0.02759507719480536,-0.4672899266925089,1.093751258007976,2.855276943306299e-07,-1.473251703660184e-06,8.750010064063809e-06,3.868647969890318e-06,3.243962136389045e-06
6.9716878365,6.9716878365,8,0,0.01599658205928189,-0.2929232896761599,1.211570365879295,2.855276943306299e-07,-9.501517926111371e-07,9.692562927034361e-06,4.553194063049392e-06,3.739828305346138e-06
8.028312163500001,5.528312163500001,8,0,-0.4002860089728377,-0.2956734091172503,1.100054006073051,-1.04437650141928e-06,-6.259261019969306e-07,8.800432048584406e-06,3.570036122753204e-06,3.767908690772052e-06
9.471687836500001,5.528312163500001,8,0,-0.3700609132339661,-0.1747730261617639,1.278803340191078,-1.04437650141928e-06,-2.632249531304715e-07,1.023042672152862e-05,4.476302308872666e-06,4.251027937193847e-06
8.028312163500001,6.9716878365,8,0,0.07637888200862965,-0.1765071863718835,1.145391649681412,3.856181715251216e-07,-6.259261019969306e-07,9.163133197451299e-06,4.489244905862401e-06,4.114902107137589e-06
9.471687836500001,6.9716878365,8,0,0.1066039777475103,-0.05560680341636091,1.32414098379948,3.856181715251216e-07,-2.632249531303631e-07,1.059312787039584e-05,5.367686868280351e-06,4.643756621306325e-06
10.5283121635,5.528312163500001,8,0,-0.3471515924139483,-0.1032129998733069,1.003311535859288,-1.028314695825989e-06,-5.256032566342342e-08,8.026492286874304e-06,3.502354687171978e-06,4.664143184147589e-06
11.9716878365,5.528312163500001,8,0,-0.3294144826844423,-0.03226456095528306,1.256175005369981,-1.028314695825989e-06,1.60284991090648e-07,1.004940004295984e-05,4.625708718124586e-06,5.309675781832767e-06
10.5283121635,6.9716878365,8,0,0.3271509929478845,0.06536264646715131,1.029917200453547,9.945930602595093e-07,-5.256032566342342e-08,8.239337603628376e-06,4.623823079637736e-06,5.109434156044583e-06
11.9716878365,6.9716878365,8,0,0.3448881026773905,0.1363110853851751,1.282780669964239,9.945930602595093e-07,1.60284991090648e-07,1.026224535971391e-05,5.725490836245026e-06,5.852834326778276e-06
13.0283121635,5.528312163500001,8,0,-0.09913252327154065,0.06117401803906961,0.7198773004605267,-3.661632889001858e-07,2.750628763422552e-07,5.759018403684213e-06,2.851753021248531e-06,5.982814435220771e-06
14.4716878365,5.528312163500001,8,0,-0.09073804849213891,0.09475191715667657,1.054122053144251,-3.661632889001858e-07,3.757965736950761e-07,8.432976425154005e-06,4.23759338541454e-06,7.176330839208304e-06
13.0283121635,6.9716878365,8,0,0.7921868172184308,0.2840038531615625,0.7324690126296293,2.307794732569728e-06,2.750628763422552e-07,5.859752101037034e-06,4.392585583987217e-06,6.65200520844184e-06
14.4716878365,6.9716878365,8,0,0.8005812919978325,0.3175817522791694,1.066713765313353,2.307794732569728e-06,3.757965736950761e-07,8.533710122506826e-06,5.716633517010059e-06,8.091980490435444e-06
15.5283121635,5.528312163500001,8,0,0.4864972148356467,0.2579892998413509,0.1838489990219452,1.350399647600988e-06,4.363679876238057e-07,1.470791992175561e-06,1.759434787364284e-06,8.5602321153869e-06
16.9716878365,5.528312163500001,8,0,0.4918930884184556,0.2795727941725867,0.589424258992274,1.350399647600988e-06,5.011184706175129e-07,4.715394071938192e-06,3.321391531508152e-06,1.114760431073944e-05
15.5283121635,6.9716878365,8,0,1.568031241423226,0.5283728064882459,0.191942809396145,4.595001727363728e-06,4.363679876238057e-07,1.53554247516916e-06,4.741666715578269e-06,9.714074582614755e-06
16.9716878365,6.9716878365,8,0,1.573427115006053,0.5499563008195539,0.5975180693664807,4.595001727363728e-06,5.011184706177297e-07,4.780144554931845e-06,5.694870471650234e-06,1.270574277530075e-05
18.0283121635,5.528312163500001,8,0,1.654096205134441,0.6306803110367413,-0.796461481144372,4.788563607600818e-06,6.94900031210019e-07,-6.371691849154976e-06,6.528436801882158e-06,1.409538191141178e-05
19.4716878365,5.528312163500001,8,0,1.692818753979129,0.785570506415491,-0.3860230478455189,4.788563607600818e-06,1.159570617346268e-06,-3.088184382764151e-06,5.389191667738861e-06,1.956148789085194e-05
18.0283121635,6.9716878365,8,0,2.748598693931344,0.904305933235967,-0.7383776578772663,8.072071073991527e-06,6.94900031210019e-07,-5.90702126301813e-06,9.108830852052504e-06,1.589352029687428e-05
19.4716878365,6.9716878365,8,0,2.787321242776081,1.059196128614916,-0.3279392245784268,8.072071073991527e-06,1.159570617346865e-06,-2.623513796627414e-06,8.363273746609762e-06,2.161102225672344e-05
20.5283121635,5.528312163500001,8,0,3.694516081459938,1.556591343745855,-2.605834504573828,1.057717838567512e-05,2.025479434818785e-06,-2.084667603659062e-05,1.756759999611027e-05,2.559354102860436e-05
21.9716878365,5.528312163500001,8,0,3.852935772961487,2.190270109752049,-2.378987643537066,1.057717838567512e-05,3.926515732837366e-06,-1.903190114829653e-05,1.733208236207013e-05,3.66073106961597e-05
20.5283121635,6.9716878365,8,0,4.299441044224623,1.707822584437026,-2.368204967321478,1.239195327396917e-05,2.025479434818785e-06,-1.894563973857183e-05,1.80068764402783e-05,2.74171371083495e-05
21.9716878365,6.9716878365,8,0,4.457860735726189,2.341501350443292,-2.141358106284716,1.239195327396917e-05,3.926515732837583e-06,-1.713086485027773e-05,1.771342420323247e-05,3.756223591839737e-05
23.0283121635,5.528312163500001,8,0,6.778295917893075,4.29822259432374,-6.24017782879838,1.825196886179885e-05,8.331675567521506e-06,-4.992142263038704e-05,3.87405975117457e-05,4.821307067296857e-05
24.4716878365,5.528312163500001,8,0,7.622802933419059,7.676250656427675,-6.784749595236897,1.825196886179885e-05,1.846575975383331e-05,-5.427799676189517e-05,4.549807320854595e-05,6.890682692385245e-05
23.0283121635,6.9716878365,8,0,5.326104540723758,3.93517475003141,-4.973417305509397,1.389539473029089e-05,8.331675567521506e-06,-3.978733844407518e-05,3.120076536729091e-05,4.733914655701902e-05
24.4716878365,6.9716878365,8,0,6.170611556249741,7.313202812135346,-5.517989071947928,1.389539473029089e-05,1.846575975383331e-05,-4.414391257558342e-05,3.837051445428271e-05,6.390506435388178e-05
25.5283121635,5.528312163500001,8,0,6.408713525099481,11.3065947692418,-10.34841725432984,1.14626074649249e-05,3.105413244149416e-05,-8.278733803463871e-05,6.37953279714114e-05,8.898442905596141e-05
26.9716878365,5.528312163500001,8,0.190956952135975,6.820404942137294,15.68944116868447,-8.84863405138225,1.14626074649249e-05,5.531212202394641e-05,-8.749728781175492e-05,8.232241174930456e-05,0.0001231437019264845
25.5283121635,6.9716878365,8,0,4.838730266060704,10.9140989544821,-7.316168556523309,6.752657687808571e-06,3.105413244149416e-05,-5.852934845218647e-05,5.059032575161394e-05,7.872046883199477e-05
26.9716878365,6.9716878365,8,0.02457401649069912,6.691646007576972,18.53318682226749,-7.71065683396947,6.752657687808571e-06,5.531212202394641e-05,-6.323929822930289e-05,7.089851086465934e-05,0.000102630988805741
28.0283121635,5.528312163500001,8,0.3540682727738612,4.07030591898152,17.21072519574492,-9.390787708977815,-1.151207139256597e-06,8.022221808754284e-05,-0.0001163068765710606,0.000110508958030112,0.0001495128326025052
29.4716878365,5.528312163500001,8,0.5204116697441152,4.772505290536554,19.78015304926462,-7.073913040054615,-1.151207139256597e-06,0.0001240198765751509,-0.0001179997526008245,0.0001474455866157294,0.0001873953644933567
28.0283121635,6.9716878365,8,0.1757018427913778,4.729128039671973,21.8469778026523,-7.471151855853518,-2.844083169020338e-06,8.022221808754284e-05,-7.250921808345267e-05,9.381981457808735e-05,0.000121037838224422
29.4716878365,6.9716878365,8,0.3427671924657575,6.169419383949345,27.01420849334253,-6.096006329868657,-2.844083169020338e-06,0.0001240198765751509,-7.420209411321634e-05,0.0001340732950022466,0.0001474157660719199
30.5283121635,5.528312163500001,8,0.5901891411254812,3.542096712848879,20.54886409860055,-5.44399575218917,-1.245545765132336e-05,0.0001535408015250009,-0.0001062733333546163,0.0001690931405339423,0.0002090473558836743
31.9716878365,5.528312163500001,8,0.6456025379925874,4.151588456905618,22.12408205233473,-4.604419433306568,-1.245545765132336e-05,0.0001903958098902393,-0.0001039379775966965,0.0002029347977462045,0.0002303191645587292
30.5283121635,6.9716878365,8,0.4237482451231506,5.429270868462883,29.0067415683594,-5.000303949467509,-1.012010189340351e-05,0.0001535408015250009,-6.941832498937723e-05,0.0001605976311782904,0.0001636018521838634
31.9716878365,6.9716878365,8,0.4984110269040203,6.266326058272236,31.41046862851262,-4.206009706129493,-1.012010189340351e-05,0.0001903958098902395,-6.708296923145745e-05,0.0001958577145253483,0.00018144513397176
33.0283121635,5.528312163500001,8,0.6622561949478454,5.096596149704389,23.0455871502128,-1.850039925894907,-6.298744815727079e-06,0.0002062764761892796,-4.382114249252856e-05,0.0002085113485125459,0.0002376805822157062
34.4716878365,5.528312163500001,8,0.659709796472314,5.32024664912202,23.96023804062899,-1.952785420034272,-6.298744815727079e-06,0.0002128082550129108,-4.590870732781217e-05,0.0002151871976503577,0.000236520540596102
33.0283121635,6.9716878365,8,0.5277299257282615,6.797982866952413,32.14268531999548,-2.201331318682008,-8.38630965101079e-06,0.0002062764761892797,-3.728936366889743e-05,0.0002078838370112552,0.00018945721584831
34.4716878365,6.9716878365,8,0.5416548693136783,6.84702755692889,32.19289046892619,-2.256027930159356,-8.38630965101079e-06,0.0002128082550129108,-3.937692850418113e-05,0.0002145470509631355,0.0001935033488224806
35.5283121635,5.528312163500001,8,0.6499743251829595,7.606817509255597,25.0697787173154,-0.1513685877850622,1.224479620818071e-05,0.0002118068565306156,-3.459599650549818e-06,0.0002121746071574817,0.0002322014704389451
36.9716878365,5.528312163500001,8,0.6241769309607978,7.877201135681654,25.75645842932904,-0.7074112345586089,1.224479620818071e-05,0.0002025392061746152,-1.505838875441292e-05,0.0002031881950507034,0.0002215615929472404
35.5283121635,6.9716878365,8,0.5409157224219731,8.20195704463452,32.43711354754315,-0.7303600468515054,6.460071043176566e-07,0.0002118068565306156,-1.272725000655021e-05,0.00021199894632975,0.0001932843732936735
36.9716878365,6.9716878365,8,0.5248475755628322,8.122066852060707,32.10457760596761,-1.444822057533276,6.460071043176566e-07,0.0002025392061746152,-2.432603911041323e-05,0.0002032693247336793,0.000188639988049162
38.0283121635,5.528312163500001,8,0.6015745593932875,8.628340644996189,26.49958398155298,0.05192675904285966,1.609089738090739e-05,0.0001955095942326235,1.042639425108735e-06,0.0001961720213588405,0.0002130700771840382
39.4716878365,5.528312163500001,8,0.5644693161729043,9.071217734955193,27.524771515198,-0.5038281658103168,1.609089738090739e-05,0.0001855719876047944,-9.254515183785948e-06,0.000186383214340134,0.0002005107021764163
38.0283121635,6.9716878365,8,0.5084091708473485,8.958610565739773,32.27425374647054,-0.5465855378088857,5.793742772012574e-06,0.0001955095942326236,-8.894967202720651e-06,0.0001956965229969151,0.0001841045553590765
39.4716878365,6.9716878365,8,0.4785097369990003,9.071625532449204,32.5097765773756,-1.251063081385831,5.793742772012574e-06,0.0001855719876047945,-1.919212181161561e-05,0.0001861577256218989,0.0001763579080594387
40.5283121635,5.528312163500001,8,0.5347944216515699,9.194783346825959,28.22924912048929,0.1462372235397119,1.470297806345021e-05,0.0001783679611123583,2.51479742025248e-06,0.0001789817566634838,0.0001914892591910661
41.97168783650001,5.528312163500001,8,0.4905413523283498,9.655757590102843,29.25983120922227,-0.3495848067180847,1.470297806345021e-05,0.0001686238013429435,-5.48951022134216e-06,0.0001693080958032246,0.0001794015936040776
40.5283121635,6.9716878365,8,0.4541337646668491,9.332613288009686,32.75973064589396,-0.4932831011745686,6.698670421855559e-06,0.0001783679611123583,-7.229362349162483e-06,0.0001785668882430003,0.0001704698589124116
41.97168783650001,6.9716878365,8,0.4169471002529805,9.494942766251542,33.09767204761557,-1.110254432737512,6.698670421855559e-06,0.0001686238013429436,-1.523366999075712e-05,0.0001691002392531092,0.0001621300567842251
43.0283121635,5.528312163500001,8,0.4564302015129291,9.524909042540619,29.85343843294282,0.3382772450472041,1.213635895176144e-05,0.0001617291394703481,4.978602504977108e-06,0.0001622220669449031,0.0001710094864738354
44.4716878365,5.528312163500001,8,0.4077217939485492,9.929651154507694,30.73347848309861,-0.09238242162828376,1.213635895176144e-05,0.0001526367327020237,-1.247824697034469e-06,0.0001531210041496342,0.0001601694889974662
43.0283121635,6.9716878365,8,0.3882246191033177,9.450342407555949,33.28193119612801,-0.3145905212679658,5.909931749749879e-06,0.0001617291394703481,-4.11380426334736e-06,0.0001618632247913793,0.0001561552611246512
44.4716878365,6.9716878365,8,0.3468701025800185,9.594285503507237,33.5522006171874,-0.8441892895335935,5.909931749749879e-06,0.0001526367327020237,-1.034023146535894e-05,0.000152925994051418,0.0001481716179453459
45.52831216350001,5.528312163500001,8,0.3711251672376011,9.682506703355029,31.1707712637396,0.6466604298578714,9.616229056552572e-06,0.0001462937581349232,8.226252935164823e-06,0.0001467248143607077,0.0001527707253313716
46.97168783650001,5.528312163500001,8,0.3203760666329935,9.997367304195132,31.82019494731508,0.2741514268266587,9.616229056552572e-06,0.0001380568361140754,3.227095614110611e-06,0.0001384101475042494,0.0001433969245579163
45.52831216350001,6.9716878365,8,0.3158073274401392,9.394081996467017,33.62761967322894,-0.0009124637809130339,4.617071735498482e-06,0.0001462937581349232,-1.066908568312036e-08,0.0001463665982304871,0.0001425981622576245
46.97168783650001,6.9716878365,8,0.2724846525000098,9.489535774384587,33.75940491243389,-0.4555906999015,4.617071735498482e-06,0.0001380568361140754,-5.009826406737142e-06,0.000138179435986518,0.0001353548413236937
48.0283121635,5.528312163500001,8,0.2830824221342125,9.677298967570604,32.08138560635054,1.01958588474701,7.395896508675266e-06,0.0001323981970826146,1.137744048940459e-05,0.0001328484284887814,0.0001370736494060124
49.47168783650001,5.528312163500001,8,0.2326234120892982,9.896537124537664,32.49185121394078,0.6955963673940275,7.395896508675266e-06,0.0001251754297671618,7.251681934033387e-06,0.0001254985296646813,0.000129171941193494
48.0283121635,6.9716878365,8,0.2406285235029258,9.206034362331192,33.7200755918877,0.3943675378083338,3.270137953304095e-06,0.0001323981970826146,4.15467317395194e-06,0.0001324711555303707,0.000130379385446399
49.47168783650001,6.9716878365,8,0.1972627806331596,9.248601851222169,33.71308059541205,0.002901355064825823,3.270137953304095e-06,0.000125175429767162,2.891461858080301e-08,0.0001252181394114084,0.0001240295081321655
50.5283121635,5.528312163500001,8,0.1963020038718947,9.511765250380822,32.58779383170194,1.399589579806266,5.434147847695928e-06,0.0001202834006391284,1.393149751821135e-05,0.0001208084009648901,0.0001238939537943338
51.97168783650001,5.528312163500001,8,0.1482584839703634,9.644374746226545,32.79188732724904,1.115539416195961,5.434147847695928e-06,0.0001141408958241187,1.04777272935668e-05,0.0001145101106757919,0.0001173759322700253
50.5283121635,6.9716878365,8,0.1659902324969505,8.910345677116085,33.57681485725266,0.8120119991850142,1.980377623051404e-06,0.0001202834006391284,7.788992703201597e-06,0.0001204257139007622,0.0001197237941199714
51.97168783650001,6.9716878365,8,0.1243460838463408,8.907035342169044,33.46048459231613,0.4745193175932395,1.980377623051404e-06,0.0001141408958241187,4.335222478557121e-06,0.0001141992253565298,0.0001143102419895295
53.0283121635,5.528312163500001,8,0.1143818240976978,9.193259505077263,32.75053061099729,1.746515084135247,3.633626787493134e-06,0.0001100328482439361,1.577668689878303e-05,0.0001106565988138754,0.0001130654026201362
54.4716878365,5.528312163500001,8,0.07057900708616564,9.254435783690319,32.79628186387355,1.495741352982426,3.633626787493134e-06,0.0001049519583494994,1.287460786348814e-05,0.0001054087025289902,0.0001078068381329152
53.0283121635,6.9716878365,8,0.09491760356790906,8.51976982879391,33.25144057434543,1.210072198055619,7.315477521983253e-07,0.0001100328482439361,1.069579700434633e-05,0.0001102948905959197,0.0001106867194233249
54.4716878365,6.9716878365,8,0.0566217735389126,8.480824767960874,33.06064129554293,0.9190529793977178,7.315477521983253e-07,0.0001049519583494994,7.793717969051533e-06,0.0001050990948743107,0.0001062006238001028
55.5283121635,5.528312163500001,8,0.04039210860117559,8.733662811366294,32.65247432937623,2.045970372060067,1.902591203381799e-06,0.0001016050289694714,1.705671985733796e-05,0.0001023360523536068,0.0001043727171000734
56.97168783650001,5.528312163500001,8,0.002362515058796449,8.741989888599701,32.59533917563246,1.825156470621956,1.902591203381799e-06,9.754193774793779e-05,1.463582913169726e-05,9.810786523055058e-05,0.0001002490884458309
55.5283121635,6.9716878365,8,0.03017017543801061,8.044078173425561,32.80464061213086,1.575201072535718,-5.182995222588807e-07,0.0001016050289694714,1.299362863580432e-05,0.0001020166796726044,0.0001032427737375236
56.97168783650001,6.9716878365,8,0,7.955728304908527,32.47078762245771,1.321592238770452,-5.182995222588807e-07,9.754193774793782e-05,1.057273791016362e-05,9.78260992971945e-05,9.964787270826522e-05
58.0283121635,5.528312163500001,8,0,8.230419524088303,31.74831534888613,2.36498515582955,9.386901979736677e-07,9.501027349716497e-05,1.89198812466364e-05,9.595214511602038e-05,9.758887169782356e-05
59.47168783650001,5.528312163500001,8,0,7.992624179123484,30.79713396902685,2.101793652522403,9.386901979736677e-07,9.215672935758713e-05,1.681434922017923e-05,9.292526607454188e-05,9.444465303705529e-05
58.0283121635,6.9716878365,8,0,7.528575515269237,31.57285434668136,2.008292138382324,-1.166841828483531e-06,9.501027349716497e-05,1.60663371070586e-05,9.567662507536161e-05,9.72993566390538e-05
59.47168783650001,6.9716878365,8,0,7.290780170304417,30.62167296682209,1.745100635075181,-1.166841828483531e-06,9.215672935758713e-05,1.396080508060145e-05,9.267595959035866e-05,9.447799244456184e-05
60.5283121635,5.528312163500001,8,0,7.485428459498721,30.09136450767189,2.436348586282444,-1.197205357416031e-07,9.030402365695105e-05,1.949078869025955e-05,9.134240658042561e-05,9.240956073593707e-05
61.9716878365,5.528312163500001,8,0,7.301416628978086,29.35531718558935,2.203428087345168,-1.197205357416031e-07,8.809588169070344e-05,1.762742469876135e-05,8.896784985680493e-05,8.999380383172174e-05
60.5283121635,6.9716878365,8,0,6.864307128999338,29.93608417504704,2.160330840501492,-1.983084527239752e-06,9.030402365695105e-05,1.728264672401194e-05,9.110618346609359e-05,9.262121375416084e-05
61.9716878365,6.9716878365,8,0,6.680295298478706,29.20003685296452,1.927410341564225,-1.983084527239752e-06,8.809588169070347e-05,1.54192827325138e-05,8.875096728217633e-05,9.036976422785032e-05
63.0283121635,5.528312163500001,8,0,6.718852399275047,28.76013604781947,2.353923189160763,-1.507781160575425e-06,8.665735343360226e-05,1.88313855132861e-05,8.765169829329126e-05,8.841448043949587e-05
64.47168783650001,5.528312163500001,8,0,6.575353205904758,28.18613927433831,2.15797243204244,-1.507781160575425e-06,8.493536311315879e-05,1.726377945633952e-05,8.578888392300808e-05,8.651544559438464e-05
63.0283121635,6.9716878365,8,0,6.196317046959514,28.62950220974059,2.138674399105329,-3.075387217522024e-06,8.665735343360226e-05,1.710939519284263e-05,8.746563731753249e-05,8.887523941663053e-05
64.47168783650001,6.9716878365,8,0,6.05281785358923,28.05550543625945,1.942723641987003,-3.075387217522024e-06,8.493536311315884e-05,1.554178913589603e-05,8.561622571548604e-05,8.704357122534269e-05
65.5283121635,5.528312163500001,8,0,5.964617859676979,27.67804426275783,2.216224323176634,-3.055658259239926e-06,8.379804735308345e-05,1.772979458541307e-05,8.469362621146685e-05,8.525796412381656e-05
66.97168783650001,5.528312163500001,8,0,5.849183349638368,27.21630622260338,2.05469323152257,-3.055658259239926e-06,8.24128332326201e-05,1.643754585218056e-05,8.319598616680621e-05,8.372149570161335e-05
65.5283121635,6.9716878365,8,0,5.533868281932795,27.57035686832178,2.043072558118721,-4.347906992472478e-06,8.379804735308345e-05,1.634458046494977e-05,8.454932304096131e-05,8.581640372710775e-05
66.97168783650001,6.9716878365,8,0,5.418433771894184,27.10861882816734,1.881541466464657,-4.347906992472478e-06,8.241283323262012e-05,1.505233173171725e-05,8.30608594540526e-05,8.429538796367806e-05
68.0283121635,5.528312163500001,8,0,5.239634305859619,26.77300650113313,2.063966609416393,-4.651575422155725e-06,8.148191335893831e-05,1.651173287533115e-05,8.226609601716969e-05,8.268753967582621e-05
69.47168783650001,5.528312163500001,8,0,5.14312544983302,26.38697107702674,1.931911405859309,-4.651575422155725e-06,8.032380708661913e-05,1.545529124687447e-05,8.102084015703871e-05,8.139918770266686e-05
68.0283121635,6.9716878365,8,0,4.887487096374058,26.68496969876174,1.919203325376507,-5.708017050612407e-06,8.148191335893831e-05,1.535362660301206e-05,8.215267364998822e-05,8.326348853953552e-05
69.47168783650001,6.9716878365,8,0,4.790978240347463,26.29893427465536,1.787148121819425,-5.708017050612407e-06,8.032380708661917e-05,1.42971849745554e-05,8.091375546868189e-05,8.196530264778688e-05
70.5283121635,5.528312163500001,8,0,4.552218734085129,25.99088269907045,1.913715324355315,-6.225606210183941e-06,7.952904964975732e-05,1.530972259484252e-05,8.020699868936865e-05,8.051536539787997e-05
71.97168783650001,5.528312163500001,8,0,4.467784448670717,25.6531455574128,1.806135576895138,-6.225606210183941e-06,7.851583822478437e-05,1.444908461516111e-05,7.912734620519975e-05,7.938906992939625e-05
70.5283121635,6.9716878365,8,0,4.265339407524631,25.91916286743032,1.7870638962337,-7.086244189865437e-06,7.952904964975732e-05,1.42965111698696e-05,8.011502230772285e-05,8.107035994202304e-05
71.97168783650001,6.9716878365,8,0,4.180905122110217,25.58142572577266,1.679484148773517,-7.086244189865437e-06,7.851583822478435e-05,1.343587319018813e-05,7.903984520585535e-05,7.992351689165773e-05
73.0283121635,5.528312163500001,8,0,3.906010420596108,25.29030601284352,1.771153958208026,-7.733011464367272e-06,7.780417090462238e-05,1.416923166566421e-05,7.838698308155594e-05,7.85995776581788e-05
74.47168783650001,5.528312163500001,8,0,3.828418766272903,24.9799393955507,1.683690576373747,-7.733011464367272e-06,7.687307105274391e-05,1.346952461098997e-05,7.740581300209258e-05,7.756894012942182e-05
73.0283121635,6.9716878365,8,0,3.672774735704686,25.23199709162067,1.654766476723218,-8.432718519041536e-06,7.780417090462238e-05,1.323813181378574e-05,7.830925548429893e-05,7.911786298906066e-05
74.47168783650001,6.9716878365,8,0,3.595183081381482,24.92163047432785,1.56730309488894,-8.432718519041536e-06,7.687307105274394e-05,1.253842475911152e-05,7.733134022094099e-05,7.806361864412111e-05
75.5283121635,5.528312163500001,8,0,3.302465029452947,24.63910893714036,1.637065170028968,-9.143399055462859e-06,7.620317657528678e-05,1.309652136023175e-05,7.670267197930342e-05,7.682997054824967e-05
76.97168783650001,5.528312163500001,8,0,3.227541204759438,24.33941363836633,1.566114858023246,-9.143399055462859e-06,7.530409067896469e-05,1.252891886418597e-05,7.576626951720562e-05,7.584170563591065e-05
75.5283121635,6.9716878365,8,0,3.113264197437686,24.59180872913655,1.524679432988709,-9.711001551508639e-06,7.620317657528678e-05,1.219743546390967e-05,7.663394132807527e-05,7.73076920254109e-05
76.97168783650001,6.9716878365,8,0,3.038340372744182,24.29211343036253,1.453729120982992,-9.711001551508639e-06,7.530409067896474e-05,1.162983296786393e-05,7.569997951308935e-05,7.629670644115266e-05
78.0283121635,5.528312163500001,8,0,2.742279623000471,24.01124969534279,1.509972008780219,-1.043370496267273e-05,7.464217532669656e-05,1.207977607024175e-05,7.506883222689958e-05,7.51173437093814e-05
79.47168783650001,5.528312163500001,8,0,2.666504583295369,23.70814953652238,1.452604299857985,-1.043370496267273e-05,7.373287485023532e-05,1.162083439886388e-05,7.413210178756198e-05,7.412661503528992e-05
78.0283121635,6.9716878365,8,0,2.589299065874501,23.97300455606129,1.396309449222562,-1.089264663405063e-05,7.464217532669653e-05,1.117047559378049e-05,7.50053372988353e-05,7.555678491048933e-05
79.47168783650001,6.9716878365,8,0,2.513524026169401,23.66990439724089,1.338941740300329,-1.089264663405063e-05,7.373287485023532e-05,1.071153392240263e-05,7.407048293843813e-05,7.454626727927526e-05
80.5283121635,5.528312163500001,8,0,2.226243107061589,23.38456772004409,1.387299356682953,-1.158367623343819e-05,7.304962221849182e-05,1.109839485346362e-05,7.34119185487869e-05,7.3385979126438e-05
81.97168783650001,5.528312163500001,8,0,2.146461404732711,23.06544091072858,1.341122440736592,-1.158367623343819e-05,7.209224179054528e-05,1.072897952589274e-05,7.243475888665192e-05,7.235325286755005e-05
80.5283121635,6.9716878365,8,0,2.103104664537975,23.35378310941319,1.267626803189647,-1.195309156100903e-05,7.304962221849182e-05,1.014101442551717e-05,7.335101501686976e-05,7.379263296560741e-05
81.97168783650001,6.9716878365,8,0,2.0233229622091,23.03465630009769,1.221449887243288,-1.195309156100903e-05,7.209224179054532e-05,9.771599097946299e-06,7.237531410815082e-05,7.274418336146606e-05
83.02831216350002,5.528312163500001,8,0,1.755777941949943,22.7391201164508,1.265842475333181,-1.257280667892082e-05,7.136056201908258e-05,1.012673980266545e-05,7.166491160593897e-05,7.156870923126118e-05
84.47168783650002,5.528312163500001,8,0,1.668977451729523,22.39191815556912,1.228867348052647,-1.257280667892082e-05,7.031895613643753e-05,9.830938784421178e-06,7.060942489267621e-05,7.045802241496199e-05
83.02831216350002,6.9716878365,8,0,1.65717760253519,22.71447003159711,1.13564174000255,-1.286860769716508e-05,7.136056201908258e-05,9.085133920020403e-06,7.16048389534844e-05,7.194989716223597e-05
84.47168783650002,6.9716878365,8,0,1.57037711231477,22.36726807071543,1.098666612722011,-1.286860769716508e-05,7.031895613643753e-05,8.789332901776092e-06,7.055047502377855e-05,7.082831651423764e-05
85.5283121635,5.528312163500001,8,0,1.333336646618664,22.05590761459029,1.141895555045296,-1.33780488224925e-05,6.951223504939398e-05,9.135164440362368e-06,6.976316723834404e-05,6.960462970113694e-05
86.97168783650002,5.528312163500001,8,0,1.236470220386269,21.66844190966071,1.11241169285567,-1.33780488224925e-05,6.834983793460524e-05,8.899293542845356e-06,6.859138354275594e-05,6.838380426435798e-05
85.5283121635,6.9716878365,8,0,1.254713014113026,22.03625170646389,0.9965959156967037,-1.361391972000943e-05,6.951223504939402e-05,7.972767325573629e-06,6.97029677470505e-05,6.996896903306854e-05
86.97168783650002,6.9716878365,8,0,1.157846587880631,21.64878600153431,0.9671120535070737,-1.361391972000943e-05,6.834983793460527e-05,7.73689642805659e-06,6.853201240384199e-05,6.874276870105672e-05
88.02831216350002,5.528312163500001,8,0,0.9627526292624475,21.31583128068068,1.011195565953524,-1.397185661090471e-05,6.74404579947682e-05,8.089564527628193e-06,6.764092003312065e-05,6.744089036287164e-05
89.47168783650001,5.528312163500001,8,0,0.8525797055678206,20.87513958590217,0.9876571864915444,-1.397185661090471e-05,6.611838291043268e-05,7.901257491932356e-06,6.631278457006362e-05,6.608562711351743e-05
88.02831216350002,6.9716878365,8,0,0.8999836173637954,21.30013902770602,0.8459361804115769,-1.416016364660066e-05,6.74404579947682e-05,6.767489443292615e-06,6.758053177664617e-05,6.779821090602004e-05
89.47168783650001,6.9716878365,8,0,0.7898106936691685,20.85944733292751,0.8223978009495938,-1.416016364660066e-05,6.611838291043268e-05,6.579182407596751e-06,6.62529556068853e-05,6.644383135119669e-05
90.52831216350002,5.528312163500001,8,0,0.649612457692637,20.49876068394117,0.8687443951257869,-1.43202486825365e-05,6.507634422245762e-05,6.949955161006296e-06,6.522814451282105e-05,6.504314337430922e-05
91.97168783650001,5.528312163500001,8,0,0.5225434947938217,19.99048483234591,0.8496607847173663,-1.43202486825365e-05,6.355151666767184e-05,6.797286277738931e-06,6.369956591957395e-05,6.355028808196109e-05
90.52831216350002,6.9716878365,8,0,0.5987228299368486,20.48603827700222,0.6781409507775652,-1.447291756580386e-05,6.507634422245762e-05,5.425127606220522e-06,6.516873309592782e-05,6.540453755716e-05
91.97168783650001,6.9716878365,8,0,0.4716538670380332,19.97776242540696,0.6590573403691454,-1.447291756580386e-05,6.355151666767184e-05,5.272458722953164e-06,6.364048610083047e-05,6.391951366256334e-05
93.02831216350002,5.528312163500001,8,0,0.4017028168230121,19.58261877954413,0.7085247219125013,-1.438064600980166e-05,6.23430178410828e-05,5.66819777530001e-06,6.244756428923922e-05,6.242686690148799e-05
94.47168783650002,5.528312163500001,8,0,0.2536317634494143,18.99033456604974,0.6923452459211371,-1.438064600980166e-05,6.056616520059962e-05,5.538761967369097e-06,6.066835804285789e-05,6.085047845035413e-05
93.02831216350002,6.9716878365,8,0,0.3585575475127101,19.57183246221656,0.4864181418521081,-1.451008181773257e-05,6.23430178410828e-05,3.891345134816865e-06,6.239224446298949e-05,6.280437416328613e-05
94.47168783650002,6.9716878365,8,0,0.2104864941391131,18.97954824872217,0.4702386658607431,-1.451008181773257e-05,6.056616520059964e-05,3.761909326885945e-06,6.061326095426792e-05,6.124278028820104e-05
95.5283121635,5.528312163500001,8,0,0.2295840923175483,18.5424006877174,0.523095819705107,-1.409925145475776e-05,5.915201492684162e-05,4.184766557640856e-06,5.921173405018081e-05,5.974083380470741e-05
96.97168783650002,5.528312163500001,8,0,0.05569427922376669,17.84684143534227,0.5080775334582863,-1.409925145475776e-05,5.706533716971624e-05,4.06462026766629e-06,5.71233283922885e-05,5.82856167054588e-05
95.5283121635,6.9716878365,8,0,0.1895353289926884,18.53238849688618,0.2622611000644295,-1.421939774473234e-05,5.915201492684162e-05,2.098088800515436e-06,5.916701081198377e-05,6.014552616230657e-05
96.97168783650002,6.9716878365,8,0,0.01564551589890772,17.83682924451106,0.2472428138176088,-1.421939774473234e-05,5.706533716971626e-05,1.977942510540871e-06,5.707905505706607e-05,5.870936601650593e-05
98.02831216350002,5.528312163500001,8,0,0.1473510794570618,17.34904404627811,0.303031178557676,-1.340771178275989e-05,5.539906008452429e-05,2.424249428461408e-06,5.542040668465756e-05,5.748188517821435e-05
99.47168783650002,5.528312163500001,8,0,-0.05812191215128681,16.52715207984471,0.2870729757135042,-1.340771178275989e-05,5.29333841852241e-05,2.296583805708034e-06,5.295325391256072e-05,5.674126690929284e-05
98.02831216350002,6.9716878365,8,0,0.104795871872609,17.338405244382,-0.005178308854847727,-1.353537740551324e-05,5.539906008452429e-05,-4.142647083878181e-08,5.53990663083813e-05,5.791698063378735e-05
99.47168783650002,6.9716878365,8,0,-0.1006771197357388,16.5165132779486,-0.02113651169901784,-1.353537740551324e-05,5.293338418522412e-05,-1.690920935921427e-07,5.29334917248005e-05,5.718830365473388e-05
0.5283121635,8.028312163500001,8,0,-0.09374333352109981,-1.841651749318211,0.2875277180044598,1.173342732187049e-06,-5.818290931001394e-06,2.300221744035678e-06,1.357674041359867e-06,2.178258793744522e-06
1.9716878365,8.028312163500001,8,0,0.00298960931726916,-1.454719977964735,0.3335575066212295,1.173342732187049e-06,-4.657495616940967e-06,2.668460052969836e-06,1.464142316065675e-06,2.371565176352344e-06
0.5283121635,9.471687836500001,8,0,0.02900276945700475,-1.810965223573685,0.4326271322619996,1.541581041121363e-06,-5.818290931001394e-06,3.461017058095997e-06,1.928165512480235e-06,2.377689751017334e-06
1.9716878365,9.471687836500001,8,0,0.1257357122953737,-1.424033452220209,0.4786569208787965,1.541581041121363e-06,-4.657495616940967e-06,3.829255367030372e-06,2.085246936343353e-06,2.550060639874926e-06
3.0283121635,8.028312163500001,8,0,-0.02523178716056262,-1.219957218280679,0.7581883406757733,8.952240557107428e-07,-3.883677668769722e-06,6.065506725406187e-06,2.366740479274355e-06,2.605547258837577e-06
4.4716878365,8.028312163500001,8,0,0.05421109919278522,-0.9021856728672877,0.8115756652584935,8.952240557107428e-07,-2.930363032529549e-06,6.492605322067947e-06,2.750355684608762e-06,3.051491813667362e-06
3.0283121635,9.471687836500001,8,0,0.1171344117265667,-1.184365668559032,0.877352670205795,1.322322652372239e-06,-3.883677668770156e-06,7.01882136164636e-06,3.088712971331281e-06,2.76784475396368e-06
4.4716878365,9.471687836500001,8,0,0.1965772980799507,-0.8665941231454963,0.9307399947885422,1.322322652372239e-06,-2.930363032529549e-06,7.445919958308338e-06,3.483375859976175e-06,3.190471129903237e-06
5.528312163500001,8.028312163500001,8,0,0.09711221405442574,-0.6958314784552088,0.9386754378027854,8.674242677383294e-07,-2.304350502300209e-06,7.509403502422283e-06,3.357420104612355e-06,3.402421616153131e-06
6.9716878365,8.028312163500001,8,0,0.1601941642703243,-0.4435036775916147,1.019577705352413,8.674242677383294e-07,-1.547367099709426e-06,8.156621642819301e-06,3.913312432184252e-06,3.915235111645339e-06
5.528312163500001,9.471687836500001,8,0,0.3128515941866318,-0.6418966334224283,1.033298363126742,1.514642408135164e-06,-2.304350502301076e-06,8.266386905013932e-06,4.15810815661883e-06,3.540361625261268e-06
6.9716878365,9.471687836500001,8,0,0.3759335444025754,-0.3895688325586536,1.114200630676382,1.514642408135164e-06,-1.547367099709752e-06,8.913605045411058e-06,4.696074845616698e-06,4.073653859765936e-06
8.028312163500001,8.028312163500001,8,0,0.3262879985676199,-0.2490689529396782,0.9008096814869048,1.243376757768126e-06,-1.058051048261066e-06,7.206477451895238e-06,3.875184738729842e-06,4.31469698539271e-06
9.471687836500001,8.028312163500001,8,0,0.3746090744828569,-0.05578464927873039,1.014990352161838,1.243376757768126e-06,-4.781981372782226e-07,8.119922817294701e-06,4.532799144641188e-06,4.893233624711383e-06
8.028312163500001,9.471687836500001,8,0,0.6307697870341551,-0.1729485058230444,0.9732912953597738,2.156822123167731e-06,-1.058051048261066e-06,7.78633036287819e-06,4.761343218516007e-06,4.513553327535406e-06
9.471687836500001,9.471687836500001,8,0,0.6790908629493378,0.02033579783768658,1.087471966034707,2.156822123167731e-06,-4.781981372788732e-07,8.699775728277653e-06,5.384348557574384e-06,5.182088789250534e-06
10.5283121635,8.028312163500001,8,0,0.7114299504491589,0.1493916428759886,0.6458043991319036,2.157062527136517e-06,-9.109070315616377e-08,5.166435193055229e-06,3.850176247719866e-06,5.420886876933699e-06
11.9716878365,8.028312163500001,8,0,0.7512419727050996,0.3086397318997514,0.7899316353575185,2.157062527136517e-06,3.866535639151245e-07,6.319453082860148e-06,4.553238668203007e-06,6.283925731526635e-06
10.5283121635,9.471687836500001,8,0,1.095769247050817,0.2454764670264031,0.705522432515801,3.310080416941491e-06,-9.109070315616377e-08,5.644179460126408e-06,4.904366886513055e-06,5.826500562697517e-06
11.9716878365,9.471687836500001,8,0,1.135581269306749,0.4047245560501297,0.849649668741416,3.310080416941491e-06,3.866535639150161e-07,6.797197349931328e-06,5.547972252443032e-06,6.918530807109955e-06
13.0283121635,8.028312163500001,8,0,1.312436987048362,0.5634254258251787,0.1322422028564356,3.749058017894614e-06,7.530117730018826e-07,1.057937622851485e-06,3.896418709371679e-06,7.210547094339121e-06
14.4716878365,8.028312163500001,8,0,1.356034068212251,0.7378137504807341,0.2901980155175561,3.749058017894614e-06,1.276176746968548e-06,2.321584124140449e-06,4.287066541794471e-06,8.879084882436243e-06
13.0283121635,9.471687836500001,8,0,1.733652487477958,0.6687293009325778,0.1976378246022553,5.012704519183402e-06,7.530117730018826e-07,1.581102596818042e-06,5.190777980009693e-06,8.067321131609642e-06
14.4716878365,9.471687836500001,8,0,1.777249568641846,0.843117625588133,0.3555936372633486,5.012704519183402e-06,1.276176746968548e-06,2.844749098106789e-06,5.549966882940349e-06,1.011384442110732e-05
15.5283121635,8.028312163500001,8,0,2.203841854266062,1.111970149964735,-0.7346738394813888,6.16271781367961e-06,1.795230996474301e-06,-5.87739071585111e-06,7.646816722998696e-06,1.068333368728171e-05
16.9716878365,8.028312163500001,8,0,2.278418321568417,1.410276019174156,-0.6048640994717273,6.16271781367961e-06,2.690148604102564e-06,-4.838912795773818e-06,7.544768312264516e-06,1.394409530372741e-05
15.5283121635,9.471687836500001,8,0,2.550001160958544,1.198509976637855,-0.6228091385278355,7.201195733757057e-06,1.795230996474301e-06,-4.982473108222684e-06,8.215387602764951e-06,1.217755633981528e-05
16.9716878365,9.471687836500001,8,0,2.624577628260868,1.49681584584715,-0.4929993985181469,7.201195733757057e-06,2.690148604102185e-06,-3.943995188145175e-06,8.177509922347384e-06,1.576919886465294e-05
18.0283121635,8.028312163500001,8,0,3.421205055755125,2.023504025270797,-2.117616564513976,9.329052958199761e-06,3.738248836262451e-06,-1.694093251611181e-05,1.54534643095919e-05,1.725402983149297e-05
19.4716878365,8.028312163500001,8,0,3.585250512270086,2.679685851330641,-2.098787701313253,9.329052958199761e-06,5.706794314441982e-06,-1.679030161050603e-05,1.610621487867577e-05,2.303617751501375e-05
18.0283121635,9.471687836500001,8,0,3.471415357623728,2.036056600737949,-1.871548379741542,9.479683863805572e-06,3.738248836262451e-06,-1.497238703793233e-05,1.4626703714608e-05,1.917287261894863e-05
19.4716878365,9.471687836500001,8,0,3.635460814138708,2.692238426797864,-1.852719516540799,9.479683863805572e-06,5.706794314442199e-06,-1.482175613232639e-05,1.524044691940172e-05,2.488023972363088e-05
20.5283121635,8.028312163500001,8,0,4.81133330674583,3.776245999685885,-4.248941700418088,1.237526978183794e-05,8.234920553598169e-06,-3.39915336033447e-05,2.742647689086688e-05,2.860420278566219e-05
21.9716878365,8.028312163500001,8,0,5.222868628032172,5.422387284831257,-4.481486079973893,1.237526978183794e-05,1.317334440903428e-05,-3.585188863979114e-05,3.070469221504912e-05,3.803418304002712e-05
20.5283121635,9.471687836500001,8,0,4.191214961263756,3.621216413315367,-3.631638718488587,1.051491474539173e-05,8.234920553598169e-06,-2.90531097479087e-05,2.394613550815933e-05,3.002373044839436e-05
21.9716878365,9.471687836500001,8,0,4.602750282550099,5.267357698460739,-3.864183098044365,1.051491474539173e-05,1.317334440903428e-05,-3.091346478435492e-05,2.735791017101159e-05,3.836864133262264e-05
23.0283121635,8.028312163500001,8,0,5.270101423190765,7.128901054957994,-6.822140652833649,1.116120371024405e-05,1.859640223731297e-05,-5.457712522266919e-05,4.241943102901647e-05,4.661284487494817e-05
24.4716878365,8.028312163500001,8,0,6.093238561893726,10.42144960976984,-7.211312484480656,1.116120371024405e-05,2.84740479017485e-05,-5.769049987584525e-05,4.993376910956442e-05,6.062020461553602e-05
23.0283121635,9.471687836500001,8,0,4.232309872132069,6.86945316719332,-5.587434944779234,8.047829057067964e-06,1.859640223731297e-05,-4.469947955823388e-05,3.628576011467402e-05,4.550247589377305e-05
24.4716878365,9.471687836500001,8,0,5.05544701083503,10.16200172200517,-5.976606776426262,8.047829057067964e-06,2.84740479017485e-05,-4.78128542114101e-05,4.425757020417375e-05,5.664756348422713e-05
25.5283121635,8.028312163500001,8,0,4.445111824572784,12.46040530030077,-8.110958177911602,4.256033598392292e-06,3.631720750130424e-05,-6.488766542329282e-05,5.647476776726585e-05,7.245487228806553e-05
26.9716878365,8.028312163500001,8,0,5.407633895767301,16.31049358507884,-8.374827438268996,4.256033598392292e-06,4.786747235563843e-05,-6.699861950615197e-05,6.603290697026141e-05,9.078042592089584e-05
25.5283121635,9.471687836500001,8,0,3.741460463619703,12.2844924600625,-6.667175071119842,2.145079515533047e-06,3.631720750130424e-05,-5.333740056895873e-05,5.090373667084176e-05,6.560090441356181e-05
26.9716878365,9.471687836500001,8,0,4.703982534814219,16.13458074484057,-6.93104433147727,2.145079515533047e-06,4.786747235563843e-05,-5.544835465181816e-05,6.094044227007416e-05,7.891679914057593e-05
28.0283121635,8.028312163500001,8,0.04418558414980955,3.384300964667653,18.11435759895095,-7.935973839361441,-3.830997871032517e-06,5.781300493962194e-05,-6.642271727866708e-05,7.230093747046844e-05,0.0001047962072317046
29.4716878365,8.028312163500001,8,0.2024318356255053,3.862253673679048,19.26836711936869,-6.722118073880714,-3.830997871032517e-06,7.343444041421865e-05,-6.74261423576518e-05,8.607606336061036e-05,0.0001247624802494063
28.0283121635,9.471687836500001,8,0,3.206276094962711,18.86813306737253,-6.350160225508796,-4.83442295001735e-06,5.781300493962194e-05,-5.080128180407037e-05,6.681753932684656e-05,8.889824053801224e-05
29.4716878365,9.471687836500001,8,0.0266020936603788,4.388138486732784,23.43482541931502,-6.303324152312943,-4.83442295001735e-06,7.343444041421838e-05,-5.180470688305504e-05,8.123012333767294e-05,0.0001028521508427248
30.5283121635,8.028312163500001,8,0.286621669483101,2.913060228195124,19.89312708075964,-5.766287645995675,-9.241532371198288e-06,8.596778995436836e-05,-6.466456744563624e-05,9.590946086545591e-05,0.0001376550828477783
31.9716878365,8.028312163500001,8,0.3718516655852478,3.539719128304317,21.41519297122755,-5.072268483994613,-9.241532371198288e-06,0.0001045881022139375,-6.459962663080799e-05,0.0001131146660777628,0.0001529120551721212
30.5283121635,9.471687836500001,8,0.1074690931985606,3.663945265922929,24.89377054263326,-5.136990104277135,-9.176591556369869e-06,8.596778995436836e-05,-4.60442551860668e-05,9.124568616368774e-05,0.000112212694426121
31.9716878365,9.471687836500001,8,0.1958642661155714,4.548844132202317,27.41940801098319,-4.62170121317734,-9.176591556369869e-06,0.0001045881022139376,-4.597931437123849e-05,0.0001090582265477596,0.0001238322647787968
33.0283121635,8.028312163500001,8,0.4103825962684288,3.835123343520674,22.29024141399779,-3.58922941029764,-9.429501905380024e-06,0.0001157711312759226,-4.869909724620911e-05,0.0001203400052074051,0.0001607308092476728
34.4716878365,8.028312163500001,8,0.4383247074495381,4.2118820234931,23.46792589560923,-3.472668894099732,-9.429501905380024e-06,0.000127703422597516,-4.946158665204581e-05,0.0001320270960587534,0.0001668350703105315
33.0283121635,9.471687836500001,8,0.2412391515973472,4.74245549088414,28.63642693130047,-3.487151607052198,-1.019199131121654e-05,0.0001157711312759229,-3.676680592461636e-05,0.0001183992229874582,0.0001304721732599096
34.4716878365,9.471687836500001,8,0.2825907290014201,5.197358590274383,29.92922068185218,-3.36548305051384,-1.019199131121654e-05,0.0001277034225975159,-3.752929533045303e-05,0.0001302112843293287,0.0001369931702360128
35.5283121635,8.028312163500001,8,0.445894365669888,5.26018005353071,24.44339751020639,-1.942710466284714,-4.912676695947666e-06,0.000133567903671132,-2.804823262457328e-05,0.0001349738704517183,0.0001685582900991804
36.9716878365,8.028312163500001,8,0.4397711118259608,5.50924260482436,25.47724967345903,-2.215428645799641,-4.912676695947666e-06,0.0001376576726033656,-3.163605008689094e-05,0.0001393915779335822,0.0001671619530517189
35.5283121635,9.471687836500001,8,0.3002072194235984,5.80629307771991,30.66090286498698,-2.095744990700141,-8.500494158265214e-06,0.000133567903671132,-2.395846369233966e-05,0.0001345709132745128,0.0001399224716820499
36.9716878365,9.471687836500001,8,0.3089045467665161,5.969665015569166,31.22197614104526,-2.37963870743435,-8.500494158265214e-06,0.0001376576726033656,-2.754628115465721e-05,0.0001389442521937295,0.0001414044750875453
38.0283121635,8.028312163500001,8,0.429593133955427,6.585911423158253,26.41833663399365,-0.9667784205354215,-1.047546175291672e-07,0.0001389708869389008,-1.355914142113255e-05,0.0001393005915040291,0.0001648851728652647
39.4716878365,8.028312163500001,8,0.4072068022229685,6.819585216605304,27.355963147305,-1.435817843658752,-1.047546175291672e-07,0.0001384688862927302,-1.937698136946314e-05,0.0001391429859325329,0.0001600612307654029
38.0283121635,9.471687836500001,8,0.3085428939853729,6.642627242385753,31.68953409280218,-1.215334575139762,-5.922594565859737e-06,0.0001389708869389009,-1.406114206730334e-05,0.000139311227284074,0.0001413423652248005
39.4716878365,9.471687836500001,8,0.2988339675272094,6.706565924003714,32.01716636312584,-1.74230836868751,-5.922594565859737e-06,0.0001384688862927303,-1.987898201563404e-05,0.0001391498802690645,0.0001396906745186278
40.5283121635,8.028312163500001,8,0.3880457182356639,7.336740080535091,28.11045716532351,-0.4303092356880281,1.616464750604408e-06,0.0001374025370362356,-5.625377561832183e-06,0.0001374696060176235,0.000156119209683652
41.97168783650001,8.028312163500001,8,0.3575750232016182,7.572963248665389,28.99378133228351,-0.9239608191566856,1.616464750604408e-06,0.0001349912173349256,-1.150591402920078e-05,0.0001352458307848295,0.000150173349903205
40.5283121635,9.471687836500001,8,0.2882987002897668,7.137548555054819,32.34362594881756,-0.7149659859445158,-4.264071716764063e-06,0.0001374025370362356,-8.036697263142409e-06,0.0001375164252371642,0.0001379319071460693
41.97168783650001,9.471687836500001,8,0.2688855740790027,7.185327415420769,32.63821509329297,-1.271886293661349,-4.264071716764063e-06,0.0001349912173349258,-1.391723373051087e-05,0.0001353380769580554,0.0001347785560315135
43.0283121635,8.028312163500001,8,0.3337009383420396,7.74695025807673,29.59540424938669,0.04652672794126381,1.671797981471575e-06,0.0001328348462195656,5.586287673945182e-07,0.0001328459533132883,0.0001457672431793123
44.4716878365,8.028312163500001,8,0.2987433253909028,7.950032521667881,30.33468072029033,-0.420205342884037,1.671797981471575e-06,0.0001293548504734873,-4.793740815295887e-06,0.0001294100545746397,0.0001396753955260018
43.0283121635,9.471687836500001,8,0.2527568389515464,7.354900212954478,32.85745329901781,-0.2728714369667605,-3.680571601218823e-06,0.0001328348462195656,-2.921366978683574e-06,0.0001328504734071836,0.0001322408757106867
44.4716878365,9.471687836500001,8,0.2278592754263364,7.376039256639594,33.05655605532132,-0.7985611179288671,-3.680571601218823e-06,0.0001293548504734875,-8.273736561374007e-06,0.0001294833663422433,0.0001284611552550814
45.52831216350001,8.028312163500001,8,0.272313816588975,7.934131962444826,30.77632604806776,0.5526827784494135,1.05562185854414e-06,0.000126616307804512,6.076056311622859e-06,0.0001266935790389796,0.0001353274027868664
46.97168783650001,8.028312163500001,8,0.2350773196922392,8.085038521708727,31.3308177100486,0.1286171228060734,1.05562185854414e-06,0.0001226144658399364,1.345151619814178e-06,0.0001226226989066923,0.0001295403133654135
45.52831216350001,9.471687836500001,8,0.2085342552021895,7.38141904167978,33.1617517479346,0.2052087003820113,-3.675282833264616e-06,0.000126616307804512,2.074214347047294e-06,0.0001266245625440803,0.0001256358815760455
46.97168783650001,9.471687836500001,8,0.1805159462166065,7.36943806824831,33.2425468667485,-0.2721394216715411,-3.675282833264616e-06,0.0001226144658399364,-2.656690344761468e-06,0.0001226284361403466,0.0001216968107949095
48.0283121635,8.028312163500001,8,0.2075728490208959,7.962027350280897,31.61651104715861,1.081125452001404,2.338116291738043e-07,0.0001196365033095424,1.091457253240847e-05,0.0001198854090828467,0.0001254976954085437
49.47168783650001,8.028312163500001,8,0.1698243181109718,8.055308572908421,31.97860338078,0.6999349503631744,2.338116291738043e-07,0.0001155024003376996,6.744933301544109e-06,0.0001156010649357059,0.0001202401471757684
48.0283121635,9.471687836500001,8,0.159485729795938,7.276975934320869,33.2430528176383,0.7123851780424708,-3.935827601690462e-06,0.0001196365033095424,6.780469560565736e-06,0.0001197294452616306,0.0001188549341573666
49.47168783650001,9.471687836500001,8,0.1300382744088243,7.232215834976994,33.20888755490299,0.2839153073565984,-3.935827601690462e-06,0.0001155024003376997,2.610830329701375e-06,0.0001155166663332975,0.0001150298535755621
50.5283121635,8.028312163500001,8,0.1424963395448718,7.862548128815307,32.12047014450886,1.592987791913897,-6.25329229630925e-07,0.0001125306752721734,1.486163024487526e-05,0.0001130165613578273,0.0001166268470665008
51.97168783650001,8.028312163500001,8,0.1058371775965808,7.901758399913226,32.30596628577558,1.251434179724079,-6.25329229630925e-07,0.0001085458743785277,1.119647695805872e-05,0.0001088321979860975,0.0001120126758173432
50.5283121635,9.471687836500001,8,0.1084730618076529,7.085317117757764,33.12261939760133,1.212123296092787,-4.29048251644748e-06,0.0001125306752721734,1.087682935122951e-05,0.0001127833052992338,0.0001123359900420709
51.97168783650001,9.471687836500001,8,0.07908152207666634,7.013096908593097,32.99136842012675,0.8301707180644163,-4.29048251644748e-06,0.0001085458743785277,7.211676064412971e-06,0.0001086609863646161,0.0001088012985814076
53.0283121635,8.028312163500001,8,0.07985034485516741,7.650476712245704,32.32404603099258,2.058465063136124,-1.497268773513756e-06,0.0001057616719033187,1.789678495559177e-05,0.0001065030928277441,0.0001088918278664701
54.4716878365,8.028312163500001,8,0.04582280764325006,7.645409564793599,32.36746290231788,1.754448466312736,-1.497268773513756e-06,0.0001021398901758112,1.470962400163327e-05,0.0001026592361313687,0.0001049796839507827
53.0283121635,9.471687836500001,8,0.05807859073438369,6.830810370286326,32.83869729427838,1.68074139473355,-4.6844297274723e-06,0.0001057616719033187,1.427500322808431e-05,0.0001062210175041176,0.0001063667761356692
54.4716878365,9.471687836500001,8,0.03023809772463206,6.740020688394717,32.6385596080649,1.344070876985676,-4.6844297274723e-06,0.0001021398901758112,1.108784227412573e-05,0.0001024268353589269,0.0001032502285821255
55.5283121635,8.028312163500001,8,0.02225494305308848,7.339576294702071,32.3145053694051,2.482944879298449,-2.418790190422673e-06,9.975479339255865e-05,2.031568341180181e-05,0.0001007548717668714,0.0001023788582697677
56.97168783650001,8.028312163500001,8,0,7.265434063773623,32.08522399312283,2.193042134060971,-2.418790190422673e-06,9.686036952697416e-05,1.754433707248777e-05,9.762950745970904e-05,9.918541428299005e-05
55.5283121635,9.471687836500001,8,0.0108302735614519,6.511559830488137,32.46364673607551,2.154072817443346,-5.190136529736704e-06,9.975479339255865e-05,1.742125954621736e-05,0.0001004728788153188,0.0001011485406808634
56.97168783650001,9.471687836500001,8,0,6.341651950668953,31.85427846484669,1.831239150862921,-5.190136529736704e-06,9.686036952697425e-05,1.464991320690337e-05,9.738345726580691e-05,9.852317010626197e-05
58.0283121635,8.028312163500001,8,0,6.958586340624871,31.4066408173635,2.924453100004845,-2.857836363891212e-06,9.493438154306328e-05,2.339562480003876e-05,9.631419412004e-05,9.707270590864143e-05
59.47168783650001,8.028312163500001,8,0,6.761296910503932,30.61748309687974,2.610159230030552,-2.857836363891212e-06,9.256690838161202e-05,2.088127384024442e-05,9.369588505589155e-05,9.449412327487706e-05
58.0283121635,9.471687836500001,8,0,6.120469354026767,31.19711157071397,2.628518954823446,-5.372187323685523e-06,9.493438154306328e-05,2.102815163858757e-05,9.602461113623485e-05,9.674299965632574e-05
59.47168783650001,9.471687836500001,8,0,5.923179923905828,30.40795385023021,2.314225084849148,-5.372187323685523e-06,9.256690838161202e-05,1.851380067879318e-05,9.343416240053581e-05,9.450485411536183e-05
60.5283121635,8.028312163500001,8,0,6.423261535356447,30.03152142001833,3.036819244062847,-3.470780222874032e-06,9.096225931577349e-05,2.429455395250277e-05,9.249977606718007e-05,9.277252265089749e-05
61.9716878365,8.028312163500001,8,0,6.255219067446093,29.35935154837691,2.761682214644221,-3.470780222874032e-06,8.894574970084924e-05,2.209345771715376e-05,9.024784118114161e-05,9.064760490940741e-05
60.5283121635,9.471687836500001,8,0,5.689562790240131,29.84809673373925,2.78475554219732,-5.671876458222981e-06,9.096225931577349e-05,2.227804433757856e-05,9.22296331829543e-05,9.297425322621306e-05
61.9716878365,9.471687836500001,8,0,5.521520322329779,29.17592686209784,2.509618512778699,-5.671876458222981e-06,8.894574970084926e-05,2.007694810222959e-05,8.999905771075041e-05,9.103071937173464e-05
63.0283121635,8.028312163500001,8,0,5.854193632965316,28.83617015787426,2.981020104449915,-4.335516500810395e-06,8.759238959882537e-05,2.384816083559932e-05,8.911389404681428e-05,8.92199164959144e-05
64.47168783650001,8.028312163500001,8,0,5.714115387557081,28.27585717624132,2.746628708293809,-4.335516500810395e-06,8.591145065392655e-05,2.197302966635047e-05,8.722967546822496e-05,8.744431695419832e-05
63.0283121635,9.471687836500001,8,0,5.229149909882356,28.67990922710352,2.770902736337575,-6.210647670059277e-06,8.759238959882537e-05,2.21672218907006e-05,8.888421990181246e-05,8.970083281162775e-05
64.47168783650001,9.471687836500001,8,0,5.089071664474125,28.1195962454706,2.536511340181464,-6.210647670059277e-06,8.591145065392661e-05,2.029209072145171e-05,8.701566928896242e-05,8.801104901543667e-05
65.5283121635,8.028312163500001,8,0,5.266459974977656,27.8109484929634,2.848161092365485,-5.396086874442218e-06,8.478186719750074e-05,2.278528873892388e-05,8.619889188044073e-05,8.624383803788747e-05
66.97168783650001,8.028312163500001,8,0,5.149364937512894,27.34256834310435,2.651732097377714,-5.396086874442218e-06,8.33767267479236e-05,2.121385677902171e-05,8.462649023474044e-05,8.473966818668758e-05
65.5283121635,9.471687836500001,8,0,4.742649321676942,27.67999582963822,2.67251853616834,-6.96751883434436e-06,8.478186719750074e-05,2.138014828934672e-05,8.601094414241834e-05,8.685317068859424e-05
66.97168783650001,9.471687836500001,8,0,4.625554284212186,27.21161567977919,2.476089541180576,-6.96751883434436e-06,8.337672674792366e-05,1.980871632944461e-05,8.444978736125233e-05,8.537957206673449e-05
68.0283121635,8.028312163500001,8,0,4.677763772435281,26.92660589643454,2.684983924360849,-6.572440645354729e-06,8.242292785064228e-05,2.147987139488679e-05,8.370067502846207e-05,8.371269199434505e-05
69.47168783650001,8.028312163500001,8,0,4.577706555926161,26.52637703039806,2.521832980393195,-6.572440645354729e-06,8.122224125253285e-05,2.017466384314556e-05,8.236633464668917e-05,8.241111070978222e-05
68.0283121635,9.471687836500001,8,0,4.242694588521549,26.8178386004561,2.534898099597186,-7.877648197095926e-06,8.242292785064228e-05,2.027918479677749e-05,8.354746929856919e-05,8.436398979216298e-05
69.47168783650001,9.471687836500001,8,0,4.142637372012434,26.41760973441964,2.371747155629536,-7.877648197095926e-06,8.12222412525329e-05,1.897397724503629e-05,8.22211771737652e-05,8.306296604050906e-05
70.5283121635,8.028312163500001,8,0,4.100925325050865,26.14856608888839,2.513468404813193,-7.79589183094794e-06,8.039467122440214e-05,2.010774723850554e-05,8.152630897890711e-05,8.151025008139407e-05
71.97168783650001,8.028312163500001,8,0,4.012568927912433,25.79514050033466,2.378698975899487,-7.79589183094794e-06,7.933439445874095e-05,1.90295918071959e-05,8.036132503017384e-05,8.035063435855736e-05
70.5283121635,9.471687836500001,8,0,3.741540181280958,26.05871980294591,2.380933809105542,-8.874047262257662e-06,8.039467122440214e-05,1.904747047284434e-05,8.13994131763861e-05,8.215705774781228e-05
71.97168783650001,9.471687836500001,8,0,3.653183784142528,25.70529421439219,2.24616438019183,-8.874047262257662e-06,7.933439445874098e-05,1.796931504153464e-05,8.024024323246e-05,8.09830940167154e-05
73.0283121635,8.028312163500001,8,0,3.544650211716483,25.4454215115036,2.343147776548664,-9.013456531710131e-06,7.858962866743831e-05,1.874518221238931e-05,7.95811725673032e-05,7.953440507311485e-05
74.47168783650001,8.028312163500001,8,0,3.463445110382883,25.1206011061692,2.232285438812365,-9.013456531710131e-06,7.761516745143512e-05,1.785828351049892e-05,7.852595235957128e-05,7.846404091740221e-05
73.0283121635,9.471687836500001,8,0,3.24901731108634,25.37151328634606,2.221340124548275,-9.900355233600561e-06,7.858962866743831e-05,1.77707209963862e-05,7.947299746583573e-05,8.015413387940804e-05
74.47168783650001,9.471687836500001,8,0,3.167812209752744,25.04669288101168,2.110477786811964,-9.900355233600561e-06,7.761516745143517e-05,1.688382229449571e-05,7.842205063265134e-05,7.906333639783567e-05
75.5283121635,8.028312163500001,8,0,3.014787246180388,24.79001970484241,2.177091875782454,-1.018469657609669e-05,7.69162332585514e-05,1.741673500625963e-05,7.777836406681673e-05,7.769630126125475e-05
76.97168783650001,8.028312163500001,8,0,2.936865370331753,24.47833220144787,2.0862723284729,-1.018469657609669e-05,7.598117074836777e-05,1.66901786277832e-05,7.678194349980497e-05,7.666916166929787e-05
75.5283121635,9.471687836500001,8,0,2.772601786688244,24.72947333996937,2.060209062009509,-1.091125295457312e-05,7.69162332585514e-05,1.648167249607607e-05,7.768277904649072e-05,7.828027996075453e-05
76.97168783650001,9.471687836500001,8,0,2.694679910839611,24.41778583657484,1.969389514699955,-1.091125295457312e-05,7.59811707483678e-05,1.575511611759964e-05,7.668956505766628e-05,7.723172747093647e-05
78.0283121635,8.028312163500001,8,0,2.515538575691851,24.1589594650348,2.014956796141583,-1.127744412981392e-05,7.529623942755789e-05,1.611965436913266e-05,7.604019920208087e-05,7.591807934797356e-05
79.47168783650001,8.028312163500001,8,0,2.437521520854859,23.84689124568684,1.940913716426931,-1.127744412981392e-05,7.436003476951398e-05,1.552730973141544e-05,7.505817463043519e-05,7.489322387731843e-05
78.0283121635,9.471687836500001,8,0,2.318090363119438,24.10959741189169,1.897931213886098,-1.186978876753115e-05,7.529623942755786e-05,1.518344971108878e-05,7.595249978280082e-05,7.646571290660656e-05
79.47168783650001,9.471687836500001,8,0,2.240073308282448,23.79752919254373,1.823888134171444,-1.186978876753115e-05,7.436003476951398e-05,1.459110507337155e-05,7.497292541116323e-05,7.54214746872486e-05
80.5283121635,8.028312163500001,8,0,2.050372288554569,23.53157918882104,1.854485422282414,-1.226407202768221e-05,7.366075557338367e-05,1.483588337825931e-05,7.429644790685099e-05,7.413016462546248e-05
81.97168783650001,8.028312163500001,8,0,1.969183819009464,23.20682531064062,1.794460533835185,-1.226407202768221e-05,7.26864939388424e-05,1.435568427068148e-05,7.328871183745676e-05,7.307030345077302e-05
80.5283121635,9.471687836500001,8,0,1.890305919361974,23.49156259652289,1.732702717964757,-1.274427113525999e-05,7.366075557338367e-05,1.386162174371806e-05,7.421316536459867e-05,7.46456644302194e-05
81.97168783650001,9.471687836500001,8,0,1.809117449816871,23.16680871834248,1.672677829517535,-1.274427113525999e-05,7.268649393884243e-05,1.338142263614028e-05,7.320731756315986e-05,7.357034961025037e-05
83.02831216350002,8.028312163500001,8,0,1.622696536655998,22.88893644952523,1.692203009329586,-1.311852024232099e-05,7.194643940915593e-05,1.353762407463669e-05,7.24816813309559e-05,7.226902228176593e-05
84.47168783650002,8.028312163500001,8,0,1.535396124904364,22.53973480251869,1.643831415254652,-1.311852024232099e-05,7.089883446813631e-05,1.315065132203721e-05,7.141031563429784e-05,7.113974259148678e-05
83.02831216350002,9.471687836500001,8,0,1.493705619122834,22.85668872014194,1.56125239170213,-1.350549299492048e-05,7.194643940915593e-05,1.249001913361704e-05,7.24004261064348e-05,7.275970039135556e-05
84.47168783650002,9.471687836500001,8,0,1.4064052073712,22.5074870731354,1.512880797627192,-1.350549299492048e-05,7.089883446813631e-05,1.210304638101753e-05,7.1330501863402e-05,7.162028035809382e-05
85.5283121635,8.028312163500001,8,0,1.236378305688462,22.21288282424218,1.523672925400056,-1.381389568119067e-05,7.009212239302422e-05,1.218938340320045e-05,7.053251183026858e-05,7.027637398275136e-05
86.97168783650002,8.028312163500001,8,0,1.140013852741813,21.82742501245558,1.484863726806815,-1.381389568119067e-05,6.893574895766442e-05,1.187890981445452e-05,6.935988651236754e-05,6.904688676820501e-05
85.5283121635,9.471687836500001,8,0,1.132887109439864,22.18701002518003,1.379126245980085,-1.412436926993646e-05,7.009212239302422e-05,1.103300996784068e-05,7.04519374337099e-05,7.07518805918871e-05
86.97168783650002,9.471687836500001,8,0,1.03652265649322,21.80155221339346,1.34031704738685,-1.412436926993646e-05,6.893574895766449e-05,1.07225363790948e-05,6.928037201096846e-05,6.951878834249034e-05
88.02831216350002,8.028312163500001,8,0,0.8961828276764701,21.4852322731,1.343491938968882,-1.43204007699153e-05,6.803579701177882e-05,1.074793551175106e-05,6.838498261806171e-05,6.81017995067604e-05
89.47168783650001,8.028312163500001,8,0,0.7876544105702292,21.05111860467504,1.312308323159261,-1.43204007699153e-05,6.673345600650393e-05,1.049846658527409e-05,6.707199439335513e-05,6.674926030534418e-05
88.02831216350002,9.471687836500001,8,0,0.8130265188507755,21.46444319589358,1.180699313309523,-1.456986969639238e-05,6.803579701177882e-05,9.445594506476182e-06,6.83049356697419e-05,6.857389844546867e-05
89.47168783650001,9.471687836500001,8,0,0.7044981017445355,21.03032952746862,1.149515697499903,-1.456986969639238e-05,6.673345600650395e-05,9.196125579999224e-06,6.699267036404006e-05,6.722550348853397e-05
90.52831216350002,8.028312163500001,8,0,0.6081943877542439,20.68698360550782,1.145105291284927,-1.460336484359268e-05,6.571179202742163e-05,9.160842330279414e-06,6.597217202444751e-05,6.571342494438522e-05
91.97168783650001,8.028312163500001,8,0,0.484119646590945,20.19068464085463,1.119640327862948,-1.460336484359268e-05,6.422289513346205e-05,8.95712262290358e-06,6.44765311703241e-05,6.423600931126479e-05
90.52831216350002,9.471687836500001,8,0,0.5402878186289728,20.67000696322651,0.9589931795399831,-1.480708455096849e-05,6.571179202742163e-05,7.671945436319864e-06,6.58941274141668e-05,6.619592679728684e-05
91.97168783650001,9.471687836500001,8,0,0.4162130774656738,20.17370799857331,0.9335282161180039,-1.480708455096849e-05,6.422289513346205e-05,7.468225728944031e-06,6.439893728986066e-05,6.473146592332613e-05
93.02831216350002,8.028312163500001,8,0,0.3802691108538303,19.7975484626343,0.9204657718042047,-1.462117761537518e-05,6.304793979174667e-05,7.363726174433638e-06,6.322208608454944e-05,6.312855964914775e-05
94.47168783650002,8.028312163500001,8,0,0.2368407111565087,19.22383486384501,0.8987053273355851,-1.462117761537518e-05,6.132679899537881e-05,7.18964261868468e-06,6.149657201558442e-05,6.158036653841086e-05
93.02831216350002,9.471687836500001,8,0,0.3222412589375256,19.78304149965522,0.7053231722582253,-1.479526117112409e-05,6.304793979174667e-05,5.642585378065802e-06,6.315005871881542e-05,6.363674360583763e-05
94.47168783650002,9.471687836500001,8,0,0.1788128592402067,19.20932790086594,0.683562727789608,-1.479526117112409e-05,6.132679899537884e-05,5.468501822316864e-06,6.142488497950168e-05,6.211036748811303e-05
95.5283121635,8.028312163500001,8,0,0.2225665228366314,18.79393396289982,0.659523954070239,-1.432293429724263e-05,5.996253546301011e-05,5.276191632561912e-06,6.00561041576377e-05,6.049418048751628e-05
96.97168783650002,8.028312163500001,8,0,0.05539181540869897,18.12523513318809,0.6391838500782415,-1.432293429724263e-05,5.795643897387491e-05,5.113470800625932e-06,5.804676539411836e-05,5.90748581206104e-05
95.5283121635,9.471687836500001,8,0,0.1683262455246366,18.78037389357182,0.408761892928335,-1.448565512917862e-05,5.996253546301011e-05,3.27009514342668e-06,5.999842743441867e-05,6.104202946070916e-05
96.97168783650002,9.471687836500001,8,0,0.001151538096702431,18.11167506386008,0.3884217889363384,-1.448565512917862e-05,5.795643897387489e-05,3.107374311490707e-06,5.798974605101582e-05,5.96496518077844e-05
98.02831216350002,8.028312163500001,8,0,0.1482091450383978,17.64982692234744,0.3495053472229169,-1.364559227375507e-05,5.636087883548107e-05,2.796042777783335e-06,5.638878604121092e-05,5.82924519691511e-05
99.47168783650002,8.028312163500001,8,0,-0.0478787612677305,16.86547529712292,0.3278244725922237,-1.364559227375507e-05,5.400782395980753e-05,2.62259578073779e-06,5.403323075738873e-05,5.757420097802483e-05
98.02831216350002,9.471687836500001,8,0,0.09039347935654618,17.63537300592697,0.05537348776372852,-1.381903927080063e-05,5.636087883548107e-05,4.429879021098282e-07,5.636157788277281e-05,5.888316327862119e-05
99.47168783650002,9.471687836500001,8,0,-0.1056944269495776,16.85102138070248,0.03369261313303624,-1.381903927080063e-05,5.400782395980759e-05,2.6954090506429e-07,5.400809174460998e-05,5.81814553263643e-05
0.5283121635,10.5283121635,8,0,-0.08418349431192063,-2.560245829762617,0.1776849664606893,1.778809482011948e-06,-8.125439859790837e-06,1.421479731685514e-06,1.829552979776246e-06,2.500512930676329e-06
1.9716878365,10.5283121635,8,0,0.07402824528281671,-1.927398871383668,0.2126701970365434,1.778809482011948e-06,-6.226898984653989e-06,1.701361576292347e-06,1.868203996816446e-06,2.654397132706947e-06
0.5283121635,11.9716878365,8,0,0.009110453890316506,-2.536922342712058,0.4150025758528088,2.058691326618659e-06,-8.125439859790837e-06,3.320020606822471e-06,2.322441844235033e-06,2.636641140593316e-06
1.9716878365,11.9716878365,8,0,0.1673221934850538,-1.904075384333108,0.4499878064286359,2.058691326618659e-06,-6.226898984653989e-06,3.599902451429087e-06,2.432817259125794e-06,2.760954268697113e-06
3.0283121635,10.5283121635,8,0,0.104731486733903,-1.54291028538765,0.5666380779556469,1.56946898585861e-06,-5.021098102627602e-06,4.533104623645175e-06,2.273704540105686e-06,2.857396777105948e-06
4.4716878365,10.5283121635,8,0,0.2210455199430995,-1.077654152550864,0.5976527958752385,1.56946898585861e-06,-3.625329704117245e-06,4.781222367001908e-06,2.502155360513131e-06,3.258117917515394e-06
3.0283121635,11.9716878365,8,0,0.1874374011859983,-1.522233806774762,0.7411091277694957,1.817586729215004e-06,-5.021098102628036e-06,5.928873022155966e-06,2.923704111538544e-06,2.939759959135509e-06
4.4716878365,11.9716878365,8,0,0.3037514343951948,-1.056977673937976,0.7721238456890331,1.817586729215004e-06,-3.625329704117679e-06,6.176990765512265e-06,3.212575834495913e-06,3.303953062012609e-06
5.528312163500001,10.5283121635,8,0,0.3953132927964533,-0.7492204080964048,0.6537569786508999,1.864378863425774e-06,-2.713755940145657e-06,5.230055829207199e-06,3.05068202664087e-06,3.607423171076669e-06
6.9716878365,10.5283121635,8,0,0.4865380794308152,-0.3843212615589572,0.692291931745487,1.864378863425774e-06,-1.619058500533315e-06,5.538335453963896e-06,3.394032044642912e-06,4.161021730787932e-06
5.528312163500001,11.9716878365,8,0,0.4980731677153568,-0.7235304393666789,0.7905941586023886,2.172658488182485e-06,-2.713755940145657e-06,6.324753268819108e-06,3.725685434975809e-06,3.652698712378106e-06
6.9716878365,11.9716878365,8,0,0.5892979543496554,-0.3586312928294844,0.8291291116969621,2.172658488182485e-06,-1.619058500534074e-06,6.633032893575697e-06,4.096951924368949e-06,4.241296445258702e-06
8.028312163500001,10.5283121635,8,0,0.8018977816273869,-0.07405990000496129,0.4951438919850119,2.625320821211607e-06,-8.785099053177856e-07,3.961151135880095e-06,3.517623115471327e-06,4.643359700173002e-06
9.471687836500001,10.5283121635,8,0,0.8792743606340094,0.2354464160215289,0.5409585021087836,2.625320821211607e-06,5.000904276168498e-08,4.327668016870269e-06,3.855647319755906e-06,5.407532979297379e-06
8.028312163500001,11.9716878365,8,0,0.9240700752909318,-0.04351682658907507,0.6112087604948644,2.991837702202241e-06,-8.785099053177856e-07,4.889670083958915e-06,4.174694692589343e-06,4.799140963237516e-06
9.471687836500001,11.9716878365,8,0,1.001446654297491,0.2659894894371622,0.6570233706186903,2.991837702202241e-06,5.000904276092604e-08,5.256186964949523e-06,4.532644527901502e-06,5.734602796263607e-06
10.5283121635,10.5283121635,8,0,1.345973664144011,0.5636603819974823,0.0917186499636445,3.85618741966285e-06,7.269342910767342e-07,7.33749199709156e-07,3.958258306774101e-06,6.160824113644685e-06
11.9716878365,10.5283121635,8,0,1.422713266087651,0.8706187897720414,0.1340904234715083,3.85618741966285e-06,1.647809514400411e-06,1.072723387772066e-06,4.26155198779167e-06,7.454680486535839e-06
10.5283121635,11.9716878365,8,0,1.458965060164819,0.5919082310026842,0.206828052879077,4.195161607725272e-06,7.269342910767342e-07,1.654624423032616e-06,4.415507373917898e-06,6.668599355274209e-06
11.9716878365,11.9716878365,8,0,1.535704662108432,0.8988666387771348,0.249199826386846,4.195161607725272e-06,1.647809514400086e-06,1.993598611094768e-06,4.722486084866638e-06,8.284863575668072e-06
13.0283121635,10.5283121635,8,0,2.041692853244326,1.263518522237534,-0.5939868165486819,5.522602312591816e-06,2.409904988564648e-06,-4.751894532389455e-06,6.899060021512325e-06,8.772662734603202e-06
14.4716878365,10.5283121635,8,0,2.138460214277769,1.650587966371304,-0.5778092944200172,5.522602312591816e-06,3.571113320965957e-06,-4.622474355360138e-06,7.344087502011808e-06,1.107960082705902e-05
13.0283121635,11.9716878365,8,0,2.084832912254139,1.274303536989987,-0.4488357749985318,5.652022489621255e-06,2.409904988564648e-06,-3.590686199988254e-06,6.648271502464853e-06,9.84291779348509e-06
14.4716878365,11.9716878365,8,0,2.181600273287582,1.661372981123757,-0.4326582528698265,5.652022489621255e-06,3.571113320965957e-06,-3.461266022958612e-06,7.119577923950887e-06,1.248333685729528e-05
15.5283121635,10.5283121635,8,0,2.870181564886255,2.174694744661278,-1.625458663927455,7.444825211906991e-06,4.662877931007085e-06,-1.300366931141964e-05,1.270281100573063e-05,1.33026744455481e-05
16.9716878365,10.5283121635,8,0,3.021977235908195,2.78187742874904,-1.672067389867667,7.444825211906991e-06,6.484425983270374e-06,-1.337653911894133e-05,1.367256750462918e-05,1.706928642802868e-05
15.5283121635,11.9716878365,8,0,2.745891629045587,2.143622260701111,-1.397765157394517,7.071955404384987e-06,4.662877931007085e-06,-1.118212125915613e-05,1.158770476705023e-05,1.488233162252294e-05
16.9716878365,11.9716878365,8,0,2.89768730006755,2.750804944788964,-1.444373883334769,7.071955404384987e-06,6.484425983270645e-06,-1.155499106667815e-05,1.260235068745635e-05,1.879608814468513e-05
18.0283121635,10.5283121635,8,0,3.721469085687485,3.534476222345531,-3.065265165284897,9.081120096323528e-06,8.333148642955708e-06,-2.452212132227917e-05,2.097389734362375e-05,2.049435644678844e-05
19.4716878365,10.5283121635,8,0,3.990573767630348,4.610894950116982,-3.220206086343513,9.081120096323528e-06,1.156240482627006e-05,-2.57616486907481e-05,2.326219635255977e-05,2.608520977543824e-05
18.0283121635,11.9716878365,8,0,3.308293296197811,3.431182274973112,-2.661608142370548,7.841592727854505e-06,8.333148642955708e-06,-2.129286513896439e-05,1.873663982750819e-05,2.218587461852523e-05
19.4716878365,11.9716878365,8,0,3.577397978140692,4.507601002744636,-2.816549063429158,7.841592727854505e-06,1.156240482627028e-05,-2.253239250743326e-05,2.112076791805075e-05,2.75331869700977e-05
20.5283121635,10.5283121635,8,0,4.255421938347571,5.680041611784692,-4.831137107383886,9.073316913284473e-06,1.477179560703296e-05,-3.864909685907109e-05,3.14560233579691e-05,3.092679602672547e-05
21.9716878365,10.5283121635,8,0,4.717002145967904,7.526362442266024,-5.090907543023839,9.073316913284473e-06,2.031075809847695e-05,-4.072726034419071e-05,3.581660743957491e-05,3.856340232638169e-05
20.5283121635,11.9716878365,8,0,3.562700776641067,5.506861321358066,-4.13876679595336,6.995153428164958e-06,1.477179560703296e-05,-3.311013436762687e-05,2.78890409696497e-05,3.197448940666536e-05
21.9716878365,11.9716878365,8,0,4.0242809842614,7.353182151839398,-4.398537231593298,6.995153428164958e-06,2.031075809847695e-05,-3.518829785274639e-05,3.246466510557392e-05,3.876104096409108e-05
23.0283121635,10.5283121635,8,0,4.131595251480892,8.913960248910671,-6.451253172107407,6.089936605610318e-06,2.521939659532943e-05,-5.161002537685925e-05,4.317525416186798e-05,4.484181452818951e-05
24.4716878365,10.5283121635,8,0,4.787569191357159,11.53785600841574,-6.730714047131073,6.089936605610318e-06,3.309108387384462e-05,-5.384571237704858e-05,4.970870530181876e-05,5.435814935546191e-05
23.0283121635,11.9716878365,8,0,3.386366251417837,8.727652998894907,-5.467292262293001,3.854249605421151e-06,2.521939659532943e-05,-4.373833809834401e-05,3.887563842438725e-05,4.414722309191579e-05
24.4716878365,11.9716878365,8,0,4.042340191294103,11.35154875839997,-5.74675313731664,3.854249605421151e-06,3.309108387384462e-05,-4.597402509853312e-05,4.571419506404878e-05,5.207599476715224e-05
25.5283121635,10.5283121635,8,0,3.506416714047916,13.13782966117083,-7.242987889929775,7.102697560166626e-07,3.923592154450833e-05,-5.79439031194382e-05,5.476433648198245e-05,6.174529888823901e-05
26.9716878365,10.5283121635,8,0,4.249443500940759,16.10993680874221,-7.469115274867532,7.102697560166626e-07,4.815224298722245e-05,-5.975292219894025e-05,6.257949530667084e-05,7.24110319084804e-05
25.5283121635,11.9716878365,8,0,2.903410354213961,12.98707807121234,-6.12844770959045,-1.0987493234852e-06,3.923592154450833e-05,-4.90275816767236e-05,5.081204779594046e-05,5.806555657316979e-05
26.9716878365,11.9716878365,8,0,3.646437141106804,15.95918521878372,-6.354575094528206,-1.0987493234852e-06,4.815224298722245e-05,-5.083660075622565e-05,5.89174949874151e-05,6.650057206774295e-05
28.0283121635,10.5283121635,8,0,2.696077494493871,17.54502456684325,-6.754624857826238,-5.408571671094211e-06,5.398721661830329e-05,-5.40369988626099e-05,6.443859679019908e-05,8.02651223091417e-05
29.4716878365,10.5283121635,8,0,3.281504409402257,19.88673222647679,-6.825272157596802,-5.408571671094211e-06,6.101233959720392e-05,-5.460217726077442e-05,7.079355529404687e-05,9.10571633116583e-05
28.0283121635,11.9716878365,8,0,2.50768469510567,17.4979263669962,-5.876484485463639,-5.973750069258811e-06,5.398721661830329e-05,-4.701187588370911e-05,6.210343260731289e-05,7.257697137280801e-05
29.4716878365,11.9716878365,8,0,3.093111610014052,19.83963402662972,-5.947131785234217,-5.973750069258811e-06,6.101233959720386e-05,-4.757705428187374e-05,6.86006539885154e-05,8.07429875074546e-05
30.5283121635,10.5283121635,8,0,2.437851095048803,21.32393536626284,-5.947674814849442,-9.2580247888541e-06,6.628631229600203e-05,-4.758139851879554e-05,7.315419401842808e-05,9.847121004532964e-05
31.9716878365,10.5283121635,8,0.07167828351673369,2.834309435292341,22.08026957021145,-5.554708034731612,-9.2580247888541e-06,7.366995068856124e-05,-4.786881906220484e-05,8.008203462243576e-05,0.0001079347214097544
30.5283121635,11.9716878365,8,0,2.342044247245691,21.29998365431206,-5.024720015779486,-9.545445332263434e-06,6.628631229600203e-05,-4.019776012623589e-05,7.128405423378907e-05,8.637116496565481e-05
31.9716878365,11.9716878365,8,0,2.957347446625631,23.76119645183181,-5.060647583705636,-9.545445332263434e-06,7.36699506885613e-05,-4.048518066964509e-05,7.833279403211543e-05,9.358161560147881e-05
33.0283121635,10.5283121635,8,0.1196708057257226,2.659100869951925,22.52584602473478,-4.500431260109615,-1.08045423209925e-05,7.946507628985239e-05,-4.089771225928424e-05,8.388131871946025e-05,0.0001137238235742321
34.4716878365,10.5283121635,8,0.1686112149471578,3.096635438606704,23.61501089605428,-4.344915040677279,-1.08045423209925e-05,8.791401547693812e-05,-4.180874333445449e-05,9.215819885633142e-05,0.0001200764334540396
33.0283121635,11.9716878365,8,0,2.7168985587669,25.51206098027074,-4.056096634024922,-1.171557339616251e-05,7.946507628985282e-05,-3.244877307219938e-05,8.226595351668152e-05,9.822511727584863e-05
34.4716878365,11.9716878365,8,0.03433272394167671,3.303525371435803,27.35578379691022,-4.026808900103632,-1.171557339616251e-05,8.791401547693806e-05,-3.335980414736909e-05,9.063238083440234e-05,0.0001037009491399734
35.5283121635,10.5283121635,8,0.1928182529495056,3.4566154622709,24.42070350178352,-3.152760711313245,-1.049998138972999e-05,9.338783875049018e-05,-3.124709618703526e-05,9.568657839812659e-05,0.0001234042192939383
36.9716878365,10.5283121635,8,0.2120513441263938,3.801441040760632,25.54757194146206,-3.262302396506803,-1.049998138972999e-05,9.989366285903788e-05,-3.312197943039684e-05,0.0001023245732336669,0.0001261432894058288
35.5283121635,11.9716878365,8,0.06283205079115473,3.427565273593084,28.20691923178678,-2.898340901826769,-1.237486463309163e-05,9.338783875049018e-05,-2.474127207848745e-05,9.481551018346478e-05,0.0001069113329325834
36.9716878365,11.9716878365,8,0.09091838213917083,3.817703733341633,29.33301738519116,-3.024532192652695,-1.237486463309163e-05,9.989366285903788e-05,-2.661615532184895e-05,0.000101449610564674,0.0001102064327020374
38.0283121635,10.5283121635,8,0.2189447837303433,4.371261350190935,26.37688902676465,-2.019359720814208,-9.10751858847432e-06,0.0001035893930673917,-2.068340039218975e-05,0.0001045305456963022,0.0001271464809196577
39.4716878365,10.5283121635,8,0.2189563984824635,4.604930061773909,27.31143164613301,-2.300850443596269,-9.10751858847432e-06,0.0001071804916595644,-2.35669346922585e-05,0.0001083624962998911,0.0001271481809933863
38.0283121635,11.9716878365,8,0.1049603870307339,4.148895077744715,30.01116448154855,-1.91228589848017,-1.199105288854325e-05,0.0001035893930673919,-1.709230180001729e-05,0.0001042178876981576,0.0001119054113784533
39.4716878365,11.9716878365,8,0.115885074995256,4.362833087036506,30.70316837974894,-2.207616854441843,-1.199105288854325e-05,0.0001071804916595644,-1.997583610008618e-05,0.0001080117928372244,0.0001132520076741411
40.5283121635,10.5283121635,8,0.2150230714765508,5.108474776199779,28.02680342249019,-1.106977140436862,-7.738219090819312e-06,0.0001090465057259982,-1.128162727043812e-05,0.0001093183297186828,0.0001265743419477521
41.97168783650001,10.5283121635,8,0.2041316841894883,5.279298030412887,28.81544636563044,-1.481572334646636,-7.738219090819312e-06,0.000110553452371178,-1.489263794237421e-05,0.0001110203464094068,0.0001250048844459173
40.5283121635,11.9716878365,8,0.1197378154995253,4.669027017422303,31.16398029889017,-1.075535214998071,-1.134922976275528e-05,0.0001090465057259982,-9.774680625258565e-06,0.0001092445763905983,0.0001137321993119369
41.97168783650001,11.9716878365,8,0.1194602485649103,4.781076471175264,31.61611582754637,-1.473329160952322,-1.134922976275528e-05,0.0001105534523711781,-1.33856912971946e-05,0.0001109198098971759,0.0001136975109681327
43.0283121635,10.5283121635,8,0.193881979318629,5.571546542200593,29.37801724598646,-0.3488598357061991,-7.038007731115819e-06,0.000111090951518119,-3.462121691921244e-06,0.0001111163130252838,0.0001235534591940316
44.4716878365,10.5283121635,8,0.1765791529595771,5.688496489625578,29.99803881779286,-0.7495639288611483,-7.038007731115819e-06,0.0001110524798514697,-7.282438199666822e-06,0.0001111646471842803,0.0001211575491641574
43.0283121635,11.9716878365,8,0.1166358539952837,4.980528853619811,31.91193331235948,-0.3865373328379062,-1.085832423886149e-05,0.000111090951518119,-3.500593358570316e-06,0.0001111160677610884,0.0001133453633516331
44.4716878365,11.9716878365,8,0.1091397448079132,5.01993687755269,32.17130938819898,-0.8152384539680765,-1.085832423886149e-05,0.0001110524798514699,-7.320909866316084e-06,0.0001111622885961269,0.0001124179665153555
45.52831216350001,10.5283121635,8,0.1625264570834946,5.827624209281929,30.4147465852543,0.3571320242719709,-6.786363398070817e-06,0.0001106483786731717,3.411518152831498e-06,0.0001106731498811015,0.0001192599995901081
46.97168783650001,10.5283121635,8,0.1412965210443706,5.899104829835584,30.88076164356803,-0.03834189660847355,-6.786363398070817e-06,0.0001095828253892651,-3.572073252117777e-07,0.0001095830995098763,0.0001164717077735786
45.52831216350001,11.9716878365,8,0.1019014825044985,5.121258846914259,32.33442247724618,0.2633634463597403,-1.055508887611408e-05,0.0001106483786731717,2.345964868924835e-06,0.0001106597294948785,0.0001115322872715443
46.97168783650001,11.9716878365,8,0.0895267210023047,5.110977403117115,32.45656758640307,-0.1619231896266094,-1.055508887611408e-05,0.0001095828253892651,-1.422760609118496e-06,0.000109587037583211,0.0001100399634144179
48.0283121635,10.5283121635,8,0.1249719924742489,5.942336926868833,31.16745117288074,1.022988927673452,-6.763763812611619e-06,0.0001085473532216374,9.352742256249182e-06,0.0001087366896810752,0.0001143890653842335
49.47168783650001,10.5283121635,8,0.101533148088615,5.96948030179863,31.47419318193115,0.6509747324087631,-6.763763812611619e-06,0.0001067839439336416,5.796316077984529e-06,0.0001068578675335711,0.0001114874723788337
48.0283121635,11.9716878365,8,0.07933255121685662,5.160846900274864,32.5202163384211,0.8734064777309516,-1.032018999087619e-05,0.0001085473532216374,7.58933296825335e-06,0.0001086683690054003,0.000108830846246757
49.47168783650001,11.9716878365,8,0.06377500969176386,5.110476481466672,32.51943064360071,0.4719635150464174,-1.032018999087619e-05,0.0001067839439336417,4.032906789988859e-06,0.0001068186555980238,0.0001070198005693898
50.5283121635,10.5283121635,8,0.08411358251716512,5.95354130465911,31.64079579789858,1.641108085571325,-6.836332916277865e-06,0.0001053489948838077,1.433459917513915e-05,0.0001058050456179734,0.0001093956730176899
51.97168783650001,10.5283121635,8,0.05996434040127722,5.941551694324771,31.79920268003624,1.297761508630253,-6.836332916277865e-06,0.0001031920504612184,1.10443598208539e-05,0.0001034685067893768,0.0001065823638889616
50.5283121635,11.9716878365,8,0.0518025046716178,5.123640935945806,32.49705182279552,1.443352716917686,-1.012657227056316e-05,0.0001053489948838077,1.21776547525498e-05,0.0001056691605575559,0.0001056534345408093
51.97168783650001,11.9716878365,8,0.03460940709855501,5.043020362009857,32.3922034584623,1.072478402586489,-1.012657227056316e-05,0.0001031920504612184,8.887415398264409e-06,0.0001033660400954656,0.0001037314988061999
53.0283121635,10.5283121635,8,0.04254443255291296,5.877782621844705,31.86196066045555,2.200043346426051,-6.977518712721455e-06,0.0001015776097843379,1.838241623925914e-05,0.0001023503160842043,0.0001046127163242094
54.4716878365,10.5283121635,8,0.01917118734875577,5.837054925704596,31.90290894563141,1.876416438854909,-6.977518712721455e-06,9.932382025169625e-05,1.530474157897408e-05,9.987186998239601e-05,0.0001020448482328014
53.0283121635,11.9716878365,8,0.02194836212413449,5.000846185881409,32.2965076780601,1.971828720886952,-1.005519337300652e-05,0.0001015776097843379,1.612862670661745e-05,0.0001021571640451756,0.0001023455875303837
54.4716878365,11.9716878365,8,0.004556609693391894,4.902811436991347,32.12296547473307,1.623935493966263,-1.005519337300652e-05,9.932382025169632e-05,1.305095204633241e-05,9.971174976954412e-05,0.0001004811432445198
55.5283121635,10.5283121635,8,0.002706410432877399,5.736821811257891,31.94061312992569,2.762587210722999,-7.214185254151845e-06,9.788542269596685e-05,2.216067356391697e-05,9.904088625602724e-05,0.0001002854138390346
56.97168783650001,10.5283121635,8,0,5.612724667341526,31.46863023705591,2.425276993862336,-7.214185254151845e-06,9.620943702470569e-05,1.940221595089868e-05,9.711153001024446e-05,9.804641777388323e-05
55.5283121635,11.9716878365,8,0,4.832904268940517,31.79742065972477,2.560585986581987,-9.972642867170161e-06,9.788542269596685e-05,2.04846878926559e-05,9.884943306442211e-05,9.915762504258579e-05
56.97168783650001,11.9716878365,8,0,4.693238796335422,31.23875876930439,2.215778784954702,-9.972642867170161e-06,9.62094370247057e-05,1.772623027963762e-05,9.69441653735433e-05,9.740615035587022e-05
58.0283121635,10.5283121635,8,0,5.500534123768942,31.02885363974158,3.234858696762533,-7.221373715732647e-06,9.489190434815788e-05,2.587886957410027e-05,9.650602914062169e-05,9.649368854240004e-05
59.47168783650001,10.5283121635,8,0,5.340235745281192,30.38766012579058,2.91764366974277,-7.221373715732647e-06,9.296832380630488e-05,2.334114935794216e-05,9.430980642425194e-05,9.449054945656157e-05
58.0283121635,11.9716878365,8,0,4.654627385049547,30.81737695506173,2.99441112903091,-9.759093931890829e-06,9.489190434815788e-05,2.395528903224728e-05,9.624528213758611e-05,9.614226416455019e-05
59.47168783650001,11.9716878365,8,0,4.494329006561799,30.17618344111073,2.677196102011151,-9.759093931890829e-06,9.296832380630488e-05,2.14175688160892e-05,9.407278292778414e-05,9.444073756144795e-05
60.5283121635,10.5283121635,8,0,5.19907071812187,29.92419043434629,3.405519154060174,-7.30232604948705e-06,9.159815281541063e-05,2.724415323248139e-05,9.34400877496744e-05,9.309423232906912e-05
61.9716878365,10.5283121635,8,0,5.047421033081349,29.31759169418421,3.12384729314095,-7.30232604948705e-06,8.977835659492439e-05,2.49907783451276e-05,9.136085922884367e-05,9.128256207895739e-05
60.5283121635,11.9716878365,8,0,4.447945755670625,29.73640919373348,3.178044626499391,-9.555700936840782e-06,9.159815281541063e-05,2.542435701199513e-05,9.317125004859204e-05,9.322029075861681e-05
61.9716878365,11.9716878365,8,0,4.296296070630106,29.12981045357141,2.896372765580184,-9.555700936840782e-06,8.97783565949244e-05,2.317098212464147e-05,9.111169400014025e-05,9.158749468830765e-05
63.0283121635,10.5283121635,8,0,4.838553622053216,28.87300925690604,3.403707596620662,-7.615035814954539e-06,8.852278672445674e-05,2.722966077296529e-05,9.041369768329317e-05,9.002575692660715e-05
64.47168783650001,10.5283121635,8,0,4.704346583867395,28.33618110416276,3.158491522081238,-7.615035814954539e-06,8.69123022662269e-05,2.52679321766499e-05,8.857175158801612e-05,8.840377164513768e-05
63.0283121635,11.9716878365,8,0,4.18464408994808,28.70953187387975,3.202397039341936,-9.57676441126995e-06,8.852278672445674e-05,2.561917631473549e-05,9.016784355615005e-05,9.043254980165958e-05
64.47168783650001,11.9716878365,8,0,4.050437051762268,28.17270372113651,2.957180964802509,-9.57676441126995e-06,8.691230226622701e-05,2.365744771842007e-05,8.834123976666046e-05,8.890997776157017e-05
65.5283121635,10.5283121635,8,0,4.431288267203611,27.92338700109479,3.307625479673889,-8.158587145824275e-06,8.580980778974043e-05,2.646100383739111e-05,8.763709455171872e-05,8.728128116357987e-05
66.97168783650001,10.5283121635,8,0,4.314489394976643,27.45619151218692,3.0972970818633,-8.158587145824275e-06,8.440822132301682e-05,2.47783766549064e-05,8.603771195980897e-05,8.583656541829055e-05
65.5283121635,11.9716878365,8,0,3.870412539708704,27.78316806922106,3.132427171333431,-9.841214328308996e-06,8.580980778974043e-05,2.505941737066745e-05,8.742388722048639e-05,8.784156808183595e-05
66.97168783650001,11.9716878365,8,0,3.753613667481738,27.3159725803132,2.922098773522853,-9.841214328308996e-06,8.440822132301683e-05,2.337679018818282e-05,8.583613071796818e-05,8.644519059346906e-05
68.0283121635,10.5283121635,8,0,3.99459944675391,27.07549096121429,3.162766843723767,-8.877674539358916e-06,8.344589151848257e-05,2.530213474979014e-05,8.514807947122286e-05,8.483389727969964e-05
69.47168783650001,10.5283121635,8,0,3.892303825669428,26.66630847687636,2.984402440680665,-8.877674539358916e-06,8.221834406546879e-05,2.387521952544532e-05,8.375672003799222e-05,8.353927272711162e-05
68.0283121635,11.9716878365,8,0,3.518961038638979,26.95658135918555,3.009323412097062,-1.030458976370371e-05,8.344589151848257e-05,2.407458729677649e-05,8.496677286601491e-05,8.546641061274346e-05
69.47168783650001,11.9716878365,8,0,3.416665417554505,26.54739887484766,2.830959009053957,-1.030458976370371e-05,8.22183440654689e-05,2.264767207243166e-05,8.358410238671239e-05,8.418871146422309e-05
70.5283121635,10.5283121635,8,0,3.544644112107734,26.31338073652032,2.994801588846124,-9.707843430471508e-06,8.136710306717884e-05,2.395841271076899e-05,8.29163886236946e-05,8.263362957054016e-05
71.97168783650001,10.5283121635,8,0,3.453136928449468,25.94735200188726,2.844824330908196,-9.707843430471508e-06,8.026901686327964e-05,2.275859464726557e-05,8.168583700836929e-05,8.145399100574263e-05
70.5283121635,11.9716878365,8,0,3.144704757606565,26.21339589789503,2.857540813358719,-1.090766149397502e-05,8.136710306717884e-05,2.286032650686975e-05,8.276188543018054e-05,8.328884033732553e-05
71.97168783650001,11.9716878365,8,0,3.053197573948303,25.84736716326198,2.707563555420788,-1.090766149397502e-05,8.026901686327969e-05,2.16605084433663e-05,8.153781241963007e-05,8.210804584679291e-05
73.0283121635,10.5283121635,8,0,3.09414554374366,25.61616537932094,2.81700925602094,-1.059166656347704e-05,7.949641277883208e-05,2.253607404816752e-05,8.088441127393367e-05,8.061881642406246e-05
74.47168783650001,10.5283121635,8,0,3.00975325965729,25.27859624297546,2.691784384113385,-1.059166656347704e-05,7.848370536979564e-05,2.153427507290708e-05,7.976672129642609e-05,7.951671559842266e-05
73.0283121635,11.9716878365,8,0,2.760212551990172,25.53268213138257,2.690420829891391,-1.159346553873751e-05,7.949641277883208e-05,2.152336663913113e-05,8.075056881266853e-05,8.126862393920954e-05
74.47168783650001,11.9716878365,8,0,2.675820267903807,25.19511299503711,2.565195957983835,-1.159346553873751e-05,7.848370536979571e-05,2.052156766387068e-05,7.963773690750067e-05,8.015607512914052e-05
75.5283121635,10.5283121635,8,0,2.652772107997954,24.96277912813374,2.635323724300362,-1.148135255691353e-05,7.775867552362958e-05,2.108258979440289e-05,7.898693899804549e-05,7.872477686454001e-05
76.97168783650001,10.5283121635,8,0,2.572096194016491,24.64007547220788,2.531450636730532,-1.148135255691353e-05,7.679056455585202e-05,2.025160509384426e-05,7.793721540871147e-05,7.766326083263868e-05
75.5283121635,11.9716878365,8,0,2.375777207811752,24.89353040308719,2.514309853328172,-1.231233725747214e-05,7.775867552362958e-05,2.011447882662538e-05,7.886799441685282e-05,7.935518629004082e-05
76.97168783650001,11.9716878365,8,0,2.295101293830293,24.57082674716135,2.410436765758352,-1.231233725747214e-05,7.679056455585207e-05,1.928349412606682e-05,7.782195103691998e-05,7.827966610038164e-05
78.0283121635,10.5283121635,8,0,2.227973463942053,24.33340158582125,2.451269291335874,-1.233720618404243e-05,7.608450630347435e-05,1.961015433068699e-05,7.715873974743339e-05,7.688806133757323e-05
79.47168783650001,10.5283121635,8,0,2.147900459700088,24.01310956885339,2.365686354762344,-1.233720618404243e-05,7.512363025257076e-05,1.892549083809875e-05,7.613573127953847e-05,7.583169296286393e-05
78.0283121635,11.9716878365,8,0,1.99975229974596,24.27634629477225,2.331159784972913,-1.302186967663073e-05,7.608450630347443e-05,1.864927827978331e-05,7.704983603056819e-05,7.749430515088718e-05
79.47168783650001,11.9716878365,8,0,1.919679295503984,23.95605427780435,2.245576848399386,-1.302186967663073e-05,7.512363025257072e-05,1.796461478719509e-05,7.602964344965876e-05,7.642417932415578e-05
80.5283121635,10.5283121635,8,0,1.825822987742943,23.70961650636963,2.263615318021923,-1.312505964431829e-05,7.441011443018846e-05,1.810892254417538e-05,7.533687763982072e-05,7.504791917617266e-05
81.97168783650001,10.5283121635,8,0,1.743449202081956,23.38012136372568,2.193598512252922,-1.312505964431829e-05,7.342162900225661e-05,1.754878809802338e-05,7.430224622093192e-05,7.396297774390976e-05
80.5283121635,11.9716878365,8,0,1.639111505692262,23.66293863585696,2.140054639530459,-1.368519409047033e-05,7.441011443018846e-05,1.712043711624367e-05,7.523420169612845e-05,7.563139977499256e-05
81.97168783650001,11.9716878365,8,0,1.556737720031286,23.33344349321306,2.070037833761459,-1.368519409047033e-05,7.342162900225675e-05,1.656030267009167e-05,7.420173258224174e-05,7.453561159411641e-05
83.02831216350002,10.5283121635,8,0,1.451725465518278,23.07406442673016,2.069243215425998,-1.381373005172563e-05,7.267562579312188e-05,1.655394572340798e-05,7.346060206383878e-05,7.31466604461042e-05
84.47168783650002,10.5283121635,8,0,1.364256028674895,22.72418667935663,2.012349897000569,-1.381373005172563e-05,7.162599255100129e-05,1.609879917600456e-05,7.23777240814523e-05,7.200138154557015e-05
83.02831216350002,11.9716878365,8,0,1.30000994971712,23.03613554777987,1.938039060160929,-1.426887659912911e-05,7.267562579312188e-05,1.550431248128743e-05,7.336141520613556e-05,7.371317686663239e-05
84.47168783650002,11.9716878365,8,0,1.212540512873738,22.68625780040634,1.881145741735491,-1.426887659912911e-05,7.162599255100129e-05,1.504916593388393e-05,7.228018048480494e-05,7.25620315860176e-05
85.5283121635,10.5283121635,8,0,1.110995369108065,22.40992472883827,1.863531205984953,-1.437275460192481e-05,7.082296283699601e-05,1.490824964787963e-05,7.147023730468147e-05,7.113048047722023e-05
86.97168783650002,10.5283121635,8,0,1.01563830772284,22.02849648329737,1.817515236218688,-1.437275460192481e-05,6.967867810037332e-05,1.454012188974951e-05,7.030286938065332e-05,6.989641341055508e-05
85.5283121635,11.9716878365,8,0,0.9882861163980774,22.37924741566079,1.72049561390713,-1.474088236005478e-05,7.082296283699607e-05,1.376396491125704e-05,7.137295207888911e-05,7.16893279905983e-05
86.97168783650002,11.9716878365,8,0,0.8929290550128561,21.99781917011991,1.674479644140863,-1.474088236005478e-05,6.967867810037341e-05,1.339583715312691e-05,7.020679276849569e-05,7.045620270847818e-05
88.02831216350002,10.5283121635,8,0,0.8093445365500838,21.70035005364493,1.640425799356963,-1.477037752595568e-05,6.879364454242371e-05,1.31234063948557e-05,6.930575124240935e-05,6.895299316526601e-05
89.47168783650001,10.5283121635,8,0,0.7032052106999087,21.27579275024423,1.603134717953381,-1.477037752595568e-05,6.75199726322216e-05,1.282507774362705e-05,6.80166765581848e-05,6.760958818880271e-05
88.02831216350002,11.9716878365,8,0,0.709901652807182,21.6754893327092,1.481216810581697,-1.506870617718438e-05,6.879364454242371e-05,1.184973448465357e-05,6.921016709990715e-05,6.95166002619692e-05
89.47168783650001,11.9716878365,8,0,0.6037623269570078,21.25093202930851,1.443925729178108,-1.506870617718438e-05,6.751997263222162e-05,1.155140583342486e-05,6.792193055777239e-05,6.818268392120163e-05
90.52831216350002,10.5283121635,8,0,0.5533230944821783,20.92788990575589,1.392284793875231,-1.497167802226174e-05,6.652658922283312e-05,1.113827835100185e-05,6.690539260354814e-05,6.658618363976766e-05
91.97168783650001,10.5283121635,8,0,0.4332979248356308,20.4477892271697,1.361540041523916,-1.497167802226174e-05,6.508628718707454e-05,1.089232033219133e-05,6.545507814629964e-05,6.513359539145118e-05
90.52831216350002,11.9716878365,8,0,0.4713370882120076,20.90739340418835,1.212247039405413,-1.521763604107225e-05,6.652658922283312e-05,9.697976315243303e-06,6.681322143510255e-05,6.716988330857038e-05
91.97168783650001,11.9716878365,8,0,0.3513119185654601,20.42729272560216,1.181502287054107,-1.521763604107225e-05,6.508628718707454e-05,9.452018296432854e-06,6.536346338135724e-05,6.573677691757483e-05
93.02831216350002,10.5283121635,8,0,0.3507537210926603,20.07390314708103,1.109521907721333,-1.493671061016831e-05,6.395588709378515e-05,8.87617526177066e-06,6.420476571891359e-05,6.405010022868341e-05
94.47168783650002,10.5283121635,8,0,0.2134196834159825,19.52456699637432,1.082976470416536,-1.493671061016831e-05,6.230787864166503e-05,8.663811763332289e-06,6.255005430338671e-05,6.254252464243736e-05
93.02831216350002,11.9716878365,8,0,0.279965888279885,20.05620618887783,0.9035208512063299,-1.514907410860663e-05,6.395588709378515e-05,7.228166809650639e-06,6.412066118831328e-05,6.467122756730131e-05
94.47168783650002,11.9716878365,8,0,0.1426318506032107,19.50687003817114,0.8769754139015352,-1.514907410860663e-05,6.230787864166507e-05,7.015803311212281e-06,6.246642139071589e-05,6.319319899525386e-05
95.5283121635,10.5283121635,8,0,0.2111951408344721,19.11794434074475,0.7800437135488424,-1.461853102192549e-05,6.100846577771561e-05,6.240349708390739e-06,6.113697776682919e-05,6.148935049538538e-05
96.97168783650002,10.5283121635,8,0,0.05269068147202383,18.48392650329496,0.755005856278233,-1.461853102192549e-05,5.910641226536624e-05,6.040046850225864e-06,5.922991576320916e-05,6.011960080254506e-05
95.5283121635,11.9716878365,8,0,0.1444275214461843,19.10125243589768,0.5422870245051589,-1.481883388009035e-05,6.100846577771561e-05,4.338296196041271e-06,6.107046665844264e-05,6.216360531627414e-05
96.97168783650002,11.9716878365,8,0,-0.01407693791626397,18.46723459844788,0.5172491672345562,-1.481883388009035e-05,5.910641226536624e-05,4.137993337876449e-06,5.916427340925326e-05,6.082873164607766e-05
98.02831216350002,10.5283121635,8,0,0.1464680468251718,18.03710396307308,0.3884350667667854,-1.396098542061791e-05,5.760155824437369e-05,3.107480534134283e-06,5.763527660828117e-05,5.936641287172321e-05
99.47168783650002,10.5283121635,8,0,-0.03763896410409551,17.30067591935601,0.3616404297404788,-1.396098542061791e-05,5.539227411322248e-05,2.893123437923831e-06,5.542243320379848e-05,5.867841486982309e-05
98.02831216350002,11.9716878365,8,0,0.07501568142168757,18.0192408717222,0.1122745503728961,-1.417534251682836e-05,5.760155824437369e-05,8.981964029831685e-07,5.760436808009058e-05,6.009596400340092e-05
99.47168783650002,11.9716878365,8,0,-0.1090913295075735,17.28281282800516,0.08547991334658783,-1.417534251682836e-05,5.539227411322256e-05,6.838393067727026e-07,5.539395458225484e-05,5.942887924357697e-05
0.5283121635,13.0283121635,8,0,-0.07934289394915284,-3.094639341390676,0.03711356201981369,2.221814212475251e-06,-9.83937157729084e-06,2.969084961585095e-07,2.223641174298688e-06,2.72162648853163e-06
1.9716878365,13.0283121635,8,0,0.1297839424490677,-2.258131995797794,0.05783583295099106,2.221814212475251e-06,-7.329849540512194e-06,4.626866636079285e-07,2.22741411419438e-06,2.82811753264087e-06
0.5283121635,14.4716878365,8,0,-0.02408350479924715,-3.080824494103199,0.3508038166171986,2.387592379924969e-06,-9.83937157729084e-06,2.806430532937589e-06,2.546564066894412e-06,2.817682567090906e-06
1.9716878365,14.4716878365,8,0,0.1850433315989733,-2.244317148510317,0.3715260875483488,2.387592379924969e-06,-7.329849540512194e-06,2.972208700386791e-06,2.609784281479467e-06,2.905053846155009e-06
3.0283121635,13.0283121635,8,0,0.1679688812190066,-1.749784190890035,0.2828798164014503,1.937327772612849e-06,-5.733684515823317e-06,2.263038531211603e-06,2.100751889198493e-06,2.9943282711058e-06
4.4716878365,13.0283121635,8,0,0.3222423735624921,-1.132690221516093,0.292757425272936,1.937327772612849e-06,-3.882402607701492e-06,2.342059402183488e-06,2.164120993205476e-06,3.341933409265598e-06
3.0283121635,14.4716878365,8,0,0.1943091715429324,-1.743199118309054,0.5142900549166786,2.016348643584626e-06,-5.733684515823317e-06,4.114320439333428e-06,2.528547771178379e-06,3.061048489868684e-06
4.4716878365,14.4716878365,8,0,0.3485826638864269,-1.126105148935076,0.5241676637881914,2.016348643584626e-06,-3.882402607701383e-06,4.193341310305531e-06,2.685652945389722e-06,3.399862503157068e-06
5.528312163500001,13.0283121635,8,0,0.542365304117572,-0.695545953549038,0.2598662915022224,2.292005736015461e-06,-2.659639294650979e-06,2.078930332017779e-06,2.501361978004889e-06,3.702365898885945e-06
6.9716878365,13.0283121635,8,0,0.6664794365263558,-0.1990894239139032,0.262089181512305,2.292005736015461e-06,-1.170269705745575e-06,2.09671345209844e-06,2.584698451141881e-06,4.339480635109344e-06
5.528312163500001,14.4716878365,8,0,0.5482930108109721,-0.6940640268758235,0.4460374901153709,2.309788856095769e-06,-2.659639294651413e-06,3.568299920922967e-06,2.883995361216931e-06,3.792783634598694e-06
6.9716878365,14.4716878365,8,0,0.6724071432197739,-0.1976074972406164,0.4482603801254535,2.309788856095769e-06,-1.170269705745791e-06,3.586083041003628e-06,3.068299107122631e-06,4.527450115821922e-06
8.028312163500001,13.0283121635,8,0,1.021982908382374,0.2138846470735383,-0.003486632468201536,3.099237589164765e-06,-1.331554560705765e-07,-2.789305974561229e-08,3.0992977619445e-06,4.971867244599559e-06
9.471687836500001,13.0283121635,8,0,1.133989511264055,0.6619110586002649,-0.01262349910186196,3.099237589164765e-06,1.210923778509603e-06,-1.009879928148957e-07,3.328169064034787e-06,6.062464855603101e-06
8.028312163500001,14.4716878365,8,0,0.9976179306925583,0.2077934026509489,0.1645232718543751,3.026142656095427e-06,-1.331554560710102e-07,1.316186174835001e-06,3.157743918373407e-06,5.287982958038646e-06
9.471687836500001,14.4716878365,8,0,1.109624533574276,0.6558198141778201,0.1553864052207012,3.026142656095427e-06,1.210923778509603e-06,1.243091241765609e-06,3.375872285806654e-06,6.631130842664612e-06
10.5283121635,13.0283121635,8,0,1.594144982618525,1.092939154288582,-0.5069276873434189,4.226912620948413e-06,2.222089307628641e-06,-4.055421498747351e-06,5.570250709120875e-06,7.137013459804136e-06
11.9716878365,13.0283121635,8,0,1.712351346447984,1.565764609606419,-0.5384562881860819,4.226912620948413e-06,3.640565673582153e-06,-4.307650305488656e-06,6.355976266946402e-06,8.982137230804858e-06
10.5283121635,14.4716878365,8,0,1.510068713704788,1.071920087060148,-0.3296181415993519,3.974683814207203e-06,2.222089307628641e-06,-2.636945132794815e-06,4.920623144550229e-06,7.908969350786662e-06
11.9716878365,14.4716878365,8,0,1.62827507753422,1.544745542377876,-0.3611467424420285,3.974683814207203e-06,3.640565673581828e-06,-2.889173939536228e-06,5.764155868210944e-06,1.005694119436658e-05
13.0283121635,13.0283121635,8,0,2.231130506315187,2.060725277088693,-1.268204450684181,5.491037398537641e-06,4.809416481631667e-06,-1.014563560547345e-05,1.023469293752649e-05,1.069558697288151e-05
14.4716878365,13.0283121635,8,0,2.379037458668811,2.652353086503191,-1.339359403827902,5.491037398537641e-06,6.584299909875163e-06,-1.071487523062321e-05,1.14415371615545e-05,1.3531694953649e-05
13.0283121635,14.4716878365,8,0,2.041383964598622,2.013288641659552,-1.046344022153771,4.921797773387948e-06,4.809416481631667e-06,-8.370752177230172e-06,9.076856626730353e-06,1.195486743425773e-05
14.4716878365,14.4716878365,8,0,2.189290916952246,2.60491645107405,-1.117498975297464,4.921797773387948e-06,6.584299909875163e-06,-8.939991802379716e-06,1.037009283172609e-05,1.499212650729906e-05
15.5283121635,13.0283121635,8,0,2.864732465277171,3.265379799962277,-2.302510958917042,6.554840048917125e-06,8.157429387657547e-06,-1.842008767133634e-05,1.660097006577138e-05,1.602272508405597e-05
16.9716878365,13.0283121635,8,0,3.074981317954283,4.106375210670725,-2.432500411048353,6.554840048917125e-06,1.068041561978289e-05,-1.946000328838682e-05,1.856388469026005e-05,1.999223798303458e-05
15.5283121635,14.4716878365,8,0,2.518093926260415,3.178720165208088,-1.987137679901395,5.514924431866859e-06,8.157429387657547e-06,-1.589710143921116e-05,1.489379235432686e-05,1.755868078474118e-05
16.9716878365,14.4716878365,8,0,2.728342778937546,4.019715575916608,-2.117127132032705,5.514924431866859e-06,1.068041561978311e-05,-1.693701705626164e-05,1.695126881355726e-05,2.153337839835308e-05
18.0283121635,13.0283121635,8,0,3.353529184056273,4.892305468739342,-3.574792301736314,6.817449013988601e-06,1.297255415272087e-05,-2.859833841389051e-05,2.452160644661892e-05,2.333468746998828e-05
19.4716878365,13.0283121635,8,0,3.665133575565733,6.138723034777181,-3.769602963259282,6.817449013988601e-06,1.671180685083439e-05,-3.015682370607426e-05,2.763387754481278e-05,2.849691639148792e-05
18.0283121635,14.4716878365,8,0,2.834034086661669,4.762431694390691,-3.107385714472049,5.258963721804788e-06,1.297255415272087e-05,-2.48590857157764e-05,2.212992064634189e-05,2.478178437697003e-05
19.4716878365,14.4716878365,8,0,3.145638478171183,6.008849260428748,-3.302196375995031,5.258963721804788e-06,1.671180685083504e-05,-2.641757100796025e-05,2.538204873396289e-05,2.968189694092746e-05
20.5283121635,13.0283121635,8,0,3.515570264857065,7.130894318764012,-4.922168507891761,5.545109392531399e-06,2.000640560815919e-05,-3.937734806313409e-05,3.375017423074175e-05,3.267926672880068e-05
21.9716878365,13.0283121635,8,0,3.954050139676379,8.884813818041268,-5.157597319593288,5.545109392531399e-06,2.526816410599095e-05,-4.12607785567463e-05,3.82728275904298e-05,3.894343142437811e-05
20.5283121635,14.4716878365,8,0,2.887760100319628,6.973941777629653,-4.264448695662736,3.661678898919088e-06,2.000640560815919e-05,-3.411558956530189e-05,3.074847815966572e-05,3.355706080103867e-05
21.9716878365,14.4716878365,8,0,3.326239975138933,8.727861276906873,-4.49987750736431,3.661678898919088e-06,2.526816410599084e-05,-3.599902005891448e-05,3.545759670242375e-05,3.924409279100993e-05
23.0283121635,13.0283121635,8,0,3.258824259002431,10.06756803623224,-6.030001916849554,2.374183199821986e-06,2.960915830874122e-05,-4.824001533479643e-05,4.369023998034834e-05,4.380917639321025e-05
24.4716878365,13.0283121635,8,0,3.808662443998145,12.2669207762151,-6.25599311918149,2.374183199821986e-06,3.62072165286898e-05,-5.004794495345192e-05,4.949612544599548e-05,5.083847416972001e-05
23.0283121635,14.4716878365,8,0,2.656181052783882,9.916907234677602,-5.205244639355989,5.662535811663404e-07,2.960915830874122e-05,-4.164195711484791e-05,4.04724597716596e-05,4.358020707325021e-05
24.4716878365,14.4716878365,8,0,3.206019237779596,12.11625997466046,-5.431235841687944,5.662535811663404e-07,3.62072165286898e-05,-4.344988673350356e-05,4.648553795194233e-05,4.973965961028808e-05
25.5283121635,13.0283121635,8,0,2.687781454375901,13.5366964823242,-6.529763618603535,-2.228456531856474e-06,4.11672035799367e-05,-5.223810894882828e-05,5.342523952348096e-05,5.605919495338051e-05
26.9716878365,13.0283121635,8,0,3.26718798850244,15.85432261883035,-6.689438420050538,-2.228456531856474e-06,4.812008198945518e-05,-5.35155073604043e-05,5.968436488887192e-05,6.329317161056839e-05
25.5283121635,14.4716878365,8,0,2.261981983850483,13.43024661469284,-5.660653817413698,-3.505854943432727e-06,4.11672035799367e-05,-4.528523053930959e-05,5.06364688486155e-05,5.425745538459617e-05
26.9716878365,14.4716878365,8,0,2.841388517977022,15.747872751199,-5.820328618860716,-3.505854943432727e-06,4.812008198945518e-05,-4.656262895088572e-05,5.706813975576354e-05,6.044085044171273e-05
28.0283121635,13.0283121635,8,0,2.233479485061677,17.11680253436509,-6.321274815596904,-6.546307675294708e-06,5.298698452191894e-05,-5.057019852477523e-05,6.227657306860914e-05,6.843808994043455e-05
29.4716878365,13.0283121635,8,0,2.762125033830338,19.23138472943974,-6.44615957457837,-6.546307675294708e-06,5.933073110714289e-05,-5.156927659662696e-05,6.822274639886295e-05,7.5260291561831e-05
28.0283121635,14.4716878365,8,0,1.900453461111029,17.03354602837743,-5.528306492443924,-7.545385747146651e-06,5.298698452191894e-05,-4.422645193955139e-05,6.020461890178698e-05,6.481860651653974e-05
29.4716878365,14.4716878365,8,0,2.429099009879681,19.14812822345204,-5.65319125142539,-7.545385747146651e-06,5.933073110714278e-05,-4.522553001140312e-05,6.625900633293495e-05,7.059546347950232e-05
30.5283121635,13.0283121635,8,0,1.975117381665038,20.3509399063492,-5.606732706059007,-9.960376303751241e-06,6.354291379498541e-05,-4.485386164847205e-05,6.984531199395588e-05,7.9967337221048e-05
31.9716878365,13.0283121635,8,0,2.405463259099431,22.07232341608678,-5.712506700106158,-9.960376303751241e-06,6.870706432419814e-05,-4.570005360084926e-05,7.486252160795662e-05,8.600502349472563e-05
30.5283121635,14.4716878365,8,0,1.693053397539197,20.28042391031774,-4.961213889907327,-1.080656825612876e-05,6.354291379498541e-05,-3.968971111925862e-05,6.850817351100149e-05,7.457179953879398e-05
31.9716878365,14.4716878365,8,0,2.123399274973632,22.00180742005548,-5.066987883954512,-1.080656825612876e-05,6.870706432419863e-05,-4.05359030716361e-05,7.357528922155761e-05,7.965849471824622e-05
33.0283121635,13.0283121635,8,0,1.905236449851726,23.02612865927973,-4.718494697192612,-1.232414628789826e-05,7.215942254981374e-05,-3.774795757754089e-05,7.618420733819487e-05,9.001053899878721e-05
34.4716878365,13.0283121635,8,0,2.260892078976585,24.44875117577916,-4.812447320346597,-1.232414628789826e-05,7.642729009931204e-05,-3.849957856277278e-05,8.042262474287426e-05,9.491612459317589e-05
33.0283121635,14.4716878365,8,0,1.65469612144113,22.96349357717721,-4.185011253505372,-1.307576727313016e-05,7.215942254981417e-05,-3.348009002804297e-05,7.532925498592078e-05,8.306660008053314e-05
34.4716878365,14.4716878365,8,0,2.010351750565943,24.38611609367647,-4.278963876659371,-1.307576727313016e-05,7.642729009931193e-05,-3.423171101327497e-05,7.958872238898714e-05,8.729102190879256e-05
35.5283121635,13.0283121635,8,0,2.135620258019435,25.37390698653505,-3.789409250696161,-1.346514076356585e-05,7.948800615049662e-05,-3.031527400556929e-05,8.189727767762217e-05,9.79674282523315e-05
36.9716878365,13.0283121635,8,0.01316287134380598,2.444198801113567,26.38667126454027,-3.875689403764226,-1.346514076356585e-05,8.358217036073237e-05,-3.141908054506924e-05,8.606179709186779e-05,0.0001013981592844312
35.5283121635,14.4716878365,8,0,1.767684744852692,25.28192310824337,-3.277638724416649,-1.456894730306608e-05,7.948800615049662e-05,-2.622110979533319e-05,8.12812896640645e-05,9.002511260814646e-05
36.9716878365,14.4716878365,8,0,2.108865095705671,26.64664451165529,-3.415614541854166,-1.456894730306608e-05,8.358217036073237e-05,-2.732491633483333e-05,8.544847287919619e-05,9.327036548334099e-05
38.0283121635,13.0283121635,8,0.03129469383469333,2.557362516625044,26.80145957475183,-2.714766003599594,-1.368590377509396e-05,8.642337364426437e-05,-2.241974715176239e-05,8.766325824793466e-05,0.0001033662871334975
39.4716878365,13.0283121635,8,0.04878369777012172,2.801958707768675,27.48065330809822,-2.873461741728202,-1.368590377509396e-05,9.009152115959978e-05,-2.416663158519988e-05,9.147986756436685e-05,0.0001053125813810669
38.0283121635,14.4716878365,8,0,2.057685067511461,27.52172553071048,-2.343949954553389,-1.543278820853171e-05,8.642337364426437e-05,-1.875159963642711e-05,8.727921926922935e-05,9.527803538434757e-05
39.4716878365,14.4716878365,8,0,2.363364027122752,28.74444136915565,-2.562310508733113,-1.543278820853171e-05,9.009152115959987e-05,-2.04984840698649e-05,9.107777974695923e-05,9.751783868376296e-05
40.5283121635,13.0283121635,8,0.05745712254036905,3.015350005098906,27.96857726366972,-1.673240931217818,-1.350149908184343e-05,9.239597404245823e-05,-1.420192945048897e-05,9.287000793970247e-05,0.0001062958543575967
41.97168783650001,13.0283121635,8,0.06391496341103664,3.199672246848442,28.59687806493535,-1.927285345488241,-1.350149908184343e-05,9.502370888700849e-05,-1.647102791012365e-05,9.564510877688691e-05,0.0001070359118397303
40.5283121635,14.4716878365,8,0,2.44279865637883,29.48444155236291,-1.446774325742373,-1.577059754147807e-05,9.239597404245823e-05,-1.157419460593898e-05,9.270471245670749e-05,9.882152475468219e-05
41.97168783650001,14.4716878365,8,0.001361581703193587,2.658152333829141,30.31901506583802,-1.728055536377944,-1.577059754147807e-05,9.502370888700849e-05,-1.384329306557358e-05,9.545444991002964e-05,0.0001001434580382894
43.0283121635,13.0283121635,8,0.06584468368595323,3.412158865214039,29.05714696142491,-0.7629408507999714,-1.319567419376645e-05,9.661470807713834e-05,-6.533738768926378e-06,9.671181188649441e-05,0.0001072583894403378
44.4716878365,13.0283121635,8,0.06469833264734377,3.550324621616398,29.62871858055581,-1.063809906015902,-1.319567419376645e-05,9.833366385500892e-05,-9.099181093321344e-06,9.851894644402094e-05,0.0001071261520666357
43.0283121635,14.4716878365,8,0.007904366493380426,2.775407542368155,30.64729876554381,-0.5970906477135358,-1.576111651816137e-05,9.661470807713834e-05,-4.814782991055685e-06,9.666625721166378e-05,0.0001008365632920241
44.4716878365,14.4716878365,8,0.01325680973454176,2.901781300139838,31.04734319465456,-0.9102983840807057,-1.576111651816137e-05,9.833366385500895e-05,-7.380225315450624e-06,9.845288681392331e-05,0.0001014082287766935
45.52831216350001,13.0283121635,8,0.06188861946146509,3.716184947837188,30.0102226421481,0.07696814270806339,-1.29157225165352e-05,9.919905719849812e-05,6.563667752447803e-07,9.920001785161924e-05,0.0001068029578782203
46.97168783650001,13.0283121635,8,0.05531793788379605,3.793017346971636,30.423633613688,-0.2390374827838857,-1.29157225165352e-05,9.98444000036723e-05,-2.024278790673022e-06,9.985348427574207e-05,0.0001060522123084228
45.52831216350001,14.4716878365,8,0.01513565730984424,3.021365588647247,31.28584585443744,0.1602509187866104,-1.559636808245296e-05,9.919905719849812e-05,1.301709580419047e-06,9.920274722656844e-05,0.0001016099020079446
46.97168783650001,14.4716878365,8,0.01494318381424859,3.074931002678776,31.50385986991784,-0.1697912864499206,-1.559636808245296e-05,9.98444000036723e-05,-1.378935985498755e-06,9.984851769247104e-05,0.0001015892180376029
48.0283121635,13.0283121635,8,0.04915231439775824,3.925693477288415,30.69646960379246,0.846972089974263,-1.261501367394479e-05,0.0001000035540814077,7.126037978945603e-06,0.0001001161680372506,0.0001053541235027665
49.47168783650001,13.0283121635,8,0.03881801128463547,3.951497140074456,30.96264347379004,0.5301987094100589,-1.261501367394479e-05,9.979302830285679e-05,4.412889260388062e-06,9.983632167852771e-05,0.0001041976549872348
48.0283121635,14.4716878365,8,0.01330840034049553,3.181332538718752,31.63054149349842,0.8529347244340397,-1.532816239250228e-05,0.0001000035540814077,6.915512200394752e-06,0.000100107127929709,0.0001014137594594269
49.47168783650001,14.4716878365,8,0.009017291051878451,3.177782496502255,31.6985598496573,0.5205586934019624,-1.532816239250228e-05,9.979302830285676e-05,4.202363481837211e-06,9.98313661179336e-05,0.0001009550816795476
50.5283121635,13.0283121635,8,0.03045049718175481,4.054642438936944,31.14849589593876,1.546377600663427,-1.231906248977968e-05,9.946008185817388e-05,1.275955561768415e-05,9.98230282294174e-05,0.0001032735451641227
51.97168783650001,13.0283121635,8,0.01787887229941807,4.049999990570209,31.32351439312629,1.234992801604611,-1.231906248977968e-05,9.876098103361316e-05,1.005980029771743e-05,9.898827866954604e-05,0.0001019052986910313
50.5283121635,14.4716878365,8,0.004864898749853186,3.266100625270296,31.74659347828063,1.500222737709716,-1.501881780974646e-05,9.946008185817388e-05,1.206045479312345e-05,9.977685027861858e-05,0.0001005138049472256
51.97168783650001,14.4716878365,8,0,3.223809149552277,31.66875886039219,1.170087434144605,-1.501881780974646e-05,9.876098103361316e-05,9.360699473156837e-06,9.895318327143371e-05,9.976689227415218e-05
53.0283121635,13.0283121635,8,0.008336681183463212,4.109628796732637,31.47689935557413,2.189886350040112,-1.21318466727926e-05,9.825751648930128e-05,1.766636969211324e-05,9.895986550342788e-05,0.0001008825801002983
54.4716878365,13.0283121635,8,0,4.087811658980305,31.51605497691197,1.883815253429495,-1.21318466727926e-05,9.758112659893404e-05,1.507052202743596e-05,9.80962417511309e-05,9.945670742154302e-05
53.0283121635,14.4716878365,8,0,3.278894928285205,31.52519763497795,2.123747475218229,-1.47276943374697e-05,9.825751648930128e-05,1.698997980174584e-05,9.889265669753476e-05,9.915269826310981e-05
54.4716878365,14.4716878365,8,0,3.222529104087944,31.29973433818891,1.799266517133599,-1.47276943374697e-05,9.758112659893415e-05,1.43941321370688e-05,9.80404562918111e-05,9.822160169223962e-05
55.5283121635,13.0283121635,8,0,4.115238628352422,31.31266787740192,2.853135557087976,-1.188137069119378e-05,9.690834630500419e-05,2.282508445670381e-05,9.809268131618642e-05,9.84044710414513e-05
56.97168783650001,13.0283121635,8,0,4.018431957097583,30.92544119238256,2.546100084555924,-1.188137069119378e-05,9.574666624994612e-05,2.036880067644739e-05,9.670189639755656e-05,9.695558046810133e-05
55.5283121635,14.4716878365,8,0,3.296477368266971,31.10797756238055,2.707925550205724,-1.433765447145013e-05,9.690834630500419e-05,2.16634044016458e-05,9.795318463289563e-05,9.747460484078939e-05
56.97168783650001,14.4716878365,8,0,3.19967069701214,30.72075087736123,2.400890077673686,-1.433765447145013e-05,9.574666624994621e-05,1.920712062138948e-05,9.657818294574722e-05,9.636486806031677e-05
58.0283121635,13.0283121635,8,0,4.057654733798822,30.62388777698358,3.32176442243678,-1.151461507343064e-05,9.47503170993084e-05,2.657411537949424e-05,9.638649947599551e-05,9.587477583309124e-05
59.47168783650001,13.0283121635,8,0,3.927621696575641,30.10375562809086,3.039457830375049,-1.151461507343064e-05,9.318992065263023e-05,2.431566264300039e-05,9.4583097367206e-05,9.437085323041214e-05
58.0283121635,14.4716878365,8,0,3.304837154967544,30.43568338227576,3.126714866602,-1.377306780992447e-05,9.47503170993084e-05,2.5013718932816e-05,9.617302822192225e-05,9.549540849893228e-05
59.47168783650001,14.4716878365,8,0,3.174804117744363,29.91555123338304,2.844408274540269,-1.377306780992447e-05,9.318992065263023e-05,2.275526619632215e-05,9.438676546092616e-05,9.422973758247487e-05
60.5283121635,13.0283121635,8,0,3.955622542189257,29.74871224770586,3.563839461730551,-1.114097766315907e-05,9.203138115890735e-05,2.851071569384441e-05,9.396481622304682e-05,9.32688564201765e-05
61.9716878365,13.0283121635,8,0,3.821889849449059,29.21378147674507,3.304129252581995,-1.114097766315907e-05,9.042658884602498e-05,2.643303402065596e-05,9.211821853438815e-05,9.176206774738502e-05
60.5283121635,14.4716878365,8,0,3.263061984459774,29.57557210827349,3.363240422620256,-1.321865933634752e-05,9.203138115890735e-05,2.690592338096205e-05,9.37237148076982e-05,9.327548184551877e-05
61.9716878365,14.4716878365,8,0,3.129329291719575,29.0406413373127,3.1035302134717,-1.321865933634752e-05,9.042658884602496e-05,2.48282417077736e-05,9.189275123258939e-05,9.193407760508716e-05
63.0283121635,13.0283121635,8,0,3.780937942878046,28.84793698304152,3.636562463978548,-1.097934816922346e-05,8.92886479914304e-05,2.909249971182838e-05,9.135628923774634e-05,9.068100018574654e-05
64.47168783650001,13.0283121635,8,0,3.655594616377197,28.34656367703812,3.402787277422632,-1.097934816922346e-05,8.778452807342021e-05,2.722229821938105e-05,8.962601420999319e-05,8.92342573536015e-05
63.0283121635,14.4716878365,8,0,3.157537445395627,28.69208685867091,3.44854747422726,-1.284954966167072e-05,8.92886479914304e-05,2.758837979381808e-05,9.111881692794037e-05,9.095298638320853e-05
64.47168783650001,14.4716878365,8,0,3.032194118894778,28.19071355266752,3.214772287671354,-1.284954966167072e-05,8.778452807342022e-05,2.571817830137083e-05,8.940168385817833e-05,8.961399955849397e-05
65.5283121635,13.0283121635,8,0,3.540835751450268,27.99000839480326,3.599725510337312,-1.106133231120175e-05,8.673535826221021e-05,2.87978040826985e-05,8.881128640607205e-05,8.820878042671536e-05
66.97168783650001,13.0283121635,8,0,3.427313642108207,27.53591995743502,3.39337586806875,-1.106133231120175e-05,8.537309295010548e-05,2.714700694455e-05,8.724719284349664e-05,8.68538681924988e-05
65.5283121635,14.4716878365,8,0,2.990570038734108,27.85244196662422,3.429442346324219,-1.271212944935023e-05,8.673535826221021e-05,2.743553877059376e-05,8.859288910901397e-05,8.865173629187895e-05
66.97168783650001,14.4716878365,8,0,2.877047929392049,27.39835352925598,3.223092704055667,-1.271212944935023e-05,8.53730929501055e-05,2.578474163244534e-05,8.703936596755069e-05,8.736177098183232e-05
68.0283121635,13.0283121635,8,0,3.2514587880934,27.19589043571049,3.495889271630291,-1.135204422666951e-05,8.442568236379883e-05,2.796711417304233e-05,8.642552617249373e-05,8.589722205386872e-05
69.47168783650001,13.0283121635,8,0,3.149283075974747,26.78718758723588,3.316541323228504,-1.135204422666951e-05,8.319957381837499e-05,2.653233058582804e-05,8.50256309550214e-05,8.46385284323722e-05
68.0283121635,14.4716878365,8,0,2.773197592355266,27.07632513677595,3.342625703452324,-1.278682781388391e-05,8.442568236379883e-05,2.674100562761859e-05,8.62311161898867e-05,8.644170746651114e-05
69.47168783650001,14.4716878365,8,0,2.671021880236618,26.66762228830136,3.163277755050517,-1.278682781388391e-05,8.319957381837506e-05,2.530622204040413e-05,8.483951256712591e-05,8.521801250640291e-05
70.5283121635,13.0283121635,8,0,2.929338955669464,26.46441221951597,3.352310391835862,-1.179764511747049e-05,8.234264793791551e-05,2.681848313468689e-05,8.421539112415195e-05,8.374751873919591e-05
71.97168783650001,13.0283121635,8,0,2.836417580801818,26.09272672004538,3.198352590099186,-1.179764511747049e-05,8.122759143950375e-05,2.558682072079349e-05,8.295494629295111e-05,8.257192860879493e-05
70.5283121635,14.4716878365,8,0,2.518784817704962,26.36177368502484,3.212928329534374,-1.302930753136399e-05,8.234264793791551e-05,2.5703426636275e-05,8.404410795540207e-05,8.43454406707082e-05
71.97168783650001,14.4716878365,8,0,2.425863442837313,25.99008818555425,3.058970527797692,-1.302930753136399e-05,8.122759143950374e-05,2.447176422238153e-05,8.279008117216311e-05,8.318522504234344e-05
73.0283121635,13.0283121635,8,0,2.588971599243967,25.78482231941317,3.185237393270695,-1.234314873794984e-05,8.044025414272697e-05,2.548189914616556e-05,8.215802950845386e-05,8.173349086073845e-05
74.47168783650001,13.0283121635,8,0,2.502639182646698,25.4394926530241,3.054440691438773,-1.234314873794984e-05,7.940426514355974e-05,2.443552553151019e-05,8.100340007567502e-05,8.06184264643681e-05
73.0283121635,14.4716878365,8,0,2.240180394358803,25.69762451819188,3.055738768374787,-1.338952235260533e-05,8.044025414272697e-05,2.44459101469983e-05,8.20063659880847e-05,8.235372339402048e-05
74.47168783650001,14.4716878365,8,0,2.153847977761541,25.35229485180283,2.924942066542845,-1.338952235260533e-05,7.940426514355982e-05,2.339953653234276e-05,8.085667992708482e-05,8.124223427249304e-05
75.5283121635,13.0283121635,8,0,2.242266180747188,25.14263818426057,3.003375858595994,-1.293885876901746e-05,7.866262924503608e-05,2.402700686876796e-05,8.021198995135872e-05,7.981441066822663e-05
76.97168783650001,13.0283121635,8,0,2.159749684380308,24.81257219879305,2.893287870959645,-1.293885876901746e-05,7.767243128863352e-05,2.314630296767716e-05,7.912723222374015e-05,7.873286305935714e-05
75.5283121635,14.4716878365,8,0,1.948698213716916,25.06924619250301,2.879601114045669,-1.381956267010827e-05,7.866262924503608e-05,2.303680891236536e-05,8.007562646500331e-05,8.043862557605697e-05
76.97168783650001,14.4716878365,8,0,1.866181717350044,24.73918020703552,2.769513126409323,-1.381956267010827e-05,7.767243128863362e-05,2.215610501127459e-05,7.899467718016525e-05,7.935461490942358e-05
78.0283121635,13.0283121635,8,0,1.898902563957083,24.52235159086017,2.810383603765013,-1.354139306802547e-05,7.695240303958687e-05,2.248306883012011e-05,7.832796609088012e-05,7.794288316735355e-05
79.47168783650001,13.0283121635,8,0,1.817489580376986,24.19669965653978,2.718546002704651,-1.354139306802547e-05,7.597544723662569e-05,2.174836802163721e-05,7.727746620979313e-05,7.686616557421973e-05
78.0283121635,14.4716878365,8,0,1.654002294462769,24.46112652348661,2.688264128394841,-1.427609387650842e-05,7.695240303958693e-05,2.150611302715873e-05,7.820272421337024e-05,7.856217728623627e-05
79.47168783650001,14.4716878365,8,0,1.572589310882666,24.1354745891662,2.596426527334475,-1.427609387650842e-05,7.597544723662568e-05,2.07714122186758e-05,7.715516296098945e-05,7.748120810440076e-05
80.5283121635,13.0283121635,8,0,1.566922062231947,23.90848144961701,2.606464141120191,-1.411263456055138e-05,7.525360298898888e-05,2.085171312896153e-05,7.645381003682387e-05,7.606914657951437e-05
81.97168783650001,13.0283121635,8,0,1.483992115830513,23.57676166401128,2.530507311698914,-1.411263456055138e-05,7.425844363217167e-05,2.024405849359131e-05,7.540299764523448e-05,7.496836778442313e-05
80.5283121635,14.4716878365,8,0,1.364370517108558,23.85784356333616,2.482069221518032,-1.472028919592154e-05,7.525360298898888e-05,1.985655377214425e-05,7.633612618642223e-05,7.668161249154985e-05
81.97168783650001,14.4716878365,8,0,1.28144057070713,23.52612377773045,2.406112392096759,-1.472028919592154e-05,7.425844363217175e-05,1.924889913677407e-05,7.528757624234301e-05,7.557804583347466e-05
83.02831216350002,13.0283121635,8,0,1.253328875645796,23.28584197324659,2.389304208453001,-1.461802117653072e-05,7.351203121387244e-05,1.911443366762401e-05,7.453654845384329e-05,7.41435011891654e-05
84.47168783650002,13.0283121635,8,0,1.166322434523867,22.93781620875887,2.32696243629232,-1.461802117653072e-05,7.246795392040929e-05,1.861569949033856e-05,7.345167556456727e-05,7.299070253645041e-05
83.02831216350002,14.4716878365,8,0,1.087084149883973,23.24428079180613,2.258794546770098,-1.511675535381619e-05,7.351203121387244e-05,1.807035637416078e-05,7.442373545112229e-05,7.475265268158009e-05
84.47168783650002,14.4716878365,8,0,1.000077708762044,22.89625502731842,2.196452774609415,-1.511675535381619e-05,7.246795392040929e-05,1.757162219687532e-05,7.334058334598351e-05,7.3601203312364e-05
85.5283121635,13.0283121635,8,0,0.9646276912375287,22.63943949378186,2.154549371064025,-1.50247429830654e-05,7.167450422711192e-05,1.72363949685122e-05,7.252288051546299e-05,7.211857562953625e-05
86.97168783650002,13.0283121635,8,0,0.8709887260736053,22.26488363312617,2.103625135284504,-1.50247429830654e-05,7.055083664514484e-05,1.682900108227603e-05,7.13703716347106e-05,7.088867926181264e-05
85.5283121635,14.4716878365,8,0,0.8288297291588744,22.60549000326223,2.014090923318135,-1.543213686930139e-05,7.167450422711203e-05,1.611272738654508e-05,7.241335823303084e-05,7.273245447481551e-05
86.97168783650002,14.4716878365,8,0,0.7351907639949484,22.23093414260653,1.963166687538624,-1.543213686930139e-05,7.055083664514492e-05,1.570533350030899e-05,7.126212221057282e-05,7.151043788073177e-05
88.02831216350002,13.0283121635,8,0,0.7072912250491452,21.95420177760922,1.895949156275284,-1.530002950193011e-05,6.968761270831017e-05,1.516759325020227e-05,7.035904155456699e-05,6.995375906636095e-05
89.47168783650001,13.0283121635,8,0,0.6043992190595358,21.54263375365078,1.854241853152874,-1.530002950193011e-05,6.845290863643485e-05,1.483393482522299e-05,6.910466627965995e-05,6.862940595897977e-05
88.02831216350002,14.4716878365,8,0,0.5960717500560211,21.92639690886094,1.741611147290871,-1.563368792690948e-05,6.968761270831017e-05,1.393288917832697e-05,7.025267737304931e-05,7.058449203428287e-05
89.47168783650001,14.4716878365,8,0,0.4931797440664125,21.5148288849025,1.699903844168467,-1.563368792690948e-05,6.845290863643487e-05,1.359923075334773e-05,6.899920649833229e-05,6.927677753070327e-05
90.52831216350002,13.0283121635,8,0,0.4881739375297975,21.21463443542154,1.605246279031286,-1.540955094824188e-05,6.749629104332508e-05,1.284197023225029e-05,6.799064300948952e-05,6.762635710450419e-05
91.97168783650001,13.0283121635,8,0,0.3732719545276515,20.75502650341295,1.570450871740161,-1.540955094824188e-05,6.611746724729933e-05,1.256360697392129e-05,6.659865149319196e-05,6.621032977886787e-05
90.52831216350002,14.4716878365,8,0,0.3953861847534768,21.19143749722746,1.432893304528076,-1.568791420657084e-05,6.749629104332508e-05,1.146314643622461e-05,6.788935165872651e-05,6.828976703856951e-05
91.97168783650001,14.4716878365,8,0,0.2804842017513307,20.73182956521887,1.39809789723695,-1.568791420657084e-05,6.611746724729933e-05,1.11847831778956e-05,6.649800498408103e-05,6.690091872992147e-05
93.02831216350002,13.0283121635,8,0,0.3148932849923938,20.40444708110303,1.271840275642341,-1.531589915290676e-05,6.504231603153578e-05,1.017472220513872e-05,6.536310880826886e-05,6.516004872171445e-05
94.47168783650002,13.0283121635,8,0,0.1850146223770155,19.88493243064152,1.24141390081935,-1.531589915290676e-05,6.348377208015124e-05,9.931311206554799e-06,6.379545597849182e-05,6.370665483685849e-05
93.02831216350002,14.4716878365,8,0,0.2337562854644544,20.38416283122105,1.077022281719272,-1.555931015149058e-05,6.504231603153578e-05,8.616178253754178e-06,6.527192568346554e-05,6.587440561282451e-05
94.47168783650002,14.4716878365,8,0,0.1038776228490761,19.86464818075953,1.046595906896287,-1.555931015149058e-05,6.348377208015124e-05,8.372767255170293e-06,6.37048783352194e-05,6.445876793080853e-05
95.5283121635,13.0283121635,8,0,0.1961976906418919,19.50616877006524,0.8822199380954063,-1.497710240599813e-05,6.226278191169524e-05,7.05775950476325e-06,6.242367167609941e-05,6.269646184480339e-05
96.97168783650002,13.0283121635,8,0,0.04809242193180197,18.91374769522488,0.8532080886113446,-1.497710240599813e-05,6.048551868717416e-05,6.825664708890757e-06,6.063955121996995e-05,6.138995714979749e-05
95.5283121635,14.4716878365,8,0,0.1188327586843787,19.48682753707586,0.6600620350302537,-1.520919720187067e-05,6.226278191169524e-05,5.28049628024203e-06,6.235265740882462e-05,6.347799813306322e-05
96.97168783650002,14.4716878365,8,0,-0.02927251002571118,18.8944064622355,0.6310501855461904,-1.520919720187067e-05,6.048551868717416e-05,5.048401484369523e-06,6.05696001138073e-05,6.22141228969961e-05
98.02831216350002,13.0283121635,8,0,0.1423347120952174,18.50076545434251,0.4191260498836645,-1.434514128476931e-05,5.908858168421984e-05,3.353008399069316e-06,5.91268366272734e-05,6.067371532369643e-05
99.47168783650002,13.0283121635,8,0,-0.02760192479519485,17.82101890678086,0.3879333292728575,-1.434514128476931e-05,5.70493420415349e-05,3.10346663418286e-06,5.708305248779143e-05,6.002341095920512e-05
98.02831216350002,14.4716878365,8,0,0.05915412379974061,18.47997030726864,0.1642210945480453,-1.459468304965574e-05,5.908858168421984e-05,1.313768756384362e-06,5.909443732592262e-05,6.152261015327313e-05
99.47168783650002,14.4716878365,8,0,-0.1107825130906672,17.80022375970701,0.13302837393724,-1.459468304965574e-05,5.704934204153495e-05,1.06422699149792e-06,5.705329392942204e-05,6.089723743932747e-05
0.5283121635,15.5283121635,8,0,-0.0771655899526853,-3.391352078848222,-0.1049635064993279,2.466151775229984e-06,-1.079059418035216e-05,-8.397080519946228e-07,2.479435649148208e-06,2.883559384928526e-06
1.9716878365,15.5283121635,8,0,0.1683809715435354,-2.409165832863339,-0.09885724500619333,2.466151775229984e-06,-7.844035442397513e-06,-7.908579600495467e-07,2.481295510472675e-06,2.965461899075599e-06
0.5283121635,16.9716878365,8,0,-0.06088222597117399,-3.387281237852844,0.2633563357450032,2.515001867174518e-06,-1.079059418035216e-05,2.106850685960025e-06,2.597886919255971e-06,2.967482119750238e-06
1.9716878365,16.9716878365,8,0,0.1846643355250467,-2.405094991867961,0.2694625972380292,2.515001867174518e-06,-7.844035442397513e-06,2.155700777904234e-06,2.625962865145951e-06,3.053563455333839e-06
3.0283121635,15.5283121635,8,0,0.1794469179296474,-1.811491112909669,-0.02957184264304436,2.023423027702607e-06,-5.940329095654659e-06,-2.365747411443549e-07,2.025179588719774e-06,3.125628895080341e-06
4.4716878365,15.5283121635,8,0,0.3673188949513307,-1.060003204822936,-0.03703350440901804,2.023423027702607e-06,-3.685865371394459e-06,-2.962680352721443e-07,2.027263950241836e-06,3.481310751732509e-06
3.0283121635,16.9716878365,8,0,0.1595491532202126,-1.816465554087028,0.2522361228894806,1.963729733574302e-06,-5.940329095654659e-06,2.017888983115845e-06,2.090487575121039e-06,3.235345624536591e-06
4.4716878365,16.9716878365,8,0,0.3474211302419049,-1.064977646000259,0.2447744611234256,1.963729733574302e-06,-3.685865371394351e-06,1.958195688987405e-06,2.128600022441864e-06,3.645902411146102e-06
5.528312163500001,15.5283121635,8,0,0.5677679639693819,-0.5370373020574331,-0.1647651836438036,2.246487326347968e-06,-2.172733737759291e-06,-1.318121469150429e-06,2.342682457228912e-06,3.917442534947313e-06
6.9716878365,15.5283121635,8,0,0.7243920287648264,0.08945895712434512,-0.188605948088261,2.246487326347968e-06,-2.932449602139568e-07,-1.508847584706088e-06,2.453684242086361e-06,4.753294868884265e-06
5.528312163500001,16.9716878365,8,0,0.5041925921175137,-0.5529311450205356,0.07017091354939026,2.055761210792472e-06,-2.172733737759724e-06,5.613673083951221e-07,2.074311358471292e-06,4.167599248617136e-06
6.9716878365,16.9716878365,8,0,0.6608166569129762,0.0735651141613148,0.04633014910495996,2.055761210792472e-06,-2.932449602141736e-07,3.706411928396797e-07,2.070291859593702e-06,5.182344728187089e-06
8.028312163500001,15.5283121635,8,0,1.04204637507737,0.5846145055408195,-0.5074409679526102,2.866856795814929e-06,1.037129317668726e-06,-4.059527743620881e-06,4.178406548521314e-06,5.619764984033643e-06
9.471687836500001,15.5283121635,8,0,1.188309820316369,1.169668286496813,-0.552701234222955,2.866856795814929e-06,2.792290660536705e-06,-4.42160987378364e-06,5.078491110418648e-06,7.151153028025491e-06
8.028312163500001,16.9716878365,8,0,0.921352331689766,0.5544409946939184,-0.2880458000941669,2.504774665652116e-06,1.037129317668726e-06,-2.304366400753335e-06,3.163002624362033e-06,6.210094622689565e-06
9.471687836500001,16.9716878365,8,0,1.067615776928746,1.139494775649839,-0.333306066364566,2.504774665652116e-06,2.792290660536489e-06,-2.666448530916528e-06,4.198304079342685e-06,8.003214072493304e-06
10.5283121635,15.5283121635,8,0,1.564472103339906,1.678376622023781,-1.058069021801447,3.663609433068676e-06,4.119227507804173e-06,-8.464552174411574e-06,8.12982121626419e-06,8.565557612309717e-06
11.9716878365,15.5283121635,8,0,1.720313565211226,2.30174246950906,-1.132774297738789,3.663609433068676e-06,5.98932505026001e-06,-9.06219438191031e-06,9.505563220741065e-06,1.089839475520499e-05
10.5283121635,16.9716878365,8,0,1.365258034173824,1.62857310473226,-0.8243068289945756,3.065967225570428e-06,4.119227507804173e-06,-6.594454631956605e-06,6.936253040063459e-06,9.58743421153776e-06
11.9716878365,16.9716878365,8,0,1.521099496045152,2.251938952217575,-0.8990121049318633,3.065967225570428e-06,5.989325050260118e-06,-7.192096839454907e-06,8.434174414843104e-06,1.212248467216131e-05
13.0283121635,15.5283121635,8,0,2.085399319083998,2.864198391436187,-1.815516383432252,4.381919107919843e-06,7.497115397328601e-06,-1.452413106745802e-05,1.336674471625837e-05,1.290206409993719e-05
14.4716878365,15.5283121635,8,0,2.272837843506799,3.613952489127391,-1.928733423294047,4.381919107919843e-06,9.746377690402212e-06,-1.542986738635238e-05,1.523204628422897e-05,1.604335340865124e-05
13.0283121635,16.9716878365,8,0,1.783487212785788,2.788720364861635,-1.53435859679801,3.476182789025214e-06,7.497115397328601e-06,-1.227486877438408e-05,1.194498290440227e-05,1.423057305406708e-05
14.4716878365,16.9716878365,8,0,1.970925737208589,3.538474462552839,-1.647575636659805,3.476182789025214e-06,9.746377690402212e-06,-1.318060509327844e-05,1.390928843932221e-05,1.745492715990063e-05
15.5283121635,15.5283121635,8,0,2.528546109291402,4.269086166920743,-2.758575825082925,4.67607861619589e-06,1.163823884671325e-05,-2.20686066006634e-05,1.972754196160561e-05,1.86400401844847e-05
16.9716878365,15.5283121635,8,0,2.771829318212447,5.242219002604924,-2.91505754647996,4.67607861619589e-06,1.45576373537658e-05,-2.332046037183968e-05,2.228067529097698e-05,2.259303107899153e-05
15.5283121635,16.9716878365,8,0,2.111261518899227,4.164765019322699,-2.393651011701364,3.424224845019366e-06,1.163823884671325e-05,-1.914920809361091e-05,1.794951141391924e-05,2.005841330526659e-05
16.9716878365,16.9716878365,8,0,2.354544727820249,5.13789785500679,-2.550132733098419,3.424224845019366e-06,1.455763735376553e-05,-2.040106186478735e-05,2.061156145343075e-05,2.394691562567691e-05
18.0283121635,15.5283121635,8,0,2.794071759052902,6.021429609343739,-3.816321845605097,4.123885941494294e-06,1.703331734265764e-05,-3.053057476484078e-05,2.715244711146595e-05,2.576740976071187e-05
19.4716878365,15.5283121635,8,0,3.114428842900348,7.302857944733524,-4.009147454892509,4.123885941494294e-06,2.0877602348827e-05,-3.207317963914007e-05,3.059339365830464e-05,3.048698270749724e-05
18.0283121635,16.9716878365,8,0,2.279870134286506,5.89287920315214,-3.335786219833901,2.581281067195107e-06,1.703331734265764e-05,-2.668628975867121e-05,2.498145003447072e-05,2.701309147945686e-05
19.4716878365,16.9716878365,8,0,2.600227218133988,7.174307538542069,-3.528611829121286,2.581281067195107e-06,2.087760234882743e-05,-2.822889463297029e-05,2.85492653146967e-05,3.150153737687039e-05
20.5283121635,15.5283121635,8,0,2.79426239470261,8.218043736607752,-4.84416267775182,2.36720467376215e-06,2.406233004138272e-05,-3.875330142201456e-05,3.542116753760099e-05,3.416599481042274e-05
21.9716878365,15.5283121635,8,0,3.198975132913758,9.836894689452343,-5.050805035096257,2.36720467376215e-06,2.891888289991649e-05,-4.040644028077006e-05,3.981778283811284e-05,3.9497669850918e-05
20.5283121635,16.9716878365,8,0,2.24321610845093,8.080282165044833,-4.237093570435153,7.140658150071107e-07,2.406233004138272e-05,-3.389674856348122e-05,3.296810928344933e-05,3.495183939034937e-05
21.9716878365,16.9716878365,8,0,2.647928846662074,9.699133117889406,-4.443735927779543,7.140658150071107e-07,2.891888289991644e-05,-3.554988742223634e-05,3.750626392527658e-05,3.98897938956184e-05
23.0283121635,15.5283121635,8,0,2.514757393685251,10.86523063303849,-5.635109678037908,-6.44960846637988e-07,3.275693211077495e-05,-4.508087742430327e-05,4.410938098131065e-05,4.351864389054972e-05
24.4716878365,15.5283121635,8,0,2.983856776012518,12.74162816234756,-5.822755895176245,-6.44960846637988e-07,3.838612469870216e-05,-4.658204716140996e-05,4.925689774662592e-05,4.917247422271083e-05
23.0283121635,16.9716878365,8,0,2.014367481316263,10.74013315494624,-4.931460604547027,-2.146130583744951e-06,3.275693211077495e-05,-3.945168483637622e-05,4.164291783463592e-05,4.357941946748922e-05
24.4716878365,16.9716878365,8,0,2.48346686364353,12.61653068425531,-5.119106821685357,-2.146130583744951e-06,3.838612469870216e-05,-4.095285457348286e-05,4.69297177086681e-05,4.872170948590522e-05
25.5283121635,15.5283121635,8,0,2.078112112491964,13.83202619096371,-6.007113515321334,-4.415662192796681e-06,4.259999412109029e-05,-4.805690812257067e-05,5.270740936995431e-05,5.32913565607113e-05
26.9716878365,15.5283121635,8,0,2.56838817674097,15.79313044795973,-6.158143667682159,-4.415662192796681e-06,4.848330689207836e-05,-4.926514934145727e-05,5.817713386739836e-05,5.889052204684392e-05
25.5283121635,16.9716878365,8,0,1.675365039529863,13.73133942272318,-5.271699418947832,-5.623903411682983e-06,4.259999412109029e-05,-4.217359535158265e-05,5.051989059553566e-05,5.245366505739737e-05
26.9716878365,16.9716878365,8,0,2.165641103778869,15.69244367971921,-5.422729571308629,-5.623903411682983e-06,4.848330689207836e-05,-4.338183657046904e-05,5.610524770231032e-05,5.750726727232119e-05
28.0283121635,15.5283121635,8,0,1.641528335582575,16.86987232832372,-5.901585533742915,-8.243007188794735e-06,5.267036878216984e-05,-4.721268426994331e-05,6.074768178332738e-05,6.284683742416049e-05
29.4716878365,15.5283121635,8,0,2.104524422887915,18.72185667754508,-6.014942927650552,-8.243007188794735e-06,5.822632182983392e-05,-4.811954342120442e-05,6.602110454824827e-05,6.805652656008229e-05
28.0283121635,16.9716878365,8,0,1.339241951828956,16.79430073238531,-5.20709140278491,-9.149866340055592e-06,5.267036878216984e-05,-4.165673122227928e-05,5.903297827010886e-05,6.10793475066522e-05
29.4716878365,16.9716878365,8,0,1.802238039134287,18.64628508160664,-5.3204487966925,-9.149866340055592e-06,5.822632182983381e-05,-4.256359037354e-05,6.438546716555304e-05,6.578484998104812e-05
30.5283121635,15.5283121635,8,0,1.366301544856956,19.72733862049201,-5.403066721760315,-1.140970595285135e-05,6.203444234968887e-05,-4.322453377408252e-05,6.79222357171999e-05,7.164404130686496e-05
31.9716878365,15.5283121635,8,0,1.770303686054232,21.34334718528112,-5.503268081647699,-1.140970595285135e-05,6.688246804405619e-05,-4.402614465318159e-05,7.26473093431363e-05,7.623562473247269e-05
30.5283121635,16.9716878365,8,0,1.099097918490746,19.66053771390046,-4.797063509964365,-1.221131683194998e-05,6.203444234968887e-05,-3.837650807971492e-05,6.670028470884757e-05,6.904079474687083e-05
31.9716878365,16.9716878365,8,0,1.503100059688041,21.27654627868964,-4.89726486985171,-1.221131683194998e-05,6.688246804405641e-05,-3.917811895881368e-05,7.146819339370243e-05,7.323069879971871e-05
33.0283121635,15.5283121635,8,0,1.285024263034009,22.25774243143977,-4.698114152911938,-1.369411630344299e-05,7.019675637018005e-05,-3.75849132232955e-05,7.421408817222383e-05,7.933487756244159e-05
34.4716878365,15.5283121635,8,0,1.635589130027385,23.66000189941327,-4.815331650720118,-1.369411630344299e-05,7.440353477410056e-05,-3.852265320576095e-05,7.843066719612229e-05,8.32106103341705e-05
33.0283121635,16.9716878365,8,0,0.9724442688788999,22.17959743290113,-4.172266852421901,-1.463185628590842e-05,7.019675637018048e-05,-3.337813481937521e-05,7.336203266741122e-05,7.608356096108724e-05
34.4716878365,16.9716878365,8,0,1.323009135872226,23.58185690087443,-4.289484350230075,-1.463185628590842e-05,7.440353477410039e-05,-3.43158748018406e-05,7.759558700234844e-05,7.968782128042034e-05
35.5283121635,15.5283121635,8,0,1.311436281601527,24.46386819148975,-3.861143237318893,-1.537449845206691e-05,7.723522918748598e-05,-3.088914589855114e-05,7.974301994573404e-05,8.577367061310706e-05
36.9716878365,15.5283121635,8,0,1.605565832042015,25.6403863932517,-3.998268253288782,-1.537449845206691e-05,8.076478379277183e-05,-3.198614602631025e-05,8.335547016675049e-05,8.890034874659217e-05
35.5283121635,16.9716878365,8,0,0.9457695723485084,24.3724515141765,-3.419948911658101,-1.647149857982597e-05,7.723522918748598e-05,-2.735959129326481e-05,7.919143932520311e-05,8.210083072091867e-05
36.9716878365,16.9716878365,8,0,1.239899122788996,25.54896971593845,-3.557073927627996,-1.647149857982597e-05,8.076478379277183e-05,-2.845659142102397e-05,8.280400190634828e-05,8.508903479245064e-05
38.0283121635,15.5283121635,8,0,1.415940032512212,26.32577271414042,-2.95289513402624,-1.652961006727326e-05,8.310972065923958e-05,-2.362316107220992e-05,8.449076321753191e-05,9.090534368990042e-05
39.4716878365,15.5283121635,8,0,1.655684370405363,27.28475006571303,-3.1091062104792,-1.652961006727326e-05,8.59866527139574e-05,-2.48728496838336e-05,8.747376467766011e-05,9.325641361068498e-05
38.0283121635,16.9716878365,8,0,0.9993771619709886,26.22163199650512,-2.59327862718657,-1.777929867889693e-05,8.310972065923958e-05,-2.074622901749256e-05,8.416521157623231e-05,8.704717956347839e-05
39.4716878365,16.9716878365,8,0,1.239121499864145,27.18060934807774,-2.74948970363952,-1.777929867889693e-05,8.598665271395745e-05,-2.199591762911616e-05,8.713949760326996e-05,8.9408726495197e-05
40.5283121635,15.5283121635,8,0,1.608891655115956,27.86004553761954,-2.010370296303734,-1.713958313372458e-05,8.786503239628977e-05,-1.608296237042987e-05,8.847729645770043e-05,9.469982488366144e-05
41.97168783650001,15.5283121635,8,0,1.79679971124409,28.61167776213208,-2.194250262975243,-1.713958313372458e-05,9.011992906982739e-05,-1.755400210380194e-05,9.083340149747398e-05,9.629222789703389e-05
40.5283121635,16.9716878365,8,0,1.118545077325329,27.73745889317189,-1.728508212111548,-1.861062286709646e-05,8.786503239628977e-05,-1.382806569689239e-05,8.831212016148686e-05,9.091346102491838e-05
41.97168783650001,16.9716878365,8,0,1.306453133453484,28.48909111768451,-1.912388178783013,-1.861062286709646e-05,9.011992906982763e-05,-1.529910543026411e-05,9.065546263882706e-05,9.266292528047662e-05
43.0283121635,15.5283121635,8,0,1.853081371816428,29.06460700903077,-1.061880466216963,-1.732182521741204e-05,9.15242773314453e-05,-8.495043729735699e-06,9.168977753085244e-05,9.721352259756442e-05
44.4716878365,15.5283121635,8,0,1.984902549223639,29.59189171865961,-1.274192108461194,-1.732182521741204e-05,9.310613146033182e-05,-1.019353686768955e-05,9.334087224529228e-05,9.813814351489233e-05
43.0283121635,16.9716878365,8,0,1.286916992498545,28.9230659142013,-0.8641487001061264,-1.902031835536569e-05,9.15242773314453e-05,-6.913189600849011e-06,9.163225536767451e-05,9.373701749030365e-05
44.4716878365,16.9716878365,8,0,1.418738169905777,29.45035062383022,-1.076460342350327,-1.902031835536569e-05,9.310613146033207e-05,-8.611682738802616e-06,9.327123977485868e-05,9.492202772413158e-05
45.52831216350001,15.5283121635,8,0,2.087163858067473,29.92128483369388,-0.184045190810719,-1.725810352113919e-05,9.407838038136642e-05,-1.472361526485752e-06,9.408324795400668e-05,9.861100497728624e-05
46.97168783650001,15.5283121635,8,0,2.176695468158866,30.27941127405945,-0.4164577009986879,-1.725810352113919e-05,9.515275970246314e-05,-3.331661607989503e-06,9.517744044104231e-05,9.897826560021467e-05
45.52831216350001,16.9716878365,8,0,1.46739716423293,29.76634316023524,-0.04974777567366977,-1.911740360264282e-05,9.407838038136642e-05,-3.979822053893581e-07,9.407873019418797e-05,9.561092179278769e-05
46.97168783650001,16.9716878365,8,0,1.556928774324323,30.12446960060081,-0.2821602858616183,-1.911740360264282e-05,9.515275970246314e-05,-2.257282286892946e-06,9.516390615181184e-05,9.630800515564115e-05
48.0283121635,15.5283121635,8,0,2.299185948537176,30.50405330491009,0.6316237007039724,-1.704584760860911e-05,9.577362181688255e-05,5.05298960563178e-06,9.58301721453099e-05,9.908630665156275e-05
49.47168783650001,15.5283121635,8,0,2.351006575209205,30.71133581159821,0.3841668802719762,-1.704584760860911e-05,9.63954693369469e-05,3.073335042175809e-06,9.641628110116477e-05,9.901421967023293e-05
48.0283121635,16.9716878365,8,0,1.639301094051883,30.33908209128877,0.709354640712016,-1.902550217206499e-05,9.577362181688255e-05,5.674837125696128e-06,9.584370973658723e-05,9.666795137132852e-05
49.47168783650001,16.9716878365,8,0,1.691121720723923,30.54636459797693,0.4618978202800298,-1.902550217206499e-05,9.639546933694703e-05,3.695182562240239e-06,9.642503692120329e-05,9.695425935776696e-05
50.5283121635,15.5283121635,8,0,2.472248910517225,30.83725209382244,1.388544741922568,-1.675860516140283e-05,9.670140757181802e-05,1.110835793538054e-05,9.697265142273171e-05,9.884255512432804e-05
51.97168783650001,15.5283121635,8,0,2.49008151731868,30.90858252102826,1.131865727006806,-1.675860516140283e-05,9.691539885343548e-05,9.054925816054447e-06,9.709543568156909e-05,9.844564584436757e-05
50.5283121635,16.9716878365,8,0,1.787771537408481,30.66613275054526,1.415293652124737,-1.881203728072906e-05,9.670140757181802e-05,1.13223492169979e-05,9.697819170316619e-05,9.703635591273434e-05
51.97168783650001,16.9716878365,8,0,1.805604144209937,30.73746317775108,1.158614637208972,-1.881203728072906e-05,9.691539885343548e-05,9.268917097671778e-06,9.710069520165281e-05,9.697433988560265e-05
53.0283121635,15.5283121635,8,0,2.598278726594748,30.92213201430323,2.116751348103588,-1.642321368633939e-05,9.687219946449453e-05,1.69340107848287e-05,9.750147640400887e-05,9.806189639102545e-05
54.4716878365,15.5283121635,8,0,2.570610876006036,30.81146061194838,1.862201680372642,-1.642321368633939e-05,9.654018525743e-05,1.489761344298113e-05,9.702924229102293e-05,9.741038266703389e-05
53.0283121635,16.9716878365,8,0,1.919479612645545,30.75243223581593,2.075249572220538,-1.8459611028187e-05,9.687219946449453e-05,1.660199657776431e-05,9.746659974835138e-05,9.681165209256149e-05
54.4716878365,16.9716878365,8,0,1.891811762056842,30.64176083346112,1.820699904489596,-1.8459611028187e-05,9.65401852574301e-05,1.456559923591677e-05,9.699956123627264e-05,9.642919680331454e-05
55.5283121635,15.5283121635,8,0,2.690824777366976,30.69909693408534,2.771060915520581,-1.594863825969395e-05,9.60844503671795e-05,2.216848732416465e-05,9.717056531213137e-05,9.68406230603301e-05
56.97168783650001,15.5283121635,8,0,2.614735055039122,30.39473804477393,2.527935193072743,-1.594863825969395e-05,9.517137369924526e-05,2.022348154458195e-05,9.608402983061215e-05,9.593552459064025e-05
55.5283121635,16.9716878365,8,0,2.042489517506089,30.53701311912012,2.656926332028793,-1.789364403927661e-05,9.60844503671795e-05,2.125541065623035e-05,9.70669446448626e-05,9.603841882563065e-05
56.97168783650001,16.9716878365,8,0,1.966399795178238,30.23265422980872,2.413800609580956,-1.789364403927661e-05,9.517137369924528e-05,1.931040487664765e-05,9.598995455963186e-05,9.535324882532079e-05
58.0283121635,15.5283121635,8,0,2.769585325870382,30.18594937031876,3.260997288448186,-1.528608645346978e-05,9.437936972432371e-05,2.608797830758549e-05,9.590951702974258e-05,9.519756924512045e-05
59.47168783650001,15.5283121635,8,0,2.665358789917014,29.76904322650528,3.026598404617336,-1.528608645346978e-05,9.312865129288328e-05,2.421278723693869e-05,9.446409119454224e-05,9.408653621704742e-05
58.0283121635,16.9716878365,8,0,2.144521635654772,30.02968344776485,3.10465748451814,-1.716127752411661e-05,9.437936972432371e-05,2.483725987614512e-05,9.574529874839194e-05,9.476322460534252e-05
59.47168783650001,16.9716878365,8,0,2.040295099701404,29.61277730395138,2.87025860068731,-1.716127752411661e-05,9.312865129288328e-05,2.296206880549848e-05,9.431113357400204e-05,9.383641845890698e-05
60.5283121635,15.5283121635,8,0,2.802435123770294,29.5028578926976,3.568343397513198,-1.463449391809313e-05,9.216719715761607e-05,2.854674718010558e-05,9.404183893375103e-05,9.323082242492561e-05
61.9716878365,15.5283121635,8,0,2.687766530822896,29.044183520908,3.344537105085932,-1.463449391809313e-05,9.079117404224728e-05,2.675629684068746e-05,9.24623241141648e-05,9.200400189608504e-05
60.5283121635,16.9716878365,8,0,2.20561834396428,29.35365369774609,3.396340508092093,-1.642494425751118e-05,9.216719715761607e-05,2.717072406473674e-05,9.384098758826919e-05,9.310218519348104e-05
61.9716878365,16.9716878365,8,0,2.090949751016889,28.89497932595653,3.172534215664858,-1.642494425751118e-05,9.079117404224736e-05,2.538027372531886e-05,9.227271081945747e-05,9.202302875408047e-05
63.0283121635,15.5283121635,8,0,2.767364575664905,28.75093796164781,3.717140075025813,-1.414518372719055e-05,8.978910981674105e-05,2.97371206002065e-05,9.18743305138958e-05,9.109409005359729e-05
64.47168783650001,15.5283121635,8,0,2.653892303891742,28.29704887455515,3.508447999685764,-1.414518372719055e-05,8.842744255546309e-05,2.806758399748611e-05,9.031286282103411e-05,8.983498519824706e-05
63.0283121635,16.9716878365,8,0,2.210852374758136,28.61180991142111,3.546931667366061,-1.581472032991085e-05,8.978910981674105e-05,2.837545333892849e-05,9.166199536909779e-05,9.120760625278823e-05
64.47168783650001,16.9716878365,8,0,2.09738010298497,28.15792082432845,3.338239592026023,-1.581472032991085e-05,8.842744255546306e-05,2.670591673620818e-05,9.011071621471491e-05,9.005898698892882e-05
65.5283121635,15.5283121635,8,0,2.663993056908359,27.99688184005698,3.748297368284963,-1.387272768993883e-05,8.745882744265563e-05,2.99863789462797e-05,8.96306950450729e-05,8.892103536563506e-05
66.97168783650001,15.5283121635,8,0,2.55693985357473,27.56866902672246,3.558295340478763,-1.387272768993883e-05,8.617418900265208e-05,2.846636272383011e-05,8.815967062444983e-05,8.76831828426141e-05
65.5283121635,16.9716878365,8,0,2.157320982758529,27.87021382151952,3.587717563284519,-1.539274391238832e-05,8.745882744265563e-05,2.870174050627615e-05,8.942366743643318e-05,8.92138182524357e-05
66.97168783650001,16.9716878365,8,0,2.050267779424909,27.44200100818504,3.39771553547835,-1.539274391238832e-05,8.617418900265218e-05,2.71817242838268e-05,8.796136073036399e-05,8.805339358712894e-05
68.0283121635,15.5283121635,8,0,2.50285196666807,27.27199506324872,3.697919933258797,-1.380846975726115e-05,8.526810262906144e-05,2.958335946607037e-05,8.742929020769244e-05,8.679372436785535e-05
69.47168783650001,15.5283121635,8,0,2.403615669268275,26.87504987364954,3.528370669589505,-1.380846975726115e-05,8.407726706026391e-05,2.822696535671604e-05,8.607156348612637e-05,8.560153114650938e-05
68.0283121635,16.9716878365,8,0,2.050720596883271,27.15896222080252,3.549065487159121,-1.516486386661555e-05,8.526810262906144e-05,2.839252389727297e-05,8.723618647816023e-05,8.721096701484922e-05
69.47168783650001,16.9716878365,8,0,1.951484299483482,26.76201703120337,3.37951622348982,-1.516486386661555e-05,8.407726706026399e-05,2.703612978791856e-05,8.588565051672097e-05,8.60698394829438e-05
70.5283121635,15.5283121635,8,0,2.297777526499512,26.58603168477039,3.592510568231765,-1.391593726301787e-05,8.323707937006564e-05,2.874008454585412e-05,8.53180016550927e-05,8.474679956593608e-05
71.97168783650001,15.5283121635,8,0,2.205727535764863,26.2178317218318,3.44367868565815,-1.391593726301787e-05,8.213247948124985e-05,2.75494294852652e-05,8.406892919136138e-05,8.360382268222289e-05
70.5283121635,16.9716878365,8,0,1.900892506303194,26.48681042972131,3.454435582129777,-1.510659232360683e-05,8.323707937006564e-05,2.763548465703822e-05,8.514165141968938e-05,8.524541052830273e-05
71.97168783650001,16.9716878365,8,0,1.808842515568545,26.11861046678272,3.305603699556169,-1.510659232360683e-05,8.213247948124985e-05,2.644482959644935e-05,8.389837326304499e-05,8.413415626880205e-05
73.0283121635,15.5283121635,8,0,2.06241986680008,25.93695850107403,3.449712337591315,-1.414982322709897e-05,8.134833130999682e-05,2.759769870073052e-05,8.330219785156778e-05,8.278161117112007e-05
74.47168783650001,15.5283121635,8,0,1.975942137150031,25.59104758247383,3.320861462142718,-1.414982322709897e-05,8.031059855419623e-05,2.656689169714175e-05,8.214302879085611e-05,8.167826443183687e-05
73.0283121635,16.9716878365,8,0,1.7188175322705,25.85105791744164,3.319995743116237,-1.518063023068771e-05,8.134833130999682e-05,2.655996594492989e-05,8.314199724705571e-05,8.333038978486152e-05
74.47168783650001,16.9716878365,8,0,1.632339802620455,25.50514699884145,3.19114486766765,-1.518063023068771e-05,8.031059855419627e-05,2.55291589413412e-05,8.198743030492722e-05,8.224571317272232e-05
75.5283121635,15.5283121635,8,0,1.808993420779924,25.3167570782662,3.280222619336576,-1.44646267161172e-05,7.95664279138279e-05,2.624178095469261e-05,8.136296443171789e-05,8.087876234199984e-05
76.97168783650001,15.5283121635,8,0,1.726045150507153,24.98496399717512,3.170017138484528,-1.44646267161172e-05,7.857104867055465e-05,2.536013710787623e-05,8.026828499143252e-05,7.979782875099792e-05
75.5283121635,16.9716878365,8,0,1.515112138507823,25.24328675769818,3.155800213927401,-1.534627056293351e-05,7.95664279138279e-05,2.524640171141921e-05,8.121659843483092e-05,8.145702344105558e-05
76.97168783650001,16.9716878365,8,0,1.432163868235063,24.91149367660714,3.045594733075378,-1.534627056293351e-05,7.857104867055479e-05,2.436475786460302e-05,8.012554262530527e-05,8.038695963478182e-05
78.0283121635,15.5283121635,8,0,1.548025648192387,24.71457923398497,3.089556433309897,-1.481798131297234e-05,7.784823303019799e-05,2.471645146647918e-05,7.94680461393142e-05,7.900693363132685e-05
79.47168783650001,15.5283121635,8,0,1.46640983062817,24.38811596372811,2.99633603331209,-1.481798131297234e-05,7.68688432194274e-05,2.397068826649672e-05,7.840967856993192e-05,7.792710157183731e-05
78.0283121635,16.9716878365,8,0,1.29943791486486,24.65243230065308,2.967132706963562,-1.556374451295491e-05,7.784823303019794e-05,2.37370616557085e-05,7.933261063139719e-05,7.960273644427193e-05
79.47168783650001,16.9716878365,8,0,1.217822097300643,24.32596903039621,2.873912306965756,-1.556374451295491e-05,7.686884321942734e-05,2.299129845572605e-05,7.827707843118305e-05,7.85302626495078e-05
80.5283121635,15.5283121635,8,0,1.288566160339522,24.11836712859196,2.879375097353159,-1.517128198978709e-05,7.614792188322263e-05,2.303500077882527e-05,7.757814967905169e-05,7.712854052244042e-05
81.97168783650001,15.5283121635,8,0,1.20604916799914,23.78829915923043,2.801315023431883,-1.517128198978709e-05,7.515771797513805e-05,2.241052018745507e-05,7.652696824379907e-05,7.602666322193936e-05
80.5283121635,16.9716878365,8,0,1.08040596321612,24.0663270793111,2.755599608842581,-1.57957625811573e-05,7.614792188322263e-05,2.204479687074065e-05,7.745084612839794e-05,7.773710469817657e-05
81.97168783650001,16.9716878365,8,0,0.9978889708757377,23.73625910994958,2.677539534921306,-1.57957625811573e-05,7.515771797513804e-05,2.142031627937045e-05,7.64018658917065e-05,7.664263067138434e-05
83.02831216350002,15.5283121635,8,0,1.038556317111309,23.51559565365044,2.648361740783216,-1.548909630816416e-05,7.441906103799236e-05,2.118689392626573e-05,7.565037299773239e-05,7.52034803189541e-05
84.47168783650002,15.5283121635,8,0,0.9529026193074381,23.17298086243496,2.583546712311331,-1.548909630816416e-05,7.33912166643459e-05,2.066837369849065e-05,7.457696210186603e-05,7.405638010448178e-05
83.02831216350002,16.9716878365,8,0,0.865716241186278,23.47238563466918,2.519881194077424,-1.600761653593926e-05,7.441906103799236e-05,2.015904955261939e-05,7.552896505613669e-05,7.582601283735384e-05
84.47168783650002,16.9716878365,8,0,0.7800625433824067,23.1297708434537,2.455066165605529,-1.600761653593926e-05,7.33912166643459e-05,1.964052932484423e-05,7.44572394528197e-05,7.468944545111301e-05
85.5283121635,15.5283121635,8,0,0.8052281332089715,22.89353991024403,2.39271693249425,-1.573810190192651e-05,7.261514520621369e-05,1.9141735459954e-05,7.364002138105454e-05,7.319248717860491e-05
86.97168783650002,15.5283121635,8,0,0.7141929431785599,22.52939915012238,2.339152166460404,-1.573810190192651e-05,7.152272292584875e-05,1.871321733168323e-05,7.251471534553796e-05,7.197938802718196e-05
85.5283121635,16.9716878365,8,0,0.6623887571187428,22.85783006622149,2.256164147448645,-1.616662003019721e-05,7.261514520621375e-05,1.804931317958916e-05,7.352321275450793e-05,7.383544105327505e-05
86.97168783650002,16.9716878365,8,0,0.571353567088333,22.49368930609985,2.202599381414784,-1.616662003019721e-05,7.152272292584883e-05,1.762079505131828e-05,7.239916862501522e-05,7.263882503463607e-05
88.02831216350002,15.5283121635,8,0,0.5954794196208617,22.23929422009317,2.106348011595632,-1.588590123328778e-05,7.068935796860146e-05,1.685078409276506e-05,7.150168423615883e-05,7.106228961552128e-05
89.47168783650001,15.5283121635,8,0,0.4967816592726164,21.84450317870019,2.061922868793073,-1.588590123328778e-05,6.950498484442252e-05,1.649538295034458e-05,7.029431236899284e-05,6.976982931064001e-05
88.02831216350002,16.9716878365,8,0,0.4770123721473363,22.20967745822479,1.958301371073242,-1.624130237570836e-05,7.068935796860146e-05,1.566641096858594e-05,7.138955773930579e-05,7.173692391533172e-05
89.47168783650001,16.9716878365,8,0,0.3783146117990892,21.8148864168318,1.913876228270693,-1.624130237570836e-05,6.950498484442249e-05,1.531100982616555e-05,7.018311215132949e-05,7.046950025252321e-05
90.52831216350002,15.5283121635,8,0,0.4162089240970346,21.53967035812249,1.780803219446609,-1.589986772938748e-05,6.859397800671434e-05,1.424642575557287e-05,6.919028860115206e-05,6.879681271372252e-05
91.97168783650001,15.5283121635,8,0,0.3074969372147125,21.1048224105932,1.743215152587376,-1.589986772938748e-05,6.728943416412647e-05,1.394572122069901e-05,6.786984424250513e-05,6.743094223910439e-05
90.52831216350002,16.9716878365,8,0,0.3159740791390853,21.514611646883,1.617735239123139,-1.620057226426133e-05,6.859397800671434e-05,1.294188191298511e-05,6.908495319432395e-05,6.951867732599215e-05
91.97168783650001,16.9716878365,8,0,0.2072620922567632,21.07976369935372,1.5801471722639,-1.620057226426133e-05,6.728943416412647e-05,1.26411773781112e-05,6.776522126382031e-05,6.818840444440606e-05
93.02831216350002,15.5283121635,8,0,0.2746088938445483,20.78104865230605,1.404974046124527,-1.574609046154229e-05,6.627966857230373e-05,1.123979236899621e-05,6.666291833571537e-05,6.642407036255832e-05
94.47168783650002,15.5283121635,8,0,0.1534266390008598,20.2963196329313,1.371613758830469,-1.574609046154229e-05,6.482548151417947e-05,1.097291007064375e-05,6.519736075090246e-05,6.503911571362339e-05
93.02831216350002,16.9716878365,8,0,0.1856481277270694,20.75880846077668,1.223200663859001,-1.601297275989472e-05,6.627966857230373e-05,9.785605310872012e-06,6.65695545639393e-05,6.721142549491451e-05
94.47168783650002,16.9716878365,8,0,0.06446587288339245,20.27407944140198,1.189840376564952,-1.601297275989472e-05,6.482548151417961e-05,9.518723012519618e-06,6.510472418010517e-05,6.587254224845093e-05
95.5283121635,15.5283121635,8,0,0.1784139539341068,19.94922998672427,0.9645620414630728,-1.538845933679027e-05,6.369480479437035e-05,7.716496331704582e-06,6.388259187026544e-05,6.408197543938119e-05
96.97168783650002,15.5283121635,8,0,0.04217402164567652,19.40427025757054,0.9323547333853481,-1.538845933679027e-05,6.205992560690919e-05,7.458837867082785e-06,6.22390960768248e-05,6.285197422900485e-05
95.5283121635,16.9716878365,8,0,0.09252779906016162,19.92775844800578,0.7602021430304227,-1.56461178014121e-05,6.369480479437035e-05,6.081617144243381e-06,6.381117569457921e-05,6.495053583867079e-05
96.97168783650002,16.9716878365,8,0,-0.04371213322826861,19.38279871885206,0.7279948349526997,-1.56461178014121e-05,6.205992560690919e-05,5.823958679621597e-06,6.216889716823053e-05,6.377045072860375e-05
98.02831216350002,15.5283121635,8,0,0.1360987451648468,19.0293295657704,0.4412794289479957,-1.478794766808881e-05,6.078497561433339e-05,3.530235431583966e-06,6.082618009083725e-05,6.21800149745132e-05
99.47168783650002,15.5283121635,8,0,-0.0179303356279128,18.41321324259936,0.4064710549479413,-1.478794766808881e-05,5.893662664482027e-05,3.251768439583531e-06,5.897246564540901e-05,6.157418936092416e-05
98.02831216350002,16.9716878365,8,0,0.04327641449803821,19.00612398310369,0.2102358077588578,-1.506641466008923e-05,6.078497561433339e-05,1.681886462070862e-06,6.079429777194505e-05,6.312718351778142e-05
99.47168783650002,16.9716878365,8,0,-0.1107526662947169,18.39000765993267,0.1754274337588017,-1.506641466008923e-05,5.893662664482032e-05,1.403419470070414e-06,5.894327978068265e-05,6.254982992496401e-05
0.5283121635,18.0283121635,8,0,-0.07607433069757064,-3.444573820661317,-0.2306835736870104,2.512221198296827e-06,-1.096177676155816e-05,-1.845468589496083e-06,2.575118823042691e-06,3.031506867478265e-06
1.9716878365,18.0283121635,8,0,0.1913353100029429,-2.374935257859263,-0.2377394512617284,2.512221198296827e-06,-7.752861073151993e-06,-1.901915610093828e-06,2.599574626343112e-06,3.130407507913551e-06
0.5283121635,19.4716878365,8,0,-0.09489000423014304,-3.44927773904446,0.1704308873637871,2.45577417769911e-06,-1.096177676155816e-05,1.363447098910297e-06,2.490322465667513e-06,3.122502996398738e-06
1.9716878365,19.4716878365,8,0,0.1725196364703705,-2.379639176242406,0.1633750097890826,2.45577417769911e-06,-7.752861073151993e-06,1.307000078312661e-06,2.497437578512118e-06,3.252247807571501e-06
3.0283121635,18.0283121635,8,0,0.1576283064151839,-1.722649732750722,-0.3254880075406763,1.882530366729165e-06,-5.638581789934455e-06,-2.60390406032541e-06,2.101529679031227e-06,3.340703120756784e-06
4.4716878365,18.0283121635,8,0,0.3715785343300484,-0.8668488210912636,-0.3457564452463235,1.882530366729165e-06,-3.071179054956082e-06,-2.766051561970588e-06,2.242499508277324e-06,3.816340779242468e-06
3.0283121635,19.4716878365,8,0,0.1035791392002419,-1.736162024554728,-0.004562665668298316,1.720382865084556e-06,-5.638581789935322e-06,-3.650132534638653e-08,1.720428127516833e-06,3.518828423944584e-06
4.4716878365,19.4716878365,8,0,0.3175293671151877,-0.8803611128949449,-0.02483110337389138,1.720382865084556e-06,-3.071179054955973e-06,-1.98648826991131e-07,1.722440879539404e-06,4.117395401047071e-06
5.528312163500001,18.0283121635,8,0,0.5131263261041997,-0.2842858996559862,-0.5641055390471231,1.869432963258228e-06,-1.320215939782515e-06,-4.512844312376985e-06,3.037741874083145e-06,4.415655155147811e-06
6.9716878365,18.0283121635,8,0,0.6978194476088323,0.4544865863625445,-0.6038970544990091,1.869432963258228e-06,8.961015182730762e-07,-4.831176435992073e-06,3.846891824541904e-06,5.577374821411566e-06
5.528312163500001,19.4716878365,8,0,0.4070156182325219,-0.3108135766239056,-0.2870658567901471,1.551100839643194e-06,-1.320215939782515e-06,-2.296526854321176e-06,1.953817795203302e-06,4.84319978126616e-06
6.9716878365,19.4716878365,8,0,0.5917087397371003,0.4279589093944082,-0.326857372242033,1.551100839643194e-06,8.961015182724257e-07,-2.614858977936264e-06,2.571424571087696e-06,6.227567247362568e-06
8.028312163500001,18.0283121635,8,0,0.9344611387827733,1.008457027149091,-0.9617081405654799,2.183510022385601e-06,2.479493575850873e-06,-7.69366512452384e-06,6.18118001009368e-06,6.720672537593028e-06
9.471687836500001,18.0283121635,8,0,1.110260313093874,1.711653724393495,-1.026161790309679,2.183510022385601e-06,4.589083667584084e-06,-8.20929432247743e-06,7.663541806275161e-06,8.682500320247281e-06
8.028312163500001,19.4716878365,8,0,0.7625847394647473,0.9654879273195848,-0.6980093790987744,1.667880824431523e-06,2.479493575850873e-06,-5.584075032790195e-06,4.895061387930603e-06,7.525267703735248e-06
9.471687836500001,19.4716878365,8,0,0.9383839137758572,1.668684624564025,-0.7624630288429867,1.667880824431523e-06,4.589083667584193e-06,-6.099704230743894e-06,6.510043193018801e-06,9.686283817605053e-06
10.5283121635,18.0283121635,8,0,1.372172479303825,2.273319082396247,-1.520515849603239,2.572296667855241e-06,6.176883080224928e-06,-1.216412679682592e-05,1.071807125127882e-05,1.037047070458437e-05
11.9716878365,18.0283121635,8,0,1.557869027304846,3.016105274400333,-1.614402204407964,2.572296667855241e-06,8.405241656237188e-06,-1.291521763526371e-05,1.257442533850081e-05,1.302026377380667e-05
10.5283121635,19.4716878365,8,0,1.121808866491234,2.210728179193099,-1.241971027601721,1.82120582941747e-06,6.176883080224928e-06,-9.935768220813764e-06,9.423328150640729e-06,1.148788958863117e-05
11.9716878365,19.4716878365,8,0,1.307505414492238,2.953514371197113,-1.335857382406432,1.82120582941747e-06,8.405241656236971e-06,-1.068685905925145e-05,1.138933886926387e-05,1.424895197662328e-05
13.0283121635,18.0283121635,8,0,1.771754822842074,3.618091788077298,-2.228673875849551,2.775142002632797e-06,1.016048986357369e-05,-1.782939100679641e-05,1.611704578190901e-05,1.518353065086827e-05
14.4716878365,18.0283121635,8,0,1.985677215052873,4.473781356920496,-2.354866716823133,2.775142002632797e-06,1.272755857010329e-05,-1.883893373458507e-05,1.840447212680228e-05,1.844389260036038e-05
13.0283121635,19.4716878365,8,0,1.435240580245764,3.533963227428221,-1.907790287533352,1.765599274843868e-06,1.016048986357369e-05,-1.526232230026681e-05,1.467241696327321e-05,1.645855026876861e-05
14.4716878365,19.4716878365,8,0,1.649162972456563,4.389652796271418,-2.033983128506961,1.765599274843868e-06,1.272755857010329e-05,-1.627186502805569e-05,1.705649919587777e-05,1.973422267949162e-05
15.5283121635,18.0283121635,8,0,2.069707594918546,5.143817287673864,-3.050296686469642,2.508010473600256e-06,1.480444924462153e-05,-2.440237349175714e-05,2.231893675123778e-05,2.103995437060338e-05
16.9716878365,18.0283121635,8,0,2.328632773107038,6.179518000427831,-3.206707991753612,2.508010473600256e-06,1.791155138288343e-05,-2.56536639340289e-05,2.517122759779936e-05,2.487216507730391e-05
15.5283121635,19.4716878365,8,0,1.652610780827977,5.039543084151221,-2.661908919186898,1.256720031328549e-06,1.480444924462153e-05,-2.129527135349518e-05,2.065030679077722e-05,2.230320131015091e-05
16.9716878365,19.4716878365,8,0,1.911535959016464,6.075243796905171,-2.818320224470854,1.256720031328549e-06,1.791155138288337e-05,-2.254656179576683e-05,2.359958125977272e-05,2.604610904224618e-05
18.0283121635,18.0283121635,8,0,2.202533003689835,6.936153809997066,-3.913178657955957,1.499182563809821e-06,2.043366578903874e-05,-3.130542926364766e-05,2.925948677121498e-05,2.786071053766967e-05
19.4716878365,18.0283121635,8,0,2.517819883868876,8.197301330713227,-4.089896559939639,1.499182563809821e-06,2.421710835118722e-05,-3.271917247951712e-05,3.277452313910253e-05,3.219335786976486e-05
18.0283121635,19.4716878365,8,0,1.731285265066602,6.818341875341257,-3.440248337687336,8.543934794011908e-08,2.043366578903874e-05,-2.752198670149869e-05,2.737321722057152e-05,2.89307671515242e-05
19.4716878365,19.4716878365,8,0,2.046572145245655,8.079489396057472,-3.616966239671052,8.543934794011908e-08,2.421710835118739e-05,-2.893572991736842e-05,3.099015594705812e-05,3.306889193677709e-05
20.5283121635,18.0283121635,8,0,2.130707402933783,9.043385671439324,-4.705273169269529,-4.164448477633525e-07,2.723426822625881e-05,-3.764218535415623e-05,3.676215585220373e-05,3.54959789976341e-05
21.9716878365,18.0283121635,8,0,2.502340028888376,10.52991617525769,-4.884707383089952,-4.164448477633525e-07,3.169385973771392e-05,-3.907765906471962e-05,4.092771245975684e-05,4.018626038541172e-05
20.5283121635,19.4716878365,8,0,1.652216166079403,8.923762862225729,-4.147824230337681,-1.851918558326495e-06,2.723426822625881e-05,-3.318259384270145e-05,3.475410072672499e-05,3.619675147128311e-05
21.9716878365,19.4716878365,8,0,2.023848792033973,10.41029336604401,-4.327258444158097,-1.851918558326495e-06,3.169385973771365e-05,-3.461806755326478e-05,3.902351113322073e-05,4.06040978536027e-05
23.0283121635,18.0283121635,8,0,1.870215977620778,11.44897092810517,-5.295546920670288,-3.174485614097647e-06,3.514053418783992e-05,-4.23643753653623e-05,4.454340349706452e-05,4.367206810998137e-05
24.4716878365,18.0283121635,8,0,2.283290827940701,13.10127032938486,-5.459090477439644,-3.174485614097647e-06,4.0097432391679e-05,-4.367272381951715e-05,4.920137292390008e-05,4.850519053154899e-05
23.0283121635,19.4716878365,8,0,1.43409982623572,11.33994189025891,-4.675934645190336,-4.482834068252821e-06,3.514053418783992e-05,-3.740747716152269e-05,4.257463257538566e-05,4.386441333159347e-05
24.4716878365,19.4716878365,8,0,1.847174676555643,12.9922412915386,-4.839478201959746,-4.482834068252821e-06,4.0097432391679e-05,-3.871582561567797e-05,4.7329813073735e-05,4.836441448422658e-05
25.5283121635,18.0283121635,8,0,1.49457924642538,14.05757120340313,-5.577805992560472,-6.463403374161285e-06,4.37885644537497e-05,-4.462244794048377e-05,5.22647498551025e-05,5.200610583583581e-05
26.9716878365,18.0283121635,8,0,1.921867757059782,15.76672524594074,-5.713470409017204,-6.463403374161285e-06,4.891602658136252e-05,-4.570776327213763e-05,5.71292393586617e-05,5.673766189898187e-05
25.5283121635,19.4716878365,8,0,1.132807469207354,13.96712825909862,-4.936873226608895,-7.548718705815364e-06,4.37885644537497e-05,-3.949498581287117e-05,5.050576293781396e-05,5.162104280639557e-05
26.9716878365,19.4716878365,8,0,1.560095979841756,15.67628230163623,-5.072537643065655,-7.548718705815364e-06,4.891602658136252e-05,-4.058030114452525e-05,5.54508378233223e-05,5.601831569167418e-05
28.0283121635,18.0283121635,8,0,1.115362937700998,16.71685131901468,-5.514503467958846,-9.804319654568551e-06,5.260163387068618e-05,-4.411602774367077e-05,5.961098149194243e-05,6.008542125955343e-05
29.4716878365,18.0283121635,8,0,1.527179958033881,18.36411940034622,-5.624646037364676,-9.804319654568551e-06,5.754343811468078e-05,-4.499716829891741e-05,6.436790991087576e-05,6.450011386139199e-05
28.0283121635,19.4716878365,8,0,0.8216494192855164,16.64342293941081,-4.896777937459543,-1.0685460209815e-05,5.260163387068618e-05,-3.917422349967634e-05,5.817325868264125e-05,5.913745417089619e-05
29.4716878365,19.4716878365,8,0,1.233466439618404,18.29069102074236,-5.006920506865365,-1.0685460209815e-05,5.754343811468083e-05,-4.005536405492292e-05,6.298785254880914e-05,6.326182608705753e-05
30.5283121635,18.0283121635,8,0,0.8199863344605518,19.26946705854206,-5.151007097073782,-1.279161737655988e-05,6.100630551976612e-05,-4.120805677659025e-05,6.636913936923204e-05,6.7565987468935e-05
31.9716878365,18.0283121635,8,0,1.196563455041805,20.77577554086707,-5.248982058636649,-1.279161737655988e-05,6.552523096674116e-05,-4.19918564690932e-05,7.079890314488191e-05,7.152741733284447e-05
30.5283121635,19.4716878365,8,0,0.5587197702929414,19.20415041750015,-4.586141416201882,-1.357541706906271e-05,6.100630551976612e-05,-3.668913132961506e-05,6.527421496643223e-05,6.613998561406473e-05
31.9716878365,19.4716878365,8,0,0.9352968908741897,20.71045889982515,-4.684116377764736,-1.357541706906271e-05,6.55252309667411e-05,-3.747293102211789e-05,6.973885637948508e-05,6.987889175830977e-05
33.0283121635,18.0283121635,8,0,0.6327383858419031,21.60884657316915,-4.569405783966754,-1.526231442384123e-05,6.864211832546775e-05,-3.655524627173404e-05,7.245080192276102e-05,7.423981971986106e-05
34.4716878365,18.0283121635,8,0,0.9657858174167098,22.94103629946838,-4.667493744277425,-1.526231442384123e-05,7.263868750436543e-05,-3.73399499542194e-05,7.643977814349089e-05,7.768881098816705e-05
33.0283121635,19.4716878365,8,0,0.3711704916800231,21.54345459962875,-4.069834636604585,-1.604701810632692e-05,6.864211832546797e-05,-3.255867709283668e-05,7.166360923861207e-05,7.245394157396122e-05
34.4716878365,19.4716878365,8,0,0.7042179232547934,22.87564432592783,-4.167922596915276,-1.604701810632692e-05,7.263868750436521e-05,-3.334338077532221e-05,7.566918010863338e-05,7.575020235839593e-05
35.5283121635,18.0283121635,8,0,0.5508182556339447,23.68605754500919,-3.837106406860269,-1.718622761797873e-05,7.535472953952224e-05,-3.069685125488215e-05,7.783393154585556e-05,8.001562118118552e-05
36.9716878365,18.0283121635,8,0,0.8361345603806232,24.8273227639959,-3.944065896635542,-1.718622761797873e-05,7.877852519648238e-05,-3.155252717308433e-05,8.130554334548476e-05,8.292359358004541e-05
35.5283121635,19.4716878365,8,0,0.265592949566579,23.61475121849235,-3.409131949740231,-1.804190353618082e-05,7.535472953952224e-05,-2.727305559792185e-05,7.730502714309526e-05,7.799156266615344e-05
36.9716878365,19.4716878365,8,0,0.5509092543132574,24.75601643747906,-3.516091439515503,-1.804190353618082e-05,7.877852519648238e-05,-2.812873151612403e-05,8.078016696708276e-05,8.081881212084076e-05
38.0283121635,18.0283121635,8,0,0.5587832586408021,25.47539170685277,-3.012684228687954,-1.859220693783164e-05,8.107422685501621e-05,-2.410147382950363e-05,8.251058930575089e-05,8.485239016408709e-05
39.4716878365,18.0283121635,8,0,0.7961314180943173,26.42478434466683,-3.134086485409553,-1.859220693783164e-05,8.392240476845839e-05,-2.507269188327643e-05,8.543318939517898e-05,8.721398803051842e-05
38.0283121635,19.4716878365,8,0,0.2350439073832042,25.3944568690384,-2.656661989507749,-1.956342499160447e-05,8.107422685501632e-05,-2.125329591606199e-05,8.21840883456808e-05,8.271427813920357e-05
39.4716878365,19.4716878365,8,0,0.4723920668366972,26.34384950685238,-2.778064246229314,-1.956342499160447e-05,8.392240476845823e-05,-2.222451396983452e-05,8.510218346671154e-05,8.506553815092386e-05
40.5283121635,18.0283121635,8,0,0.6330544073068403,26.97007413340839,-2.137875240586105,-1.955028520334481e-05,8.579779370106134e-05,-1.710300192468884e-05,8.648743666416037e-05,8.87470537889511e-05
41.97168783650001,18.0283121635,8,0,0.822677735190207,27.72856744494185,-2.274895929501942,-1.955028520334481e-05,8.807327363566175e-05,-1.819916743601554e-05,8.883722167932938e-05,9.057386946608008e-05
40.5283121635,19.4716878365,8,0,0.2676659035312934,26.8787270074645,-1.853440248761109,-2.064645071467146e-05,8.579779370106134e-05,-1.482752199008887e-05,8.631167566545088e-05,8.66146830088951e-05
41.97168783650001,19.4716878365,8,0,0.4572892314146646,27.63722031899798,-1.990460937676916,-2.064645071467146e-05,8.80732736356618e-05,-1.592368750141532e-05,8.865324738684095e-05,8.849576545761622e-05
43.0283121635,18.0283121635,8,0,0.7629485682662018,28.16874137889255,-1.245208980601479,-2.009355768466219e-05,8.952961355784318e-05,-9.961671844811834e-06,8.975545742600109e-05,9.172580350869618e-05
44.4716878365,18.0283121635,8,0,0.9048914621045148,28.7365129542458,-1.399415385412747,-2.009355768466219e-05,9.123292828390294e-05,-1.119532308330198e-05,9.151367902783181e-05,9.304613016309636e-05
43.0283121635,19.4716878365,8,0,0.3517314887694285,28.06593710901835,-1.032294639843976,-2.132720892315251e-05,8.952961355784318e-05,-8.258357118751808e-06,8.968320379463074e-05,8.970756983307881e-05
44.4716878365,19.4716878365,8,0,0.4936743826077574,28.63370868437167,-1.186501044655254,-2.132720892315251e-05,9.123292828390312e-05,-9.492008357242033e-06,9.143268508450776e-05,9.113719850709647e-05
45.52831216350001,18.0283121635,8,0,0.9247495266492365,29.07215774640792,-0.3757481622349327,-2.029852771184878e-05,9.229110516718593e-05,-3.005985297879462e-06,9.231116549093354e-05,9.384786073042314e-05
46.97168783650001,18.0283121635,8,0,1.023722716864775,29.46805050727007,-0.5466970366135289,-2.029852771184878e-05,9.34787834497724e-05,-4.373576292908231e-06,9.352079777710151e-05,9.471790272003389e-05
45.52831216350001,19.4716878365,8,0,0.4688858616396363,28.95819183015548,-0.2272883769116206,-2.166611870687754e-05,9.229110516718582e-05,-1.818307015292965e-06,9.229835795441111e-05,9.203117151549057e-05
46.97168783650001,19.4716878365,8,0,0.5678590518551845,29.35408459101767,-0.3982372512902066,-2.166611870687754e-05,9.34787834497724e-05,-3.185898010321653e-06,9.350081656654344e-05,9.304392252110468e-05
48.0283121635,18.0283121635,8,0,1.086867768304317,29.70298605907886,0.4493772231721141,-2.028441198868927e-05,9.418006117440888e-05,3.595017785376913e-06,9.420828164959048e-05,9.521011353691329e-05
49.47168783650001,18.0283121635,8,0,1.147555109255874,29.94573542288509,0.2669083459402337,-2.028441198868927e-05,9.490830926582757e-05,2.13526676752187e-06,9.491820349468112e-05,9.568481650710927e-05
48.0283121635,19.4716878365,8,0,0.6002840956860194,29.58134014092428,0.5404082345994502,-2.174416300654416e-05,9.418006117440888e-05,4.323265876795602e-06,9.422035502497356e-05,9.364558178415961e-05
49.47168783650001,19.4716878365,8,0,0.6609714366375785,29.82408950473052,0.3579393573675766,-2.174416300654416e-05,9.490830926582759e-05,2.863514858940613e-06,9.492587958029214e-05,9.427659445412591e-05
50.5283121635,18.0283121635,8,0,1.235849277334351,30.0825428403022,1.230177089764653,-2.011131658477184e-05,9.527545766709956e-05,9.841416718117224e-06,9.548492270595789e-05,9.590142543913172e-05
51.97168783650001,18.0283121635,8,0,1.258750943569067,30.17414950524107,1.043143970678095,-2.011131658477184e-05,9.555027766191616e-05,8.34515176542476e-06,9.570061096406804e-05,9.601850907661942e-05
50.5283121635,19.4716878365,8,0,0.7370942931035751,29.95785409424451,1.264529589116721,-2.160758153746416e-05,9.527545766709956e-05,1.011623671293377e-05,9.549393955417944e-05,9.460693693365304e-05
51.97168783650001,19.4716878365,8,0,0.7599959593382914,30.04946075918337,1.07749647003017,-2.160758153746416e-05,9.555027766191616e-05,8.61997176024136e-06,9.57086187796529e-05,9.487843670169143e-05
53.0283121635,18.0283121635,8,0,1.380314667915892,30.21156869447628,1.962716782330328,-1.975224801825017e-05,9.557276808799136e-05,1.570173425864262e-05,9.610476965269001e-05,9.597778042448923e-05
54.4716878365,18.0283121635,8,0,1.362533417241517,30.14044369177878,1.775822708468086,-1.975224801825017e-05,9.535939307989886e-05,1.420658166774468e-05,9.57960653186658e-05,9.574942404005332e-05
53.0283121635,19.4716878365,8,0,0.8819304709499578,30.08697264523479,1.936044906318752,-2.124740060914797e-05,9.557276808799136e-05,1.548835925055001e-05,9.608390463372723e-05,9.49498449586907e-05
54.4716878365,19.4716878365,8,0,0.8641492202755945,30.01584764253734,1.749150832456523,-2.124740060914797e-05,9.5359393079899e-05,1.399320665965219e-05,9.577770041504766e-05,9.487343617686257e-05
55.5283121635,18.0283121635,8,0,1.534782309211234,30.08270555699763,2.609760628947358,-1.915486105612216e-05,9.503683193502342e-05,2.087808503157886e-05,9.598329152468875e-05,9.546482456967695e-05
56.97168783650001,18.0283121635,8,0,1.479125773520204,29.86007941423351,2.422172730202796,-1.915486105612216e-05,9.436895350673107e-05,1.937738184162237e-05,9.518989827332549e-05,9.491564074120438e-05
55.5283121635,19.4716878365,8,0,1.034547912559091,29.9576469578346,2.526275825410834,-2.065556424607858e-05,9.503683193502342e-05,2.021020660328667e-05,9.591282510355393e-05,9.469994015411463e-05
56.97168783650001,19.4716878365,8,0,0.9788913768680612,29.73502081507048,2.338687926666279,-2.065556424607858e-05,9.436895350673107e-05,1.870950341333023e-05,9.512479311105546e-05,9.43023489868641e-05
58.0283121635,18.0283121635,8,0,1.681139103188223,29.72171598312,3.120513714739341,-1.839772765629368e-05,9.37645798634334e-05,2.496410971791473e-05,9.513686377738949e-05,9.441956410901413e-05
59.47168783650001,18.0283121635,8,0,1.599197347186275,29.3939489591122,2.932657025785606,-1.839772765629368e-05,9.278127879141002e-05,2.346125620628485e-05,9.400551074109582e-05,9.361344137383762e-05
58.0283121635,19.4716878365,8,0,1.180187932644909,29.59647819048417,2.997601080736425,-1.990058116792362e-05,9.37645798634334e-05,2.39808086458914e-05,9.501566317760292e-05,9.391501081222863e-05
59.47168783650001,19.4716878365,8,0,1.098246176642961,29.26871116647638,2.809744391782691,-1.990058116792362e-05,9.278127879141002e-05,2.247795513426153e-05,9.389132798293042e-05,9.32543744066191e-05
60.5283121635,18.0283121635,8,0,1.792679194269841,29.19868011311744,3.476723317232124,-1.762237066883046e-05,9.20016330065599e-05,2.781378653785699e-05,9.373834667902348e-05,9.296061390208843e-05
61.9716878365,18.0283121635,8,0,1.697118292254422,28.81643650505576,3.291600885385855,-1.762237066883046e-05,9.085490218237489e-05,2.633280708308684e-05,9.243009794492679e-05,9.19831788157936e-05
60.5283121635,19.4716878365,8,0,1.299019376013162,29.07526515855326,3.333381964208991,-1.910335012360049e-05,9.20016330065599e-05,2.666705571367192e-05,9.357936360276074e-05,9.270247117253879e-05
61.9716878365,19.4716878365,8,0,1.203458473997758,28.69302155049165,3.148259532362728,-1.910335012360049e-05,9.085490218237505e-05,2.518607625890182e-05,9.227869192808837e-05,9.185527990171527e-05
63.0283121635,18.0283121635,8,0,1.850690737665732,28.58695550828524,3.689791936427634,-1.694735404609784e-05,8.999770503638016e-05,2.951833549142107e-05,9.199719049446041e-05,9.123429646485375e-05
64.47168783650001,18.0283121635,8,0,1.751092793426116,28.18856373132677,3.511682404377682,-1.694735404609784e-05,8.880252970550477e-05,2.809345923502146e-05,9.063654588336063e-05,9.016574691940239e-05
63.0283121635,19.4716878365,8,0,1.375731985532529,28.46821582025194,3.54039502006822,-1.837223030249746e-05,8.999770503638016e-05,2.832316016054576e-05,9.181774671171434e-05,9.119369928109372e-05
64.47168783650001,19.4716878365,8,0,1.276134041292924,28.06982404329352,3.362285488018262,-1.837223030249746e-05,8.88025297055049e-05,2.68982839041461e-05,9.046446385960198e-05,9.023341868299936e-05
65.5283121635,18.0283121635,8,0,1.848575439383282,27.94184252034727,3.785238111501831,-1.643803261025131e-05,8.793503571360463e-05,3.028190489201465e-05,9.00870954680298e-05,8.937158768710152e-05
66.97168783650001,18.0283121635,8,0,1.750670245186841,27.55022174356151,3.618267410400421,-1.643803261025131e-05,8.676017338324734e-05,2.894613928320337e-05,8.875152825839715e-05,8.827045386051476e-05
65.5283121635,19.4716878365,8,0,1.403320236446175,27.83052871961299,3.638380320207166,-1.777379821906263e-05,8.793503571360463e-05,2.910704256165733e-05,8.990209605792535e-05,8.950983891170765e-05
66.97168783650001,19.4716878365,8,0,1.305415042249746,27.43890794282728,3.471409619105746,-1.777379821906263e-05,8.676017338324747e-05,2.777127695284597e-05,8.857320940749539e-05,8.849326281121994e-05
68.0283121635,18.0283121635,8,0,1.790200043391366,27.29720466857025,3.790772956070141,-1.610912359600382e-05,8.591889490471168e-05,3.032618364856113e-05,8.812469863285988e-05,8.746501126013457e-05
69.47168783650001,18.0283121635,8,0,1.696570608690178,26.92268692976549,3.637851525196959,-1.610912359600382e-05,8.479534168829742e-05,2.910281220157567e-05,8.685188162833285e-05,8.636563497980873e-05
68.0283121635,19.4716878365,8,0,1.382409561062911,27.19525704798813,3.650328804018376,-1.733249504298919e-05,8.591889490471168e-05,2.920263043214701e-05,8.794402273510336e-05,8.774183039866027e-05
69.47168783650001,19.4716878365,8,0,1.288780126361727,26.82073930918339,3.497407373145197,-1.733249504298919e-05,8.479534168829748e-05,2.797925898516157e-05,8.667699435737595e-05,8.670545496949372e-05
70.5283121635,18.0283121635,8,0,1.684686811291548,26.66931168931054,3.729673283591132,-1.594445155531547e-05,8.399404795676047e-05,2.983738626872906e-05,8.617355970105571e-05,8.556683293654148e-05
71.97168783650001,18.0283121635,8,0,1.595884980456169,26.31410436596902,3.592370917325282,-1.594445155531547e-05,8.292842598673592e-05,2.873896733860225e-05,8.497444577475424e-05,8.448384144937854e-05
70.5283121635,19.4716878365,8,0,1.318547167915942,26.57777677846664,3.596470537338054,-1.704287048544229e-05,8.399404795676047e-05,2.877176429870443e-05,8.600242309000728e-05,8.594636432421155e-05
71.97168783650001,19.4716878365,8,0,1.229745337080561,26.22256945512511,3.459168171072196,-1.704287048544229e-05,8.292842598673589e-05,2.767334536857757e-05,8.480816640776745e-05,8.490886554282885e-05
73.0283121635,18.0283121635,8,0,1.542940641574309,26.06284106890307,3.619139049439349,-1.591286280208467e-05,8.216673890723038e-05,2.895311239551479e-05,8.425885320555042e-05,8.369728158122167e-05
74.47168783650001,18.0283121635,8,0,1.458328489012494,25.72439245865581,3.497927851375641,-1.591286280208467e-05,8.11513930764886e-05,2.798342281100513e-05,8.312803101373232e-05,8.263135154529398e-05
73.0283121635,19.4716878365,8,0,1.21971078007107,25.98203360352726,3.492220820596657,-1.688255238659438e-05,8.216673890723038e-05,2.793776656477326e-05,8.40990677789309e-05,8.415086999605896e-05
74.47168783650001,19.4716878365,8,0,1.135098627509249,25.64358499327998,3.371009622532919,-1.688255238659438e-05,8.115139307648852e-05,2.696807698026335e-05,8.297223018927485e-05,8.311748643166728e-05
75.5283121635,18.0283121635,8,0,1.375829409352263,25.47547644999885,3.470655368104673,-1.597772705007184e-05,8.042086111251451e-05,2.776524294483739e-05,8.238030633835947e-05,8.185419354213766e-05
76.97168783650001,18.0283121635,8,0,1.294120691729455,25.14864157950762,3.365214448243684,-1.597772705007184e-05,7.94403565010408e-05,2.692171558594947e-05,8.130295338777269e-05,8.079688842784331e-05
75.5283121635,19.4716878365,8,0,1.094653623056273,25.40518250342485,3.34809229167049,-1.682125440895981e-05,8.042086111251451e-05,2.678473833336392e-05,8.223156724785412e-05,8.23610213385316e-05
76.97168783650001,19.4716878365,8,0,1.012944905433476,25.07834763293366,3.242651371809511,-1.682125440895981e-05,7.944035650104094e-05,2.594121097447609e-05,8.115743004257023e-05,8.132770383423641e-05
78.0283121635,18.0283121635,8,0,1.193416908760792,24.90092640115208,3.290918902441833,-1.610180701288713e-05,7.872823095667801e-05,2.632735121953466e-05,8.052160943499594e-05,8.002092038433909e-05
79.47168783650001,18.0283121635,8,0,1.112995362329425,24.57924021542661,3.200387541499071,-1.610180701288713e-05,7.776317239950161e-05,2.560310033199257e-05,7.947776150256936e-05,7.895824137863995e-05
78.0283121635,19.4716878365,8,0,0.9519999462467164,24.84057216052356,3.170286582794793,-1.682605790042936e-05,7.872823095667801e-05,2.536229266235834e-05,8.038252391385749e-05,8.05676173426154e-05
79.47168783650001,19.4716878365,8,0,0.8715783998153519,24.5188859747981,3.079755221852018,-1.682605790042936e-05,7.776317239950164e-05,2.463804177481614e-05,7.93412377347289e-05,7.952433993356695e-05
80.5283121635,18.0283121635,8,0,1.004761587893432,24.33074398866699,3.082742693528204,-1.62493581096746e-05,7.70545714934196e-05,2.466194154822563e-05,7.865671180301112e-05,7.817212249612507e-05
81.97168783650001,18.0283121635,8,0,0.9238553278424968,24.00711894846325,3.005897013693477,-1.62493581096746e-05,7.608369637280839e-05,2.404717610954781e-05,7.762371907208548e-05,7.708708477391298e-05
80.5283121635,19.4716878365,8,0,0.7998397750008488,24.27951353544384,2.961383303451818,-1.686412354835236e-05,7.70545714934196e-05,2.369106642761455e-05,7.852555513707091e-05,7.875204904663152e-05
81.97168783650001,19.4716878365,8,0,0.7189335149499234,23.95588849524014,2.884537623617101,-1.686412354835236e-05,7.608369637280849e-05,2.307630098893681e-05,7.749457756617525e-05,7.768538851426025e-05
83.02831216350002,18.0283121635,8,0,0.8179973605432345,23.7553601951488,2.845747421649905,-1.638669660238069e-05,7.536275473604156e-05,2.276597937319924e-05,7.675390374857743e-05,7.627809320242224e-05
84.47168783650002,18.0283121635,8,0,0.7347661888422747,23.42243550834496,2.78110419990948,-1.638669660238069e-05,7.436398067563004e-05,2.224883359927584e-05,7.57077388358617e-05,7.515292484833271e-05
83.02831216350002,19.4716878365,8,0,0.6456154359020969,23.71226471398851,2.720900664098465,-1.69038423763041e-05,7.536275473604156e-05,2.176720531278772e-05,7.662918236531458e-05,7.689066721054618e-05
84.47168783650002,19.4716878365,8,0,0.5623842642011372,23.37934002718467,2.656257442358023,-1.69038423763041e-05,7.436398067563004e-05,2.125005953886418e-05,7.558457948496696e-05,7.578610876322093e-05
85.5283121635,18.0283121635,8,0,0.6405323497387707,23.16463303774855,2.57679625856493,-1.648200291103477e-05,7.361439984100433e-05,2.061437006851944e-05,7.477851836503824e-05,7.430877077762468e-05
86.97168783650002,18.0283121635,8,0,0.5531057777176942,22.81492674966424,2.522655767808491,-1.648200291103477e-05,7.256528097675141e-05,2.018124614246793e-05,7.369440856454956e-05,7.312766732102571e-05
85.5283121635,19.4716878365,8,0,0.4961577077216361,23.12853937724428,2.445656400533335,-1.691512683708619e-05,7.361439984100439e-05,1.956525120426668e-05,7.465944716677711e-05,7.495897775866529e-05
86.97168783650002,19.4716878365,8,0,0.4087311357005561,22.77883308915996,2.391515909776879,-1.691512683708619e-05,7.256528097675142e-05,1.913212727821503e-05,7.357652971540582e-05,7.380377227693301e-05
88.02831216350002,18.0283121635,8,0,0.4792790369054138,22.54811738090284,2.270184085349275,-1.650480098662494e-05,7.177055238936474e-05,1.81614726827942e-05,7.269499145191954e-05,7.223935339416377e-05
89.47168783650001,18.0283121635,8,0,0.3857690356714718,22.17407737596707,2.224622779054512,-1.650480098662494e-05,7.064843237455744e-05,1.77969822324361e-05,7.154770427949751e-05,7.099353806940165e-05
88.02831216350002,19.4716878365,8,0,0.3577822201193674,22.51774317670633,2.12991908349836,-1.686929143698308e-05,7.177055238936474e-05,1.703935266798688e-05,7.258199831748101e-05,7.293738195780113e-05
89.47168783650001,19.4716878365,8,0,0.2642722188854201,22.14370317177054,2.084357777203597,-1.686929143698308e-05,7.064843237455737e-05,1.667486221762878e-05,7.143562251363725e-05,7.172556506837868e-05
90.52831216350002,18.0283121635,8,0,0.340870553003195,21.8951886449704,1.917600461417542,-1.642536514636609e-05,6.979190722150271e-05,1.534080369134034e-05,7.04689944884019e-05,7.006131311320697e-05
91.97168783650001,18.0283121635,8,0,0.2393747012200071,21.48920523783765,1.878420331387265,-1.642536514636609e-05,6.857395700010446e-05,1.502736265109812e-05,6.923303314659995e-05,6.876024249345332e-05
90.52831216350002,19.4716878365,8,0,0.2363902062557912,21.86906855828355,1.765356683742771,-1.67388061866083e-05,6.979190722150271e-05,1.412285346994216e-05,7.036437480495634e-05,7.082195704167642e-05
91.97168783650001,19.4716878365,8,0,0.1348943544726033,21.4630851511508,1.726176553712497,-1.67388061866083e-05,6.857395700010446e-05,1.380941242969997e-05,6.91291694360294e-05,6.956507089191627e-05
93.02831216350002,18.0283121635,8,0,0.2318370857229404,21.19510977562028,1.507877069138344,-1.621420914618281e-05,6.763888161340654e-05,1.206301655310675e-05,6.807050309165842e-05,6.78073666538376e-05
94.47168783650002,18.0283121635,8,0,0.1204434820499127,20.74953536092817,1.472513852470638,-1.621420914618281e-05,6.63021583693302e-05,1.178011081976511e-05,6.672047254170561e-05,6.650513206634559e-05
93.02831216350002,19.4716878365,8,0,0.137535174609094,21.17153429784182,1.340786663628814,-1.649711487952435e-05,6.763888161340654e-05,1.072629330903051e-05,6.797937094316171e-05,6.864815304605002e-05
94.47168783650002,19.4716878365,8,0,0.02614157093607083,20.72595988314973,1.305423446961118,-1.649711487952435e-05,6.630215836933025e-05,1.044338757568894e-05,6.663016244802246e-05,6.739997305443044e-05
95.5283121635,18.0283121635,8,0,0.1587211979778891,20.43710833350359,1.026515097830265,-1.584177883327362e-05,6.527176970882916e-05,8.212120782642116e-06,6.547909325939271e-05,6.561078793283025e-05
96.97168783650002,18.0283121635,8,0,0.03552528730496274,19.94432469081188,0.9919029208917929,-1.584177883327362e-05,6.379341878075404e-05,7.935223367134343e-06,6.399060620618044e-05,6.446962890800332e-05
95.5283121635,19.4716878365,8,0,0.06642205947530044,20.41403354887794,0.8417212318208761,-1.611867624878139e-05,6.527176970882916e-05,6.733769854567009e-06,6.54108103747653e-05,6.654606980066472e-05
96.97168783650002,19.4716878365,8,0,-0.05677385119762146,19.92124990618625,0.8071090548824147,-1.611867624878139e-05,6.37934187807541e-05,6.456872439059317e-06,6.392363491609408e-05,6.546134271814876e-05
98.02831216350002,18.0283121635,8,0,0.1281051773908928,19.61052482175744,0.4549702120036133,-1.527848328975509e-05,6.265119528771107e-05,3.639761696028906e-06,6.269367155770065e-05,6.38486337749508e-05
99.47168783650002,18.0283121635,8,0,-0.008749963329921506,19.06310425887418,0.4173558021332595,-1.527848328975509e-05,6.10089335990613e-05,3.338846417066076e-06,6.104544867077733e-05,6.329320254495313e-05
98.02831216350002,19.4716878365,8,0,0.0278000844033075,19.58544854851054,0.2496875009223997,-1.557939856871785e-05,6.265119528771107e-05,1.997500007379198e-06,6.266394399625507e-05,6.487250398948677e-05
99.47168783650002,19.4716878365,8,0,-0.1090550563175041,19.03802798562729,0.2120730910520544,-1.557939856871785e-05,6.100893359906134e-05,1.696584728416435e-06,6.101832813289623e-05,6.434849374776548e-05
0.5283121635,20.5283121635,8,0,-0.07495382937371964,-3.278253020408199,-0.3314514844755453,2.382750162330656e-06,-1.043044660180726e-05,-2.651611875804363e-06,2.518495719103898e-06,3.194998866210297e-06
1.9716878365,20.5283121635,8,0,0.2017286371330268,-2.171523154381213,-0.3493337719217692,2.382750162330656e-06,-7.110257003726302e-06,-2.794670175374154e-06,2.584159433322915e-06,3.355533133489609e-06
0.5283121635,21.9716878365,8,0,-0.1226399292304159,-3.290174545372373,0.08357221528454721,2.239691862760567e-06,-1.043044660180726e-05,6.685777222763777e-07,2.248505607054276e-06,3.302065136962322e-06
1.9716878365,21.9716878365,8,0,0.1540425372763305,-2.183444679345387,0.06568992783832339,2.239691862760567e-06,-7.110257003726302e-06,5.255194227065871e-07,2.247070322816637e-06,3.515873591928237e-06
3.0283121635,20.5283121635,8,0,0.1189117326509348,-1.494820880308153,-0.5786048284826877,1.576374248729514e-06,-4.878556203106836e-06,-4.628838627861501e-06,2.320441289482068e-06,3.672233396504815e-06
4.4716878365,20.5283121635,8,0,0.3503225973811989,-0.5691774213870966,-0.6075162478554481,1.576374248729514e-06,-2.101625826343668e-06,-4.860129982843585e-06,2.784854646010081e-06,4.376940338590255e-06
3.0283121635,21.9716878365,8,0,0.04181461432361883,-1.514095159890117,-0.2314885313873323,1.345082893747674e-06,-4.87855620310727e-06,-1.851908251098659e-06,1.479925006873062e-06,3.913218272503095e-06
4.4716878365,21.9716878365,8,0,0.2732254790538828,-0.5884517009690612,-0.2603999507600385,1.345082893747674e-06,-2.101625826344102e-06,-2.083199606080308e-06,1.635401893505322e-06,4.784975673031068e-06
5.528312163500001,20.5283121635,8,0,0.4165622672608085,0.04789997876185615,-0.9058008758407621,1.294679272225102e-06,-1.799698817707071e-07,-7.246407006726097e-06,4.254820199951672e-06,5.19900082696668e-06
6.9716878365,20.5283121635,8,0,0.6226565421524308,0.8722770783283453,-0.9535789541854174,1.294679272225102e-06,2.29316141692876e-06,-7.628631633483339e-06,5.640769288604845e-06,6.740204906116001e-06
5.528312163500001,21.9716878365,8,0,0.2891540583415652,0.0160479265319098,-0.5966594635032881,9.124546454674807e-07,-1.799698817711408e-07,-4.773275708026305e-06,2.814586328914561e-06,5.743522735129612e-06
6.9716878365,21.9716878365,8,0,0.4952483332331694,0.8404250260983266,-0.6444375418479704,9.124546454674807e-07,2.293161416928109e-06,-5.155500334783764e-06,4.271400117425697e-06,7.490564609812078e-06
8.028312163500001,20.5283121635,8,0,0.7625414657784455,1.462634893203588,-1.339238608544945,1.270024775928155e-06,4.070398485628724e-06,-1.071390886835956e-05,8.20713171674446e-06,8.140085547933316e-06
9.471687836500001,20.5283121635,8,0,0.9610723549693805,2.256758449967327,-1.410655326132703,1.270024775928155e-06,6.452769155919943e-06,-1.128524260906162e-05,1.007061471161707e-05,1.042342650692363e-05
8.028312163500001,21.9716878365,8,0,0.5720968855444442,1.415023748145087,-1.041442274758502,6.986910352261514e-07,4.070398485628724e-06,-8.33153819806802e-06,6.878511267783905e-06,9.015203969611591e-06
9.471687836500001,21.9716878365,8,0,0.770627774735352,2.209147304908719,-1.112858992346273,6.986910352261514e-07,6.452769155919618e-06,-8.902871938770186e-06,8.875978763729523e-06,1.143355428929777e-05
10.5283121635,20.5283121635,8,0,1.1063982263519,2.849797122188483,-1.883938682692321,1.260636626575294e-06,8.234232209921623e-06,-1.507150946153857e-05,1.305076858003723e-05,1.229255536463411e-05
11.9716878365,20.5283121635,8,0,1.313454635123215,3.678022757273742,-1.981490270811138,1.260636626575294e-06,1.07189091151774e-05,-1.585192216648911e-05,1.521937680117959e-05,1.511576941101913e-05
10.5283121635,21.9716878365,8,0,0.8462606580350354,2.784762730109266,-1.573354069535403,4.802239216247003e-07,8.234232209921623e-06,-1.258683255628322e-05,1.174899710868313e-05,1.337352426383264e-05
11.9716878365,21.9716878365,8,0,1.053317066806323,3.612988365194417,-1.67090565765418,4.802239216247003e-07,1.071890911517707e-05,-1.336724526123344e-05,1.401850232357597e-05,1.625527047995915e-05
13.0283121635,20.5283121635,8,0,1.398252053814391,4.299090939082753,-2.525612477019751,1.03513382093985e-06,1.26384893620133e-05,-2.020489981615801e-05,1.848665962045899e-05,1.734777790629259e-05
14.4716878365,20.5283121635,8,0,1.62822820869198,5.218995558593108,-2.648878227711751,1.03513382093985e-06,1.539820322054436e-05,-2.119102582169401e-05,2.101664252416842e-05,2.062252447217928e-05
13.0283121635,21.9716878365,8,0,1.069543385302601,4.216913771954806,-2.18064824470345,4.900781540447766e-08,1.26384893620133e-05,-1.74451859576276e-05,1.710048553246431e-05,1.850217337370547e-05
14.4716878365,21.9716878365,8,0,1.299519540180189,5.136818391465161,-2.303913995395368,4.900781540447766e-08,1.539820322054436e-05,-1.843131196316294e-05,1.97164269152583e-05,2.175908002322841e-05
15.5283121635,20.5283121635,8,0,1.589444502184609,5.887845088700715,-3.227733236343334,3.759463360301777e-07,1.75695486820946e-05,-2.582186589074667e-05,2.448394281853401e-05,2.316664981626054e-05
16.9716878365,20.5283121635,8,0,1.853820524139692,6.945349176521047,-3.372111741762823,3.759463360301777e-07,2.074206094555559e-05,-2.697689393410258e-05,2.745967988924627e-05,2.684258295152302e-05
15.5283121635,21.9716878365,8,0,1.204435154399278,5.791592751754382,-2.831169203410655,-7.790817073258152e-07,1.75695486820946e-05,-2.264935362728524e-05,2.296974425877378e-05,2.426238806522428e-05
16.9716878365,21.9716878365,8,0,1.468811176354379,6.849096839574787,-2.975547708830172,-7.790817073258152e-07,2.074206094555581e-05,-2.380438167064137e-05,2.602680176789577e-05,2.784464617372057e-05
18.0283121635,20.5283121635,8,0,1.640514213684888,7.673376099589223,-3.928899802858071,-8.890553958797349e-07,2.32423921477376e-05,-3.143119842286457e-05,3.098983946770422e-05,2.965481083705265e-05
19.4716878365,20.5283121635,8,0,1.945390848429875,8.892882638569167,-4.084978044866643,-8.890553958797349e-07,2.690091176467743e-05,-3.267982435893314e-05,3.445501438239086e-05,3.366202716784576e-05
18.0283121635,21.9716878365,8,0,1.224305568328715,7.56932393825018,-3.471584850740572,-2.137681331948254e-06,2.32423921477376e-05,-2.777267880592457e-05,2.936372044270345e-05,3.056287835904537e-05
19.4716878365,21.9716878365,8,0,1.529182203073715,8.788830477230178,-3.627663092749109,-2.137681331948254e-06,2.69009117646776e-05,-2.902130474199288e-05,3.290888986473814e-05,3.440696868794112e-05
20.5283121635,20.5283121635,8,0,1.535239125364078,9.680238663460646,-4.547249067151109,-2.831425729603467e-06,2.97485724227828e-05,-3.637799253720887e-05,3.787585524203575e-05,3.667518794535771e-05
21.9716878365,20.5283121635,8,0,1.878691957368179,11.05404999147705,-4.702322773133196,-2.831425729603467e-06,3.387000640683201e-05,-3.761858218506557e-05,4.179738409786511e-05,4.0900079950451e-05
20.5283121635,21.9716878365,8,0,1.121709242745096,9.5768561928059,-4.032069819144909,-4.072015377460411e-06,2.97485724227828e-05,-3.225655855315927e-05,3.620662104436859e-05,3.728152822713021e-05
21.9716878365,21.9716878365,8,0,1.465162074749234,10.95066752082245,-4.187143525127038,-4.072015377460411e-06,3.387000640683245e-05,-3.34971482010163e-05,4.02053976428067e-05,4.129088060901473e-05
23.0283121635,20.5283121635,8,0,1.29176665965775,11.88801606106945,-4.996205966921474,-5.376759537950761e-06,3.700823806769603e-05,-3.996964773537179e-05,4.494502333657785e-05,4.401671798067943e-05
24.4716878365,20.5283121635,8,0,1.662797856300824,13.37214084764175,-5.137943635339398,-5.376759537950761e-06,4.146061242741293e-05,-4.110354908271518e-05,4.919975515525347e-05,4.830663942333363e-05
23.0283121635,21.9716878365,8,0,0.9137995438766278,11.79352428212417,-4.439659171956889,-6.510660885294126e-06,3.700823806769603e-05,-3.551727337565511e-05,4.333513435796806e-05,4.424047679861683e-05
24.4716878365,21.9716878365,8,0,1.284830740519702,13.27764906869647,-4.581396840374854,-6.510660885294126e-06,4.146061242741293e-05,-3.665117472299883e-05,4.76600369430126e-05,4.828957106887944e-05
25.5283121635,20.5283121635,8,0,0.963160687515153,14.22927288042678,-5.208917239648935,-8.301304104292936e-06,4.476314466735358e-05,-4.167133791719148e-05,5.196642134216175e-05,5.141012868032288e-05
26.9716878365,20.5283121635,8,0,1.344019980333425,15.75271005169987,-5.330265516412443,-8.301304104292936e-06,4.933345618117284e-05,-4.264212413129955e-05,5.636337839019392e-05,5.559909756886798e-05
25.5283121635,21.9716878365,8,0,0.63956528281249,14.14837402925112,-4.637628300421473,-9.272090318400926e-06,4.476314466735358e-05,-3.710102640337178e-05,5.051858310518486e-05,5.121896360127409e-05
26.9716878365,21.9716878365,8,0,1.020424575630761,15.67181120052421,-4.758976577185002,-9.272090318400926e-06,4.933345618117284e-05,-3.807181261748002e-05,5.497375447816835e-05,5.517311856516679e-05
28.0283121635,20.5283121635,8,0,0.6180996057867265,16.6040402751055,-5.159700282294509,-1.130531348156688e-05,5.263844919570822e-05,-4.127760225835608e-05,5.872128252400361e-05,5.85758537355249e-05
29.4716878365,20.5283121635,8,0,0.9896910491979858,18.09040604875054,-5.261241541855699,-1.130531348156688e-05,5.709754651664334e-05,-4.208993233484559e-05,6.305366144961366e-05,6.251953393637622e-05
28.0283121635,21.9716878365,8,0,0.3473229136235814,16.53634610206472,-4.602313117177648,-1.211764355805631e-05,5.263844919570822e-05,-3.681850493742118e-05,5.750605308352487e-05,5.798949990112972e-05
29.4716878365,21.9716878365,8,0,0.7189143570348682,18.02271187570987,-4.703854376738817,-1.211764355805631e-05,5.709754651664367e-05,-3.763083501391053e-05,6.188164565751163e-05,6.172984184090355e-05
30.5283121635,20.5283121635,8,0,0.314380575779551,18.90799291944126,-4.866529408072249,-1.412037649305844e-05,6.025407288158839e-05,-3.893223526457799e-05,6.504088082897364e-05,6.528042903942051e-05
31.9716878365,20.5283121635,8,0,0.6614383327704934,20.29622394740503,-4.954661550819801,-1.412037649305844e-05,6.441876596547969e-05,-3.963729240655841e-05,6.913644245485506e-05,6.887965453477501e-05
30.5283121635,21.9716878365,8,0,0.07936152845280553,18.84923815760957,-4.345942772585775,-1.482543363503868e-05,6.025407288158839e-05,-3.47675421806862e-05,6.408373552459632e-05,6.435807866028308e-05
31.9716878365,21.9716878365,8,0,0.4264192854437656,20.23746918557341,-4.434074915333287,-1.482543363503868e-05,6.441876596547991e-05,-3.54725993226663e-05,6.820734593711907e-05,6.779821324568266e-05
33.0283121635,20.5283121635,8,0,0.08409866725248616,21.05770790715295,-4.373893552338871,-1.65770505905144e-05,6.731738636908745e-05,-3.499114841871097e-05,7.081974715144489e-05,7.136807982313424e-05
34.4716878365,20.5283121635,8,0,0.396972428165598,22.3092029508054,-4.456815051593606,-1.65770505905144e-05,7.107187150004479e-05,-3.565452041274885e-05,7.455908546606668e-05,7.456735864670541e-05
33.0283121635,21.9716878365,8,0,-0.1370253307602285,21.00242690764984,-3.90458291096919,-1.72404225845526e-05,6.731738636908766e-05,-3.123666328775352e-05,7.010995898253165e-05,7.018732849565292e-05
34.4716878365,21.9716878365,8,0,0.1758484301528567,22.25392195130218,-3.987504410223958,-1.72404225845526e-05,7.107187150004468e-05,-3.190003528179166e-05,7.386429615450788e-05,7.327437815858725e-05
35.5283121635,20.5283121635,8,0,-0.06375722937948591,22.99872131772775,-3.732195523956676,-1.860300018819656e-05,7.36469140002324e-05,-2.985756419165341e-05,7.600267680380618e-05,7.67534001099857e-05
36.9716878365,20.5283121635,8,0,0.2096312549124617,24.09227525489554,-3.816854104347508,-1.860300018819656e-05,7.692757581173577e-05,-3.053483283478007e-05,7.930824220274418e-05,7.952649763180242e-05
35.5283121635,21.9716878365,8,0,-0.2895134437550659,22.94228226413386,-3.322112797518769,-1.92802688313233e-05,7.36469140002324e-05,-2.657690238015015e-05,7.550979837447417e-05,7.539473561339437e-05
36.9716878365,21.9716878365,8,0,-0.01612495946311832,24.03583620130165,-3.406771377909587,-1.92802688313233e-05,7.692757581173577e-05,-2.72541710232767e-05,7.882050141342286e-05,7.810061024744679e-05
38.0283121635,20.5283121635,8,0,-0.1332444448523429,24.6994093107962,-2.987596458310806,-2.018590967216446e-05,7.914470535042972e-05,-2.390077166648645e-05,8.056221776672749e-05,8.139732497461262e-05
39.4716878365,20.5283121635,8,0,0.09814294976672677,25.62495888927248,-3.078776673376125,-2.018590967216446e-05,8.192135408585855e-05,-2.4630213387009e-05,8.338567324180288e-05,8.373542280575971e-05
38.0283121635,21.9716878365,8,0,-0.3763916850265643,24.63862250075278,-2.640515366382235,-2.091535139268723e-05,7.914470535043015e-05,-2.112412293105788e-05,8.024745395470741e-05,7.993745404249206e-05
39.4716878365,21.9716878365,8,0,-0.1450042904075133,25.56417207922899,-2.731695581447569,-2.091535139268723e-05,8.192135408585877e-05,-2.185356465158055e-05,8.306954555880791e-05,8.224992998228434e-05
40.5283121635,20.5283121635,8,0,-0.1336640267956062,26.14333765287739,-2.179529113256939,-2.134239500804785e-05,8.376561171064413e-05,-1.743623290605551e-05,8.448382271847742e-05,8.528862881871762e-05
41.97168783650001,20.5283121635,8,0,0.05483237303318944,26.89732325219257,-2.280177820443962,-2.134239500804785e-05,8.602756850858967e-05,-1.82414225635517e-05,8.679683030094868e-05,8.719396872977342e-05
40.5283121635,21.9716878365,8,0,-0.4020605792943899,26.0762385147527,-1.89678451351376,-2.21475846655442e-05,8.376561171064413e-05,-1.517427610811008e-05,8.430635883525261e-05,8.379815217746518e-05
41.97168783650001,21.9716878365,8,0,-0.2135641794655943,26.83022411406788,-1.997433220700769,-2.21475846655442e-05,8.602756850858967e-05,-1.597946576560615e-05,8.661449944194194e-05,8.571549793649263e-05
43.0283121635,20.5283121635,8,0,-0.07708699236691618,27.3235414201949,-1.342581937728266,-2.210551151173005e-05,8.749700213851719e-05,-1.074065550182613e-05,8.77595098937906e-05,8.843514743489691e-05
44.4716878365,20.5283121635,8,0,0.06896388576117829,27.90774493270727,-1.454170809885306,-2.210551151173005e-05,8.924961267605433e-05,-1.163336647908245e-05,8.955262511144309e-05,8.992077080765523e-05
43.0283121635,21.9716878365,8,0,-0.3746573181190227,27.24914883875687,-1.123505620536077,-2.299822248898637e-05,8.749700213851719e-05,-8.988044964288616e-06,8.767948006860893e-05,8.697705846984494e-05
44.4716878365,21.9716878365,8,0,-0.2286064399909149,27.8333523512693,-1.2350944926931,-2.299822248898637e-05,8.924961267605449e-05,-9.880755941544801e-06,8.946663455413978e-05,8.850636018490623e-05
45.52831216350001,20.5283121635,8,0,0.02122907507647653,28.24119423645325,-0.5073925332864474,-2.252502234891787e-05,9.035483829658922e-05,-4.059140266291579e-06,9.039131800282594e-05,9.086322916842943e-05
46.97168783650001,20.5283121635,8,0,0.1268059093863334,28.66350157369268,-0.6297647075278001,-2.252502234891787e-05,9.162176030830751e-05,-5.038117660222401e-06,9.167732534280829e-05,9.195244992143387e-05
45.52831216350001,21.9716878365,8,0,-0.3050967229004549,28.15961278695905,-0.3490272818216649,-2.35039997428487e-05,9.035483829658933e-05,-2.792218254573319e-06,9.037195447101568e-05,8.94890405507441e-05
46.97168783650001,21.9716878365,8,0,-0.1995198885906069,28.58192012419845,-0.4713994560630108,-2.35039997428487e-05,9.162176030830751e-05,-3.771195648504086e-06,9.165263546498785e-05,9.064447152286637e-05
48.0283121635,20.5283121635,8,0,0.1445983060089935,28.90535255168565,0.3035713677854892,-2.266156746211974e-05,9.238144952058687e-05,2.428570942283913e-06,9.239426494397386e-05,9.261372028235785e-05
49.47168783650001,20.5283121635,8,0,0.2119805988656029,29.17488172311209,0.1727407970387642,-2.266156746211974e-05,9.319003703486619e-05,1.381926376310113e-06,9.319415793718448e-05,9.333112375301396e-05
48.0283121635,21.9716878365,8,0,-0.2042832159822918,28.81813217118783,0.4046448070704138,-2.370821202809359e-05,9.238144952058687e-05,3.23715845656331e-06,9.24040121640678e-05,9.135915398569495e-05
49.47168783650001,21.9716878365,8,0,-0.1369009231256735,29.0876613426143,0.2738142363236583,-2.370821202809359e-05,9.31900370348663e-05,2.190513890589266e-06,9.320029794552615e-05,9.215627181338185e-05
50.5283121635,20.5283121635,8,0,0.2837032012058804,29.32691497042442,1.075791552830056,-2.255368173248071e-05,9.361916534439342e-05,8.606332422640445e-06,9.377834111550887e-05,9.372582871065507e-05
51.97168783650001,20.5283121635,8,0,0.3140209370696914,29.44818591387966,0.9397254466733606,-2.255368173248071e-05,9.398297817475915e-05,7.517803573386884e-06,9.410409605399621e-05,9.408677923831959e-05
50.5283121635,21.9716878365,8,0,-0.07913974854534267,29.23620423298661,1.121268156625762,-2.364221058173438e-05,9.361916534439342e-05,8.970145253006092e-06,9.379046244550209e-05,9.261308478383421e-05
51.97168783650001,21.9716878365,8,0,-0.04882201268153175,29.35747517644186,0.9852020504690528,-2.364221058173438e-05,9.398297817475915e-05,7.881616403752423e-06,9.411485959182468e-05,9.306400320103265e-05
53.0283121635,20.5283121635,8,0,0.4396213082121099,29.51338578364493,1.792072337834089,-2.220392044063719e-05,9.409113746109408e-05,1.433657870267272e-05,9.45313162253818e-05,9.422492957818633e-05
54.4716878365,20.5283121635,8,0,0.4339282944808387,29.49061372871985,1.652308814422971,-2.220392044063719e-05,9.402282129631882e-05,1.321847051538377e-05,9.439744803751101e-05,9.42414127981367e-05
53.0283121635,21.9716878365,8,0,0.06691857911575827,29.42021010137085,1.783532817237169,-2.332202862792625e-05,9.409113746109408e-05,1.426826253789735e-05,9.452302515877135e-05,9.327235939317456e-05
54.4716878365,21.9716878365,8,0,0.06122556538450041,29.39743804644581,1.643769293826054,-2.332202862792625e-05,9.402282129631899e-05,1.315015435060843e-05,9.439008714298293e-05,9.339068067900361e-05
55.5283121635,20.5283121635,8,0,0.6108588662809655,29.4751806797495,2.424369779637678,-2.16253961717005e-05,9.38318910821736e-05,1.939495823710143e-05,9.464073455761076e-05,9.413743727258898e-05
56.97168783650001,20.5283121635,8,0,0.5730826261983104,29.32407571941888,2.280753916417978,-2.16253961717005e-05,9.337857620118174e-05,1.824603133134382e-05,9.409778744507317e-05,9.383688763408649e-05
55.5283121635,21.9716878365,8,0,0.2278832310283772,29.37943677093635,2.367705419513709,-2.277432307745827e-05,9.38318910821736e-05,1.894164335610967e-05,9.459610795069645e-05,9.336553523635399e-05
56.97168783650001,21.9716878365,8,0,0.1901069909457265,29.22833181060575,2.224089556294019,-2.277432307745827e-05,9.337857620118179e-05,1.779271645035215e-05,9.405601317695415e-05,9.317851532362449e-05
58.0283121635,20.5283121635,8,0,0.784210618640012,29.23968492571567,2.942751480566163,-2.08822739609245e-05,9.293962326737814e-05,2.35420118445293e-05,9.414418594397055e-05,9.352047154060374e-05
59.47168783650001,20.5283121635,8,0,0.7220500489448014,28.99104264693483,2.795353846017804,-2.08822739609245e-05,9.219369643103561e-05,2.236283076814243e-05,9.328875574957e-05,9.295655633534216e-05
58.0283121635,21.9716878365,8,0,0.3911502598443564,29.14141983601676,2.84951062602333,-2.206145503731146e-05,9.293962326737814e-05,2.279608500818664e-05,9.405842713195443e-05,9.294712350168294e-05
59.47168783650001,21.9716878365,8,0,0.3289896901491458,28.89277755723592,2.702112991474957,-2.206145503731146e-05,9.219369643103561e-05,2.161690393179966e-05,9.320717798999097e-05,9.250196920038534e-05
60.5283121635,20.5283121635,8,0,0.9377283243685337,28.85333684804103,3.331125361924528,-2.008193884045351e-05,9.158049525423645e-05,2.664900289539623e-05,9.31484692797407e-05,9.247285700564212e-05
61.9716878365,20.5283121635,8,0,0.8602808298681088,28.54354687003933,3.182053531987055,-2.008193884045351e-05,9.065112532023135e-05,2.545642825589644e-05,9.209533438529634e-05,9.171528106651998e-05
60.5283121635,21.9716878365,8,0,0.5402034445352983,28.75395562808272,3.2149541201739,-2.127451347995322e-05,9.158049525423645e-05,2.57196329613912e-05,9.302732137152542e-05,9.210368216506578e-05
61.9716878365,21.9716878365,8,0,0.4627559500349001,28.44416565008112,3.065882290236461,-2.127451347995322e-05,9.065112532023167e-05,2.452705832189169e-05,9.197906697887131e-05,9.146069604982804e-05
63.0283121635,20.5283121635,8,0,1.053192627428553,28.36888062778399,3.592356543247653,-1.932488809445582e-05,8.993786390696593e-05,2.873885234598122e-05,9.179602368299938e-05,9.111476675507379e-05
64.47168783650001,20.5283121635,8,0,0.968251253578722,28.02911513238467,3.445127389051688,-1.932488809445582e-05,8.891856742076796e-05,2.75610191124135e-05,9.06454194042539e-05,9.023170708458297e-05
63.0283121635,21.9716878365,8,0,0.6605815495726954,28.27072785832003,3.464944482472923,-2.05027213280234e-05,8.993786390696593e-05,2.771955585978338e-05,9.165063866711787e-05,9.09397162673685e-05
64.47168783650001,21.9716878365,8,0,0.5756401757228646,27.93096236292071,3.317715328276968,-2.05027213280234e-05,8.891856742076796e-05,2.654172262621574e-05,9.050508432341482e-05,9.015935914715004e-05
65.5283121635,20.5283121635,8,0,1.121116063477523,27.8313288436435,3.741595068769973,-1.867749167178672e-05,8.816335944887717e-05,2.993276055015978e-05,9.022026624677301e-05,8.955934652283338e-05
66.97168783650001,20.5283121635,8,0,1.034118558196154,27.48333882251802,3.599948716444537,-1.867749167178672e-05,8.711938938550074e-05,2.879958973155629e-05,8.904429336026128e-05,8.860548297754066e-05
65.5283121635,21.9716878365,8,0,0.7433924572763742,27.73689794209321,3.611098810847935,-1.981066249039017e-05,8.816335944887717e-05,2.888879048678348e-05,9.006228505887564e-05,8.955635260718981e-05
66.97168783650001,21.9716878365,8,0,0.6563949519950043,27.38890792096774,3.469452458522529,-1.981066249039017e-05,8.711938938550074e-05,2.775561966818023e-05,8.889115014207932e-05,8.868926522287058e-05
68.0283121635,20.5283121635,8,0,1.140171936298032,27.27252415652149,3.79840799422149,-1.816946912906349e-05,8.635993975183033e-05,3.038726395377192e-05,8.852358989698818e-05,8.78948652792406e-05
69.47168783650001,20.5283121635,8,0,1.054264859490584,26.9288958492917,3.665497459110806,-1.816946912906349e-05,8.532905483014095e-05,2.932397967288645e-05,8.736603701572904e-05,8.690728516793736e-05
68.0283121635,21.9716878365,8,0,0.7857438426695786,27.18391713311437,3.669547379010332,-1.923275340994884e-05,8.635993975183033e-05,2.935637903208265e-05,8.836234735165398e-05,8.803614520980831e-05
69.47168783650001,21.9716878365,8,0,0.6998367658621403,26.84028882588462,3.536636843899652,-1.923275340994884e-05,8.532905483014106e-05,2.829309475119721e-05,8.72091859500118e-05,8.711887553492553e-05
70.5283121635,20.5283121635,8,0,1.114738067463391,26.71156338289866,3.781497875534396,-1.780208889043607e-05,8.458521237130498e-05,3.025198300427517e-05,8.677307055985964e-05,8.617960195727747e-05
71.97168783650001,20.5283121635,8,0,1.031293861733023,26.37778655997718,3.659522334728702,-1.780208889043607e-05,8.358388190254055e-05,2.927617867782962e-05,8.565501715543508e-05,8.517911456515854e-05
70.5283121635,21.9716878365,8,0,0.7894699586481506,26.63024635569485,3.656331566938842,-1.877789321688179e-05,8.458521237130498e-05,2.925065253551074e-05,8.661476706576518e-05,8.643728763340765e-05
71.97168783650001,21.9716878365,8,0,0.7060257529177818,26.29646953277337,3.534356026133146,-1.877789321688179e-05,8.358388190254055e-05,2.827484820906517e-05,8.550054618574598e-05,8.549242453144017e-05
73.0283121635,20.5283121635,8,0,1.052204609358751,26.15755833475724,3.706108831203914,-1.755899191785778e-05,8.286242298373615e-05,2.964887064963131e-05,8.500512063145364e-05,8.444490708195473e-05
74.47168783650001,20.5283121635,8,0,0.971393613269897,25.83431435040182,3.596311633300329,-1.755899191785778e-05,8.189269103066991e-05,2.877049306640263e-05,8.393165061025537e-05,8.343950232657827e-05
73.0283121635,21.9716878365,8,0,0.7594120816158751,26.08436020282152,3.58489233707062,-1.843736950108641e-05,8.286242298373615e-05,2.867913869656496e-05,8.485315020325995e-05,8.479464292512837e-05
74.47168783650001,21.9716878365,8,0,0.6786010855270286,25.76111621846613,3.475095139167042,-1.843736950108641e-05,8.189269103066999e-05,2.780076111333634e-05,8.378292794494057e-05,8.383313122598396e-05
75.5283121635,20.5283121635,8,0,0.9611252576548681,25.61271896133146,3.583314643805001,-1.741457434456959e-05,8.119180047013678e-05,2.866651715044001e-05,8.323300506335857e-05,8.270125393319669e-05
76.97168783650001,20.5283121635,8,0,0.8823638685767925,25.29767340501916,3.486133037503716,-1.741457434456959e-05,8.024666380119987e-05,2.788906430002973e-05,8.219871240070089e-05,8.168972656916281e-05
75.5283121635,21.9716878365,8,0,0.7019743075180882,25.54793122379727,3.465172560187881,-1.819202719497993e-05,8.119180047013678e-05,2.772138048150305e-05,8.308869389547565e-05,8.312395887185827e-05
76.97168783650001,21.9716878365,8,0,0.6232129184400126,25.23288566748496,3.367990953886586,-1.819202719497993e-05,8.024666380119987e-05,2.694392763109268e-05,8.205709177221066e-05,8.214797566812573e-05
78.0283121635,20.5283121635,8,0,0.8501582024737653,25.0748082852937,3.420171845437841,-1.733934038031891e-05,7.955925995096081e-05,2.736137476350273e-05,8.145373689607698e-05,8.09443174294813e-05
79.47168783650001,20.5283121635,8,0,0.7724177378642549,24.76384642685566,3.335413979661557,-1.733934038031891e-05,7.862637437564668e-05,2.668331183729245e-05,8.044667337160656e-05,7.991934915139256e-05
78.0283121635,21.9716878365,8,0,0.6241372270703049,25.01830304144283,3.303561148523555,-1.801740330652929e-05,7.955925995096081e-05,2.642848918818844e-05,8.131712069423279e-05,8.142678424778203e-05
79.47168783650001,21.9716878365,8,0,0.5463967624607902,24.70734118300477,3.218803282747267,-1.801740330652929e-05,7.862637437564663e-05,2.575042626197814e-05,8.031224547578034e-05,8.043243584906904e-05
80.5283121635,20.5283121635,8,0,0.727554521759167,24.53886826683188,3.220154560901322,-1.730292014383617e-05,7.794233483645469e-05,2.576123648721058e-05,7.965351903162962e-05,7.916010970811699e-05
81.97168783650001,20.5283121635,8,0,0.6495590884071989,24.22688653342401,3.147148416598414,-1.730292014383617e-05,7.700638963623106e-05,2.517718733278731e-05,7.865782215643488e-05,7.811079725197838e-05
80.5283121635,21.9716878365,8,0,0.5328714702847801,24.49019750396329,3.103161410873397,-1.788696929825933e-05,7.794233483645469e-05,2.482529128698717e-05,7.952402257929798e-05,7.969502561740636e-05
81.97168783650001,21.9716878365,8,0,0.4548760369328315,24.17821577055549,3.030155266570505,-1.788696929825933e-05,7.700638963623131e-05,2.424124213256404e-05,7.853007720355004e-05,7.867473179711017e-05
83.02831216350002,20.5283121635,8,0,0.6009733457886535,23.99835377112116,2.98358713974827,-1.727556831037323e-05,7.631395339095678e-05,2.386869711798616e-05,7.781182467603761e-05,7.732928960174258e-05
84.47168783650002,20.5283121635,8,0,0.5213211955429156,23.67974517013821,2.921283594187333,-1.727556831037323e-05,7.535812758800793e-05,2.337026875349866e-05,7.680939420649866e-05,7.62434834508424e-05
83.02831216350002,21.9716878365,8,0,0.4348305576261273,23.95681807408053,2.86410891437965,-1.777399667486081e-05,7.631395339095678e-05,2.29128713150372e-05,7.768883320687531e-05,7.791505425175546e-05
84.47168783650002,21.9716878365,8,0,0.3551784073803894,23.63820947309758,2.801805368818702,-1.777399667486081e-05,7.535812758800793e-05,2.241444295054962e-05,7.668778505263419e-05,7.68598704206851e-05
85.5283121635,20.5283121635,8,0,0.4774713309306877,23.44585239459641,2.707955243772618,-1.722877365669892e-05,7.464475059796395e-05,2.166364195018095e-05,7.590453983171653e-05,7.543141724954734e-05
86.97168783650002,20.5283121635,8,0,0.3947082993569753,23.11480026830156,2.654983353672686,-1.722877365669892e-05,7.365159421907939e-05,2.123986682938149e-05,7.487610038025406e-05,7.429861727930565e-05
85.5283121635,21.9716878365,8,0,0.3362129573309058,23.4105378011965,2.583810696412046,-1.76525487774983e-05,7.464475059796406e-05,2.067048557129636e-05,7.578790898984878e-05,7.607193896115332e-05
86.97168783650002,21.9716878365,8,0,0.2534499257571863,23.07948567490162,2.530838806312106,-1.76525487774983e-05,7.365159421907942e-05,2.024671045049685e-05,7.476055300351041e-05,7.497445401180943e-05
88.02831216350002,20.5283121635,8,0,0.3635677625431173,22.87354155604687,2.388052485497595,-1.713541640469952e-05,7.290447876931547e-05,1.910441988398076e-05,7.390670405053272e-05,7.34507234569933e-05
89.47168783650001,20.5283121635,8,0,0.2762343467867039,22.52420789302121,2.342730425168011,-1.713541640469952e-05,7.185647778023852e-05,1.874184340134409e-05,7.283253835376033e-05,7.226703442515537e-05
88.02831216350002,21.9716878365,8,0,0.2427089349974922,22.84332684916046,2.257052361862963,-1.749799288733639e-05,7.290447876931547e-05,1.80564188949037e-05,7.379728036704926e-05,7.415516995084212e-05
89.47168783650001,21.9716878365,8,0,0.1553755192410859,22.49399318613484,2.211730301533382,-1.749799288733639e-05,7.18564777802386e-05,1.769384241226705e-05,7.272398277832878e-05,7.301432921969679e-05
90.52831216350002,20.5283121635,8,0,0.2653225697555408,22.27349975072721,2.015950704614012,-1.696976757736403e-05,7.106294114652263e-05,1.61276056369121e-05,7.179549031540458e-05,7.138666002288813e-05
91.97168783650001,20.5283121635,8,0,0.171990785422695,21.90017261339583,1.976256052874517,-1.696976757736403e-05,6.994295973452848e-05,1.581004842299614e-05,7.065609856595712e-05,7.016512145794662e-05
90.52831216350002,21.9716878365,8,0,0.1594701651168871,22.24703664956755,1.87595302811475,-1.728732479128e-05,7.106294114652263e-05,1.5007624224918e-05,7.169572677511029e-05,7.216881333034031e-05
91.97168783650001,21.9716878365,8,0,0.06613838078404122,21.87370951223616,1.836258376375254,-1.728732479128e-05,6.994295973452848e-05,1.469006701100204e-05,7.055710812623805e-05,7.099966169305876e-05
93.02831216350002,20.5283121635,8,0,0.188383773506593,21.637961736508,1.580789721408949,-1.67075413139853e-05,6.909077053802033e-05,1.264631777127159e-05,6.955427040541303e-05,6.927659377406649e-05
94.47168783650002,20.5283121635,8,0,0.08769687595439279,21.2352141462992,1.544290974298222,-1.67075413139853e-05,6.788252776739393e-05,1.235432779438578e-05,6.833123312637746e-05,6.807062956261274e-05
93.02831216350002,21.9716878365,8,0,0.09105378121135566,21.61362923843419,1.429759375080649,-1.699953129087102e-05,6.909077053802033e-05,1.143807500064519e-05,6.946902813992098e-05,7.015273938041363e-05
94.47168783650002,21.9716878365,8,0,-0.009633116340847181,21.21088164822538,1.393260627969935,-1.699953129087102e-05,6.78825277673939e-05,1.114608502375948e-05,6.824686928363274e-05,6.900805622938653e-05
95.5283121635,20.5283121635,8,0,0.1379671717292403,20.95959232921816,1.068379379419936,-1.632617891384096e-05,6.696032171611471e-05,8.547035035359486e-06,6.717902607085836e-05,6.724803288481894e-05
96.97168783650002,20.5283121635,8,0,0.02869458701065764,20.52250199034383,1.032128078399337,-1.632617891384096e-05,6.564905069949172e-05,8.257024627194692e-06,6.585644992927376e-05,6.62066211783071e-05
95.5283121635,21.9716878365,8,0,0.04129703567428233,20.93542479520442,0.9044705023420534,-1.661618932200583e-05,6.696032171611471e-05,7.235764018736427e-06,6.711664116879521e-05,6.823054982801308e-05
96.97168783650002,21.9716878365,8,0,-0.06797554904430125,20.49833445633008,0.8682192013214474,-1.661618932200583e-05,6.56490506994917e-05,6.945753610571579e-06,6.579539993766365e-05,6.725104598718751e-05
98.02831216350002,20.5283121635,8,0,0.1187265812907832,20.23185067599089,0.4605990713810615,-1.580555548066221e-05,6.464694089813823e-05,3.684792571048492e-06,6.468911045103499e-05,6.564236078776e-05
99.47168783650002,20.5283121635,8,0,-0.0001520750053378706,19.75633605080641,0.4209794595087796,-1.580555548066221e-05,6.322039702258478e-05,3.367835676070237e-06,6.325626236646969e-05,6.514218443853295e-05
98.02831216350002,21.9716878365,8,0,0.01307428296466373,20.20543760140936,0.282281086936904,-1.612251237564057e-05,6.464694089813823e-05,2.258248695495232e-06,6.466272251707354e-05,6.672177846074823e-05
99.47168783650002,21.9716878365,8,0,-0.1058043733314511,19.72992297622491,0.2426614750646188,-1.612251237564057e-05,6.322039702258485e-05,1.94129180051695e-06,6.323226969665797e-05,6.625529652848393e-05
0.5283121635,23.0283121635,8,0,-0.07318501304521452,-2.931198629354547,-0.4052223035310728,2.110766861738951e-06,-9.321287603498377e-06,-3.241778428248582e-06,2.336140908995486e-06,3.388397807041313e-06
1.9716878365,23.0283121635,8,0,0.2029509111440342,-1.826654932597552,-0.4313687227312991,2.110766861738951e-06,-6.007656513227393e-06,-3.450949781850393e-06,2.462276557772686e-06,3.647134251365415e-06
0.5283121635,24.4716878365,8,0,-0.1429087975791061,-2.94862957548802,0.008981582752813806,1.901595508137276e-06,-9.321287603498377e-06,7.185266202251045e-08,1.901710513169489e-06,3.517196777308201e-06
1.9716878365,24.4716878365,8,0,0.1332271266101426,-1.844085878731025,-0.01716483644738538,1.901595508137276e-06,-6.007656513227393e-06,-1.373186915790831e-07,1.902191487448616e-06,3.845404583559398e-06
3.0283121635,23.0283121635,8,0,0.07524715217668765,-1.149262250182129,-0.7778643871054272,1.160200687111104e-06,-3.737836922324163e-06,-6.222915096843417e-06,2.670836056875254e-06,4.107323533675579e-06
4.4716878365,23.0283121635,8,0,0.3158830985395344,-0.1867184647307419,-0.8120914154786805,1.160200687111104e-06,-8.502055659700015e-07,-6.496731323829444e-06,3.5553376610772e-06,5.105847589774955e-06
3.0283121635,24.4716878365,8,0,-0.01602492348536649,-1.172080269097778,-0.4169104675611976,8.863844601250497e-07,-3.737836922324596e-06,-3.335283740489581e-06,1.425043008223128e-06,4.3966440932395e-06
4.4716878365,24.4716878365,8,0,0.2246110228775165,-0.2095364836462464,-0.451137495934451,8.863844601250497e-07,-8.502055659700015e-07,-3.609099967475608e-06,2.02067199805796e-06,5.574450634637722e-06
5.528312163500001,23.0283121635,8,0,0.3062078883121354,0.4434779257359831,-1.176332366853444,6.250829020100468e-07,1.174163051705437e-06,-9.410658934827553e-06,5.612954882167381e-06,6.160633900640493e-06
6.9716878365,23.0283121635,8,0,0.5264617683636332,1.324493445941974,-1.226693563986114,6.250829020100468e-07,3.81720961232341e-06,-9.813548511888913e-06,7.38097685830794e-06,8.043839637076421e-06
5.528312163500001,24.4716878365,8,0,0.1719113626251056,0.4099037943142256,-0.845951546776184,2.221933249489574e-07,1.174163051705437e-06,-6.767612374209472e-06,4.115297721216484e-06,6.755680889106004e-06
6.9716878365,24.4716878365,8,0,0.3921652426765491,1.29091931452,-0.8963127439088541,2.221933249489574e-07,3.81720961232276e-06,-7.170501951270832e-06,6.030319885403456e-06,8.805055418489848e-06
8.028312163500001,23.0283121635,8,0,0.5711675685002275,1.931869431249463,-1.631947732320775,2.82240674201158e-07,5.725048125198098e-06,-1.30555818585662e-05,1.007599143965657e-05,9.648660022217734e-06
9.471687836500001,23.0283121635,8,0,0.7852730009515255,2.788291161054655,-1.702751457882971,2.82240674201158e-07,8.294313314613673e-06,-1.362201166306377e-05,1.21900570113386e-05,1.214990511519653e-05
8.028312163500001,24.4716878365,8,0,0.3823576336678128,1.884666947541495,-1.310789583643883,-2.841891302961946e-07,5.725048125198532e-06,-1.048631666915106e-05,8.7634785970064e-06,1.050417572069504e-05
9.471687836500001,24.4716878365,8,0,0.5964630661190836,2.741088677346578,-1.381593309206079,-2.841891302961946e-07,8.294313314613781e-06,-1.105274647364863e-05,1.100066622632903e-05,1.309688418530491e-05
10.5283121635,23.0283121635,8,0,0.8249278300507003,3.395192929423253,-2.152813619213414,-7.638528737636163e-08,1.020467511011385e-05,-1.722250895370731e-05,1.509304088197999e-05,1.413147970314735e-05
11.9716878365,23.0283121635,8,0,1.04575618812981,4.278506361739693,-2.245347610971613,-7.638528737636163e-08,1.285461540706317e-05,-1.79627808877729e-05,1.745564428293019e-05,1.704399706366774e-05
10.5283121635,24.4716878365,8,0,0.5781705186954751,3.333503601584447,-1.821571082094694,-8.166572214420367e-07,1.020467511011385e-05,-1.457256865675756e-05,1.382951007479547e-05,1.512128357411784e-05
11.9716878365,24.4716878365,8,0,0.7989988767745402,4.216817033900707,-1.914105073852934,-8.166572214420367e-07,1.285461540706263e-05,-1.531284059082347e-05,1.628283292851538e-05,1.805933709479142e-05
13.0283121635,23.0283121635,8,0,1.025527143115592,4.903873323375342,-2.727052153616687,-6.414118007303795e-07,1.487197292030862e-05,-2.18164172289335e-05,2.050017097967931e-05,1.929515665605601e-05
14.4716878365,23.0283121635,8,0,1.263992386990808,5.857734298876204,-2.839569086662632,-6.414118007303795e-07,1.773355584681121e-05,-2.271655269330106e-05,2.315498370663036e-05,2.253292167814789e-05
13.0283121635,24.4716878365,8,0,0.725481988326416,4.828862034678049,-2.369354287803851,-1.541547265097908e-06,1.487197292030862e-05,-1.895483430243081e-05,1.920205242446304e-05,2.030723180566965e-05
14.4716878365,24.4716878365,8,0,0.9639472322016315,5.782723010178911,-2.481871220849782,-1.541547265097908e-06,1.773355584681121e-05,-1.985496976679825e-05,2.193209319284771e-05,2.351054084544183e-05
15.5283121635,23.0283121635,8,0,1.136631471738024,6.515557383249314,-3.323816337482898,-1.575225197037773e-06,1.994047844900738e-05,-2.659053069986318e-05,2.628512517360064e-05,2.500457589023879e-05
16.9716878365,23.0283121635,8,0,1.40061828434845,7.571504633691015,-3.451325890075957,-1.575225197037773e-06,2.310832020033249e-05,-2.761060712060765e-05,2.928426225639361e-05,2.851949575460798e-05
15.5283121635,24.4716878365,8,0,0.7966059981565597,6.430551014853948,-2.927836118567239,-2.595301617782167e-06,1.994047844900738e-05,-2.342268894853792e-05,2.492438632229565e-05,2.593653248805996e-05
16.9716878365,24.4716878365,8,0,1.060592810767003,7.486498265295721,-3.055345671160306,-2.595301617782167e-06,2.31083202003327e-05,-2.444276536928244e-05,2.799153786093413e-05,2.936115587493979e-05
18.0283121635,23.0283121635,8,0,1.133247766768189,8.269079883544828,-3.895204186371772,-2.988871053177659e-06,2.55544574139289e-05,-3.116163349097418e-05,3.241197325087847e-05,3.117269812946081e-05
19.4716878365,23.0283121635,8,0,1.426175216667249,9.440789683141068,-4.029812640035503,-2.988871053177659e-06,2.906958681271762e-05,-3.223850112028402e-05,3.577285485668573e-05,3.490646195626014e-05
18.0283121635,24.4716878365,8,0,0.7742918903316829,8.179340914435702,-3.455813011523122,-4.065738682487176e-06,2.55544574139289e-05,-2.764650409218497e-05,3.100321672064924e-05,3.193068920377393e-05
19.4716878365,24.4716878365,8,0,1.067219340230752,9.351050714031977,-3.590421465186818,-4.065738682487176e-06,2.906958681271772e-05,-2.872337172149454e-05,3.442783270492043e-05,3.552616142330902e-05
20.5283121635,23.0283121635,8,0,1.008828577847001,10.17722765699624,-4.382195467852143,-4.913530676486585e-06,3.176006564011035e-05,-3.505756374281714e-05,3.879049753543815e-05,3.768866494203341e-05
21.9716878365,23.0283121635,8,0,1.328444865734255,11.45569280854525,-4.514504580918034,-4.913530676486585e-06,3.55954610947574e-05,-3.611603664734428e-05,4.247648859378301e-05,4.155602102965963e-05
20.5283121635,24.4716878365,8,0,0.6560042763379754,10.08902158161898,-3.902771036021262,-5.972003581013663e-06,3.176006564011035e-05,-3.12221682881701e-05,3.738144024491099e-05,3.819464285105042e-05
21.9716878365,24.4716878365,8,0,0.9756205642252476,11.36748673316807,-4.035080149087126,-5.972003581013663e-06,3.559546109475762e-05,-3.228064119269701e-05,4.112661957644e-05,4.188959747146872e-05
23.0283121635,23.0283121635,8,0,0.7798905147609494,12.22162705677098,-4.725894857930282,-7.281651998181749e-06,3.848529416985839e-05,-3.780715886344226e-05,4.528344260014345e-05,4.439625852274884e-05
24.4716878365,23.0283121635,8,0,1.118205125782434,13.57488550085692,-4.847455551097655,-7.281651998181749e-06,4.25450695021162e-05,-3.877964440878124e-05,4.920132625020345e-05,4.828857557213431e-05
23.0283121635,24.4716878365,8,0,0.4557286663145961,12.1405865946594,-4.21842294139811,-8.254137543520809e-06,3.848529416985839e-05,-3.374738353118488e-05,4.394030889339506e-05,4.459810329004884e-05
24.4716878365,24.4716878365,8,0,0.7940432773360806,13.49384503874533,-4.339983634565495,-8.254137543520809e-06,4.25450695021162e-05,-3.471986907652397e-05,4.791082289725195e-05,4.830292417890194e-05
25.5283121635,23.0283121635,8,0,0.4831330271776682,14.35391360791918,-4.88157625606266,-9.937105199366806e-06,4.554601712359924e-05,-3.905261004850128e-05,5.172894274639019e-05,5.110467736306464e-05
26.9716878365,23.0283121635,8,0,0.8280468639139631,15.73356895486436,-4.987334784632347,-9.937105199366806e-06,4.968498316443477e-05,-3.989867827705878e-05,5.574418413473919e-05,5.490609348611364e-05
25.5283121635,24.4716878365,8,0,0.2011102843252219,14.28340792220607,-4.364205500958238,-1.078317342792414e-05,4.554601712359924e-05,-3.49136440076659e-05,5.051727948757526e-05,5.098360663270603e-05
26.9716878365,24.4716878365,8,0,0.5460241210615169,15.66306326915125,-4.469964029527891,-1.078317342792414e-05,4.968498316443477e-05,-3.575971223622313e-05,5.457623398022068e-05,5.460254640691547e-05
28.0283121635,23.0283121635,8,0,0.1647967912439308,16.50538514653612,-4.82932467070331,-1.267695838524832e-05,5.268539503592044e-05,-3.863459736562648e-05,5.796758671631872e-05,5.761771669197427e-05
29.4716878365,23.0283121635,8,0,0.5029894275809657,17.85815569188426,-4.918792976814654,-1.267695838524832e-05,5.674370667196486e-05,-3.935034381451723e-05,6.193224096719957e-05,6.122459293863428e-05
28.0283121635,24.4716878365,8,0,-0.07378535838624511,16.44573960912858,-4.32203571619773,-1.339270483413884e-05,5.268539503592044e-05,-3.457628572958184e-05,5.693520006216312e-05,5.718833990951258e-05
29.4716878365,24.4716878365,8,0,0.2644072779508173,17.79851015447683,-4.41150402230906,-1.339270483413884e-05,5.674370667196519e-05,-3.529203217847248e-05,6.093312359986489e-05,6.063391936258024e-05
30.5283121635,23.0283121635,8,0,-0.1330313527531102,18.60220389645517,-4.575808742754965,-1.530746344597408e-05,5.963347755085901e-05,-3.660646994203972e-05,6.386486036589928e-05,6.376512768454144e-05
31.9716878365,23.0283121635,8,0,0.1866927495520914,19.88110030567597,-4.652292841794199,-1.530746344597408e-05,6.347016677852143e-05,-3.721834273435359e-05,6.764486868361043e-05,6.709912144238898e-05
30.5283121635,24.4716878365,8,0,-0.3369889501911389,18.55121449709566,-4.096222589297128,-1.591933623828817e-05,5.963347755085901e-05,-3.276978071437703e-05,6.303378191254623e-05,6.306750587148631e-05
31.9716878365,24.4716878365,8,0,-0.01726484788592408,19.83011090631652,-4.172706688336362,-1.591933623828817e-05,6.347016677852159e-05,-3.33816535066909e-05,6.683649973189268e-05,6.627060840564689e-05
33.0283121635,23.0283121635,8,0,-0.3814595105015623,20.5794060929712,-4.14701840391515,-1.768419530798196e-05,6.61592671059091e-05,-3.317614723132121e-05,6.932185394488689e-05,6.94212660162065e-05
34.4716878365,23.0283121635,8,0,-0.08895371935794039,21.74942925754569,-4.215648108094576,-1.768419530798196e-05,6.966933659963257e-05,-3.372518486475661e-05,7.281144405948359e-05,7.243148921681852e-05
33.0283121635,24.4716878365,8,0,-0.5644720549800013,20.53365295685166,-3.708259717199704,-1.823323294141733e-05,6.615926710590932e-05,-2.966607773759763e-05,6.86904422053492e-05,6.850909572797901e-05
34.4716878365,24.4716878365,8,0,-0.2719662638363882,21.70367612142612,-3.776889421379143,-1.823323294141733e-05,6.966933659963267e-05,-3.021511537103314e-05,7.219335421866717e-05,7.14216542907886e-05
35.5283121635,23.0283121635,8,0,-0.5659108678756244,22.38791357937077,-3.577956183177751,-1.972124564069861e-05,7.209405214828697e-05,-2.862364946542201e-05,7.427320554090683e-05,7.450596168791919e-05
36.9716878365,23.0283121635,8,0,-0.3063794862602665,23.42603910583221,-3.643893983814879,-1.972124564069861e-05,7.520842872767126e-05,-2.915115187051903e-05,7.739596492850894e-05,7.716330267749816e-05
35.5283121635,24.4716878365,8,0,-0.7417450029080639,22.34395504561266,-3.188659110754688,-2.024874804579593e-05,7.209405214828697e-05,-2.55092728860375e-05,7.382337164620214e-05,7.343645066356669e-05
36.9716878365,24.4716878365,8,0,-0.482213621292706,23.38208057207409,-3.254596911391876,-2.024874804579593e-05,7.520842872767126e-05,-2.603677529113501e-05,7.69520200612664e-05,7.602841815832638e-05
38.0283121635,23.0283121635,8,0,-0.6825909705041004,23.99454827075352,-2.905130052996218,-2.137992972221594e-05,7.732862724281453e-05,-2.324104042396974e-05,7.86782075338366e-05,7.897419126887129e-05
39.4716878365,23.0283121635,8,0,-0.459414846640243,24.88725276620895,-2.972606287983588,-2.137992972221594e-05,8.000674072918083e-05,-2.37808503038687e-05,8.138255612646443e-05,8.126428991798091e-05
38.0283121635,24.4716878365,8,0,-0.862527597137241,23.94956411409524,-2.570365867200438,-2.191973960211536e-05,7.732862724281453e-05,-2.056292693760351e-05,7.838252657223308e-05,7.780237936230832e-05
39.4716878365,24.4716878365,8,0,-0.6393514732733649,24.84226860955074,-2.637842102187836,-2.191973960211536e-05,8.000674072918104e-05,-2.110273681750268e-05,8.108755136166667e-05,8.005696400768938e-05
40.5283121635,23.0283121635,8,0,-0.7343831327203931,25.37902183383573,-2.162955074492702,-2.265324349177384e-05,8.180037637445063e-05,-1.730364059594161e-05,8.251215038781179e-05,8.280476710304054e-05
41.97168783650001,23.0283121635,8,0,-0.5492006138049534,26.11975190949749,-2.234992067882386,-2.265324349177384e-05,8.402256660143591e-05,-1.787993654305908e-05,8.476659150797336e-05,8.472333039159346e-05
40.5283121635,24.4716878365,8,0,-0.9264817817595761,25.33099717157593,-1.885181296119528,-2.322953943889139e-05,8.180037637445063e-05,-1.508145036895623e-05,8.233900779260524e-05,8.158126524936889e-05
41.97168783650001,24.4716878365,8,0,-0.7412992628441275,26.07172724723772,-1.957218289509239,-2.322953943889139e-05,8.402256660143602e-05,-1.565774631607391e-05,8.459102268917033e-05,8.349114904247357e-05
43.0283121635,23.0283121635,8,0,-0.7281157361751438,26.53086824483979,-1.382769118703351,-2.355466495163229e-05,8.548127097242743e-05,-1.106215294962681e-05,8.576112812854572e-05,8.599312131256617e-05
44.4716878365,23.0283121635,8,0,-0.581193717178845,27.11855632082498,-1.461208881484062,-2.355466495163229e-05,8.724433520038301e-05,-1.168967105187249e-05,8.755180695911807e-05,8.754369133524789e-05
43.0283121635,24.4716878365,8,0,-0.9372884369236871,26.47857506965265,-1.162386090208903,-2.418218305387792e-05,8.548127097242743e-05,-9.299088721671225e-06,8.567805066269416e-05,8.476304397236336e-05
44.4716878365,24.4716878365,8,0,-0.7903664179273795,27.06626314563788,-1.2408258529896,-2.418218305387792e-05,8.724433520038312e-05,-9.926606823916799e-06,8.74649801326507e-05,8.63280417497546e-05
45.52831216350001,23.0283121635,8,0,-0.6732889924032488,27.44743551074029,-0.5922769485088415,-2.411247318428263e-05,8.837042482829152e-05,-4.738215588070732e-06,8.842030071373664e-05,8.854747418852135e-05
46.97168783650001,23.0283121635,8,0,-0.5638331716118552,27.88525879390587,-0.6777023189079867,-2.411247318428263e-05,8.968389467778825e-05,-5.421618551263894e-06,8.974843383456518e-05,8.973928992086576e-05
45.52831216350001,24.4716878365,8,0,-0.9010899801343024,27.39048526380746,-0.4280932173217637,-2.479587614747573e-05,8.83704248282913e-05,-3.42474573857411e-06,8.839632962291487e-05,8.734925566580699e-05
46.97168783650001,24.4716878365,8,0,-0.7916341593428902,27.82830854697311,-0.5135185877209157,-2.479587614747573e-05,8.968389467778825e-05,-4.108148701767326e-06,8.9720738427096e-05,8.857426619258583e-05
48.0283121635,23.0283121635,8,0,-0.5795888534940952,28.13216466896584,0.1852913597293956,-2.436041606635378e-05,9.048659802348596e-05,1.482330877835165e-06,9.049138093696383e-05,9.048447542916244e-05
49.47168783650001,23.0283121635,8,0,-0.5062924806233697,28.42535016044874,0.09339010928812867,-2.436041606635378e-05,9.136615449793466e-05,7.471208743050294e-07,9.136736032253927e-05,9.132854436663516e-05
48.0283121635,24.4716878365,8,0,-0.8246588546708447,28.07089716867166,0.2952359190354972,-2.509562606988402e-05,9.048659802348596e-05,2.361887352283977e-06,9.049866287529608e-05,8.934937546898587e-05
49.47168783650001,24.4716878365,8,0,-0.7513624818001041,28.36408266015462,0.2033346685942269,-2.509562606988402e-05,9.136615449793485e-05,1.626677348753815e-06,9.137183436591482e-05,9.024200286683992e-05
50.5283121635,23.0283121635,8,0,-0.453930796978117,28.59209882260037,0.9298230132429963,-2.432625760841027e-05,9.185786086990367e-05,7.43858410594397e-06,9.197680127876016e-05,9.182303139861552e-05
51.97168783650001,23.0283121635,8,0,-0.4152799372920244,28.74670226134474,0.8322827154341473,-2.432625760841027e-05,9.232167118613678e-05,6.658261723473178e-06,9.241660728612524e-05,9.232992615625452e-05
50.5283121635,24.4716878365,8,0,-0.7140382578017856,28.52707195739445,0.9877993027721318,-2.510657999088128e-05,9.185786086990367e-05,7.902394422177055e-06,9.199118501490458e-05,9.077730933623541e-05
51.97168783650001,24.4716878365,8,0,-0.675387398115693,28.68167539613883,0.8902590049632828,-2.510657999088128e-05,9.232167118613678e-05,7.122072039706263e-06,9.242956121387387e-05,9.134716641045228e-05
53.0283121635,23.0283121635,8,0,-0.3008959439032726,28.83691758524552,1.62066721625342,-2.403240108868688e-05,9.251885302790828e-05,1.296533773002736e-05,9.287831533298765e-05,9.258284006606545e-05
54.4716878365,23.0283121635,8,0,-0.294654236083308,28.86188441652538,1.51783403276727,-2.403240108868688e-05,9.259375352174785e-05,1.214267226213816e-05,9.290896381919444e-05,9.27669189600002e-05
53.0283121635,24.4716878365,8,0,-0.5751177665330172,28.76836212958808,1.630029777983379,-2.485506655657612e-05,9.251885302790828e-05,1.304023822386704e-05,9.287993471792062e-05,9.165160841653428e-05
54.4716878365,24.4716878365,8,0,-0.5688760587130437,28.79332896086798,1.527196594497247,-2.485506655657612e-05,9.259375352174795e-05,1.221757275597798e-05,9.291063077766052e-05,9.191350237092702e-05
55.5283121635,23.0283121635,8,0,-0.1270465369772147,28.88183667442154,2.234961160685415,-2.351201825786431e-05,9.252351458773067e-05,1.787968928548331e-05,9.320823570103888e-05,9.279328246362176e-05
56.97168783650001,23.0283121635,8,0,-0.1492796061648765,28.79290439767089,2.126649434723406,-2.351201825786431e-05,9.225671775747873e-05,1.701319547778724e-05,9.287843716589492e-05,9.268123000104976e-05
55.5283121635,24.4716878365,8,0,-0.4158778062092416,28.80962885711353,2.201611556903956,-2.437851206556039e-05,9.252351458773067e-05,1.761289245523164e-05,9.318319787406359e-05,9.200176084991367e-05
56.97168783650001,24.4716878365,8,0,-0.4381108753968919,28.72069658036293,2.093299830941957,-2.437851206556039e-05,9.225671775747886e-05,1.674639864753566e-05,9.28547601526875e-05,9.198099354432152e-05
58.0283121635,23.0283121635,8,0,0.05498264684015552,28.75186686895103,2.751567965905123,-2.282554902527232e-05,9.196198786317114e-05,2.201254372724098e-05,9.300778372742854e-05,9.250655194816478e-05
59.47168783650001,23.0283121635,8,0,0.01011429554508236,28.57239346377073,2.638022650834002,-2.282554902527232e-05,9.142356764763027e-05,2.110418120667202e-05,9.238998779523999e-05,9.214137509526757e-05
58.0283121635,24.4716878365,8,0,-0.2478048600161404,28.67616999223695,2.684265438962494,-2.373391154584121e-05,9.196198786317114e-05,2.147412351169995e-05,9.29499946832598e-05,9.187623611845324e-05
59.47168783650001,24.4716878365,8,0,-0.2926732113112136,28.49669658705666,2.570720123891383,-2.373391154584121e-05,9.142356764763027e-05,2.056576099113106e-05,9.233456120838796e-05,9.161080081409093e-05
60.5283121635,23.0283121635,8,0,0.2284145088229934,28.4819667700675,3.157741119593819,-2.205464698782042e-05,9.095956205715759e-05,2.526192895675055e-05,9.235404754020707e-05,9.180123511539605e-05
61.9716878365,23.0283121635,8,0,0.1676422894329317,28.23887789250725,3.040392401997409,-2.205464698782042e-05,9.023029542447686e-05,2.432313921597927e-05,9.153241359333555e-05,9.123713226155926e-05
60.5283121635,24.4716878365,8,0,-0.08451540476742547,28.4037342916699,3.066582790508737,-2.299343672859167e-05,9.095956205715759e-05,2.45326623240699e-05,9.226500123227289e-05,9.134410924964026e-05
61.9716878365,24.4716878365,8,0,-0.1452876241574668,28.16064541410973,2.949234072912354,-2.299343672859167e-05,9.02302954244771e-05,2.359387258329883e-05,9.144637316870033e-05,9.08809296499423e-05
63.0283121635,23.0283121635,8,0,0.3774842843056643,28.11124760407066,3.452136188014262,-2.12810483734784e-05,8.965400490558158e-05,2.76170895041141e-05,9.134697528695345e-05,9.077156224186795e-05
64.47168783650001,23.0283121635,8,0,0.3070519222282204,27.82951815576089,3.333561713062931,-2.12810483734784e-05,8.880881656065225e-05,2.666849370450345e-05,9.040085725971371e-05,9.006370414737315e-05
63.0283121635,24.4716878365,8,0,0.06128568443547522,28.03219795410311,3.346487644898127,-2.222964417308897e-05,8.965400490558158e-05,2.677190115918501e-05,9.123323221432248e-05,9.048720738838895e-05
64.47168783650001,24.4716878365,8,0,-0.009146677641957979,27.75046850579338,3.227913169946806,-2.222964417308897e-05,8.880881656065238e-05,2.582330535957445e-05,9.029042579683589e-05,8.987471776540652e-05
65.5283121635,23.0283121635,8,0,0.4916648679182325,27.67573864631327,3.642788865062795,-2.056726333971227e-05,8.816903177386785e-05,2.914231092050236e-05,9.008777469970888e-05,8.951029924460929e-05
66.97168783650001,23.0283121635,8,0,0.4164368513723868,27.37482658012988,3.526051222202474,-2.056726333971227e-05,8.726629557531771e-05,2.820840977761979e-05,8.908054609766078e-05,8.870622702753122e-05
65.5283121635,24.4716878365,8,0,0.180364486957405,27.59791355107306,3.529946840244013,-2.150116448259475e-05,8.816903177386785e-05,2.82395747219521e-05,8.995774826326837e-05,8.938747303381812e-05
66.97168783650001,24.4716878365,8,0,0.1051364704115594,27.29700148488968,3.413209197383716,-2.150116448259475e-05,8.726629557531771e-05,2.730567357906973e-05,8.895385984446086e-05,8.866878529432421e-05
68.0283121635,23.0283121635,8,0,0.5665832456591255,27.20374863096953,3.742672202181639,-1.994993251866642e-05,8.659872902257518e-05,2.994137761745311e-05,8.866223198679844e-05,8.809545150121423e-05
69.47168783650001,23.0283121635,8,0,0.489825783904644,26.8967187839516,3.630661516888987,-1.994993251866642e-05,8.567763948152141e-05,2.90452921351119e-05,8.763796452366363e-05,8.723085394830367e-05
68.0283121635,24.4716878365,8,0,0.2678880848787246,27.12907484077443,3.627536009549921,-2.084601800100762e-05,8.659872902257518e-05,2.902028807639937e-05,8.85237965638073e-05,8.811619937198283e-05
69.47168783650001,24.4716878365,8,0,0.1911306231242502,26.82204499375653,3.515525324257275,-2.084601800100762e-05,8.567763948152149e-05,2.812420259405821e-05,8.750269750790521e-05,8.732519429602856e-05
70.5283121635,23.0283121635,8,0,0.6029270875617536,26.71472318957566,3.765762961967891,-1.944241187146291e-05,8.500477253659271e-05,3.012610369574313e-05,8.713372501691488e-05,8.658431735695771e-05
71.97168783650001,23.0283121635,8,0,0.5264923259530843,26.40898414314098,3.660801161902338,-1.944241187146291e-05,8.408755539728868e-05,2.928640929521871e-05,8.611882602860467e-05,8.568254409328357e-05
70.5283121635,24.4716878365,8,0,0.3230289540535907,26.64474865619862,3.651110819554877,-2.028210627198741e-05,8.500477253659271e-05,2.920888655643902e-05,8.69930224323773e-05,8.672832435580617e-05
71.97168783650001,24.4716878365,8,0,0.2465941924449151,26.33900960976392,3.546149019489331,-2.028210627198741e-05,8.408755539728859e-05,2.836919215591465e-05,8.598099501515847e-05,8.588865042949297e-05
73.0283121635,23.0283121635,8,0,0.6047794838936058,26.22022474038442,3.724547017685414,-1.9040885443848e-05,8.342089558211526e-05,2.979637614148331e-05,8.554316946023887e-05,8.501341834402351e-05
74.47168783650001,23.0283121635,8,0,0.5294352049609756,25.9188476246539,3.628239688229896,-1.9040885443848e-05,8.25167642349237e-05,2.902591750583917e-05,8.455001210465403e-05,8.408710606398886e-05
73.0283121635,24.4716878365,8,0,0.3479599386788639,26.15601985408074,3.611530599286476,-1.981134407949222e-05,8.342089558211526e-05,2.889224479429181e-05,8.540434924496175e-05,8.5261388060744e-05
74.47168783650001,24.4716878365,8,0,0.2726156597462426,25.85464273835025,3.515223269830951,-1.981134407949222e-05,8.251676423492381e-05,2.81217861586476e-05,8.44137047158668e-05,8.438734932588613e-05
75.5283121635,23.0283121635,8,0,0.5781064559003131,25.7256914347192,3.628802927064256,-1.873061248889435e-05,8.185972742638116e-05,2.903042341651405e-05,8.391238924813221e-05,8.340159106145915e-05
76.97168783650001,23.0283121635,8,0,0.5038625728781305,25.42871590263046,3.542054234959789,-1.873061248889435e-05,8.096880083011498e-05,2.833643387967831e-05,8.294313902715358e-05,8.245504152515234e-05
75.5283121635,24.4716878365,8,0,0.3467766102883658,25.66785897331621,3.517437102530996,-1.942460202573019e-05,8.185972742638116e-05,2.813949682024797e-05,8.377787727762939e-05,8.3737391370636e-05
76.97168783650001,24.4716878365,8,0,0.272532727266193,25.37088344122752,3.430688410426523,-1.942460202573019e-05,8.096880083011509e-05,2.744550728341218e-05,8.281076581242022e-05,8.283571194889143e-05
78.0283121635,23.0283121635,8,0,0.5296831898771197,25.232202431094,3.485217169375888,-1.849077573726842e-05,8.03193012275991e-05,2.78817373550071e-05,8.224851687371152e-05,8.175411808608148e-05
79.47168783650001,23.0283121635,8,0,0.4560549134288969,24.93768932530111,3.40831534368513,-1.849077573726842e-05,7.943576191022042e-05,2.726652274948104e-05,8.129834782221315e-05,8.078570917454941e-05
78.0283121635,24.4716878365,8,0,0.3246116547017923,25.18093454730014,3.374774754703546,-1.910599034279437e-05,8.031930122759899e-05,2.699819803762837e-05,8.21194968053497e-05,8.216594394508942e-05
79.47168783650001,24.4716878365,8,0,0.2509833782535758,24.88642144150727,3.297872929012799,-1.910599034279437e-05,7.943576191022039e-05,2.638298343210239e-05,8.117110783522632e-05,8.123778315108517e-05
80.5283121635,23.0283121635,8,0,0.4664281286467791,24.73792471490665,3.297409436810637,-1.829776976025562e-05,7.878821658478384e-05,2.637927549448509e-05,8.054819280822306e-05,8.006684666323509e-05
81.97168783650001,23.0283121635,8,0,0.3926291776473407,24.44272891090889,3.230124614364219,-1.829776976025562e-05,7.790262917279058e-05,2.584099691491375e-05,7.960773533838316e-05,7.90712866701164e-05
80.5283121635,24.4716878365,8,0,0.2870019354563809,24.69306816660905,3.186711010311479,-1.883604833982682e-05,7.878821658478384e-05,2.549368808249183e-05,8.042513077877807e-05,8.054776474251634e-05
81.97168783650001,24.4716878365,8,0,0.2132029844569496,24.39787236261132,3.119426187865091,-1.883604833982682e-05,7.790262917279066e-05,2.495540950292073e-05,7.948612865003144e-05,7.959076018607268e-05
83.02831216350002,23.0283121635,8,0,0.3950332477659577,24.23919715604481,3.066099102865228,-1.812725133198478e-05,7.72494043011306e-05,2.452879282292182e-05,7.88012230042262e-05,7.833010269663949e-05
84.47168783650002,23.0283121635,8,0,0.3201119039138032,23.93951178063619,3.007763939511914,-1.812725133198478e-05,7.635034817490475e-05,2.406211151609531e-05,7.785834836565432e-05,7.730071041637737e-05
83.02831216350002,24.4716878365,8,0,0.2394728121571523,24.2003070471426,2.953717087087,-1.859393263881119e-05,7.72494043011306e-05,2.3629736696696e-05,7.868437087686148e-05,7.887827148570042e-05
84.47168783650002,24.4716878365,8,0,0.1645514683049978,23.90062167173399,2.895381923733679,-1.859393263881119e-05,7.635034817490475e-05,2.316305538986943e-05,7.774267234668487e-05,7.78887207128256e-05
85.5283121635,23.0283121635,8,0,0.3217791732992312,23.73131344348514,2.789264124101005,-1.795535740023057e-05,7.568277968051306e-05,2.231411299280804e-05,7.699379620813157e-05,7.653285567355625e-05
86.97168783650002,23.0283121635,8,0,0.2447145967940392,23.42305513746437,2.7388249464122,-1.795535740023057e-05,7.475800476245076e-05,2.19105995712976e-05,7.603493024486468e-05,7.546442978350915e-05
85.5283121635,24.4716878365,8,0,0.1872746994624848,23.69768732502599,2.673667259343244,-1.835887082174084e-05,7.568277968051317e-05,2.138933807474595e-05,7.688367104250527e-05,7.715158183834623e-05
86.97168783650002,24.4716878365,8,0,0.1102101229572998,23.38942901900525,2.623228081654439,-1.835887082174084e-05,7.475800476245095e-05,2.098582465323551e-05,7.592575829895942e-05,7.612723175382365e-05
88.02831216350002,23.0283121635,8,0,0.2524472186782001,23.20909371767745,2.462217849547932,-1.775944387437172e-05,7.406714212162527e-05,1.969774279638345e-05,7.511160398624958e-05,7.466835705863712e-05
89.47168783650001,23.0283121635,8,0,0.1722224755278301,22.88819474507597,2.418252737340035,-1.775944387437172e-05,7.310444520382083e-05,1.934602189872028e-05,7.412278296128289e-05,7.356187181772157e-05
88.02831216350002,24.4716878365,8,0,0.1352069194570849,23.17978364287217,2.34188073482235,-1.811116477203506e-05,7.406714212162527e-05,1.87350458785788e-05,7.500947335754321e-05,7.536596381713314e-05
89.47168783650001,24.4716878365,8,0,0.05498217630671931,22.85888467027071,2.297915622614453,-1.811116477203506e-05,7.310444520382088e-05,1.838332498091562e-05,7.402145655250361e-05,7.43104912203557e-05
90.52831216350002,23.0283121635,8,0,0.1922623446221285,22.66733241777853,2.077568569510376,-1.751862643143201e-05,7.238165386119359e-05,1.6620548556083e-05,7.314339135898375e-05,7.274395182575212e-05
91.97168783650001,23.0283121635,8,0,0.1079285318214884,22.32999716657597,2.038272242150355,-1.751862643143201e-05,7.136964810758591e-05,1.630617793720284e-05,7.211128511893758e-05,7.161583809198581e-05
90.52831216350002,24.4716878365,8,0,0.08747213832876,22.64113486620519,1.951067850309432,-1.783299705031212e-05,7.238165386119359e-05,1.560854280247546e-05,7.305180607596543e-05,7.353310610922052e-05
91.97168783650001,24.4716878365,8,0,0.003138325528119879,22.30379961500263,1.911771522949412,-1.783299705031212e-05,7.136964810758591e-05,1.52941721835953e-05,7.202046251117986e-05,7.246472308523876e-05
93.02831216350002,23.0283121635,8,0,0.1458152890730373,22.10120090244468,1.625044946576397,-1.721435179692202e-05,7.060719065656452e-05,1.300035957261118e-05,7.108569929536627e-05,7.08011765742163e-05
94.47168783650002,23.0283121635,8,0,0.05655972729964809,21.74417865535112,1.588181126554116,-1.721435179692202e-05,6.953612391528386e-05,1.270544901243293e-05,6.999886465908203e-05,6.970359365037049e-05
93.02831216350002,24.4716878365,8,0,0.04751176901363241,22.07662502242982,1.491161603916328,-1.750926235710024e-05,7.060719065656452e-05,1.192929283133062e-05,7.100910730954727e-05,7.169659432693077e-05
94.47168783650002,24.4716878365,8,0,-0.04174379275975415,21.71960277533628,1.45429778389405,-1.750926235710024e-05,6.953612391528388e-05,1.16343822711524e-05,6.992316239447482e-05,7.066641055637106e-05
95.5283121635,23.0283121635,8,0,0.1169173424528065,21.50667734751461,1.091177291675908,-1.68312063821627e-05,6.872783363808449e-05,8.729418333407266e-06,6.89499184632048e-05,6.896048311034026e-05
96.97168783650002,23.0283121635,8,0,0.02214872883734298,21.12760289305275,1.053998901088071,-1.68312063821627e-05,6.759061027469893e-05,8.431991208704566e-06,6.780063311057789e-05,6.80278502830972e-05
95.5283121635,24.4716878365,8,0,0.01777496755191077,21.48189175378938,0.949024371252704,-1.712863350686539e-05,6.872783363808449e-05,7.592194970021632e-06,6.889534920364717e-05,6.997218098068428e-05
96.97168783650002,24.4716878365,8,0,-0.07699364606355275,21.10281729932753,0.9118459806648664,-1.712863350686539e-05,6.759061027469893e-05,7.294767845318932e-06,6.774734966059833e-05,6.910569427827007e-05
98.02831216350002,23.0283121635,8,0,0.1083375909899411,20.88107726206024,0.4588262966165191,-1.635818151848038e-05,6.67327771658008e-05,3.670610372932153e-06,6.677329545382053e-05,6.752497521194886e-05
99.47168783650002,23.0283121635,8,0,0.007802568103429941,20.47893717051419,0.4179633994835609,-1.635818151848038e-05,6.552635689116267e-05,3.343707195868487e-06,6.556047725512823e-05,6.708372779489641e-05
98.02831216350002,24.4716878365,8,0,-0.0006301346979196154,20.85383533063827,0.3080237622867527,-1.668508469554396e-05,6.67327771658008e-05,2.464190098294022e-06,6.675097143672519e-05,6.863993187180824e-05
99.47168783650002,24.4716878365,8,0,-0.1011651575844335,20.45169523909222,0.267160865153808,-1.668508469554396e-05,6.552635689116264e-05,2.137286921230464e-06,6.554024554132222e-05,6.823393201545911e-05
0.5283121635,25.5283121635,8,0,-0.07058468059799972,-2.446488929467816,-0.453886443864171,1.731320165660654e-06,-7.772296829818611e-06,-3.631091550913368e-06,2.066346682148354e-06,3.623508640417652e-06
1.9716878365,25.5283121635,8,0,0.1979994418410489,-1.372152439711622,-0.4858901355316963,1.731320165660654e-06,-4.549287360550028e-06,-3.887121084253571e-06,2.284109321165096e-06,4.006567992368449e-06
0.5283121635,26.9716878365,8,0,-0.1559278583780763,-2.467824723912835,-0.05101026020554394,1.475290632320424e-06,-7.772296829818611e-06,-4.080820816443516e-07,1.47979045436717e-06,3.785159081625439e-06
1.9716878365,26.9716878365,8,0,0.1126562640609723,-1.393488234156641,-0.0830139518730828,1.475290632320424e-06,-4.549287360550028e-06,-6.641116149846624e-07,1.493537241571778e-06,4.248604281380503e-06
3.0283121635,25.5283121635,8,0,0.03393679399211957,-0.711170814922607,-0.922447773292568,6.775343927128681e-07,-2.302896042946038e-06,-7.379582186340544e-06,3.166678382933017e-06,4.625047850495384e-06
4.4716878365,25.5283121635,8,0,0.2767906060227967,0.2602444332001016,-0.9595443693391861,6.775343927128681e-07,6.113497014220877e-07,-7.676354954713489e-06,4.482762181062152e-06,5.931706894477202e-06
3.0283121635,26.9716878365,8,0,-0.06498746213209605,-0.7359018789539319,-0.5581670552466471,3.807616243404381e-07,-2.302896042946905e-06,-4.465336441973177e-06,1.643795935624145e-06,4.959737960420698e-06
4.4716878365,26.9716878365,8,0,0.1778663498986624,0.2355133691691019,-0.5952636512931704,3.807616243404381e-07,6.113497014221961e-07,-4.762109210345363e-06,2.879899984169329e-06,6.439146102859424e-06
5.528312163500001,25.5283121635,8,0,0.1995841189313723,0.8868144196140667,-1.374677641443451,-7.078235511086208e-08,2.678138847619915e-06,-1.099742113154761e-05,6.971566727060951e-06,7.199036750882873e-06
6.9716878365,25.5283121635,8,0,0.427278053249209,1.797590156885414,-1.424369499728197,-7.078235511086208e-08,5.410466059433956e-06,-1.139495599782557e-05,8.99220506488373e-06,9.35478726469752e-06
5.528312163500001,26.9716878365,8,0,0.06707249683854505,0.8536865140905888,-1.033136739966574,-4.683172213891269e-07,2.678138847619048e-06,-8.26509391973259e-06,5.526787204880084e-06,7.815260502676749e-06
6.9716878365,26.9716878365,8,0,0.294766431156427,1.764462251362117,-1.082828598251387,-4.683172213891269e-07,5.410466059433631e-06,-8.662628786011099e-06,7.705604730977406e-06,1.009546681772595e-05
8.028312163500001,25.5283121635,8,0,0.3875011794611358,2.406484003534266,-1.842759505966637,-6.851834285517778e-07,7.39074786774074e-06,-1.47420760477331e-05,1.175738620341762e-05,1.111265720236708e-05
9.471687836500001,25.5283121635,8,0,0.6106597879625103,3.299118437539764,-1.908897879957785,-6.851834285517778e-07,1.006865116975723e-05,-1.527118303966228e-05,1.403055057828386e-05,1.375949667156777e-05
8.028312163500001,26.9716878365,8,0,0.2111321821514341,2.362391754206976,-1.508021593214684,-1.214290420480991e-06,7.390747867741174e-06,-1.206417274571747e-05,1.049752943254118e-05,1.191954382735325e-05
9.471687836500001,26.9716878365,8,0,0.4342907906527093,3.255026188212076,-1.574159967205778,-1.214290420480991e-06,1.006865116975648e-05,-1.259327973764622e-05,1.288140218210354e-05,1.462280857973603e-05
10.5283121635,25.5283121635,8,0,0.5604084486361773,3.906300604782062,-2.337268976769028,-1.331733448189882e-06,1.205183517639366e-05,-1.869815181415222e-05,1.685723302315744e-05,1.58074748208381e-05
11.9716878365,25.5283121635,8,0,0.7887631290614734,4.819719326483247,-2.420636787674058,-1.331733448189882e-06,1.479209134149721e-05,-1.936509430139246e-05,1.932962936274673e-05,1.87558157084727e-05
10.5283121635,26.9716878365,8,0,0.3380942862228995,3.850722064178743,-1.994736956131165,-1.998675935429716e-06,1.205183517639366e-05,-1.595789564904932e-05,1.565756377117822e-05,1.669238029969609e-05
11.9716878365,26.9716878365,8,0,0.5664489666481414,4.76414078587971,-2.078104767036114,-1.998675935429716e-06,1.479209134149656e-05,-1.662483813628891e-05,1.82110539482315e-05,1.964329063639232e-05
13.0283121635,25.5283121635,8,0,0.6847595343644846,5.438733218280118,-2.850500538584093,-2.159756064657744e-06,1.685613867100479e-05,-2.280400430867274e-05,2.219429234947321e-05,2.099699991653358e-05
14.4716878365,25.5283121635,8,0,0.9263283684128079,6.405008554473412,-2.949105836807608,-2.159756064657744e-06,1.975496467958467e-05,-2.359284669446087e-05,2.489789468098206e-05,2.417168815470263e-05
13.0283121635,26.9716878365,8,0,0.4218120724349921,5.372996352797745,-2.488147287511567,-2.948598450446221e-06,1.685613867100479e-05,-1.990517830009254e-05,2.099339025834823e-05,2.186940629132113e-05
14.4716878365,26.9716878365,8,0,0.6633809064833154,6.339271688991039,-2.586752585735083,-2.948598450446221e-06,1.975496467958467e-05,-2.069402068588066e-05,2.376298675057768e-05,2.500035702767346e-05
15.5283121635,25.5283121635,8,0,0.7336031984162683,7.045554975823118,-3.359094358590927,-3.288913745726435e-06,2.195889336390096e-05,-2.687275486872742e-05,2.777134464186036e-05,2.656372652131188e-05
16.9716878365,25.5283121635,8,0,0.9938047928735156,8.086361353652107,-3.46845775279412,-3.288913745726435e-06,2.508131249738792e-05,-2.774766202235296e-05,3.073808994094716e-05,2.992420863465119e-05
15.5283121635,26.9716878365,8,0,0.4419674805410343,6.972646046354309,-2.968791966905091,-4.163820899352137e-06,2.195889336390096e-05,-2.375033573524072e-05,2.655026015817477e-05,2.734529588861183e-05
16.9716878365,26.9716878365,8,0,0.7021690749982363,8.013452424183116,-3.07815536110831,-4.163820899352137e-06,2.508131249738738e-05,-2.462524288886648e-05,2.957471042762555e-05,3.062083726125821e-05
18.0283121635,25.5283121635,8,0,0.6904308442833318,8.753065494265298,-3.827472404641659,-4.793073693705577e-06,2.745746490622229e-05,-3.061977923713327e-05,3.356768593431395e-05,3.243577726597641e-05
19.4716878365,25.5283121635,8,0,0.971210008804456,9.876182152349795,-3.941253476585074,-4.793073693705577e-06,3.082681488047578e-05,-3.153002781268059e-05,3.680194530372344e-05,3.593702826040558e-05
18.0283121635,26.9716878365,8,0,0.3870146524342357,8.677211446303025,-3.406303657859912,-5.703322269252865e-06,2.745746490622229e-05,-2.72504292628793e-05,3.233763806955367e-05,3.305771243995568e-05
19.4716878365,26.9716878365,8,0,0.667793816955387,9.80032810438763,-3.520084729803326,-5.703322269252865e-06,3.08268148804761e-05,-2.816067783842661e-05,3.562402446984368e-05,3.643983786749734e-05
20.5283121635,25.5283121635,8,0,0.5529024321720484,10.56780599017483,-4.213425321420263,-6.684957009189308e-06,3.337465722282182e-05,-3.37074025713621e-05,3.952194735099813e-05,3.852879445823079e-05
21.9716878365,25.5283121635,8,0,0.8521928284224938,11.76496757517661,-4.324594332015576,-6.684957009189308e-06,3.696614197782716e-05,-3.459675465612461e-05,4.298998150594016e-05,4.210838039790077e-05
20.5283121635,26.9716878365,8,0,0.2564517372511768,10.49369331644461,-3.764489727044575,-7.574309093951923e-06,3.337465722282182e-05,-3.01159178163566e-05,3.831565334544505e-05,3.893573571750016e-05
21.9716878365,26.9716878365,8,0,0.5557421335016359,11.69085490144645,-3.875658737639902,-7.574309093951923e-06,3.696614197782732e-05,-3.100526990111921e-05,4.183066604147708e-05,4.237253002695805e-05
23.0283121635,25.5283121635,8,0,0.3342638045062172,12.47441919432842,-4.475983933306623,-8.90989118104284e-06,3.965073037824596e-05,-3.580787146645299e-05,4.553802484488554e-05,4.47290083019898e-05
24.4716878365,25.5283121635,8,0,0.6461760672278345,13.72206824521489,-4.578367272018559,-8.90989118104284e-06,4.339367753090537e-05,-3.662693817614847e-05,4.916835516246165e-05,4.830911094432819e-05
23.0283121635,26.9716878365,8,0,0.0612415679411451,12.40616363518715,-4.008115539224191,-9.728957890738055e-06,3.965073037824596e-05,-3.206492431379352e-05,4.439943658506384e-05,4.488480267829315e-05
24.4716878365,26.9716878365,8,0,0.3731538306627624,13.65381268607362,-4.1104988779361,-9.728957890738055e-06,4.339367753090537e-05,-3.288399102348879e-05,4.807084273688732e-05,4.831166489504031e-05
25.5283121635,25.5283121635,8,0,0.06077347644413988,14.43744637463377,-4.583876390133566,-1.135548197508577e-05,4.615120961767275e-05,-3.667101112106853e-05,5.149985289299638e-05,5.089958106013232e-05
26.9716878365,25.5283121635,8,0,0.3766710274617031,15.70103657870402,-4.673564865128651,-1.135548197508577e-05,4.99419802298835e-05,-3.738851892102921e-05,5.519338916848295e-05,5.439677438996051e-05
25.5283121635,26.9716878365,8,0,-0.1783957902093829,14.37765405797039,-4.110030063607243,-1.207298977504634e-05,4.615120961767275e-05,-3.288024050885794e-05,5.047250494351912e-05,5.079108965707471e-05
26.9716878365,26.9716878365,8,0,0.1375017608081803,15.64124426204064,-4.199718538602321,-1.207298977504634e-05,4.99419802298835e-05,-3.359774830881857e-05,5.420014847578146e-05,5.413814186403789e-05
28.0283121635,25.5283121635,8,0,-0.234757371923223,16.40753078299677,-4.52165634047573,-1.387724821655173e-05,5.269190440312824e-05,-3.617325072380583e-05,5.72885772425361e-05,5.689819414602601e-05
29.4716878365,25.5283121635,8,0,0.07542279027474752,17.64825143178865,-4.597662676774312,-1.387724821655173e-05,5.641406634950387e-05,-3.678130141419449e-05,6.093493474350634e-05,6.023500668111585e-05
28.0283121635,26.9716878365,8,0,-0.4374409353861815,16.35685989213103,-4.056386097178781,-1.44852989069406e-05,5.269190440312824e-05,-3.245108877743025e-05,5.640561436347157e-05,5.653487796100785e-05
29.4716878365,26.9716878365,8,0,-0.1272607731882252,17.59758054092286,-4.132392433477404,-1.44852989069406e-05,5.641406634950371e-05,-3.305913946781923e-05,6.007840517177749e-05,5.973583054357929e-05
30.5283121635,25.5283121635,8,0,-0.5206943162178392,18.3303631854992,-4.291145563746099,-1.633051236029644e-05,5.907371764657171e-05,-3.432916450996879e-05,6.279710637840069e-05,6.259591621629273e-05
31.9716878365,25.5283121635,8,0,-0.2253492722229202,19.51174336147888,-4.35508072173608,-1.633051236029644e-05,6.261785817451073e-05,-3.484064577388864e-05,6.629085070601653e-05,6.570922848365421e-05
30.5283121635,26.9716878365,8,0,-0.6911880708577174,18.28773974683923,-3.848127997753626,-1.684199362421608e-05,5.907371764657171e-05,-3.078502398202901e-05,6.20759429416512e-05,6.200513113098034e-05
31.9716878365,26.9716878365,8,0,-0.3958430268627895,19.46911992281894,-3.912063155743587,-1.684199362421608e-05,6.261785817451084e-05,-3.12965052459487e-05,6.558845712111777e-05,6.500402305109805e-05
33.0283121635,25.5283121635,8,0,-0.772295876600043,20.15516537159505,-3.908272651594902,-1.859547910239618e-05,6.511436589038419e-05,-3.126618121275922e-05,6.793861146017562e-05,6.788973141070946e-05
34.4716878365,25.5283121635,8,0,-0.4992587604663292,21.24731383612991,-3.963352312000831,-1.859547910239618e-05,6.839081128398876e-05,-3.170681849600665e-05,7.119004411980663e-05,7.073366392636883e-05
33.0283121635,26.9716878365,8,0,-0.9191749710158437,20.1184455979911,-3.498716977394365,-1.903611638564358e-05,6.511436589038419e-05,-2.798973581915492e-05,6.738077835965628e-05,6.710976691568937e-05
34.4716878365,26.9716878365,8,0,-0.6461378548821388,21.21059406252592,-3.553796637800267,-1.903611638564358e-05,6.839081128398865e-05,-2.843037310240213e-05,7.064405767650146e-05,6.986387422160619e-05
35.5283121635,25.5283121635,8,0,-0.9737698493085487,21.84007021690425,-3.397680084797358,-2.058811969131075e-05,7.066724057354042e-05,-2.718144067837886e-05,7.264830830960013e-05,7.270588740850042e-05
36.9716878365,25.5283121635,8,0,-0.7285302588457725,22.82102857875535,-3.447639856439523,-2.058811969131075e-05,7.361011565909373e-05,-2.758111885151619e-05,7.558753428239074e-05,7.525016965013404e-05
35.5283121635,26.9716878365,8,0,-1.106995907020891,21.80676370247616,-3.029820699103228,-2.098779786444778e-05,7.066724057354042e-05,-2.423856559282582e-05,7.224265937811933e-05,7.17794625017841e-05
36.9716878365,26.9716878365,8,0,-0.8617563165581146,22.78772206432727,-3.079780470745339,-2.098779786444778e-05,7.361011565909373e-05,-2.463824376596271e-05,7.518806627411606e-05,7.425883970391929e-05
38.0283121635,25.5283121635,8,0,-1.117411653429901,23.35388427841691,-2.787771817251927,-2.225882471370921e-05,7.562635901367802e-05,-2.230217453801542e-05,7.688062009533463e-05,7.699640207183335e-05
39.4716878365,25.5283121635,8,0,-0.9036113034440465,24.20908567836032,-2.836095301390014,-2.225882471370921e-05,7.819196321350827e-05,-2.268876241112011e-05,7.945720124967955e-05,7.922291552830911e-05
38.0283121635,26.9716878365,8,0,-1.246274277798186,23.32166862232497,-2.467071292273166,-2.264541258681417e-05,7.562635901367846e-05,-1.973657033818533e-05,7.660751947070256e-05,7.596624307097842e-05
39.4716878365,26.9716878365,8,0,-1.032473927812359,24.17687002226828,-2.515394776411294,-2.264541258681417e-05,7.819196321350838e-05,-2.012315821129035e-05,7.91861089609202e-05,7.815157861686127e-05
40.5283121635,25.5283121635,8,0,-1.201596080205829,24.67549016833687,-2.107453123339352,-2.358549959132814e-05,7.992284540284263e-05,-1.685962498671482e-05,8.060488281390405e-05,8.073318849740515e-05
41.97168783650001,25.5283121635,8,0,-1.021324923243419,25.39657479618651,-2.156978782695773,-2.358549959132814e-05,8.208609928639154e-05,-1.725583026156619e-05,8.278591996953476e-05,8.26328175259731e-05
40.5283121635,26.9716878365,8,0,-1.333664505156241,24.64247306209926,-1.837046387895806,-2.398170486617938e-05,7.992284540284263e-05,-1.469637110316645e-05,8.043993964278119e-05,7.963970157589539e-05
41.97168783650001,26.9716878365,8,0,-1.153393348193818,25.36355768994895,-1.886572047252139,-2.398170486617938e-05,8.20860992863917e-05,-1.509257637801712e-05,8.262029625112696e-05,8.151999356217633e-05
43.0283121635,25.5283121635,8,0,-1.228892769842854,25.79240103061239,-1.384379963855286,-2.456637768798704e-05,8.351879751383393e-05,-1.107503971084229e-05,8.380176007811981e-05,8.390292991570001e-05
44.4716878365,25.5283121635,8,0,-1.082980231017483,26.37605118591388,-1.437145108627818,-2.456637768798704e-05,8.526974797973838e-05,-1.149716086902255e-05,8.556979632722757e-05,8.547331246733623e-05
43.0283121635,26.9716878365,8,0,-1.369599822569668,25.75722426743069,-1.165511155617202,-2.498849884616748e-05,8.351879751383393e-05,-9.324089244937619e-06,8.371873508262651e-05,8.27831319526944e-05
44.4716878365,26.9716878365,8,0,-1.223687283744292,26.34087442273219,-1.218276300389754,-2.498849884616748e-05,8.526974797973844e-05,-9.746210403118035e-06,8.548470647791722e-05,8.435379822644628e-05
45.52831216350001,25.5283121635,8,0,-1.204430609803992,26.6992968928219,-0.6440467515834489,-2.521361546563029e-05,8.640129454487325e-05,-5.152374012667592e-06,8.646072394939328e-05,8.650331947285822e-05
46.97168783650001,25.5283121635,8,0,-1.09272292302852,27.14612763992378,-0.7012820113800607,-2.521361546563029e-05,8.774178678617892e-05,-5.610256091040486e-06,8.781140626716753e-05,8.774696839257968e-05
45.52831216350001,26.9716878365,8,0,-1.357057969261651,26.66114005295751,-0.4764852214202673,-2.567149754400329e-05,8.640129454487336e-05,-3.811881771362139e-06,8.643369813364328e-05,8.539039733637697e-05
46.97168783650001,26.9716878365,8,0,-1.245350282486188,27.10797080005937,-0.5337204812168859,-2.567149754400329e-05,8.774178678617892e-05,-4.269763849735087e-06,8.778195939048976e-05,8.665177249815676e-05
48.0283121635,25.5283121635,8,0,-1.134327296887014,27.39665089457475,0.09047769810459122,-2.554716806569824e-05,8.857674470014881e-05,7.238215848367298e-07,8.857789238341096e-05,8.85399112624803e-05
49.47168783650001,25.5283121635,8,0,-1.055939363392076,27.71020262855451,0.02817448924990616,-2.554716806569824e-05,8.951739990208806e-05,2.253959139992493e-07,8.951751028200391e-05,8.946262255091892e-05
48.0283121635,26.9716878365,8,0,-1.300469187166228,27.35511542200495,0.2080595983470183,-2.604559373653589e-05,8.857674470014881e-05,1.664476786776147e-06,8.858278701479104e-05,8.746351388348119e-05
49.47168783650001,26.9716878365,8,0,-1.222081253671281,27.66866715598474,0.1457563894923197,-2.604559373653589e-05,8.951739990208817e-05,1.166051115938558e-06,8.952034124290201e-05,8.841985742910835e-05
50.5283121635,25.5283121635,8,0,-1.024602466575404,27.88960276694476,0.7979271815861797,-2.55904101065971e-05,9.006641082748355e-05,6.383417452689437e-06,9.015442343489012e-05,9.002392648783876e-05
51.97168783650001,25.5283121635,8,0,-0.9779965882241148,28.07602628034992,0.7302364220920763,-2.55904101065971e-05,9.062568136769902e-05,5.84189137673661e-06,9.069904935611188e-05,9.063472607361879e-05
50.5283121635,26.9716878365,8,0,-1.20511115855966,27.8444755939487,0.8678359991130927,-2.613193618254987e-05,9.006641082748355e-05,6.942687992904741e-06,9.017002240280249e-05,8.901136833076081e-05
51.97168783650001,26.9716878365,8,0,-1.158505280208371,28.03089910735385,0.8001452396189893,-2.613193618254987e-05,9.062568136769902e-05,6.401161916951914e-06,9.071335044505261e-05,8.967106262174773e-05
53.0283121635,25.5283121635,8,0,-0.8815546568621908,28.18775302898732,1.457773994015052,-2.537117732514887e-05,9.090605341824918e-05,1.166219195212042e-05,9.119774078083679e-05,9.097310360511816e-05
54.4716878365,25.5283121635,8,0,-0.8643279779503024,28.25665974463488,1.384352072234467,-2.537117732514887e-05,9.111277356519185e-05,1.107481657787573e-05,9.137541840179261e-05,9.128676862757345e-05
53.0283121635,26.9716878365,8,0,-1.077346448277101,28.1388050811336,1.483614012382902,-2.59585526993936e-05,9.090605341824918e-05,1.186891209906322e-05,9.120663560578505e-05,9.005062563660172e-05
54.4716878365,26.9716878365,8,0,-1.060119769365192,28.20771179678123,1.41019209060231,-2.59585526993936e-05,9.111277356519209e-05,1.128153672481848e-05,9.138393083713147e-05,9.042791678691404e-05
55.5283121635,25.5283121635,8,0,-0.7135394895253411,28.30620350727411,2.050288563969227,-2.492828917230038e-05,9.115068281489742e-05,1.640230851175382e-05,9.172724296507941e-05,9.141645743391538e-05
56.97168783650001,25.5283121635,8,0,-0.7221353354141282,28.27182012371896,1.970847916366741,-2.492828917230038e-05,9.104753266423197e-05,1.576678333093393e-05,9.158094842962812e-05,9.145710881957431e-05
55.5283121635,26.9716878365,8,0,-0.9253812164653317,28.25324307553911,2.037394795136044,-2.556381435312035e-05,9.115068281489742e-05,1.629915836108835e-05,9.171697878750669e-05,9.060890037720454e-05
56.97168783650001,26.9716878365,8,0,-0.9339770623541028,28.21885969198403,1.957954147533574,-2.556381435312035e-05,9.104753266423216e-05,1.566363318026859e-05,9.157117934882226e-05,9.072606559092309e-05
58.0283121635,25.5283121635,8,0,-0.5321168887401067,28.2666836548248,2.558680663594879,-2.431612096782818e-05,9.087908120643143e-05,2.046944530875903e-05,9.178133651916131e-05,9.139964700690393e-05
59.47168783650001,25.5283121635,8,0,-0.5618725379630201,28.14766105793314,2.47339776346832,-2.431612096782818e-05,9.052201341575646e-05,1.978718210774656e-05,9.13681366992114e-05,9.120200702952784e-05
58.0283121635,26.9716878365,8,0,-0.7595379557442472,28.20982838807376,2.514047189760478,-2.49983841688406e-05,9.087908120643143e-05,2.011237751808382e-05,9.174531155599851e-05,9.07278971694733e-05
59.47168783650001,26.9716878365,8,0,-0.7892936049671606,28.09080579118211,2.428764289633953,-2.49983841688406e-05,9.052201341575646e-05,1.943011431707162e-05,9.133333415402383e-05,9.061573592141223e-05
60.5283121635,25.5283121635,8,0,-0.3510802782878484,28.09680664271413,2.972098379791738,-2.360090220469242e-05,9.019064547931548e-05,2.37767870383339e-05,9.141941878864021e-05,9.098558835415813e-05
61.9716878365,25.5283121635,8,0,-0.3967674655977902,27.91405789347436,2.881993779310418,-2.360090220469242e-05,8.964239923159618e-05,2.305595023448335e-05,9.080401201034407e-05,9.059196151469228e-05
60.5283121635,26.9716878365,8,0,-0.5913592129046927,28.03673690905992,2.903567598826822,-2.432173900854295e-05,9.019064547931548e-05,2.322854079061458e-05,9.13567334638153e-05,9.046321691783998e-05
61.9716878365,26.9716878365,8,0,-0.6370464002146301,27.85398815982017,2.813462998345529,-2.432173900854295e-05,8.964239923159623e-05,2.250770398676423e-05,9.074307613729008e-05,9.01586884990042e-05
63.0283121635,25.5283121635,8,0,-0.1836878364798391,27.82694244059673,3.287268156431875,-2.284935502921287e-05,8.91931660790934e-05,2.6298145251455e-05,9.071562581649745e-05,9.024818692553586e-05
64.47168783650001,25.5283121635,8,0,-0.2402779655977376,27.60058192412514,3.194207438257683,-2.284935502921287e-05,8.851408452967863e-05,2.555365950606146e-05,8.996117793705352e-05,8.970260412103528e-05
63.0283121635,26.9716878365,8,0,-0.4318497516110451,27.76490196181393,3.202382962755042,-2.359384077460649e-05,8.91931660790934e-05,2.561906370204033e-05,9.062968370529545e-05,8.987952573042378e-05
64.47168783650001,26.9716878365,8,0,-0.4884398807289321,27.53854144534238,3.109322244580859,-2.359384077460649e-05,8.851408452967876e-05,2.487457795664688e-05,8.987730472499153e-05,8.942136728188386e-05
65.5283121635,25.5283121635,8,0,-0.04009680108675173,27.48610834764591,3.507733413023532,-2.211719644159433e-05,8.798762415333631e-05,2.806186730418825e-05,8.974749227092783e-05,8.926224126805984e-05
66.97168783650001,25.5283121635,8,0,-0.1033663800022131,27.23303003198407,3.414092229490739,-2.211719644159433e-05,8.722838920635078e-05,2.731273783592591e-05,8.89081534423425e-05,8.860473038441443e-05
65.5283121635,26.9716878365,8,0,-0.2898066238408692,27.42368089195739,3.412829044650368,-2.286632590985669e-05,8.798762415333631e-05,2.730263235720294e-05,8.964399165317685e-05,8.904292793206331e-05
66.97168783650001,26.9716878365,8,0,-0.3530762027563208,27.17060257629558,3.319187861117558,-2.286632590985669e-05,8.722838920635089e-05,2.655350288894047e-05,8.880685352350088e-05,8.846717084926622e-05
68.0283121635,25.5283121635,8,0,0.07383540368463049,27.09878916150766,3.641496509825497,-2.144275803741531e-05,8.665705699387682e-05,2.913197207860397e-05,8.858536355966633e-05,8.809429434557931e-05
69.47168783650001,25.5283121635,8,0,0.007029263221267179,26.83156459965421,3.549716682812451,-2.144275803741531e-05,8.585538330831645e-05,2.83977334624996e-05,8.770253413308005e-05,8.73572680370537e-05
68.0283121635,26.9716878365,8,0,-0.1709108016834975,27.03760261016564,3.541287299130448,-2.21769966535197e-05,8.665705699387682e-05,2.833029839304359e-05,8.847048686484553e-05,8.801370082973264e-05
69.47168783650001,26.9716878365,8,0,-0.2377169421468386,26.77037804831227,3.449507472117402,-2.21769966535197e-05,8.585538330831672e-05,2.759605977693922e-05,8.758983824615931e-05,8.735055477940205e-05
70.5283121635,25.5283121635,8,0,0.1563601473028351,26.68349087560324,3.698375642298463,-2.084644022911352e-05,8.52620826840881e-05,2.958700513838771e-05,8.728596913543808e-05,8.67972482255465e-05
71.97168783650001,25.5283121635,8,0,0.08808900029756384,26.41040628758216,3.610613811942711,-2.084644022911352e-05,8.444282892002485e-05,2.888491049554169e-05,8.638795586786744e-05,8.600427195572428e-05
70.5283121635,26.9716878365,8,0,-0.07767140031248143,26.62498298869941,3.595968921790547,-2.154853487195947e-05,8.52620826840881e-05,2.876775137432438e-05,8.716520803197137e-05,8.68415447406909e-05
71.97168783650001,26.9716878365,8,0,-0.1459425473177456,26.35189840067836,3.508207091434815,-2.154853487195947e-05,8.444282892002493e-05,2.806565673147852e-05,8.626924632316111e-05,8.611404950364089e-05
73.0283121635,25.5283121635,8,0,0.2089250905869422,26.25278606212273,3.687936255631607,-2.033366855981997e-05,8.384177532632319e-05,2.950349004505285e-05,8.589040677381879e-05,8.540885451878755e-05
74.47168783650001,25.5283121635,8,0,0.1403538245809868,25.97850099809891,3.605866457792979,-2.033366855981997e-05,8.301892013425172e-05,2.884693166234383e-05,8.499405413748884e-05,8.457512009911701e-05
73.0283121635,26.9716878365,8,0,-0.009927703649357689,26.19807286356366,3.585079356622673,-2.099022694252887e-05,8.384177532632319e-05,2.868063485298139e-05,8.576804023607923e-05,8.556377065787137e-05
74.47168783650001,26.9716878365,8,0,-0.07849896965529979,25.92378779953989,3.503009558784072,-2.099022694252887e-05,8.301892013425188e-05,2.802407647027258e-05,8.48735415806807e-05,8.47878761298848e-05
75.5283121635,25.5283121635,8,0,0.2351143379550198,25.81418621928394,3.618197077732617,-1.989898309397109e-05,8.24173044313446e-05,2.894557662186094e-05,8.4425101596444e-05,8.395286848194795e-05
76.97168783650001,25.5283121635,8,0,0.166715215040643,25.54058972762644,3.542941622257368,-1.989898309397109e-05,8.159651495637208e-05,2.834353297805894e-05,8.3538167109629e-05,8.308657986834844e-05
75.5283121635,26.9716878365,8,0,0.03443312335433202,25.76401591563377,3.515598393361076,-2.050102673777315e-05,8.24173044313446e-05,2.812478714688861e-05,8.430414746667683e-05,8.420576258876857e-05
76.97168783650001,26.9716878365,8,0,-0.03396599956002611,25.49041942397634,3.440342937885833,-2.050102673777315e-05,8.15965149563723e-05,2.752274350308666e-05,8.341883599778923e-05,8.339129334658418e-05
78.0283121635,25.5283121635,8,0,0.2397336148360711,25.37128932523419,3.494967573247798,-1.952988389271192e-05,8.099633894888053e-05,2.795974058598239e-05,8.290426492536282e-05,8.244158239832608e-05
79.47168783650001,25.5283121635,8,0,0.1714901255820545,25.09831536821812,3.427107059510457,-1.952988389271192e-05,8.017741707783233e-05,2.741685647608365e-05,8.202780387655975e-05,8.154570515299617e-05
78.0283121635,26.9716878365,8,0,0.05877224486982247,25.32604898274262,3.392602339366736,-2.007276800261067e-05,8.099633894888053e-05,2.714081871493389e-05,8.278670406000153e-05,8.278281479811237e-05
79.47168783650001,26.9716878365,8,0,-0.009471244384205768,25.05307502572651,3.324741825629405,-2.007276800261067e-05,8.017741707783219e-05,2.659793460503524e-05,8.191162875082977e-05,8.193488973048536e-05
80.5283121635,25.5283121635,8,0,0.2281336123223445,24.92488882063197,3.32158888220415,-1.920988349707407e-05,7.957713733616441e-05,2.65727110576332e-05,8.133288023291026e-05,8.087890569966379e-05
81.97168783650001,25.5283121635,8,0,0.1597108721546867,24.65119785996134,3.261206624238242,-1.920988349707407e-05,7.875606445415252e-05,2.608965299390594e-05,8.046331870678077e-05,7.995305295995309e-05
80.5283121635,26.9716878365,8,0,0.06711425774661794,24.88463398198804,3.218954771952657,-1.969294156080125e-05,7.957713733616441e-05,2.575163817562125e-05,8.122000597912457e-05,8.130268153981482e-05
81.97168783650001,26.9716878365,8,0,-0.001308482421028323,24.61094302131745,3.158572513986766,-1.969294156080125e-05,7.875606445415266e-05,2.526858011189413e-05,8.035160652291419e-05,8.042338170949527e-05
83.02831216350002,25.5283121635,8,0,0.2057504812995532,24.47391686211602,3.098879213803694,-1.892073194953424e-05,7.81519335737316e-05,2.479103371042955e-05,7.970975651968473e-05,7.926370773630399e-05
84.47168783650002,25.5283121635,8,0,0.136630199817084,24.19743573618614,3.045610337055519,-1.892073194953424e-05,7.732249019594197e-05,2.436488269644415e-05,7.884059436653239e-05,7.830623430097033e-05
83.02831216350002,26.9716878365,8,0,0.06370014330444196,24.43840427761724,2.99519879157998,-1.934688296351957e-05,7.81519335737316e-05,2.396159033263984e-05,7.960256772897709e-05,7.976857036701562e-05
84.47168783650002,26.9716878365,8,0,-0.005420138178027223,24.16192315168736,2.941929914831808,-1.934688296351957e-05,7.732249019594197e-05,2.353543931865446e-05,7.873437287220434e-05,7.885889234023236e-05
85.5283121635,25.5283121635,8,0,0.1778042782740483,24.01620711809716,2.825147720579086,-1.864399200400077e-05,7.670961935529166e-05,2.260118176463269e-05,7.803058050337175e-05,7.759367012589106e-05
86.97168783650002,25.5283121635,8,0,0.107391703489407,23.73455681895859,2.778216203732705,-1.864399200400077e-05,7.586466845787597e-05,2.222572962986164e-05,7.715379803327509e-05,7.660438203117201e-05
85.5283121635,26.9716878365,8,0,0.05265356668376064,23.98491944019962,2.719528858402139,-1.901944413877166e-05,7.670961935529177e-05,2.175623086721711e-05,7.793018508956816e-05,7.818275162415603e-05
86.97168783650002,26.9716878365,8,0,-0.01775900810087805,23.70326914106107,2.672597341555754,-1.901944413877166e-05,7.586466845787611e-05,2.138077873244603e-05,7.705421845232018e-05,7.724517886147423e-05
88.02831216350002,25.5283121635,8,0,0.1490914391131319,23.54911364454992,2.496194331580251,-1.836219831047791e-05,7.523789051126924e-05,1.996955465264201e-05,7.629116296679431e-05,7.587056163313085e-05
89.47168783650001,25.5283121635,8,0,0.07680491429223668,23.25996754526634,2.454429896105798,-1.836219831047791e-05,7.437045221341849e-05,1.963543916884639e-05,7.539846982206131e-05,7.485501511668578e-05
88.02831216350002,26.9716878365,8,0,0.03771961118123102,23.52127068756695,2.38776454434888,-1.869631379427362e-05,7.523789051126924e-05,1.910211635479104e-05,7.619918700623964e-05,7.655154174538743e-05
89.47168783650001,26.9716878365,8,0,-0.03456691363966868,23.23212458828335,2.346000108874438,-1.869631379427362e-05,7.437045221341844e-05,1.87680008709955e-05,7.530721980924977e-05,7.559406266482401e-05
90.52831216350002,25.5283121635,8,0,0.1238137048212726,23.07004149199906,2.105249276712764,-1.805982933817117e-05,7.372508181053997e-05,1.684199421370211e-05,7.449128749985326e-05,7.410907053234036e-05
91.97168783650001,25.5283121635,8,0,0.0491681687721881,22.77145934780272,2.067080937165995,-1.805982933817117e-05,7.282933537795095e-05,1.653664749732796e-05,7.357539323315512e-05,7.308665854463629e-05
90.52831216350002,26.9716878365,8,0,0.02203146602988948,23.04459593230121,1.993280972639136,-1.836517605454532e-05,7.372508181053997e-05,1.594624778111309e-05,7.441029209128187e-05,7.48934803162544e-05
91.97168783650001,26.9716878365,8,0,-0.05261407001919505,22.74601378810488,1.955112633092351,-1.836517605454532e-05,7.282933537795095e-05,1.564090106473881e-05,7.34951229617513e-05,7.393693282555834e-05
93.02831216350002,25.5283121635,8,0,0.1053924407106157,22.57695007073132,1.642827965053427,-1.772430424631108e-05,7.216192627377172e-05,1.314262372042742e-05,7.263979458786212e-05,7.235405439530138e-05
94.47168783650002,25.5283121635,8,0,0.02808834491562084,22.26773368755134,1.606253614187608,-1.772430424631108e-05,7.123427712423178e-05,1.285002891350087e-05,7.169592668985325e-05,7.137495462510157e-05
93.02831216350002,26.9716878365,8,0,0.007860838401820835,22.55256717015412,1.526871821360938,-1.801689905323747e-05,7.216192627377172e-05,1.221497457088751e-05,7.257368431258714e-05,7.325485095339949e-05
94.47168783650002,26.9716878365,8,0,-0.06944325739315804,22.2433507869742,1.490297470495123,-1.801689905323747e-05,7.123427712423197e-05,1.192237976396099e-05,7.163067141160379e-05,7.234791611435663e-05
95.5283121635,25.5283121635,8,0,0.09621969724273249,22.06889242162425,1.096489722042525,-1.734721090612265e-05,7.05434799914034e-05,8.771917776340197e-06,7.076180764599348e-05,7.071753444561131e-05
96.97168783650002,25.5283121635,8,0,0.01624938764686235,21.74901118324077,1.059022542607573,-1.734721090612265e-05,6.958383627625296e-05,8.472180340860581e-06,6.978977019438261e-05,6.990052888344631e-05
95.5283121635,26.9716878365,8,0,-0.003692781250495436,22.04391430200094,0.9765342576486993,-1.764694834160234e-05,7.05434799914034e-05,7.812274061189594e-06,7.071615281865188e-05,7.174218011113203e-05
96.97168783650002,26.9716878365,8,0,-0.08366309084636114,21.72403306361748,0.9390670782137371,-1.764694834160234e-05,6.958383627625301e-05,7.512536625709897e-06,6.974528713697185e-05,7.099421341332119e-05
98.02831216350002,25.5283121635,8,0,0.09729396626263043,21.54665769011959,0.4504974025011359,-1.692598546005526e-05,6.88714694353726e-05,3.603979220009087e-06,6.890929964180474e-05,6.946243363202886e-05
99.47168783650002,25.5283121635,8,0,0.0150790756089636,21.21779812750493,0.4090911586022179,-1.692598546005526e-05,6.78848907475286e-05,3.272729268817743e-06,6.791645147719888e-05,6.908254070871588e-05
98.02831216350002,26.9716878365,8,0,-0.01312268413447804,21.51905352752032,0.3271750665206322,-1.725723541124658e-05,6.88714694353726e-05,2.617400532165057e-06,6.88913501609245e-05,7.059459357050259e-05
99.47168783650002,26.9716878365,8,0,-0.09533757478813598,21.19019396490569,0.2857688226217244,-1.725723541124658e-05,6.78848907475287e-05,2.286150580973795e-06,6.790023433539726e-05,7.025077855397387e-05
0.5283121635,28.0283121635,8,0,-0.0672625903795509,-1.865035078877779,-0.4812230227404097,1.27678777388766e-06,-5.91430218010525e-06,-3.849784181923278e-06,1.759619096774666e-06,3.924555277901044e-06
1.9716878365,28.0283121635,8,0,0.189220640199076,-0.8391021565632708,-0.5170093179115635,1.27678777388766e-06,-2.836503413161727e-06,-4.136074543292507e-06,2.136744528006988e-06,4.449207507475026e-06
0.5283121635,29.4716878365,8,0,-0.1626927108358343,-1.888892608991849,-0.09649817687252356,9.904974125188098e-07,-5.91430218010525e-06,-7.719854149801884e-07,1.012008197066754e-06,4.143742327316244e-06
1.9716878365,29.4716878365,8,0,0.09379051974279268,-0.8629596866773416,-0.1322844720436501,9.904974125188098e-07,-2.836503413161727e-06,-1.058275776349201e-06,1.062310761944283e-06,4.755229424338735e-06
3.0283121635,28.0283121635,8,0,-0.001413655648487347,-0.2058123236545792,-1.017355482337191,1.601261608485038e-07,-6.574685111758634e-07,-8.138843858697528e-06,3.841232259025845e-06,5.226282118910881e-06
4.4716878365,28.0283121635,8,0,0.2382059524348008,0.7526661086785733,-1.05560729832027,1.601261608485038e-07,2.217966785823594e-06,-8.444858386562164e-06,5.535031436692663e-06,6.824637209141757e-06
3.0283121635,29.4716878365,8,0,-0.103418498270105,-0.2313135343101191,-0.6579260702122046,-1.458883670162406e-07,-6.574685111762971e-07,-5.263408561697637e-06,2.242427455684177e-06,5.619804192472399e-06
4.4716878365,29.4716878365,8,0,0.1362011098132284,0.7271648980232142,-0.696177886195257,-1.458883670162406e-07,2.217966785823702e-06,-5.569423089562056e-06,4.061195599334461e-06,7.370379289033581e-06
5.528312163500001,28.0283121635,8,0,0.1057768414454011,1.363459383175139,-1.506905531960378,-7.522816139148274e-07,4.278448553004122e-06,-1.205524425568303e-05,8.294491435606157e-06,8.272149490931588e-06
6.9716878365,28.0283121635,8,0,0.3352689730490997,2.281427909589933,-1.554189317169802,-7.522816139148274e-07,7.032354132248506e-06,-1.243351453735842e-05,1.047476252282432e-05,1.062847149929861e-05
5.528312163500001,29.4716878365,8,0,-0.02031325244636051,1.331936859702063,-1.162667334554776,-1.130551895590004e-06,4.278448553003689e-06,-9.30133867643821e-06,6.95382256112836e-06,8.904169668521737e-06
6.9716878365,29.4716878365,8,0,0.2091788791573472,2.249905386116894,-1.209951119764227,-1.130551895590004e-06,7.03235413224818e-06,-9.67960895811382e-06,9.281933111640176e-06,1.13439878170607e-05
8.028312163500001,28.0283121635,8,0,0.2254191207031058,2.880192199729667,-1.980148731056095,-1.582812573533795e-06,9.036279742572449e-06,-1.584118984844876e-05,1.326230406342334e-05,1.249148720584207e-05
9.471687836500001,28.0283121635,8,0,0.4521625376181276,3.787165867389755,-2.039863012802211,-1.582812573533795e-06,1.175720074555271e-05,-1.631890410241769e-05,1.562596282881464e-05,1.522501876326698e-05
8.028312163500001,29.4716878365,8,0,0.06618103604693015,2.840382678565623,-1.640033605683521,-2.060526827502322e-06,9.036279742572449e-06,-1.312026884546817e-05,1.207974136905191e-05,1.324717895000637e-05
9.471687836500001,29.4716878365,8,0,0.2929244529619339,3.747356346225638,-1.699747887429638,-2.060526827502322e-06,1.175720074555249e-05,-1.35979830994371e-05,1.454156577680991e-05,1.600697567341061e-05
10.5283121635,28.0283121635,8,0,0.3286534460292615,4.384509529360082,-2.449054566821293,-2.455916596194428e-06,1.376750773712885e-05,-1.959243653457034e-05,1.83745127469382e-05,1.730395896465428e-05
11.9716878365,28.0283121635,8,0,0.5595984324502518,5.308289475044043,-2.521837345484872,-2.455916596194428e-06,1.653884757418073e-05,-2.017469876387898e-05,2.089624387139094e-05,2.025019766355842e-05
10.5283121635,29.4716878365,8,0,0.134566036259689,4.335987676917688,-2.102637087189943,-3.038178825503146e-06,1.376750773712885e-05,-1.682109669751955e-05,1.725352894058107e-05,1.808991747135823e-05
11.9716878365,29.4716878365,8,0,0.365511022680661,5.259767622601577,-2.17541986585355,-3.038178825503146e-06,1.653884757418051e-05,-1.74033589268284e-05,1.98474415414761e-05,2.10208235693977e-05
13.0283121635,28.0283121635,8,0,0.389709223084882,5.913350356887094,-2.910024775379716,-3.483610771638052e-06,1.861095376357079e-05,-2.328019820303773e-05,2.361154838337136e-05,2.246206525884311e-05
14.4716878365,28.0283121635,8,0,0.6305225190251174,6.876603540648036,-2.994129582685394,-3.483610771638052e-06,2.150071331485362e-05,-2.395303666148315e-05,2.631436254531873e-05,2.555876121012883e-05
13.0283121635,29.4716878365,8,0,0.1654297369364253,5.85728048534998,-2.54880483146935,-4.156449230083422e-06,1.861095376357079e-05,-2.03904386517548e-05,2.250897850665545e-05,2.320883329495577e-05
14.4716878365,29.4716878365,8,0,0.4062430328766606,6.820533669110922,-2.632909638775028,-4.156449230083422e-06,2.150071331485362e-05,-2.106327711020022e-05,2.52699604581629e-05,2.625568093484992e-05
15.5283121635,28.0283121635,8,0,0.3887265074159778,7.495782339111669,-3.346762008910451,-4.752701047558205e-06,2.367552227922455e-05,-2.67740960712836e-05,2.898713788751091e-05,2.786908037529676e-05
16.9716878365,28.0283121635,8,0,0.6430539271149851,8.513092017907697,-3.438504925274243,-4.752701047558205e-06,2.672745131561264e-05,-2.750803940219395e-05,3.189007965139234e-05,3.108429376521829e-05
15.5283121635,29.4716878365,8,0,0.1440787304458728,7.434620394869143,-2.965270879362028,-5.48664437846852e-06,2.367552227922455e-05,-2.372216703489622e-05,2.789053677015555e-05,2.851851683789727e-05
16.9716878365,29.4716878365,8,0,0.398406150144889,8.451930073665206,-3.057013795725814,-5.48664437846852e-06,2.672745131561275e-05,-2.445611036580651e-05,3.0843220381727e-05,3.16538518545823e-05
18.0283121635,28.0283121635,8,0,0.3144763860372279,9.149114268798677,-3.733822107623188,-6.31296697971981e-06,2.902558455132598e-05,-2.98705768609855e-05,3.449212834293365e-05,3.346913743398909e-05
19.4716878365,28.0283121635,8,0,0.583367029904764,10.22467684426882,-3.828238576133788,-6.31296697971981e-06,3.225227227773641e-05,-3.062590860907031e-05,3.759293409724327e-05,3.676943811553536e-05
18.0283121635,29.4716878365,8,0,0.06269913667578075,9.086169956458313,-3.330486141821796,-7.068298727804152e-06,2.902558455132598e-05,-2.664388913457437e-05,3.341001178652511e-05,3.397123624726062e-05
19.4716878365,29.4716878365,8,0,0.3315897805433488,10.16173253192859,-3.424902610332369,-7.068298727804152e-06,3.225227227773679e-05,-2.739922088265895e-05,3.65545858054269e-05,3.716711313230906e-05
20.5283121635,28.0283121635,8,0,0.1663625117549468,10.87608740442354,-4.041283743596725,-8.168509885923001e-06,3.467038968475136e-05,-3.233026994877379e-05,4.008570127056722e-05,3.919999704401064e-05
21.9716878365,28.0283121635,8,0,0.4480068357965159,12.00266470058982,-4.133038077205393,-8.168509885923001e-06,3.80501215732502e-05,-3.306430461764314e-05,4.335475547147481e-05,4.254010684613135e-05
20.5283121635,29.4716878365,8,0,-0.07831571120159309,10.8149178486844,-3.61881725753437,-8.90254455479262e-06,3.467038968475136e-05,-2.895053806027496e-05,3.904082534523536e-05,3.951503115527416e-05
21.9716878365,29.4716878365,8,0,0.2033286128399627,11.94149514485063,-3.710571591143073,-8.90254455479262e-06,3.805012157325003e-05,-2.968457272914458e-05,4.234844743892269e-05,4.273378560124574e-05
23.0283121635,28.0283121635,8,0,-0.04525959716437056,12.66390128606826,-4.240328808289502,-1.027595173978059e-05,4.056069179314992e-05,-3.392263046631601e-05,4.570013983834009e-05,4.497917033122066e-05
24.4716878365,28.0283121635,8,0,0.2446798618796633,13.8236591222444,-4.324747342962032,-1.027595173978059e-05,4.403996530167833e-05,-3.459797874369626e-05,4.908153696853043e-05,4.83027058935333e-05
23.0283121635,29.4716878365,8,0,-0.2703756896243985,12.60762226295325,-3.805419619723444,-1.095130001716068e-05,4.056069179314992e-05,-3.044335695778755e-05,4.472243010670167e-05,4.508119317731729e-05
24.4716878365,29.4716878365,8,0,0.01956376941963534,13.76738009912939,-3.889838154396016,-1.095130001716068e-05,4.403996530167833e-05,-3.111870523516812e-05,4.813710506286251e-05,4.82756754955179e-05
25.5283121635,28.0283121635,8,0,-0.3011043523957984,14.48575683357386,-4.308710177468488,-1.255213939452564e-05,4.659530534935298e-05,-3.446968141974791e-05,5.125088021278314e-05,5.070713887926935e-05
26.9716878365,28.0283121635,8,0,-0.009267241343269284,15.65310527778397,-4.382654340586014,-1.255213939452564e-05,5.009735068198332e-05,-3.506123472468811e-05,5.466915417999577e-05,5.395263639766143e-05
25.5283121635,29.4716878365,8,0,-0.4982887873757758,14.43646072482886,-3.870954510889737,-1.314369269946557e-05,4.659530534935298e-05,-3.096763608711789e-05,5.037005684676731e-05,5.058627249201804e-05
26.9716878365,29.4716878365,8,0,-0.2064516763232467,15.60380916903898,-3.944898674007255,-1.314369269946557e-05,5.009735068198332e-05,-3.155918939205804e-05,5.381594330903037e-05,5.370445856434025e-05
28.0283121635,28.0283121635,8,0,-0.5769863337428145,16.3049079292052,-4.234647027976743,-1.489028261134116e-05,5.263729444045088e-05,-3.387717622381394e-05,5.664795737114472e-05,5.627826019421397e-05
29.4716878365,28.0283121635,8,0,-0.2905521617289724,17.45064461726057,-4.296945198766472,-1.489028261134116e-05,5.607450450461699e-05,-3.437556159013177e-05,6.001824518856621e-05,5.938648504756475e-05
28.0283121635,29.4716878365,8,0,-0.7431147891821457,16.26337581534537,-3.804995769956013,-1.538866797765916e-05,5.263729444045088e-05,-3.043996615964811e-05,5.588730795374286e-05,5.594048360219657e-05
29.4716878365,29.4716878365,8,0,-0.4566806171683391,17.40911250340059,-3.867293940745749,-1.538866797765916e-05,5.607450450461656e-05,-3.093835152596599e-05,5.927929783443949e-05,5.893123154055367e-05
30.5283121635,28.0283121635,8,0,-0.8485442224192621,18.08022300666227,-4.018091262557049,-1.717951991707145e-05,5.853554899925466e-05,-3.214473010045639e-05,6.18060321636175e-05,6.159286188325249e-05
31.9716878365,28.0283121635,8,0,-0.5746701778228394,19.17571918504796,-4.069423477193373,-1.717951991707145e-05,6.182203753441173e-05,-3.255538781754699e-05,6.504449416049855e-05,6.45125706458999e-05
30.5283121635,29.4716878365,8,0,-0.9854301281162172,18.04600153023803,-3.60728019566228,-1.759017763416232e-05,5.853554899925466e-05,-2.885824156529824e-05,6.117871828739124e-05,6.10573064373263e-05
31.9716878365,29.4716878365,8,0,-0.7115560835197901,19.14149770862374,-3.658612410298659,-1.759017763416232e-05,6.182203753441178e-05,-2.926889928238927e-05,6.443309072203427e-05,6.387510313789573e-05
33.0283121635,28.0283121635,8,0,-1.095050171189173,19.77165406372857,-3.669384643089333,-1.932148379878821e-05,6.414533314088276e-05,-2.935507714471467e-05,6.665113263246058e-05,6.656615676712638e-05
34.4716878365,28.0283121635,8,0,-0.839977412606391,20.7919450980597,-3.711759766629492,-1.932148379878821e-05,6.720620624387614e-05,-2.969407813303593e-05,6.968287778141723e-05,6.925694962562652e-05
33.0283121635,29.4716878365,8,0,-1.208050500629694,19.74340398136858,-3.286775505215189,-1.966048478710988e-05,6.41453331408832e-05,-2.629420404172151e-05,6.615939209581183e-05,6.586095071669916e-05
34.4716878365,29.4716878365,8,0,-0.9529777420469721,20.76369501569947,-3.329150628755394,-1.966048478710988e-05,6.720620624387587e-05,-2.663320503004316e-05,6.920178769360268e-05,6.846859049773896e-05
35.5283121635,28.0283121635,8,0,-1.301376336590085,21.34423853726109,-3.206354169936986,-2.123979510689714e-05,6.934266438850755e-05,-2.565083335949589e-05,7.112357932392236e-05,7.113219428440436e-05
36.9716878365,28.0283121635,8,0,-1.070039745204073,22.26958490280514,-3.242453057015942,-2.123979510689714e-05,7.211870348513969e-05,-2.593962445612754e-05,7.388703765900208e-05,7.356466511052528e-05
35.5283121635,29.4716878365,8,0,-1.397640035467194,21.32017261254181,-2.859349282857975,-2.152858620352847e-05,6.934266438850755e-05,-2.28747942628638e-05,7.076010835355544e-05,7.029024953503953e-05
36.9716878365,29.4716878365,8,0,-1.166303444081182,22.24551897808586,-2.895448169936863,-2.152858620352847e-05,7.211870348513969e-05,-2.316358535949491e-05,7.352981414122237e-05,7.265947479818347e-05
38.0283121635,28.0283121635,8,0,-1.458218725038532,22.77014771648616,-2.651164410785271,-2.288241809331222e-05,7.403104767278652e-05,-2.120931528628217e-05,7.51778804420915e-05,7.524355273536197e-05
39.4716878365,28.0283121635,8,0,-1.254170192888409,23.58634184508665,-2.683779812328875,-2.288241809331222e-05,7.6479630058588e-05,-2.1470238498631e-05,7.762622582197483e-05,7.739788820068854e-05
38.0283121635,29.4716878365,8,0,-1.545193129154673,22.74840411545719,-2.345091612560154,-2.31433413056607e-05,7.403104767278674e-05,-1.876073290048123e-05,7.492826227445195e-05,7.429928502108979e-05
39.4716878365,29.4716878365,8,0,-1.341144597004559,23.56459824405765,-2.377707014103724,-2.31433413056607e-05,7.64796300585881e-05,-1.902165611282979e-05,7.737948389909091e-05,7.641010460188718e-05
40.5283121635,28.0283121635,8,0,-1.561292548694834,24.02914518701643,-2.027781068895874,-2.421945230543661e-05,7.814229863740843e-05,-1.622224855116699e-05,7.878103674072439e-05,7.886876646409966e-05
41.97168783650001,28.0283121635,8,0,-1.386799828038384,24.72711606964223,-2.059447669970432,-2.421945230543661e-05,8.023621128528584e-05,-1.647558135976345e-05,8.088188523079725e-05,8.07329451463318e-05
40.5283121635,29.4716878365,8,0,-1.645736818227008,24.00803411963339,-1.766041987911191,-2.447278511403313e-05,7.814229863740843e-05,-1.412833590328953e-05,7.862632289149191e-05,7.785601949075516e-05
41.97168783650001,29.4716878365,8,0,-1.471244097570545,24.70600500225924,-1.797708588985715,-2.447278511403313e-05,8.0236211285286e-05,-1.438166871188572e-05,8.072773072624686e-05,7.969551284993329e-05
43.0283121635,28.0283121635,8,0,-1.610172115823256,25.10814452947055,-1.360265969485734,-2.523906639421086e-05,8.163420018696436e-05,-1.088212775588588e-05,8.191049786794626e-05,8.198927826384806e-05
44.4716878365,28.0283121635,8,0,-1.466383444149202,25.68329921616677,-1.393071233714672,-2.523906639421086e-05,8.3359664247053e-05,-1.114456986971737e-05,8.364483367408288e-05,8.355746549004766e-05
43.0283121635,29.4716878365,8,0,-1.697652820433718,25.08627435331794,-1.144582961974661,-2.550150850804225e-05,8.163420018696436e-05,-9.156663695797287e-06,8.182949438848868e-05,8.094022761505728e-05
44.4716878365,29.4716878365,8,0,-1.553864148759646,25.66142904001422,-1.177388226203618,-2.550150850804225e-05,8.335966424705322e-05,-9.419105809628948e-06,8.356302905342529e-05,8.250135823527367e-05
45.52831216350001,28.0283121635,8,0,-1.607133078517611,26.00041931020071,-0.6717808686268947,-2.594316129941692e-05,8.448704825545633e-05,-5.374246949015158e-06,8.455239597391155e-05,8.459679017751768e-05
46.97168783650001,28.0283121635,8,0,-1.494249217630926,26.45195475374745,-0.7073205066299287,-2.594316129941692e-05,8.584165458609656e-05,-5.65856405303943e-06,8.591321811092888e-05,8.586809080316757e-05
45.52831216350001,29.4716878365,8,0,-1.701905446525612,25.97672621819864,-0.5024550772968531,-2.622747840344086e-05,8.448704825545611e-05,-4.019640618374825e-06,8.452352086249348e-05,8.354153723465281e-05
46.97168783650001,29.4716878365,8,0,-1.589021585638908,26.42826166174545,-0.5379947152998735,-2.622747840344086e-05,8.584165458609656e-05,-4.303957722398988e-06,8.588296218416482e-05,8.482222848982727e-05
48.0283121635,28.0283121635,8,0,-1.556166609842212,26.70478396058876,0.01583853854206864,-2.634356031996609e-05,8.670024196175781e-05,1.267083083365491e-07,8.670027746788471e-05,8.669130810008528e-05
49.47168783650001,28.0283121635,8,0,-1.473575109633681,27.03514996142289,-0.02361573321866693,-2.634356031996609e-05,8.769133996426018e-05,-1.889258657493354e-07,8.769141821433573e-05,8.766907895537971e-05
48.0283121635,29.4716878365,8,0,-1.661378001204073,26.6784811127483,0.139725788854899,-2.665919449405167e-05,8.670024196175781e-05,1.117806310839192e-06,8.670299749013698e-05,8.565800004485852e-05
49.47168783650001,29.4716878365,8,0,-1.578786500995524,27.00884711358249,0.1002715170942109,-2.665919449405167e-05,8.769133996426039e-05,8.021721367536868e-07,8.769274676184057e-05,8.666067914164739e-05
50.5283121635,28.0283121635,8,0,-1.462438791458236,27.22498300747506,0.6820767140844372,-2.64597905386464e-05,8.828989665708676e-05,5.456613712675497e-06,8.835472868662942e-05,8.828030180587859e-05
51.97168783650001,28.0283121635,8,0,-1.408756350326691,27.43971277200124,0.6378031287814298,-2.64597905386464e-05,8.89340859506653e-05,5.102425030251438e-06,8.899046248624493e-05,8.897242283296514e-05
50.5283121635,29.4716878365,8,0,-1.580501685599544,27.19546728393973,0.7626003757817406,-2.681397922107032e-05,8.828989665708676e-05,6.100803006253925e-06,8.837067954458232e-05,8.729554907318057e-05
51.97168783650001,29.4716878365,8,0,-1.526819244467999,27.41019704846591,0.7183267904787671,-2.681397922107032e-05,8.89340859506653e-05,5.746614323830137e-06,8.900536846271374e-05,8.802736688561185e-05
53.0283121635,28.0283121635,8,0,-1.332429380352664,27.56951039585608,1.307696695978943,-2.631938233381339e-05,8.928837677102158e-05,1.046157356783154e-05,8.952456632339735e-05,8.937954485108168e-05
54.4716878365,28.0283121635,8,0,-1.305450111325126,27.67742747196623,1.257893005990435,-2.631938233381339e-05,8.961212799935204e-05,1.006314404792348e-05,8.983009468918312e-05,8.979970186241679e-05
53.0283121635,29.4716878365,8,0,-1.465239220322072,27.53630793586373,1.34816559952029,-2.671781185372161e-05,8.928837677102158e-05,1.078532479616232e-05,8.953852063087138e-05,8.846859601749617e-05
54.4716878365,29.4716878365,8,0,-1.438259951294512,27.64422501197397,1.298361909531749,-2.671781185372161e-05,8.961212799935231e-05,1.038689527625399e-05,8.984352461153859e-05,8.894223861120367e-05
55.5283121635,28.0283121635,8,0,-1.174473925659232,27.75179340728637,1.87524896867273,-2.595975128793864e-05,8.974531804384377e-05,1.500199174938184e-05,9.022957028278881e-05,9.001538283232793e-05
56.97168783650001,28.0283121635,8,0,-1.171129697301046,27.76517032071912,1.819474638454852,-2.595975128793864e-05,8.978544878414201e-05,1.455579710763882e-05,9.024127785682345e-05,9.018447718904085e-05
55.5283121635,29.4716878365,8,0,-1.323205472906833,27.71461052047447,1.880265311210016,-2.640594592968144e-05,8.974531804384377e-05,1.504212248968012e-05,9.023029903978925e-05,8.920141980118341e-05
56.97168783650001,29.4716878365,8,0,-1.319861244548633,27.72798743390727,1.824490980992152,-2.640594592968144e-05,8.978544878414217e-05,1.459592784793721e-05,9.024203856293017e-05,8.943587338689686e-05
58.0283121635,28.0283121635,8,0,-0.9989570060120734,27.7901730693962,2.370353556123685,-2.542880087475559e-05,8.97277194268775e-05,1.896282844898948e-05,9.050315031348857e-05,9.022669638595182e-05
59.47168783650001,28.0283121635,8,0,-1.015444529132091,27.72422297691613,2.3086464176207,-2.542880087475559e-05,8.952986914943729e-05,1.84691713409656e-05,9.0266953865269e-05,9.017294702025935e-05
58.0283121635,29.4716878365,8,0,-1.163509375353364,27.74903497706088,2.345622271443661,-2.592245798277947e-05,8.97277194268775e-05,1.876497817154929e-05,9.048395867871081e-05,8.95291402179502e-05
59.47168783650001,29.4716878365,8,0,-1.179996898473381,27.68308488458081,2.283915132940677,-2.592245798277947e-05,8.952986914943729e-05,1.827132106352542e-05,9.024829689349812e-05,8.954949635334627e-05
60.5283121635,28.0283121635,8,0,-0.8175138330611862,27.70697529054735,2.78321990509035,-2.478162449823368e-05,8.931633199620048e-05,2.22657592407228e-05,9.039245097636794e-05,9.006431076139536e-05
61.9716878365,28.0283121635,8,0,-0.8496425059387356,27.57846059903716,2.716270690127593,-2.478162449823368e-05,8.893078792166989e-05,2.173016552102074e-05,8.99596247537795e-05,8.982126034831458e-05
60.5283121635,29.4716878365,8,0,-0.99604507296179,27.66234248057221,2.735026895773999,-2.531721821793549e-05,8.931633199620048e-05,2.188021516619199e-05,9.035106640348802e-05,8.949685031080844e-05
61.9716878365,29.4716878365,8,0,-1.028173745839339,27.53382778906201,2.668077680811283,-2.531721821793549e-05,8.893078792166989e-05,2.134462144649026e-05,8.991917546602384e-05,8.933266251237546e-05
63.0283121635,28.0283121635,8,0,-0.641439446308218,27.52649137730243,3.10948207454726,-2.407379933002824e-05,8.859792396441436e-05,2.487585659637808e-05,8.995462135114259e-05,8.958697308038613e-05
64.47168783650001,28.0283121635,8,0,-0.6850942103697859,27.35187232105616,3.038633897847042,-2.407379933002824e-05,8.807406679567554e-05,2.430907118277634e-05,8.937624988388006e-05,8.91899387738927e-05
63.0283121635,29.4716878365,8,0,-0.8303679175087,27.47925925950231,3.043999928454901,-2.464058474362969e-05,8.859792396441436e-05,2.435199942763921e-05,8.989235480341364e-05,8.915636557167247e-05
64.47168783650001,29.4716878365,8,0,-0.8740226815702563,27.30464020325609,2.973151751754717,-2.464058474362969e-05,8.807406679567568e-05,2.378521401403774e-05,8.931519820440715e-05,8.883890117086553e-05
65.5283121635,28.0283121635,8,0,-0.480050111017766,27.27245732811014,3.349844696265175,-2.335412621774496e-05,8.765590353876666e-05,2.67987575701214e-05,8.925036351327051e-05,8.885513506917563e-05
66.97168783650001,28.0283121635,8,0,-0.531598952271441,27.06626196309544,3.276898976653515,-2.335412621774496e-05,8.703731744372255e-05,2.621519181322812e-05,8.857233488956464e-05,8.833746864378086e-05
65.5283121635,29.4716878365,8,0,-0.674572029982162,27.22382684836904,3.272521434384649,-2.393769197463815e-05,8.765590353876666e-05,2.618017147507719e-05,8.917082347154257e-05,8.85613887624424e-05
66.97168783650001,29.4716878365,8,0,-0.7261208712358371,27.01763148335434,3.199575714773036,-2.393769197463815e-05,8.703731744372255e-05,2.559660571818429e-05,8.849416921456889e-05,8.812067516367432e-05
68.0283121635,28.0283121635,8,0,-0.3396907451601514,26.96588447530026,3.508741846199827,-2.265971796475269e-05,8.656258291708894e-05,2.806993476959862e-05,8.833722910948054e-05,8.792483052122831e-05
69.47168783650001,28.0283121635,8,0,-0.3962251411503503,26.73974689133946,3.435669279682731,-2.265971796475269e-05,8.588417016520654e-05,2.748535423746184e-05,8.759709090297488e-05,8.731514863062167e-05
68.0283121635,29.4716878365,8,0,-0.5345509225390304,26.91716943095554,3.423940252214572,-2.324429849688933e-05,8.656258291708894e-05,2.739152201771658e-05,8.824502093507529e-05,8.776262583894651e-05
69.47168783650001,29.4716878365,8,0,-0.5910853185292204,26.69103184699478,3.350867685697489,-2.324429849688933e-05,8.588417016520665e-05,2.680694148557991e-05,8.75063104821669e-05,8.722513049090089e-05
70.5283121635,28.0283121635,8,0,-0.2235519712935163,26.62378763702842,3.592615199720656,-2.201439641776199e-05,8.537496201552577e-05,2.874092159776525e-05,8.726471155146069e-05,8.684339265071378e-05
71.97168783650001,28.0283121635,8,0,-0.2829494533546777,26.38619770878378,3.521282353516519,-2.201439641776199e-05,8.466219223079183e-05,2.817025882813215e-05,8.649059539724913e-05,8.616421323538277e-05
70.5283121635,29.4716878365,8,0,-0.4137728945045884,26.57623240622566,3.503518976628907,-2.258505918739521e-05,8.537496201552577e-05,2.802815181303126e-05,8.716444009781931e-05,8.680414471963992e-05
71.97168783650001,29.4716878365,8,0,-0.4731703765657498,26.33864247798101,3.432186130424784,-2.258505918739521e-05,8.466219223079183e-05,2.745748904339827e-05,8.639172054503323e-05,8.619148555128809e-05
73.0283121635,28.0283121635,8,0,-0.1320796070942052,26.25885095121322,3.608341233542341,-2.142973550367203e-05,8.413398672955767e-05,2.886672986833873e-05,8.607183765765782e-05,8.564754572706391e-05
74.47168783650001,28.0283121635,8,0,-0.1929391472222486,26.01541279070105,3.54031606644897,-2.142973550367203e-05,8.340367224802115e-05,2.832252853159176e-05,8.528293738290222e-05,8.49151632589877e-05
73.0283121635,29.4716878365,8,0,-0.3134800526764518,26.21350083981766,3.517051923350277,-2.197393684041877e-05,8.413398672955767e-05,2.813641538680221e-05,8.596752196153736e-05,8.57215073334314e-05
74.47168783650001,29.4716878365,8,0,-0.3743395928044881,25.97006267930552,3.449026756256933,-2.197393684041877e-05,8.340367224802123e-05,2.759221405005546e-05,8.517992708451832e-05,8.505016213209342e-05
75.5283121635,28.0283121635,8,0,-0.06364898786890905,25.87976755258808,3.562064216614859,-2.090749080325097e-05,8.286617535857696e-05,2.849651373291887e-05,8.47869279036622e-05,8.436349748663762e-05
76.97168783650001,28.0283121635,8,0,-0.1251618486521524,25.6337161094551,3.498509612292184,-2.090749080325097e-05,8.212802102917804e-05,2.798807689833747e-05,8.399483485703348e-05,8.358870103579262e-05
75.5283121635,29.4716878365,8,0,-0.2331279327294329,25.83739781637295,3.469794925440065,-2.141592763783254e-05,8.286617535857696e-05,2.775835940352052e-05,8.468178128586692e-05,8.454154313494028e-05
76.97168783650001,29.4716878365,8,0,-0.2946407935126691,25.59134637324,3.406240321117364,-2.141592763783254e-05,8.212802102917812e-05,2.724992256893891e-05,8.389086617227537e-05,8.382331539430205e-05
78.0283121635,28.0283121635,8,0,-0.01526210424413499,25.49192906215096,3.458453883398649,-2.0442381983302e-05,8.158638268227836e-05,2.766763106718919e-05,8.342880366763842e-05,8.30083632751111e-05
79.47168783650001,28.0283121635,8,0,-0.07706453372094746,25.24471934424371,3.400088875326137,-2.0442381983302e-05,8.084475352855661e-05,2.720071100260909e-05,8.263915507742846e-05,8.219764747815604e-05
78.0283121635,29.4716878365,8,0,-0.1709021257709251,25.45301905676926,3.365750239183447,-2.090930204788236e-05,8.158638268227836e-05,2.692600191346757e-05,8.332527206994096e-05,8.328334077408133e-05
79.47168783650001,29.4716878365,8,0,-0.2327045552477358,25.20580933886202,3.307385231110914,-2.090930204788236e-05,8.084475352855664e-05,2.645908184888731e-05,8.253665867258135e-05,8.252633041741602e-05
80.5283121635,28.0283121635,8,0,0.0168522206131918,25.09822244266282,3.30029156369003,-2.002465084816804e-05,8.030083004003047e-05,2.640233250952024e-05,8.200880695503363e-05,8.159237592780852e-05
81.97168783650001,28.0283121635,8,0,-0.04518090042220457,24.85008995852124,3.247392993347582,-2.002465084816804e-05,7.955643258760571e-05,2.597914394678066e-05,8.122293144350738e-05,8.074945909676784e-05
80.5283121635,29.4716878365,8,0,-0.1242106336333748,25.06295672910118,3.207241882136945,-2.044783941090774e-05,8.030083004003047e-05,2.565793505709556e-05,8.190876158761006e-05,8.19600598743575e-05
81.97168783650001,29.4716878365,8,0,-0.1862437546687463,24.81482424495969,3.154343311794497,-2.044783941090774e-05,7.9556432587606e-05,2.523474649435598e-05,8.112378089977874e-05,8.116999033649149e-05
83.02831216350002,28.0283121635,8,0,0.0367670045546884,24.69979960890002,3.088264413750574,-1.964218527254501e-05,7.900994514483631e-05,2.470611531000459e-05,8.05332530138918e-05,8.012163510707453e-05
84.47168783650002,28.0283121635,8,0,-0.02561916269395326,24.45025493990546,3.04068567651324,-1.964218527254501e-05,7.826131113785261e-05,2.432548541210592e-05,7.974968547888508e-05,7.924930489998963e-05
83.02831216350002,29.4716878365,8,0,-0.09010962807815215,24.66808045074181,2.994685162877611,-2.002281517044354e-05,7.900994514483631e-05,2.395748130302089e-05,8.043826178197636e-05,8.058136328460596e-05
84.47168783650002,29.4716878365,8,0,-0.1524957953267938,24.41853578174725,2.94710642564027,-2.002281517044354e-05,7.826131113785261e-05,2.357685140512216e-05,7.965546619986195e-05,7.976327380994285e-05
85.5283121635,28.0283121635,8,0,0.04849742144217206,24.29676869328908,2.820865317939871,-1.928222320601632e-05,7.771086188137133e-05,2.256692254351897e-05,7.900619756057246e-05,7.860152798313746e-05
86.97168783650002,28.0283121635,8,0,-0.01443768928912625,24.04502825036389,2.778056114422668,-1.928222320601632e-05,7.695564055259574e-05,2.222444891538135e-05,7.822206214578591e-05,7.770409874133674e-05
85.5283121635,29.4716878365,8,0,-0.06566045460367054,24.26822922427769,2.726462651842957,-1.96246968341539e-05,7.771086188137154e-05,2.181170121474366e-05,7.891782888974272e-05,7.915656477466716e-05
86.97168783650002,29.4716878365,8,0,-0.1285955653349733,24.01648878135248,2.683653448325724,-1.96246968341539e-05,7.695564055259591e-05,2.146922758660579e-05,7.813437447213506e-05,7.831709433947561e-05
88.02831216350002,28.0283121635,8,0,0.05571537141504912,23.88880787181717,2.494325683483373,-1.893275710892558e-05,7.639961289268289e-05,1.995460546786698e-05,7.74326246242217e-05,7.704147537558999e-05
89.47168783650001,28.0283121635,8,0,-0.00794083596700812,23.63418304228894,2.455343225361983,-1.893275710892558e-05,7.56357384040982e-05,1.964274580289587e-05,7.664496278998353e-05,7.612858391581133e-05
88.02831216350002,29.4716878365,8,0,-0.04823785024203975,23.8628195664029,2.398841372410246,-1.924461677389684e-05,7.639961289268289e-05,1.919073097928197e-05,7.735275516797377e-05,7.769901883344032e-05
89.47168783650001,29.4716878365,8,0,-0.1118940576240881,23.6081947368747,2.35985891428885,-1.924461677389684e-05,7.563573840409831e-05,1.88788713143108e-05,7.656573132545975e-05,7.684987558315783e-05
90.52831216350002,28.0283121635,8,0,0.06149510538986203,23.47573029261032,2.102535032976454,-1.858379989684069e-05,7.507314085204112e-05,1.682028026381163e-05,7.58223553166945e-05,7.546260107304898e-05
91.97168783650001,28.0283121635,8,0,-0.002935778602968675,23.218006756639,2.066041941907927,-1.858379989684069e-05,7.429997024412715e-05,1.652833553526342e-05,7.50295294783452e-05,7.455599356935436e-05
90.52831216350002,29.4716878365,8,0,-0.03581980412615948,23.45140156523131,2.005888706987211,-1.887574462538876e-05,7.507314085204112e-05,1.604710965589769e-05,7.575345341319012e-05,7.623305811240588e-05
91.97168783650001,29.4716878365,8,0,-0.1002506881189902,23.19367802925999,1.969395615918694,-1.887574462538876e-05,7.429997024412715e-05,1.575516492734956e-05,7.496129021843451e-05,7.539702469352629e-05
93.02831216350002,28.0283121635,8,0,0.06804593797027891,23.05804244636677,1.636921583582894,-1.822868695558853e-05,7.373129907799745e-05,1.309537266866315e-05,7.419516414983793e-05,7.391196801303691e-05
94.47168783650002,28.0283121635,8,0,0.003006945402107775,22.79788647609409,1.601169020739178,-1.822868695558853e-05,7.295083116717939e-05,1.280935216591342e-05,7.339851346609084e-05,7.305906497542466e-05
93.02831216350002,29.4716878365,8,0,-0.02729422961292371,23.03420740447097,1.539363094730646,-1.851470745833813e-05,7.373129907799745e-05,1.231490475784517e-05,7.414049595418257e-05,7.480644864846482e-05
94.47168783650002,29.4716878365,8,0,-0.09233322218109485,22.77405143419829,1.503610531886944,-1.851470745833813e-05,7.295083116717939e-05,1.202888425509555e-05,7.334462365041439e-05,7.402899830643482e-05
95.5283121635,28.0283121635,8,0,0.07638722001981435,22.63754598571877,1.086283008243284,-1.78655976845116e-05,7.237903737828419e-05,8.690264065946274e-06,7.25877656299726e-05,7.24918099814471e-05
96.97168783650002,28.0283121635,8,0,0.01124540568961763,22.37697872839798,1.049080048441376,-1.78655976845116e-05,7.159733560632183e-05,8.392640387531005e-06,7.179373571883868e-05,7.179494355459959e-05
95.5283121635,29.4716878365,8,0,-0.02282067278527489,22.61274401251749,0.9885702867479718,-1.816322136292687e-05,7.237903737828419e-05,7.908562293983774e-06,7.255140582507338e-05,7.351519120858552e-05
96.97168783650002,29.4716878365,8,0,-0.08796248711547605,22.35217675519669,0.951367326946053,-1.816322136292687e-05,7.159733560632177e-05,7.610938615568424e-06,7.175838251860291e-05,7.288889445394209e-05
98.02831216350002,28.0283121635,8,0,0.08591729462042608,22.21803933320366,0.4365690022376819,-1.749949612377756e-05,7.102899203055536e-05,3.492552017901455e-06,7.106342494968759e-05,7.142371401092945e-05
99.47168783650002,28.0283121635,8,0,0.02166381518271887,21.96102541545283,0.3952416742190167,-1.749949612377756e-05,7.025795027730287e-05,3.161933393752134e-06,7.028642244843558e-05,7.110636246315645e-05
98.02831216350002,29.4716878365,8,0,-0.02428891342932982,22.19048778119122,0.340188783081168,-1.783011474792683e-05,7.102899203055536e-05,2.721510264649344e-06,7.104982524140552e-05,7.255675324139215e-05
99.47168783650002,29.4716878365,8,0,-0.08854239286701482,21.93347386344048,0.2988614550624927,-1.783011474792683e-05,7.025795027730314e-05,2.390891640499941e-06,7.02741707222171e-05,7.227562332802302e-05
0.5283121635,30.5283121635,8,0,-0.06346875985436307,-1.222373086003916,-0.4915490664580231,7.747984372691709e-07,-3.86081886732904e-06,-3.932392531664185e-06,1.496424716736932e-06,4.34236761204109e-06
1.9716878365,30.5283121635,8,0,0.1783134474508309,-0.2552442567831403,-0.5294253412304251,7.747984372691709e-07,-9.594323796667135e-07,-4.2354027298434e-06,2.1960335706968e-06,5.017370392845503e-06
0.5283121635,31.9716878365,8,0,-0.1644721592472994,-1.24762393585215,-0.1288757555001916,4.71788239090362e-07,-3.86081886732904e-06,-1.031006044001533e-06,5.322793442047952e-07,4.665834932185077e-06
1.9716878365,31.9716878365,8,0,0.07731004805789456,-0.2804951066313744,-0.1667520302725935,4.71788239090362e-07,-9.594323796667135e-07,-1.334016242180748e-06,7.34440649276133e-07,5.427530920718046e-06
3.0283121635,30.5283121635,8,0,-0.02964819423385205,0.3437259111251147,-1.070195305351835,-3.698549504484183e-07,1.123641470987449e-06,-8.561562442814682e-06,4.722318527808259e-06,5.940800371915564e-06
4.4716878365,30.5283121635,8,0,0.2028248981399121,1.273618280620171,-1.108429500013819,-3.698549504484183e-07,3.913318579472618e-06,-8.867436000110549e-06,6.695576773065141e-06,7.788655211270079e-06
3.0283121635,31.9716878365,8,0,-0.1316060466657265,0.3182364480172816,-0.721485666791311,-6.757285077441501e-07,1.123641470987882e-06,-5.771885334330488e-06,3.246885220155967e-06,6.424256169665552e-06
4.4716878365,31.9716878365,8,0,0.1008670457080105,1.24812881751223,-0.7597198614532944,-6.757285077441501e-07,3.913318579472727e-06,-6.077758891626355e-06,5.426632555816949e-06,8.385664202559677e-06
5.528312163500001,30.5283121635,8,0,0.02821933565257545,1.860495316420042,-1.582363348245601,-1.398094379047792e-06,5.931009544022075e-06,-1.265890678596481e-05,9.580206370401995e-06,9.374944165880447e-06
6.9716878365,30.5283121635,8,0,0.2551157623917821,2.768081023376869,-1.626447020288774,-1.398094379047792e-06,8.653766664892554e-06,-1.301157616231019e-05,1.184886139337449e-05,1.186091134619103e-05
5.528312163500001,31.9716878365,8,0,-0.08933712312928144,1.831106201724443,-1.242018708136696,-1.750763755393255e-06,5.931009544021641e-06,-9.936149665093572e-06,8.369786722711832e-06,1.002910383403667e-05
6.9716878365,31.9716878365,8,0,0.1375593036099071,2.738691908681197,-1.286102380179937,-1.750763755393255e-06,8.653766664891904e-06,-1.02888190414395e-05,1.07678196977956e-05,1.255765637370084e-05
8.028312163500001,30.5283121635,8,0,0.09018587582484872,3.348498629893425,-2.054852641017216,-2.390204101275224e-06,1.064304691499908e-05,-1.643882112813773e-05,1.461570727550097e-05,1.378445418853255e-05
9.471687836500001,30.5283121635,8,0,0.3161906752537682,4.252517827609103,-2.107725242031928,-2.390204101275224e-06,1.335510450814611e-05,-1.686180193625542e-05,1.701756081997728e-05,1.655370378425787e-05
8.028312163500001,31.9716878365,8,0,-0.05080772688106838,3.313250229216945,-1.715845441873851,-2.813184909392975e-06,1.064304691499908e-05,-1.37267635349908e-05,1.352604711979663e-05,1.449662569373285e-05
9.471687836500001,31.9716878365,8,0,0.1751970725478238,4.217269426932514,-1.76871804288863,-2.813184909392975e-06,1.335510450814579e-05,-1.414974434310904e-05,1.601373466977933e-05,1.726543585093859e-05
10.5283121635,30.5283121635,8,0,0.1351746116704935,4.832821356252739,-2.499910113029757,-3.433698327656612e-06,1.535688865067237e-05,-1.999928090423806e-05,1.968254078924039e-05,1.863401333910777e-05
11.9716878365,30.5283121635,8,0,0.3649178108583229,5.751794153004057,-2.562199756280358,-3.433698327656612e-06,1.811380704092632e-05,-2.049759805024286e-05,2.220987709799958e-05,2.154827514294504e-05
10.5283121635,31.9716878365,8,0,-0.0309311036645139,4.791294927418988,-2.15529531424804,-3.932015473661634e-06,1.535688865067237e-05,-1.724236251398432e-05,1.864844145265683e-05,1.933455238734705e-05
11.9716878365,31.9716878365,8,0,0.1988120955232704,5.710267724170125,-2.217584957498722,-3.932015473661634e-06,1.811380704092578e-05,-1.774067965998978e-05,2.12396590259005e-05,2.22186737346305e-05
13.0283121635,30.5283121635,8,0,0.1441667662140467,6.337617825493256,-2.917166788280154,-4.608760608509655e-06,2.016504362860718e-05,-2.333733430624123e-05,2.479557778068198e-05,2.371620616403019e-05
14.4716878365,30.5283121635,8,0,0.3814304483701261,7.286672554117573,-2.987529189318753,-4.608760608509655e-06,2.301220781448013e-05,-2.390023351455002e-05,2.746465777765867e-05,2.672484205735409e-05
13.0283121635,31.9716878365,8,0,-0.04346630322222622,6.290709558134187,-2.561271265046062,-5.171659816818473e-06,2.016504362860718e-05,-2.049017012036849e-05,2.378929462187474e-05,2.435560658466981e-05
14.4716878365,31.9716878365,8,0,0.1937973789338532,7.239764286758505,-2.63163366608462,-5.171659816818473e-06,2.301220781448013e-05,-2.105306932867696e-05,2.650977458026178e-05,2.730969435630492e-05
15.5283121635,30.5283121635,8,0,0.102790495226901,7.881848841445277,-3.296117348867498,-5.976549488430138e-06,2.513968389644336e-05,-2.636893879093998e-05,2.997483149042147e-05,2.895283739958158e-05
16.9716878365,30.5283121635,8,0,0.3498912087423673,8.870251695507143,-3.371680138923648,-5.976549488430138e-06,2.810489245862896e-05,-2.697344111138918e-05,3.279612497863249e-05,3.203119798050881e-05
15.5283121635,31.9716878365,8,0,-0.09871027825612133,7.831473648074521,-2.925466278594325,-6.581051808879205e-06,2.513968389644336e-05,-2.34037302287546e-05,2.898933673318806e-05,2.948998677832494e-05
16.9716878365,31.9716878365,8,0,0.1483904352593539,8.819876502136422,-3.001029068650435,-6.581051808879205e-06,2.810489245862907e-05,-2.400823254920348e-05,3.185403946843969e-05,3.249256867925916e-05
18.0283121635,30.5283121635,8,0,0.003366247410547807,9.476053093365538,-3.619200560155554,-7.570070482978676e-06,3.032067690084128e-05,-2.895360448124443e-05,3.521864583198227e-05,3.43012562330388e-05
19.4716878365,30.5283121635,8,0,0.2607351734786723,10.50552879763804,-3.69614233276979,-7.570070482978676e-06,3.340910401365877e-05,-2.956913866215832e-05,3.818622759029611e-05,3.742481013442821e-05
18.0283121635,31.9716878365,8,0,-0.2018118128940918,9.424758578289378,-3.233147171053421,-8.185604663892595e-06,3.032067690084128e-05,-2.586517736842737e-05,3.426096794864326e-05,3.470078878846479e-05
19.4716878365,31.9716878365,8,0,0.05555711317402379,10.45423428256184,-3.310088943667637,-8.185604663892595e-06,3.340910401365867e-05,-2.64807115493411e-05,3.726609956557051e-05,3.773117642043212e-05
20.5283121635,30.5283121635,8,0,-0.1538767700763244,11.12028621759473,-3.86549750028205,-9.388634638320017e-06,3.570801731236418e-05,-3.09239800022564e-05,4.050014010958753e-05,3.971589741300758e-05
21.9716878365,30.5283121635,8,0,0.1121499650661506,12.18439315816463,-3.939746017336953,-9.388634638320017e-06,3.890033813407388e-05,-3.151796813869563e-05,4.358815657685666e-05,4.285171036153784e-05
20.5283121635,31.9716878365,8,0,-0.3518728155560287,11.0707872062248,-3.466457397568399,-9.982622774759131e-06,3.570801731236418e-05,-2.773165918054719e-05,3.958665427593878e-05,3.994964012342132e-05
21.9716878365,31.9716878365,8,0,-0.08584608041357633,12.13489414679461,-3.540705914623315,-9.982622774759131e-06,3.890033813407361e-05,-2.832564731698652e-05,4.270724773617539e-05,4.298020804302552e-05
23.0283121635,30.5283121635,8,0,-0.3608259813280332,12.80353839859245,-4.01476713952525,-1.139747385912366e-05,4.125998366055826e-05,-3.2118137116202e-05,4.577109343893057e-05,4.513661446424675e-05
24.4716878365,30.5283121635,8,0,-0.08963009426368096,13.88832194684986,-4.082719805515565,-1.139747385912366e-05,4.451433430533049e-05,-3.266175844412453e-05,4.893481342475621e-05,4.82432756150052e-05
23.0283121635,31.9716878365,8,0,-0.5420330906355786,12.75823662126556,-3.607973308928714,-1.19410951870463e-05,4.125998366055826e-05,-2.886378647142971e-05,4.492275932291816e-05,4.518600538986871e-05
24.4716878365,31.9716878365,8,0,-0.2708372035712263,13.84302016952297,-3.675925974919023,-1.19410951870463e-05,4.451433430533049e-05,-2.940740779935219e-05,4.811432428570904e-05,4.818178789329695e-05
25.5283121635,30.5283121635,8,0,-0.6029457422275608,14.50485016225332,-4.051189095104693,-1.353330650493085e-05,4.689787711299265e-05,-3.240951276083754e-05,5.09689608167504e-05,5.048995929166832e-05
26.9716878365,30.5283121635,8,0,-0.3314782915564285,15.59071996493785,-4.110300520975549,-1.353330650493085e-05,5.015548652104624e-05,-3.28824041678044e-05,5.414931980865118e-05,5.352135209435014e-05
25.5283121635,31.9716878365,8,0,-0.7605762112166929,14.46544254500603,-3.643987919098042,-1.400619791189824e-05,4.689787711299265e-05,-2.915190335278433e-05,5.02065409548127e-05,5.034769312211343e-05
26.9716878365,31.9716878365,8,0,-0.4891087605455606,15.55131234769056,-3.703099344968912,-1.400619791189824e-05,5.015548652104624e-05,-2.96247947597513e-05,5.341000270741936e-05,5.326927374844248e-05
28.0283121635,30.5283121635,8,0,-0.8618953319880873,16.19597700943935,-3.966049215878723,-1.571484666991336e-05,5.251664269579639e-05,-3.172839372702979e-05,5.602478374248965e-05,5.569610344447293e-05
29.4716878365,30.5283121635,8,0,-0.595796229801099,17.2603734181873,-4.01514314004184,-1.571484666991336e-05,5.570983192204024e-05,-3.212114512033472e-05,5.915503556419184e-05,5.860624182440816e-05
28.0283121635,31.9716878365,8,0,-0.9928124630898143,16.16324772666392,-3.566900562598275,-1.610759806321854e-05,5.251664269579639e-05,-2.85352045007862e-05,5.536479786576829e-05,5.536622102919923e-05
29.4716878365,31.9716878365,8,0,-0.726713360902826,17.22764413541187,-3.615994486761386,-1.610759806321854e-05,5.570983192204024e-05,-2.892795589409108e-05,5.85134207936154e-05,5.817360691493458e-05
30.5283121635,30.5283121635,8,0,-1.118574267192017,17.84499463624272,-3.758842273873315,-1.785543336400863e-05,5.799884224973032e-05,-3.007073819098652e-05,6.087035768116005e-05,6.067695487225154e-05
31.9716878365,30.5283121635,8,0,-0.8635323264986496,18.86516239901619,-3.798096575608215,-1.785543336400863e-05,6.105934553805073e-05,-3.038477260486572e-05,6.388308880425767e-05,6.342410974716072e-05
30.5283121635,31.9716878365,8,0,-1.22325240515166,17.81882510175281,-3.376279362833217,-1.816946777788756e-05,5.799884224973032e-05,-2.701023490266573e-05,6.032249663571593e-05,6.017337051761096e-05
31.9716878365,31.9716878365,8,0,-0.9682104644582887,18.8389928645263,-3.415533664568124,-1.816946777788756e-05,6.105934553805078e-05,-2.732426931654499e-05,6.334905727295228e-05,6.28294403977467e-05
33.0283121635,30.5283121635,8,0,-1.355750657059934,19.41996741161643,-3.436788782089543,-1.987437603188493e-05,6.322849624282052e-05,-2.749431025671635e-05,6.544355550091437e-05,6.536272168933546e-05
34.4716878365,30.5283121635,8,0,-1.116940103173511,20.37520962716212,-3.467458877054863,-1.987437603188493e-05,6.609422288945759e-05,-2.773967101643891e-05,6.827652986705806e-05,6.791195313683261e-05
33.0283121635,31.9716878365,8,0,-1.437537576967499,19.39952068163968,-3.078572951259977,-2.011973679160773e-05,6.322849624282095e-05,-2.462858361007981e-05,6.500980251897072e-05,6.47067407231416e-05
34.4716878365,31.9716878365,8,0,-1.198727023081125,20.35476289718517,-3.109243046225371,-2.011973679160773e-05,6.609422288945743e-05,-2.487394436980297e-05,6.785248558811208e-05,6.717955071326834e-05
35.5283121635,30.5283121635,8,0,-1.559717749797024,20.8919070623088,-3.013259014402198,-2.170462244919751e-05,6.810187679922577e-05,-2.410607211521758e-05,6.969139548386277e-05,6.969569408820099e-05
36.9716878365,30.5283121635,8,0,-1.341443929872196,21.76500234200811,-3.037277623218568,-2.170462244919751e-05,7.07211626383237e-05,-2.429822098574854e-05,7.229145043063148e-05,7.201973354759067e-05
35.5283121635,31.9716878365,8,0,-1.623767373307262,20.87589465643124,-2.685848284514971,-2.189677131972823e-05,6.810187679922577e-05,-2.148678627611976e-05,6.936657398659606e-05,6.891328314881706e-05
36.9716878365,31.9716878365,8,0,-1.405493553382435,21.74898993613055,-2.709866893331307,-2.189677131972823e-05,7.07211626383237e-05,-2.167893514665046e-05,7.197283568797781e-05,7.117711825954098e-05
38.0283121635,30.5283121635,8,0,-1.720901297336085,22.23664636484783,-2.505790865964674,-2.329620124335373e-05,7.25339894053819e-05,-2.004632692771739e-05,7.357111737849555e-05,7.363134631446587e-05
39.4716878365,30.5283121635,8,0,-1.526447214499698,23.01446269619337,-2.525378103950669,-2.329620124335373e-05,7.486743839941855e-05,-2.020302483160536e-05,7.589615230164813e-05,7.571031481649304e-05
38.0283121635,31.9716878365,8,0,-1.773133931965343,22.22358820619058,-2.21410974171008,-2.345289914724156e-05,7.253398940538212e-05,-1.771287793368064e-05,7.33443073270486e-05,7.275077154582208e-05
39.4716878365,31.9716878365,8,0,-1.578679849128965,23.00140453753609,-2.233696979696021,-2.345289914724156e-05,7.486743839941866e-05,-1.786957583756817e-05,7.567278402328004e-05,7.478623716689863e-05
40.5283121635,30.5283121635,8,0,-1.83369025456386,23.43568356351791,-1.934249215337581,-2.461635566541868e-05,7.646113960690839e-05,-1.547399372270065e-05,7.70499396633965e-05,7.713764789382534e-05
41.97168783650001,30.5283121635,8,0,-1.665304948139324,24.10922478921605,-1.951612869372089,-2.461635566541868e-05,7.848176328400283e-05,-1.561290295497671e-05,7.906950671662085e-05,7.89582258785594e-05
40.5283121635,31.9716878365,8,0,-1.879993331989313,23.42410779416155,-1.681671255700722,-2.475526489769504e-05,7.646113960690839e-05,-1.345337004560578e-05,7.690622742102527e-05,7.618776716555979e-05
41.97168783650001,31.9716878365,8,0,-1.711608025564758,24.09764901985977,-1.699034909735203,-2.475526489769504e-05,7.848176328400304e-05,-1.359227927788162e-05,7.892723397091725e-05,7.798135270932026e-05
43.0283121635,30.5283121635,8,0,-1.895858307272158,24.47629766071565,-1.319394513394858,-2.564778471184342e-05,7.98408391601078e-05,-1.055515610715887e-05,8.010421790870287e-05,8.019359454794073e-05
44.4716878365,30.5283121635,8,0,-1.754821584945257,25.04044455002325,-1.336543501758432,-2.564778471184342e-05,8.15332798280306e-05,-1.069234801406746e-05,8.179928593078e-05,8.174810653417873e-05
43.0283121635,31.9716878365,8,0,-1.941588942908264,24.46486500180662,-1.107839429904494,-2.578497661875174e-05,7.98408391601078e-05,-8.862715439235955e-06,8.002642342825372e-05,7.920280572267138e-05
44.4716878365,31.9716878365,8,0,-1.800552220581345,25.0290118911143,-1.124988418268021,-2.578497661875174e-05,8.153327982803082e-05,-8.999907346144169e-06,8.172163645541174e-05,8.074629187058616e-05
45.52831216350001,30.5283121635,8,0,-1.907867785041899,25.35126756902966,-0.6819051688124582,-2.63861909673578e-05,8.265035044892842e-05,-5.455241350499666e-06,8.271854102519562e-05,8.27876934311117e-05
46.97168783650001,30.5283121635,8,0,-1.794580033030129,25.80441857707674,-0.7005668793643219,-2.63861909673578e-05,8.400980347306967e-05,-5.604535034914575e-06,8.408088983818525e-05,8.407338566629826e-05
45.52831216350001,31.9716878365,8,0,-1.957632346513572,25.33882642866168,-0.5119735407947961,-2.653548465177276e-05,8.265035044892821e-05,-4.095788326358369e-06,8.268874733602239e-05,8.178340680164371e-05
46.97168783650001,31.9716878365,8,0,-1.844344594501783,25.79197743670883,-0.5306352513466666,-2.653548465177276e-05,8.400980347306967e-05,-4.245082010773333e-06,8.405054261915104e-05,8.307337133878697e-05
48.0283121635,30.5283121635,8,0,-1.872265647084005,26.05845700624179,-0.041785053965095,-2.683801567566224e-05,8.488487493764092e-05,-3.3428043172076e-07,8.488512498299045e-05,8.491685429160194e-05
49.47168783650001,30.5283121635,8,0,-1.786325090632044,26.40221923204963,-0.06339935141063985,-2.683801567566224e-05,8.591616161506444e-05,-5.071948112851188e-07,8.591673198256989e-05,8.593556119543331e-05
48.0283121635,31.9716878365,8,0,-1.929903773605485,26.04404747461142,0.08712578071287257,-2.701093005522668e-05,8.488487493764092e-05,6.970062457029805e-07,8.488596035141957e-05,8.392531449303171e-05
49.47168783650001,31.9716878365,8,0,-1.84396321715352,26.38780970041928,0.06551148326732771,-2.701093005522668e-05,8.591616161506449e-05,5.240918661386217e-07,8.591676968616835e-05,8.496290193854455e-05
50.5283121635,30.5283121635,8,0,-1.793326284951247,26.60044838246278,0.5819922792985505,-2.701900281781421e-05,8.655609585184187e-05,4.655938234388404e-06,8.660379262069617e-05,8.658599699032238e-05
51.97168783650001,30.5283121635,8,0,-1.733572437365449,26.83946377280597,0.5562490042167609,-2.701900281781421e-05,8.727314202287145e-05,4.449992033734088e-06,8.731644099570046e-05,8.734431372526496e-05
50.5283121635,31.9716878365,8,0,-1.861975018502669,26.58328619907492,0.6716230506772614,-2.722494901846847e-05,8.655609585184187e-05,5.372984405418091e-06,8.661949148471877e-05,8.563221738195311e-05
51.97168783650001,31.9716878365,8,0,-1.802221170916871,26.82230158941811,0.645879775595438,-2.722494901846847e-05,8.727314202287145e-05,5.167038204763504e-06,8.73314065418475e-05,8.64232337342007e-05
53.0283121635,30.5283121635,8,0,-1.676978562477601,26.984309274356,1.171836813838275,-2.695377881941312e-05,8.769137252792126e-05,9.374694510706197e-06,8.78826987055071e-05,8.780848700002036e-05
54.4716878365,30.5283121635,8,0,-1.641513494303472,27.12616954705252,1.141056286426259,-2.695377881941312e-05,8.811695334601081e-05,9.128450291410073e-06,8.829770720783747e-05,8.831831523527909e-05
53.0283121635,31.9716878365,8,0,-1.759059968909516,26.96378892274802,1.225034416099462,-2.720002303870886e-05,8.769137252792126e-05,9.8002753287957e-06,8.789998545024225e-05,8.691598445925084e-05
54.4716878365,31.9716878365,8,0,-1.723594900735377,27.10564919544457,1.194253888687515,-2.720002303870886e-05,8.811695334601092e-05,9.554031109500118e-06,8.831450319842928e-05,8.74711881233639e-05
55.5283121635,30.5283121635,8,0,-1.530840813568395,27.22140448788692,1.712125581947375,-2.66758141937284e-05,8.833316701209286e-05,1.3697004655579e-05,8.873954260572582e-05,8.860703598929118e-05
56.97168783650001,30.5283121635,8,0,-1.517080321654901,27.2764464555409,1.675738186070505,-2.66758141937284e-05,8.849829291505479e-05,1.340590548856404e-05,8.88870818518978e-05,8.888600752322656e-05
55.5283121635,31.9716878365,8,0,-1.627873869239949,27.19714622396904,1.732766319817637,-2.696691336074306e-05,8.833316701209286e-05,1.386213055854109e-05,8.874832121440589e-05,8.779711224708057e-05
56.97168783650001,31.9716878365,8,0,-1.614113377326442,27.25218819162307,1.696378923940787,-2.696691336074306e-05,8.849829291505496e-05,1.35710313915263e-05,8.889568795654345e-05,8.813234984841169e-05
58.0283121635,30.5283121635,8,0,-1.364021852840844,27.32698943920398,2.190050800848979,-2.622646148045388e-05,8.85375836877254e-05,1.752040640679183e-05,8.920241869305021e-05,8.901415633307951e-05
59.47168783650001,30.5283121635,8,0,-1.368836979153645,27.30772893395277,2.147938814181944,-2.622646148045388e-05,8.847980217197178e-05,1.718351051345555e-05,8.911977328625057e-05,8.908529385860675e-05
58.0283121635,31.9716878365,8,0,-1.476320483952891,27.29891478142597,2.182828111379803,-2.656335737379002e-05,8.85375836877254e-05,1.746262489103843e-05,8.919615433901165e-05,8.830475036247537e-05
59.47168783650001,31.9716878365,8,0,-1.481135610265692,27.27965427617476,2.140716124712728,-2.656335737379002e-05,8.847980217197178e-05,1.712572899770183e-05,8.911365884310343e-05,8.844051972483726e-05
60.5283121635,30.5283121635,8,0,-1.186456416815456,27.31931064283717,2.596466189232739,-2.565210904807919e-05,8.837095919053131e-05,2.077172951386191e-05,8.930924137279829e-05,8.907117240190821e-05
61.9716878365,30.5283121635,8,0,-1.206421670115637,27.23944962963644,2.549048058822843,-2.565210904807919e-05,8.813137615092912e-05,2.039238447058275e-05,8.903784037574826e-05,8.896145433920206e-05
60.5283121635,31.9716878365,8,0,-1.312904764575159,27.28769855589724,2.566518309282499,-2.60314540913583e-05,8.837095919053131e-05,2.053214647425999e-05,8.928489946405438e-05,8.847565917767057e-05
61.9716878365,31.9716878365,8,0,-1.332870017875346,27.2078375426965,2.51910017887261,-2.60314540913583e-05,8.813137615092906e-05,2.015280143098088e-05,8.901393090428127e-05,8.843589258580349e-05
63.0283121635,30.5283121635,8,0,-1.007853695072451,27.21817693713719,2.926326797681325,-2.499967337394159e-05,8.790444915489695e-05,2.34106143814506e-05,8.910522335787679e-05,8.882542288778084e-05
64.47168783650001,30.5283121635,8,0,-1.039553115338567,27.09137925607272,2.874543926572277,-2.499967337394159e-05,8.752405611170357e-05,2.299635141257822e-05,8.868697233417819e-05,8.856349611376116e-05
63.0283121635,31.9716878365,8,0,-1.145941351363184,27.1836550230645,2.878777667282169,-2.541393634281379e-05,8.790444915489695e-05,2.303022133825735e-05,8.906274421616894e-05,8.835187816967093e-05
64.47168783650001,31.9716878365,8,0,-1.177640771629288,27.05685734200009,2.826994796173147,-2.541393634281379e-05,8.75240561117037e-05,2.261595836938518e-05,8.864514521304646e-05,8.816211310808579e-05
65.5283121635,30.5283121635,8,0,-0.8366117531569293,27.04327659408072,3.17847013359025,-2.431177888536674e-05,8.720777450358383e-05,2.5427761068722e-05,8.863886644440514e-05,8.83262263216057e-05
66.97168783650001,30.5283121635,8,0,-0.8769204514674707,26.88204180083855,3.123662797376781,-2.431177888536674e-05,8.672407012385734e-05,2.498930237901424e-05,8.811270279543769e-05,8.793991996832778e-05
65.5283121635,31.9716878365,8,0,-0.9827646497261986,27.0067383699384,3.118007086124445,-2.475023757507455e-05,8.720777450358383e-05,2.494405668899556e-05,8.858032126081989e-05,8.797749689191382e-05
66.97168783650001,31.9716878365,8,0,-1.02307334803674,26.84550357669624,3.063199749910956,-2.475023757507455e-05,8.672407012385734e-05,2.450559799928764e-05,8.805495814166339e-05,8.766288107099454e-05
68.0283121635,30.5283121635,8,0,-0.6790499121468914,26.81266309575109,3.35479654015867,-2.362309019547093e-05,8.6343761836121e-05,2.683837232126936e-05,8.795761220045024e-05,8.762074188623829e-05
69.47168783650001,30.5283121635,8,0,-0.7253263442263274,26.62755736743335,3.298509335918949,-2.362309019547093e-05,8.578844465116777e-05,2.638807468735159e-05,8.735703738236834e-05,8.713503750254825e-05
68.0283121635,31.9716878365,8,0,-0.8291491234527868,26.77513829292462,3.285381892039523,-2.407338782938861e-05,8.6343761836121e-05,2.628305513631619e-05,8.788627934429427e-05,8.739531240092606e-05
69.47168783650001,31.9716878365,8,0,-0.8754255555321979,26.59003256460698,3.229094687799816,-2.407338782938861e-05,8.578844465116807e-05,2.583275750239853e-05,8.728658474750506e-05,8.69789170206735e-05
70.5283121635,30.5283121635,8,0,-0.5391197284368614,26.54172966058796,3.459126666054621,-2.295856685946832e-05,8.536483069663094e-05,2.767301332843696e-05,8.710428155964993e-05,8.675075222398504e-05
71.97168783650001,30.5283121635,8,0,-0.5892878669107233,26.34105710669251,3.402904270113289,-2.295856685946832e-05,8.47628130349446e-05,2.722323416090632e-05,8.64561512147245e-05,8.618656970199493e-05
70.5283121635,31.9716878365,8,0,-0.6890461176137306,26.50424806329374,3.383874458343807,-2.340834602699893e-05,8.536483069663094e-05,2.707099566675046e-05,8.702385496626834e-05,8.664412914418065e-05
71.97168783650001,31.9716878365,8,0,-0.7392142560875907,26.3035755093983,3.327652062402504,-2.340834602699893e-05,8.476281303494463e-05,2.662121649922003e-05,8.63766249295141e-05,8.614586703605779e-05
73.0283121635,30.5283121635,8,0,-0.4185384054995591,26.24277027241132,3.496044499791081,-2.233353911552764e-05,8.431169559611586e-05,2.796835599832865e-05,8.611492295933397e-05,8.57508711244465e-05
74.47168783650001,30.5283121635,8,0,-0.471076580618405,26.03261757193594,3.441263206114865,-2.233353911552764e-05,8.368123749468971e-05,2.753010564891892e-05,8.543934831255746e-05,8.512470299573815e-05
73.0283121635,31.9716878365,8,0,-0.5646218553028195,26.20624940996051,3.417237237112819,-2.277178946493742e-05,8.431169559611586e-05,2.733789789690255e-05,8.602896462533912e-05,8.575713288703852e-05
74.47168783650001,31.9716878365,8,0,-0.6171600304216494,25.99609670948519,3.36245594343661,-2.277178946493742e-05,8.36812374946899e-05,2.689964754749288e-05,8.535426405631575e-05,8.519335354935855e-05
75.5283121635,30.5283121635,8,0,-0.3171837030678395,25.92503669983135,3.469928558100524,-2.175501720968216e-05,8.321386440191458e-05,2.775942846480419e-05,8.501812402143951e-05,8.464816294132593e-05
76.97168783650001,30.5283121635,8,0,-0.3710527809162523,25.7095603884377,3.417681920092007,-2.175501720968216e-05,8.256743546773362e-05,2.734145536073605e-05,8.432913865319656e-05,8.397239942948309e-05
75.5283121635,31.9716878365,8,0,-0.4565080710905223,25.89020560782568,3.389124941327918,-2.217299031375021e-05,8.321386440191458e-05,2.711299953062334e-05,8.492977422624289e-05,8.476140802117441e-05
76.97168783650001,31.9716878365,8,0,-0.5103771489389173,25.6747292964321,3.336878303319434,-2.217299031375021e-05,8.256743546773384e-05,2.669502642655547e-05,8.424160533043128e-05,8.414509022970296e-05
78.0283121635,30.5283121635,8,0,-0.2335900183146604,25.59512175238025,3.38424320378716,-2.122358546051111e-05,8.209126162226851e-05,2.707394563029728e-05,8.383551445842894e-05,8.346288838966321e-05
79.47168783650001,30.5283121635,8,0,-0.2881318687247356,25.37695435073995,3.335278430445462,-2.122358546051111e-05,8.143675941734761e-05,2.66822274435637e-05,8.31421591724442e-05,8.274664185364162e-05
78.0283121635,31.9716878365,8,0,-0.364162747225909,25.5624785701524,3.30243042817203,-2.161530364724483e-05,8.20912616222684e-05,2.641944342537624e-05,8.374741430247859e-05,8.36784440988614e-05
79.47168783650001,31.9716878365,8,0,-0.4187045976359824,25.34431116851211,3.253465654830319,-2.161530364724483e-05,8.143675941734753e-05,2.602772523864255e-05,8.305480136217339e-05,8.301986095166405e-05
80.5283121635,30.5283121635,8,0,-0.1654386787225208,25.25750777075395,3.241070424125314,-2.073540998851522e-05,8.095637580939063e-05,2.592856339300251e-05,8.258311791763007e-05,8.221007046324516e-05
81.97168783650001,30.5283121635,8,0,-0.2202661969888462,25.03819769768864,3.195761815865385,-2.073540998851522e-05,8.029844559019473e-05,2.556609452692308e-05,8.189069444579161e-05,8.146037669875336e-05
80.5283121635,31.9716878365,8,0,-0.2862616340822592,25.22730203191401,3.158829146725819,-2.109787885459444e-05,8.095637580939063e-05,2.527063317380655e-05,8.249747984394356e-05,8.252542814799651e-05
81.97168783650001,31.9716878365,8,0,-0.341089152348574,25.00799195884875,3.113520538465924,-2.109787885459444e-05,8.029844559019486e-05,2.490816430772739e-05,8.180572192570748e-05,8.183319575458796e-05
83.02831216350002,30.5283121635,8,0,-0.1099929592308841,24.91516869946387,3.040821716210651,-2.028411242910992e-05,7.981653420566909e-05,2.43265737296852e-05,8.127330177421175e-05,8.090171443246981e-05
84.47168783650002,30.5283121635,8,0,-0.1648826399084395,24.69560997675365,2.999165780124809,-2.028411242910992e-05,7.915785803753843e-05,2.399332624099848e-05,8.058466159903107e-05,8.012511450113849e-05
83.02831216350002,31.9716878365,8,0,-0.2210754554597161,24.88739807540667,2.958487195194338,-2.061735991779642e-05,7.981653420566909e-05,2.36678975615547e-05,8.119206833981344e-05,8.131720186720265e-05
84.47168783650002,31.9716878365,8,0,-0.2759651361372715,24.66783935269644,2.916831259108501,-2.061735991779642e-05,7.915785803753843e-05,2.3334650072868e-05,8.05040270097201e-05,8.059971274381967e-05
85.5283121635,30.5283121635,8,0,-0.0644696717950719,24.57016708587613,2.78206414952489,-1.986243661844513e-05,7.867611041223964e-05,2.225651319619912e-05,7.991722600292934e-05,7.954975590649363e-05
86.97168783650002,30.5283121635,8,0,-0.1192599068507016,24.35100614565361,2.743683706830613,-1.986243661844513e-05,7.801862759157209e-05,2.19494696546449e-05,7.923405711877051e-05,7.875444692461696e-05
85.5283121635,31.9716878365,8,0,-0.1668175189797427,24.54458012407999,2.699878796941449,-2.016948015999917e-05,7.867611041223975e-05,2.159903037553159e-05,7.984226868501945e-05,8.006893726424501e-05
86.97168783650002,31.9716878365,8,0,-0.2216077540353769,24.32541918385745,2.661498354247172,-2.016948015999917e-05,7.801862759157215e-05,2.129198683397738e-05,7.915965410581982e-05,7.933632080995663e-05
88.02831216350002,30.5283121635,8,0,-0.02636340098589685,24.22422834169831,2.461405884022808,-1.946374555651351e-05,7.753862141422329e-05,1.969124707218247e-05,7.852785217541184e-05,7.817017789223484e-05
89.47168783650001,30.5283121635,8,0,-0.08085660464022659,24.00625552708099,2.425554471202345,-1.946374555651351e-05,7.688470297037133e-05,1.940443576961876e-05,7.785199796782234e-05,7.73692341922866e-05
88.02831216350002,31.9716878365,8,0,-0.1219671685071999,24.20032739981798,2.37966607854128,-1.975055685907742e-05,7.753862141422329e-05,1.903732862833024e-05,7.846116879562572e-05,7.879986492151221e-05
89.47168783650001,31.9716878365,8,0,-0.1764603721615297,23.98235458520066,2.343814665720803,-1.975055685907742e-05,7.688470297037133e-05,1.875051732576642e-05,7.778585844874899e-05,7.806685663248857e-05
90.52831216350002,30.5283121635,8,0,0.006248470231608572,23.87930169184826,2.073402721940379,-1.908344624873746e-05,7.640876663772913e-05,1.658722177552303e-05,7.712372355515848e-05,7.678939801048973e-05
91.97168783650001,30.5283121635,8,0,-0.04761517961420481,23.66384709246501,2.038964389530463,-1.908344624873746e-05,7.576240283957937e-05,1.63117151162437e-05,7.645861985914086e-05,7.600619980163486e-05
90.52831216350002,31.9716878365,8,0,-0.08558708286150196,23.85634280357498,1.992607247171713,-1.935895290801679e-05,7.640876663772913e-05,1.59408579773737e-05,7.706758669417607e-05,7.753888983904028e-05
91.97168783650001,31.9716878365,8,0,-0.1394507327073153,23.64088820419173,1.9581689147618,-1.935895290801679e-05,7.576240283957937e-05,1.56653513180944e-05,7.640306195756002e-05,7.682946602359259e-05
93.02831216350002,30.5283121635,8,0,0.03438610502133344,23.53813373123397,1.610463200702359,-1.872047144891891e-05,7.529451905593165e-05,1.288370560561887e-05,7.573385802287077e-05,7.545542067000252e-05
94.47168783650002,30.5283121635,8,0,-0.01827376755105448,23.32749424094442,1.575946053963743,-1.872047144891891e-05,7.466260058506299e-05,1.260756843170994e-05,7.508621320485367e-05,7.473386230742523e-05
93.02831216350002,31.9716878365,8,0,-0.05765961961497279,23.5151223000749,1.531473391843801,-1.899660862282783e-05,7.529451905593165e-05,1.225178713475041e-05,7.569083950537495e-05,7.633396457018169e-05
94.47168783650002,31.9716878365,8,0,-0.1103194921873492,23.30448280978539,1.496956245105167,-1.899660862282783e-05,7.466260058506312e-05,1.197564996084134e-05,7.504386247769894e-05,7.568965323962904e-05
95.5283121635,30.5283121635,8,0,0.05779570087605901,23.2048906655757,1.062744066734439,-1.837896628965717e-05,7.420941356914138e-05,8.501952533875512e-06,7.440417738621141e-05,7.425945336447485e-05
96.97168783650002,30.5283121635,8,0,0.007278077375011627,23.00282017157151,1.026268763870419,-1.837896628965717e-05,7.360320208712882e-05,8.21015011096335e-06,7.378604415625686e-05,7.368490239129155e-05
95.5283121635,31.9716878365,8,0,-0.03947177342799524,23.18057379699968,0.9869676314828411,-1.867076871256933e-05,7.420941356914138e-05,7.895741051862728e-06,7.43769156600811e-05,7.526943416146324e-05
96.97168783650002,31.9716878365,8,0,-0.08998939692905328,22.97850330299545,0.9504923286188276,-1.867076871256933e-05,7.360320208712868e-05,7.603938628950621e-06,7.375958978164484e-05,7.476568562010837e-05
98.02831216350002,30.5283121635,8,0,0.07448547008975037,22.8858723702592,0.4180416298087667,-1.807034439192015e-05,7.317520320875763e-05,3.344333038470134e-06,7.320583705894293e-05,7.338134325081416e-05
99.47168783650002,30.5283121635,8,0,0.02756020347901966,22.69817130381628,0.3773290087147154,-1.807034439192015e-05,7.261210000942885e-05,3.018632069717723e-06,7.26372140675269e-05,7.312655522907596e-05
98.02831216350002,31.9716878365,8,0,-0.03408151949439109,22.85873062286316,0.3476537298926764,-1.839604536067258e-05,7.317520320875763e-05,2.781229839141411e-06,7.319631643061055e-05,7.450112582160185e-05
99.47168783650002,31.9716878365,8,0,-0.0810067861051218,22.67102955642024,0.3069411087986182,-1.839604536067258e-05,7.261210000942885e-05,2.455528870388946e-06,7.262866040910914e-05,7.4282083551766e-05
0.5283121635,33.0283121635,8,0,-0.05947962593874472,-0.5475879862808328,-0.4889648751453031,2.477355860206832e-07,-1.704697855347669e-06,-3.911719001162424e-06,1.45747071104518e-06,4.966024513297659e-06
1.9716878365,33.0283121635,8,0,0.1664437736084394,0.3561056119079036,-0.5276040043457423,2.477355860206832e-07,1.00638293921854e-06,-4.220832034765938e-06,2.771293908840757e-06,5.785263914960183e-06
0.5283121635,34.4716878365,8,0,-0.1625173038067272,-0.5733474057478285,-0.1500797758244863,-6.137744758326433e-08,-1.704697855347669e-06,-1.20063820659589e-06,1.345617375026041e-07,5.462690380690933e-06
1.9716878365,34.4716878365,8,0,0.06340609574045689,0.330346192440908,-0.1887189050250068,-6.137744758326433e-08,1.00638293921854e-06,-1.509751240200054e-06,1.39709198581948e-06,6.352448102942456e-06
3.0283121635,33.0283121635,8,0,-0.05099549590029612,0.9176039961017053,-1.089168915208145,-8.972687837623117e-07,2.977129184245694e-06,-8.713351321665156e-06,5.807881827231747e-06,6.825100448117987e-06
4.4716878365,33.0283121635,8,0,0.1717626770916925,1.80863668806966,-1.126592131799948,-8.972687837623117e-07,5.650227260149557e-06,-9.012737054399584e-06,7.946468772671871e-06,8.846747286729638e-06
3.0283121635,34.4716878365,8,0,-0.1507907401451415,0.8926551850403585,-0.75503165572027,-1.19665451649674e-06,2.97712918424526e-06,-6.04025324576216e-06,4.561242974482835e-06,7.436771585069895e-06
4.4716878365,34.4716878365,8,0,0.07196743284685614,1.783687877008349,-0.7924548723120735,-1.19665451649674e-06,5.650227260149232e-06,-6.339638978496587e-06,6.892373484962169e-06,9.509440707956482e-06
5.528312163500001,33.0283121635,8,0,-0.03295990618742117,2.366695438158015,-1.611302183265141,-1.998828050326159e-06,7.599793327055585e-06,-1.289041746612113e-05,1.083628369982104e-05,1.051835863790744e-05
6.9716878365,33.0283121635,8,0,0.1881413831310654,3.251100595431962,-1.651934043388087,-1.998828050326159e-06,1.025300879887742e-05,-1.32154723471047e-05,1.313758724648795e-05,1.306363894141656e-05
5.528312163500001,34.4716878365,8,0,-0.1413115331820793,2.339607531409215,-1.279650249287384,-2.323882931310026e-06,7.599793327055151e-06,-1.023720199429907e-05,9.766763919407347e-06,1.120086795183013e-05
6.9716878365,34.4716878365,8,0,0.07978975613641626,3.224012688683198,-1.320282109410398,-2.323882931310026e-06,1.02530087988771e-05,-1.056225687528318e-05,1.217643659166936e-05,1.374926399670901e-05
8.028312163500001,33.0283121635,8,0,-0.01793441297793419,3.80780462553456,-2.07800074983863,-3.103633821957037e-06,1.219932233209294e-05,-1.662400599870904e-05,1.584538870616318e-05,1.500548760632289e-05
9.471687836500001,33.0283121635,8,0,0.2040832527396226,4.695875288404787,-2.124318297094149,-3.103633821957037e-06,1.486353432070362e-05,-1.699454637675319e-05,1.824556525246002e-05,1.776543651617319e-05
8.028312163500001,34.4716878365,8,0,-0.1414478723258665,3.776926260697848,-1.744974251262214,-3.47417420000105e-06,1.219932233209381e-05,-1.395979401009771e-05,1.485702905839769e-05,1.568355270041436e-05
9.471687836500001,34.4716878365,8,0,0.08056979339159986,4.664996923567713,-1.791291798517813,-3.47417420000105e-06,1.48635343207034e-05,-1.433033438814251e-05,1.733115329611183e-05,1.841973167078969e-05
10.5283121635,33.0283121635,8,0,-0.02034274594944119,5.254318067858216,-2.500884121211876,-4.268551241324783e-06,1.683009201390584e-05,-2.000707296969501e-05,2.081895902884663e-05,1.982157832915234e-05
11.9716878365,33.0283121635,8,0,0.2053675495056173,6.15715924967845,-2.553523579943684,-4.268551241324783e-06,1.953861555936654e-05,-2.042818863954947e-05,2.332015315129376e-05,2.267911332016672e-05
10.5283121635,34.4716878365,8,0,-0.1607146359009008,5.219225095370351,-2.162318678029383,-4.689666911179163e-06,1.683009201390584e-05,-1.729854942423507e-05,1.987546369337882e-05,2.045161889858578e-05
11.9716878365,34.4716878365,8,0,0.06499565955410347,6.122066277190368,-2.214958136761177,-4.689666911179163e-06,1.953861555936589e-05,-1.771966509408942e-05,2.243277371575673e-05,2.326665907003565e-05
13.0283121635,33.0283121635,8,0,-0.05355046844638189,6.720262563370022,-2.881742736010446,-5.547571549724439e-06,2.154768057754117e-05,-2.305394188808357e-05,2.578795014843485e-05,2.479118181945653e-05
14.4716878365,33.0283121635,8,0,0.1781448782316646,7.647043950082208,-2.939756579159816,-5.547571549724439e-06,2.432802473767773e-05,-2.351805263327853e-05,2.84010791076693e-05,2.7703925277813e-05
13.0283121635,34.4716878365,8,0,-0.2082540501780525,6.681586667937104,-2.534199715993309,-6.01168229491945e-06,2.154768057754117e-05,-2.027359772794647e-05,2.487455670537498e-05,2.53417950708236e-05
14.4716878365,34.4716878365,8,0,0.02344129649999394,7.60836805464929,-2.592213559142692,-6.01168229491945e-06,2.432802473767773e-05,-2.073770847314154e-05,2.753308874187997e-05,2.819613188638273e-05
15.5283121635,33.0283121635,8,0,-0.1275916209294237,8.216646586100627,-3.214426874245031,-6.981610455854655e-06,2.639534237226554e-05,-2.571541499396025e-05,3.077404154252474e-05,2.984919988847794e-05
16.9716878365,33.0283121635,8,0,0.111381100168896,9.172537470493905,-3.275657406063186,-6.981610455854655e-06,2.926301502544537e-05,-2.620525924850549e-05,3.350355367142027e-05,3.279745566289479e-05
15.5283121635,34.4716878365,8,0,-0.2908730391111236,8.175826231555201,-2.855967792597593,-7.471454710399755e-06,2.639534237226554e-05,-2.284774234078074e-05,2.988851521913417e-05,3.029343897745913e-05
16.9716878365,34.4716878365,8,0,-0.05190031801282213,9.131717115948407,-2.917198324415741,-7.471454710399755e-06,2.926301502544516e-05,-2.333758659532593e-05,3.26562041818153e-05,3.316905169403881e-05
18.0283121635,33.0283121635,8,0,-0.2475387145611281,9.748768710933707,-3.48728416758517,-8.591138855342575e-06,3.139409084663676e-05,-2.789827334068136e-05,3.577939761394457e-05,3.496198646224466e-05
19.4716878365,33.0283121635,8,0,-0.001327484115732691,10.73361363271529,-3.54883489688279,-8.591138855342575e-06,3.434862561198151e-05,-2.839067917506232e-05,3.861710985975426e-05,3.792733880645072e-05
18.0283121635,34.4716878365,8,0,-0.4116739926880517,9.707734891401977,-3.117967321917056,-9.083544689723346e-06,3.139409084663676e-05,-2.494373857533645e-05,3.49283096573686e-05,3.52760592224344e-05
19.4716878365,34.4716878365,8,0,-0.1654627622426292,10.69257981318367,-3.179518051214683,-9.083544689723346e-06,3.434862561198183e-05,-2.543614440971747e-05,3.77987422978602e-05,3.815689812560633e-05
20.5283121635,33.0283121635,8,0,-0.4126445645120982,11.31457245387844,-3.685993366929122,-1.037212056954147e-05,3.653674750402069e-05,-2.948794693543298e-05,4.07860177250179e-05,4.009545851053041e-05
21.9716878365,33.0283121635,8,0,-0.1606841130861838,12.3224142595821,-3.744760820477538,-1.037212056954147e-05,3.956027292113167e-05,-2.995808656382031e-05,4.37090674615261e-05,4.305351935501309e-05
20.5283121635,34.4716878365,8,0,-0.5693577739746138,11.27539415151282,-3.308052689790129,-1.084226019792901e-05,3.653674750402069e-05,-2.646442151832103e-05,3.998179716476215e-05,4.026009904239341e-05
21.9716878365,34.4716878365,8,0,-0.3173973225487132,12.28323595721642,-3.366820143338586,-1.084226019792901e-05,3.95602729211315e-05,-2.693456114670869e-05,4.293297147402387e-05,4.312531190265349e-05
23.0283121635,33.0283121635,8,0,-0.6164088310180258,12.90416551444384,-3.796520876504454,-1.229584067081275e-05,4.17864567110347e-05,-3.037216701203563e-05,4.575886722856675e-05,4.520496331790825e-05
24.4716878365,33.0283121635,8,0,-0.3615320140056411,13.92367278249338,-3.849716046194936,-1.229584067081275e-05,4.484497851518332e-05,-3.079772836955949e-05,4.873059028175686e-05,4.812475668994238e-05
23.0283121635,34.4716878365,8,0,-0.7582626168594739,12.86870206798348,-3.414205650985856,-1.27214020283371e-05,4.17864567110347e-05,-2.731364520788685e-05,4.501671126881203e-05,4.520736641489873e-05
24.4716878365,34.4716878365,8,0,-0.5033857998470892,13.88820933603301,-3.467400820676399,-1.27214020283371e-05,4.484497851518332e-05,-2.773920656541119e-05,4.801234281513578e-05,4.803043226646252e-05
25.5283121635,33.0283121635,8,0,-0.8475905241947115,14.500538241398,-3.807792135844982,-1.431272027054147e-05,4.707979479182936e-05,-3.046233708675985e-05,5.06508499889234e-05,5.023529822190836e-05
26.9716878365,33.0283121635,8,0,-0.5936647067371972,15.51624151122805,-3.853360042162193,-1.431272027054147e-05,5.012690460131952e-05,-3.082688033729755e-05,5.362390125073506e-05,5.30816115469347e-05
25.5283121635,34.4716878365,8,0,-0.9691049410406358,14.47015963718652,-3.426903409658745,-1.467726352107925e-05,4.707979479182936e-05,-2.741522727726996e-05,4.998561459361443e-05,5.007049581357833e-05
26.9716878365,34.4716878365,8,0,-0.7151791235831215,15.48586290701657,-3.472471315975936,-1.467726352107925e-05,5.012690460131952e-05,-2.777977052780749e-05,5.297852905643713e-05,5.282098722364106e-05
28.0283121635,33.0283121635,8,0,-1.091948674757035,16.08131670553377,-3.713644976248093,-1.635928912364953e-05,5.233377239751368e-05,-2.970915980998474e-05,5.54083950056002e-05,5.512512619681613e-05
29.4716878365,33.0283121635,8,0,-0.8434349134606105,17.07537175071947,-3.750505147702134,-1.635928912364953e-05,5.531593753307077e-05,-3.000404118161707e-05,5.832925921122109e-05,5.786179872151457e-05
28.0283121635,34.4716878365,8,0,-1.190242465301018,16.05674325789778,-3.340874334303504,-1.665417049528147e-05,5.233377239751368e-05,-2.672699467442803e-05,5.483192345343567e-05,5.479632528054891e-05
29.4716878365,34.4716878365,8,0,-0.9417287040046078,17.05079830308341,-3.377734505757504,-1.665417049528147e-05,5.531593753307061e-05,-2.702187604606003e-05,5.776874972743072e-05,5.74425578043122e-05
30.5283121635,33.0283121635,8,0,-1.334283390670746,17.62116033844542,-3.513779503742375,-1.836663512090272e-05,5.745513979556194e-05,-2.8110236029939e-05,5.997668647485684e-05,5.981257441643717e-05
31.9716878365,33.0283121635,8,0,-1.095763046213786,18.57524171627326,-3.541859101849175,-1.836663512090272e-05,6.031738392904546e-05,-2.83348728147934e-05,6.279056264734945e-05,6.240552020466432e-05
30.5283121635,34.4716878365,8,0,-1.409162318955617,17.6024406063742,-3.155998987056861,-1.859127190575733e-05,5.745513979556194e-05,-2.524799189645489e-05,5.949600084858172e-05,5.933044549145629e-05
31.9716878365,34.4716878365,8,0,-1.170641974498634,18.55652198420213,-3.184078585163674,-1.859127190575733e-05,6.031738392904573e-05,-2.547262868130939e-05,6.232216471404898e-05,6.184201804817361e-05
33.0283121635,33.0283121635,8,0,-1.560295919727096,19.09428880178285,-3.213689288935491,-2.026837798455299e-05,6.234996090148681e-05,-2.570951431148393e-05,6.430385031478482e-05,6.424014710230725e-05
34.4716878365,33.0283121635,8,0,-1.336057634247393,19.99124194370167,-3.233781105375287,-2.026837798455299e-05,6.504082032724324e-05,-2.58702488430023e-05,6.69589961909696e-05,6.665949521158615e-05
33.0283121635,34.4716878365,8,0,-1.613874096899923,19.08089425748972,-2.877331860715943,-2.042911251607152e-05,6.234996090148702e-05,-2.301865488572754e-05,6.392038656646273e-05,6.362137058983996e-05
34.4716878365,34.4716878365,8,0,-1.38963581142022,19.97784739940853,-2.897423677155801,-2.042911251607152e-05,6.504082032724346e-05,-2.31793894172464e-05,6.658449862851399e-05,6.597107958173859e-05
35.5283121635,33.0283121635,8,0,-1.757922156629033,20.47667145170058,-2.823819096894447,-2.200668806257337e-05,6.693168637074507e-05,-2.259055277515558e-05,6.834377943681184e-05,6.835805905036624e-05
36.9716878365,33.0283121635,8,0,-1.551665266994342,21.30169901023934,-2.837337753836665,-2.200668806257337e-05,6.940676904636136e-05,-2.269870203069332e-05,7.079476210293352e-05,7.057927364873105e-05
35.5283121635,34.4716878365,8,0,-1.793971908474858,20.46765901373912,-2.514433762442424,-2.211483731811084e-05,6.693168637074507e-05,-2.011547009953939e-05,6.8053565336691e-05,6.762356954313138e-05
36.9716878365,34.4716878365,8,0,-1.587715018840167,21.29268657227789,-2.527952419384595,-2.211483731811084e-05,6.940676904636136e-05,-2.022361935507676e-05,7.051066262872739e-05,6.978854708494732e-05
38.0283121635,33.0283121635,8,0,-1.918028729387815,21.7476056747178,-2.358322880751229,-2.353577647381524e-05,7.112676114260719e-05,-1.886658304600983e-05,7.205765138217527e-05,7.212587268129404e-05
39.4716878365,33.0283121635,8,0,-1.732693469375699,22.48894671476626,-2.36703877614082,-2.353577647381524e-05,7.335078426275258e-05,-1.893631020912656e-05,7.426738004832697e-05,7.413004521900786e-05
38.0283121635,34.4716878365,8,0,-1.941271117093498,21.74179507779138,-2.08031999073311,-2.360550363693229e-05,7.112676114260719e-05,-1.664255992586488e-05,7.185214773266065e-05,7.129919200238258e-05
39.4716878365,34.4716878365,8,0,-1.755935857081396,22.48313611783978,-2.0890358861227,-2.360550363693229e-05,7.335078426275242e-05,-1.67122870889816e-05,7.406568429026291e-05,7.326137312737088e-05
40.5283121635,33.0283121635,8,0,-2.034564805698039,22.89063905129256,-1.833765426331625,-2.482311861926777e-05,7.487769680869462e-05,-1.4670123410653e-05,7.541445293106268e-05,7.551282105770332e-05
41.97168783650001,33.0283121635,8,0,-1.872266511176307,23.53983222937948,-1.839574249150537,-2.482311861926777e-05,7.682527634295539e-05,-1.47165939932043e-05,7.735517883730082e-05,7.728646236694476e-05
40.5283121635,34.4716878365,8,0,-2.050054999881824,22.88676650274661,-1.590317984549001,-2.486958920181912e-05,7.487769680869462e-05,-1.272254387639201e-05,7.52817431625112e-05,7.461871472685573e-05
41.97168783650001,34.4716878365,8,0,-1.887756705360075,23.53595968083361,-1.596126807367913,-2.486958920181912e-05,7.682527634295561e-05,-1.276901445894331e-05,7.722453470380755e-05,7.636485981504442e-05
43.0283121635,33.0283121635,8,0,-2.104360497923728,23.89395353936373,-1.267986341027219,-2.584911642484691e-05,7.814413972430292e-05,-1.014389072821775e-05,7.839092234334733e-05,7.84973784716329e-05
44.4716878365,33.0283121635,8,0,-1.966391978592458,24.44582761668881,-1.272741503794574,-2.584911642484691e-05,7.979976195627816e-05,-1.01819320303566e-05,8.004451637900825e-05,8.00320214842435e-05
43.0283121635,34.4716878365,8,0,-2.117040931969885,23.8907834308522,-1.061033562030253,-2.588715772698538e-05,7.814413972430292e-05,-8.488268496242022e-06,7.831699919601655e-05,7.756090420593957e-05
44.4716878365,34.4716878365,8,0,-1.979072412638597,24.44265750817735,-1.065788724797541,-2.588715772698538e-05,7.979976195627837e-05,-8.526309798380328e-06,7.997144841953422e-05,7.908241316192312e-05
45.52831216350001,33.0283121635,8,0,-2.126767544985126,24.75039316769292,-0.6792110183571372,-2.660597067810673e-05,8.090267217260544e-05,-5.433688146857098e-06,8.097128557637049e-05,8.106658742427648e-05
46.97168783650001,33.0283121635,8,0,-2.013635502039691,25.20292133947466,-0.6846207334522104,-2.660597067810673e-05,8.226025668795064e-05,-5.476965867617684e-06,8.232909851119977e-05,8.235843112373648e-05
45.52831216350001,34.4716878365,8,0,-2.141193451905329,24.74678669096301,-0.5095129539389731,-2.664924839886746e-05,8.090267217260587e-05,-4.076103631511785e-06,8.094127831508483e-05,8.011248709484408e-05
46.97168783650001,34.4716878365,8,0,-2.028061408959931,25.1993148627446,-0.5149226690340735,-2.664924839886746e-05,8.226025668795064e-05,-4.119381352272588e-06,8.229919552478558e-05,8.140519245927261e-05
48.0283121635,33.0283121635,8,0,-2.103297282493173,25.45730568742197,-0.08539193565728584,-2.709639585391573e-05,8.314601602574484e-05,-6.831354852582868e-07,8.314707430631815e-05,8.321550955995611e-05
49.47168783650001,33.0283121635,8,0,-2.014767699252245,25.81142402038569,-0.09296475125401452,-2.709639585391573e-05,8.420837102463599e-05,-7.437180100321162e-07,8.420961335755755e-05,8.426524769441936e-05
48.0283121635,34.4716878365,8,0,-2.123491457417783,25.45225714369082,0.0474024392041212,-2.715697837868956e-05,8.314601602574484e-05,3.792195136329696e-07,8.314634196207902e-05,8.226782621781833e-05
49.47168783650001,34.4716878365,8,0,-2.034961874176827,25.80637547665464,0.03982962360737897,-2.715697837868956e-05,8.420837102463631e-05,3.186369888590317e-07,8.42085989441001e-05,8.333188011016098e-05
50.5283121635,33.0283121635,8,0,-2.037349631112283,26.01631819734909,0.4963048292485976,-2.733257337743858e-05,8.488209793640691e-05,3.970438633988781e-06,8.49172079890822e-05,8.49470097644514e-05
51.97168783650001,33.0283121635,8,0,-1.97249120156469,26.27575191553947,0.4852937022240263,-2.733257337743858e-05,8.566039909097803e-05,3.88234961779221e-06,8.569373787375329e-05,8.575988024406823e-05
50.5283121635,34.4716878365,8,0,-2.066712636511149,26.00897744599938,0.5935924735700547,-2.742066239363517e-05,8.488209793640691e-05,4.748739788560438e-06,8.493227581768547e-05,8.402876734799319e-05
51.97168783650001,34.4716878365,8,0,-2.001854206963555,26.26841116418975,0.5825813465454495,-2.742066239363517e-05,8.566039909097803e-05,4.660650772363596e-06,8.570840104768387e-05,8.486864479663533e-05
53.0283121635,33.0283121635,8,0,-1.934038074052875,26.4330906827838,1.049987405177305,-2.733539438319623e-05,8.613312064415044e-05,8.399899241418442e-06,8.628836613801177e-05,8.627187945376455e-05
54.4716878365,33.0283121635,8,0,-1.891271561837547,26.60415673164511,1.03453775870885,-2.733539438319623e-05,8.664631879073438e-05,8.276302069670804e-06,8.67963584909569e-05,8.685781682853268e-05
53.0283121635,34.4716878365,8,0,-1.975237131302134,26.42279091847148,1.114137173500291,-2.745899155494401e-05,8.613312064415044e-05,8.913097388002326e-06,8.630769570421842e-05,8.540465439406123e-05
54.4716878365,34.4716878365,8,0,-1.93247061908681,26.59385696733278,1.098687527031829,-2.745899155494401e-05,8.664631879073433e-05,8.789500216254634e-06,8.681533163608365e-05,8.602918239899345e-05
55.5283121635,33.0283121635,8,0,-1.800012561246556,26.71699904600563,1.561591841802767,-2.713363943279348e-05,8.693440699621526e-05,1.249273473442214e-05,8.727543854699004e-05,8.720904010465149e-05
56.97168783650001,33.0283121635,8,0,-1.777189772256175,26.80829020196715,1.541041225203655,-2.713363943279348e-05,8.720828046409983e-05,1.232832980162924e-05,8.753962995059088e-05,8.758266256508152e-05
55.5283121635,34.4716878365,8,0,-1.854814205510873,26.70329863493955,1.595826025288386,-2.729804436558644e-05,8.693440699621526e-05,1.276660820230709e-05,8.72899988198914e-05,8.641232087516166e-05
56.97168783650001,34.4716878365,8,0,-1.831991416520483,26.79458979090111,1.575275408689233,-2.729804436558644e-05,8.720828046409994e-05,1.260220326951386e-05,8.755397644342936e-05,8.683454665350003e-05
58.0283121635,33.0283121635,8,0,-1.643132563471822,26.88063111589582,2.019489485548918,-2.676252909582648e-05,8.733252562164405e-05,1.615591588439134e-05,8.790160856116854e-05,8.778535088936376e-05
59.47168783650001,33.0283121635,8,0,-1.637668345543946,26.90248798760732,1.993583064208717,-2.676252909582648e-05,8.739809623677856e-05,1.594866451366973e-05,8.795242652959615e-05,8.796548322899736e-05
58.0283121635,34.4716878365,8,0,-1.712216353712222,26.86336016833572,2.027685812440732,-2.696978046654768e-05,8.733252562164405e-05,1.622148649952585e-05,8.790518439150623e-05,8.707573110994216e-05
59.47168783650001,34.4716878365,8,0,-1.706752135784346,26.88521704004722,2.001779391100578,-2.696978046654768e-05,8.739809623677856e-05,1.601423512880462e-05,8.795596888110837e-05,8.731243352062757e-05
60.5283121635,33.0283121635,8,0,-1.471899975719404,26.93899501603251,2.415009497203896,-2.62612759351281e-05,8.738230403187953e-05,1.932007597763117e-05,8.819758676095174e-05,8.803456115613164e-05
61.9716878365,33.0283121635,8,0,-1.480959619159749,26.90275644227113,2.383942008376875,-2.62612759351281e-05,8.727358831059541e-05,1.9071536067015e-05,8.806892385757888e-05,8.804315322311844e-05
60.5283121635,34.4716878365,8,0,-1.554746612591414,26.9182833568145,2.401420032043319,-2.650981584574412e-05,8.738230403187953e-05,1.921136025634655e-05,8.81867664567618e-05,8.742497217435558e-05
61.9716878365,34.4716878365,8,0,-1.563806256031771,26.88204478305307,2.370352543216319,-2.650981584574412e-05,8.727358831059524e-05,1.896282034573055e-05,8.805824971190761e-05,8.749573108348353e-05
63.0283121635,33.0283121635,8,0,-1.29470547733414,26.9084507024342,2.742684685285392,-2.56698180894166e-05,8.714280662965675e-05,2.194147748228314e-05,8.819977978816198e-05,8.799526240872509e-05
64.47168783650001,33.0283121635,8,0,-1.315421016980336,26.82558854384942,2.707082314834683,-2.56698180894166e-05,8.689422015390239e-05,2.165665851867746e-05,8.792640861604795e-05,8.785583020359428e-05
63.0283121635,34.4716878365,8,0,-1.389645131869309,26.88471578880041,2.711611375816124,-2.595463705302211e-05,8.714280662965675e-05,2.1692891006529e-05,8.817362387942559e-05,8.749451474910976e-05
64.47168783650001,34.4716878365,8,0,-1.410360671515487,26.8018536302157,2.676009005365422,-2.595463705302211e-05,8.689422015390261e-05,2.140807204292338e-05,8.790055447742886e-05,8.742043275267354e-05
65.5283121635,33.0283121635,8,0,-1.119062074607147,26.80551599384131,3.000097606804846,-2.502541143381592e-05,8.66729008399779e-05,2.400078085443877e-05,8.794762422477655e-05,8.770813638371924e-05
66.97168783650001,33.0283121635,8,0,-1.148734502491287,26.68682628230475,2.960931322639829,-2.502541143381592e-05,8.631683170536822e-05,2.368745058111863e-05,8.756273400012217e-05,8.74440615689703e-05
65.5283121635,34.4716878365,8,0,-1.223505499047175,26.7794051377313,2.955588964978663,-2.5338741707136e-05,8.66729008399779e-05,2.36447117198293e-05,8.790710153186103e-05,8.732095921943965e-05
66.97168783650001,34.4716878365,8,0,-1.253177926931296,26.66071542619482,2.91642268081366,-2.5338741707136e-05,8.631683170536844e-05,2.333138144650928e-05,8.752263254688864e-05,8.712327446906095e-05
68.0283121635,33.0283121635,8,0,-0.9510186205069404,26.64577097506381,3.187344876294835,-2.435987636567326e-05,8.602728201660974e-05,2.549875901035868e-05,8.74806609229327e-05,8.721309394991324e-05
69.47168783650001,33.0283121635,8,0,-0.9872682310426519,26.50077253292097,3.145794425915877,-2.435987636567326e-05,8.55922866901812e-05,2.516635540732702e-05,8.701395246910371e-05,8.684615349446829e-05
68.0283121635,34.4716878365,8,0,-1.061819821517486,26.61807067481118,3.132970460491274,-2.469227996870489e-05,8.602728201660974e-05,2.506376368393019e-05,8.742799268898257e-05,8.694069336896083e-05
69.47168783650001,34.4716878365,8,0,-1.098069432053184,26.47307223266838,3.091420010112303,-2.469227996870489e-05,8.559228669018136e-05,2.473136008089843e-05,8.69617849080169e-05,8.663955727734296e-05
70.5283121635,33.0283121635,8,0,-0.79486413368853,26.4430509395875,3.306257471856219,-2.369800597947329e-05,8.525365431363082e-05,2.645005977484975e-05,8.68359858001476e-05,8.65469059828896e-05
71.97168783650001,33.0283121635,8,0,-0.8357112613081252,26.27966242910912,3.26355915440864,-2.369800597947329e-05,8.476348878219567e-05,2.610847323526912e-05,8.631255007038655e-05,8.609628703262835e-05
70.5283121635,34.4716878365,8,0,-0.9087263135487689,26.41458539462244,3.244986780426805,-2.403959251905401e-05,8.525365431363082e-05,2.595989424341444e-05,8.677403614138041e-05,8.638791044636309e-05
71.97168783650001,34.4716878365,8,0,-0.9495734411683694,26.25119688414404,3.202288462979239,-2.403959251905401e-05,8.476348878219561e-05,2.561830770383391e-05,8.625114250368233e-05,8.600153461015105e-05
73.0283121635,33.0283121635,8,0,-0.6531246287830337,26.2090139137277,3.35955356521941,-2.305720994308786e-05,8.439134422695506e-05,2.687642852175528e-05,8.604651776063707e-05,8.57417067657207e-05
74.47168783650001,33.0283121635,8,0,-0.6970039872234128,26.03349647996618,3.316861952913067,-2.305720994308786e-05,8.38647919256705e-05,2.653489562330454e-05,8.548649056511947e-05,8.522359441138779e-05
73.0283121635,34.4716878365,8,0,-0.7669689282666488,26.1805528388568,3.293734527558837,-2.339874284153871e-05,8.439134422695506e-05,2.634987622047069e-05,8.597832221109644e-05,8.569330005592289e-05
74.47168783650001,34.4716878365,8,0,-0.8108482867070324,26.00503540509526,3.251042915252488,-2.339874284153871e-05,8.386479192567045e-05,2.60083433220199e-05,8.541884657343627e-05,8.523756342929947e-05
75.5283121635,33.0283121635,8,0,-0.5267783267049051,25.95306304718929,3.350065652867115,-2.244814108320713e-05,8.347122441236966e-05,2.680052522293692e-05,8.514024323072426e-05,8.48244757375272e-05
76.97168783650001,33.0283121635,8,0,-0.5725028384805402,25.77016500008675,3.308346555634385,-2.244814108320713e-05,8.292253027106204e-05,2.646677244507508e-05,8.455907882420059e-05,8.425217559657707e-05
75.5283121635,34.4716878365,8,0,-0.638029252658888,25.9252503157008,3.28147888520368,-2.278189386106908e-05,8.347122441236966e-05,2.625183108162944e-05,8.506870884419465e-05,8.488353486307918e-05
76.97168783650001,34.4716878365,8,0,-0.6837537644345044,25.74235226859833,3.239759787970943,-2.278189386106908e-05,8.292253027106225e-05,2.591807830376754e-05,8.448808199602748e-05,8.437204745941691e-05
78.0283121635,33.0283121635,8,0,-0.4155936050955544,25.68254050662363,3.280117093078759,-2.187593194160467e-05,8.251660450527205e-05,2.624093674463007e-05,8.41403800087022e-05,8.381741370820196e-05
79.47168783650001,33.0283121635,8,0,-0.4622865780104357,25.4957686149641,3.240075648656558,-2.187593194160467e-05,8.195628883029348e-05,2.592060518925247e-05,8.354954174601644e-05,8.320192228086614e-05
78.0283121635,34.4716878365,8,0,-0.5223707902213865,25.65584621034214,3.210077633706448,-2.219626349698214e-05,8.251660450527194e-05,2.568062106965158e-05,8.406814538676435e-05,8.398153003244631e-05
79.47168783650001,34.4716878365,8,0,-0.5690637631362634,25.46907431868263,3.170036189284247,-2.219626349698214e-05,8.195628883029342e-05,2.536028951427398e-05,8.347781682068249e-05,8.342610398433851e-05
80.5283121635,33.0283121635,8,0,-0.3185105464997813,25.40309473755739,3.151063119497219,-2.134170953884521e-05,8.154471159738347e-05,2.520850495597775e-05,8.306631098913059e-05,8.27390697543883e-05
81.97168783650001,33.0283121635,8,0,-0.3655217328845799,25.2150499920182,3.113102000526391,-2.134170953884521e-05,8.098057736076589e-05,2.490481600421113e-05,8.247420638357182e-05,8.209002456292124e-05
80.5283121635,34.4716878365,8,0,-0.4197401970885739,25.37778732491019,3.080546339920032,-2.164539849061159e-05,8.154471159738347e-05,2.464437071936026e-05,8.299573046118282e-05,8.300739179293477e-05
81.97168783650001,34.4716878365,8,0,-0.4667513834733628,25.18974257937104,3.042585220949231,-2.164539849061159e-05,8.098057736076599e-05,2.434068176759385e-05,8.240410360779914e-05,8.241887486033042e-05
83.02831216350002,33.0283121635,8,0,-0.2340179273808056,25.11913997579315,2.962974456693383,-2.084416934825309e-05,8.05684622644427e-05,2.370379565354706e-05,8.193515237046139e-05,8.16061256979557e-05
84.47168783650002,33.0283121635,8,0,-0.2808333561434511,24.93187826074256,2.927173531820482,-2.084416934825309e-05,8.000667711929095e-05,2.341738825456386e-05,8.134820112476882e-05,8.093313460455578e-05
83.02831216350002,34.4716878365,8,0,-0.3294870603751345,25.09527269254456,2.892751313549405,-2.113057674723608e-05,8.05684622644427e-05,2.314201050839524e-05,8.186836074737294e-05,8.197999284839118e-05
84.47168783650002,34.4716878365,8,0,-0.37630248913778,24.90801097749398,2.856950388676545,-2.113057674723608e-05,8.000667711929095e-05,2.285560310941236e-05,8.128186060047643e-05,8.136946182579854e-05
85.5283121635,33.0283121635,8,0,-0.1605066820612286,24.83435593065671,2.714427249314102,-2.03811061271213e-05,7.959834432375045e-05,2.171541799451281e-05,8.076389715233051e-05,8.043587802242264e-05
86.97168783650002,33.0283121635,8,0,-0.2066567486203512,24.64975566442022,2.680536080207956,-2.03811061271213e-05,7.904454352504098e-05,2.144428864166365e-05,8.018768522232243e-05,7.975033886897899e-05
85.5283121635,34.4716878365,8,0,-0.2508831330108361,24.81176181791931,2.645202149475462,-2.065223547997012e-05,7.959834432375045e-05,2.11616171958037e-05,8.070291093477698e-05,8.0919197459423e-05
86.97168783650002,34.4716878365,8,0,-0.2970331995699453,24.62716155168287,2.611310980369324,-2.065223547997012e-05,7.904454352504115e-05,2.089048784295459e-05,8.012713728982255e-05,8.029958335618756e-05
88.02831216350002,33.0283121635,8,0,-0.09660209948034737,24.55220366183746,2.402363555644778,-1.995088964780708e-05,7.864433339746415e-05,1.921890844515823e-05,7.957217470795428e-05,7.924967832141335e-05
89.47168783650001,33.0283121635,8,0,-0.1415682331120758,24.37233912731055,2.369800048808405,-1.995088964780708e-05,7.810473979388342e-05,1.895840039046724e-05,7.901270235389009e-05,7.85673874215042e-05
88.02831216350002,34.4716878365,8,0,-0.183438117710657,24.53049465727989,2.334914355197143,-2.021139770249801e-05,7.864433339746415e-05,1.867931484157714e-05,7.951898362517253e-05,7.984890435464344e-05
89.47168783650001,34.4716878365,8,0,-0.2284042513423827,24.35063012275298,2.3023508483608,-2.021139770249801e-05,7.810473979388344e-05,1.84188067868864e-05,7.895995761951236e-05,7.923724052770362e-05
90.52831216350002,33.0283121635,8,0,-0.04149038197482202,24.27645560345292,2.021994792821618,-1.955393370508176e-05,7.771785023662919e-05,1.617595834257294e-05,7.838576536903794e-05,7.807798188577052e-05
91.97168783650001,33.0283121635,8,0,-0.08460774229153589,24.10398616218606,1.989845944718488,-1.955393370508176e-05,7.720044191282863e-05,1.59187675577479e-05,7.785083909887726e-05,7.742319199649292e-05
90.52831216350002,34.4716878365,8,0,-0.127220643583196,24.25502303805083,1.957318752346575,-1.981112448990689e-05,7.771785023662919e-05,1.56585500187726e-05,7.834235734556041e-05,7.880131691890595e-05
91.97168783650001,34.4716878365,8,0,-0.1703380038999098,24.08255359678397,1.925169904243418,-1.981112448990689e-05,7.720044191282863e-05,1.540135923394734e-05,7.780791018742572e-05,7.82220152983411e-05
93.02831216350002,33.0283121635,8,0,0.004737003066237477,24.01175299983394,1.566731643234097,-1.919424399005519e-05,7.68338199970156e-05,1.253385314587278e-05,7.724108122192716e-05,7.696843664269239e-05
94.47168783650002,33.0283121635,8,0,-0.03561477838475202,23.85034587402998,1.533755056890161,-1.919424399005519e-05,7.634959861960373e-05,1.227004045512128e-05,7.674192690248607e-05,7.638081180032019e-05
93.02831216350002,34.4716878365,8,0,-0.08320056051757163,23.98976860893799,1.506203971057609,-1.945805668080662e-05,7.68338199970156e-05,1.204963176846088e-05,7.720931800301402e-05,7.782330268066965e-05
94.47168783650002,34.4716878365,8,0,-0.1235523419685522,23.82836148313406,1.473227384713696,-1.945805668080662e-05,7.634959861960383e-05,1.178581907770957e-05,7.671069701693019e-05,7.731330117209103e-05
95.5283121635,33.0283121635,8,0,0.04069311837901868,23.76421411825948,1.028136042704436,-1.888115331579472e-05,7.601293068372711e-05,8.22508834163549e-06,7.619082767693503e-05,7.6000186983085e-05
96.97168783650002,33.0283121635,8,0,0.004395407652179273,23.61902327535212,0.9927636674226437,-1.888115331579472e-05,7.557735815500504e-05,7.942109339381149e-06,7.574400807093198e-05,7.554792548610485e-05
95.5283121635,34.4716878365,8,0,-0.05363321570579327,23.74063253473828,0.9736894766141539,-1.916413231804916e-05,7.601293068372711e-05,7.789515812913232e-06,7.617204278502032e-05,7.698666002262645e-05
96.97168783650002,34.4716878365,8,0,-0.08993092643264333,23.59544169183088,0.9383171013323716,-1.916413231804916e-05,7.557735815500491e-05,7.506536810658973e-06,7.572581459513058e-05,7.660426131498717e-05
98.02831216350002,33.0283121635,8,0,0.06322836647614505,23.54212309846916,0.3959038090469744,-1.863136770605166e-05,7.528421122192039e-05,3.167230472375795e-06,7.53109067350023e-05,7.531165431493707e-05
99.47168783650002,33.0283121635,8,0,0.03278505092767769,23.42034983627529,0.3562523546711475,-1.863136770605166e-05,7.491889143533878e-05,2.85001883736918e-06,7.494059293469216e-05,7.511841096789556e-05
98.02831216350002,34.4716878365,8,0,-0.04250884519276266,23.51568879555193,0.3502388357242911,-1.894857934105838e-05,7.528421122192039e-05,2.801910685794329e-06,7.53050345706636e-05,7.640627676901756e-05
99.47168783650002,34.4716878365,8,0,-0.0729521607412158,23.39391553335812,0.3105873813484506,-1.894857934105838e-05,7.491889143533895e-05,2.484699050787605e-06,7.493533123140022e-05,7.624777163793141e-05
0.5283121635,35.5283121635,8,0,-0.05553451686902446,0.136548870708432,-0.4770137261849317,-2.869495505476239e-07,4.81383999762202e-07,-3.816109809479454e-06,2.043561909043798e-06,5.905173005627453e-06
1.9716878365,35.5283121635,8,0,0.1543794775207624,0.9762048482675794,-0.515408902746289,-2.869495505476239e-07,3.000351932439644e-06,-4.123271221970312e-06,3.993352315477792e-06,6.828410837626277e-06
0.5283121635,36.9716878365,8,0,-0.1579216543660496,0.1109520863341757,-0.1621427346002922,-5.941109630386993e-07,4.81383999762202e-07,-1.297141876802337e-06,7.861426702034458e-07,6.617392151078592e-06
1.9716878365,36.9716878365,8,0,0.05199234002373723,0.9506080638933231,-0.2005379111616901,-5.941109630386993e-07,3.000351932439644e-06,-1.604303289293521e-06,3.171238402344672e-06,7.561581023364915e-06
3.0283121635,35.5283121635,8,0,-0.06633105119285193,1.499536597088417,-1.081976571527487,-1.411888641487859e-06,4.851581951637214e-06,-8.655812572219896e-06,7.061994049997963e-06,7.930181194741408e-06
4.4716878365,35.5283121635,8,0,0.1452261601805778,2.345765442582135,-1.118057175563653,-1.411888641487859e-06,7.390268488118371e-06,-8.944457404509222e-06,9.263767367162722e-06,1.00170359567824e-05
3.0283121635,36.9716878365,8,0,-0.1625459952891491,1.475482861064207,-0.7646407544672748,-1.700533473776643e-06,4.85158195163678e-06,-6.117126035738198e-06,6.057416905121626e-06,8.666530180412113e-06
4.4716878365,36.9716878365,8,0,0.04901121608432568,2.321711706558106,-0.8007213585033319,-1.700533473776643e-06,7.390268488118479e-06,-6.405770868026656e-06,8.405366152167947e-06,1.074111854508748e-05
5.528312163500001,35.5283121635,8,0,-0.0793014815291011,2.872572612063307,-1.603549025075123,-2.551822830543769e-06,9.255673543825862e-06,-1.282839220060098e-05,1.206950267323526e-05,1.1709953479529e-05
6.9716878365,35.5283121635,8,0,0.1338397561893705,3.725137562937193,-1.640760088177787,-2.551822830543769e-06,1.181336839644752e-05,-1.312608070542229e-05,1.436027320272275e-05,1.424823540285202e-05
5.528312163500001,36.9716878365,8,0,-0.1785309831362053,2.847765236661531,-1.283837168497321,-2.849511335365081e-06,9.255673543825862e-06,-1.027069734797856e-05,1.114069291404395e-05,1.241829169273677e-05
6.9716878365,36.9716878365,8,0,0.03461025458228439,3.700330187535489,-1.321048231600012,-2.849511335365081e-06,1.181336839644774e-05,-1.056838585280009e-05,1.35192237780597e-05,1.492582558072429e-05
8.028312163500001,35.5283121635,8,0,-0.1012468131937616,4.255014692550283,-2.060104441521299,-3.728001556260263e-06,1.369704446671591e-05,-1.648083553217039e-05,1.697670816930637e-05,1.61698881731393e-05
9.471687836500001,35.5283121635,8,0,0.1144701765205893,5.117882651407687,-2.100470548475777,-3.728001556260263e-06,1.628564834328813e-05,-1.680376438780622e-05,1.934512240951879e-05,1.888165925296984e-05
8.028312163500001,36.9716878365,8,0,-0.2088897650723707,4.228103954580631,-1.736528956949868,-4.05093041189609e-06,1.369704446671591e-05,-1.389223165559894e-05,1.609231512926236e-05,1.682051630011189e-05
9.471687836500001,36.9716878365,8,0,0.006827224641953178,5.090971913437927,-1.776895063904332,-4.05093041189609e-06,1.62856483432878e-05,-1.421516051123466e-05,1.852347866350993e-05,1.948937372234059e-05
10.5283121635,35.5283121635,8,0,-0.1411933447784084,5.651536225915572,-2.462025406391744,-4.973047684023364e-06,1.819787059875256e-05,-1.969620325113395e-05,2.181793575428592e-05,2.089189694016504e-05
11.9716878365,35.5283121635,8,0,0.07844702863359188,6.530097719563573,-2.506162281326431,-4.973047684023364e-06,2.083355507969656e-05,-2.004929825061145e-05,2.427004490325296e-05,2.367219735727504e-05
10.5283121635,36.9716878365,8,0,-0.2588916779375561,5.622111642625785,-2.132564846273879,-5.326142683500807e-06,1.819787059875256e-05,-1.706051877019103e-05,2.096549318217659e-05,2.14647183498342e-05
11.9716878365,36.9716878365,8,0,-0.03925130452556491,6.50067313627375,-2.176701721208593,-5.326142683500807e-06,2.083355507969645e-05,-1.741361376966875e-05,2.346646957362334e-05,2.419260281260569e-05
13.0283121635,35.5283121635,8,0,-0.2079040069929678,7.068408446029082,-2.812301232451851,-6.320019579200763e-06,2.278523023288744e-05,-2.249840985961481e-05,2.662617766091749e-05,2.571855580786626e-05
14.4716878365,35.5283121635,8,0,0.01679525947979554,7.967205511920135,-2.859586530122533,-6.320019579200763e-06,2.54816214305606e-05,-2.287669224098027e-05,2.916834428110266e-05,2.852901064850708e-05
13.0283121635,36.9716878365,8,0,-0.3339981341146789,7.036884914248654,-2.475252332742801,-6.698301960565895e-06,2.278523023288744e-05,-1.98020186619424e-05,2.580155112273054e-05,2.61972720324406e-05
14.4716878365,36.9716878365,8,0,-0.1092988676419155,7.935681980139708,-2.522537630413415,-6.698301960565895e-06,2.54816214305606e-05,-2.018030104330732e-05,2.838371083313628e-05,2.894624573086038e-05
15.5283121635,35.5283121635,8,0,-0.3079463776292215,8.510487898388883,-3.107839730261491,-7.793818727124614e-06,2.74799183769478e-05,-2.486271784209193e-05,3.142076557393546e-05,3.059111611014594e-05
16.9716878365,35.5283121635,8,0,-0.07769157857100506,9.431507094621749,-3.156698557476155,-7.793818727124614e-06,3.024297596564639e-05,-2.525358845980924e-05,3.405296818465414e-05,3.341443816150728e-05
15.5283121635,36.9716878365,8,0,-0.4382365835349469,8.47791534691245,-2.762457531674207,-8.18468934484179e-06,2.74799183769478e-05,-2.209966025339366e-05,3.062593205622148e-05,3.096014607195113e-05
16.9716878365,36.9716878365,8,0,-0.2079817844767216,9.398934543145351,-2.811316358888817,-8.18468934484179e-06,3.02429759656465e-05,-2.249053087111054e-05,3.329183317528212e-05,3.371325042700549e-05
18.0283121635,35.5283121635,8,0,-0.4443521856020678,9.978992013134908,-3.341280996873543,-9.405120604434543e-06,3.228825619051336e-05,-2.673024797498835e-05,3.620466445606738e-05,3.548056207199606e-05
19.4716878365,35.5283121635,8,0,-0.2089561938027438,10.9205759803322,-3.389550484765713,-9.405120604434543e-06,3.511300809210525e-05,-2.71164038781257e-05,3.891715124945191e-05,3.830199551906296e-05
18.0283121635,36.9716878365,8,0,-0.5730708199812322,9.946812354540118,-2.988187009174496,-9.791276507572035e-06,3.228825619051336e-05,-2.390549607339597e-05,3.544642267985784e-05,3.572520148712516e-05
19.4716878365,36.9716878365,8,0,-0.3376748281818811,10.88839632173752,-3.036456497066672,-9.791276507572035e-06,3.511300809210557e-05,-2.429165197653338e-05,3.818771014854131e-05,3.846884965089354e-05
20.5283121635,35.5283121635,8,0,-0.6159305220099296,11.470131111236,-3.503112597206112,-1.114708255942057e-05,3.719716397356312e-05,-2.80249007776489e-05,4.096498181491441e-05,4.035987394644813e-05
21.9716878365,35.5283121635,8,0,-0.3768248672027878,12.42655373046456,-3.548443916021903,-1.114708255942057e-05,4.006643183124882e-05,-2.838755132817522e-05,4.373712810549155e-05,4.316066891903645e-05
20.5283121635,36.9716878365,8,0,-0.7368140388520472,11.43991023202547,-3.144454114995454,-1.150973310994692e-05,3.719716397356312e-05,-2.515563291996363e-05,4.025342033311813e-05,4.046782352179452e-05
21.9716878365,36.9716878365,8,0,-0.4977083840449281,12.39633285125394,-3.189785433811265,-1.150973310994692e-05,4.006643183124855e-05,-2.551828347049012e-05,4.305022617344186e-05,4.318547353656247e-05
23.0283121635,35.5283121635,8,0,-0.8172806994114126,12.97464197318691,-3.583845269026386,-1.299501181666605e-05,4.217267887372724e-05,-2.867076215221109e-05,4.567535270686402e-05,4.519473296138432e-05
24.4716878365,35.5283121635,8,0,-0.5768551930861765,13.93634399848785,-3.624089579735249,-1.299501181666605e-05,4.505778494963007e-05,-2.899271663788199e-05,4.847635855920148e-05,4.795110429857557e-05
23.0283121635,36.9716878365,8,0,-0.9245988613016065,12.94781243271436,-3.223207009538559,-1.331696630233663e-05,4.217267887372724e-05,-2.578565607630847e-05,4.502197655843371e-05,4.515781462751596e-05
24.4716878365,36.9716878365,8,0,-0.6841733549763704,13.90951445801531,-3.263451320247382,-1.331696630233663e-05,4.505778494963007e-05,-2.610761056197905e-05,4.784390973017458e-05,4.782870068331788e-05
25.5283121635,35.5283121635,8,0,-1.039466349369122,14.47819696900459,-3.575967459471678,-1.490884989318485e-05,4.716180338030997e-05,-2.860773967577342e-05,5.029945132566192e-05,4.994260826292483e-05
26.9716878365,35.5283121635,8,0,-0.8008680846173428,15.4325900280117,-3.609487770024423,-1.490884989318485e-05,5.002498255733131e-05,-2.887590216019538e-05,5.309051742356452e-05,5.262712694004193e-05
25.5283121635,36.9716878365,8,0,-1.128853844176495,14.45585009530274,-3.218070062344037,-1.517701237760698e-05,4.716180338030997e-05,-2.57445604987523e-05,4.971520063887465e-05,4.975801538519914e-05
26.9716878365,36.9716878365,8,0,-0.890255579424716,15.41024315430986,-3.251590372896796,-1.517701237760698e-05,5.002498255733131e-05,-2.601272298317437e-05,5.252370695662019e-05,5.235811511895051e-05
28.0283121635,35.5283121635,8,0,-1.271187370925985,15.96254686228743,-3.475411707962091,-1.68378370767931e-05,5.209709985606057e-05,-2.780329366369673e-05,5.479496694740272e-05,5.455548132041696e-05
29.4716878365,35.5283121635,8,0,-1.038024824043569,16.8951970498171,-3.501274840553506,-1.68378370767931e-05,5.489505041864957e-05,-2.801019872442805e-05,5.753243239323727e-05,5.713932478570638e-05
28.0283121635,36.9716878365,8,0,-1.340155724502983,15.94530477389318,-3.125667887638432,-1.704474213752409e-05,5.209709985606057e-05,-2.500534310110746e-05,5.428846081329664e-05,5.422628430087962e-05
29.4716878365,36.9716878365,8,0,-1.106993177620548,16.87795496142292,-3.151531020229779,-1.704474213752409e-05,5.489505041864979e-05,-2.521224816183824e-05,5.704008300839443e-05,5.673011768950995e-05
30.5283121635,35.5283121635,8,0,-1.5001823309542,17.40713795813773,-3.28236107249974,-1.872629382556362e-05,5.690298733080409e-05,-2.625888857999792e-05,5.911745303069513e-05,5.898373695124212e-05
31.9716878365,35.5283121635,8,0,-1.276196072617354,18.30308299148511,-3.300392317525721,-1.872629382556362e-05,5.959082243084623e-05,-2.640313854020577e-05,6.175627797354855e-05,6.143892123250872e-05
30.5283121635,36.9716878365,8,0,-1.548265651023438,17.39511712812042,-2.946381684994356,-1.887054378577134e-05,5.690298733080409e-05,-2.357105347995485e-05,5.869374242347665e-05,5.851864052889961e-05
31.9716878365,36.9716878365,8,0,-1.32427939268657,18.29106216146789,-2.96441293002033,-1.887054378577134e-05,5.959082243084651e-05,-2.371530344016264e-05,6.134367749897256e-05,6.090114240818689e-05
33.0283121635,35.5283121635,8,0,-1.714568864063467,18.79088141949977,-3.001374759395676,-2.051932550060291e-05,6.150247563365004e-05,-2.401099807516541e-05,6.322360020538323e-05,6.31798551031575e-05
34.4716878365,35.5283121635,8,0,-1.50332731600589,19.63584761173008,-3.01209125011237,-2.051932550060291e-05,6.403737421034096e-05,-2.409673000089896e-05,6.572062084186822e-05,6.548099060932308e-05
33.0283121635,36.9716878365,8,0,-1.74314617264146,18.78373709235535,-2.684512437309305,-2.060505742633694e-05,6.150247563365026e-05,-2.147609949847444e-05,6.288357046452736e-05,6.259238887362849e-05
34.4716878365,36.9716878365,8,0,-1.531904624583929,19.62870328458547,-2.6952289280261,-2.060505742633694e-05,6.403737421034064e-05,-2.15618314242088e-05,6.538895830148679e-05,6.483045826624533e-05
35.5283121635,35.5283121635,8,0,-1.903897083459956,20.0937771158965,-2.640958276355567,-2.216749235978905e-05,6.582320443763675e-05,-2.112766621084454e-05,6.707368734528118e-05,6.710122148448607e-05
36.9716878365,35.5283121635,8,0,-1.70855705527819,20.87513722862356,-2.645421650556626,-2.216749235978905e-05,6.816728477581794e-05,-2.116337320445301e-05,6.939025168609507e-05,6.922663904944577e-05
35.5283121635,36.9716878365,8,0,-1.915799414662716,20.09080153309581,-2.347948234082952,-2.220319935339733e-05,6.582320443763675e-05,-1.878358587266362e-05,6.68140880861509e-05,6.640862955620633e-05
36.9716878365,36.9716878365,8,0,-1.720459386480949,20.87216164582287,-2.352411608284004,-2.220319935339733e-05,6.816728477581794e-05,-1.881929286627203e-05,6.913664753493095e-05,6.848220431099274e-05
38.0283121635,35.5283121635,8,0,-2.059814233188055,21.29819363865907,-2.212788110802054,-2.362996045712903e-05,6.980207103025947e-05,-1.770230488641643e-05,7.063317955857562e-05,7.071186860615195e-05
39.4716878365,35.5283121635,8,0,-1.882961002466391,22.00560656154573,-2.212424374833904,-2.362996045712903e-05,7.192430979891944e-05,-1.769939499867123e-05,7.273700680552224e-05,7.264417365118905e-05
38.0283121635,36.9716878365,8,0,-2.058844270606411,21.29843612930462,-1.947508264719646,-2.362705056938421e-05,6.98020710302599e-05,-1.558006611775717e-05,7.044714289137276e-05,6.993395192601921e-05
39.4716878365,36.9716878365,8,0,-1.881991039884796,22.00584905219108,-1.947144528751489,-2.362705056938421e-05,7.192430979891928e-05,-1.557715623001191e-05,7.255500900955287e-05,7.182662541542069e-05
40.5283121635,35.5283121635,8,0,-2.176358613814481,22.38973283544582,-1.73080504968013,-2.487613383256299e-05,7.338823196447819e-05,-1.384644039744104e-05,7.387361021414031e-05,7.398328780551271e-05
41.97168783650001,35.5283121635,8,0,-2.019919366635845,23.01548982416036,-1.727231259824996,-2.487613383256299e-05,7.526550293062182e-05,-1.381785007859997e-05,7.573991279662048e-05,7.570951066737798e-05
40.5283121635,36.9716878365,8,0,-2.166828507534087,22.39211536201591,-1.496146178912156,-2.484754351372181e-05,7.338823196447819e-05,-1.196916943129725e-05,7.375147345834544e-05,7.314137550268034e-05
41.97168783650001,36.9716878365,8,0,-2.010389260355406,23.01787235073064,-1.492572389056988,-2.484754351372181e-05,7.526550293062236e-05,-1.19405791124559e-05,7.562028671865442e-05,7.484066605108054e-05
43.0283121635,35.5283121635,8,0,-2.249976038915727,23.35771148239653,-1.210335426084562,-2.588609251044755e-05,7.654465757480147e-05,-9.682683408676499e-06,7.677297242952833e-05,7.689461153991513e-05
44.4716878365,35.5283121635,8,0,-2.115188996195713,23.89685965327659,-1.2052164851045,-2.588609251044755e-05,7.816210208744164e-05,-9.641731880836004e-06,7.838498985161371e-05,7.840614447405319e-05
43.0283121635,36.9716878365,8,0,-2.236325529635516,23.36112410971658,-1.008154862004501,-2.584514098260692e-05,7.654465757480147e-05,-8.065238896036008e-06,7.6703236579162e-05,7.601074038924175e-05
44.4716878365,36.9716878365,8,0,-2.10153848691547,23.90027228059677,-1.003035921024419,-2.584514098260692e-05,7.816210208744202e-05,-8.024287368195351e-06,7.831664338145041e-05,7.750815238146642e-05
45.52831216350001,35.5283121635,8,0,-2.279374859658664,24.195348907391,-0.6673234690323743,-2.665027867682052e-05,7.924861639137812e-05,-5.338587752258994e-06,7.931585607897797e-05,7.943248395685222e-05
46.97168783650001,35.5283121635,8,0,-2.166794212242871,24.64567149705417,-0.6622656004014421,-2.665027867682052e-05,8.059958416036764e-05,-5.298124803211537e-06,8.066497590392747e-05,8.072496263565433e-05
45.52831216350001,36.9716878365,8,0,-2.265887209976159,24.19872081981163,-0.498452497908671,-2.660981572777301e-05,7.924861639137812e-05,-3.987619983269368e-06,7.928615585792455e-05,7.852878116390559e-05
46.97168783650001,36.9716878365,8,0,-2.153306562560366,24.6490434094748,-0.4933946292777524,-2.660981572777301e-05,8.059958416036764e-05,-3.947157034222019e-06,8.063590273997017e-05,7.981977886109043e-05
48.0283121635,35.5283121635,8,0,-2.26531962338414,24.89975857813424,-0.1176892597665299,-2.716882965733664e-05,8.149148314873689e-05,-9.415140781322395e-07,8.149352260568968e-05,8.159087071035116e-05
49.47168783650001,35.5283121635,8,0,-2.174840824837581,25.26167377232048,-0.1141637310948164,-2.716882965733664e-05,8.257722873129559e-05,-9.133098487585311e-07,8.257912884609319e-05,8.266409688640551e-05
48.0283121635,36.9716878365,8,0,-2.255918213592833,24.90210893058207,0.01802893805327353,-2.714062542796272e-05,8.149148314873689e-05,1.442315044261882e-07,8.149153102297494e-05,8.068907721154643e-05
49.47168783650001,36.9716878365,8,0,-2.165439415046278,25.26402412476829,0.0215544667250074,-2.714062542796272e-05,8.257722873129553e-05,1.724357338000592e-07,8.257729648249282e-05,8.177304677484419e-05
50.5283121635,35.5283121635,8,0,-2.210422882732975,25.47181738985141,0.4232206774740826,-2.745080713662665e-05,8.327815395371089e-05,3.385765419792661e-06,8.330402958997354e-05,8.337094619242691e-05
51.97168783650001,35.5283121635,8,0,-2.141321404610641,25.74822330234075,0.4239371833190267,-2.745080713662665e-05,8.410737169117891e-05,3.391497466552213e-06,8.413314209799934e-05,8.42288682337999e-05
50.5283121635,36.9716878365,8,0,-2.208512200479837,25.4722950604147,0.5268728946576119,-2.744507508986723e-05,8.327815395371089e-05,4.214983157260896e-06,8.331825315282728e-05,8.249198778950797e-05
51.97168783650001,36.9716878365,8,0,-2.139410722357503,25.74870097290404,0.5275894005025289,-2.744507508986723e-05,8.410737169117891e-05,4.220715204020231e-06,8.41472813171762e-05,8.33722016060003e-05
53.0283121635,35.5283121635,8,0,-2.11894033598542,25.91594264316208,0.9411407293926202,-2.751336318968301e-05,8.462616872690698e-05,7.529125835140961e-06,8.475240430411558e-05,8.478105441389963e-05
54.4716878365,35.5283121635,8,0,-2.069926825733996,26.11199668416778,0.9380221172856541,-2.751336318968301e-05,8.521433084992408e-05,7.504176938285232e-06,8.533907930524356e-05,8.543173307186061e-05
53.0283121635,36.9716878365,8,0,-2.127256634937356,25.9138635684241,1.01466099476977,-2.753831208653881e-05,8.462616872690698e-05,8.117287958158163e-06,8.477283796625831e-05,8.394457264413008e-05
54.4716878365,36.9716878365,8,0,-2.078243124685914,26.10991760942986,1.011542382662825,-2.753831208653881e-05,8.521433084992429e-05,8.092339061302597e-06,8.535934261225407e-05,8.462810558465573e-05
55.5283121635,35.5283121635,8,0,-1.996524934900708,26.23975975973848,1.4233823861004,-2.738068759947304e-05,8.556445117908367e-05,1.13870590888032e-05,8.585073459797818e-05,8.583659311179782e-05
56.97168783650001,35.5283121635,8,0,-1.965826234479848,26.36255456142192,1.415709813463336,-2.738068759947304e-05,8.593283558413399e-05,1.132567850770669e-05,8.621513248898498e-05,8.629201265294661e-05
55.5283121635,36.9716878365,8,0,-2.016985128599566,26.23464471131376,1.469430436731704,-2.744206818056961e-05,8.556445117908367e-05,1.175544349385363e-05,8.586934203577969e-05,8.506039484038272e-05
56.97168783650001,36.9716878365,8,0,-1.986286428178683,26.35743951299729,1.461757864094633,-2.744206818056961e-05,8.593283558413426e-05,1.169406291275706e-05,8.623358403979832e-05,8.555789811011954e-05
58.0283121635,35.5283121635,8,0,-1.849878311062716,26.45361704099099,1.859298424775231,-2.708250422819348e-05,8.613147718002133e-05,1.487438739820185e-05,8.661794710576933e-05,8.655957868428823e-05
59.47168783650001,35.5283121635,8,0,-1.835352100443228,26.51172188346894,1.846708965609238,-2.708250422819348e-05,8.630579170745519e-05,1.47736717248739e-05,8.678499205732294e-05,8.683516313517538e-05
58.0283121635,36.9716878365,8,0,-1.883450202172033,26.44522406821366,1.881087740704396,-2.718321990152143e-05,8.613147718002133e-05,1.504870192563517e-05,8.662892722241446e-05,8.585904381231344e-05
59.47168783650001,36.9716878365,8,0,-1.868923991552545,26.50332891069161,1.868498281538402,-2.718321990152143e-05,8.630579170745519e-05,1.494798625230722e-05,8.6795886558911e-05,8.618428590148638e-05
60.5283121635,35.5283121635,8,0,-1.686271136651481,26.56991855911184,2.240639137663014,-2.665200248457421e-05,8.637275629847906e-05,1.792511310130411e-05,8.707904907273657e-05,8.697767996300749e-05
61.9716878365,35.5283121635,8,0,-1.68555145852143,26.57279727163204,2.223148986307763,-2.665200248457421e-05,8.638139243603968e-05,1.77851918904621e-05,8.707671604180769e-05,8.709145872670774e-05
60.5283121635,36.9716878365,8,0,-1.732911540265418,26.55825845820836,2.241718654858056,-2.679192369541602e-05,8.637275629847906e-05,1.793374923886445e-05,8.707886225680934e-05,8.636524389749879e-05
61.9716878365,36.9716878365,8,0,-1.732191862135367,26.56113717072856,2.22422850350282,-2.679192369541602e-05,8.638139243603968e-05,1.779382802802256e-05,8.707653732744921e-05,8.653438824748856e-05
63.0283121635,35.5283121635,8,0,-1.512970793186923,26.60230197726556,2.561705353115865,-2.61233481200106e-05,8.633774296179931e-05,2.049364282492692e-05,8.726375085868227e-05,8.712267274173691e-05
64.47168783650001,35.5283121635,8,0,-1.52362818642971,26.55967240429441,2.53969182271266,-2.61233481200106e-05,8.620985424288586e-05,2.031753458170128e-05,8.712116158255916e-05,8.709417225300819e-05
63.0283121635,36.9716878365,8,0,-1.571673540928821,26.58762629033009,2.545719263251698,-2.629945636323629e-05,8.633774296179931e-05,2.036575410601358e-05,8.725091465945873e-05,8.660752914477797e-05
64.47168783650001,36.9716878365,8,0,-1.582330934171577,26.54499671735906,2.523705732848533,-2.629945636323629e-05,8.620985424288624e-05,2.018964586278827e-05,8.710842888601822e-05,8.663820944230252e-05
65.5283121635,35.5283121635,8,0,-1.336673030832158,26.564754036037,2.819237544578769,-2.55291569274925e-05,8.607655133998412e-05,2.255390035663015e-05,8.72046038808762e-05,8.702848775478983e-05
66.97168783650001,35.5283121635,8,0,-1.356364829551079,26.48598684116132,2.793375821672494,-2.55291569274925e-05,8.584024975535708e-05,2.234700657337995e-05,8.695020603893716e-05,8.687753485710865e-05
65.5283121635,36.9716878365,8,0,-1.405637625248974,26.5475128874328,2.789699846500443,-2.573605071074295e-05,8.607655133998412e-05,2.231759877200355e-05,8.717931361227176e-05,8.661661801784802e-05
66.97168783650001,36.9716878365,8,0,-1.425329423967885,26.46874569255715,2.763838123594128,-2.573605071074295e-05,8.584024975535719e-05,2.211070498875302e-05,8.692510300550889e-05,8.652694885170351e-05
68.0283121635,35.5283121635,8,0,-1.163046637043943,26.47079285175897,3.012050062420719,-2.489838351994779e-05,8.563697443526386e-05,2.409640049936575e-05,8.693496940244678e-05,8.67291856714395e-05
69.47168783650001,35.5283121635,8,0,-1.18963471352868,26.36444054582002,2.98321484109461,-2.489838351994779e-05,8.531791751744701e-05,2.386571872875688e-05,8.65950610584727e-05,8.647484105659389e-05
68.0283121635,36.9716878365,8,0,-1.239940560580187,26.45156937087491,2.97216794769366,-2.512906529055653e-05,8.563697443526386e-05,2.377734358154928e-05,8.689863133976285e-05,8.64237364765472e-05
69.47168783650001,36.9716878365,8,0,-1.266528637064916,26.345217064936,2.943332726367551,-2.512906529055653e-05,8.531791751744712e-05,2.354666181094041e-05,8.655897537630192e-05,8.623142418978289e-05
70.5283121635,35.5283121635,8,0,-0.9964648349881982,26.33283303755213,3.140484404217049,-2.425495390200394e-05,8.506223758815738e-05,2.512387523373639e-05,8.648718992550672e-05,8.625722071427826e-05
71.97168783650001,35.5283121635,8,0,-1.028087638280557,26.2063418243827,3.109635441635603,-2.425495390200394e-05,8.468276394864906e-05,2.487708353308483e-05,8.608495221151424e-05,8.59170154971318e-05
70.5283121635,36.9716878365,8,0,-1.078728735205414,26.31226706249783,3.093050199278483,-2.450174560265559e-05,8.506223758815738e-05,2.474440159422786e-05,8.644195853540127e-05,8.605916526270627e-05
71.97168783650001,36.9716878365,8,0,-1.110351538497778,26.18577584932837,3.06220123669703,-2.450174560265559e-05,8.468276394864901e-05,2.449760989357624e-05,8.604001769732776e-05,8.578085740862002e-05
73.0283121635,35.5283121635,8,0,-0.8399398938401035,26.16179894549257,3.205785615249884,-2.361724681668238e-05,8.438970854064828e-05,2.564628492199907e-05,8.589126292183491e-05,8.564226207718509e-05
74.47168783650001,35.5283121635,8,0,-0.875037279224804,26.02140940395376,3.173856732334515,-2.361724681668238e-05,8.396853991603188e-05,2.539085385867612e-05,8.544633716995224e-05,8.523182699145187e-05
73.0283121635,36.9716878365,8,0,-0.9250835816144303,26.14051302354898,3.153139537172861,-2.387267788000536e-05,8.438970854064828e-05,2.522511629738289e-05,8.5839651531625e-05,8.555123043594961e-05
74.47168783650001,36.9716878365,8,0,-0.9601809669991033,26.00012348201029,3.121210654257506,-2.387267788000536e-05,8.39685399160322e-05,2.496968523406004e-05,8.539504800801672e-05,8.520218573388545e-05
75.5283121635,35.5283121635,8,0,-0.6952297009291053,25.96699174752927,3.2094970350635,-2.299832844099655e-05,8.365055735283695e-05,2.5675976280508e-05,8.51741786857163e-05,8.491070028155959e-05
76.97168783650001,35.5283121635,8,0,-0.7325276920949824,25.81779978286577,3.177302348683518,-2.299832844099655e-05,8.320298145884643e-05,2.541841878946814e-05,8.470272540444417e-05,8.444380088016231e-05
75.5283121635,36.9716878365,8,0,-0.7810821979424274,25.94552862327594,3.153550048314691,-2.325588593203652e-05,8.365055735283695e-05,2.522840038651753e-05,8.511877915893929e-05,8.492585845950806e-05
76.97168783650001,36.9716878365,8,0,-0.8183801891082867,25.79633665861251,3.121355361934729,-2.325588593203652e-05,8.320298145884664e-05,2.497084289547783e-05,8.464765827528327e-05,8.451996300842414e-05
78.0283121635,35.5283121635,8,0,-0.5630621997684671,25.75617235914767,3.152936359811478,-2.240673692657723e-05,8.287020130908732e-05,2.522349087849182e-05,8.435995545872727e-05,8.408584633528857e-05
79.47168783650001,35.5283121635,8,0,-0.6015285650135382,25.60230689816739,3.121099791318485,-2.240673692657723e-05,8.240860492614646e-05,2.496879833054788e-05,8.387508544965643e-05,8.357479573324904e-05
78.0283121635,36.9716878365,8,0,-0.6479597157497565,25.73494798015235,3.095236811943857,-2.26614294745211e-05,8.287020130908732e-05,2.476189449555086e-05,8.430327085705064e-05,8.420672745047911e-05
79.47168783650001,36.9716878365,8,0,-0.6864260809948277,25.58108251917206,3.063400243450871,-2.26614294745211e-05,8.240860492614646e-05,2.450720194760697e-05,8.381873365262025e-05,8.375684744248372e-05
80.5283121635,35.5283121635,8,0,-0.4434244023779641,25.53580340428944,3.036779788198669,-2.184760081104104e-05,8.206931041562858e-05,2.429423830558935e-05,8.347033018797456e-05,8.318877312587757e-05
81.97168783650001,35.5283121635,8,0,-0.4822055239248053,25.38067891810208,3.005687530563883,-2.184760081104104e-05,8.160393695706648e-05,2.404550024451106e-05,8.298279769368458e-05,8.264519035166328e-05
80.5283121635,36.9716878365,8,0,-0.5263370894041293,25.5150752325329,2.978608105878435,-2.209633887211953e-05,8.206931041562858e-05,2.382886484702748e-05,8.341470231375609e-05,8.341599410449649e-05
81.97168783650001,36.9716878365,8,0,-0.565118210950966,25.35995074634555,2.947515848243621,-2.209633887211953e-05,8.160393695706654e-05,2.358012678594897e-05,8.292749927644891e-05,8.293464547514171e-05
83.02831216350002,35.5283121635,8,0,-0.3358770104093294,25.31139559057756,2.860753550105872,-2.13239229057719e-05,8.126516749817566e-05,2.288602840084698e-05,8.252604962267717e-05,8.223975361915404e-05
84.47168783650002,35.5283121635,8,0,-0.3742238366775892,25.15800828550453,2.83052553390497,-2.13239229057719e-05,8.080500558295655e-05,2.264420427123976e-05,8.20451253187117e-05,8.167566264085128e-05
83.02831216350002,36.9716878365,8,0,-0.4164850536118045,25.29124357977695,2.8032333107035,-2.156574703537933e-05,8.126516749817566e-05,2.2425866485628e-05,8.247365077046866e-05,8.257556609228611e-05
84.47168783650002,36.9716878365,8,0,-0.4548318798800643,25.13785627470391,2.773005294502584,-2.156574703537933e-05,8.080500558295655e-05,2.218404235602067e-05,8.199305461264306e-05,8.207589160368722e-05
85.5283121635,35.5283121635,8,0,-0.2398737094771803,25.08791771022123,2.623417162821226,-2.083793003850396e-05,8.047323564028968e-05,2.098733730256981e-05,8.15487377939795e-05,8.126030543077955e-05
86.97168783650002,35.5283121635,8,0,-0.2770612448613097,24.93916756868472,2.593892460849207,-2.083793003850396e-05,8.002698521568014e-05,2.075113968679366e-05,8.108321791844248e-05,8.068961940782801e-05
85.5283121635,36.9716878365,8,0,-0.3186062480692078,25.0682345755733,2.567635859745057,-2.10741276542801e-05,8.04732356402899e-05,2.054108687796045e-05,8.150158880392546e-05,8.170891030243166e-05
86.97168783650002,36.9716878365,8,0,-0.3557937834533362,24.91948443403678,2.538111157773018,-2.10741276542801e-05,8.002698521568036e-05,2.030488926218414e-05,8.103640248000987e-05,8.120597323052999e-05
88.02831216350002,35.5283121635,8,0,-0.1550800796635823,24.87024673613612,2.322018545096742,-2.039245364383236e-05,7.970885361936644e-05,1.857614836077394e-05,8.056336918433002e-05,8.027594536759344e-05
89.47168783650001,35.5283121635,8,0,-0.1903218513343585,24.72927964945301,2.292750298088257,-2.039245364383236e-05,7.928595235931712e-05,1.834200238470606e-05,8.012271425928438e-05,7.971645289480383e-05
88.02831216350002,36.9716878365,8,0,-0.2331287383528871,24.85073457146379,2.26915588759053,-2.062659961990027e-05,7.970885361936644e-05,1.815324710072424e-05,8.052333849803176e-05,8.084341707870799e-05
89.47168783650001,36.9716878365,8,0,-0.2683705100236606,24.7097674847807,2.239887640582066,-2.062659961990027e-05,7.928595235931715e-05,1.791910112465653e-05,8.008303150046677e-05,8.035583232319318e-05
90.52831216350002,35.5283121635,8,0,-0.08169877042404305,24.66365019667681,1.952404083412599,-1.999235622269839e-05,7.898903964570503e-05,1.561923266730079e-05,7.960142833591415e-05,7.931989674479417e-05
91.97168783650001,35.5283121635,8,0,-0.1140553836729206,24.5342237436813,1.922661143771847,-1.999235622269839e-05,7.86007602867185e-05,1.538128915017477e-05,7.919705392223761e-05,7.879597766765744e-05
90.52831216350002,36.9716878365,8,0,-0.1610132761326843,24.64382157024965,1.903869163539289,-2.023029973982431e-05,7.898903964570503e-05,1.523095330831432e-05,7.95701540840458e-05,8.001334814382586e-05
91.97168783650001,36.9716878365,8,0,-0.1933698893815619,24.51439511725414,1.874126223898551,-2.023029973982431e-05,7.86007602867185e-05,1.499300979118841e-05,7.916614855374876e-05,7.956524872048079e-05
93.02831216350002,35.5283121635,8,0,-0.02081531029076,24.4743052249652,1.508973829997175,-1.964605317290259e-05,7.833442896812122e-05,1.20717906399774e-05,7.870485799497259e-05,7.843821498489631e-05
94.47168783650002,35.5283121635,8,0,-0.04909458821571544,24.36118811326537,1.477748420332005,-1.964605317290259e-05,7.799507763302176e-05,1.182198736265604e-05,7.835161515983379e-05,7.798470823563594e-05
93.02831216350002,36.9716878365,8,0,-0.1040830693977988,24.45348828518843,1.466554913109742,-1.98958564502237e-05,7.833442896812122e-05,1.173243930487793e-05,7.868351349796502e-05,7.926332060433695e-05
94.47168783650002,36.9716878365,8,0,-0.1323623473227409,24.34037117348867,1.435329503444605,-1.98958564502237e-05,7.799507763302192e-05,1.148263602755684e-05,7.833065640475338e-05,7.888653707410842e-05
95.5283121635,35.5283121635,8,0,0.02521642468788698,24.30986715584575,0.9846814147343773,-1.936720116567536e-05,7.77714017589561e-05,7.877451317875019e-06,7.793084545136068e-05,7.769720460443135e-05
96.97168783650002,35.5283121635,8,0,0.002571214912759245,24.21928631674524,0.9507044888696041,-1.936720116567536e-05,7.749965924165456e-05,7.605635910956833e-06,7.764872162220963e-05,7.736523682584682e-05
95.5283121635,36.9716878365,8,0,-0.06538871095153098,24.2872158719359,0.9507136000716889,-1.963901657259362e-05,7.77714017589561e-05,7.605708800573511e-06,7.791963772729291e-05,7.865197546350622e-05
96.97168783650002,36.9716878365,8,0,-0.08803392072665872,24.19663503283539,0.9167366742069089,-1.963901657259362e-05,7.749965924165456e-05,7.333893393655271e-06,7.763788833200815e-05,7.838792475603712e-05
98.02831216350002,35.5283121635,8,0,0.0523276940164763,24.1801056374355,0.3710893364474028,-1.917663588909567e-05,7.733447588458041e-05,2.968714691579222e-06,7.735730015571525e-05,7.719482640289294e-05
99.47168783650002,35.5283121635,8,0,0.03736546011574227,24.12025670183256,0.3328580312903694,-1.917663588909567e-05,7.71549290777716e-05,2.662864250322955e-06,7.717332775107605e-05,7.706122424780839e-05
98.02831216350002,36.9716878365,8,0,-0.0496224530689453,24.15461810066414,0.3486459855963042,-1.948248633035194e-05,7.733447588458041e-05,2.789167884770434e-06,7.735455977241705e-05,7.82545616129414e-05
99.47168783650002,36.9716878365,8,0,-0.06458468696967934,24.09476916506121,0.3104146804392809,-1.948248633035194e-05,7.71549290777716e-05,2.483317443514248e-06,7.71708800626038e-05,7.815425743760044e-05
0.5283121635,38.0283121635,8,0,-0.05181142421649063,0.8128647454457332,-0.4585875006795086,-8.160883538493565e-07,2.642616324799538e-06,-3.668700005436069e-06,3.434275577276801e-06,7.19416121611126e-06
1.9716878365,38.0283121635,8,0,0.1426070970709697,1.590538830595575,-0.4959990128496598,-8.160883538493565e-07,4.975638580249062e-06,-3.967992102797279e-06,5.590083582801302e-06,8.136634015607767e-06
0.5283121635,39.4716878365,8,0,-0.151575456670155,0.787923737332317,-0.16695971874844,-1.115380451210349e-06,2.642616324799538e-06,-1.33567774998752e-06,2.757770314392182e-06,8.057704460630361e-06
1.9716878365,39.4716878365,8,0,0.04284306461730536,1.565597822482159,-0.2043712309185777,-1.115380451210349e-06,4.975638580249062e-06,-1.634969847348622e-06,5.083446335400132e-06,8.974537821787908e-06
3.0283121635,38.0283121635,8,0,-0.07673584467102534,2.076657485317269,-1.055324785316448,-1.906880691201096e-06,6.706692628752082e-06,-8.442598282531587e-06,8.430476238211348e-06,9.232600998705286e-06
4.4716878365,38.0283121635,8,0,0.1229562683215594,2.875425937287608,-1.089713066533895,-1.906880691201096e-06,9.102997984663098e-06,-8.717704532271164e-06,1.061973581050801e-05,1.128436568057648e-05
3.0283121635,39.4716878365,8,0,-0.1684379279174968,2.053731964505516,-0.7557866158276121,-2.181986940940402e-06,6.706692628751648e-06,-6.046292926620896e-06,7.63744081172454e-06,1.004278624935937e-05
4.4716878365,39.4716878365,8,0,0.03125418507509703,2.852500416475891,-0.790174897045005,-2.181986940940402e-06,9.102997984662773e-06,-6.32139917636004e-06,9.927942655648731e-06,1.204446186755669e-05
5.528312163500001,38.0283121635,8,0,-0.1130070245680378,3.37034419294112,-1.567861203280463,-3.057897832970616e-06,1.087550703706601e-05,-1.25428896262437e-05,1.328248919574526e-05,1.294171137355067e-05
6.9716878365,38.0283121635,8,0,0.09084959479312538,4.185770670385772,-1.601815452564537,-3.057897832970616e-06,1.332178646939997e-05,-1.281452362051629e-05,1.553033449970546e-05,1.541789933078292e-05
5.528312163500001,39.4716878365,8,0,-0.2035516893254964,3.347708026751619,-1.262076274238745,-3.329531827242884e-06,1.087550703706558e-05,-1.009661019390996e-05,1.24868367335152e-05,1.366338232206875e-05
6.9716878365,39.4716878365,8,0,0.0003049300356487983,4.163134504196201,-1.296030523522806,-3.329531827242884e-06,1.332178646939932e-05,-1.036824418818244e-05,1.480386519178355e-05,1.608467963919892e-05
8.028312163500001,38.0283121635,8,0,-0.1631337238863664,4.687418705644705,-2.010561491030147,-4.271962880952136e-06,1.513024683717215e-05,-1.608449192824117e-05,1.80302988945972e-05,1.728773121055745e-05
9.471687836500001,38.0283121635,8,0,0.04474345745567976,5.518927431012889,-2.045679376026896,-4.271962880952136e-06,1.76247730132767e-05,-1.636543500821517e-05,2.034474902062256e-05,1.992001895069846e-05
8.028312163500001,39.4716878365,8,0,-0.2567814172110132,4.664006782313272,-1.698745719017037,-4.55290596092586e-06,1.513024683717128e-05,-1.35899657521363e-05,1.72481193511943e-05,1.791355795703018e-05
9.471687836500001,39.4716878365,8,0,-0.04890423586891313,5.495515507681673,-1.733863604013786,-4.55290596092586e-06,1.762477301327648e-05,-1.387090883211029e-05,1.961503476165296e-05,2.048884912528852e-05
10.5283121635,38.0283121635,8,0,-0.231935851515175,6.0263275307,-2.392239928915914,-5.563256749408559e-06,1.946979677945214e-05,-1.913791943132731e-05,2.270853682598678e-05,2.186694966901455e-05
11.9716878365,38.0283121635,8,0,-0.01975481030906501,6.87505169552444,-2.429079013390787,-5.563256749408559e-06,2.201596927392546e-05,-1.94326321071263e-05,2.509526922854839e-05,2.455377557035585e-05
10.5283121635,39.4716878365,8,0,-0.3301734101148546,6.001768141050079,-2.073968367106831,-5.857969425207598e-06,1.946979677945214e-05,-1.659174693685464e-05,2.194511616053045e-05,2.239304465978831e-05
11.9716878365,39.4716878365,8,0,-0.1179923689087896,6.850492305874339,-2.110807451581663,-5.857969425207598e-06,2.201596927392491e-05,-1.68864596126533e-05,2.437400665075163e-05,2.502011243955034e-05
13.0283121635,38.0283121635,8,0,-0.3245222846904909,7.387597109193812,-2.716342603475516,-6.94854899836462e-06,2.389992857717259e-05,-2.173074082780413e-05,2.734268256550383e-05,2.652665080437758e-05
14.4716878365,38.0283121635,8,0,-0.1077806145561895,8.254563789731018,-2.754518258522192,-6.94854899836462e-06,2.65008286187842e-05,-2.203614606817754e-05,2.980394920435393e-05,2.922982027960712e-05
13.0283121635,39.4716878365,8,0,-0.4263240314817536,7.362146672495996,-2.39123009827401,-7.253954238738407e-06,2.389992857717259e-05,-1.912984078619208e-05,2.660217768064683e-05,2.694781411970795e-05
14.4716878365,39.4716878365,8,0,-0.2095823613474521,8.229113353033203,-2.429405753320726,-7.253954238738407e-06,2.65008286187842e-05,-1.943524602656581e-05,2.909851199008236e-05,2.958732527219628e-05
15.5283121635,38.0283121635,8,0,-0.4446943251933484,8.771432237770851,-2.981781363601903,-8.440167630835394e-06,2.84243386210214e-05,-2.385425090881523e-05,3.194668129878466e-05,3.12084114530697e-05
16.9716878365,38.0283121635,8,0,-0.2235087407275653,9.656174575633983,-3.020169993586666,-8.440167630835394e-06,3.107856563461079e-05,-2.416135994869333e-05,3.447897875837397e-05,3.391085359137706e-05
15.5283121635,39.4716878365,8,0,-0.5470640051526794,8.745839817781018,-2.650002986903161,-8.747276670713388e-06,2.84243386210214e-05,-2.120002389522529e-05,3.123461704571172e-05,3.151765512626975e-05
16.9716878365,39.4716878365,8,0,-0.3258784206869234,9.630582155644042,-2.68839161688791,-8.747276670713388e-06,3.107856563461047e-05,-2.150713293510328e-05,3.379667672981964e-05,3.415190321070135e-05
18.0283121635,38.0283121635,8,0,-0.5938336533545137,10.17590641037115,-3.184217799750053,-1.004099281903137e-05,3.30379674358713e-05,-2.547374239800042e-05,3.652201807649488e-05,3.588413544854722e-05
19.4716878365,38.0283121635,8,0,-0.3689204650107833,11.07555916374607,-3.221228018159721,-1.004099281903137e-05,3.573692569599606e-05,-2.576982414527777e-05,3.911439777225432e-05,3.85727996019118e-05
18.0283121635,39.4716878365,8,0,-0.6925275691134671,10.15123293143142,-2.846848017234484,-1.033707456630823e-05,3.30379674358713e-05,-2.277478413787587e-05,3.584577793497602e-05,3.607371169108981e-05
19.4716878365,39.4716878365,8,0,-0.4676143807697457,11.0508856848063,-2.883858235644085,-1.033707456630823e-05,3.573692569599596e-05,-2.307086588515268e-05,3.84636517746796e-05,3.868994201771947e-05
20.5283121635,38.0283121635,8,0,-0.7703150761929449,11.5958146123782,-3.317603916663689,-1.174165993371998e-05,3.772285882056459e-05,-2.654083133330951e-05,4.105817122767252e-05,4.053040348530428e-05
21.9716878365,38.0283121635,8,0,-0.5430890814544913,12.50471859133201,-3.351477081124513,-1.174165993371998e-05,4.044957075742604e-05,-2.681181664899611e-05,4.369163627229174e-05,4.319001260268952e-05
20.5283121635,39.4716878365,8,0,-0.8606435147552514,11.57323250273762,-2.976764924556035,-1.20126452494069e-05,3.772285882056459e-05,-2.381411939644828e-05,4.042652608039592e-05,4.059342554980963e-05
21.9716878365,39.4716878365,8,0,-0.6334175200168248,12.48213648169133,-3.010638089016859,-1.20126452494069e-05,4.044957075742572e-05,-2.408510471213487e-05,4.308183217505096e-05,4.317760894444207e-05
23.0283121635,38.0283121635,8,0,-0.9694520319055115,13.02221310543138,-3.375777846588451,-1.352001698644274e-05,4.244664356290481e-05,-2.700622277270761e-05,4.553421270189062e-05,4.511941643987989e-05
24.4716878365,38.0283121635,8,0,-0.742002662376144,13.93201058354885,-3.404876634068738,-1.352001698644274e-05,4.517603599725722e-05,-2.723901307254991e-05,4.818226142471399e-05,4.773103663424119e-05
23.0283121635,39.4716878365,8,0,-1.047048798519719,13.00281391377782,-3.034603792294386,-1.375280728628536e-05,4.244664356290481e-05,-2.427683033835509e-05,4.495632342095046e-05,4.50514289742035e-05
24.4716878365,39.4716878365,8,0,-0.8195994289903514,13.91261139189529,-3.063702579774721,-1.375280728628536e-05,4.517603599725722e-05,-2.450962063819777e-05,4.762293708960607e-05,4.758661710533716e-05
25.5283121635,38.0283121635,8,0,-1.183924955821305,14.44261014493314,-3.353909624047986,-1.534264797457469e-05,4.71634924284431e-05,-2.683127699238389e-05,4.992121100462871e-05,4.961729539325365e-05
26.9716878365,38.0283121635,8,0,-0.958888329678909,15.34275664950273,-3.376954921804888,-1.534264797457469e-05,4.986393194215185e-05,-2.701563937443911e-05,5.255137318635149e-05,5.215902996495527e-05
25.5283121635,39.4716878365,8,0,-1.245379083172836,14.42724661309526,-3.016354684834454,-1.552701035662928e-05,4.71634924284431e-05,-2.413083747867563e-05,4.940542779241952e-05,4.941743410332725e-05
26.9716878365,39.4716878365,8,0,-1.02034245703044,15.32739311766484,-3.039399982591247,-1.552701035662928e-05,4.986393194215185e-05,-2.431519986072998e-05,5.205113657526744e-05,5.18841310302759e-05
28.0283121635,38.0283121635,8,0,-1.404571969103354,15.8416979265757,-3.249617909077606,-1.716798864239129e-05,5.181709094032494e-05,-2.599694327262085e-05,5.418503902064847e-05,5.398558288989518e-05
29.4716878365,38.0283121635,8,0,-1.1849311270377,16.72026129483832,-3.265844240632105,-1.716798864239129e-05,5.445278104511278e-05,-2.612675392505684e-05,5.676109870187542e-05,5.643408371205511e-05
28.0283121635,39.4716878365,8,0,-1.447842186582045,15.83088037220603,-2.920156645979207,-1.729779929482737e-05,5.181709094032494e-05,-2.336125316783366e-05,5.373777694876993e-05,5.365717142514156e-05
29.4716878365,39.4716878365,8,0,-1.228201344516413,16.70944374046856,-2.936382977533706,-1.729779929482737e-05,5.445278104511251e-05,-2.349106382026965e-05,5.632658311100352e-05,5.603451094104381e-05
30.5283121635,38.0283121635,8,0,-1.621366721117449,17.20244927116897,-3.063643212109843,-1.895033292451101e-05,5.634493104463467e-05,-2.450914569687875e-05,5.828920163803274e-05,5.818390770132475e-05
31.9716878365,38.0283121635,8,0,-1.410220068645199,18.04703588105797,-3.072860464701221,-1.895033292451101e-05,5.887869087430167e-05,-2.458288371760977e-05,6.07737217233435e-05,6.05160149223556e-05
30.5283121635,39.4716878365,8,0,-1.64594606136095,17.1963044361081,-2.746923233401408,-1.902407094524152e-05,5.634493104463467e-05,-2.197538586721126e-05,5.791410518006746e-05,5.77344970317327e-05
31.9716878365,39.4716878365,8,0,-1.434799408888659,18.04089104599726,-2.756140485992738,-1.902407094524152e-05,5.887869087430216e-05,-2.20491238879419e-05,6.040880006599016e-05,6.000160588795034e-05
33.0283121635,38.0283121635,8,0,-1.824395527540568,18.50736812031753,-2.80005366209554,-2.064396018438384e-05,6.068309440704855e-05,-2.240042929676432e-05,6.219737241577286e-05,6.21727398631514e-05
34.4716878365,38.0283121635,8,0,-1.624732002593655,19.30602222010518,-2.802622710321727,-2.064396018438384e-05,6.30790567064115e-05,-2.242098168257382e-05,6.455414935323931e-05,6.436688935473363e-05
33.0283121635,39.4716878365,8,0,-1.831246322810428,18.5056554215002,-2.500558374675171,-2.066451257019353e-05,6.068309440704898e-05,-2.000446699740137e-05,6.189488468518134e-05,6.161370367466225e-05
34.4716878365,39.4716878365,8,0,-1.631582797863556,19.30430952128769,-2.503127422901358,-2.066451257019353e-05,6.307905670641144e-05,-2.002501938321087e-05,6.425952751565637e-05,6.375092787869814e-05
35.5283121635,38.0283121635,8,0,-2.004681788158106,19.73969536406269,-2.466046832477972,-2.220673801335609e-05,6.477077059552708e-05,-1.972837465982378e-05,6.587544565721162e-05,6.591568898261191e-05
36.9716878365,38.0283121635,8,0,-1.81919128834416,20.48165736331847,-2.462791933126726,-2.220673801335609e-05,6.699665659329443e-05,-1.970233546501381e-05,6.807161534129846e-05,6.795293876531683e-05
35.5283121635,39.4716878365,8,0,-1.996002056554818,19.74186529696351,-2.18781108275704,-2.218069881854622e-05,6.477077059552708e-05,-1.750248866205632e-05,6.564279553492559e-05,6.526154221866231e-05
36.9716878365,39.4716878365,8,0,-1.810511556740872,20.48382729621929,-2.184556183405827,-2.218069881854622e-05,6.699665659329443e-05,-1.747644946724662e-05,6.784482242934721e-05,6.725139314222613e-05
38.0283121635,38.0283121635,8,0,-2.154773439444134,20.88442513852209,-2.071467683369626,-2.36028151170389e-05,6.855397919482598e-05,-1.657174146695701e-05,6.929303966179056e-05,6.938114056241845e-05
39.4716878365,38.0283121635,8,0,-1.985706899979577,21.56069129638032,-2.063554858443402,-2.36028151170389e-05,7.058277766840067e-05,-1.650843886754721e-05,7.130068730003329e-05,7.124581065302228e-05
38.0283121635,39.4716878365,8,0,-2.133672572974213,20.88970035513963,-1.81786787417285,-2.353951251762919e-05,6.855397919482619e-05,-1.45429429933828e-05,6.912458098596276e-05,6.864874851012829e-05
39.4716878365,39.4716878365,8,0,-1.964606033509669,21.56596651299781,-1.809955049246633,-2.353951251762919e-05,7.058277766840073e-05,-1.447964039397306e-05,7.113640311930942e-05,7.047654344806459e-05
40.5283121635,38.0283121635,8,0,-2.269080848659927,21.92905925486112,-1.62817629346128,-2.480430611960066e-05,7.198825429448352e-05,-1.302541034769024e-05,7.242449671898242e-05,7.254325120549708e-05
41.97168783650001,38.0283121635,8,0,-2.118161258835166,22.53273761416016,-1.616984238625042,-2.480430611960066e-05,7.379928937238065e-05,-1.293587390900034e-05,7.422174596402645e-05,7.42232546242054e-05
40.5283121635,39.4716878365,8,0,-2.239235369096679,21.93652062475193,-1.401796908724146,-2.471476968091092e-05,7.198825429448352e-05,-1.121437526979316e-05,7.231229330181218e-05,7.175105753911385e-05
41.97168783650001,39.4716878365,8,0,-2.08831577927191,22.54019898405101,-1.390604853887935,-2.471476968091092e-05,7.379928937238076e-05,-1.112483883110348e-05,7.411236643774626e-05,7.340529985303462e-05
43.0283121635,38.0283121635,8,0,-2.344004741844377,22.86409326944605,-1.149376645102143,-2.579208978945884e-05,7.504030225570285e-05,-9.195013160817145e-06,7.524949401577703e-05,7.538244839068805e-05
44.4716878365,38.0283121635,8,0,-2.212381810816849,23.39058499355616,-1.136378266696107,-2.579208978945884e-05,7.661977742803318e-05,-9.091026133568859e-06,7.682113246383263e-05,7.686942123796217e-05
43.0283121635,39.4716878365,8,0,-2.309342399428362,22.87275885505005,-0.9519422485608172,-2.56881027622108e-05,7.504030225570285e-05,-7.615537988486538e-06,7.51840397074763e-05,7.454979387925077e-05
44.4716878365,39.4716878365,8,0,-2.177719468400802,23.39925057916029,-0.9389438701548017,-2.56881027622108e-05,7.661977742803356e-05,-7.511550961238414e-06,7.675746858710497e-05,7.602236739404455e-05
45.52831216350001,38.0283121635,8,0,-2.377917081247968,23.68327010680982,-0.6489768576298048,-2.655595074544135e-05,7.768879800678979e-05,-5.191814861038439e-06,7.775340137409001e-05,7.788561811211587e-05
46.97168783650001,38.0283121635,8,0,-2.26615513430689,24.13031789457413,-0.6356394927001371,-2.655595074544135e-05,7.902994137008273e-05,-5.085115941601097e-06,7.90911319006016e-05,7.917494675564037e-05
45.52831216350001,39.4716878365,8,0,-2.342350774768674,23.69216168342971,-0.4813339372182479,-2.644925182600352e-05,7.768879800679001e-05,-3.850671497745983e-06,7.772438203710962e-05,7.703216676994722e-05
46.97168783650001,39.4716878365,8,0,-2.230588827827614,24.13920947119395,-0.4679965722885124,-2.644925182600352e-05,7.902994137008273e-05,-3.743972578308099e-06,7.906315388801431e-05,7.831841645568818e-05
48.0283121635,38.0283121635,8,0,-2.37105473755172,24.38365199720402,-0.1410094928737087,-2.709429675792872e-05,7.992453018109422e-05,-1.12807594298967e-06,7.992750283558607e-05,8.004613713467835e-05
49.47168783650001,38.0283121635,8,0,-2.279144844187024,24.7512915706628,-0.1287134864973305,-2.709429675792872e-05,8.102744890147058e-05,-1.029707891978644e-06,8.102990047653409e-05,8.113694486985199e-05
48.0283121635,39.4716878365,8,0,-2.338265387214541,24.39184933478831,-0.003144652826629407,-2.699592870691718e-05,7.992453018109422e-05,-2.515722261303525e-08,7.992453166089951e-05,7.919138567718253e-05
49.47168783650001,39.4716878365,8,0,-2.246355493849845,24.7594889082471,0.009151353549789482,-2.699592870691718e-05,8.102744890147058e-05,7.321082839831586e-08,8.102746130578736e-05,8.029013225810938e-05
50.5283121635,38.0283121635,8,0,-2.325364410335022,24.96555377760275,0.360889693128804,-2.741360913515427e-05,8.175006361659681e-05,2.887117545030432e-06,8.176914961473026e-05,8.186383974784808e-05
51.97168783650001,38.0283121635,8,0,-2.252755960690934,25.2559875761791,0.370919010657435,-2.741360913515427e-05,8.262136501232587e-05,2.96735208525948e-06,8.264136678490426e-05,8.275894575120578e-05
50.5283121635,39.4716878365,8,0,-2.298619563591969,24.97223998928851,0.4698023675949576,-2.733337459492511e-05,8.175006361659681e-05,3.758418940759661e-06,8.178242765700785e-05,8.102666578620435e-05
51.97168783650001,39.4716878365,8,0,-2.226011113947881,25.26267378786487,0.4798316851235818,-2.733337459492511e-05,8.262136501232587e-05,3.838653480988654e-06,8.265485782383639e-05,8.194016622559643e-05
53.0283121635,38.0283121635,8,0,-2.244307989606906,25.43235983391579,0.8439575795417346,-2.752767343387473e-05,8.317899786021606e-05,6.751660636333877e-06,8.328184309133357e-05,8.334492293610328e-05
54.4716878365,38.0283121635,8,0,-2.189959666545128,25.64975312616291,0.8507093590991435,-2.752767343387473e-05,8.38311777369574e-05,6.805674872793147e-06,8.393506270353731e-05,8.405073637402976e-05
53.0283121635,39.4716878365,8,0,-2.226303244120418,25.43686102028742,0.9254800641343415,-2.747365919741527e-05,8.317899786021606e-05,7.403840513074732e-06,8.330270848435504e-05,8.254313123673009e-05
54.4716878365,39.4716878365,8,0,-2.17195492105864,25.65425431253453,0.9322318436917978,-2.747365919741527e-05,8.38311777369574e-05,7.457854749534382e-06,8.395596411738879e-05,8.327696184301151e-05
55.5283121635,38.0283121635,8,0,-2.132613438543689,25.79022517886703,1.296737638632537,-2.745654314643343e-05,8.423481132320944e-05,1.03739011090603e-05,8.447517621894838e-05,8.450171410861897e-05
56.97168783650001,38.0283121635,8,0,-2.095066139494737,25.94041437506284,1.299466918497141,-2.745654314643343e-05,8.468537891179688e-05,1.039573534797713e-05,8.492578883993019e-05,8.502799475472485e-05
55.5283121635,39.4716878365,8,0,-2.125335358904593,25.79204469877681,1.353058587205968,-2.743470890751614e-05,8.423481132320944e-05,1.082446869764774e-05,8.449651025640601e-05,8.375156823558081e-05
56.97168783650001,39.4716878365,8,0,-2.08778805985564,25.94223389497262,1.355787867070605,-2.743470890751614e-05,8.468537891179688e-05,1.084630293656484e-05,8.494708120199243e-05,8.431438640745087e-05
58.0283121635,38.0283121635,8,0,-1.995950635801909,26.04765127949032,1.709451468891101,-2.722516305815836e-05,8.494924460301055e-05,1.367561175112881e-05,8.536451879530074e-05,8.535218448380234e-05
59.47168783650001,38.0283121635,8,0,-1.973423395284168,26.13776024156129,1.707717073686266,-2.722516305815836e-05,8.521957148922344e-05,1.366173658949013e-05,8.56330174746175e-05,8.571160664886583e-05
58.0283121635,39.4716878365,8,0,-2.000575689681486,26.04649501602043,1.743242329667712,-2.723903821979709e-05,8.494924460301055e-05,1.39459386373417e-05,8.538098223653352e-05,8.466795391793571e-05
59.47168783650001,39.4716878365,8,0,-1.978048449163745,26.13660397809139,1.741507934462891,-2.723903821979709e-05,8.521957148922344e-05,1.393206347570313e-05,8.564942584656705e-05,8.507110014865688e-05
60.5283121635,38.0283121635,8,0,-1.840529656374664,26.21493790669818,2.074263917107272,-2.686164522575747e-05,8.53602250265339e-05,1.659411133685817e-05,8.597034572179848e-05,8.591911566701359e-05
61.9716878365,38.0283121635,8,0,-1.831034179374725,26.25291981469794,2.067943723052178,-2.686164522575747e-05,8.547417075053317e-05,1.654354978441742e-05,8.607999038029341e-05,8.612661868258262e-05
60.5283121635,39.4716878365,8,0,-1.857383507188213,26.21072444399479,2.088507132607173,-2.691220677819811e-05,8.53602250265339e-05,1.670805706085739e-05,8.597843211061246e-05,8.531270674009411e-05
61.9716878365,39.4716878365,8,0,-1.847888030188282,26.24870635199451,2.082186938552133,-2.691220677819811e-05,8.547417075053306e-05,1.665749550841707e-05,8.608804583091179e-05,8.556964199265113e-05
63.0283121635,38.0283121635,8,0,-1.672651911854295,26.30354098737844,2.385392214762423,-2.639531890783649e-05,8.550945268909443e-05,1.908313771809938e-05,8.63171850444199e-05,8.622891558604286e-05
64.47168783650001,38.0283121635,8,0,-1.674114718125722,26.29768976229273,2.374668077365362,-2.639531890783649e-05,8.549189901383732e-05,1.89973446189229e-05,8.629255988886631e-05,8.630089290819607e-05
63.0283121635,39.4716878365,8,0,-1.701249611579799,26.29639156244706,2.383198005355283,-2.6481112007013e-05,8.550945268909443e-05,1.906558404284227e-05,8.631510139821554e-05,8.570966770405904e-05
64.47168783650001,39.4716878365,8,0,-1.702712417851226,26.29054033736136,2.372473867958243,-2.6481112007013e-05,8.549189901383732e-05,1.897979094366595e-05,8.629048763325562e-05,8.583528980945068e-05
65.5283121635,38.0283121635,8,0,-1.498272828369222,26.32539879148309,2.639029281735991,-2.585479208396798e-05,8.543989439544126e-05,2.111223425388793e-05,8.64322758940796e-05,8.631019553363462e-05
66.97168783650001,38.0283121635,8,0,-1.508649960405488,26.28389026333803,2.62434007156409,-2.585479208396798e-05,8.531536881100607e-05,2.099472057251272e-05,8.629790932580697e-05,8.626363345682437e-05
65.5283121635,39.4716878365,8,0,-1.537444055494275,26.31560598470183,2.623463583681634,-2.597230576534314e-05,8.543989439544126e-05,2.098770866945307e-05,8.641968819496534e-05,8.588490347508829e-05
66.97168783650001,39.4716878365,8,0,-1.547821187530523,26.27409745655684,2.608774373509705,-2.597230576534314e-05,8.531536881100629e-05,2.087019498807764e-05,8.62853804280505e-05,8.589482842497409e-05
68.0283121635,38.0283121635,8,0,-1.322641893146788,26.29230675039764,2.833088245874649,-2.526629945838783e-05,8.519349511578985e-05,2.266470596699719e-05,8.63441244179853e-05,8.61923090830753e-05
69.47168783650001,38.0283121635,8,0,-1.340011855064859,26.22282690272534,2.815057127317585,-2.526629945838783e-05,8.498505557277299e-05,2.252045701854068e-05,8.612333692637234e-05,8.604400934697677e-05
68.0283121635,39.4716878365,8,0,-1.370724875965562,26.28028600469294,2.807033302997582,-2.541054840684415e-05,8.519349511578985e-05,2.245626642398066e-05,8.632182499537067e-05,8.586548688071224e-05
69.47168783650001,39.4716878365,8,0,-1.388094837883607,26.21080615702076,2.789002184440539,-2.541054840684415e-05,8.498505557277331e-05,2.231201747552431e-05,8.610114063991669e-05,8.577539934112717e-05
70.5283121635,38.0283121635,8,0,-1.150068814242545,26.21541507413405,2.966811601083728,-2.465255226488338e-05,8.480938328862299e-05,2.373449280866982e-05,8.608118661296082e-05,8.590407930095763e-05
71.97168783650001,38.0283121635,8,0,-1.17269431947455,26.12491305320603,2.94615913074721,-2.465255226488338e-05,8.453787722583893e-05,2.356927304597768e-05,8.57952822137639e-05,8.567008304181023e-05
70.5283121635,39.4716878365,8,0,-1.205142068473233,26.20164676057638,2.932873343235653,-2.481777202757544e-05,8.480938328862299e-05,2.346298674588522e-05,8.605074504213914e-05,8.567843202547367e-05
71.97168783650001,39.4716878365,8,0,-1.227767573705238,26.11114473964836,2.912220872899169,-2.481777202757544e-05,8.453787722583893e-05,2.329776698319335e-05,8.576498075855022e-05,8.550359993200852e-05
73.0283121635,38.0283121635,8,0,-0.983833895888278,26.10489679559869,3.040308973714098,-2.403218590332144e-05,8.432273686262643e-05,2.432247178971278e-05,8.567088200847823e-05,8.547290241395586e-05
74.47168783650001,38.0283121635,8,0,-1.01018959091289,25.99947401550024,3.017764853637858,-2.403218590332144e-05,8.400646852233109e-05,2.414211882910286e-05,8.533872835013106e-05,8.516819117951395e-05
73.0283121635,39.4716878365,8,0,-1.043951549425026,26.0898673822145,3.000775431177187,-2.421253886393168e-05,8.432273686262643e-05,2.40062034494175e-05,8.563433046465018e-05,8.534993791943893e-05
74.47168783650001,39.4716878365,8,0,-1.070307244449615,25.98444460211615,2.97823131110094,-2.421253886393168e-05,8.400646852233136e-05,2.382585048880752e-05,8.530234523395625e-05,8.510495758735283e-05
75.5283121635,38.0283121635,8,0,-0.8262312904936611,25.96979974601037,3.05408751364311,-2.341977992638801e-05,8.376434421962812e-05,2.443270010914488e-05,8.513907508465675e-05,8.492434276046186e-05
76.97168783650001,38.0283121635,8,0,-0.8550002535324426,25.85472389385525,3.030311360067716,-2.341977992638801e-05,8.341911666316274e-05,2.424249088054173e-05,8.477705464357821e-05,8.456284772467984e-05
75.5283121635,39.4716878365,8,0,-0.8896343666947111,25.95394897696011,3.010934069084951,-2.360998915499116e-05,8.376434421962812e-05,2.408747255267961e-05,8.509865924996212e-05,8.490504361570999e-05
76.97168783650001,39.4716878365,8,0,-0.9184033297334704,25.83887312480508,2.987157915509557,-2.360998915499116e-05,8.341911666316301e-05,2.389726332407646e-05,8.47368277202352e-05,8.460384882010175e-05
78.0283121635,38.0283121635,8,0,-0.6787157111081594,25.8180672234808,3.008623779797634,-2.282634405433075e-05,8.316078768402508e-05,2.406899023838107e-05,8.45100879179956e-05,8.428226148650818e-05
79.47168783650001,38.0283121635,8,0,-0.7087607394111792,25.69788711026872,2.984140971919668,-2.282634405433075e-05,8.280024734438885e-05,2.387312777535735e-05,8.413236474782706e-05,8.387718066366805e-05
78.0283121635,39.4716878365,8,0,-0.7440031987827158,25.80174535156223,2.963556237343083,-2.302220651735447e-05,8.31607876840253e-05,2.370844989874467e-05,8.446809308433616e-05,8.436774319545856e-05
79.47168783650001,39.4716878365,8,0,-0.7740482270857623,25.68156523835004,2.939073429465098,-2.302220651735447e-05,8.280024734438874e-05,2.351258743572078e-05,8.409057368748517e-05,8.402388542856138e-05
80.5283121635,38.0283121635,8,0,-0.542118555228817,25.65669582100252,2.904005148197716,-2.226013603353423e-05,8.253512147139111e-05,2.323204118558173e-05,8.380725546568412e-05,8.356947379977177e-05
81.97168783650001,38.0283121635,8,0,-0.5724349732142153,25.53543014906093,2.879159634940084,-2.226013603353423e-05,8.217132445556633e-05,2.303327707952067e-05,8.342629130977414e-05,8.313388383657377e-05
80.5283121635,39.4716878365,8,0,-0.6083732572491156,25.64013214549745,2.858530521219652,-2.245890013959513e-05,8.253512147139111e-05,2.286824416975722e-05,8.376589948475756e-05,8.376156714659293e-05
81.97168783650001,39.4716878365,8,0,-0.6386896752344864,25.51886647355596,2.833685007962047,-2.245890013959513e-05,8.217132445556666e-05,2.266948006369638e-05,8.338515111905691e-05,8.338875803936763e-05
83.02831216350002,38.0283121635,8,0,-0.4169047085639237,25.49199528585059,2.739650185924444,-2.172769129608502e-05,8.190790868157301e-05,2.191720148739555e-05,8.305401457157869e-05,8.280891135018791e-05
84.47168783650002,38.0283121635,8,0,-0.4465603970865661,25.37337253176002,2.714573208592741,-2.172769129608502e-05,8.15520404193013e-05,2.171658566874193e-05,8.268127791837834e-05,8.235665996947998e-05
83.02831216350002,39.4716878365,8,0,-0.4837766481150929,25.47527730096279,2.695166653140493,-2.192830711473853e-05,8.190790868157301e-05,2.156133322512395e-05,8.301538612045763e-05,8.311060997737588e-05
84.47168783650002,39.4716878365,8,0,-0.5134323366377354,25.35665454687222,2.670089675808798,-2.192830711473853e-05,8.15520404193013e-05,2.136071740647038e-05,8.264287689693965e-05,8.27235044471806e-05
85.5283121635,38.0283121635,8,0,-0.3034513501785323,25.32992060685786,2.514105149181812,-2.123498080605759e-05,8.129850702208799e-05,2.011284119345449e-05,8.227552471425293e-05,8.202526495667855e-05
86.97168783650002,38.0283121635,8,0,-0.3315178385419024,25.21765465340438,2.488697478249799,-2.123498080605759e-05,8.096170916172755e-05,1.990957982599839e-05,8.192235669886682e-05,8.157212832499952e-05
85.5283121635,39.4716878365,8,0,-0.371205139330522,25.3129821595699,2.472005416636824,-2.143824217351359e-05,8.12985070220881e-05,1.977604333309459e-05,8.22415354001022e-05,8.244095707367659e-05
86.97168783650002,39.4716878365,8,0,-0.3992716276938824,25.20071620611646,2.446597745704804,-2.143824217351359e-05,8.096170916172777e-05,1.957278196563844e-05,8.188860714708531e-05,8.205612882388101e-05
88.02831216350002,38.0283121635,8,0,-0.2023407107617823,25.17645609801097,2.224908354950059,-2.078865515284648e-05,8.072653208224452e-05,1.779926683960047e-05,8.150083911711743e-05,8.124706952715781e-05
89.47168783650001,38.0283121635,8,0,-0.2278171998943614,25.07455014148065,2.198833608249101,-2.078865515284648e-05,8.042081421265356e-05,1.759066886599281e-05,8.117946220764172e-05,8.081212900764826e-05
88.02831216350002,39.4716878365,8,0,-0.2718733686310895,25.15907293354364,2.186693621251197,-2.09972531264544e-05,8.072653208224452e-05,1.749354897000958e-05,8.147314830335821e-05,8.178239681385464e-05
89.47168783650001,39.4716878365,8,0,-0.2973498577636642,25.05716697701334,2.160618874550219,-2.09972531264544e-05,8.042081421265362e-05,1.728495099640175e-05,8.115202236248616e-05,8.141937530456839e-05
90.52831216350002,38.0283121635,8,0,-0.1146676506994666,25.03804143286384,1.868514390552651,-2.039736962852936e-05,8.021346670572386e-05,1.494811512442121e-05,8.076565990024802e-05,8.050911011479823e-05
91.97168783650001,38.0283121635,8,0,-0.1363981552151259,24.95111941480121,1.84120190214634,-2.039736962852936e-05,7.995270065153595e-05,1.472961521717072e-05,8.049033200040908e-05,8.011618762335299e-05
90.52831216350002,39.4716878365,8,0,-0.187500953116273,25.01983310725964,1.835918633779165,-2.061586953577978e-05,8.021346670572386e-05,1.468734907023332e-05,8.074551896423954e-05,8.117010560898111e-05
91.97168783650001,39.4716878365,8,0,-0.2092314576319323,24.932911089197,1.808606145372861,-2.061586953577978e-05,7.995270065153595e-05,1.446884916298289e-05,8.047044530478436e-05,8.085210964510675e-05
93.02831216350002,38.0283121635,8,0,-0.04236932699107854,24.92203826080739,1.440274302124563,-2.007321245501736e-05,7.978441789617649e-05,1.15221944169965e-05,8.011569450207837e-05,7.985474650987014e-05
94.47168783650002,38.0283121635,8,0,-0.05895190895038649,24.85570793297016,1.410931509771667,-2.007321245501736e-05,7.95854269126648e-05,1.128745207817333e-05,7.990401589667045e-05,7.953339859606249e-05
93.02831216350002,39.4716878365,8,0,-0.1206167732654091,24.90247639923881,1.415400429185631,-2.030795479384035e-05,7.978441789617649e-05,1.132320343348505e-05,8.010364132492381e-05,8.064544651332733e-05
94.47168783650002,39.4716878365,8,0,-0.1371993552247019,24.83614607140164,1.386057636832756,-2.030795479384035e-05,7.958542691266499e-05,1.108846109466204e-05,7.989219782626329e-05,8.039882830110498e-05
95.5283121635,38.0283121635,8,0,0.011411918536405,24.83724224412928,0.9344747413440265,-1.983327565598693e-05,7.947004564638456e-05,7.475797930752212e-06,7.961054596553497e-05,7.933695573643276e-05
96.97168783650002,38.0283121635,8,0,0.001725543684656827,24.79849674472229,0.9021109564982034,-1.983327565598693e-05,7.935380914816359e-05,7.216887651985627e-06,7.948491169033889e-05,7.912161177692502e-05
95.5283121635,39.4716878365,8,0,-0.07489150771912811,24.8156663875654,0.9199451790663981,-2.009218593475353e-05,7.947004564638456e-05,7.359561432531184e-06,7.960586361054291e-05,8.025358578525509e-05
96.97168783650002,39.4716878365,8,0,-0.08457788257088339,24.77692088815838,0.8875813942205883,-2.009218593475353e-05,7.935380914816351e-05,7.100651153764707e-06,7.948039832725619e-05,8.010339406473955e-05
98.02831216350002,38.0283121635,8,0,0.0419198719316185,24.79444871659664,0.3444478249442845,-1.970141538309613e-05,7.930869999556395e-05,2.755582599554276e-06,7.932786916228524e-05,7.901476134699002e-05
99.47168783650002,38.0283121635,8,0,0.0413362053839581,24.792114050406,0.3079134681794399,-1.970141538309613e-05,7.930169599699202e-05,2.463307745435519e-06,7.931701608679411e-05,7.893818450309232e-05
98.02831216350002,39.4716878365,8,0,-0.05550507944136829,24.77009247875339,0.3435723251228205,-1.999369023721509e-05,7.930869999556395e-05,2.748578600982564e-06,7.932771574612392e-05,8.003193043435105e-05
99.47168783650002,39.4716878365,8,0,-0.05608874598902247,24.76775781256278,0.3070379683579318,-1.999369023721509e-05,7.93016959969921e-05,2.456303746863455e-06,7.931688427912177e-05,7.998687988574359e-05
0.5283121635,40.5283121635,8,0,-0.04842611990158624,1.468874117143823,-0.4359577888133536,-1.330062877400134e-06,4.739138070781503e-06,-3.487662310506828e-06,5.204501472987792e-06,8.705147222767076e-06
1.9716878365,40.5283121635,8,0,0.1314205279170343,2.188260708418305,-0.4718616886266642,-1.330062877400134e-06,6.897297844604949e-06,-3.774893509013314e-06,7.309633542300798e-06,9.599938681124714e-06
0.5283121635,41.9716878365,8,0,-0.1441698527370814,1.444938183934949,-0.1661878170854635,-1.61729407590662e-06,4.739138070781503e-06,-1.329502536683708e-06,4.807913167370714e-06,9.61045049947341e-06
1.9716878365,41.9716878365,8,0,0.0356767950815392,2.164324775209431,-0.2020917168987064,-1.61729407590662e-06,6.897297844604949e-06,-1.616733735189651e-06,6.973363845440724e-06,1.04706617978226e-05
3.0283121635,40.5283121635,8,0,-0.0832651773328793,2.639160344182462,-1.014786515835331,-2.377776842811183e-06,8.51192524325018e-06,-8.118292126682645e-06,9.858470937587422e-06,1.064451845030821e-05
4.4716878365,40.5283121635,8,0,0.1044918488968994,3.390188449101577,-1.047261729560759,-2.377776842811183e-06,1.076500955800753e-05,-8.378093836486074e-06,1.198664674876359e-05,1.260357199403978e-05
3.0283121635,41.9716878365,8,0,-0.1698657472673012,2.617510201699127,-0.7331509764907981,-2.637578552614666e-06,8.511925243251048e-06,-5.865207811926385e-06,9.236222828595535e-06,1.14782961452665e-05
4.4716878365,41.9716878365,8,0,0.01789127896240528,3.368538306617953,-0.7656261902162266,-2.637578552614666e-06,1.076500955800753e-05,-6.125009521729813e-06,1.143163769460834e-05,1.337099307970257e-05
5.528312163500001,40.5283121635,8,0,-0.1363794565522891,3.853829255624627,-1.511691467790272,-3.519477665467027e-06,1.244135718324064e-05,-1.209353174232218e-05,1.447345391705751e-05,1.419038591676127e-05
6.9716878365,40.5283121635,8,0,0.05751909084138607,4.629423445199328,-1.542604928598349,-3.519477665467027e-06,1.476813975196474e-05,-1.23408394287868e-05,1.665534718653154e-05,1.656658863224679e-05
5.528312163500001,41.9716878365,8,0,-0.2188153520403684,3.833220281752743,-1.220843646699882,-3.766785351931373e-06,1.244135718324107e-05,-9.766749173599053e-06,1.379896221877979e-05,1.490851556477579e-05
6.9716878365,41.9716878365,8,0,-0.02491680464671142,4.608814471327371,-1.251757107507891,-3.766785351931373e-06,1.476813975196496e-05,-1.001405686006313e-05,1.603425189481561e-05,1.72164081775179e-05
8.028312163500001,40.5283121635,8,0,-0.2072102035224193,5.10269169517385,-1.937466759142762,-4.745226007410821e-06,1.649438158737426e-05,-1.54997340731421e-05,1.902146608264031e-05,1.836249775086278e-05
9.471687836500001,40.5283121635,8,0,-0.008093717525194943,5.899157639162747,-1.968027391437689,-4.745226007410821e-06,1.888377941934095e-05,-1.574421913150151e-05,2.126619832227156e-05,2.089280999342095e-05
8.028312163500001,41.9716878365,8,0,-0.2887052229757008,5.08231794031053,-1.638792030146912,-4.989711065770666e-06,1.649438158737426e-05,-1.31103362411753e-05,1.833652329068269e-05,1.896319733073236e-05
9.471687836500001,41.9716878365,8,0,-0.08958873697842229,5.878783884299644,-1.669352662441825,-4.989711065770666e-06,1.88837794193416e-05,-1.33548212995346e-05,2.062452298033827e-05,2.142762143488525e-05
10.5283121635,40.5283121635,8,0,-0.2974115394913559,6.379941721320772,-2.299245290935417,-6.055670303428955e-06,2.065374273981955e-05,-1.839396232748334e-05,2.351423429916034e-05,2.276389411644192e-05
11.9716878365,40.5283121635,8,0,-0.09355888221475039,7.195352350427194,-2.329922311963522,-6.055670303428955e-06,2.309997462713882e-05,-1.863937849570817e-05,2.582445014524149e-05,2.534547876342982e-05
10.5283121635,41.9716878365,8,0,-0.3792169288997247,6.359490373968679,-1.993466305020522,-6.301086471654062e-06,2.065374273981955e-05,-1.594773044016418e-05,2.283593320582586e-05,2.325097868324823e-05
11.9716878365,41.9716878365,8,0,-0.1753642716230921,7.17490100307521,-2.024143326048668,-6.301086471654062e-06,2.309997462713914e-05,-1.619314660838934e-05,2.518217620644973e-05,2.576805922218376e-05
13.0283121635,40.5283121635,8,0,-0.4092632062147872,7.682002833951104,-2.600415422518334,-7.455244527048203e-06,2.490981963361536e-05,-2.080332338014667e-05,2.796446277330241e-05,2.723931782670047e-05
14.4716878365,40.5283121635,8,0,-0.2010668208471613,8.514788375421608,-2.630981679316131,-7.455244527048203e-06,2.740817625802687e-05,-2.104785343452905e-05,3.033862588744317e-05,2.983179772214659e-05
13.0283121635,41.9716878365,8,0,-0.4907732243421745,7.661625329419258,-2.288120844466841,-7.699774581430363e-06,2.490981963361536e-05,-1.830496675573473e-05,2.730299997552869e-05,2.761455744950217e-05
14.4716878365,41.9716878365,8,0,-0.2825768389745487,8.494410870889762,-2.318687101264679,-7.699774581430363e-06,2.740817625802687e-05,-1.854949681011743e-05,2.970773984305949e-05,3.014220388390088e-05
15.5283121635,40.5283121635,8,0,-0.544383480605398,9.005664174192111,-2.841095112335429,-8.946558477290962e-06,2.925363214189907e-05,-2.272876089868343e-05,3.237881037017067e-05,3.17268941150376e-05
16.9716878365,40.5283121635,8,0,-0.332423262799471,9.853505045415819,-2.870762484927794,-8.946558477290962e-06,3.17971547555702e-05,-2.296609987942236e-05,3.481061357251163e-05,3.431191385043034e-05
15.5283121635,41.9716878365,8,0,-0.6234964741850213,8.985885925797206,-2.52315478562658,-9.183897458029831e-06,2.925363214189907e-05,-2.018523828501264e-05,3.174251303629857e-05,3.198930199009993e-05
16.9716878365,41.9716878365,8,0,-0.4115362563791125,9.833726797020841,-2.552822158218904,-9.183897458029831e-06,3.179715475556998e-05,-2.042257726575123e-05,3.420055962790389e-05,3.450802142861584e-05
18.0283121635,40.5283121635,8,0,-0.7028122994677735,10.34663580175808,-3.018998172556916,-1.052630799970334e-05,3.367148440520007e-05,-2.415198538045533e-05,3.675573361433598e-05,3.619688538809881e-05
19.4716878365,40.5283121635,8,0,-0.4880421978453375,11.20571620824782,-3.04661237346579,-1.052630799970334e-05,3.62487256246693e-05,-2.437289898772632e-05,3.923326777470236e-05,3.876170366465654e-05
18.0283121635,41.9716878365,8,0,-0.7764501685581591,10.32822633448548,-2.696843020123275,-1.074722160697449e-05,3.367148440520007e-05,-2.15747441609862e-05,3.615267123428043e-05,3.634382594395523e-05
19.4716878365,41.9716878365,8,0,-0.5616800669357502,11.18730674097512,-2.72445722103215,-1.074722160697449e-05,3.624872562466898e-05,-2.17956577682572e-05,3.865282602691772e-05,3.884061771432409e-05
20.5283121635,40.5283121635,8,0,-0.8825000588826764,11.69859583223271,-3.130528439433276,-1.218287685421073e-05,3.81415067102508e-05,-2.504422751546621e-05,4.108517247137512e-05,4.062699773843889e-05
21.9716878365,40.5283121635,8,0,-0.6663389860355733,12.56324012362112,-3.154790449147147,-1.218287685421073e-05,4.073543958441604e-05,-2.523832359317717e-05,4.359061741631043e-05,4.315825764272833e-05
20.5283121635,41.9716878365,8,0,-0.9471987514528526,11.68242115909016,-2.806286830162648,-1.237697293192126e-05,3.81415067102508e-05,-2.245029464130119e-05,4.052341608216048e-05,4.065569659899384e-05
21.9716878365,41.9716878365,8,0,-0.7310376786057584,12.54706545047854,-2.830548839876485,-1.237697293192126e-05,4.073543958441593e-05,-2.264439071901188e-05,4.30483205751579e-05,4.311779256149901e-05
23.0283121635,40.5283121635,8,0,-1.07920158160153,13.05275246195425,-3.171938898546801,-1.389564703068829e-05,4.263216914353481e-05,-2.537551118837441e-05,4.534934629200722e-05,4.4993215518456e-05
24.4716878365,40.5283121635,8,0,-0.8635325274528163,13.9154286785491,-3.191620790949601,-1.389564703068829e-05,4.522019779331938e-05,-2.553296632759681e-05,4.785938502931946e-05,4.747515376061635e-05
23.0283121635,41.9716878365,8,0,-1.131686628009161,13.03963120035234,-2.848435317323676,-1.405310216991119e-05,4.263216914353481e-05,-2.278748253858941e-05,4.483658467152317e-05,4.490216086533932e-05
24.4716878365,41.9716878365,8,0,-0.9160175738604468,13.9023074169472,-2.868117209726517,-1.405310216991119e-05,4.522019779331938e-05,-2.294493767781213e-05,4.736323571754181e-05,4.731504976854865e-05
25.5283121635,40.5283121635,8,0,-1.286731887034639,14.39789292897742,-3.140401607291396,-1.563585638169278e-05,4.710264288235546e-05,-2.512321285833116e-05,4.952427631895651e-05,4.926741452732018e-05
26.9716878365,40.5283121635,8,0,-1.073822972356517,15.24952858768991,-3.15452791837061,-1.563585638169278e-05,4.965754985849293e-05,-2.523622334696488e-05,5.201118911981049e-05,5.16820237604152e-05
25.5283121635,41.9716878365,8,0,-1.324402049912544,14.38847538825795,-2.821038235274151,-1.57488668703265e-05,4.710264288235546e-05,-2.256830588219321e-05,4.906715870192122e-05,4.905741471344788e-05
26.9716878365,41.9716878365,8,0,-1.111493135234421,15.24011104697044,-2.835164546353372,-1.57488668703265e-05,4.965754985849293e-05,-2.268131637082698e-05,5.15680723736689e-05,5.140475536523261e-05
28.0283121635,40.5283121635,8,0,-1.497496651265839,15.72084031467501,-3.034859933827426,-1.736866153579069e-05,5.150468632797271e-05,-2.42788794706194e-05,5.3581715420818e-05,5.341793595667866e-05
29.4716878365,40.5283121635,8,0,-1.289866342331793,16.55136155041119,-3.042833507605176,-1.736866153579069e-05,5.399625003518126e-05,-2.434266806084141e-05,5.601497490711288e-05,5.574592704145551e-05
28.0283121635,41.9716878365,8,0,-1.518759514673209,15.71552459882317,-2.723414470426344,-1.74324501260128e-05,5.150468632797271e-05,-2.178731576341075e-05,5.318517033838303e-05,5.309274396659129e-05
29.4716878365,41.9716878365,8,0,-1.311129205739141,16.54604583455944,-2.731388044204122,-1.74324501260128e-05,5.399625003518153e-05,-2.185110435363297e-05,5.563002563778017e-05,5.535707393651166e-05
30.5283121635,40.5283121635,8,0,-1.703178800551493,17.00719706237545,-2.856579991718106,-1.905592981166513e-05,5.578557364004262e-05,-2.285263993374485e-05,5.749119981597443e-05,5.741133382759786e-05
31.9716878365,40.5283121635,8,0,-1.503432192829546,17.80618349326324,-2.858242744344799,-1.905592981166513e-05,5.818253293270599e-05,-2.286594195475839e-05,5.98393224308596e-05,5.963331869802536e-05
30.5283121635,41.9716878365,8,0,-1.707612807556027,17.00608856062432,-2.556960080135151,-1.906923183267874e-05,5.578557364004262e-05,-2.045568064108121e-05,5.715790277404691e-05,5.697784620431922e-05
31.9716878365,41.9716878365,8,0,-1.50786619983408,17.8050749915121,-2.558622832761899,-1.906923183267874e-05,5.818253293270599e-05,-2.046898266209519e-05,5.951542433809267e-05,5.914154841773602e-05
33.0283121635,40.5283121635,8,0,-1.895455394008405,18.24223273873756,-2.609375835006401,-2.065924345181694e-05,5.989150907916691e-05,-2.087500668005121e-05,6.122199068609478e-05,6.12143946141256e-05
34.4716878365,40.5283121635,8,0,-1.706117863292716,18.99958286160031,-2.605007349390647,-2.065924345181694e-05,6.216355944775517e-05,-2.084005879512518e-05,6.345439661237211e-05,6.33119894772911e-05
33.0283121635,41.9716878365,8,0,-1.88380609903306,18.24514506248119,-2.32536953893289,-2.062429556689074e-05,5.989150907916626e-05,-1.860295631146312e-05,6.095207956591202e-05,6.068249816125961e-05
34.4716878365,41.9716878365,8,0,-1.694468568317317,19.00249518534416,-2.321001053317108,-2.062429556689074e-05,6.216355944775517e-05,-1.856800842653687e-05,6.319191345278718e-05,6.272874893923848e-05
35.5283121635,40.5283121635,8,0,-2.066638650798021,19.41177929606471,-2.299538401647117,-2.214266711940543e-05,6.377100466804547e-05,-1.839630721317694e-05,6.474474787101367e-05,6.479596793965411e-05
36.9716878365,40.5283121635,8,0,-1.890007680480115,20.11830317733633,-2.289805234203932,-2.214266711940543e-05,6.589057631186036e-05,-1.831844187363146e-05,6.683342874157894e-05,6.675267763317466e-05
35.5283121635,41.9716878365,8,0,-2.040683537616203,19.41826807436016,-2.034591946170291,-2.206480177985998e-05,6.377100466804547e-05,-1.627673556936233e-05,6.453581481379207e-05,6.417814211860196e-05
36.9716878365,41.9716878365,8,0,-1.864052567298296,20.12479195563179,-2.024858778727079,-2.206480177985998e-05,6.589057631186036e-05,-1.619887022981663e-05,6.663019915966145e-05,6.609170714695627e-05
38.0283121635,40.5283121635,8,0,-2.210173688670419,20.50302682987029,-1.935536982836642,-2.347497726764157e-05,6.737782480652123e-05,-1.548429586269314e-05,6.803286000761066e-05,6.812840502853485e-05
39.4716878365,40.5283121635,8,0,-2.048201454732765,21.1509157656209,-1.921410610031223,-2.347497726764157e-05,6.932149161377308e-05,-1.537128488024979e-05,6.995372877321334e-05,6.99302524766625e-05
38.0283121635,41.9716878365,8,0,-2.172503361189383,20.51244441174047,-1.692578631930182,-2.33619662851984e-05,6.737782480652102e-05,-1.354062905544145e-05,6.788019300081792e-05,6.743919225166403e-05
39.4716878365,41.9716878365,8,0,-2.010531127251702,21.1603333474912,-1.678452259124783,-2.33619662851984e-05,6.932149161377319e-05,-1.342761807299826e-05,6.980530135639629e-05,6.920702499197006e-05
40.5283121635,40.5283121635,8,0,-2.3209690308063,21.50515537422186,-1.527576868334115,-2.463122519795764e-05,7.067327242215498e-05,-1.222061494667292e-05,7.106342856932603e-05,7.118856534312569e-05
41.97168783650001,40.5283121635,8,0,-2.175180110631211,22.08831105492221,-1.510237951654194,-2.463122519795764e-05,7.242273946425604e-05,-1.208190361323355e-05,7.279730223034855e-05,7.282449257813925e-05
40.5283121635,41.9716878365,8,0,-2.274731919659708,21.51671465200851,-1.308893488071529,-2.449251386451787e-05,7.067327242215498e-05,-1.047114790457223e-05,7.096044251775766e-05,7.044400175114296e-05
41.97168783650001,41.9716878365,8,0,-2.128942999484628,22.09987033270883,-1.291554571391547,-2.449251386451787e-05,7.242273946425593e-05,-1.033243657113238e-05,7.269735462516596e-05,7.205565236482282e-05
43.0283121635,40.5283121635,8,0,-2.395570997147395,22.40977992777156,-1.087089766823747,-2.55936511330889e-05,7.362775256658689e-05,-8.696718134589975e-06,7.381795396771057e-05,7.395844768937851e-05
44.4716878365,40.5283121635,8,0,-2.267013499031282,22.92400992023601,-1.067832314026065,-2.55936511330889e-05,7.517044254398025e-05,-8.542658512208522e-06,7.535117744512396e-05,7.542054343190471e-05
43.0283121635,41.9716878365,8,0,-2.344217789686864,22.42261822963669,-0.894253519649591,-2.543959151070732e-05,7.362775256658689e-05,-7.154028157196728e-06,7.375673949169988e-05,7.317551436515381e-05
44.4716878365,41.9716878365,8,0,-2.215660291570796,22.93684822210096,-0.8749960668519026,-2.543959151070732e-05,7.517044254397971e-05,-6.99996853481522e-06,7.529205169758768e-05,7.462338363397397e-05
45.52831216350001,40.5283121635,8,0,-2.432212467707394,23.21121628869664,-0.6262130906213104,-2.635205292762097e-05,7.622166209799515e-05,-5.009704724970483e-06,7.62827942137687e-05,7.642554150813373e-05
46.97168783650001,40.5283121635,8,0,-2.321437863190054,23.654314706766,-0.6063564144470016,-2.635205292762097e-05,7.755095735220322e-05,-4.850851315576013e-06,7.760754365894747e-05,7.770915157149094e-05
45.52831216350001,41.9716878365,8,0,-2.379261331242669,23.22445407281282,-0.4600511838452538,-2.619319951822679e-05,7.622166209799515e-05,-3.680409470762031e-06,7.625471648894911e-05,7.562166181380269e-05
46.97168783650001,41.9716878365,8,0,-2.26848672672533,23.66755249088218,-0.4401945076709451,-2.619319951822679e-05,7.755095735220322e-05,-3.521556061367561e-06,7.758083321990861e-05,7.690113925247794e-05
48.0283121635,40.5283121635,8,0,-2.430769632023231,23.90659021875054,-0.1572904594208233,-2.690373499747477e-05,7.844570440562033e-05,-1.258323675366586e-06,7.844946171560566e-05,7.858298933724069e-05
49.47168783650001,40.5283121635,8,0,-2.337836369043821,24.27832327066819,-0.1381017285039684,-2.690373499747477e-05,7.956090356137324e-05,-1.104813828031747e-06,7.95637697260255e-05,7.968674844758574e-05
48.0283121635,41.9716878365,8,0,-2.379599682911654,23.91938270602844,-0.01789056495174945,-2.675022515014004e-05,7.844570440562033e-05,-1.431245196139956e-07,7.844575308768131e-05,7.777557108280578e-05
49.47168783650001,41.9716878365,8,0,-2.286666419932271,24.29111575794597,0.001298165965051218,-2.675022515014004e-05,7.956090356137292e-05,1.038532772040975e-08,7.956090381500353e-05,7.888508583244316e-05
50.5283121635,40.5283121635,8,0,-2.392651435549651,24.49581354837445,0.3075927074562172,-2.725313543245844e-05,8.030072450323795e-05,2.460741659649737e-06,8.031479758558146e-05,8.042961726928347e-05
51.97168783650001,40.5283121635,8,0,-2.317148998382004,24.79782329704503,0.3249655735057056,-2.725313543245844e-05,8.120675374924971e-05,2.599724588045645e-06,8.122233000860524e-05,8.135541352326169e-05
50.5283121635,41.9716878365,8,0,-2.346323792751043,24.5073954590741,0.4208463632076535,-2.711415250406261e-05,8.030072450323795e-05,3.366770905661228e-06,8.032709972247708e-05,7.963562434804637e-05
51.97168783650001,41.9716878365,8,0,-2.270821355583395,24.80940520774469,0.4382192292571284,-2.711415250406261e-05,8.120675374924971e-05,3.505753834057027e-06,8.123511183275916e-05,8.057661895616144e-05
53.0283121635,40.5283121635,8,0,-2.320632453587937,24.98144352743877,0.7570327998702279,-2.741117867343241e-05,8.17971252506744e-05,6.056262398961823e-06,8.188102490921076e-05,8.196984308429549e-05
54.4716878365,40.5283121635,8,0,-2.261724479313782,25.21707542453539,0.7716185160643374,-2.741117867343241e-05,8.250402094196426e-05,6.172948128514699e-06,8.259062245259243e-05,8.272269960880517e-05
53.0283121635,41.9716878365,8,0,-2.281737210403772,24.99116733823481,0.8453947612814668,-2.729449294387992e-05,8.17971252506744e-05,6.763158090251735e-06,8.190184558280934e-05,8.120538242377347e-05
54.4716878365,41.9716878365,8,0,-2.222829236129636,25.22679923533136,0.8599804774754951,-2.729449294387992e-05,8.250402094196405e-05,6.879843819803961e-06,8.261168606918875e-05,8.198220155519071e-05
55.5283121635,40.5283121635,8,0,-2.218628919281809,25.36843336058961,1.180682188352688,-2.739435923017347e-05,8.295388988931217e-05,9.445457506821505e-06,8.315564625089022e-05,8.321342990394171e-05
56.97168783650001,40.5283121635,8,0,-2.175114825143063,25.54248973714459,1.191732579559802,-2.739435923017347e-05,8.347605901897712e-05,9.533860636478416e-06,8.368063813397319e-05,8.380127347861534e-05
55.5283121635,41.9716878365,8,0,-2.189161209396298,25.37580028806098,1.245953329560834,-2.730595610051694e-05,8.295388988931217e-05,9.967626636486673e-06,8.317870295750524e-05,8.249335451337899e-05
56.97168783650001,41.9716878365,8,0,-2.14564711525757,25.54985666461589,1.257003720767894,-2.730595610051694e-05,8.347605901897691e-05,1.005602976614315e-05,8.370379517165421e-05,8.311303123423059e-05
58.0283121635,40.5283121635,8,0,-2.091416210549658,25.6637794742741,1.569555448812831,-2.722355545317818e-05,8.379722728611683e-05,1.255644359050265e-05,8.415113237603109e-05,8.417503499060499e-05
59.47168783650001,40.5283121635,8,0,-2.061809636051544,25.78220577226655,1.576577307148477,-2.722355545317818e-05,8.415250618009419e-05,1.261261845718781e-05,8.450844303457556e-05,8.46083268566442e-05
58.0283121635,41.9716878365,8,0,-2.07269125498801,25.66846071316451,1.613965310560001,-2.716738058649323e-05,8.379722728611683e-05,1.291172248448001e-05,8.417156301296721e-05,8.351258600293451e-05
59.47168783650001,41.9716878365,8,0,-2.043084680489896,25.78688701115697,1.620987168895647,-2.716738058649323e-05,8.415250618009419e-05,1.296789735116518e-05,8.452889822176426e-05,8.398451321063488e-05
60.5283121635,40.5283121635,8,0,-1.9442961027856,25.87607846586784,1.916240293470126,-2.692261030160818e-05,8.435888797300554e-05,1.532992234776101e-05,8.488436173129502e-05,8.487352036966362e-05
61.9716878365,40.5283121635,8,0,-1.926915548615789,25.94560068254708,1.919007618208344,-2.692261030160818e-05,8.456745462304328e-05,1.535206094566675e-05,8.509346345235899e-05,8.516475065506194e-05
60.5283121635,41.9716878365,8,0,-1.936916570150487,25.87792334902662,1.94231112472489,-2.690047170370285e-05,8.435888797300554e-05,1.553848899779912e-05,8.489879455827986e-05,8.428004981852416e-05
61.9716878365,41.9716878365,8,0,-1.919536015980672,25.94744556570588,1.94507844946304,-2.690047170370285e-05,8.456745462304333e-05,1.556062759570432e-05,8.510789001433519e-05,8.461554363910823e-05
63.0283121635,40.5283121635,8,0,-1.782738653362356,26.01502208860914,2.21498607659721,-2.651678136164685e-05,8.467426160623914e-05,1.771988861277768e-05,8.537581484366935e-05,8.533104140172394e-05
64.47168783650001,40.5283121635,8,0,-1.775802365473318,26.0427672401653,2.213528902852152,-2.651678136164685e-05,8.47574970609076e-05,1.770823122281722e-05,8.545761570688884e-05,8.549412588505409e-05
63.0283121635,41.9716878365,8,0,-1.786624450015825,26.01405063944578,2.225390508430781,-2.652843875160726e-05,8.467426160623914e-05,1.780312406744625e-05,8.53823062771939e-05,8.481586298860241e-05
64.47168783650001,41.9716878365,8,0,-1.779688162126814,26.04179579100182,2.223933334685724,-2.652843875160726e-05,8.475749706090727e-05,1.779146667748579e-05,8.546409835487369e-05,8.502765180859881e-05
65.5283121635,40.5283121635,8,0,-1.612037567829709,26.090874947199,2.461655235464772,-2.603122017481426e-05,8.478042988530055e-05,1.969324188371818e-05,8.564858988593021e-05,8.557199239206201e-05
66.97168783650001,40.5283121635,8,0,-1.613752718934908,26.0840143427782,2.456224800639195,-2.603122017481426e-05,8.475984807203817e-05,1.964979840511356e-05,8.562436945125146e-05,8.562164316209444e-05
65.5283121635,41.9716878365,8,0,-1.62651872736468,26.08725465731525,2.459082508806954,-2.607466365341917e-05,8.478042988530055e-05,1.967266007045563e-05,8.564645583460459e-05,8.51423954734928e-05
66.97168783650001,41.9716878365,8,0,-1.628233878469887,26.08039405289442,2.453652073981371,-2.607466365341917e-05,8.475984807203806e-05,1.962921659185097e-05,8.562224024798837e-05,8.524409217584675e-05
68.0283121635,40.5283121635,8,0,-1.437021325963206,26.11398835287182,2.653544058491424,-2.548965892537971e-05,8.471437978996039e-05,2.12283524679314e-05,8.572736087262471e-05,8.562193882538065e-05
69.47168783650001,40.5283121635,8,0,-1.445657979589196,26.07944173836786,2.64455843254082,-2.548965892537971e-05,8.461073994644851e-05,2.115646746032656e-05,8.561786373224988e-05,8.557309582246811e-05
68.0283121635,41.9716878365,8,0,-1.460982995164871,26.1079979355714,2.640589078052412,-2.556154393298471e-05,8.471437978996039e-05,2.11247126244193e-05,8.571693991664962e-05,8.52833753664649e-05
69.47168783650001,41.9716878365,8,0,-1.469619648790875,26.07345132106739,2.631603452101774,-2.556154393298471e-05,8.461073994644834e-05,2.105282761681419e-05,8.560746902336593e-05,8.528900233676772e-05
70.5283121635,40.5283121635,8,0,-1.261853248731983,26.09440011487388,2.789100409337112,-2.491345048784144e-05,8.451156296658199e-05,2.231280327469689e-05,8.563742736415345e-05,8.550668478083135e-05
71.97168783650001,40.5283121635,8,0,-1.27579630743498,26.03862788006189,2.777078077842678,-2.491345048784144e-05,8.434424626214601e-05,2.221662462274142e-05,8.546219759067791e-05,8.537408944380093e-05
70.5283121635,41.9716878365,8,0,-1.293912799383834,26.08638522721091,2.768185821282621,-2.5009629139797e-05,8.451156296658199e-05,2.214548657026097e-05,8.561981801988113e-05,8.526310985787261e-05
71.97168783650001,41.9716878365,8,0,-1.307855858086818,26.03061299239898,2.756163489788167,-2.5009629139797e-05,8.434424626214618e-05,2.204930791830533e-05,8.544463828638633e-05,8.518674331969141e-05
73.0283121635,40.5283121635,8,0,-1.089936407734383,26.04155514455404,2.867579648488311,-2.432104062039325e-05,8.420492558876042e-05,2.294063718790649e-05,8.540399747725412e-05,8.525160845057546e-05
74.47168783650001,40.5283121635,8,0,-1.107712612218855,25.97045032661615,2.853069729642566,-2.432104062039325e-05,8.399161113494674e-05,2.282455783714053e-05,8.51809964071358e-05,8.504957949113817e-05
73.0283121635,41.9716878365,8,0,-1.128629524656359,26.03188186532354,2.840915341761582,-2.443711997115918e-05,8.420492558876042e-05,2.272732273409265e-05,8.538080646590398e-05,8.510593184026471e-05
74.47168783650001,41.9716878365,8,0,-1.14640572914085,25.96077704738558,2.82640542291585,-2.443711997115918e-05,8.399161113494653e-05,2.26112433833268e-05,8.515787860603898e-05,8.496151731080795e-05
75.5283121635,40.5283121635,8,0,-0.9239211144128845,25.96416149617329,2.88868258000746,-2.372787676305986e-05,8.382445367928482e-05,2.310946064005968e-05,8.505181324210648e-05,8.488136005880387e-05
76.97168783650001,40.5283121635,8,0,-0.9442017984076747,25.88303876019413,2.872199366727834,-2.372787676305986e-05,8.358108547134734e-05,2.297759493382267e-05,8.479732342353507e-05,8.462380498226396e-05
75.5283121635,41.9716878365,8,0,-0.9678763498252918,25.95317268732018,2.858261554015268,-2.385974246929708e-05,8.382445367928482e-05,2.286609243212214e-05,8.502493976326312e-05,8.483595452278153e-05
76.97168783650001,41.9716878365,8,0,-0.9881570338201175,25.87204995134088,2.841778340735622,-2.385974246929708e-05,8.35810854713469e-05,2.273422672588498e-05,8.477054441427023e-05,8.463732513579559e-05
78.0283121635,40.5283121635,8,0,-0.7657996078770095,25.8701777274116,2.852212444055172,-2.314670092713571e-05,8.339720841401871e-05,2.281769955244137e-05,8.460518589868931e-05,8.441997191129447e-05
79.47168783650001,40.5283121635,8,0,-0.787382379131369,25.78384664239416,2.83417962033375,-2.314670092713571e-05,8.31382151589664e-05,2.267343696267e-05,8.433397601184976e-05,8.412064468165927e-05
78.0283121635,41.9716878365,8,0,-0.8138871378007275,25.8581558449306,2.819838287173633,-2.329096351690681e-05,8.339720841401849e-05,2.255870629738906e-05,8.457665236861545e-05,8.447718170762795e-05
79.47168783650001,41.9716878365,8,0,-0.8354699090550461,25.77182475991333,2.801805463452259,-2.329096351690681e-05,8.313821515896667e-05,2.241444370761807e-05,8.430555609281916e-05,8.423829111234308e-05
80.5283121635,40.5283121635,8,0,-0.6170668938175545,25.76691485413995,2.757776283274113,-2.258814594352813e-05,8.294778104830187e-05,2.206221026619291e-05,8.40884741110848e-05,8.389139199069906e-05
81.97168783650001,40.5283121635,8,0,-0.6388404280507949,25.67982071720699,2.738483533653608,-2.258814594352813e-05,8.268649863750298e-05,2.190786826922886e-05,8.381418700392933e-05,8.356438922083236e-05
80.5283121635,41.9716878365,8,0,-0.6685142261389938,25.75405302105959,2.725115981924231,-2.274248794049245e-05,8.294778104830187e-05,2.180092785539385e-05,8.406029989029385e-05,8.405398671407562e-05
81.97168783650001,41.9716878365,8,0,-0.6902877603722706,25.66695888412648,2.705823232303705,-2.274248794049245e-05,8.268649863750255e-05,2.164658585842964e-05,8.378614357023404e-05,8.378934832921392e-05
83.02831216350002,40.5283121635,8,0,-0.4789276051718021,25.66123099064125,2.604544093816101,-2.206155312906277e-05,8.249908125418945e-05,2.083635275052881e-05,8.352701825122678e-05,8.332042056331259e-05
84.47168783650002,40.5283121635,8,0,-0.4998235553931849,25.57764718975572,2.584116711015894,-2.206155312906277e-05,8.224832985153285e-05,2.067293368812715e-05,8.32627448429042e-05,8.298088856535249e-05
83.02831216350002,41.9716878365,8,0,-0.5334006259723552,25.64761273544111,2.573200168484073,-2.222497219146443e-05,8.249908125418945e-05,2.058560134787259e-05,8.350112098281864e-05,8.359193511689382e-05
84.47168783650002,41.9716878365,8,0,-0.554296576193738,25.56402893455558,2.552772785683873,-2.222497219146443e-05,8.224832985153285e-05,2.042218228547098e-05,8.32369932233479e-05,8.331723057558872e-05
85.5283121635,40.5283121635,8,0,-0.3525337578738954,25.55979770762631,2.391070130052086,-2.157594619129751e-05,8.20733796707033e-05,1.912856104041669e-05,8.29485378948173e-05,8.273398590066236e-05
86.97168783650002,40.5283121635,8,0,-0.3714688728892455,25.48405724756491,2.369451004358111,-2.157594619129751e-05,8.184615829051909e-05,1.895560803486489e-05,8.270754838259363e-05,8.239896727413619e-05
85.5283121635,41.9716878365,8,0,-0.4101847597245598,25.54538495716358,2.362667457529027,-2.174889919684945e-05,8.207337967070308e-05,1.890133966023222e-05,8.292663692210486e-05,8.311886342710576e-05
86.97168783650002,41.9716878365,8,0,-0.4291198747399054,25.46964449710219,2.341048331835059,-2.174889919684945e-05,8.184615829051893e-05,1.872838665468047e-05,8.26858036790447e-05,8.285161884017982e-05
88.02831216350002,40.5283121635,8,0,-0.2392447638906026,25.46942177572905,2.115175788755198,-2.114112066503316e-05,8.169354549344542e-05,1.692140631004158e-05,8.238499899438677e-05,8.216259225516705e-05
89.47168783650001,40.5283121635,8,0,-0.2550551418342,25.40618026395466,2.092118857334469,-2.114112066503316e-05,8.150382095812225e-05,1.673695085867576e-05,8.2181613522961e-05,8.1851822320202e-05
88.02831216350002,41.9716878365,8,0,-0.3007299143460047,25.45405048811519,2.09146022183974,-2.132557611639937e-05,8.169354549344542e-05,1.673168177471793e-05,8.236848572157502e-05,8.266597823098596e-05
89.47168783650001,41.9716878365,8,0,-0.3165402922896021,25.3908089763408,2.068403290419026,-2.132557611639937e-05,8.150382095812225e-05,1.654722632335221e-05,8.216525803427336e-05,8.242604324162466e-05
90.52831216350002,40.5283121635,8,0,-0.1409071590190552,25.39741191414441,1.773892529767871,-2.07688324401765e-05,8.138444385247733e-05,1.419114023814297e-05,8.18749471786567e-05,8.164149600555877e-05
91.97168783650001,40.5283121635,8,0,-0.1522754742334165,25.35193865328696,1.748967214861308,-2.07688324401765e-05,8.1248024069905e-05,1.399173771889046e-05,8.172553500361942e-05,8.137764376272537e-05
90.52831216350002,41.9716878365,8,0,-0.2073746654365856,25.38079503754002,1.756840056946383,-2.096823495942909e-05,8.138444385247733e-05,1.405472045557107e-05,8.186467718189228e-05,8.226836302508084e-05
91.97168783650001,41.9716878365,8,0,-0.2187429806509469,25.33532177668258,1.731914742039792,-2.096823495942909e-05,8.1248024069905e-05,1.385531793631834e-05,8.171540581074658e-05,8.207750765147761e-05
93.02831216350002,40.5283121635,8,0,-0.06015615130230678,25.35198566927097,1.363465557685963,-2.047408821958415e-05,8.117447906270893e-05,1.09077244614877e-05,8.146626354957524e-05,8.121043592359176e-05
94.47168783650002,40.5283121635,8,0,-0.06553189411382565,25.33048269802489,1.336072730040505,-2.047408821958415e-05,8.110997014897071e-05,1.068858184032404e-05,8.139035694529689e-05,8.101746785446888e-05
93.02831216350002,41.9716878365,8,0,-0.1332036916902215,25.33372378417399,1.355401943468665,-2.06932308407479e-05,8.117447906270893e-05,1.084321554774932e-05,8.146221536991591e-05,8.196331569478101e-05
94.47168783650002,41.9716878365,8,0,-0.1385794345017759,25.31222081292777,1.328009115823193,-2.06932308407479e-05,8.110997014897027e-05,1.062407292658555e-05,8.138639877135632e-05,8.184219284086019e-05
95.5283121635,40.5283121635,8,0,-0.0007438079465185155,25.34271549360476,0.879423678431222,-2.027655258031266e-05,8.109728462589243e-05,7.035389427449776e-06,8.121920278940472e-05,8.090886554276382e-05
96.97168783650002,40.5283121635,8,0,0.001743810400828494,25.35266596699415,0.8488250829133441,-2.027655258031266e-05,8.11271360460606e-05,6.790600663306753e-06,8.124069373955636e-05,8.080512657847642e-05
95.5283121635,41.9716878365,8,0,-0.0823400626609363,25.32231642992615,0.8831551059522094,-2.052134134445592e-05,8.109728462589243e-05,7.065240847617675e-06,8.121994286787675e-05,8.178249308470287e-05
96.97168783650002,41.9716878365,8,0,-0.07985244431358485,25.33226690331556,0.8525565104343179,-2.052134134445592e-05,8.112713604606066e-05,6.820452083474544e-06,8.124141794777626e-05,8.174051317159548e-05
98.02831216350002,40.5283121635,8,0,0.03210079955781708,25.38101479085265,0.3167272135357088,-2.02020892740971e-05,8.119356669108221e-05,2.53381770828567e-06,8.120939387351646e-05,8.075884448396926e-05
99.47168783650002,40.5283121635,8,0,0.04473750599272908,25.4315616165923,0.2820919756713232,-2.02020892740971e-05,8.134520716830115e-05,2.256735805370585e-06,8.135774375964616e-05,8.07361384145771e-05
98.02831216350002,41.9716878365,8,0,-0.06025983474724672,25.35792463227638,0.3356822731880629,-2.047917117701229e-05,8.119356669108221e-05,2.685458185504503e-06,8.121129619378917e-05,8.172764151298527e-05
99.47168783650002,41.9716878365,8,0,-0.04762312831232851,25.40847145801606,0.3010470353236841,-2.047917117701229e-05,8.134520716830123e-05,2.408376282589473e-06,8.135944606037353e-05,8.173445540079035e-05
0.5283121635,43.0283121635,8,0,-0.04544191692876332,2.095872516474629,-0.4108591704289524,-1.822112147351746e-06,6.743145586261823e-06,-3.286873363431619e-06,7.047650262051747e-06,1.027016956232635e-05
1.9716878365,43.0283121635,8,0,0.1209842463120938,2.761577169438058,-0.4449019428057048,-1.822112147351746e-06,8.740259545152109e-06,-3.559215542445638e-06,9.032037700403181e-06,1.110476196532131e-05
0.5283121635,44.47168783650001,8,0,-0.1362226432666431,2.073177334890159,-0.1612199255677073,-2.094454326365385e-06,6.743145586261823e-06,-1.289759404541659e-06,6.789954534041593e-06,1.116725228413262e-05
1.9716878365,44.47168783650001,8,0,0.030203519974214,2.738881987853588,-0.1952626979443784,-2.094454326365385e-06,8.740259545152109e-06,-1.562101583555027e-06,8.796274194508854e-06,1.196643272339148e-05
3.0283121635,43.0283121635,8,0,-0.08684662964316303,3.179853307409916,-0.9648451083966607,-2.821791860786055e-06,1.024500788742626e-05,-7.718760867173285e-06,1.129976531573034e-05,1.208475620466433e-05
4.4716878365,43.0283121635,8,0,0.08931461743877356,3.884498295737663,-0.9952799093432079,-2.821791860786055e-06,1.23589428524095e-05,-7.962239274745663e-06,1.333963086695364e-05,1.392755785479314e-05
3.0283121635,44.47168783650001,8,0,-0.1680060988338654,3.159563440112376,-0.7006032377738234,-3.06527026835827e-06,1.02450078874267e-05,-5.604825902190587e-06,1.081097637656008e-05,1.290785820481259e-05
4.4716878365,44.47168783650001,8,0,0.008155148248044197,3.864208428440015,-0.7310380387203028,-3.06527026835827e-06,1.235894285240961e-05,-5.848304309762423e-06,1.289469985925406e-05,1.468070001244556e-05
5.528312163500001,43.0283121635,8,0,-0.1515471301147344,4.318297885402014,-1.441181305569952,-3.939589124688761e-06,1.393979093737823e-05,-1.152945044455961e-05,1.563730517905421e-05,1.542778304664586e-05
6.9716878365,43.0283121635,8,0,0.03220473008392166,5.053305326196639,-1.469281430628512,-3.939589124688761e-06,1.614481325976211e-05,-1.17542514450281e-05,1.773817872943029e-05,1.768367284362771e-05
5.528312163500001,44.47168783650001,8,0,-0.2264807969375444,4.299564468696447,-1.16555351527194,-4.1643901251573e-06,1.393979093737866e-05,-9.324428122175522e-06,1.50698702602074e-05,1.612831854187903e-05
6.9716878365,44.47168783650001,8,0,-0.04272893673891542,5.034571909490963,-1.193653640330528,-4.1643901251573e-06,1.614481325976221e-05,-9.549229122644224e-06,1.721130241185477e-05,1.831044410680458e-05
8.028312163500001,43.0283121635,8,0,-0.2368884657771433,5.498922974612658,-1.847600786302839,-5.157181470176984e-06,1.778606429138222e-05,-1.478080629042271e-05,1.996054672192042e-05,1.939318502553e-05
9.471687836500001,43.0283121635,8,0,-0.04697522542974575,6.258575936002249,-1.874232360710672,-5.157181470176984e-06,2.006502317555099e-05,-1.499385888568538e-05,2.212511210863848e-05,2.180776936586169e-05
8.028312163500001,44.47168783650001,8,0,-0.3079059975312566,5.48116859167413,-1.562730925781797,-5.370234065439324e-06,1.778606429138222e-05,-1.250184740625437e-05,1.936571073153352e-05,1.996723367452693e-05
9.471687836500001,44.47168783650001,8,0,-0.1179927571838499,6.240821553063756,-1.589362500189508,-5.370234065439324e-06,2.00650231755511e-05,-1.271490000151606e-05,2.156552552368102e-05,2.231154138626134e-05
10.5283121635,43.0283121635,8,0,-0.3422227386166674,6.713184658828966,-2.189593115127096,-6.465660490636508e-06,2.175596909914602e-05,-1.751674492101677e-05,2.42531096971595e-05,2.359528276570704e-05
11.9716878365,43.0283121635,8,0,-0.1471567976049215,7.493448422875949,-2.215119166784627,-6.465660490636508e-06,2.409676039128697e-05,-1.772095333427701e-05,2.647973516532635e-05,2.606427585317069e-05
10.5283121635,44.47168783650001,8,0,-0.4102922097034689,6.696167291057265,-1.896994203609505,-6.669868903896913e-06,2.175596909914602e-05,-1.517595362887604e-05,2.36546750523043e-05,2.40488544454716e-05
11.9716878365,44.47168783650001,8,0,-0.2152262686917412,7.476431055104176,-1.922520255266994,-6.669868903896913e-06,2.409676039128675e-05,-1.538016204213595e-05,2.591180949311607e-05,2.645097428035433e-05
13.0283121635,43.0283121635,8,0,-0.4676969618525058,7.954705064045372,-2.470168439379532,-7.860394329164315e-06,2.58292137744272e-05,-1.976134751503625e-05,2.851323809112047e-05,2.787578058228742e-05
14.4716878365,43.0283121635,8,0,-0.2683336808070256,8.752158188227293,-2.494454846522609,-7.860394329164315e-06,2.822157314697296e-05,-1.995563877218087e-05,3.079694150957187e-05,3.03559104531324e-05
13.0283121635,44.47168783650001,8,0,-0.5324607142337188,7.93851412595007,-2.171123517811353,-8.054685586307954e-06,2.58292137744272e-05,-1.736898814249082e-05,2.792538627681713e-05,2.821421583039767e-05
14.4716878365,44.47168783650001,8,0,-0.3330974331882386,8.73596725013199,-2.195409924954416,-8.054685586307954e-06,2.822157314697296e-05,-1.756327939963533e-05,3.023558839916646e-05,3.062936149645466e-05
15.5283121635,43.0283121635,8,0,-0.6132385395858551,9.217859985226079,-2.690078538633106,-9.336651314855598e-06,2.998774278439214e-05,-2.152062830906485e-05,3.273952247970285e-05,3.216811420373812e-05
16.9716878365,43.0283121635,8,0,-0.4104963885962114,10.02882858918465,-2.712577578280488,-9.336651314855598e-06,3.242064859626786e-05,-2.17006206262439e-05,3.507170875064838e-05,3.463901705342535e-05
15.5283121635,44.47168783650001,8,0,-0.67323597864545,9.202860625461181,-2.385965312148776,-9.516643632034383e-06,2.998774278439214e-05,-1.908772249719021e-05,3.217260553332639e-05,3.239423038136993e-05
16.9716878365,44.47168783650001,8,0,-0.4704938276558517,10.01382922941957,-2.408464351796077,-9.516643632034383e-06,3.242064859626732e-05,-1.926771481436862e-05,3.45278627781586e-05,3.480079617780387e-05
18.0283121635,43.0283121635,8,0,-0.777809789791466,10.49664855638667,-2.84836999357538,-1.088631017244203e-05,3.421152321227052e-05,-2.278695994860304e-05,3.692651417339558e-05,3.643960009748715e-05
19.4716878365,43.0283121635,8,0,-0.5728219040213758,11.31660009946703,-2.868255421119599,-1.088631017244203e-05,3.667137784151161e-05,-2.294604336895679e-05,3.929449680853823e-05,3.888798160763292e-05
18.0283121635,44.47168783650001,8,0,-0.8308375965762123,10.48339160469049,-2.540888164920258,-1.104539359279627e-05,3.421152321227052e-05,-2.032710531936206e-05,3.63892118773753e-05,3.6554319395143e-05
19.4716878365,44.47168783650001,8,0,-0.6258497108060856,11.30334314777099,-2.560773592464531,-1.104539359279627e-05,3.667137784151204e-05,-2.048618873971625e-05,3.877726664336427e-05,3.893846812093488e-05
20.5283121635,43.0283121635,8,0,-0.9589668197779506,11.78391609074376,-2.943139536228128,-1.249582669588445e-05,3.847570494620238e-05,-2.354511628982502e-05,4.106336757200903e-05,4.06675059652879e-05
21.9716878365,43.0283121635,8,0,-0.7531619285732454,12.60713565556258,-2.959466841743231,-1.249582669588445e-05,4.094536364065884e-05,-2.367573473394585e-05,4.345019079516475e-05,4.30808754137686e-05
20.5283121635,44.47168783650001,8,0,-1.002506301151505,11.77303122040037,-2.634432199421084,-1.262644514000511e-05,3.847570494620238e-05,-2.107545759536867e-05,4.05633918882503e-05,4.067107089345488e-05
21.9716878365,44.47168783650001,8,0,-0.7967014099468086,12.59625078521915,-2.650759504936194,-1.262644514000511e-05,4.094536364065873e-05,-2.120607603948955e-05,4.296760200990359e-05,4.30204809717236e-05
23.0283121635,43.0283121635,8,0,-1.152724330429472,13.07095626006786,-2.972363567823496,-1.41454828654286e-05,4.274923949656073e-05,-2.377890854258797e-05,4.513386626689922e-05,4.482972535425615e-05
24.4716878365,43.0283121635,8,0,-0.9478391808776503,13.89049685827515,-2.984230269645972,-1.41454828654286e-05,4.52078612911826e-05,-2.387384215716778e-05,4.751860784082545e-05,4.719430279820441e-05
23.0283121635,44.47168783650001,8,0,-1.184368868622761,13.06304512551954,-2.665035843495736,-1.424041648000847e-05,4.274923949656073e-05,-2.132028674796589e-05,4.467798590110184e-05,4.472288251081299e-05
24.4716878365,44.47168783650001,8,0,-0.9794837190709393,13.88258572372683,-2.676902545318199,-1.424041648000847e-05,4.52078612911826e-05,-2.141522036254559e-05,4.707766720968314e-05,4.702451993241764e-05
25.5283121635,43.0283121635,8,0,-1.353694662012156,14.34747675477446,-2.934684164770223,-1.580980432225847e-05,4.699488134488798e-05,-2.347747331816178e-05,4.911723200414952e-05,4.890182848623708e-05
26.9716878365,43.0283121635,8,0,-1.151727346474352,15.15534601692567,-2.941368380537098,-1.580980432225847e-05,4.941848913134162e-05,-2.353094704429678e-05,5.147578503269908e-05,5.120229797742143e-05
25.5283121635,44.47168783650001,8,0,-1.371519237390508,14.34302061092987,-2.631733191463552,-1.586327804839352e-05,4.699488134488798e-05,-2.105386553170841e-05,4.871098778491889e-05,4.868675882239344e-05
26.9716878365,44.47168783650001,8,0,-1.169551921852705,15.15088987308108,-2.638417407230373,-1.586327804839352e-05,4.941848913134162e-05,-2.110733925784298e-05,5.108222948874545e-05,5.092644250271264e-05
28.0283121635,43.0283121635,8,0,-1.555439608210961,15.60187469859448,-2.830055256448321,-1.745890650515066e-05,5.117035072207108e-05,-2.264044205158657e-05,5.298937873165369e-05,5.285692470251124e-05
29.4716878365,43.0283121635,8,0,-1.358559017589923,16.38939706107863,-2.831116704169482,-1.745890650515066e-05,5.353291780952355e-05,-2.264893363335585e-05,5.529560638494923e-05,5.507697949202577e-05
28.0283121635,44.47168783650001,8,0,-1.558270135467427,15.60116706678036,-2.534734370516817,-1.746739808692005e-05,5.117035072207108e-05,-2.027787496413453e-05,5.263671340854376e-05,5.253784648170102e-05
29.4716878365,44.47168783650001,8,0,-1.361389544846406,16.38868942926444,-2.535795818238038,-1.746739808692005e-05,5.353291780952333e-05,-2.028636654590431e-05,5.495355862375238e-05,5.470060034368387e-05
30.5283121635,43.0283121635,8,0,-1.750953360540051,16.82173895181203,-2.660184922098554,-1.906044191517779e-05,5.523032733423055e-05,-2.128147937678843e-05,5.672436480708598e-05,5.666670929775116e-05
31.9716878365,43.0283121635,8,0,-1.561383195915282,17.58001961031111,-2.655520356820805,-1.906044191517779e-05,5.750516930972776e-05,-2.124416285456644e-05,5.895146914163002e-05,5.878987710796969e-05
30.5283121635,44.47168783650001,8,0,-1.738514519799478,16.82484866199718,-2.375829675161354,-1.902312539295607e-05,5.523032733423055e-05,-1.900663740129083e-05,5.642731264895946e-05,5.625015508413995e-05
31.9716878365,44.47168783650001,8,0,-1.548944355174713,17.58312932049623,-2.371165109883646,-1.902312539295607e-05,5.750516930972771e-05,-1.896932087906917e-05,5.866314463307797e-05,5.832086350237225e-05
33.0283121635,43.0283121635,8,0,-1.933189751132203,17.99448134817045,-2.428748264135932,-2.058179228215941e-05,5.912889211505119e-05,-1.942998611308746e-05,6.029585350676882e-05,6.030289962021812e-05
34.4716878365,43.0283121635,8,0,-1.753085482278482,18.71489842358533,-2.418601608079268,-2.058179228215941e-05,6.129014334129584e-05,-1.934881286463414e-05,6.241778926520032e-05,6.231338618663355e-05
33.0283121635,44.47168783650001,8,0,-1.906132001647673,18.00124578554158,-2.158591860855453,-2.050061903370582e-05,5.912889211505119e-05,-1.726873488684362e-05,6.005437540344234e-05,5.979771357243561e-05
34.4716878365,44.47168783650001,8,0,-1.726027732793988,18.72166286095632,-2.148445204798802,-2.050061903370582e-05,6.129014334129541e-05,-1.718756163839041e-05,6.218334039282258e-05,6.17618345809496e-05
35.5283121635,43.0283121635,8,0,-2.095557789694831,19.10800058219831,-2.141382173312093,-2.19921853927821e-05,6.282204809479044e-05,-1.713105738649674e-05,6.367844753168438e-05,6.37386553972609e-05
36.9716878365,43.0283121635,8,0,-1.926891923625081,19.78266404647731,-2.126316383384355,-2.19921853927821e-05,6.484603848762744e-05,-1.701053106707484e-05,6.567123492117864e-05,6.562207672890852e-05
35.5283121635,44.47168783650001,8,0,-2.05538234988762,19.11804444215011,-1.8883833742074,-2.187165907336047e-05,6.282204809479044e-05,-1.51070669936592e-05,6.349044618682227e-05,6.315578116630636e-05
36.9716878365,44.47168783650001,8,0,-1.88671648381787,19.79270790642911,-1.87331758427973,-2.187165907336047e-05,6.484603848762744e-05,-1.498654067423784e-05,6.548876772332387e-05,6.499999305218613e-05
38.0283121635,43.0283121635,8,0,-2.232332101051057,20.15129898664016,-1.80550072358018,-2.326450191267551e-05,6.627002243808936e-05,-1.444400578864144e-05,6.684881950146553e-05,6.694978785605271e-05
39.4716878365,43.0283121635,8,0,-2.076798258621592,20.77343435635802,-1.786342394176569,-2.326450191267551e-05,6.813642854724294e-05,-1.429073915341255e-05,6.869165300647148e-05,6.869374078169174e-05
38.0283121635,44.47168783650001,8,0,-2.181243222641416,20.16407120624265,-1.572199959936065,-2.311123527744664e-05,6.627002243808958e-05,-1.257759967948852e-05,6.671032877035651e-05,6.630192295860904e-05
39.4716878365,44.47168783650001,8,0,-2.025709380212024,20.78620657596021,-1.553041630532467,-2.311123527744664e-05,6.813642854724229e-05,-1.242433304425973e-05,6.855741231771419e-05,6.801464972512132e-05
40.5283121635,43.0283121635,8,0,-2.338951668764358,21.11499778591496,-1.429983535686789,-2.437664356877791e-05,6.943915424993934e-05,-1.143986828549431e-05,6.978661087503811e-05,6.991568788017262e-05
41.97168783650001,43.0283121635,8,0,-2.197892777173371,21.67923335227891,-1.407752010483949,-2.437664356877791e-05,7.113186094903119e-05,-1.12620160838716e-05,7.146270888109469e-05,7.151015651188662e-05
40.5283121635,44.47168783650001,8,0,-2.279667601556787,21.12981880271685,-1.218395198300287,-2.41987913671552e-05,6.943915424993934e-05,-9.747161586402299e-06,6.969212642558991e-05,6.921687113425963e-05
41.97168783650001,44.47168783650001,8,0,-2.138608709965805,21.69405436908078,-1.196163673097448,-2.41987913671552e-05,7.113186094903114e-05,-9.569309384779585e-06,7.13714013316435e-05,7.078867433959987e-05
43.0283121635,43.0283121635,8,0,-2.4122036681962,21.99172295395581,-1.024789588240516,-2.531243010139248e-05,7.230327638721554e-05,-8.198316705924132e-06,7.247510911087356e-05,7.261997820055658e-05
44.4716878365,43.0283121635,8,0,-2.286565351951626,22.4942762189341,-1.000620612160055,-2.531243010139248e-05,7.381093618215041e-05,-8.004964897280443e-06,7.39722889653607e-05,7.40575988097597e-05
43.0283121635,44.47168783650001,8,0,-2.347753065314934,22.00783560467612,-0.8363321138736914,-2.511907829274868e-05,7.230327638721554e-05,-6.690656910989532e-06,7.241801450534163e-05,7.18851584975952e-05
44.4716878365,44.47168783650001,8,0,-2.22211474907037,22.51038886965438,-0.8121631377931964,-2.511907829274868e-05,7.38109361821503e-05,-6.497305102345571e-06,7.391750027746342e-05,7.330900572171989e-05
45.52831216350001,43.0283121635,8,0,-2.450304236457972,22.77635522346205,-0.6005398020895235,-2.606205773543515e-05,7.484458010424493e-05,-4.804318416716188e-06,7.490173295897248e-05,7.505093096684789e-05
46.97168783650001,43.0283121635,8,0,-2.340611910017718,23.21512452922307,-0.5756107265641157,-2.606205773543515e-05,7.616088802152798e-05,-4.604885812512925e-06,7.621272136092415e-05,7.63271442797171e-05
45.52831216350001,44.47168783650001,8,0,-2.383826701723525,22.79297460714566,-0.4360013124291766,-2.58626251312318e-05,7.484458010424493e-05,-3.488010499433413e-06,7.487477300546433e-05,7.429554498978529e-05
46.97168783650001,44.47168783650001,8,0,-2.27413437528327,23.23174391290668,-0.4110722369037891,-2.58626251312318e-05,7.616088802152798e-05,-3.288577895230313e-06,7.61873817595063e-05,7.55669731697917e-05
48.0283121635,43.0283121635,8,0,-2.45289358729723,23.46615089620826,-0.168099059625014,-2.662218019631774e-05,7.705399773770419e-05,-1.344792477000112e-06,7.705835840854592e-05,7.720169854832169e-05
49.47168783650001,43.0283121635,8,0,-2.359250820284934,23.84072196425744,-0.1435596256030554,-2.662218019631774e-05,7.817771094185174e-05,-1.148477004824444e-06,7.818085731876477e-05,7.831481193135804e-05
48.0283121635,44.47168783650001,8,0,-2.387455096572078,23.48251051888954,-0.02763490910653627,-2.642586472414229e-05,7.705399773770419e-05,-2.210792728522901e-07,7.705411581862339e-05,7.644126788141113e-05
49.47168783650001,44.47168783650001,8,0,-2.293812329559774,23.85708158693876,-0.003095475084564188,-2.642586472414229e-05,7.817771094185185e-05,-2.47638006765135e-08,7.817771240749443e-05,7.755845727443932e-05
50.5283121635,43.0283121635,8,0,-2.420960956004778,24.06074510557907,0.2618226020310847,-2.699567114367854e-05,7.893115310265682e-05,2.094580816248677e-06,7.894150657084063e-05,7.90703916181689e-05
51.97168783650001,43.0283121635,8,0,-2.343066867686168,24.37232145885351,0.2849118730231619,-2.699567114367854e-05,7.986588216248014e-05,2.279294984185295e-06,7.987803479062079e-05,8.002156032875456e-05
50.5283121635,44.47168783650001,8,0,-2.359389566692516,24.07613795290713,0.3786637345089933,-2.681095697574176e-05,7.893115310265682e-05,3.029309876071947e-06,7.895284464121957e-05,7.832014000321424e-05
51.97168783650001,44.47168783650001,8,0,-2.281495478373906,24.38771430618157,0.4017530055010503,-2.681095697574176e-05,7.986588216248014e-05,3.214024044008402e-06,7.989008518418067e-05,7.928390652453529e-05
53.0283121635,43.0283121635,8,0,-2.356709495808403,24.56204889244162,0.6790357979657793,-2.719110950054018e-05,8.048392405245988e-05,5.432286383726234e-06,8.055239624285134e-05,8.066001561213485e-05
54.4716878365,43.0283121635,8,0,-2.293893430401786,24.81331315406808,0.6997561842565027,-2.719110950054018e-05,8.123771683733928e-05,5.598049474052022e-06,8.130992388674607e-05,8.145313917417909e-05
53.0283121635,44.47168783650001,8,0,-2.301455132366653,24.57586248330205,0.7732598960756901,-2.702534641021493e-05,8.048392405245988e-05,6.186079168605521e-06,8.057283720646019e-05,7.993450643443493e-05
54.4716878365,44.47168783650001,8,0,-2.238639066960051,24.82712674492846,0.7939802823663661,-2.702534641021493e-05,8.123771683733912e-05,6.351842258930929e-06,8.133080315556844e-05,8.074821192243497e-05
55.5283121635,43.0283121635,8,0,-2.263367041309561,24.97404994522129,1.074191158805734,-2.722201448836762e-05,8.172765345775576e-05,8.593529270445874e-06,8.189684681360841e-05,8.19782564022133e-05
56.97168783650001,43.0283121635,8,0,-2.214638795089175,25.16896293010283,1.091807361257486,-2.722201448836762e-05,8.231239241240039e-05,8.734458890059891e-06,8.248624161666881e-05,8.26197797871492e-05
55.5283121635,44.47168783650001,8,0,-2.216390501438294,24.98579408018911,1.147283528136361,-2.708108486875382e-05,8.172765345775576e-05,9.178268225090887e-06,8.192086240887008e-05,8.129105758212875e-05
56.97168783650001,44.47168783650001,8,0,-2.167662255217913,25.18070706507063,1.164899730588106,-2.708108486875382e-05,8.231239241240034e-05,9.319197844704849e-06,8.251050854012358e-05,8.196043401714344e-05
58.0283121635,43.0283121635,8,0,-2.144949064293411,25.30252787262633,1.439035925726869,-2.710585930383998e-05,8.268404844383897e-05,1.151228740581495e-05,8.298501064301603e-05,8.303709898363555e-05
59.47168783650001,43.0283121635,8,0,-2.109062047107694,25.4460759413692,1.453023976136609,-2.710585930383998e-05,8.311469265006758e-05,1.162419180909287e-05,8.342032573413756e-05,8.353571284652262e-05
58.0283121635,44.47168783650001,8,0,-2.107647596534249,25.31185323956612,1.492866451505452,-2.699395490056249e-05,8.268404844383897e-05,1.194293161204361e-05,8.300820937383248e-05,8.240049327618651e-05
59.47168783650001,44.47168783650001,8,0,-2.071760579348531,25.45540130830899,1.506854501915104,-2.699395490056249e-05,8.311469265006758e-05,1.205483601532083e-05,8.344365456814824e-05,8.293338109526975e-05
60.5283121635,43.0283121635,8,0,-2.005985889757863,25.55470025699654,1.766589373892107,-2.686291505282239e-05,8.33798295341952e-05,1.413271499113686e-05,8.383092427045552e-05,8.38522748234021e-05
61.9716878365,43.0283121635,8,0,-1.981508953741232,25.65260800106306,1.776647883950412,-2.686291505282239e-05,8.367355276639476e-05,1.421318307160329e-05,8.412857542658777e-05,8.421852436513099e-05
60.5283121635,44.47168783650001,8,0,-1.979163196268988,25.56140593036876,1.803304777917052,-2.678244697235576e-05,8.33798295341952e-05,1.442643822333642e-05,8.385012979721183e-05,8.32770423536109e-05
61.9716878365,44.47168783650001,8,0,-1.95468626025234,25.65931367443535,1.813363287975418,-2.678244697235576e-05,8.367355276639498e-05,1.450690630380334e-05,8.414783787886356e-05,8.368305455294867e-05
63.0283121635,43.0283121635,8,0,-1.851234803919542,25.73882442719354,2.051221220980111,-2.651501091429737e-05,8.384522601015496e-05,1.640976976784088e-05,8.445189459883987e-05,8.444256213069257e-05
64.47168783650001,43.0283121635,8,0,-1.836626737913472,25.79725669121783,2.05726408644617,-2.651501091429737e-05,8.40205228022278e-05,1.645811269156936e-05,8.462979435726489e-05,8.46883951473181e-05
63.0283121635,44.47168783650001,8,0,-1.835120496010068,25.74285300417091,2.073133319989223,-2.646666799056895e-05,8.384522601015496e-05,1.658506655991378e-05,8.446512143019873e-05,8.393786363345202e-05
64.47168783650001,44.47168783650001,8,0,-1.820512430003975,25.80128526819528,2.079176185455323,-2.646666799056895e-05,8.402052280222808e-05,1.663340948364258e-05,8.464303886961068e-05,8.422800278830892e-05
65.5283121635,43.0283121635,8,0,-1.685404586973972,25.86378838114083,2.288625824845379,-2.608432538322937e-05,8.411244648922982e-05,1.830900659876303e-05,8.48677718301937e-05,8.482899887636359e-05
66.97168783650001,43.0283121635,8,0,-1.679084304370076,25.88906951155641,2.290756717579474,-2.608432538322937e-05,8.418828988047657e-05,1.832605374063579e-05,8.494449946426256e-05,8.496730239124028e-05
65.5283121635,44.47168783650001,8,0,-1.679722206349592,25.86520897629692,2.298106248751222,-2.606727824135623e-05,8.411244648922982e-05,1.838484999000978e-05,8.487411599832427e-05,8.440238036862021e-05
66.97168783650001,44.47168783650001,8,0,-1.673401923745677,25.89049010671258,2.300237141485378,-2.606727824135623e-05,8.418828988047679e-05,1.840189713188303e-05,8.495084514560249e-05,8.458864962289489e-05
68.0283121635,43.0283121635,8,0,-1.512921339561872,25.93872845954258,2.475697866306239,-2.559233105423205e-05,8.421426814218575e-05,1.980558293044991e-05,8.510019318076865e-05,8.503409774378437e-05
69.47168783650001,43.0283121635,8,0,-1.513327127925549,25.93710530608787,2.474169494823129,-2.559233105423205e-05,8.420939868182163e-05,1.979335595858503e-05,8.509427749695418e-05,8.507828252577535e-05
68.0283121635,44.47168783650001,8,0,-1.516996996850203,25.9377095452205,2.475089183760765,-2.560455802609705e-05,8.421426814218575e-05,1.980071347008612e-05,8.509966403456107e-05,8.469162207231794e-05
69.47168783650001,44.47168783650001,8,0,-1.517402785213879,25.93608639176579,2.473560812277654,-2.560455802609705e-05,8.420939868182163e-05,1.978848649822123e-05,8.509374869916683e-05,8.478667878165879e-05
70.5283121635,43.0283121635,8,0,-1.337759044076164,25.97270875768354,2.610328255347224,-2.505899594719055e-05,8.418287525984824e-05,2.088262604277779e-05,8.517189941008553e-05,8.508116511584022e-05
71.97168783650001,43.0283121635,8,0,-1.343391867081214,25.95017746566334,2.605491508590168,-2.505899594719055e-05,8.411528138378764e-05,2.084393206872135e-05,8.510127546881659e-05,8.504485571636419e-05
70.5283121635,44.47168783650001,8,0,-1.350657035428402,25.96948425984548,2.601879020839649,-2.509768992124727e-05,8.418287525984824e-05,2.081503216671719e-05,8.516522181068758e-05,8.482765775937536e-05
71.97168783650001,44.47168783650001,8,0,-1.35628985843343,25.94695296782537,2.597042274082579,-2.509768992124727e-05,8.411528138378791e-05,2.077633819266064e-05,8.509460626320879e-05,8.484455769920311e-05
73.0283121635,43.0283121635,8,0,-1.163348031013647,25.97448827361364,2.69114808697399,-2.450230431813458e-05,8.404904090037455e-05,2.152918469579192e-05,8.510622548829865e-05,8.499381978561399e-05
74.47168783650001,43.0283121635,8,0,-1.172796238526053,25.93669544356401,2.683397137344441,-2.450230431813458e-05,8.393566241022567e-05,2.146717709875553e-05,8.498790193999439e-05,8.489069642926294e-05
73.0283121635,44.47168783650001,8,0,-1.184017230025796,25.9693209738606,2.67697577570534,-2.456431191517102e-05,8.404904090037455e-05,2.141580620564272e-05,8.509463898351999e-05,8.483320056646503e-05
74.47168783650001,44.47168783650001,8,0,-1.193465437538189,25.93152814381103,2.669224826075818,-2.456431191517102e-05,8.393566241022583e-05,2.135379860860654e-05,8.497633708031049e-05,8.478527236296718e-05
75.5283121635,43.0283121635,8,0,-0.9925630537294712,25.95238927271572,2.71725144277511,-2.393811319010688e-05,8.384169611567386e-05,2.173801154220088e-05,8.492685044365072e-05,8.479578560321579e-05
76.97168783650001,43.0283121635,8,0,-1.00450823712752,25.90460853912352,2.706970557168892,-2.393811319010688e-05,8.369835391489728e-05,2.165576445735114e-05,8.477679873431247e-05,8.463960776060663e-05
75.5283121635,44.47168783650001,8,0,-1.019978748679486,25.94553534897821,2.699333667678037,-2.402036027495693e-05,8.384169611567386e-05,2.15946693414243e-05,8.491192461686738e-05,8.473144761009466e-05
76.97168783650001,44.47168783650001,8,0,-1.031923932077526,25.89775461538605,2.689052782071792,-2.402036027495693e-05,8.369835391489739e-05,2.151242225657433e-05,8.476191029435876e-05,8.463232385403364e-05
78.0283121635,43.0283121635,8,0,-0.8277834319798094,25.91426796862925,2.687925043718006,-2.338032135723879e-05,8.358788424519745e-05,2.150340034974405e-05,8.465786753385541e-05,8.451100303874313e-05
79.47168783650001,43.0283121635,8,0,-0.8409889777757025,25.86144578544568,2.675441597457973,-2.338032135723879e-05,8.342941769564672e-05,2.140353277966378e-05,8.449112409425098e-05,8.431582624711305e-05
78.0283121635,44.47168783650001,8,0,-0.8610726220067564,25.90594567112252,2.6681167250242,-2.348018892731963e-05,8.358788424519745e-05,2.13449338001936e-05,8.464134277414391e-05,8.454619483739986e-05
79.47168783650001,44.47168783650001,8,0,-0.8742781678026539,25.85312348793893,2.655633278764098,-2.348018892731963e-05,8.342941769564667e-05,2.124506623011279e-05,8.447465297910233e-05,8.441000974400152e-05
80.5283121635,43.0283121635,8,0,-0.6710125567465344,25.86757925063375,2.602406350318411,-2.284130358209591e-05,8.331306364742523e-05,2.081925080254729e-05,8.43242126143763e-05,8.416407192502796e-05
81.97168783650001,43.0283121635,8,0,-0.6842974419023351,25.81443971001055,2.587952930757145,-2.284130358209591e-05,8.315364502555563e-05,2.070362344605716e-05,8.415517338412822e-05,8.394464819843574e-05
80.5283121635,44.47168783650001,8,0,-0.7095550089099563,25.8579436375929,2.582479022584752,-2.295693093858618e-05,8.331306364742523e-05,2.065983218067801e-05,8.430786502170785e-05,8.430223559114792e-05
81.97168783650001,44.47168783650001,8,0,-0.7228398940657339,25.80480409696979,2.568025603023492,-2.295693093858618e-05,8.31536450255559e-05,2.054420482418794e-05,8.413889433564211e-05,8.414397622319504e-05
83.02831216350002,43.0283121635,8,0,-0.5240430353817018,25.8195220782582,2.459684318775641,-2.2332555375828e-05,8.304170507873157e-05,1.967747455020513e-05,8.395247073137259e-05,8.378099593052376e-05
84.47168783650002,43.0283121635,8,0,-0.5362436187369557,25.77071974483718,2.44337136085908,-2.2332555375828e-05,8.289529807846852e-05,1.954697088687264e-05,8.379535366774657e-05,8.355331334638757e-05
83.02831216350002,44.47168783650001,8,0,-0.5675442564925408,25.80864677298048,2.441383443742712,-2.246305903916051e-05,8.304170507873157e-05,1.95310675499417e-05,8.393798994453874e-05,8.402600512552176e-05
84.47168783650002,44.47168783650001,8,0,-0.5797448398477947,25.75984443955947,2.425070485826178,-2.246305903916051e-05,8.289529807846852e-05,1.940056388660943e-05,8.378095241784446e-05,8.386196146079281e-05
85.5283121635,43.0283121635,8,0,-0.3886557859760069,25.77725103802514,2.258350774162054,-2.186549934554333e-05,8.279812795046124e-05,1.806680619329643e-05,8.357206814510553e-05,8.339012331702525e-05
86.97168783650002,43.0283121635,8,0,-0.3985780131795256,25.73756212921106,2.240150208554056,-2.186549934554333e-05,8.267906122401902e-05,1.792120166843245e-05,8.34415210015864e-05,8.3171962449636e-05
85.5283121635,44.47168783650001,8,0,-0.4371906275971993,25.76511732761984,2.243467433356722,-2.201110387040691e-05,8.279812795046124e-05,1.794773946685378e-05,8.356092787635154e-05,8.374634159192893e-05
86.97168783650002,44.47168783650001,8,0,-0.4471128548006993,25.72542841880584,2.225266867748806,-2.201110387040691e-05,8.267906122401923e-05,1.780213494199045e-05,8.3430463202599e-05,8.359450590054385e-05
88.02831216350002,43.0283121635,8,0,-0.2668449524206542,25.74814121839543,1.996506426378324,-2.145241682246243e-05,8.260752786080189e-05,1.597205141102659e-05,8.321684339847264e-05,8.302300095163385e-05
89.47168783650001,43.0283121635,8,0,-0.2732087904466134,25.72268586629159,1.976246451118217,-2.145241682246243e-05,8.253116180449038e-05,1.580997160894573e-05,8.312867707460623e-05,8.283419143809236e-05
88.02831216350002,44.47168783650001,8,0,-0.3208715531143982,25.73463456822199,1.986960669339289,-2.161449662454367e-05,8.260752786080189e-05,1.589568535471431e-05,8.32101362505616e-05,8.349501918812292e-05
89.47168783650001,44.47168783650001,8,0,-0.3272353911403751,25.70917921611809,1.966700694079176,-2.161449662454367e-05,8.253116180449016e-05,1.573360555263341e-05,8.312204047619895e-05,8.337505212648445e-05
90.52831216350002,43.0283121635,8,0,-0.1610642573752505,25.74009654648333,1.671724243513839,-2.110748286078746e-05,8.249716035464683e-05,1.337379394811072e-05,8.292696597807919e-05,8.271441309901532e-05
91.97168783650001,43.0283121635,8,0,-0.1624415600581735,25.73458733575163,1.649095515748594,-2.110748286078746e-05,8.248063272245175e-05,1.319276412598875e-05,8.289899374898905e-05,8.25759821045382e-05
90.52831216350002,44.47168783650001,8,0,-0.2214075314159052,25.72501072797316,1.669658289489475,-2.128851268290942e-05,8.249716035464683e-05,1.33572663159158e-05,8.292516693709565e-05,8.330617754425392e-05
91.97168783650001,44.47168783650001,8,0,-0.2227848340988281,25.71950151724147,1.647029561724237,-2.128851268290942e-05,8.248063272245175e-05,1.317623649379389e-05,8.289722813841689e-05,8.323797574788049e-05
93.02831216350002,43.0283121635,8,0,-0.07449337012882218,25.76189474159037,1.281073978149158,-2.084789457768452e-05,8.249765786919223e-05,1.024859182519326e-05,8.275111982297399e-05,8.249975122364663e-05
94.47168783650002,43.0283121635,8,0,-0.06923993695397446,25.78290847428976,1.255648157367453,-2.084789457768452e-05,8.256069906729041e-05,1.004518525893962e-05,8.280407540375677e-05,8.24299155784134e-05
93.02831216350002,44.47168783650001,8,0,-0.1422955588799732,25.74494419440258,1.288954127911396,-2.105130114393798e-05,8.249765786919223e-05,1.031163302329116e-05,8.275373834498256e-05,8.321244057236561e-05
94.47168783650002,44.47168783650001,8,0,-0.1370421257051158,25.76595792710201,1.263528307129724,-2.105130114393798e-05,8.256069906729051e-05,1.010822645703779e-05,8.28066509660881e-05,8.321087897184923e-05
95.5283121635,43.0283121635,8,0,-0.01132441241894533,25.82356407924644,0.8212146481480762,-2.069508938313778e-05,8.264446458352377e-05,6.56971718518461e-06,8.27487752259587e-05,8.24050221109846e-05
96.97168783650002,43.0283121635,8,0,0.002493124929657142,25.87883422864085,0.7924771849892175,-2.069508938313778e-05,8.281027503170699e-05,6.33981747991374e-06,8.290726434766177e-05,8.240684753842289e-05
95.5283121635,44.47168783650001,8,0,-0.0879576475092847,25.80440577047386,0.8419409541709859,-2.09249890884088e-05,8.264446458352377e-05,6.735527633367887e-06,8.275385848007026e-05,8.323217549810595e-05
96.97168783650002,44.47168783650001,8,0,-0.07414011016068667,25.85967591986825,0.8132034910121068,-2.09249890884088e-05,8.281027503170694e-05,6.505627928096855e-06,8.291217302727158e-05,8.329192029038291e-05
98.02831216350002,43.0283121635,8,0,0.02293158423519426,25.93678748960715,0.2885661906663876,-2.06760489221331e-05,8.297937469935472e-05,2.3085295253311e-06,8.299222653022118e-05,8.241763110890726e-05
99.47168783650002,43.0283121635,8,0,0.04761312051805078,26.03551363473858,0.2559664282092387,-2.06760489221331e-05,8.3275553134749e-05,2.047731425673909e-06,8.328563666688859e-05,8.244526694392053e-05
98.02831216350002,44.47168783650001,8,0,-0.06400111565050892,25.91505431463573,0.3255884950906793,-2.093684702179021e-05,8.297937469935472e-05,2.604707960725434e-06,8.299569418765385e-05,8.333392071272421e-05
99.47168783650002,44.47168783650001,8,0,-0.03931957936762576,26.01378045976726,0.292988732633544,-2.093684702179021e-05,8.327555313474933e-05,2.343909861068352e-06,8.328873107421768e-05,8.338892320822793e-05
0.5283121635,45.5283121635,8,0,-0.04288242629879946,2.688126522206629,-0.3845853451266867,-2.287724981921461e-06,8.636310812100249e-06,-3.076682761013493e-06,8.848809080388977e-06,1.181206182601554e-05
1.9716878365,45.5283121635,8,0,0.1113769577614595,3.305164058447664,-0.416545729076733,-2.287724981921461e-06,1.048742342082336e-05,-3.332365832613864e-06,1.070115739954915e-05,1.258602038684159e-05
0.5283121635,46.97168783650001,8,0,-0.1281101168321662,2.666819599573287,-0.1531962690362577,-2.543408053521561e-06,8.636310812100249e-06,-1.225570152290061e-06,8.66979860564227e-06,1.267663153391351e-05
1.9716878365,46.97168783650001,8,0,0.02614926722809274,3.283857135814323,-0.1851566529862498,-2.543408053521561e-06,1.048742342082336e-05,-1.481253223889999e-06,1.052938292123763e-05,1.3417094605132e-05
3.0283121635,45.5283121635,8,0,-0.08824917156199441,3.693706434406436,-0.9090198344530507,-3.237362496523531e-06,1.189045992735019e-05,-7.272158675624405e-06,1.271903498426888e-05,1.349969438257378e-05
4.4716878365,45.5283121635,8,0,0.07692202945008142,4.354391238454739,-0.9373556223758615,-3.237362496523531e-06,1.38725143394951e-05,-7.498844979006891e-06,1.465808663240122e-05,1.522193959974865e-05
3.0283121635,46.97168783650001,8,0,-0.1638112726895442,3.674815909124413,-0.6612630329349504,-3.464048799906071e-06,1.189045992734976e-05,-5.290104263479603e-06,1.233333704932385e-05,1.429351888989519e-05
4.4716878365,46.97168783650001,8,0,0.001359928322567816,4.335500713172861,-0.6895988208577611,-3.464048799906071e-06,1.38725143394951e-05,-5.516790566862089e-06,1.430081728879204e-05,1.594749149373873e-05
5.528312163500001,45.5283121635,8,0,-0.1603526250240772,4.760293368901404,-1.361268422003933,-4.32136309519817e-06,1.536122088050375e-05,-1.089014737603146e-05,1.676714434617998e-05,1.66312152081815e-05
6.9716878365,45.5283121635,8,0,0.01341133294441876,5.455349200775387,-1.386775563143509,-4.32136309519817e-06,1.74463883761257e-05,-1.109420450514807e-05,1.877844872534251e-05,1.87591825552764e-05
5.528312163500001,46.97168783650001,8,0,-0.2283716680628387,4.743288608141578,-1.100622485051108,-4.525420224314345e-06,1.536122088050332e-05,-8.804979880408861e-06,1.629225278153083e-05,1.730461895630208e-05
6.9716878365,46.97168783650001,8,0,-0.05460771009434273,5.438344440015562,-1.126129626190697,-4.525420224314345e-06,1.744638837612527e-05,-9.009037009525579e-06,1.833401683803395e-05,1.93583875326863e-05
8.028312163500001,45.5283121635,8,0,-0.2551849835834858,5.874634950924197,-1.746515619833647,-5.516299908206511e-06,1.900297982982422e-05,-1.397212495866918e-05,2.085375592502187e-05,2.037718271277741e-05
9.471687836500001,45.5283121635,8,0,-0.07455836335906607,6.597141431821876,-1.769766458389205,-5.516299908206511e-06,2.117049927251725e-05,-1.415813166711364e-05,2.293204872887185e-05,2.266967400281761e-05
8.028312163500001,46.97168783650001,8,0,-0.3171872197315837,5.859134391887308,-1.475575689497072,-5.702306616650913e-06,1.900297982982465e-05,-1.180460551597658e-05,2.03406606512382e-05,2.092313566484239e-05
9.471687836500001,46.97168783650001,8,0,-0.1365605995072181,6.58164087278477,-1.498826528052656,-5.702306616650913e-06,2.117049927251704e-05,-1.199061222442125e-05,2.244737670548093e-05,2.314433848673886e-05
10.5283121635,45.5283121635,8,0,-0.370488048153764,7.026578844597934,-2.068738682804331,-6.806824829770392e-06,2.27814427412364e-05,-1.654990946243465e-05,2.493845258284763e-05,2.437005171912698e-05
11.9716878365,45.5283121635,8,0,-0.1843497179740408,7.771132165316827,-2.089983949634294,-6.806824829770392e-06,2.501510270339308e-05,-1.671987159707435e-05,2.707765541348168e-05,2.67230787422994e-05
10.5283121635,46.97168783650001,8,0,-0.427142093033702,7.01241533337795,-1.789531187534909,-6.976786964410205e-06,2.27814427412364e-05,-1.431624950027927e-05,2.44137423869371e-05,2.47940073102788e-05
11.9716878365,46.97168783650001,8,0,-0.2410037628540329,7.756968654096626,-1.810776454364872,-6.976786964410205e-06,2.501510270339243e-05,-1.448621163491898e-05,2.657856654439043e-05,2.707978353014747e-05
13.0283121635,45.5283121635,8,0,-0.5048494162316004,8.207952108147056,-2.330397453234657,-8.181879818458765e-06,2.666932627905585e-05,-1.864317962587726e-05,2.900590120372904e-05,2.845104701475228e-05
14.4716878365,45.5283121635,8,0,-0.3143691750793343,8.969873072756121,-2.349548684176707,-8.181879818458765e-06,2.895508917288305e-05,-1.879638947341366e-05,3.119801214463334e-05,3.081891710598886e-05
13.0283121635,46.97168783650001,8,0,-0.555919365410436,8.195184620852347,-2.044677091506217,-8.335089665995271e-06,2.666932627905585e-05,-1.635741673204974e-05,2.848598355400336e-05,2.875964659514303e-05
14.4716878365,46.97168783650001,8,0,-0.3654391242581698,8.957105585461411,-2.063828322448294,-8.335089665995271e-06,2.895508917288305e-05,-1.651062657958636e-05,3.070091824603559e-05,3.106334161879572e-05
15.5283121635,45.5283121635,8,0,-0.6569195728468262,9.411515178331468,-2.532487730426598,-9.631354775775018e-06,3.064238422893816e-05,-2.025990184341278e-05,3.304679727729548e-05,3.254953168846469e-05
16.9716878365,45.5283121635,8,0,-0.4632518289408103,10.18618615395553,-2.549163274892567,-9.631354775775018e-06,3.296639715581035e-05,-2.039330619914054e-05,3.528136991993032e-05,3.49097885650727e-05
15.5283121635,46.97168783650001,8,0,-0.7013876914228532,9.400398148687461,-2.241986114567655,-9.764759131503098e-06,3.064238422893816e-05,-1.793588891654124e-05,3.254329934313191e-05,3.274770657231567e-05
16.9716878365,46.97168783650001,8,0,-0.5077199475168821,10.17506912431135,-2.258661659033598,-9.764759131503098e-06,3.296639715580981e-05,-1.806929327226878e-05,3.479807680811934e-05,3.504578218036349e-05
18.0283121635,45.5283121635,8,0,-0.8248164771935622,10.63009605476776,-2.674868918165049,-1.114348957083361e-05,3.467616055701167e-05,-2.139895134532039e-05,3.705148655313583e-05,3.662960895443746e-05
19.4716878365,45.5283121635,8,0,-0.6292208476659482,11.41247857287821,-2.688483890124407,-1.114348957083361e-05,3.702330811134304e-05,-2.150787112099525e-05,3.931522405090273e-05,3.896798876166663e-05
18.0283121635,46.97168783650001,8,0,-0.861123069085056,10.62101940679488,-2.381475473873628,-1.125240934650809e-05,3.467616055701167e-05,-1.905180379098903e-05,3.657351654603064e-05,3.672058455806228e-05
19.4716878365,46.97168783650001,8,0,-0.6655274395574238,11.40340192490541,-2.395090445832932,-1.125240934650809e-05,3.702330811134326e-05,-1.916072356666345e-05,3.885503844187512e-05,3.899815413871923e-05
20.5283121635,45.5283121635,8,0,-1.005752626991721,11.85597041983316,-2.756767808124926,-1.270318474224004e-05,3.87437074450595e-05,-2.205414246499941e-05,4.100761526169443e-05,4.066729755766179e-05
21.9716878365,45.5283121635,8,0,-0.8096633907510853,12.64032736479571,-2.766647564143144,-1.270318474224004e-05,4.109677827994712e-05,-2.213318051314515e-05,4.328422403913723e-05,4.297151571903749e-05
20.5283121635,46.97168783650001,8,0,-1.032098643040228,11.84938391582104,-2.462633953763892,-1.278222279038556e-05,3.87437074450595e-05,-1.970107163011114e-05,4.056268256910895e-05,4.065342368439363e-05
21.9716878365,46.97168783650001,8,0,-0.8360094067995658,12.63374086078369,-2.472513709782096,-1.278222279038556e-05,4.109677827994745e-05,-1.978010967825677e-05,4.2854836418041e-05,4.289813460293287e-05
23.0283121635,45.5283121635,8,0,-1.195890607785947,13.08051628532221,-2.777360327698266,-1.429126297317279e-05,4.281436459925981e-05,-2.221888262158613e-05,4.489948255375178e-05,4.464120074644056e-05
24.4716878365,45.5283121635,8,0,-1.00093541978111,13.86033703734156,-2.782858026215496,-1.429126297317279e-05,4.515382685531786e-05,-2.226286420972396e-05,4.716987763912576e-05,4.689864691276103e-05
23.0283121635,46.97168783650001,8,0,-1.21055113716519,13.0768511529774,-2.484927545690969,-1.433524456131052e-05,4.281436459925981e-05,-1.987942036552775e-05,4.449377121872047e-05,4.452488485955691e-05
24.4716878365,46.97168783650001,8,0,-1.015595949160353,13.85667190499675,-2.490425244208212,-1.433524456131052e-05,4.515382685531786e-05,-1.99234019536657e-05,4.677763332275485e-05,4.672453829352921e-05
25.5283121635,45.5283121635,8,0,-1.390406813498256,14.29413792274971,-2.736341194173225,-1.588461214139419e-05,4.685356680359768e-05,-2.18907295533858e-05,4.870827579588185e-05,4.852915540662542e-05
26.9716878365,45.5283121635,8,0,-1.198380676623685,15.06224247024799,-2.736942706658127,-1.588461214139419e-05,4.915788044609253e-05,-2.189554165326501e-05,5.095113759580267e-05,5.072634128790446e-05
25.5283121635,46.97168783650001,8,0,-1.392010846791345,14.29373691442644,-2.448301988861409,-1.588942424127346e-05,4.685356680359768e-05,-1.958641591089127e-05,4.834660616867875e-05,4.831364453112612e-05
26.9716878365,46.97168783650001,8,0,-1.199984709916775,15.06184146192472,-2.448903501346304,-1.588942424127346e-05,4.915788044609253e-05,-1.959122801077043e-05,5.060100621743327e-05,5.045551007707782e-05
28.0283121635,45.5283121635,8,0,-1.583721188032694,15.48642478505841,-2.634407566810469,-1.745704762975135e-05,5.082353626261306e-05,-2.107526053448375e-05,5.241280051042304e-05,5.230756141560336e-05
29.4716878365,45.5283121635,8,0,-1.396525965003085,16.23520567717685,-2.629811372230699,-1.745704762975135e-05,5.306987893896836e-05,-2.103849097784559e-05,5.460541521252609e-05,5.443034926133194e-05
28.0283121635,46.97168783650001,8,0,-1.571464669153432,15.48948891477822,-2.353614732266009,-1.742027807311356e-05,5.082353626261306e-05,-1.882891785812807e-05,5.20984733848742e-05,5.199748913558371e-05
29.4716878365,46.97168783650001,8,0,-1.384269446123827,16.23826980689664,-2.349018537686266,-1.742027807311356e-05,5.306987893896831e-05,-1.879214830149013e-05,5.430084419240448e-05,5.406838872185647e-05
30.5283121635,45.5283121635,8,0,-1.769836472577391,16.64648941373857,-2.47360572174765,-1.898066824323851e-05,5.468463530202534e-05,-1.97888457739812e-05,5.599046594375501e-05,5.595189318977288e-05
31.9716878365,45.5283121635,8,0,-1.589398660115111,17.36824066358769,-2.463770900753199,-1.898066824323851e-05,5.684988905157269e-05,-1.97101672060256e-05,5.810974317653664e-05,5.798604066266961e-05
30.5283121635,46.97168783650001,8,0,-1.743610283258784,16.65304596106822,-2.20294900305415,-1.890198967528268e-05,5.468463530202534e-05,-1.76235920244332e-05,5.572511184974276e-05,5.555358075397688e-05
31.9716878365,46.97168783650001,8,0,-1.563172470796495,17.37479721091738,-2.193114182059692,-1.890198967528268e-05,5.68498890515728e-05,-1.754491345647754e-05,5.785251421554083e-05,5.754030125862605e-05
33.0283121635,45.5283121635,8,0,-1.942725963820094,17.76341651226859,-2.257516269215158,-2.042745629403917e-05,5.839711361031556e-05,-1.806013015372127e-05,5.94183578195157e-05,5.943767320502843e-05
34.4716878365,45.5283121635,8,0,-1.770905767500536,18.45069729754682,-2.242677385021938,-2.042745629403917e-05,6.045895596615026e-05,-1.794141908017551e-05,6.144190765613284e-05,6.1369459591945e-05
33.0283121635,46.97168783650001,8,0,-1.903155605971597,17.77330910173078,-1.999785974735768,-2.030874522049374e-05,5.839711361031578e-05,-1.599828779788614e-05,5.920186536165454e-05,5.895921067623694e-05
34.4716878365,46.97168783650001,8,0,-1.731335409652035,18.46058988700903,-1.984947090542588,-2.030874522049374e-05,6.045895596615053e-05,-1.58795767243407e-05,6.123206867164115e-05,6.084902279200349e-05
35.5283121635,45.5283121635,8,0,-2.09671442371462,18.82675455132285,-1.991278865928127,-2.177088979694506e-05,6.19229861032048e-05,-1.593023092742501e-05,6.267427910404722e-05,6.274154222086614e-05
36.9716878365,45.5283121635,8,0,-1.935217560166263,19.47274200551627,-1.971931307978285,-2.177088979694506e-05,6.386094846578508e-05,-1.577545046382628e-05,6.458144099635826e-05,6.455835528850417e-05
35.5283121635,46.97168783650001,8,0,-2.045120935848375,18.83965292328941,-1.749033570605632,-2.161610933334632e-05,6.19229861032048e-05,-1.399226856484506e-05,6.250483755292588e-05,6.219269460635607e-05
36.9716878365,46.97168783650001,8,0,-1.883624072300018,19.48564037748283,-1.72968601265579,-2.161610933334632e-05,6.386094846578508e-05,-1.383748810124632e-05,6.441734850411054e-05,6.397386215625506e-05
38.0283121635,45.5283121635,8,0,-2.226810085722598,19.82699017001694,-1.681477286976454,-2.298738441032587e-05,6.522781661263228e-05,-1.345181829581164e-05,6.57376821514133e-05,6.584224068431987e-05
39.4716878365,45.5283121635,8,0,-2.077110847221444,20.42578712402156,-1.658339758686358,-2.298738441032587e-05,6.702420747464613e-05,-1.326671806949086e-05,6.751042314409621e-05,6.753306774929515e-05
38.0283121635,46.97168783650001,8,0,-2.165110010282305,19.84241518887722,-1.456928429224825,-2.280228418400515e-05,6.522781661263293e-05,-1.16554274337986e-05,6.561194310682737e-05,6.52342302530133e-05
39.4716878365,46.97168783650001,8,0,-2.015410771781242,20.44121214288147,-1.433790900934735,-2.280228418400515e-05,6.70242074746457e-05,-1.147032720747788e-05,6.7388900561387e-05,6.68964523798431e-05
40.5283121635,45.5283121635,8,0,-2.328962408557759,20.75596080929248,-1.33591741000506,-2.405744835481881e-05,6.828224451658213e-05,-1.068733928004048e-05,6.859045231207596e-05,6.872141759473414e-05
41.97168783650001,45.5283121635,8,0,-2.192243220682251,21.30283756079452,-1.30987939883113,-2.405744835481881e-05,6.992287477108823e-05,-1.047903519064904e-05,7.021408193138753e-05,7.027722268480283e-05
40.5283121635,46.97168783650001,8,0,-2.259527712093973,20.77331948340843,-1.13083862819175,-2.384914426542745e-05,6.828224451658213e-05,-9.046709025533999e-06,6.850379389503957e-05,6.806663009781611e-05
41.97168783650001,46.97168783650001,8,0,-2.122808524218446,21.32019623491053,-1.104800617017867,-2.384914426542745e-05,6.992287477108845e-05,-8.838404936142939e-06,7.013067842398903e-05,6.960139295050947e-05
43.0283121635,45.5283121635,8,0,-2.400235872667458,21.60717805572612,-0.9633339636863536,-2.496649723711676e-05,7.106315847645755e-05,-7.706671709490829e-06,7.121753127035973e-05,7.136424324144047e-05
44.4716878365,45.5283121635,8,0,-2.277345642355938,22.0987389769722,-0.9353955402322648,-2.496649723711676e-05,7.253784124019579e-05,-7.483164321858118e-06,7.268120802009201e-05,7.27782335411039e-05
43.0283121635,46.97168783650001,8,0,-2.325733410123195,21.62580367136219,-0.7789986182189855,-2.474298984948397e-05,7.106315847645755e-05,-6.231988945751884e-06,7.116439595127689e-05,7.067589599808893e-05
44.4716878365,46.97168783650001,8,0,-2.202843179811635,22.11736459260843,-0.7510601947649238,-2.474298984948397e-05,7.253784124019628e-05,-6.008481558119391e-06,7.263053032694401e-05,7.207673006439504e-05
45.52831216350001,45.5283121635,8,0,-2.438901525858348,22.37604921472642,-0.5730588527430078,-2.570532425452785e-05,7.355447870781122e-05,-4.584470821944063e-06,7.360738576450425e-05,7.375983452743125e-05
46.97168783650001,45.5283121635,8,0,-2.330332988293256,22.81032336498679,-0.5442686798623215,-2.570532425452785e-05,7.485730115859232e-05,-4.354149438898572e-06,7.490441046016741e-05,7.502762799528788e-05
45.52831216350001,46.97168783650001,8,0,-2.362127731509924,22.39524266331346,-0.4102060463953094,-2.547500287148252e-05,7.3554478707811e-05,-3.281648371162476e-06,7.358165814209074e-05,7.305163230313413e-05
46.97168783650001,46.97168783650001,8,0,-2.253559193944814,22.8295168135739,-0.3814158735146705,-2.547500287148252e-05,7.485730115859232e-05,-3.051326988117364e-06,7.488049519521159e-05,7.431428068558906e-05
48.0283121635,45.5283121635,8,0,-2.444454033884339,23.05999541187562,-0.1746776938492755,-2.627024923793037e-05,7.574754854510943e-05,-1.397421550794204e-06,7.575233372828617e-05,7.590151339125417e-05
49.47168783650001,45.5283121635,8,0,-2.350339147168387,23.43645495873943,-0.1460734510220675,-2.627024923793037e-05,7.687692718570086e-05,-1.16858760817654e-06,7.688023690591894e-05,7.702121922527138e-05
48.0283121635,46.97168783650001,8,0,-2.368176053011657,23.07906490709378,-0.03350536377535432,-2.604141529531233e-05,7.574754854510943e-05,-2.680429102028346e-07,7.574772500548992e-05,7.518730736737978e-05
49.47168783650001,46.97168783650001,8,0,-2.274061166295692,23.45552445395765,-0.004901120948105561,-2.604141529531233e-05,7.687692718570102e-05,-3.920896758484449e-08,7.687693092007685e-05,7.630981223604172e-05
50.5283121635,45.5283121635,8,0,-2.417563517975168,23.65847072869648,0.2223050064027694,-2.666297984047771e-05,7.764115714620884e-05,1.778440051222155e-06,7.764873742841156e-05,7.778691672403559e-05
51.97168783650001,45.5283121635,8,0,-2.337685481285971,23.97798287545326,0.2497508669002901,-2.666297984047771e-05,7.859969358647921e-05,1.998006935202321e-06,7.860917385161369e-05,7.875913535995952e-05
50.5283121635,46.97168783650001,8,0,-2.344374556648491,23.67676796902814,0.3421220614366327,-2.644341295649768e-05,7.764115714620884e-05,2.736976491493062e-06,7.765914671423359e-05,7.708037524843377e-05
51.97168783650001,46.97168783650001,8,0,-2.264496519959294,23.99628011578493,0.3695679219341264,-2.644341295649768e-05,7.859969358647921e-05,2.956543375473011e-06,7.862049318610382e-05,7.806308768014978e-05
53.0283121635,45.5283121635,8,0,-2.359970617002064,24.17288980214506,0.6087757818699961,-2.689021781612265e-05,7.924122386046583e-05,4.870206254959969e-06,7.929706601997163e-05,7.941796738782878e-05
54.4716878365,45.5283121635,8,0,-2.293790878424743,24.43760875645434,0.6342026686582646,-2.689021781612265e-05,8.003538072339368e-05,5.073621349266117e-06,8.009553273770977e-05,8.024571132577377e-05
53.0283121635,46.97168783650001,8,0,-2.292165585566709,24.1898410600039,0.7080453897360039,-2.668680272181658e-05,7.924122386046583e-05,5.664363117888031e-06,7.931689341421922e-05,7.873226564604751e-05
54.4716878365,46.97168783650001,8,0,-2.225985846989361,24.45456001431329,0.7334722765243062,-2.668680272181658e-05,8.0035380723394e-05,5.86777821219445e-06,8.011597511860475e-05,7.957778141654746e-05
55.5283121635,45.5283121635,8,0,-2.274332504712501,24.60647305526719,0.9762826951180932,-2.696304245929375e-05,8.056017978062499e-05,7.810261560944746e-06,8.070182344761082e-05,8.080070787629581e-05
56.97168783650001,45.5283121635,8,0,-2.221030769274751,24.81967999701818,0.9989787251795751,-2.696304245929375e-05,8.119980060587799e-05,7.991829801436601e-06,8.134722279025722e-05,8.148924271246692e-05
55.5283121635,46.97168783650001,8,0,-2.213809757881685,24.62160374197489,1.056235298274745,-2.67814742188013e-05,8.056017978062499e-05,8.449882386197963e-06,8.072621560665868e-05,8.01482463865113e-05
56.97168783650001,46.97168783650001,8,0,-2.160508022443926,24.83481068372593,1.078931328336261,-2.67814742188013e-05,8.119980060587809e-05,8.631450626690089e-06,8.137201405250798e-05,8.086126989795708e-05
58.0283121635,45.5283121635,8,0,-2.16402884477176,24.96402122015419,1.317252136131819,-2.689610927939298e-05,8.161609098031081e-05,1.053801708905455e-05,8.187133693861579e-05,8.194499694378627e-05
59.47168783650001,45.5283121635,8,0,-2.122553375734545,25.12992309630305,1.336678986765117,-2.689610927939298e-05,8.21137966087574e-05,1.069343189412093e-05,8.237541437030884e-05,8.250160582339707e-05
58.0283121635,46.97168783650001,8,0,-2.112223909749561,24.97697245390974,1.379465339687629,-2.674069447432639e-05,8.161609098031081e-05,1.103572271750103e-05,8.189635259268335e-05,8.133716352840369e-05
59.47168783650001,46.97168783650001,8,0,-2.070748440712346,25.1428743300586,1.398892190320947,-2.674069447432639e-05,8.21137966087574e-05,1.119113752256757e-05,8.240067581578064e-05,8.192430559439178e-05
60.5283121635,45.5283121635,8,0,-2.032940225256703,25.25163496959827,1.625138584903453,-2.670671669650006e-05,8.243158408291983e-05,1.300110867922762e-05,8.281740963694999e-05,8.286407821801427e-05
61.9716878365,45.5283121635,8,0,-2.00206473383913,25.37513693526857,1.640942445009787,-2.670671669650006e-05,8.280208997993072e-05,1.31275395600783e-05,8.319410772821311e-05,8.329776233688092e-05
60.5283121635,46.97168783650001,8,0,-1.990796598306432,25.26217087633584,1.671451822029841,-2.658028581564926e-05,8.243158408291983e-05,1.337161457623873e-05,8.284010045375237e-05,8.231107168760373e-05
61.9716878365,46.97168783650001,8,0,-1.959921106888845,25.38567284200619,1.687255682136188,-2.658028581564926e-05,8.280208997993088e-05,1.349804545708951e-05,8.321693933271611e-05,8.278059423896057e-05
63.0283121635,45.5283121635,8,0,-1.885216199512738,25.47640072881671,1.894497318337816,-2.641381242149413e-05,8.303265529182365e-05,1.515597854670253e-05,8.355485785445287e-05,8.357404716888167e-05
64.47168783650001,45.5283121635,8,0,-1.863598678715269,25.56287081200659,1.906504965394428,-2.641381242149413e-05,8.329206554139328e-05,1.525203972315542e-05,8.381963841954838e-05,8.389518724843379e-05
63.0283121635,46.97168783650001,8,0,-1.853195807361764,25.48440582685445,1.926923599534087,-2.63177512450412e-05,8.303265529182365e-05,1.54153887962727e-05,8.357326864670548e-05,8.308478060024363e-05
64.47168783650001,46.97168783650001,8,0,-1.831578286564268,25.57087591004444,1.938931246590685,-2.63177512450412e-05,8.32920655413936e-05,1.551144997272548e-05,8.383812149436481e-05,8.3446310642917e-05
65.5283121635,45.5283121635,8,0,-1.725053454323914,25.64606833808981,2.120976426924456,-2.603702572430837e-05,8.344746144534651e-05,1.696781141539565e-05,8.410097481678503e-05,8.409326367100291e-05
66.97168783650001,45.5283121635,8,0,-1.711291849712567,25.70111475653519,2.129176960894675,-2.603702572430837e-05,8.361260070068266e-05,1.70334156871574e-05,8.427016718010283e-05,8.431327844171409e-05
65.5283121635,46.97168783650001,8,0,-1.703185363736675,25.65153536073662,2.14161883384153,-2.597142145254665e-05,8.344746144534651e-05,1.713295067073224e-05,8.411407514054278e-05,8.367535965535205e-05
66.97168783650001,46.97168783650001,8,0,-1.68942375912532,25.70658177918204,2.149819367811755,-2.597142145254665e-05,8.361260070068277e-05,1.719855494249404e-05,8.428329827454208e-05,8.393960315210131e-05
68.0283121635,45.5283121635,8,0,-1.556504875186494,25.76874814819606,2.301232979296754,-2.559581411915363e-05,8.370519797437658e-05,1.840986383437403e-05,8.447498228022113e-05,8.444177486492267e-05
69.47168783650001,45.5283121635,8,0,-1.549184775099191,25.79802854854528,2.305747450533229,-2.559581411915363e-05,8.379303917542422e-05,1.844597960426583e-05,8.456521371448812e-05,8.457281885102311e-05
68.0283121635,46.97168783650001,8,0,-1.544466285222462,25.77175779568707,2.312213129427681,-2.555969834926153e-05,8.370519797437658e-05,1.849770503542145e-05,8.448254736721577e-05,8.410165527162703e-05
69.47168783650001,46.97168783650001,8,0,-1.537146185135142,25.80103819603635,2.316727600664217,-2.555969834926153e-05,8.379303917542444e-05,1.853382080531374e-05,8.45727875639115e-05,8.428014639891498e-05
70.5283121635,45.5283121635,8,0,-1.383336724957524,25.85265311259036,2.432786627960544,-2.510880000993637e-05,8.383515934025517e-05,1.946229302368435e-05,8.469754314897464e-05,8.464082143044793e-05
71.97168783650001,45.5283121635,8,0,-1.381067289182807,25.86173085568923,2.433829208870609,-2.510880000993637e-05,8.386239256955177e-05,1.947063367096488e-05,8.472529758685486e-05,8.469556394638972e-05
70.5283121635,46.97168783650001,8,0,-1.380556509197512,25.85334816653037,2.436190781622652,-2.510045936265633e-05,8.383515934025517e-05,1.948952625298122e-05,8.470000457845327e-05,8.438388244356173e-05
71.97168783650001,46.97168783650001,8,0,-1.378287073422795,25.86242590962923,2.437233362532684,-2.510045936265633e-05,8.386239256955177e-05,1.949786690026148e-05,8.472775945285457e-05,8.448880346083697e-05
73.0283121635,45.5283121635,8,0,-1.208944693881373,25.905905667414,2.513830188054872,-2.459334755435159e-05,8.386605389082988e-05,2.011064150443897e-05,8.479040937348821e-05,8.471249743493633e-05
74.47168783650001,45.5283121635,8,0,-1.210380553343157,25.90016222956686,2.511665282499999,-2.459334755435159e-05,8.384882357728848e-05,2.009332225999999e-05,8.477174511828858e-05,8.470401807005521e-05
73.0283121635,46.97168783650001,8,0,-1.21471777536099,25.9044623970441,2.511676398862149,-2.461066679879044e-05,8.386605389082988e-05,2.009341119089719e-05,8.478869449972881e-05,8.454334956610221e-05
74.47168783650001,46.97168783650001,8,0,-1.216153634822751,25.89871895919705,2.50951149330733,-2.461066679879044e-05,8.384882357728875e-05,2.007609194645864e-05,8.477003150993755e-05,8.458745127977294e-05
75.5283121635,45.5283121635,8,0,-1.036332112945367,25.93642111362922,2.543019424371656,-2.406539965232855e-05,8.382561325396979e-05,2.034415539497325e-05,8.47762708851213e-05,8.467962068609145e-05
76.97168783650001,45.5283121635,8,0,-1.040180568697846,25.9210272906193,2.537919076562156,-2.406539965232855e-05,8.377943178494002e-05,2.030335261249725e-05,8.472671124278788e-05,8.462144515840894e-05
75.5283121635,46.97168783650001,8,0,-1.049933040437232,25.93302088175625,2.537246740742956,-2.410620243480414e-05,8.382561325396979e-05,2.029797392594365e-05,8.47716453301815e-05,8.46023648896298e-05
76.97168783650001,46.97168783650001,8,0,-1.053781496189694,25.9176270587464,2.532146392933524,-2.410620243480414e-05,8.377943178494024e-05,2.025717114346819e-05,8.47220932958568e-05,8.459900791581393e-05
78.0283121635,45.5283121635,8,0,-0.8681471076273466,25.9518708479497,2.519263420491767,-2.353956742276727e-05,8.374050439954091e-05,2.015410736393413e-05,8.467885673372755e-05,8.456584919299872e-05
79.47168783650001,45.5283121635,8,0,-0.873161284768277,25.93181413938598,2.511468733445989,-2.353956742276727e-05,8.368033427384974e-05,2.009174986756791e-05,8.461345294993896e-05,8.447213371847823e-05
78.0283121635,46.97168783650001,8,0,-0.8889329397494832,25.94667438991924,2.511742154780356,-2.360192491913373e-05,8.374050439954113e-05,2.009393723824285e-05,8.467277737096121e-05,8.458435409243036e-05
79.47168783650001,46.97168783650001,8,0,-0.8939471168904234,25.92661768135548,2.503947467734558,-2.360192491913373e-05,8.368033427384985e-05,2.003157974187647e-05,8.460738983250517e-05,8.454767607623546e-05
80.5283121635,45.5283121635,8,0,-0.7067711802659344,25.95972187982684,2.441533500978935,-2.302944528071246e-05,8.363652695965863e-05,1.953226800783148e-05,8.452332304005319e-05,8.439604906207723e-05
81.97168783650001,45.5283121635,8,0,-0.711730653801613,25.93988398568413,2.431222812168317,-2.302944528071246e-05,8.357701327723049e-05,1.944978249734654e-05,8.445687879142418e-05,8.4281897389625e-05
80.5283121635,46.97168783650001,8,0,-0.7342663504275091,25.95284808728645,2.434094290675498,-2.311193079119719e-05,8.363652695965863e-05,1.947275432540399e-05,8.451730106368827e-05,8.451418856498147e-05
81.97168783650001,46.97168783650001,8,0,-0.7392258239631611,25.93301019314384,2.423783601864887,-2.311193079119719e-05,8.357701327723081e-05,1.93902688149191e-05,8.445088064757387e-05,8.445937699900752e-05
83.02831216350002,45.5283121635,8,0,-0.5544499728970633,25.96734458221276,2.308704217552015,-2.254811557904081e-05,8.353906264139846e-05,1.846963374041612e-05,8.433694628518223e-05,8.419686940834845e-05
84.47168783650002,45.5283121635,8,0,-0.5581307548012227,25.95262145459612,2.29596982690874,-2.254811557904081e-05,8.349489325854855e-05,1.836775861526992e-05,8.42843874364113e-05,8.407872031587822e-05
83.02831216350002,46.97168783650001,8,0,-0.5884083479457951,25.95885498845057,2.303183044695742,-2.2649990704187e-05,8.353906264139846e-05,1.842546435756594e-05,8.433241212647523e-05,8.441867011525164e-05
84.47168783650002,46.97168783650001,8,0,-0.5920891298499544,25.94413186083393,2.290448654052474,-2.2649990704187e-05,8.349489325854855e-05,1.832358923241979e-05,8.427987953415625e-05,8.436226840658193e-05
85.5283121635,45.5283121635,8,0,-0.413457333014672,25.98217864029387,2.119435761781014,-2.210880637788204e-05,8.34737375153521e-05,1.695548609424811e-05,8.415012421314117e-05,8.399737770045013e-05
86.97168783650002,45.5283121635,8,0,-0.4145930982177006,25.97763557948175,2.104270300581389,-2.210880637788204e-05,8.346010833291576e-05,1.683416240465111e-05,8.412699515397763e-05,8.38932946347408e-05
85.5283121635,46.97168783650001,8,0,-0.4538985628802035,25.97206833282762,2.117732113976478,-2.223013006747874e-05,8.347373751535253e-05,1.694185691181183e-05,8.414827880307188e-05,8.43270028285899e-05
86.97168783650002,46.97168783650001,8,0,-0.4550343280832543,25.96752527201541,2.102566652776867,-2.223013006747874e-05,8.346010833291592e-05,1.682053322221494e-05,8.412516767617866e-05,8.428705718642294e-05
88.02831216350002,45.5283121635,8,0,-0.2862854369356107,26.01194712646529,1.872104250055012,-2.172567109936618e-05,8.34672591542374e-05,1.497683400044009e-05,8.399766606978402e-05,8.382936910556999e-05
89.47168783650001,45.5283121635,8,0,-0.2835216378020196,26.02300232299965,1.854397436098537,-2.172567109936618e-05,8.350042474384049e-05,1.48351794887883e-05,8.402073215781774e-05,8.375880437767649e-05
88.02831216350002,46.97168783650001,8,0,-0.3335036074861915,26.00014258382764,1.876249948755399,-2.186732561101792e-05,8.34672591542374e-05,1.500999959004319e-05,8.399929673769543e-05,8.427081183109161e-05
89.47168783650001,46.97168783650001,8,0,-0.3307398083525914,26.01119778036204,1.858543134798945,-2.186732561101792e-05,8.35004247438406e-05,1.486834507839156e-05,8.402235399650599e-05,8.426637433710452e-05
90.52831216350002,45.5283121635,8,0,-0.1758557140199066,26.06490967408305,1.564785048079631,-2.141466602413014e-05,8.35483955282817e-05,1.251828038463705e-05,8.392032167365231e-05,8.372637315504086e-05
91.97168783650001,45.5283121635,8,0,-0.1676979614553735,26.09754068434119,1.544331608623127,-2.141466602413014e-05,8.364628855905609e-05,1.235465286898501e-05,8.400825313169212e-05,8.37083341349385e-05
90.52831216350002,46.97168783650001,8,0,-0.2303982192373244,26.0512740477787,1.577021676926478,-2.15782935397824e-05,8.35483955282817e-05,1.261617341541182e-05,8.392555672016138e-05,8.428260446763842e-05
91.97168783650001,46.97168783650001,8,0,-0.2222404666727913,26.08390505803683,1.556568237469933,-2.15782935397824e-05,8.364628855905609e-05,1.245254589975946e-05,8.401342412332534e-05,8.43313835028595e-05
93.02831216350002,45.5283121635,8,0,-0.0857468877411538,26.15014694488848,1.195294661107293,-2.119450759668247e-05,8.374906773383605e-05,9.562357288858344e-06,8.396644565333435e-05,8.371890924822204e-05
94.47168783650002,45.5283121635,8,0,-0.07050481301658795,26.21111524378674,1.171814568778233,-2.119450759668247e-05,8.393197263053084e-05,9.37451655022586e-06,8.414054887166304e-05,8.376584001511202e-05
93.02831216350002,46.97168783650001,8,0,-0.1483604672853067,26.13449355000244,1.218157773194236,-2.138234833531493e-05,8.374906773383605e-05,9.745262185553889e-06,8.397442139480264e-05,8.438991805444378e-05
94.47168783650002,46.97168783650001,8,0,-0.1331183925607231,26.19546184890078,1.194677680865135,-2.138234833531493e-05,8.393197263053105e-05,9.55742144692108e-06,8.414836533162268e-05,8.450105838815599e-05
95.5283121635,45.5283121635,8,0,-0.02043701342485882,26.27786919517997,0.7612984566013876,-2.108769379910352e-05,8.410553103531577e-05,6.090387652811101e-06,8.41936113020969e-05,8.381985321801559e-05
96.97168783650002,45.5283121635,8,0,0.00383511018161542,26.37495768960586,0.7344712277267985,-2.108769379910352e-05,8.439679651859347e-05,5.875769821814389e-06,8.447855719180786e-05,8.392048926574402e-05
95.5283121635,46.97168783650001,8,0,-0.09197629042375333,26.25998437593024,0.7977066420110726,-2.13023116301002e-05,8.410553103531577e-05,6.381653136088581e-06,8.420203297772566e-05,8.459826522023188e-05
96.97168783650002,46.97168783650001,8,0,-0.06770416681729685,26.35707287035607,0.7708794131365039,-2.13023116301002e-05,8.439679651859325e-05,6.167035305092031e-06,8.448667431663124e-05,8.47526988906051e-05
98.02831216350002,45.5283121635,8,0,0.01444451175067218,26.45974109827711,0.2604942122854358,-2.112157044101954e-05,8.465961590508621e-05,2.083953698283486e-06,8.466987869818509e-05,8.398449179343367e-05
99.47168783650002,45.5283121635,8,0,0.05000871457284717,26.60199790956581,0.2300097539046028,-2.112157044101954e-05,8.508638633895232e-05,1.840078031236823e-06,8.509435568800484e-05,8.405871390317361e-05
98.02831216350002,46.97168783650001,8,0,-0.06684737726482837,26.43941812602324,0.3138405165187393,-2.136544610806604e-05,8.465961590508621e-05,2.510724132149915e-06,8.467447760869464e-05,8.48455954361255e-05
99.47168783650002,46.97168783650001,8,0,-0.03128317444263917,26.58167493731199,0.2833560581378997,-2.136544610806604e-05,8.508638633895248e-05,2.266848465103197e-06,8.509845287515118e-05,8.494495984797244e-05
0.5283121635,48.02831216350001,8,0,-0.04074355352622006,3.242189836449686,-0.3580796113709071,-2.724131240443653e-06,1.040760231945997e-05,-2.864636890967257e-06,1.056201400854108e-05,1.329311217607983e-05
1.9716878365,48.02831216350001,8,0,0.1026212789552001,3.815649166375367,-0.3878373435206334,-2.724131240443653e-06,1.212798030923701e-05,-3.102698748165067e-06,1.228829318161557e-05,1.401009389459057e-05
0.5283121635,49.47168783650001,8,0,-0.1200975059255445,3.222351348349855,-0.1430323626487227,-2.962193097641626e-06,1.040760231945997e-05,-1.144258901189781e-06,1.043204060503152e-05,1.411279890453454e-05
1.9716878365,49.47168783650001,8,0,0.02326732655587571,3.795810678275536,-0.172790094798449,-2.962193097641626e-06,1.212798030923701e-05,-1.382320758387592e-06,1.215957071599476e-05,1.479912386402209e-05
3.0283121635,48.02831216350001,8,0,-0.08808736067250966,4.177433087090583,-0.8500164900419372,-3.623826023824498e-06,1.343825576722787e-05,-6.800131920335498e-06,1.409084744790113e-05,1.486018204304605e-05
4.4716878365,48.02831216350001,8,0,0.0668594004538412,4.797220131595987,-0.876245638826062,-3.623826023824498e-06,1.529761690074408e-05,-7.009965110608496e-06,1.59260060682385e-05,1.646568433712657e-05
3.0283121635,49.47168783650001,8,0,-0.1580317574303023,4.159946987901,-0.6175963483524924,-3.833659214097767e-06,1.343825576722744e-05,-4.94077078681994e-06,1.37846457299038e-05,1.56145100609758e-05
4.4716878365,49.47168783650001,8,0,-0.003084996303915233,4.779734032406548,-0.6438254971366173,-3.833659214097767e-06,1.529761690074408e-05,-5.150603977092938e-06,1.5638219895195e-05,1.715586161945085e-05
5.528312163500001,48.02831216350001,8,0,-0.1643296005407244,5.177445425714041,-1.275841134720812,-4.66781106230155e-06,1.669928904271751e-05,-1.020672907776649e-05,1.785561109007491e-05,1.778551829089617e-05
6.9716878365,48.02831216350001,8,0,-0.0001564027013911673,5.834138217071374,-1.298961369072566,-4.66781106230155e-06,1.86693674167895e-05,-1.039169095258053e-05,1.977390563510345e-05,1.9785869416222e-05
5.528312163500001,49.47168783650001,8,0,-0.2259835588120152,5.162031936146217,-1.029581337961866,-4.852772937115422e-06,1.669928904271751e-05,-8.236650703694927e-06,1.745943799242185e-05,1.842595595826854e-05
6.9716878365,49.47168783650001,8,0,-0.06181036097274517,5.818724727503297,-1.05270157231362,-4.852772937115422e-06,1.866936741678875e-05,-8.421612578508961e-06,1.940044122366973e-05,2.035456666399654e-05
8.028312163500001,48.02831216350001,8,0,-0.264662787571228,6.228779570709157,-1.638667353790231,-5.829944576795254e-06,2.014382485632628e-05,-1.310933883032185e-05,2.170420331134819e-05,2.131214336416148e-05
9.471687836500001,48.02831216350001,8,0,-0.09314493219498043,6.914850992214147,-1.659005689247635,-5.829944576795254e-06,2.220203912084125e-05,-1.327204551398108e-05,2.369362043926732e-05,2.348165021105231e-05
8.028312163500001,49.47168783650001,8,0,-0.3188983487908479,6.215220680404387,-1.381390570725995,-5.992651260454222e-06,2.014382485632672e-05,-1.105112456580796e-05,2.126398644317517e-05,2.182897921121691e-05
9.471687836500001,49.47168783650001,8,0,-0.1473804934146543,6.901292101909161,-1.401728906183346,-5.992651260454222e-06,2.220203912084104e-05,-1.121383124946676e-05,2.327613566284212e-05,2.392853849598327e-05
10.5283121635,48.02831216350001,8,0,-0.3857573088632518,7.320496205748488,-1.941140072366616,-7.090820352961195e-06,2.373419370548576e-05,-1.552912057893293e-05,2.557954776663564e-05,2.50945353869965e-05
11.9716878365,48.02831216350001,8,0,-0.2084481500329751,8.029732841069595,-1.95883793194838,-7.090820352961195e-06,2.586190361144908e-05,-1.567070345558704e-05,2.76300816581647e-05,2.733151278774721e-05
10.5283121635,49.47168783650001,8,0,-0.4329516010811445,7.308697632694015,-1.675176334121377,-7.232403229614874e-06,2.373419370548576e-05,-1.340141067297101e-05,2.512193502336809e-05,2.549163777057327e-05
11.9716878365,49.47168783650001,8,0,-0.2556424422509127,8.017934268014942,-1.692874193703073,-7.232403229614874e-06,2.586190361144854e-05,-1.354299354962459e-05,2.719382888345319e-05,2.766254512144243e-05
13.0283121635,48.02831216350001,8,0,-0.5251029546548649,8.443387781984583,-2.185101843608505,-8.435039680483234e-06,2.743892326607456e-05,-1.748081474886804e-05,2.945513766322732e-05,2.897653940072058e-05
14.4716878365,48.02831216350001,8,0,-0.3433706283886364,9.170317087049497,-2.200084177392757,-8.435039680483234e-06,2.96197111812693e-05,-1.760067341914206e-05,3.155627960619786e-05,3.123385828660715e-05
13.0283121635,49.47168783650001,8,0,-0.5650558447462233,8.433399559461744,-1.912503354209189,-8.554898350757309e-06,2.743892326607456e-05,-1.530002683367351e-05,2.899735709598859e-05,2.926050198498905e-05
14.4716878365,49.47168783650001,8,0,-0.3833235184799948,9.160328864526658,-1.927485687993496,-8.554898350757309e-06,2.96197111812693e-05,-1.541988550394797e-05,3.111804268109413e-05,3.145529397381826e-05
15.5283121635,48.02831216350001,8,0,-0.6804173287814232,9.589222397860741,-2.37154207077578,-9.848713370389146e-06,3.122984553617951e-05,-1.897233656620624e-05,3.331465477515987e-05,3.288490949920564e-05
16.9716878365,48.02831216350001,8,0,-0.4955689163131178,10.32861604773396,-2.383537432079451,-9.848713370389146e-06,3.344802648579917e-05,-1.906829945663561e-05,3.545450662245059e-05,3.513834641222809e-05
15.5283121635,49.47168783650001,8,0,-0.7124049589244379,9.581225490324988,-2.09426945207324,-9.944676260818189e-06,3.122984553617951e-05,-1.675415561658592e-05,3.286893710292007e-05,3.306157998258114e-05
16.9716878365,49.47168783650001,8,0,-0.5275565464561054,10.32061914019832,-2.106264813376884,-9.944676260818189e-06,3.34480264857995e-05,-1.685011850701508e-05,3.502641004845058e-05,3.525524298136573e-05
18.0283121635,48.02831216350001,8,0,-0.8491797179879916,10.75009561121114,-2.500767865974289,-1.131745158653049e-05,3.507964973026604e-05,-2.000614292779431e-05,3.714439638955979e-05,3.678094735000867e-05
19.4716878365,48.02831216350001,8,0,-0.6625549968827218,11.49659449563222,-2.509365232063234,-1.131745158653049e-05,3.731914638352928e-05,-2.007492185650587e-05,3.930921654999774e-05,3.901517965575383e-05
18.0283121635,49.47168783650001,8,0,-0.8721060275585106,10.74436403381851,-2.220830784316276,-1.138623051524204e-05,3.507964973026604e-05,-1.776664627453021e-05,3.672004747577054e-05,3.685488596087513e-05
19.4716878365,49.47168783650001,8,0,-0.6854813064532226,11.49086291823966,-2.229428150405234,-1.138623051524204e-05,3.73191463835295e-05,-1.783542520324187e-05,3.890058665978161e-05,3.903152885626689e-05
20.5283121635,48.02831216350001,8,0,-1.028323654933597,11.91794820679129,-2.572724926786706,-1.282499426122054e-05,3.8960093185679e-05,-2.058179941429364e-05,4.093018460776621e-05,4.0639168084099e-05
21.9716878365,48.02831216350001,8,0,-0.8413525396905248,12.66583266776358,-2.577451899698731,-1.282499426122054e-05,4.120374656859586e-05,-2.061961519758985e-05,4.310422254162541e-05,4.284175467568538e-05
20.5283121635,49.47168783650001,8,0,-1.040928916032314,11.91479689151661,-2.292268253922071,-1.286281004451669e-05,3.8960093185679e-05,-1.833814603137657e-05,4.053455113836842e-05,4.061409493306817e-05
21.9716878365,49.47168783650001,8,0,-0.8539578007892605,12.66268135248882,-2.296995226834043,-1.286281004451669e-05,4.120374656859565e-05,-1.837596181467234e-05,4.272247570728392e-05,4.276110296601627e-05
23.0283121635,48.02831216350001,8,0,-1.214097851325997,13.08427888059335,-2.587394703126852,-1.435253622871787e-05,4.284097069895952e-05,-2.069915762501482e-05,4.465619004629953e-05,4.443819431309601e-05
24.4716878365,48.02831216350001,8,0,-1.028320674259033,13.82738758886121,-2.587802218847877,-1.435253622871787e-05,4.507029682376308e-05,-2.070241775078301e-05,4.682180764349185e-05,4.65971619223177e-05
23.0283121635,49.47168783650001,8,0,-1.215184559915377,13.08400720344601,-2.30872893752638,-1.435579635448601e-05,4.284097069895952e-05,-1.846983150021104e-05,4.429506143398557e-05,4.431766722250247e-05
24.4716878365,49.47168783650001,8,0,-1.029407382848413,13.82711591171386,-2.309136453247391,-1.435579635448601e-05,4.507029682376308e-05,-1.847309162597913e-05,4.647282376563649e-05,4.642327182370117e-05
25.5283121635,48.02831216350001,8,0,-1.402084337557963,14.24005418942619,-2.545199266263236,-1.587871323172643e-05,4.668984087621017e-05,-2.036159413010589e-05,4.830472216511195e-05,4.815717886110773e-05
26.9716878365,48.02831216350001,8,0,-1.219138461577439,14.97183769334829,-2.540939875992876,-1.587871323172643e-05,4.888519138797646e-05,-2.032751900794301e-05,5.044278596154796e-05,5.026025678950968e-05
25.5283121635,49.47168783650001,8,0,-1.390725963503815,14.24289378293973,-2.270780452292491,-1.584463810956399e-05,4.668984087621017e-05,-1.816624361833993e-05,4.798244424697612e-05,4.794521757645834e-05
26.9716878365,49.47168783650001,8,0,-1.20778008752329,14.97467728686182,-2.266521062022179,-1.584463810956399e-05,4.888519138797646e-05,-1.813216849617743e-05,5.013101287465052e-05,4.999764609833269e-05
28.0283121635,48.02831216350001,8,0,-1.587345892451234,15.37579553109666,-2.44735668389371,-1.738014328072127e-05,5.047242241347028e-05,-1.957885347114968e-05,5.185655649441901e-05,5.177475676209082e-05
29.4716878365,48.02831216350001,8,0,-1.408925451333114,16.08947729556914,-2.438246591976987,-1.738014328072127e-05,5.261346770688772e-05,-1.95059727358159e-05,5.394705084111448e-05,5.380936970701813e-05
28.0283121635,49.47168783650001,8,0,-1.563052314006677,15.3818689257078,-2.179726022216542,-1.73072625453876e-05,5.047242241347028e-05,-1.743780817773234e-05,5.157601805880058e-05,5.147631288121163e-05
29.4716878365,49.47168783650001,8,0,-1.384631872888574,16.0955506901802,-2.170615930299806,-1.73072625453876e-05,5.261346770688751e-05,-1.736492744239845e-05,5.367548875966369e-05,5.346367713779873e-05
30.5283121635,48.02831216350001,8,0,-1.764663792555049,16.4818060468096,-2.296145840474381,-1.883236897362383e-05,5.415351038383473e-05,-1.836916672379505e-05,5.529155817457027e-05,5.526915523706392e-05
31.9716878365,48.02831216350001,8,0,-1.592461330388038,17.17061589547764,-2.282204749694023,-1.883236897362383e-05,5.621993992983886e-05,-1.825763799755218e-05,5.7314344824751e-05,5.722275052854512e-05
30.5283121635,49.47168783650001,8,0,-1.727487550473912,16.49110010732988,-2.03784214722379,-1.872084024738042e-05,5.415351038383473e-05,-1.630273717779032e-05,5.505415175389249e-05,5.489040270965162e-05
31.9716878365,49.47168783650001,8,0,-1.555285088306874,17.17990995599803,-2.023901056443384,-1.872084024738042e-05,5.621993992983919e-05,-1.619120845154707e-05,5.708450701054092e-05,5.680092520399011e-05
33.0283121635,48.02831216350001,8,0,-1.928822676687136,17.54849054867792,-2.09505816441757,-2.021102500434117e-05,5.769822789711905e-05,-1.676046531534056e-05,5.858944465885724e-05,5.861880465815752e-05
34.4716878365,48.02831216350001,8,0,-1.764461985937567,18.2059333116762,-2.076524974177361,-2.021102500434117e-05,5.967055618611388e-05,-1.661219979341889e-05,6.052508454865321e-05,6.047930017905589e-05
33.0283121635,49.47168783650001,8,0,-1.879400836046488,17.56084600883829,-1.848517128293271,-2.006275948241939e-05,5.76982278971197e-05,-1.478813702634617e-05,5.839506406596628e-05,5.816726065031429e-05
34.4716878365,49.47168783650001,8,0,-1.715040145296988,18.21828877183629,-1.82998393805309,-2.006275948241939e-05,5.967055618611372e-05,-1.463987150442472e-05,6.033699428950042e-05,5.998963601567448e-05
35.5283121635,48.02831216350001,8,0,-2.074901827340691,18.56671931682857,-1.848831717203288,-2.149306130095306e-05,6.107342327572396e-05,-1.47906537376263e-05,6.173057861704855e-05,6.180311747427745e-05
36.9716878365,48.02831216350001,8,0,-1.91987050431987,19.18684460891185,-1.826157590617651,-2.149306130095306e-05,6.293379915197381e-05,-1.460926072494121e-05,6.356113591463912e-05,6.355935806401653e-05
35.5283121635,49.47168783650001,8,0,-2.014437489778977,18.581835401219,-1.616284732672057,-2.131166828826792e-05,6.107342327572396e-05,-1.293027786137646e-05,6.157768611734971e-05,6.128762057043651e-05
36.9716878365,49.47168783650001,8,0,-1.859406166758156,19.20196069330228,-1.593610606086428,-2.131166828826792e-05,6.293379915197381e-05,-1.274888484869142e-05,6.341339180351374e-05,6.30114049562766e-05
38.0283121635,48.02831216350001,8,0,-2.198539914951745,19.52819101213815,-1.563377840191682,-2.26578805375561e-05,6.424904317080347e-05,-1.250702272153346e-05,6.469671742324279e-05,6.480326068035416e-05
39.4716878365,48.02831216350001,8,0,-2.054128447643762,20.10583688137008,-1.537200606117542,-2.26578805375561e-05,6.598198077849927e-05,-1.229760484894034e-05,6.64064802183905e-05,6.644542523826183e-05
38.0283121635,49.47168783650001,8,0,-2.128733957420723,19.54564250152097,-1.346760639229713,-2.244846266496309e-05,6.424904317080368e-05,-1.077408511383771e-05,6.458249036973856e-05,6.423384034258964e-05
39.4716878365,49.47168783650001,8,0,-1.984322490112771,20.12328837075278,-1.320583405155587,-2.244846266496309e-05,6.598198077849911e-05,-1.056466724124469e-05,6.629639952669994e-05,6.584981154126886e-05
40.5283121635,48.02831216350001,8,0,-2.296150730294739,20.42575895881643,-1.245620305819215,-2.36882895039963e-05,6.719934925244835e-05,-9.964962446553716e-06,6.747167405569436e-05,6.760283332070019e-05
41.97168783650001,48.02831216350001,8,0,-2.163402820727403,20.95675059708577,-1.216725394382193,-2.36882895039963e-05,6.879232416725638e-05,-9.733803155057539e-06,6.904774516998337e-05,6.912276644923944e-05
40.5283121635,49.47168783650001,8,0,-2.219097633129347,20.44502223310777,-1.046498441468265,-2.345713021250013e-05,6.719934925244835e-05,-8.37198753174612e-06,6.739222397307801e-05,6.699050445809695e-05
41.97168783650001,49.47168783650001,8,0,-2.086349723562011,20.97601387137712,-1.017603530031202,-2.345713021250013e-05,6.879232416725638e-05,-8.140828240249618e-06,6.897157876566503e-05,6.849096426415854e-05
43.0283121635,48.02831216350001,8,0,-2.36507796087549,21.25369603808337,-0.9032713557816842,-2.457120630526826e-05,6.990388969056716e-05,-7.226170846253474e-06,7.004186625048828e-05,7.018841042668176e-05
44.4716878365,48.02831216350001,8,0,-2.244754746629716,21.73498889506646,-0.8725446078956063,-2.457120630526826e-05,7.134776826151645e-05,-6.98035686316485e-06,7.147459676515602e-05,7.157987078741852e-05
43.0283121635,49.47168783650001,8,0,-2.283139966512524,21.27418053667411,-0.7227865344130774,-2.432539232217936e-05,6.990388969056716e-05,-5.782292275304619e-06,6.999251258774924e-05,6.954492232093558e-05
44.4716878365,49.47168783650001,8,0,-2.162816752266732,21.75547339365728,-0.6920597865269384,-2.432539232217936e-05,7.134776826151667e-05,-5.536478292215508e-06,7.142779847154436e-05,7.092392947515788e-05
45.52831216350001,48.02831216350001,8,0,-2.403685604510345,22.00788398729036,-0.5445691044632148,-2.529810112426539e-05,7.234817724293741e-05,-4.356552835705718e-06,7.239674570183495e-05,7.254994323090999e-05
46.97168783650001,48.02831216350001,8,0,-2.296244804947308,22.43764718554251,-0.5129462071732057,-2.529810112426539e-05,7.363746683769387e-05,-4.103569657385646e-06,7.367999969040173e-05,7.380877007292709e-05
45.52831216350001,49.47168783650001,8,0,-2.319357878403645,22.0289659188171,-0.383407905118631,-2.504511794594534e-05,7.234817724293763e-05,-3.067263240949048e-06,7.237232103045693e-05,7.188750542023041e-05
46.97168783650001,49.47168783650001,8,0,-2.211917078840625,22.45872911706918,-0.3517850078286219,-2.504511794594534e-05,7.363746683769387e-05,-2.814280062628976e-06,7.365752752662726e-05,7.314103670500938e-05
48.0283121635,48.02831216350001,8,0,-2.411386236060293,22.68592144726339,-0.1779982780415653,-2.586517311320365e-05,7.452405762009106e-05,-1.423986224332523e-06,7.452910705309594e-05,7.468101931839295e-05
49.47168783650001,48.02831216350001,8,0,-2.31697611369537,23.06356193672308,-0.1464146963715026,-2.586517311320365e-05,7.565697908847014e-05,-1.171317570972021e-06,7.5660357511719e-05,7.580522173195354e-05
48.0283121635,49.47168783650001,8,0,-2.327163351606739,22.70697716837677,-0.03638309449416756,-2.561250445984298e-05,7.452405762009106e-05,-2.910647559533405e-07,7.452426912753514e-05,7.401202066911163e-05
49.47168783650001,49.47168783650001,8,0,-2.232753229241789,23.08461765783657,-0.004799512824118449,-2.561250445984298e-05,7.565697908847046e-05,-3.83961025929476e-08,7.565698272791986e-05,7.513806182693888e-05
50.5283121635,48.02831216350001,8,0,-2.388612289126677,23.28715116911582,0.1879870502311104,-2.627328026049802e-05,7.642977357247196e-05,1.503896401848883e-06,7.643527872318645e-05,7.657899046627716e-05
51.97168783650001,48.02831216350001,8,0,-2.307079595308908,23.61328194438689,0.2186425859235417,-2.627328026049802e-05,7.740816589828518e-05,1.749140687388334e-06,7.741554252062069e-05,7.756876354828693e-05
50.5283121635,49.47168783650001,8,0,-2.30686419394668,23.30758819291082,0.3102860909577024,-2.602803597495803e-05,7.642977357247196e-05,2.482288727661619e-06,7.644480623184488e-05,7.591572324282707e-05
51.97168783650001,49.47168783650001,8,0,-2.225331500128911,23.6337189681819,0.3409416266502557,-2.602803597495803e-05,7.740816589828518e-05,2.727533013202046e-06,7.742614351014952e-05,7.69142925843826e-05
53.0283121635,48.02831216350001,8,0,-2.336736835640335,23.81261085599741,0.5452229132556328,-2.6527646558847e-05,7.806974420770398e-05,4.361783306045062e-06,7.811519679910533e-05,7.824497502102173e-05
54.4716878365,48.02831216350001,8,0,-2.267647399908546,24.08896859892457,0.5741488669160595,-2.6527646558847e-05,7.889881743648546e-05,4.593190935328476e-06,7.894882243563245e-05,7.910264603926298e-05
53.0283121635,49.47168783650001,8,0,-2.259600959212611,23.83189482510435,0.6488570668532906,-2.629623892956383e-05,7.806974420770398e-05,5.190856534826324e-06,7.813424881777135e-05,7.759937401712397e-05
54.4716878365,49.47168783650001,8,0,-2.190511523480831,24.10825256803147,0.6777830205136699,-2.629623892956383e-05,7.889881743648535e-05,5.422264164109359e-06,7.896864354556862e-05,7.84724819572195e-05
55.5283121635,48.02831216350001,8,0,-2.257951343080633,24.26491516726717,0.8860632536641385,-2.663737643167176e-05,7.945408960971945e-05,7.088506029313108e-06,7.957236246832924e-05,7.968374033240004e-05
56.97168783650001,48.02831216350001,8,0,-2.200621463031617,24.49423468746324,0.9125775330667675,-2.663737643167176e-05,8.014204817030765e-05,7.30062026453414e-06,8.026669042624204e-05,8.041364844706508e-05
55.5283121635,49.47168783650001,8,0,-2.187246598007054,24.28259135353557,0.9720580737377574,-2.642526219645103e-05,7.945408960971945e-05,7.77646458990206e-06,7.959668603085941e-05,7.906714768187529e-05
56.97168783650001,49.47168783650001,8,0,-2.12991671795801,24.51191087373174,0.9985723531403254,-2.642526219645103e-05,8.014204817030797e-05,7.988578825122604e-06,8.02915498992108e-05,7.98186967151283e-05
58.0283121635,48.02831216350001,8,0,-2.155109512195766,24.64807940601235,1.203563786747676,-2.661481396383633e-05,8.059794170899612e-05,9.628510293981411e-06,8.081368569401074e-05,8.090347263592605e-05
59.47168783650001,48.02831216350001,8,0,-2.10864569969549,24.83393465601345,1.227125929908835,-2.661481396383633e-05,8.115550745899943e-05,9.81700743927068e-06,8.137860816541872e-05,8.151178909206232e-05
58.0283121635,49.47168783650001,8,0,-2.092277130432677,24.66378750145312,1.273259505498104,-2.642631681854706e-05,8.059794170899612e-05,1.018607604398483e-05,8.083976127352979e-05,8.032644049822945e-05
59.47168783650001,49.47168783650001,8,0,-2.045813317932401,24.84964275145422,1.296821648659263,-2.642631681854706e-05,8.115550745899943e-05,1.03745731892741e-05,8.140504471636022e-05,8.096207327769502e-05
60.5283121635,48.02831216350001,8,0,-2.031548729891589,24.96729878153648,1.491611666431159,-2.647479496088227e-05,8.152059508483001e-05,1.193289333144927e-05,8.184922474528297e-05,8.191544861220659e-05
61.9716878365,48.02831216350001,8,0,-1.994892713806332,25.11392284587751,1.511833603195992,-2.647479496088227e-05,8.196046727785308e-05,1.209466882556794e-05,8.229667908174671e-05,8.240995047411024e-05
60.5283121635,49.47168783650001,8,0,-1.977623565185374,24.98078007271304,1.546595690559056,-2.631301946676363e-05,8.152059508483001e-05,1.237276552447245e-05,8.187434555903527e-05,8.138759279993952e-05
61.9716878365,49.47168783650001,8,0,-1.940967549100073,25.12740413705424,1.566817627323937,-2.631301946676363e-05,8.196046727785363e-05,1.25345410185915e-05,8.232203271046013e-05,8.191450097490781e-05
63.0283121635,48.02831216350001,8,0,-1.890903273901446,25.22870058802933,1.744994053383019,-2.623385094690809e-05,8.2244564500815e-05,1.395995242706416e-05,8.269184251569585e-05,8.273363402186949e-05
64.47168783650001,48.02831216350001,8,0,-1.862878619365638,25.34079920617256,1.761638890986379,-2.623385094690809e-05,8.258086035524469e-05,1.409311112789103e-05,8.303527914009486e-05,8.312345205805589e-05
63.0283121635,49.47168783650001,8,0,-1.846517040292606,25.23979714643154,1.787031035186792,-2.610069224608157e-05,8.2244564500815e-05,1.429624828149434e-05,8.27141299305008e-05,8.226355029744461e-05
64.47168783650001,49.47168783650001,8,0,-1.818492385756776,25.35189576457486,1.803675872790117,-2.610069224608157e-05,8.258086035524496e-05,1.442940698232094e-05,8.305770818609701e-05,8.269026260603483e-05
65.5283121635,48.02831216350001,8,0,-1.736925073953505,25.43908928825475,1.959403597900522,-2.590943166725501e-05,8.2794625781578e-05,1.567522878320417e-05,8.335681403064883e-05,8.337424757832928e-05
66.97168783650001,48.02831216350001,8,0,-1.716281561350203,25.52166333866796,1.972372969301982,-2.590943166725501e-05,8.304234793281762e-05,1.577898375441586e-05,8.361068263986497e-05,8.366961564586957e-05
65.5283121635,49.47168783650001,8,0,-1.702340083549648,25.44773553585572,1.990368866805481,-2.580567669604344e-05,8.2794625781578e-05,1.592295093444385e-05,8.337517712730872e-05,8.296949810074634e-05
66.97168783650001,49.47168783650001,8,0,-1.681696570946328,25.530309586269,2.003338238206907,-2.580567669604344e-05,8.304234793281783e-05,1.602670590565526e-05,8.362912494146353e-05,8.330567135101703e-05
68.0283121635,48.02831216350001,8,0,-1.573327592734535,25.60570532814653,2.131384765380083,-2.551921255926774e-05,8.319691912425653e-05,1.705107812304067e-05,8.386143172395655e-05,8.385533885078333e-05
69.47168783650001,48.02831216350001,8,0,-1.558779742969887,25.66389672720513,2.140696448550133,-2.551921255926774e-05,8.337149332143231e-05,1.712557158840106e-05,8.404072789978411e-05,8.40673760152335e-05
68.0283121635,49.47168783650001,8,0,-1.548496437614447,25.61191311692656,2.153206540027151,-2.544471909390748e-05,8.319691912425653e-05,1.722565232021721e-05,8.387548331304305e-05,8.352250946756691e-05
69.47168783650001,49.47168783650001,8,0,-1.533948587849785,25.67010451598521,2.162518223197154,-2.544471909390748e-05,8.337149332143248e-05,1.730014578557723e-05,8.405481822746341e-05,8.37787489687532e-05
70.5283121635,48.02831216350001,8,0,-1.403665901032168,25.73601692385633,2.258230715827923,-2.5080544422388e-05,8.347818687716598e-05,1.806584572662339e-05,8.422466270933935e-05,8.419643423112707e-05
71.97168783650001,48.02831216350001,8,0,-1.393922732870473,25.77498959650311,2.263989213498551,-2.5080544422388e-05,8.359510489510633e-05,1.811191370798841e-05,8.434457045094639e-05,8.433699066964734e-05
70.5283121635,49.47168783650001,8,0,-1.388309907243791,25.73985592230342,2.272845468070467,-2.503447644102287e-05,8.347818687716598e-05,1.818276374456374e-05,8.423460600776855e-05,8.394125517783206e-05
71.97168783650001,49.47168783650001,8,0,-1.378566739082085,25.77882859495024,2.278603965741115,-2.503447644102287e-05,8.359510489510644e-05,1.822883172592892e-05,8.435452835524103e-05,8.41289908964135e-05
73.0283121635,48.02831216350001,8,0,-1.231261746426918,25.83756016317513,2.337844889550508,-2.461008571910623e-05,8.366520191930194e-05,1.870275911640407e-05,8.446691355624208e-05,8.441830307869512e-05
74.47168783650001,48.02831216350001,8,0,-1.225045861957785,25.86242370105166,2.340208237507859,-2.461008571910623e-05,8.373979253293153e-05,1.872166590006287e-05,8.454256909996638e-05,8.449989627298871e-05
73.0283121635,49.47168783650001,8,0,-1.22495948520717,25.83913572848007,2.347168716254167,-2.459117893544699e-05,8.366520191930194e-05,1.877734973003333e-05,8.447341303646903e-05,8.424581759061052e-05
74.47168783650001,49.47168783650001,8,0,-1.218743600738019,25.86399926635667,2.349532064211578,-2.459117893544699e-05,8.373979253293174e-05,1.879625651369263e-05,8.454907064137116e-05,8.437725833626924e-05
75.5283121635,48.02831216350001,8,0,-1.059177379068091,25.91783733658315,2.368583757319978,-2.412363748228441e-05,8.378442138032055e-05,1.894867005855982e-05,8.460995306555947e-05,8.454288668767804e-05
76.97168783650001,48.02831216350001,8,0,-1.055232573657631,25.93361655822499,2.367729925685642,-2.412363748228441e-05,8.383175904524607e-05,1.894183940548514e-05,8.465634385317304e-05,8.457874549055911e-05
75.5283121635,49.47168783650001,8,0,-1.061454263426345,25.91726811549359,2.374500965435694,-2.413046813535917e-05,8.378442138032055e-05,1.899600772348555e-05,8.461399992319508e-05,8.445764501445775e-05
76.97168783650001,49.47168783650001,8,0,-1.057509458015858,25.93304733713554,2.373647133801366,-2.413046813535917e-05,8.383175904524639e-05,1.898917707041092e-05,8.466038761728211e-05,8.454582475787107e-05
78.0283121635,48.02831216350001,8,0,-0.8902372390090729,25.98427759902495,2.349097247074923,-2.363618124404899e-05,8.386187810808707e-05,1.879277797659938e-05,8.467703372913753e-05,8.4593415137048e-05
79.47168783650001,48.02831216350001,8,0,-0.8873248102561684,25.99592731403656,2.345193181601608,-2.363618124404899e-05,8.389682725312193e-05,1.876154545281286e-05,8.470903566851975e-05,8.459763455370532e-05
78.0283121635,49.47168783650001,8,0,-0.9006480802711465,25.98167488870943,2.353465890204232,-2.366741376783521e-05,8.386187810808707e-05,1.882772712163386e-05,8.467981162525976e-05,8.459966547188247e-05
79.47168783650001,49.47168783650001,8,0,-0.897735651518242,25.99332460372105,2.349561824730958,-2.366741376783521e-05,8.389682725312193e-05,1.879649459784766e-05,8.47118086702674e-05,8.465858129467032e-05
80.5283121635,48.02831216350001,8,0,-0.7270931631913902,26.04425892856128,2.278181656448165,-2.316210526506147e-05,8.392330310194921e-05,1.822545325158532e-05,8.469323978444108e-05,8.459470721345941e-05
81.97168783650001,48.02831216350001,8,0,-0.7239778115964537,26.05672033494103,2.271357443778012,-2.316210526506147e-05,8.396068732108845e-05,1.81708595502241e-05,8.472578739085945e-05,8.458249015451887e-05
80.5283121635,49.47168783650001,8,0,-0.7452910636451584,26.03970945344784,2.28285468384059,-2.321669896642278e-05,8.392330310194921e-05,1.826283747072472e-05,8.46959908025251e-05,8.469654874916306e-05
81.97168783650001,49.47168783650001,8,0,-0.7421757120502033,26.05217085982766,2.276030471170431,-2.321669896642278e-05,8.396068732108866e-05,1.820824376936345e-05,8.47285307497338e-05,8.474136194108783e-05
83.02831216350002,48.02831216350001,8,0,-0.5723268672589432,26.10518657075349,2.154657237290335,-2.271559523183141e-05,8.399445852021832e-05,1.723725789832268e-05,8.468607499884276e-05,8.457359187992637e-05
84.47168783650002,48.02831216350001,8,0,-0.5677534995322784,26.12348004166015,2.144987265091251,-2.271559523183141e-05,8.40493389329383e-05,1.715989812073001e-05,8.473445287356908e-05,8.456149840057936e-05
83.02831216350002,49.47168783650001,8,0,-0.5981134597897952,26.09873992262078,2.161517288880359,-2.279295500942397e-05,8.399445852021832e-05,1.729213831104287e-05,8.468995986505401e-05,8.477504530533075e-05
84.47168783650002,49.47168783650001,8,0,-0.5935400920631304,26.11703339352744,2.151847316681269,-2.279295500942397e-05,8.40493389329383e-05,1.721477853345015e-05,8.473832126954452e-05,8.482225677589142e-05
85.5283121635,48.02831216350001,8,0,-0.4285829492736317,26.17462091907508,1.977279955731623,-2.231116217293568e-05,8.410165330045914e-05,1.581823964585298e-05,8.468628571560396e-05,8.455926624376717e-05
86.97168783650002,48.02831216350001,8,0,-0.4212458578304696,26.20396928484773,1.964772438285938,-2.231116217293568e-05,8.418969839777709e-05,1.571817950628751e-05,8.476652530915672e-05,8.456526135729253e-05
85.5283121635,49.47168783650001,8,0,-0.4619363291287177,26.16628257411131,1.988285592896387,-2.241122231250094e-05,8.410165330045914e-05,1.590628474317109e-05,8.469222693768121e-05,8.486419656665818e-05
86.97168783650002,49.47168783650001,8,0,-0.454599237685529,26.19563093988406,1.975778075450756,-2.241122231250094e-05,8.418969839777741e-05,1.580622460360605e-05,8.477242891070648e-05,8.493156673533598e-05
88.02831216350002,48.02831216350001,8,0,-0.2987260867742316,26.26044683810565,1.744694847552708,-2.196428094816206e-05,8.427241075135744e-05,1.395755878042166e-05,8.472889133707875e-05,8.458311305282394e-05
89.47168783650001,48.02831216350001,8,0,-0.2872319821837719,26.30642325646749,1.729290798114968,-2.196428094816206e-05,8.441034000644296e-05,1.383432638491975e-05,8.485825249353294e-05,8.462588967849378e-05
88.02831216350002,49.47168783650001,8,0,-0.3398035519416815,26.25017747181378,1.761936004438452,-2.20875133436644e-05,8.427241075135744e-05,1.409548803550762e-05,8.47373837780405e-05,8.499489313237714e-05
89.47168783650001,49.47168783650001,8,0,-0.3283094473512351,26.29615389017557,1.746531955000672,-2.20875133436644e-05,8.44103400064428e-05,1.397225564000537e-05,8.486666609089729e-05,8.51005338978834e-05
90.52831216350002,48.02831216350001,8,0,-0.1860168702240417,26.37107628323715,1.45543726615037,-2.169211501130665e-05,8.453625760253811e-05,1.164349812920296e-05,8.485436068337872e-05,8.467678620570423e-05
91.97168783650001,48.02831216350001,8,0,-0.168843202304978,26.43977095491341,1.437019950205733,-2.169211501130665e-05,8.474234161756687e-05,1.149615960164586e-05,8.505187119922838e-05,8.47730614783081e-05
90.52831216350002,49.47168783650001,8,0,-0.2351297127431105,26.35879807260739,1.481197768028985,-2.183945353886386e-05,8.453625760253811e-05,1.184958214423188e-05,8.486523237013325e-05,8.519747942896406e-05
91.97168783650001,49.47168783650001,8,0,-0.2179560448240467,26.42749274428364,1.462780452084314,-2.183945353886386e-05,8.474234161756687e-05,1.170224361667451e-05,8.506259391610607e-05,8.535669877994812e-05
93.02831216350002,48.02831216350001,8,0,-0.09430126585084153,26.51567610798827,1.107988238386578,-2.15143049371133e-05,8.492560455824311e-05,8.863905907092627e-06,8.510982371417813e-05,8.486559846971195e-05
94.47168783650002,48.02831216350001,8,0,-0.06975129501212063,26.61387599134315,1.086404313150277,-2.15143049371133e-05,8.522020420830776e-05,8.691234505202219e-06,8.539684050966985e-05,8.50221389592137e-05
93.02831216350002,49.47168783650001,8,0,-0.1518583998142748,26.50128682449741,1.144813194644666,-2.16869763390036e-05,8.492560455824311e-05,9.158505557157332e-06,8.512193233904021e-05,8.549417272622355e-05
94.47168783650002,49.47168783650001,8,0,-0.1273084289755406,26.59948670785235,1.123229269408372,-2.16869763390036e-05,8.522020420830792e-05,8.985834155266978e-06,8.540869272556366e-05,8.57105391811969e-05
95.5283121635,48.02831216350001,8,0,-0.02820854199698264,26.70441259672362,0.7008909602915299,-2.145379741176924e-05,8.547668714311315e-05,5.607127682332239e-06,8.555014210418328e-05,8.514980748510078e-05
96.97168783650002,48.02831216350001,8,0,0.005635187930341345,26.83978751643291,0.6759848326459583,-2.145379741176924e-05,8.588281190224104e-05,5.407878661167667e-06,8.595088424127646e-05,8.534206389486482e-05
95.5283121635,49.47168783650001,8,0,-0.09462488238514677,26.68780851162658,0.7516565551824882,-2.165304643293373e-05,8.547668714311315e-05,6.013252441459905e-06,8.556100259722531e-05,8.587823697309204e-05
96.97168783650002,49.47168783650001,8,0,-0.0607811524578139,26.82318343133591,0.7267504275369167,-2.165304643293373e-05,8.588281190224115e-05,5.814003420295333e-06,8.596133912607748e-05,8.612002940591276e-05
98.02831216350002,48.02831216350001,8,0,0.006648771629648387,26.94870301067562,0.2329368777223139,-2.153768633932562e-05,8.623053061685825e-05,1.863495021778511e-06,8.623858576115976e-05,8.545524229464783e-05
99.47168783650002,48.02831216350001,8,0,0.05197047462876281,27.12998982267208,0.204600203237019,-2.153768633932562e-05,8.677439105284762e-05,1.636801625896152e-06,8.678057449676064e-05,8.55721950234235e-05
98.02831216350002,49.47168783650001,8,0,-0.06891569366443573,26.9298118943521,0.3009194322209851,-2.176437973520787e-05,8.623053061685825e-05,2.407355457767881e-06,8.624394476879204e-05,8.625972484418457e-05
99.47168783650002,49.47168783650001,8,0,-0.02359399066531687,27.11109870634857,0.272582757735758,-2.176437973520787e-05,8.677439105284768e-05,2.180662061886064e-06,8.678534291645449e-05,8.639958744632419e-05
0.5283121635,50.5283121635,8,0,-0.03900332467077927,3.756345038597331,-0.3320126180039414,-3.129886669824358e-06,1.205150678324808e-05,-2.656100944031532e-06,1.216680738674442e-05,1.46940953770959e-05
1.9716878365,50.5283121635,8,0,0.09470379964340903,4.291173535854084,-0.359523305769907,-3.129886669824358e-06,1.365599227501834e-05,-2.876186446159256e-06,1.377830647503658e-05,1.535911364021033e-05
0.5283121635,51.97168783650001,8,0,-0.1123651587131194,3.738004580086746,-0.1314519315328351,-3.349972171951378e-06,1.205150678324808e-05,-1.051615452262681e-06,1.206943702696189e-05,1.546254014600691e-05
1.9716878365,51.97168783650001,8,0,0.02134196560106894,4.272833077343499,-0.1589626192987194,-3.349972171951378e-06,1.365599227501834e-05,-1.271700954389755e-06,1.367973348566974e-05,1.610000419110925e-05
3.0283121635,50.5283121635,8,0,-0.08684027180052545,4.629122833764757,-0.7898745708017333,-3.981187136773486e-06,1.488266528548764e-05,-6.318996566413867e-06,1.539778192405866e-05,1.61502103735352e-05
4.4716878365,50.5283121635,8,0,0.05873035297018703,5.211405332847606,-0.814027144555466,-3.981187136773486e-06,1.662951278273619e-05,-6.512217156443728e-06,1.713168246747837e-05,1.764650857965798e-05
3.0283121635,51.97168783650001,8,0,-0.1512471351437219,4.613021117928687,-0.5715186336456243,-4.174407726802859e-06,1.488266528548677e-05,-4.572149069164994e-06,1.515306467700967e-05,1.68594428272105e-05
4.4716878365,51.97168783650001,8,0,-0.005676510372928378,5.195303617011861,-0.5956712073992756,-4.174407726802859e-06,1.66295127827363e-05,-4.765369659194205e-06,1.689891439695973e-05,1.829680372125582e-05
5.528312163500001,50.5283121635,8,0,-0.1647222558912871,5.568287942552292,-1.187902469434511,-4.981741572893951e-06,1.795029922088036e-05,-9.503219755476085e-06,1.889586293610597e-05,1.888144213113386e-05
6.9716878365,50.5283121635,8,0,-0.009588242736347174,6.188823995172052,-1.208825843275918,-4.981741572893951e-06,1.981190737873964e-05,-9.670606746207348e-06,2.072152554527313e-05,2.075904513175811e-05
5.528312163500001,51.97168783650001,8,0,-0.220517919468447,5.554339026657866,-0.9552014497022092,-5.149128563625323e-06,1.795029922087993e-05,-7.641611597617674e-06,1.856588219903308e-05,1.948541583022758e-05
6.9716878365,51.97168783650001,8,0,-0.06538390631348889,6.174875079277699,-0.9761248235435629,-5.149128563625323e-06,1.981190737873942e-05,-7.808998588348503e-06,2.040840908205526e-05,2.129540360852278e-05
8.028312163500001,50.5283121635,8,0,-0.2674436670769567,6.560713460708541,-1.52756458928277,-6.104390503213093e-06,2.120823800792889e-05,-1.222051671426216e-05,2.251287881003392e-05,2.219643557687238e-05
9.471687836500001,50.5283121635,8,0,-0.104673828292464,7.211792815846512,-1.5453859148791,-6.104390503213093e-06,2.316147607334281e-05,-1.23630873190328e-05,2.441357406088236e-05,2.424585630278131e-05
8.028312163500001,51.97168783650001,8,0,-0.3149672020004133,6.548832576977677,-1.283409831106099,-6.246961107983463e-06,2.120823800792889e-05,-1.026727864884879e-05,2.213673760141391e-05,2.268350919039497e-05
9.471687836500001,51.97168783650001,8,0,-0.1521973632159477,7.19991193211554,-1.301231156702334,-6.246961107983463e-06,2.316147607334248e-05,-1.040984925361867e-05,2.405550368963383e-05,2.46658963882058e-05
10.5283121635,50.5283121635,8,0,-0.3910136832674946,7.595255224513668,-1.810372005569996,-7.327447966066917e-06,2.461762766505773e-05,-1.448297604455997e-05,2.618251021414405e-05,2.577321453793861e-05
11.9716878365,50.5283121635,8,0,-0.222260177697347,8.270269246794259,-1.825132527112159,-7.327447966066917e-06,2.66426697318995e-05,-1.460106021689727e-05,2.814517329573286e-05,2.789661411201554e-05
10.5283121635,51.97168783650001,8,0,-0.4303750740466312,7.585414876818884,-1.557241747214761,-7.445532138404326e-06,2.461762766505773e-05,-1.245793397771809e-05,2.578522169389331e-05,2.614539418906764e-05
11.9716878365,51.97168783650001,8,0,-0.2616215684765377,8.260428899099258,-1.572002268756937,-7.445532138404326e-06,2.664266973189885e-05,-1.25760181500555e-05,2.776558381890395e-05,2.820507015306964e-05
13.0283121635,50.5283121635,8,0,-0.532188476255699,8.662232848181318,-2.037552551366947,-8.632789402563291e-06,2.814489589518477e-05,-1.630042041093557e-05,2.987011450599571e-05,2.946074172830687e-05
14.4716878365,50.5283121635,8,0,-0.3589287982649503,9.355271560144313,-2.04917050645739,-8.632789402563291e-06,3.022401203107376e-05,-1.639336405165912e-05,3.188229788767951e-05,3.161061827164112e-05
13.0283121635,51.97168783650001,8,0,-0.5631696898302314,8.654487544787685,-1.77766303438077,-8.725733043286887e-06,2.814489589518477e-05,-1.422130427504616e-05,2.946868548965784e-05,2.972384429650053e-05
14.4716878365,51.97168783650001,8,0,-0.3899100118394827,9.34752625675068,-1.789280989471199,-8.725733043286887e-06,3.022401203107376e-05,-1.431424791576959e-05,3.149751494085189e-05,3.181353645775006e-05
15.5283121635,50.5283121635,8,0,-0.6880341082103874,9.752898491818975,-2.209940745452558,-1.000402793972842e-05,3.175970246038903e-05,-1.767952596362047e-05,3.355367690978995e-05,3.31848055851253e-05
16.9716878365,50.5283121635,8,0,-0.5116617630541542,10.45838787244391,-2.218214359436978,-1.000402793972842e-05,3.387617060226383e-05,-1.774571487549582e-05,3.560240934820144e-05,3.533568876304304e-05
15.5283121635,51.97168783650001,8,0,-0.7100970788355783,9.747382749162679,-1.945382227718222,-1.007021685160399e-05,3.175970246038903e-05,-1.556305782174578e-05,3.316038148229534e-05,3.334479370870802e-05
16.9716878365,51.97168783650001,8,0,-0.5337247336792816,10.45287212978787,-1.953655841702574,-1.007021685160399e-05,3.387617060226459e-05,-1.562924673362059e-05,3.522441724522345e-05,3.543857415671174e-05
18.0283121635,50.5283121635,8,0,-0.8555695959356484,10.85896419167402,-2.328043515098801,-1.142499406033329e-05,3.543314109010539e-05,-1.86243481207904e-05,3.721593170057501e-05,3.69046616131083e-05
19.4716878365,50.5283121635,8,0,-0.677465067854695,11.57138230399784,-2.332684145844215,-1.142499406033329e-05,3.757039542707683e-05,-1.866147316675372e-05,3.928719463126483e-05,3.904029197744722e-05
18.0283121635,51.97168783650001,8,0,-0.867944611256573,10.85587043784379,-2.060886722977235,-1.146211910629607e-05,3.543314109010539e-05,-1.648709378381788e-05,3.68400361851396e-05,3.69667126131285e-05
19.4716878365,51.97168783650001,8,0,-0.6898400831756013,11.56828855016768,-2.065527353722636,-1.146211910629607e-05,3.757039542707705e-05,-1.652421882978108e-05,3.892515132860608e-05,3.904788406923272e-05
20.5283121635,50.5283121635,8,0,-1.031520361735984,11.97223715942829,-2.392230894714738,-1.287865488509778e-05,3.91363751995593e-05,-1.913784715771791e-05,4.084086364191206e-05,4.059343294775007e-05
21.9716878365,50.5283121635,8,0,-0.853096864631302,12.68593114784702,-2.392915035491253,-1.287865488509778e-05,4.127745716481549e-05,-1.914332028393002e-05,4.291939062390937e-05,4.270106262577575e-05
20.5283121635,51.97168783650001,8,0,-1.033344737140131,11.97178106557725,-2.124595649057688,-1.288412801131022e-05,3.91363751995593e-05,-1.69967651924615e-05,4.048952424773372e-05,4.056205650510421e-05
21.9716878365,51.97168783650001,8,0,-0.8549212400354849,12.68547505399584,-2.12527978983427,-1.288412801131022e-05,4.127745716481506e-05,-1.700223831867416e-05,4.258043377957177e-05,4.261768107539706e-05
23.0283121635,50.5283121635,8,0,-1.212193854159993,13.08439054631171,-2.40299735361515,-1.434653277036134e-05,4.283980483152545e-05,-1.92239788289212e-05,4.441217336348806e-05,4.422943759160675e-05
24.4716878365,50.5283121635,8,0,-1.034916250871452,13.79350095946587,-2.399426265082953,-1.434653277036134e-05,4.496713607098795e-05,-1.919541012066362e-05,4.648150262622104e-05,4.629740597342525e-05
23.0283121635,51.97168783650001,8,0,-1.202670951407342,13.08677127199987,-2.137080948682338,-1.431796406210339e-05,4.283980483152545e-05,-1.70966475894587e-05,4.409087975316991e-05,4.410891684784987e-05
24.4716878365,51.97168783650001,8,0,-1.0253933481188,13.79588168515404,-2.133509860150086,-1.431796406210339e-05,4.496713607098795e-05,-1.706807888120069e-05,4.617115151215139e-05,4.61274241741355e-05
25.5283121635,50.5283121635,8,0,-1.393472765690561,14.18687667041693,-2.361241968900523,-1.580861418654333e-05,4.651278355788662e-05,-1.888993575120419e-05,4.791274457419379e-05,4.779254820883348e-05
26.9716878365,50.5283121635,8,0,-1.218851413564313,14.88536207892192,-2.353198960672667,-1.580861418654333e-05,4.860823978340158e-05,-1.882559168538134e-05,4.995549032731351e-05,4.980938437886604e-05
25.5283121635,51.97168783650001,8,0,-1.372024743749773,14.19223867590213,-2.099309940711071,-1.574427012072097e-05,4.651278355788662e-05,-1.679447952568857e-05,4.762551629106152e-05,4.758740902435462e-05
26.9716878365,51.97168783650001,8,0,-1.197403391623526,14.89072408440711,-2.091266932483324,-1.574427012072097e-05,4.860823978340158e-05,-1.673013545986659e-05,4.967782277936651e-05,4.955765448731802e-05
28.0283121635,50.5283121635,8,0,-1.57090815056269,15.27097214784334,-2.26852321522848,-1.724368380007528e-05,5.012383739354882e-05,-1.814818572182784e-05,5.132467066268048e-05,5.126290177144651e-05
29.4716878365,50.5283121635,8,0,-1.400472029778164,15.95271663098144,-2.255920761834892,-1.724368380007528e-05,5.216907084296314e-05,-1.804736609467913e-05,5.332297074461255e-05,5.321714896779767e-05
28.0283121635,51.97168783650001,8,0,-1.537301608179698,15.27937378343909,-2.012869034051745,-1.71428641729263e-05,5.012383739354882e-05,-1.610295227241396e-05,5.107413235335312e-05,5.097829565752297e-05
29.4716878365,51.97168783650001,8,0,-1.3668654873952,15.96111826657708,-2.000266580658177,-1.71428641729263e-05,5.216907084296281e-05,-1.600213264526542e-05,5.308068894622999e-05,5.288931405104858e-05
30.5283121635,50.5283121635,8,0,-1.73988586678573,16.32793101823812,-2.127255308680083,-1.862997958830483e-05,5.364128795179056e-05,-1.701804246944066e-05,5.462960157875242e-05,5.462071901891021e-05
31.9716878365,50.5283121635,8,0,-1.575140992465277,16.98691051551993,-2.110166907333771,-1.862997958830483e-05,5.561822644363599e-05,-1.688133525867017e-05,5.656568623731772e-05,5.650109651434358e-05
30.5283121635,51.97168783650001,8,0,-1.694316796528645,16.33932328580239,-1.880137997199363,-1.849327237753357e-05,5.364128795179056e-05,-1.504110397759491e-05,5.441701798841947e-05,5.426268200121294e-05
31.9716878365,51.97168783650001,8,0,-1.529571922208166,16.99830278308431,-1.863049595852956,-1.849327237753357e-05,5.561822644363631e-05,-1.490439676682365e-05,5.636014660573524e-05,5.610377462518264e-05
33.0283121635,50.5283121635,8,0,-1.895835712889375,17.34921368048495,-1.940826059067996,-1.994604522563396e-05,5.703415234786335e-05,-1.552660847254397e-05,5.78092620449441e-05,5.784663720902386e-05
34.4716878365,50.5283121635,8,0,-1.738215461354368,17.97969468662498,-1.919500589368195,-1.994604522563396e-05,5.892559536628344e-05,-1.535600471494556e-05,5.966608205113752e-05,5.964234525526483e-05
33.0283121635,51.97168783650001,8,0,-1.838967793689834,17.36343066028491,-1.704395681765479,-1.977544146803539e-05,5.703415234786357e-05,-1.363516545412383e-05,5.763458406097435e-05,5.74222216851268e-05
34.4716878365,51.97168783650001,8,0,-1.681347542154863,17.99391166642479,-1.683070212065698,-1.977544146803539e-05,5.892559536628322e-05,-1.346456169652559e-05,5.949733772076709e-05,5.918319341616751e-05
35.5283121635,50.5283121635,8,0,-2.034453254778207,18.32675647454868,-1.713629097283953,-2.117165559492921e-05,6.027318332237834e-05,-1.370903277827162e-05,6.084604012500504e-05,6.092225274742782e-05
36.9716878365,50.5283121635,8,0,-1.885266942656922,18.92350172303382,-1.688487999879379,-2.117165559492921e-05,6.206341906783377e-05,-1.350790399903503e-05,6.260789403592299e-05,6.262331699891286e-05
35.5283121635,51.97168783650001,8,0,-1.967410328365848,18.34351720615177,-1.489849629102044,-2.097052681569213e-05,6.027318332237834e-05,-1.191879703281635e-05,6.070799080556563e-05,6.043954619531578e-05
36.9716878365,51.97168783650001,8,0,-1.818224016244562,18.94026245463692,-1.464708531697409,-2.097052681569213e-05,6.206341906783377e-05,-1.171766825357927e-05,6.247477759266167e-05,6.21109940892844e-05
38.0283121635,50.5283121635,8,0,-2.151908692778743,19.25324849198925,-1.451014380827147,-2.228870661048337e-05,6.333192212858857e-05,-1.160811504661717e-05,6.37235764659573e-05,6.383071155797079e-05
39.4716878365,50.5283121635,8,0,-2.01229377059269,19.81170818073346,-1.422633907691957,-2.228870661048337e-05,6.500730119482121e-05,-1.138107126153566e-05,6.537668522524587e-05,6.542831058675447e-05
38.0283121635,51.97168783650001,8,0,-2.076227431085031,19.27216880741274,-1.241591997548121,-2.206166282540229e-05,6.333192212858879e-05,-9.932735980384966e-06,6.361978852935604e-05,6.329876357411633e-05
39.4716878365,51.97168783650001,8,0,-1.936612508899018,19.83062849615679,-1.213211524412965,-2.206166282540229e-05,6.500730119482094e-05,-9.705692195303723e-06,6.527694272503629e-05,6.48723622605264e-05
40.5283121635,50.5283121635,8,0,-2.245023682413293,20.12238741307919,-1.159168861822312,-2.328198571418589e-05,6.618765866778405e-05,-9.273350894578494e-06,6.642730785404303e-05,6.655725933694087e-05
41.97168783650001,50.5283121635,8,0,-2.115905555652091,20.638859920124,-1.128250814749185,-2.328198571418589e-05,6.773707618891846e-05,-9.026006517993479e-06,6.796029724122016e-05,6.8044005652939e-05
40.5283121635,51.97168783650001,8,0,-2.162575556884991,20.14299944446127,-0.9654916716805167,-2.303464133760098e-05,6.618765866778405e-05,-7.723933373444134e-06,6.635451097930921e-05,6.598594051636405e-05
41.97168783650001,51.97168783650001,8,0,-2.033457430123754,20.65947195150622,-0.934573624607356,-2.303464133760098e-05,6.773707618891889e-05,-7.476588996858848e-06,6.789077189686088e-05,6.745469420323577e-05
43.0283121635,50.5283121635,8,0,-2.311404138897056,20.92909323942923,-0.8449437685062171,-2.413976783601396e-05,6.882222167729117e-05,-6.759550148049737e-06,6.894493657039678e-05,6.908970625546042e-05
44.4716878365,50.5283121635,8,0,-2.193466214994532,21.40084493503933,-0.8122785754730855,-2.413976783601396e-05,7.023747676412147e-05,-6.498228603784683e-06,7.034920137953852e-05,7.045986711517769e-05
43.0283121635,51.97168783650001,8,0,-2.224296957475281,20.95087003478467,-0.6680368826524237,-2.387844629174864e-05,6.882222167729117e-05,-5.34429506121939e-06,6.889918389771824e-05,6.848952094185399e-05
44.4716878365,51.97168783650001,8,0,-2.106359033572739,21.42262173039484,-0.635371689619292,-2.387844629174864e-05,7.023747676412168e-05,-5.082973516954336e-06,7.03060565702176e-05,6.984796648203825e-05
45.52831216350001,50.5283121635,8,0,-2.349523389821136,21.66966618117464,-0.5156465214629775,-2.485420779236734e-05,7.122255049161574e-05,-4.12517217170382e-06,7.126680992064355e-05,7.141878566979268e-05
46.97168783650001,50.5283121635,8,0,-2.243188690987955,22.09500497650736,-0.4820723888431766,-2.485420779236734e-05,7.249856687761391e-05,-3.856579110745413e-06,7.253674599451112e-05,7.266843902171547e-05
45.52831216350001,51.97168783650001,8,0,-2.259992369501684,21.69204893625443,-0.3561444732131183,-2.458561473140893e-05,7.122255049161553e-05,-2.849155785704946e-06,7.124372795267246e-05,7.080065730771096e-05
46.97168783650001,51.97168783650001,8,0,-2.153657670668485,22.11738773158723,-0.322570340593331,-2.458561473140893e-05,7.249856687761391e-05,-2.580562724746648e-06,7.251571212215418e-05,7.204501150727997e-05
48.0283121635,50.5283121635,8,0,-2.35875487554046,22.3418815703661,-0.178814795598834,-2.542152085802235e-05,7.338102492560387e-05,-1.430518364790672e-06,7.33862026149587e-05,7.353840046916916e-05
49.47168783650001,50.5283121635,8,0,-2.264179555810427,22.72018284928623,-0.1451762643178112,-2.542152085802235e-05,7.451592876236426e-05,-1.16141011454249e-06,7.451930294271134e-05,7.466552599241704e-05
48.0283121635,51.97168783650001,8,0,-2.26905212545767,22.36430725788679,-0.03695181600377813,-2.515241260777398e-05,7.338102492560387e-05,-2.95614528030225e-07,7.338124664666305e-05,7.291344466866171e-05
49.47168783650001,51.97168783650001,8,0,-2.174476805727611,22.74260853680703,-0.003313284722701159,-2.515241260777398e-05,7.451592876236458e-05,-2.650627778160927e-08,7.451593052466629e-05,7.404169398906617e-05
50.5283121635,50.5283121635,8,0,-2.339356885650175,22.94502002136675,0.1580113281075474,-2.584195805117396e-05,7.529554957689372e-05,1.264090624860379e-06,7.529949930519907e-05,7.544575773108771e-05
51.97168783650001,50.5283121635,8,0,-2.25643523237834,23.27670663445409,0.1909025851608639,-2.584195805117396e-05,7.629060941615574e-05,1.527220681286912e-06,7.629631835087521e-05,7.64502649596565e-05
50.5283121635,51.97168783650001,8,0,-2.251646866841313,22.96694752606896,0.2823938080153267,-2.557882799474737e-05,7.529554957689372e-05,2.259150464122613e-06,7.530819679498293e-05,7.482505529860618e-05
51.97168783650001,51.97168783650001,8,0,-2.168725213569479,23.2986341391563,0.3152850650686907,-2.557882799474737e-05,7.629060941615574e-05,2.522280520549525e-06,7.630621989864527e-05,7.583698887663971e-05
53.0283121635,50.5283121635,8,0,-2.292414011660497,23.47983521601733,0.4875050212172389,-2.611959301012745e-05,7.696940390058385e-05,3.900040169737911e-06,7.700627707632728e-05,7.714139556559674e-05
54.4716878365,50.5283121635,8,0,-2.220793913312838,23.76631560940797,0.5189047709156159,-2.611959301012745e-05,7.782884508075575e-05,4.151238167324927e-06,7.787027406515233e-05,7.802509226720284e-05
53.0283121635,51.97168783650001,8,0,-2.208681345798194,23.50076838248291,0.5949351687387268,-2.586839501254054e-05,7.696940390058385e-05,4.759481349909814e-06,7.702444335493157e-05,7.653577617109721e-05
54.4716878365,51.97168783650001,8,0,-2.137061247450522,23.7872487758736,0.6263349184371038,-2.586839501254054e-05,7.782884508075592e-05,5.01067934749683e-06,7.788933914350615e-05,7.743296498528634e-05
55.5283121635,50.5283121635,8,0,-2.219741719608828,23.94846505559067,0.8027438665194782,-2.626194554722079e-05,7.841088155357721e-05,6.421950932155825e-06,7.850928989438084e-05,7.862910826191238e-05
56.97168783650001,50.5283121635,8,0,-2.158849049983715,24.19203573409113,0.8320032600466056,-2.626194554722079e-05,7.914159358907857e-05,6.656026080372845e-06,7.924656777975195e-05,7.939561394650723e-05
55.5283121635,51.97168783650001,8,0,-2.141716670202957,23.96797131794214,0.8940828709571484,-2.602787039900317e-05,7.841088155357721e-05,7.152662967657188e-06,7.853320381335285e-05,7.804895496132956e-05
56.97168783650001,51.97168783650001,8,0,-2.080824000577834,24.21154199644263,0.923342264484337,-2.602787039900317e-05,7.914159358907868e-05,7.386738115874696e-06,7.927113873020523e-05,7.88346820587152e-05
58.0283121635,50.5283121635,8,0,-2.123762175839421,24.35429491618764,1.097366056668538,-2.627947489563625e-05,7.963275347247197e-05,8.778928453348305e-06,7.9814360595149e-05,7.99157792856212e-05
59.47168783650001,50.5283121635,8,0,-2.072832032453993,24.55801548972935,1.123951362768745,-2.627947489563625e-05,8.024391519309711e-05,8.991610902149962e-06,8.043332327722563e-05,8.057039173588244e-05
58.0283121635,51.97168783650001,8,0,-2.052868026239067,24.37201845358773,1.173761271746715,-2.606679244683519e-05,7.963275347247197e-05,9.390090173973719e-06,7.984089180091726e-05,7.937086412572652e-05
59.47168783650001,51.97168783650001,8,0,-2.001937882853639,24.57573902712944,1.200346577846854,-2.606679244683519e-05,8.024391519309711e-05,9.602772622774834e-06,8.046032310381555e-05,8.005001367758536e-05
60.5283121635,50.5283121635,8,0,-2.007361286537567,24.70178455433401,1.365683455658189,-2.618498376038742e-05,8.065159960309889e-05,1.092546764526551e-05,8.093019188134661e-05,8.10111373761193e-05
61.9716878365,50.5283121635,8,0,-1.965473553120883,24.86933548800075,1.389186525770547,-2.618498376038742e-05,8.115425240409909e-05,1.111349220616438e-05,8.144114766684478e-05,8.156066440825083e-05
60.5283121635,51.97168783650001,8,0,-1.944686432904639,24.71745326774224,1.428515055783248,-2.599695919948864e-05,8.065159960309889e-05,1.142812044626598e-05,8.095687602600372e-05,8.051049784368089e-05
61.9716878365,51.97168783650001,8,0,-1.90279869948792,24.88500420140912,1.4520181258956,-2.599695919948864e-05,8.115425240409952e-05,1.16161450071648e-05,8.146815618660303e-05,8.108941442972952e-05
63.0283121635,50.5283121635,8,0,-1.873738518778648,24.99627266634538,1.602746399495957,-2.599298139316798e-05,8.148706334732813e-05,1.282197119596766e-05,8.186811580650598e-05,8.192745866767553e-05
64.47168783650001,50.5283121635,8,0,-1.839854885007464,25.13180720143012,1.622885502230032,-2.599298139316798e-05,8.189366695258234e-05,1.298308401784026e-05,8.228285919919094e-05,8.238003218825944e-05
63.0283121635,51.97168783650001,8,0,-1.820034244821096,25.00969873483477,1.653571850152767,-2.583186857129532e-05,8.148706334732813e-05,1.322857480122214e-05,8.189317872084233e-05,8.147932298353362e-05
64.47168783650001,51.97168783650001,8,0,-1.786150611049885,25.14523326991961,1.673710952886835,-2.583186857129532e-05,8.189366695258266e-05,1.338968762309468e-05,8.230813829358246e-05,8.19656563768288e-05
65.5283121635,50.5283121635,8,0,-1.726261910282776,25.24377476131034,1.804358980102912,-2.571905792195315e-05,8.216108876441929e-05,1.443487184082329e-05,8.264181010059766e-05,8.267924593106433e-05
66.97168783650001,50.5283121635,8,0,-1.699261379302293,25.35177688523227,1.820970470165722,-2.571905792195315e-05,8.24850951361851e-05,1.456776376132577e-05,8.297321571253684e-05,8.304413955818094e-05
65.5283121635,51.97168783650001,8,0,-1.681964603448634,25.25484908801887,1.844859776573698,-2.558616600145073e-05,8.216108876441929e-05,1.475887821258959e-05,8.266414617302741e-05,8.229101173403517e-05
66.97168783650001,51.97168783650001,8,0,-1.654964072468137,25.36285121194086,1.861471266636475,-2.558616600145073e-05,8.248509513618526e-05,1.48917701330918e-05,8.299568877577593e-05,8.269356570718033e-05
68.0283121635,50.5283121635,8,0,-1.568340265492501,25.45079036416265,1.967047887131743,-2.537932114090612e-05,8.269720137771448e-05,1.573638309705394e-05,8.326701752618139e-05,8.328292263218144e-05
69.47168783650001,50.5283121635,8,0,-1.547050377432668,25.53594991640199,1.980070020251497,-2.537932114090612e-05,8.295268003443248e-05,1.584056016201197e-05,8.35286784623725e-05,8.357039649524938e-05
68.0283121635,51.97168783650001,8,0,-1.533614577173112,25.4594717862425,1.998982719221472,-2.527514407594795e-05,8.269720137771448e-05,1.599186175377178e-05,8.328613063227393e-05,8.296118860827226e-05
69.47168783650001,51.97168783650001,8,0,-1.512324689113269,25.54463133848187,2.012004852341233,-2.527514407594795e-05,8.295268003443259e-05,1.609603881872986e-05,8.354787228858357e-05,8.328979399821037e-05
70.5283121635,50.5283121635,8,0,-1.403322721057912,25.6241343332103,2.087992032759849,-2.498994017395356e-05,8.311988804311928e-05,1.670393626207879e-05,8.376130937803964e-05,8.375658256754035e-05
71.97168783650001,50.5283121635,8,0,-1.386544211185753,25.69124837269894,2.097442953141448,-2.498994017395356e-05,8.332123016158518e-05,1.677954362513159e-05,8.396724785295165e-05,8.397777851365465e-05
70.5283121635,51.97168783650001,8,0,-1.378120266706962,25.63043494679804,2.113159797568012,-2.49143328109007e-05,8.311988804311928e-05,1.69052783805441e-05,8.377722620194062e-05,8.350722666673058e-05
71.97168783650001,51.97168783650001,8,0,-1.361341756834799,25.69754898628669,2.122610717949672,-2.49143328109007e-05,8.332123016158524e-05,1.698088574359738e-05,8.398320673570631e-05,8.377265837444021e-05
73.0283121635,50.5283121635,8,0,-1.234432907523554,25.7708043423027,2.164923464845582,-2.456682877791753e-05,8.345412022138748e-05,1.731938771876466e-05,8.414393505749478e-05,8.411983395774351e-05
74.47168783650001,50.5283121635,8,0,-1.220956217794332,25.82471110121959,2.170875850331404,-2.456682877791753e-05,8.361584049813815e-05,1.736700680265123e-05,8.430840599732164e-05,8.428674070238818e-05
73.0283121635,51.97168783650001,8,0,-1.218559879561337,25.77477259929326,2.185138499439409,-2.451920969403088e-05,8.345412022138748e-05,1.748110799551527e-05,8.415710032966553e-05,8.394812575989865e-05
74.47168783650001,51.97168783650001,8,0,-1.205083189832107,25.82867935821018,2.191090884925284,-2.451920969403088e-05,8.361584049813826e-05,1.752872707940227e-05,8.432158751785646e-05,8.416207986435314e-05
75.5283121635,50.5283121635,8,0,-1.064741416810805,25.89789279845584,2.196012006406534,-2.412548677255925e-05,8.372505008850733e-05,1.756809605125227e-05,8.443579610834895e-05,8.439376896958019e-05
76.97168783650001,50.5283121635,8,0,-1.053354260742165,25.9434414227304,2.198567005073503,-2.412548677255925e-05,8.386169596133101e-05,1.758853604058802e-05,8.457319630177101e-05,8.45192688887626e-05
75.5283121635,51.97168783650001,8,0,-1.05792808703223,25.89959613090049,2.213092740509541,-2.410504678322352e-05,8.372505008850733e-05,1.770474192407633e-05,8.444695727327702e-05,8.430449804280101e-05
76.97168783650001,51.97168783650001,8,0,-1.046540930963577,25.9451447551751,2.215647739176496,-2.410504678322352e-05,8.386169596133117e-05,1.772518191341197e-05,8.45843562782844e-05,8.447963763780402e-05
78.0283121635,50.5283121635,8,0,-0.8971768810951763,26.01254730999954,2.179746529412663,-2.36810038675042e-05,8.395789289687467e-05,1.74379722353013e-05,8.465957567575834e-05,8.460107358516087e-05
79.47168783650001,50.5283121635,8,0,-0.8866627942097702,26.05460365754117,2.179009489538828,-2.36810038675042e-05,8.408406193949954e-05,1.743207591631062e-05,8.47844629053397e-05,8.469906825284584e-05
78.0283121635,51.97168783650001,8,0,-0.8991423207588269,26.01205595008356,2.195517659740786,-2.368690018649509e-05,8.395789289687445e-05,1.756414127792628e-05,8.46696611897051e-05,8.459867028734599e-05
79.47168783650001,51.97168783650001,8,0,-0.8886282338734066,26.05411229762524,2.194780619866937,-2.368690018649509e-05,8.408406193949949e-05,1.75582449589355e-05,8.479453366514886e-05,8.474873393866495e-05
80.5283121635,50.5283121635,8,0,-0.7345732174378456,26.12197994652864,2.114825021641113,-2.324821825302402e-05,8.417799440284192e-05,1.69186001731289e-05,8.484004370089666e-05,8.476626220548362e-05
81.97168783650001,50.5283121635,8,0,-0.723701615794714,26.16546635310117,2.110885197759221,-2.324821825302402e-05,8.43084536225595e-05,1.688708158207377e-05,8.496726306664727e-05,8.485184483037427e-05
80.5283121635,51.97168783650001,8,0,-0.7450794144563506,26.11935339727401,2.131132424105912,-2.327973684407953e-05,8.417799440284192e-05,1.704905939284729e-05,8.485003509287113e-05,8.485488137442708e-05
81.97168783650001,51.97168783650001,8,0,-0.7342078128132012,26.16283980384661,2.127192600224006,-2.327973684407953e-05,8.430845362255971e-05,1.701754080179205e-05,8.497722514914013e-05,8.499481791071574e-05
83.02831216350002,50.5283121635,8,0,-0.5797487610798582,26.23352240273623,2.000064111123875,-2.284201395764452e-05,8.44110706976198e-05,1.6000512888991e-05,8.500454446363165e-05,8.491595861945565e-05
84.47168783650002,50.5283121635,8,0,-0.5672574408230462,26.28348768376348,1.992980140934171,-2.284201395764452e-05,8.456096654070155e-05,1.594384112747337e-05,8.514945301335585e-05,8.500553812380854e-05
83.02831216350002,51.97168783650001,8,0,-0.598639348252437,26.22879975594308,2.018801091509161,-2.289868571916226e-05,8.44110706976198e-05,1.615040873207329e-05,8.50153380880173e-05,8.509948752771977e-05
84.47168783650002,51.97168783650001,8,0,-0.586148027995625,26.27876503697033,2.011717121319417,-2.289868571916226e-05,8.456096654070155e-05,1.609373697055534e-05,8.516019624990666e-05,8.524551370310702e-05
85.5283121635,50.5283121635,8,0,-0.4356120734405158,26.35472197194741,1.83433700686434,-2.247773621256758e-05,8.468359996898411e-05,1.467469605491472e-05,8.518365551547034e-05,8.507900389725717e-05
86.97168783650002,50.5283121635,8,0,-0.42018333063164,26.41643694318291,1.824129605010075,-2.247773621256758e-05,8.486874488269062e-05,1.45930368400806e-05,8.536243088565735e-05,8.519013661859181e-05
85.5283121635,51.97168783650001,8,0,-0.4628318117185639,26.34791703737796,1.85748012107768,-2.255939542740177e-05,8.468359996898433e-05,1.485984096862144e-05,8.519590625499787e-05,8.536093811542576e-05
86.97168783650002,51.97168783650001,8,0,-0.4474030689096882,26.40963200861346,1.847272719223423,-2.255939542740177e-05,8.486874488269084e-05,1.477818175378738e-05,8.537459723412022e-05,8.553025729894047e-05
88.02831216350002,50.5283121635,8,0,-0.305288919734342,26.49347185847891,1.616547343985971,-2.217170202993302e-05,8.502334108291998e-05,1.293237875188777e-05,8.541198369878093e-05,8.528583621324095e-05
89.47168783650001,50.5283121635,8,0,-0.2855206064013691,26.5725451118108,1.603200422383962,-2.217170202993302e-05,8.526056084291565e-05,1.28256033790717e-05,8.564199683798058e-05,8.543615964676257e-05
88.02831216350002,51.97168783650001,8,0,-0.3408807106730691,26.48457391074423,1.646199813985403,-2.22784774027492e-05,8.502334108291998e-05,1.316959851188322e-05,8.542592056952748e-05,8.566892741275206e-05
89.47168783650001,51.97168783650001,8,0,-0.3211123973401007,26.56364716407611,1.632852892383401,-2.22784774027492e-05,8.52605608429156e-05,1.306282313906721e-05,8.565579523924248e-05,8.587846202567809e-05
90.52831216350002,50.5283121635,8,0,-0.192264896271463,26.65816852282198,1.345645464509974,-2.194178248632626e-05,8.545995119004749e-05,1.076516371607979e-05,8.572903234730693e-05,8.556576649071728e-05
91.97168783650001,50.5283121635,8,0,-0.1666378296938849,26.76067678913229,1.329116795009096,-2.194178248632626e-05,8.576747598897842e-05,1.063293436007277e-05,8.602925751184681e-05,8.576953553990361e-05
90.52831216350002,51.97168783650001,8,0,-0.236341348273732,26.64714940982141,1.384086064376409,-2.207401184233307e-05,8.545995119004749e-05,1.107268851501127e-05,8.574423616318161e-05,8.605125223198024e-05
91.97168783650001,51.97168783650001,8,0,-0.2107142816961538,26.74965767613172,1.367557394875538,-2.207401184233307e-05,8.576747598897842e-05,1.09404591590043e-05,8.604424157394629e-05,8.631378924174208e-05
93.02831216350002,50.5283121635,8,0,-0.1005380510384857,26.85788807338889,1.020693309711298,-2.180803222203426e-05,8.602567227567522e-05,8.165546477690384e-06,8.618003227275282e-05,8.593873623837115e-05
94.47168783650002,50.5283121635,8,0,-0.06738133648185318,26.99051493161542,1.000935882071497,-2.180803222203426e-05,8.642355285035482e-05,8.007487056571974e-06,8.65714587142946e-05,8.619723209409389e-05
93.02831216350002,51.97168783650001,8,0,-0.1532245247446316,26.84471645496235,1.070428381546315,-2.19660916431527e-05,8.602567227567522e-05,8.563427052370523e-06,8.619516984318125e-05,8.65247320842897e-05
94.47168783650002,51.97168783650001,8,0,-0.1200678101879946,26.9773433131889,1.050670953906473,-2.19660916431527e-05,8.642355285035487e-05,8.405367631251787e-06,8.658626282877999e-05,8.683850163788548e-05
95.5283121635,50.5283121635,8,0,-0.03477521659369298,27.10257278981781,0.6409842613956608,-2.179333892495406e-05,8.675605310069193e-05,5.127874091165286e-06,8.681657955412976e-05,8.639304958730017e-05
96.97168783650002,50.5283121635,8,0,0.007768700307085652,27.27274845742092,0.6179796120241938,-2.179333892495406e-05,8.726658010350127e-05,4.94383689619355e-06,8.732257908994802e-05,8.666953707205045e-05
95.5283121635,51.97168783650001,8,0,-0.09612094825088402,27.08723635690351,0.7048001367467883,-2.197737611992563e-05,8.675605310069193e-05,5.638401093974307e-06,8.682909922867898e-05,8.707111431776266e-05
96.97168783650002,51.97168783650001,8,0,-0.05357703135011871,27.25741202450657,0.6817954873753688,-2.197737611992563e-05,8.726658010350111e-05,5.45436389900295e-06,8.733461949244485e-05,8.73928544241031e-05
98.02831216350002,50.5283121635,8,0,-0.0004643560408785774,27.4032173210237,0.2062247164670168,-2.192405979614976e-05,8.769066691210851e-05,1.649797731736135e-06,8.769687428613436e-05,8.682777701264643e-05
99.47168783650002,50.5283121635,8,0,0.05354395272374113,27.61925055608218,0.1800296360188333,-2.192405979614976e-05,8.833876661728396e-05,1.440237088150666e-06,8.834346945882783e-05,8.69836090854094e-05
98.02831216350002,51.97168783650001,8,0,-0.07031790390265602,27.38575393405825,0.2872371796139945,-2.21336204397351e-05,8.769066691210851e-05,2.297897436911956e-06,8.770268555335566e-05,8.757524184876319e-05
99.47168783650002,51.97168783650001,8,0,-0.01630959513799546,27.60178716911689,0.2610420991658042,-2.21336204397351e-05,8.833876661728444e-05,2.088336793326434e-06,8.834863505847144e-05,8.775179345327697e-05
0.5283121635,53.0283121635,8,0,-0.03762932337515457,4.230157581369233,-0.3068459850989161,-3.504539899895881e-06,1.356660771908167e-05,-2.454767880791329e-06,1.365440283330084e-05,1.600523346267337e-05
1.9716878365,53.0283121635,8,0,0.08758861590840716,4.73102933850348,-0.3321211580795911,-3.504539899895881e-06,1.506922299048441e-05,-2.656969264636729e-06,1.516376139493979e-05,1.662365415071211e-05
0.5283121635,54.47168783650001,8,0,-0.1050297846570087,4.21330746604877,-0.119019076173614,-3.706741283741443e-06,1.356660771908167e-05,-9.521526093889121e-07,1.357971905844236e-05,1.671945440788623e-05
1.9716878365,54.47168783650001,8,0,0.02018815462655299,4.714179223183017,-0.1442942491543296,-3.706741283741443e-06,1.506922299048441e-05,-1.154353993234637e-06,1.50869487954764e-05,1.731340189489044e-05
3.0283121635,53.0283121635,8,0,-0.08487458850461271,5.047930243574033,-0.7300985440824416,-4.309942878073987e-06,1.622127645024059e-05,-5.840788352659532e-06,1.662859721413259e-05,1.736108195026772e-05
4.4716878365,53.0283121635,8,0,0.05219652098069183,5.596214681515251,-0.7522320852662161,-4.309942878073987e-06,1.786612976406425e-05,-6.017856682129729e-06,1.826714036687055e-05,1.875735147761428e-05
3.0283121635,54.47168783650001,8,0,-0.1438973649947866,5.033174549451761,-0.5244918798546203,-4.487011207544725e-06,1.622127645024146e-05,-4.195935038836963e-06,1.643168477191016e-05,1.802235306790731e-05
4.4716878365,54.47168783650001,8,0,-0.006826255509554402,5.58145898739269,-0.5466254210384491,-4.487011207544725e-06,1.786612976406425e-05,-4.373003368307593e-06,1.807799716231407e-05,1.936529620575311e-05
5.528312163500001,53.0283121635,8,0,-0.1625221225955413,5.932089844187914,-1.099725031158873,-5.265742667656063e-06,1.911270519947775e-05,-8.797800249270987e-06,1.988216570566624e-05,1.991348016315145e-05
6.9716878365,53.0283121635,8,0,-0.01578427998402043,6.519041214633997,-1.118626114455541,-5.265742667656063e-06,2.087355931081601e-05,-8.949008915644331e-06,2.161828370099937e-05,2.167581294491455e-05
5.528312163500001,54.47168783650001,8,0,-0.2129250113868366,5.919489121989955,-0.8796182672415106,-5.41695133402984e-06,1.911270519947732e-05,-7.036946137932085e-06,1.960740925761704e-05,2.047899997056353e-05
6.9716878365,54.47168783650001,8,0,-0.06618716877526132,6.506440492436256,-0.8985193505381515,-5.41695133402984e-06,2.087355931081622e-05,-7.188154804305211e-06,2.135603783758305e-05,2.217875210288993e-05
8.028312163500001,53.0283121635,8,0,-0.2652524550333308,6.870157599560552,-1.415915003537998,-6.344933935755099e-06,2.219670628262043e-05,-1.132732002830398e-05,2.327949654183469e-05,2.302904040075856e-05
9.471687836500001,53.0283121635,8,0,-0.1107482348944688,7.488174480116,-1.431552020847362,-6.344933935755099e-06,2.405075692428677e-05,-1.145241616677889e-05,2.509372319593527e-05,2.496379378271567e-05
8.028312163500001,54.47168783650001,8,0,-0.3069511678582826,6.859732921354315,-1.184158673329732,-6.470030074229955e-06,2.219670628262043e-05,-9.473269386637857e-06,2.295907099651433e-05,2.34859756095902e-05
9.471687836500001,54.47168783650001,8,0,-0.1524469477193753,7.477749801909944,-1.199795690639096,-6.470030074229955e-06,2.405075692428732e-05,-9.598365525112767e-06,2.478760584179019e-05,2.535762451456913e-05
10.5283121635,53.0283121635,8,0,-0.3887191454388383,7.851184804401383,-1.679243195473344,-7.524849108925388e-06,2.543476669043549e-05,-1.343394556378675e-05,2.67510761134484e-05,2.640920821105668e-05
11.9716878365,53.0283121635,8,0,-0.2281246156235865,8.49356292366239,-1.691569923103131,-7.524849108925388e-06,2.736190104821851e-05,-1.353255938482505e-05,2.862825271825781e-05,2.842340048548823e-05
10.5283121635,54.47168783650001,8,0,-0.4215904191182696,7.842966985981525,-1.438351400750439,-7.623462929963682e-06,2.543476669043549e-05,-1.150681120600352e-05,2.640746071365113e-05,2.675778187178144e-05
11.9716878365,54.47168783650001,8,0,-0.2609958893029818,8.485345105242676,-1.450678128380172,-7.623462929963682e-06,2.736190104821895e-05,-1.160542502704138e-05,2.829923250692656e-05,2.871143400546051e-05
13.0283121635,53.0283121635,8,0,-0.5292265247365942,8.86542302204565,-1.890367948831869,-8.785863296793621e-06,2.879273489033536e-05,-1.512294359065495e-05,3.025716671576345e-05,2.990978725352961e-05
14.4716878365,53.0283121635,8,0,-0.3640618250502001,9.526081820791227,-1.899284857198827,-8.785863296793621e-06,3.077471128657208e-05,-1.519427885759061e-05,3.218348468294396e-05,3.195647914925786e-05
13.0283121635,54.47168783650001,8,0,-0.5530049470485916,8.859478416467653,-1.642620899302291,-8.857198563729613e-06,2.879273489033536e-05,-1.314096719441833e-05,2.990643980850218e-05,3.015469029127059e-05
14.4716878365,54.47168783650001,8,0,-0.3878402473621976,9.520137215213229,-1.65153780766925,-8.857198563729613e-06,3.077471128657208e-05,-1.3212302461354e-05,3.184687029442594e-05,3.214408765893547e-05
15.5283121635,53.0283121635,8,0,-0.6834150297572723,9.90396447844514,-2.049892162483464,-1.011009967797938e-05,3.223941835483026e-05,-1.639913729986771e-05,3.377156017160378e-05,3.345708725169585e-05
16.9716878365,53.0283121635,8,0,-0.5151085520390706,10.57719038931795,-2.055238787000501,-1.011009967797938e-05,3.425909608744868e-05,-1.644191029600401e-05,3.573333348382606e-05,3.551013293425202e-05
15.5283121635,54.47168783650001,8,0,-0.6976726951359828,9.900400062100461,-1.797432445906121,-1.015287267411551e-05,3.223941835483026e-05,-1.437945956724897e-05,3.342560513688639e-05,3.360389079293086e-05
16.9716878365,54.47168783650001,8,0,-0.5293662174177904,10.57362597297323,-1.802779070423103,-1.015287267411551e-05,3.425909608744857e-05,-1.442223256338483e-05,3.540061564922162e-05,3.560274975655917e-05
18.0283121635,53.0283121635,8,0,-0.8479947101700454,10.95840848415683,-2.158361433696423,-1.148030985986961e-05,3.574530291743788e-05,-1.726689146957139e-05,3.727411562548386e-05,3.70091855019875e-05
19.4716878365,53.0283121635,8,0,-0.6779351403668423,11.63864676336964,-2.159933060825019,-1.148030985986961e-05,3.778601775507632e-05,-1.727946448660015e-05,3.925721627273428e-05,3.905162759787538e-05
18.0283121635,54.47168783650001,8,0,-0.8521857158463182,10.95736073273776,-1.903272078991592,-1.149288287689842e-05,3.574530291743788e-05,-1.522617663193273e-05,3.694194420227133e-05,3.706317259227925e-05
19.4716878365,54.47168783650001,8,0,-0.6821261460431693,11.63759901195036,-1.904843706120214,-1.149288287689842e-05,3.778601775507567e-05,-1.523874964896171e-05,3.893721273132447e-05,3.905426301654161e-05
20.5283121635,53.0283121635,8,0,-1.019553377437296,12.02059479525421,-2.216364231647373,-1.287904664400272e-05,3.928154604676331e-05,-1.773091385317898e-05,4.074717832940466e-05,4.053813658374889e-05
21.9716878365,53.0283121635,8,0,-0.8491246741388196,12.70230960844812,-2.213944771663816,-1.287904664400272e-05,4.132669048634503e-05,-1.771155817331053e-05,4.273680681740274e-05,4.255691256334784e-05
20.5283121635,54.47168783650001,8,0,-1.013101484147812,12.02220776857658,-1.960721176699645,-1.285969096413426e-05,3.928154604676331e-05,-1.568576941359716e-05,4.043569548854934e-05,4.050416258593623e-05
21.9716878365,54.47168783650001,8,0,-0.8426727808493273,12.70392258177052,-1.958301716715994,-1.285969096413426e-05,4.132669048634513e-05,-1.566641373372795e-05,4.243633850994948e-05,4.247427145130059e-05
23.0283121635,53.0283121635,8,0,-1.194451842549621,13.08242874817877,-2.22469472756188,-1.42881888947018e-05,4.281933346821174e-05,-1.779755782049504e-05,4.417385782272533e-05,4.402187920259624e-05
24.4716878365,53.0283121635,8,0,-1.025049173832182,13.76003942304852,-2.218097407325585,-1.42881888947018e-05,4.485216549282101e-05,-1.774477925860468e-05,4.615454370033144e-05,4.600546651298753e-05
23.0283121635,54.47168783650001,8,0,-1.17685898858622,13.08682696166962,-1.970590724485613,-1.423541033281159e-05,4.281933346821174e-05,-1.576472579588491e-05,4.388828891426391e-05,4.390460867733893e-05
24.4716878365,54.47168783650001,8,0,-1.007456319868781,13.76443763653937,-1.963993404249331,-1.423541033281159e-05,4.485216549282101e-05,-1.571194723399465e-05,4.58788163355808e-05,4.58422537856346e-05
25.5283121635,53.0283121635,8,0,-1.368806012299728,14.13580750435247,-2.184539598526958,-1.568882524284111e-05,4.63296288237677e-05,-1.747631678821566e-05,4.753728514878232e-05,4.74406671813719e-05
26.9716878365,53.0283121635,8,0,-1.201833273797448,14.8036984583616,-2.173647828830654,-1.568882524284111e-05,4.833330168579507e-05,-1.738918263064523e-05,4.94930703222411e-05,4.93781210162302e-05
25.5283121635,54.47168783650001,8,0,-1.339761293109584,14.14306868415001,-1.934080490773564,-1.560169108527068e-05,4.63296288237677e-05,-1.547264392618851e-05,4.72814057014186e-05,4.724490019520863e-05
26.9716878365,54.47168783650001,8,0,-1.172788554607304,14.81095963815913,-1.92318872107726,-1.560169108527068e-05,4.833330168579507e-05,-1.538550976861808e-05,4.924587985718979e-05,4.913935634308624e-05
28.0283121635,53.0283121635,8,0,-1.538545282214801,15.17264318047673,-2.097654810719784,-1.706145944746875e-05,4.978329440329739e-05,-1.678123848575827e-05,5.082042662446707e-05,5.077564957319244e-05
29.4716878365,53.0283121635,8,0,-1.37539687280119,15.82523681813118,-2.0824570333715,-1.706145944746875e-05,5.174107531626072e-05,-1.6659656266972e-05,5.273519229750137e-05,5.26563147611457e-05
28.0283121635,54.47168783650001,8,0,-1.498017875952605,15.18277503204228,-1.852932196599449,-1.693987722868216e-05,4.978329440329739e-05,-1.482345757279559e-05,5.059668674034771e-05,5.050661628874655e-05
29.4716878365,54.47168783650001,8,0,-1.334869466538994,15.83536866969673,-1.837734419251111,-1.693987722868216e-05,5.174107531626072e-05,-1.470187535400889e-05,5.251903573096797e-05,5.234758377972561e-05
30.5283121635,53.0283121635,8,0,-1.699529415445085,16.18496804740929,-1.966505949637927,-1.83864685673517e-05,5.315152128406581e-05,-1.573204759710341e-05,5.400622535770392e-05,5.400849186526405e-05
31.9716878365,53.0283121635,8,0,-1.541560321063757,16.8168444249346,-1.947120171500369,-1.83864685673517e-05,5.504715041664172e-05,-1.557696137200295e-05,5.586411945369532e-05,5.582204322675054e-05
30.5283121635,54.47168783650001,8,0,-1.647834007078335,16.19789189950098,-1.72955230806591,-1.823138234225146e-05,5.315152128406581e-05,-1.383641846452728e-05,5.38158303832083e-05,5.367206851673659e-05
31.9716878365,54.47168783650001,8,0,-1.489864912697035,16.82976827702618,-1.710166529928419,-1.823138234225146e-05,5.50471504166414e-05,-1.368133223942736e-05,5.568026729592196e-05,5.544966062127486e-05
33.0283121635,53.0283121635,8,0,-1.847702297821503,17.16509999529178,-1.794354789854278,-1.964472734926223e-05,5.640648182319088e-05,-1.435483831883422e-05,5.707793074156623e-05,5.71215018758772e-05
34.4716878365,53.0283121635,8,0,-1.696191186605019,17.77114444015771,-1.771040557832748,-1.964472734926223e-05,5.82246151577887e-05,-1.416832446266198e-05,5.886384919727063e-05,5.885813756629049e-05
33.0283121635,54.47168783650001,8,0,-1.785531012430648,17.18064281663929,-1.567088123029524,-1.94582134930895e-05,5.640648182319023e-05,-1.253670498423619e-05,5.692091870970939e-05,5.672433560202701e-05
34.4716878365,54.47168783650001,8,0,-1.634019901214082,17.78668726150555,-1.543773891007953,-1.94582134930895e-05,5.822461515778902e-05,-1.235019112806363e-05,5.871241735169278e-05,5.842922030818854e-05
35.5283121635,53.0283121635,8,0,-1.979260496432591,18.10584325059616,-1.585284115602104,-2.081830818906122e-05,5.952210679905376e-05,-1.268227292481683e-05,6.001952256663425e-05,6.00979860026688e-05
36.9716878365,53.0283121635,8,0,-1.835370517108922,18.68140316789083,-1.558441585277826,-2.081830818906122e-05,6.124878655093779e-05,-1.246753268222261e-05,6.17195986213822e-05,6.174867923426987e-05
35.5283121635,54.47168783650001,8,0,-1.907680415567668,18.12373827081239,-1.369449146616634,-2.060356794646645e-05,5.952210679905376e-05,-1.095559317293307e-05,5.989486258132143e-05,5.964753275458659e-05
36.9716878365,54.47168783650001,8,0,-1.763790436243999,18.69929818810706,-1.342606616292261,-2.060356794646645e-05,6.124878655093779e-05,-1.074085293033809e-05,6.159964243944129e-05,6.127113955161959e-05
38.0283121635,53.0283121635,8,0,-2.090816822772671,19.00069954648411,-1.344161101451697,-2.189117347005983e-05,6.247489200696729e-05,-1.075328881161358e-05,6.281616474291151e-05,6.292268708102527e-05
39.4716878365,53.0283121635,8,0,-1.955558268641872,19.5417337630073,-1.314318376966102,-2.189117347005983e-05,6.409799465653687e-05,-1.051454701572882e-05,6.441822542041425e-05,6.447944293538087e-05
38.0283121635,54.47168783650001,8,0,-2.01123622414458,19.02059469614093,-1.141273270255486,-2.16524316741754e-05,6.247489200696663e-05,-9.130186162043885e-06,6.272188747961051e-05,6.242717497817896e-05
39.4716878365,54.47168783650001,8,0,-1.875977670013759,19.56162891266422,-1.111430545769945,-2.16524316741754e-05,6.409799465653649e-05,-8.891444366159558e-06,6.432786645460266e-05,6.396191570199006e-05
40.5283121635,53.0283121635,8,0,-2.179543165726764,19.84406781567558,-1.076545995644504,-2.284979238286611e-05,6.524465154274326e-05,-8.612367965156031e-06,6.545464349058138e-05,6.55822199950267e-05
41.97168783650001,53.0283121635,8,0,-2.053741313849253,20.34727522318562,-1.044336950707101,-2.284979238286611e-05,6.67542737652734e-05,-8.35469560565681e-06,6.694860056881858e-05,6.703830709717303e-05
40.5283121635,54.47168783650001,8,0,-2.093652379227205,19.86554051230047,-0.8878432178283048,-2.259212002336743e-05,6.524465154274326e-05,-7.102745742626438e-06,6.538800493394631e-05,6.505055383920477e-05
41.97168783650001,54.47168783650001,8,0,-1.967850527349725,20.36874791981039,-0.8556341728909226,-2.259212002336743e-05,6.675427376527302e-05,-6.845073383127381e-06,6.688518692978335e-05,6.64900278174479e-05
43.0283121635,53.0283121635,8,0,-2.243281667633218,20.63141498392143,-0.7885570692633515,-2.368363332356344e-05,6.781515328265516e-05,-6.308456554106811e-06,6.792375975740736e-05,6.806545772941831e-05
44.4716878365,53.0283121635,8,0,-2.127552124317233,21.09433315718537,-0.7546923964118254,-2.368363332356344e-05,6.920390780244698e-05,-6.037539171294603e-06,6.930191195764841e-05,6.941559834171192e-05
43.0283121635,54.47168783650001,8,0,-2.152975873362518,20.65399143248911,-0.614962754289395,-2.341271594075134e-05,6.781515328265516e-05,-4.91970203431516e-06,6.788143208756535e-05,6.750708080098036e-05
44.4716878365,54.47168783650001,8,0,-2.037246330046574,21.11690960575289,-0.5810980814379503,-2.341271594075134e-05,6.920390780244649e-05,-4.648784651503602e-06,6.92622062024782e-05,6.884624724785556e-05
45.52831216350001,53.0283121635,8,0,-2.280617980003337,21.35940559304713,-0.4867049319563088,-2.438550201044838e-05,7.017459228175348e-05,-3.89363945565047e-06,7.021465677108908e-05,7.036384247292407e-05
46.97168783650001,53.0283121635,8,0,-2.175350913677942,21.78047385834871,-0.4519392994599958,-2.438550201044838e-05,7.14377970776582e-05,-3.615514395679967e-06,7.147188924356831e-05,7.160435300519119e-05
45.52831216350001,54.47168783650001,8,0,-2.187909626679817,21.38258268137794,-0.3288043324681841,-2.410737695047777e-05,7.017459228175326e-05,-2.630434659745473e-06,7.019293576943538e-05,6.978857051281743e-05
46.97168783650001,54.47168783650001,8,0,-2.082642560354405,21.80365094667959,-0.2940386999719322,-2.410737695047777e-05,7.14377970776582e-05,-2.352309599775457e-06,7.145227327247548e-05,7.102387910308174e-05
48.0283121635,53.0283121635,8,0,-2.290914303969872,22.02598300153622,-0.1777098276937905,-2.495171217393256e-05,7.23158770480918e-05,-1.421678621550324e-06,7.232107164113134e-05,7.24716097793333e-05
49.47168783650001,53.0283121635,8,0,-2.196268112592367,22.40456776704624,-0.1428078861774438,-2.495171217393256e-05,7.345163134462186e-05,-1.142463089419551e-06,7.34549472327908e-05,7.36004888173315e-05
48.0283121635,54.47168783650001,8,0,-2.197842459926317,22.04925096254711,-0.0357405406274994,-2.46724966418019e-05,7.23158770480918e-05,-2.859243250199952e-07,7.231608777577725e-05,7.188945021358766e-05
49.47168783650001,54.47168783650001,8,0,-2.103196268548812,22.42783572805713,-0.0008385991111324164,-2.46724966418019e-05,7.345163134462186e-05,-6.708792889059331e-09,7.345163145929269e-05,7.301892587488988e-05
50.5283121635,53.0283121635,8,0,-2.274303029117378,22.63039936154557,0.1316850183108836,-2.538208918241206e-05,7.423672038023971e-05,1.053480146487068e-06,7.423950547021671e-05,7.438592191600588e-05
51.97168783650001,53.0283121635,8,0,-2.1902072926728,22.96678230732388,0.1659813151504998,-2.538208918241206e-05,7.524586921757464e-05,1.327850521203999e-06,7.525024948695419e-05,7.540288600962356e-05
50.5283121635,54.47168783650001,8,0,-2.182846237545104,22.65326355943863,0.2578286229777227,-2.510771880769524e-05,7.423672038023971e-05,2.062628983821781e-06,7.424742550868116e-05,7.38068896358728e-05
51.97168783650001,54.47168783650001,8,0,-2.098750501100526,22.98964650521695,0.2921249198173728,-2.510771880769524e-05,7.524586921757464e-05,2.336999358538983e-06,7.525947317991945e-05,7.48301710041905e-05
53.0283121635,53.0283121635,8,0,-2.231644168584305,23.17319534254407,0.4348920515425135,-2.567981761350503e-05,7.593954043100845e-05,3.479136412340108e-06,7.596931046053309e-05,7.610691165271658e-05
54.4716878365,53.0283121635,8,0,-2.157811155117973,23.46852739640939,0.467892681262522,-2.567981761350503e-05,7.682553659260443e-05,3.743141450100176e-06,7.685969685752214e-05,7.701338138594214e-05
53.0283121635,54.47168783650001,8,0,-2.143642489331203,23.19519576235734,0.5456415717420107,-2.541581257574572e-05,7.593954043100845e-05,4.365132573936085e-06,7.598651761179118e-05,7.554085139338683e-05
54.4716878365,54.47168783650001,8,0,-2.069809475864907,23.49052781622252,0.5786422014618972,-2.541581257574572e-05,7.682553659260399e-05,4.629137611695177e-06,7.687790763499024e-05,7.64591849563789e-05
55.5283121635,53.0283121635,8,0,-2.164451714518999,23.65613376119302,0.7256395308405611,-2.585115249541521e-05,7.743118940743286e-05,5.805116246724489e-06,7.751269608288443e-05,7.763764169087124e-05
56.97168783650001,53.0283121635,8,0,-2.100395206157754,23.912359794638,0.7567304237171335,-2.585115249541521e-05,7.819986750776781e-05,6.053843389737068e-06,7.828784852215569e-05,7.843668282793296e-05
55.5283121635,54.47168783650001,8,0,-2.081542666848132,23.67686102311074,0.8217242933823753,-2.560242535240261e-05,7.743118940743286e-05,6.573794347059002e-06,7.753593891656007e-05,7.709406623868685e-05
56.97168783650001,54.47168783650001,8,0,-2.0174861584869,23.93308705655567,0.852815186258934,-2.560242535240261e-05,7.819986750776765e-05,6.822521490071473e-06,7.831185115680543e-05,7.791026059580834e-05
58.0283121635,53.0283121635,8,0,-2.0747957193158,24.08209402931619,0.9981043873076625,-2.590502152526351e-05,7.872253746926444e-05,7.984835098461299e-06,7.887466045328599e-05,7.898398903996774e-05
59.47168783650001,53.0283121635,8,0,-2.01985548680541,24.30185495935775,1.02676487832497,-2.590502152526351e-05,7.938182025938912e-05,8.21411902659976e-06,7.954178657936583e-05,7.968021628154666e-05
58.0283121635,54.47168783650001,8,0,-1.998367743269574,24.10120102332775,1.080514736073219,-2.567573759712483e-05,7.872253746926444e-05,8.644117888585755e-06,7.890116385099187e-05,7.847194180934193e-05
59.47168783650001,54.47168783650001,8,0,-1.943427510759184,24.32096195336931,1.109175227090574,-2.567573759712483e-05,7.938182025938912e-05,8.873401816724595e-06,7.956885424001135e-05,7.919028906531639e-05
60.5283121635,53.0283121635,8,0,-1.965188379470355,24.45493669691306,1.247011157945346,-2.585255217183558e-05,7.982794813369805e-05,9.976089263562769e-06,8.00628581357119e-05,8.015446856980984e-05
61.9716878365,53.0283121635,8,0,-1.918558277036027,24.64145710665037,1.272824004899941,-2.585255217183558e-05,8.038750936290999e-05,1.018259203919953e-05,8.06309395392e-05,8.075392267542682e-05
60.5283121635,54.47168783650001,8,0,-1.896354120924931,24.47214526154941,1.316956311596873,-2.564604939619931e-05,7.982794813369805e-05,1.053565049277498e-05,8.009039296545778e-05,7.968241803700936e-05
61.9716878365,54.47168783650001,8,0,-1.849724018490621,24.65866567128666,1.342769158551373,-2.564604939619931e-05,8.038750936290978e-05,1.074215326841098e-05,8.065888401397322e-05,8.030859213563381e-05
63.0283121635,53.0283121635,8,0,-1.838463498034243,24.77934923598335,1.467692980251048,-2.570656258249626e-05,8.076468835357411e-05,1.174154384200838e-05,8.108742154150754e-05,8.116001557411252e-05
64.47168783650001,53.0283121635,8,0,-1.799220919961295,24.93631954827514,1.490346668505291,-2.570656258249626e-05,8.123559929044949e-05,1.192277334804233e-05,8.156688472936972e-05,8.167002790034498e-05
63.0283121635,54.47168783650001,8,0,-1.778053662689639,24.7944516948195,1.526556847360417,-2.552533307646244e-05,8.076468835357411e-05,1.221245477888333e-05,8.111433322984808e-05,8.073578719244573e-05
64.47168783650001,54.47168783650001,8,0,-1.738811084616708,24.95142200711123,1.549210535614599,-2.552533307646244e-05,8.123559929044927e-05,1.239368428491679e-05,8.159408566937244e-05,8.127673169382331e-05
65.5283121635,53.0283121635,8,0,-1.697659157740257,25.06068534978773,1.656113708977542,-2.5481057584599e-05,8.155232044551293e-05,1.324890967182034e-05,8.196075920042359e-05,8.20137526625501e-05
66.97168783650001,53.0283121635,8,0,-1.664793545187965,25.1921477999969,1.675397410808946,-2.5481057584599e-05,8.194670779614044e-05,1.340317928647157e-05,8.236315391893354e-05,8.244281385052153e-05
65.5283121635,54.47168783650001,8,0,-1.646235952856469,25.07354115100868,1.705412127806015,-2.532678796994764e-05,8.155232044551293e-05,1.364329702244812e-05,8.198595847967258e-05,8.16445009893905e-05
66.97168783650001,54.47168783650001,8,0,-1.613370340304191,25.20500360121779,1.724695829637466,-2.532678796994764e-05,8.194670779614028e-05,1.379756663709973e-05,8.23885502677415e-05,8.210832088900893e-05
68.0283121635,53.0283121635,8,0,-1.545913019128332,25.30481025489091,1.808853495539116,-2.519076986512339e-05,8.221212323095356e-05,1.447082796431293e-05,8.269735933506698e-05,8.273077045218988e-05
69.47168783650001,53.0283121635,8,0,-1.518351260592836,25.41505728903289,1.824645691273257,-2.519076986512339e-05,8.254286433337951e-05,1.459716553018606e-05,8.303506943636346e-05,8.308842133038473e-05
68.0283121635,54.47168783650001,8,0,-1.503800497170677,25.31533838538032,1.85019613334236,-2.506443229925042e-05,8.221212323095356e-05,1.480156906673888e-05,8.272028074386036e-05,8.242299036666885e-05
69.47168783650001,54.47168783650001,8,0,-1.476238738635208,25.4255854195222,1.865988329076494,-2.506443229925042e-05,8.254286433337919e-05,1.492790663261195e-05,8.305811853960877e-05,8.281886346764501e-05
70.5283121635,53.0283121635,8,0,-1.386378307931905,25.51796344249481,1.923063266024982,-2.485078133937794e-05,8.276658566232892e-05,1.538450612819986e-05,8.331363026162305e-05,8.332795309767467e-05
71.97168783650001,53.0283121635,8,0,-1.363005230012955,25.61145575417062,1.935315576781233,-2.485078133937794e-05,8.304706259735633e-05,1.548252461424987e-05,8.359963899056343e-05,8.36247151777705e-05
70.5283121635,54.47168783650001,8,0,-1.353705479248441,25.52613164966568,1.958122882903299,-2.475276285332755e-05,8.276658566232892e-05,1.566498306322639e-05,8.333416515343036e-05,8.308752449934867e-05
71.97168783650001,54.47168783650001,8,0,-1.330332401329494,25.61962396134147,1.970375193659625,-2.475276285332755e-05,8.304706259735627e-05,1.5763001549277e-05,8.362025007991607e-05,8.342564698703201e-05
73.0283121635,53.0283121635,8,0,-1.222166440233708,25.70664845797157,1.996396036193802,-2.447625137512512e-05,8.323900821769598e-05,1.597116828955041e-05,8.382780935500684e-05,8.382387750912226e-05
74.47168783650001,53.0283121635,8,0,-1.201839085895877,25.7879578753229,2.005114189440942,-2.447625137512512e-05,8.348293646974996e-05,1.604091351552753e-05,8.407553589368996e-05,8.407123703725643e-05
73.0283121635,54.47168783650001,8,0,-1.198918031574748,25.71246056013631,2.026887067700569,-2.440650614914824e-05,8.323900821769598e-05,1.621509654160455e-05,8.384622007513411e-05,8.365613317308005e-05
74.47168783650001,54.47168783650001,8,0,-1.17859067723693,25.79376997748758,2.035605220947662,-2.440650614914824e-05,8.348293646974979e-05,1.628484176758129e-05,8.40939845619224e-05,8.394771065614952e-05
75.5283121635,53.0283121635,8,0,-1.056319698200523,25.87755652505423,2.02692461684977,-2.408226825428505e-05,8.365323663873394e-05,1.621539693479816e-05,8.425996930293197e-05,8.423880771537056e-05
76.97168783650001,53.0283121635,8,0,-1.037874659686517,25.95133667911025,2.032148630480865,-2.408226825428505e-05,8.387457710090201e-05,1.625718904384692e-05,8.448318734929547e-05,8.444925979372239e-05
75.5283121635,54.47168783650001,8,0,-1.042388995184316,25.88103920080828,2.054592174620759,-2.404047614523643e-05,8.365323663873394e-05,1.643673739696607e-05,8.427678989605543e-05,8.414860933003628e-05
76.97168783650001,54.47168783650001,8,0,-1.02394395667036,25.9548193548641,2.05981618825186,-2.404047614523643e-05,8.387457710090141e-05,1.647852950601488e-05,8.450001634585163e-05,8.440589723122198e-05
78.0283121635,53.0283121635,8,0,-0.8918148239585477,26.03752779152629,2.013055898670068,-2.368382966988838e-05,8.403354079205097e-05,1.610444718936054e-05,8.463214414238505e-05,8.459479022869175e-05
79.47168783650001,53.0283121635,8,0,-0.8740684557394642,26.10851326440263,2.014841539465897,-2.368382966988838e-05,8.424649721067997e-05,1.611873231572718e-05,8.484498694724148e-05,8.47819346927407e-05
78.0283121635,54.47168783650001,8,0,-0.8870531151698486,26.03871821872333,2.03967545099872,-2.366954454352218e-05,8.403354079205053e-05,1.631740360798976e-05,8.464807070919473e-05,8.458659300912646e-05
79.47168783650001,54.47168783650001,8,0,-0.8693067469507421,26.10970369159976,2.041461091794537,-2.366954454352218e-05,8.424649721067981e-05,1.633168873435629e-05,8.486089639355638e-05,8.482297515390998e-05
80.5283121635,53.0283121635,8,0,-0.7315961929033499,26.19355100087416,1.953451681182968,-2.329594861799004e-05,8.440464015711997e-05,1.562761344946374e-05,8.496858821727163e-05,8.491582465729134e-05
81.97168783650001,53.0283121635,8,0,-0.7133380140764594,26.26658371618172,1.951855081314127,-2.329594861799004e-05,8.462373830304265e-05,1.561484065051302e-05,8.518563838048239e-05,8.509447437903387e-05
80.5283121635,54.47168783650001,8,0,-0.735853792553538,26.19248660096161,1.980838949423256,-2.33087214169406e-05,8.440464015711997e-05,1.584671159538605e-05,8.49843592555791e-05,8.499370563352014e-05
81.97168783650001,54.47168783650001,8,0,-0.7175956137266883,26.26551931626901,1.979242349554449,-2.33087214169406e-05,8.462373830304216e-05,1.583393879643559e-05,8.520136574846824e-05,8.522376783345202e-05
83.02831216350002,53.0283121635,8,0,-0.578635558990114,26.35279981174455,1.846965196461915,-2.2933873638164e-05,8.479186784477464e-05,1.477572157169532e-05,8.529616855357757e-05,8.52280159412082e-05
84.47168783650002,53.0283121635,8,0,-0.5586155336265684,26.43287991319873,1.842032268835485,-2.2933873638164e-05,8.503210814913718e-05,1.473625815068388e-05,8.553262514452456e-05,8.541420855226355e-05
83.02831216350002,54.47168783650001,8,0,-0.5917900326605112,26.34951119332695,1.876995234507186,-2.297333705917519e-05,8.479186784477464e-05,1.501596187605749e-05,8.531243280760541e-05,8.539563318882566e-05
84.47168783650002,54.47168783650001,8,0,-0.5717700072969656,26.42959129478113,1.872062306880804,-2.297333705917519e-05,8.503210814913718e-05,1.497649845504643e-05,8.55488125885124e-05,8.563511587185543e-05
85.5283121635,53.0283121635,8,0,-0.436014254329459,26.52270194236642,1.69260140109293,-2.26134071677474e-05,8.522145761903611e-05,1.354081120874344e-05,8.564487457439559e-05,8.555945907274188e-05
86.97168783650002,53.0283121635,8,0,-0.4129249153452541,26.61505929830324,1.684363450592721,-2.26134071677474e-05,8.549852968684656e-05,1.347490760474177e-05,8.59167845798688e-05,8.577009826347604e-05
85.5283121635,54.47168783650001,8,0,-0.4579821223300078,26.51720997536622,1.727235409569204,-2.2679310771749e-05,8.522145761903589e-05,1.381788327655363e-05,8.566204169404258e-05,8.581989419635119e-05
86.97168783650002,54.47168783650001,8,0,-0.4348927833457896,26.60956733130309,1.718997459069008,-2.2679310771749e-05,8.549852968684651e-05,1.375197967255206e-05,8.593382910166569e-05,8.608523528400274e-05
88.02831216350002,53.0283121635,8,0,-0.3070230427776925,26.71103578707385,1.489508062801918,-2.23513023665477e-05,8.572093295285848e-05,1.191606450241534e-05,8.604840752214361e-05,8.593923498804286e-05
89.47168783650001,53.0283121635,8,0,-0.2794776298835355,26.82121743865048,1.477984796758314,-2.23513023665477e-05,8.605147790758836e-05,1.182387837406651e-05,8.637294277410423e-05,8.619068592227074e-05
88.02831216350002,54.47168783650001,8,0,-0.3377517522274651,26.70335360971141,1.530826182143146,-2.244348849489701e-05,8.572093295285848e-05,1.224660945714517e-05,8.606647597264423e-05,8.629463781792838e-05
89.47168783650001,54.47168783650001,8,0,-0.3102063393332992,26.81353526128807,1.519302916099495,-2.244348849489701e-05,8.605147790758847e-05,1.215442332879596e-05,8.639082402700702e-05,8.660139509221974e-05
90.52831216350002,53.0283121635,8,0,-0.1952743439650693,26.92604797707508,1.237003846798363,-2.216571628234828e-05,8.63195730018123e-05,9.896030774386906e-06,8.654478451397131e-05,8.639398387882791e-05
91.97168783650001,53.0283121635,8,0,-0.1617823052998322,27.06001613173603,1.22221486762268,-2.216571628234828e-05,8.672147746579514e-05,9.777718940981439e-06,8.694053866383549e-05,8.669795329101281e-05
90.52831216350002,54.47168783650001,8,0,-0.2347116217667917,26.91618865762465,1.287241904796179,-2.228402811575345e-05,8.63195730018123e-05,1.029793523836943e-05,8.656314265415957e-05,8.684485841015436e-05
91.97168783650001,54.47168783650001,8,0,-0.2012195831015546,27.0501568122856,1.272452925620509,-2.228402811575345e-05,8.672147746579514e-05,1.017962340496407e-05,8.695862095679123e-05,8.720325529026798e-05
93.02831216350002,53.0283121635,8,0,-0.1048209937299607,27.17658429714692,0.9346490819368277,-2.20766946176534e-05,8.704892654585409e-05,7.477192655494622e-06,8.717685924925038e-05,8.693825626144037e-05
94.47168783650002,53.0283121635,8,0,-0.06376240542424583,27.34081865036978,0.9166348913495183,-2.20766946176534e-05,8.754162960552267e-05,7.333079130796146e-06,8.766413198499996e-05,8.729080677370122e-05
93.02831216350002,54.47168783650001,8,0,-0.1528588352960734,27.16457483675539,0.9962369643954413,-2.222080814235174e-05,8.704892654585409e-05,7.96989571516353e-06,8.719406047169793e-05,8.748202947770358e-05
94.47168783650002,54.47168783650001,8,0,-0.1118002469903407,27.32880918997832,0.9782227738081386,-2.222080814235174e-05,8.754162960552289e-05,7.825782190465109e-06,8.768094237034897e-05,8.78852578415351e-05
95.5283121635,53.0283121635,8,0,-0.04027483201193682,27.47222515862397,0.5823646003732782,-2.210665958933737e-05,8.794334037320623e-05,4.658916802986225e-06,8.7992626582345e-05,8.754917549805338e-05
96.97168783650002,53.0283121635,8,0,0.01012443195775603,27.67382221450274,0.5612181238664524,-2.210665958933737e-05,8.854813154084254e-05,4.48974499093162e-06,8.859365492117964e-05,8.790250146783941e-05
95.5283121635,54.47168783650001,8,0,-0.09666543603016553,27.45812750761941,0.6579634963278238,-2.227583140139205e-05,8.794334037320623e-05,5.26370797062259e-06,8.800614896058617e-05,8.817719820132702e-05
96.97168783650002,54.47168783650001,8,0,-0.04626617206045491,27.65972456349825,0.6368170198210049,-2.227583140139205e-05,8.854813154084276e-05,5.094536158568039e-06,8.860664912303475e-05,8.857156573326086e-05
98.02831216350002,53.0283121635,8,0,-0.006916995818050609,27.82341522391031,0.1806038203219914,-2.228086656574601e-05,8.904046231316743e-05,1.444830562575931e-06,8.904515020063342e-05,8.810171920683081e-05
99.47168783650002,53.0283121635,8,0,0.05477313056054101,28.07017572942468,0.156513413583169,-2.228086656574601e-05,8.978074382971052e-05,1.252107308665352e-06,8.978424128922853e-05,8.829266622176148e-05
98.02831216350002,54.47168783650001,8,0,-0.0711580804549925,27.80735495275108,0.2731390098898508,-2.247358981965683e-05,8.904046231316743e-05,2.185112079118806e-06,8.905116557537455e-05,8.879261726205064e-05
99.47168783650002,54.47168783650001,8,0,-0.009467954076400886,28.05411545826544,0.249048603150981,-2.247358981965683e-05,8.978074382971052e-05,1.992388825207848e-06,8.97895838016772e-05,8.900217373788691e-05
0.5283121635,55.5283121635,8,0,-0.03658402252893023,4.664124518565444,-0.2828828847017842,-3.848368486944931e-06,1.495446567743256e-05,-2.263063077614274e-06,1.502231502810891e-05,1.722212050919478e-05
1.9716878365,55.5283121635,8,0,0.08122645002239048,5.135366408770727,-0.3059743010839079,-3.848368486944931e-06,1.636819134804841e-05,-2.447794408671263e-06,1.644201569525298e-05,1.779922349242346e-05
0.5283121635,56.97168783650001,8,0,-0.09816113288115158,4.648730240977389,-0.1061671758748029,-4.033099818001595e-06,1.495446567743256e-05,-8.493374069984232e-07,1.496395891058556e-05,1.788120889205782e-05
1.9716878365,56.97168783650001,8,0,0.01964933967016913,5.119972131182672,-0.1292585922568453,-4.033099818001595e-06,1.636819134804841e-05,-1.034068738054762e-06,1.638128625757769e-05,1.843676503617608e-05
3.0283121635,55.5283121635,8,0,-0.08246687896534688,5.433817020686982,-0.671769254980442,-4.610947629238695e-06,1.745418796937062e-05,-5.374154039843536e-06,1.777670428059749e-05,1.848847340350938e-05
4.4716878365,55.5283121635,8,0,0.04697247735221888,5.951574445957245,-0.6919607889203987,-4.610947629238695e-06,1.900746024518141e-05,-5.535686311363189e-06,1.932748766717425e-05,1.97944361965598e-05
3.0283121635,56.97168783650001,8,0,-0.1363109694717894,5.420355998060507,-0.4776102205041478,-4.772479900758131e-06,1.745418796937105e-05,-3.820881764033182e-06,1.761719987486752e-05,1.910066672522984e-05
4.4716878365,56.97168783650001,8,0,-0.006871613154250777,5.938113423330662,-0.4978017544440502,-4.772479900758131e-06,1.900746024518151e-05,-3.982414035552401e-06,1.917304050074333e-05,2.035892372691435e-05
5.528312163500001,55.5283121635,8,0,-0.1585090207002224,6.268703731166668,-1.012988331736787,-5.522191851174045e-06,2.018665915629351e-05,-8.103906653894296e-06,2.08101630482347e-05,2.087856647817937e-05
6.9716878365,55.5283121635,8,0,-0.01947909889081445,6.8248234184043,-1.030027553423324,-5.522191851174045e-06,2.185501821800641e-05,-8.240220427386592e-06,2.246162972483271e-05,2.253450269666348e-05
5.528312163500001,56.97168783650001,8,0,-0.20394694519751,6.25734425004221,-0.8044434490225936,-5.658505624665799e-06,2.018665915629308e-05,-6.435547592180749e-06,2.058125378804831e-05,2.140468267062301e-05
6.9716878365,56.97168783650001,8,0,-0.06491702338806582,6.813463937279987,-0.82148267070909,-5.658505624665799e-06,2.185501821800641e-05,-6.57186136567272e-06,2.224201248138759e-05,2.300349223574158e-05
8.028312163500001,55.5283121635,8,0,-0.2594725454145763,7.157148010969344,-1.305760587317454,-6.556030554102118e-06,2.311045167143356e-05,-1.044608469853963e-05,2.400315133471381e-05,2.380938742690446e-05
9.471687836500001,55.5283121635,8,0,-0.1126768021881248,7.74433098387515,-1.319493280070144,-6.556030554102118e-06,2.487200059015098e-05,-1.055594624056115e-05,2.57346941504017e-05,2.56365010653805e-05
8.028312163500001,56.97168783650001,8,0,-0.2960930594217119,7.147992882467425,-1.085566972477872,-6.665892096123418e-06,2.311045167143312e-05,-8.684535779822974e-06,2.373075980565411e-05,2.423602973478113e-05
9.471687836500001,56.97168783650001,8,0,-0.1492973161952516,7.735175855373266,-1.099299665230466,-6.665892096123418e-06,2.487200059015065e-05,-8.794397321843731e-06,2.547360783680855e-05,2.600457523941565e-05
10.5283121635,55.5283121635,8,0,-0.3808780162872818,8.088661119047758,-1.549909546266775,-7.689738547357508e-06,2.618841799398265e-05,-1.23992763701342e-05,2.728729654457227e-05,2.700463838585235e-05
11.9716878365,55.5283121635,8,0,-0.2279638235647199,8.700317889938006,-1.560216362890812,-7.689738547357508e-06,2.802338830665339e-05,-1.248173090312649e-05,2.908256591739701e-05,2.891534541879545e-05
10.5283121635,56.97168783650001,8,0,-0.4083628606180993,8.081789907965053,-1.320538257182824,-7.772193080349959e-06,2.618841799398265e-05,-1.056430605746259e-05,2.699102326338724e-05,2.733048926377735e-05
11.9716878365,56.97168783650001,8,0,-0.2554486678955556,8.693446678855228,-1.330845073806847,-7.772193080349959e-06,2.802338830665317e-05,-1.064676059045477e-05,2.87982859433307e-05,2.918440824032112e-05
13.0283121635,55.5283121635,8,0,-0.5187916384873361,9.053709541060529,-1.745592752185366,-8.903100876007897e-06,2.938690384218356e-05,-1.396474201748293e-05,3.06204348020854e-05,3.032797250904154e-05
14.4716878365,55.5283121635,8,0,-0.3612730211985324,9.683784010215744,-1.752351774985165,-8.903100876007897e-06,3.127712724964921e-05,-1.401881419988132e-05,3.246480609280975e-05,3.227663445896302e-05
13.0283121635,56.97168783650001,8,0,-0.5368156992867443,9.049203525860676,-1.50931482625216,-8.957173058406123e-06,2.938690384218356e-05,-1.207451861001728e-05,3.031500365647529e-05,3.055648529431912e-05
14.4716878365,56.97168783650001,8,0,-0.3792970819979407,9.679277995015891,-1.516073849051891,-8.957173058406123e-06,3.127712724964921e-05,-1.212859079241513e-05,3.217129330789533e-05,3.24511505413567e-05
15.5283121635,55.5283121635,8,0,-0.6696061112062361,10.0434844925521,-1.89315336965235,-1.017752714990163e-05,3.26748352651317e-05,-1.51452269572188e-05,3.39736560605579e-05,3.370742643674589e-05
16.9716878365,55.5283121635,8,0,-0.5089072857777506,10.68627979426604,-1.896226405195803,-1.017752714990163e-05,3.460322117027352e-05,-1.516981124156643e-05,3.585305953683016e-05,3.566776086535536e-05
15.5283121635,56.97168783650001,8,0,-0.6778008726556259,10.04143580218975,-1.652105131509716,-1.02021114342498e-05,3.26748352651317e-05,-1.321684105207773e-05,3.367025059784223e-05,3.384348753481994e-05
16.9716878365,56.97168783650001,8,0,-0.5171020472271946,10.68423110390348,-1.655178167053143,-1.02021114342498e-05,3.460322117027287e-05,-1.324142533642514e-05,3.556106200474781e-05,3.575275769534334e-05
18.0283121635,55.5283121635,8,0,-0.8298477092131615,11.04967684862683,-1.993077299411873,-1.149525414838358e-05,3.602284408297639e-05,-1.594461839529498e-05,3.73247232985492e-05,3.710074086147701e-05
19.4716878365,55.5283121635,8,0,-0.6673397075367622,11.69970885533243,-1.992315476555338,-1.149525414838358e-05,3.797294010309319e-05,-1.59385238124427e-05,3.922508348950682e-05,3.905538058866812e-05
18.0283121635,56.97168783650001,8,0,-0.8278161815957352,11.05018473053119,-1.74931529689726,-1.14891595655313e-05,3.602284408297639e-05,-1.399452237517808e-05,3.703192426547738e-05,3.71493921913903e-05
19.4716878365,56.97168783650001,8,0,-0.6653081799193541,11.70021673723672,-1.748553474040725,-1.14891595655313e-05,3.797294010309297e-05,-1.39884277923258e-05,3.894293798930204e-05,3.905579843383277e-05
20.5283121635,55.5283121635,8,0,-0.996032091015679,12.0642906400277,-2.046032092895751,-1.283873520327233e-05,3.940255572090117e-05,-1.636825674316601e-05,4.065467183960094e-05,4.047932458312136e-05
21.9716878365,55.5283121635,8,0,-0.8330582174162364,12.71618613442547,-2.041295027455729,-1.283873520327233e-05,4.135824220409447e-05,-1.633036021964583e-05,4.256166609036698e-05,4.241497219607442e-05
20.5283121635,56.97168783650001,8,0,-0.9833999165089899,12.06744868365437,-1.801571282496412,-1.280083867975226e-05,3.940255572090117e-05,-1.441257025997129e-05,4.037906270977791e-05,4.044543989528237e-05
21.9716878365,56.97168783650001,8,0,-0.8204260429095744,12.71934417805203,-1.796834217056471,-1.280083867975226e-05,4.135824220409415e-05,-1.437467373645177e-05,4.229582727145746e-05,4.233560472998589e-05
23.0283121635,55.5283121635,8,0,-1.1645808978323,13.07951671142229,-2.052959611939119,-1.419027224220119e-05,4.278611819481717e-05,-1.642367689551295e-05,4.39460520488134e-05,4.382082009353012e-05
24.4716878365,55.5283121635,8,0,-1.002468958621296,13.72796446826631,-2.044141987561705,-1.419027224220119e-05,4.473146146534923e-05,-1.635313590049364e-05,4.584507644235693e-05,4.572602036430324e-05
23.0283121635,56.97168783650001,8,0,-1.141067232826009,13.08539512767386,-1.809791703122625,-1.411973124718232e-05,4.278611819481717e-05,-1.4478333624981e-05,4.369259505692096e-05,4.370917595071781e-05
24.4716878365,56.97168783650001,8,0,-0.9789552936150043,13.73384288451788,-1.800974078745171,-1.411973124718232e-05,4.473146146534923e-05,-1.440779262996137e-05,4.560044949373666e-05,4.557167747902783e-05
25.5283121635,55.5283121635,8,0,-1.331801513044552,14.08767660470451,-2.015193873478402,-1.553190612550617e-05,4.614600634549005e-05,-1.612155098782721e-05,4.718207674932584e-05,4.710570438041446e-05
26.9716878365,55.5283121635,8,0,-1.171862745397699,14.72743167529192,-2.002253636213742,-1.553190612550617e-05,4.806527155725229e-05,-1.601802908970994e-05,4.90583671233991e-05,4.896987094020816e-05
25.5283121635,56.97168783650001,8,0,-1.297294213672127,14.09630342954761,-1.775285722008149,-1.542838422738889e-05,4.614600634549005e-05,-1.420228577606519e-05,4.69543427672149e-05,4.692118132834294e-05
26.9716878365,56.97168783650001,8,0,-1.137355446025274,14.73605850013502,-1.762345484743449,-1.542838422738889e-05,4.806527155725229e-05,-1.409876387794759e-05,4.883851234484311e-05,4.874559288152828e-05
28.0283121635,55.5283121635,8,0,-1.493924250134433,15.08123635799978,-1.93457818287648,-1.684554668683001e-05,4.945509574570683e-05,-1.547662546301184e-05,5.034629741946733e-05,5.03158293043757e-05
29.4716878365,55.5283121635,8,0,-1.337440493063981,15.70717138628159,-1.917561481092742,-1.684554668683001e-05,5.133290083055226e-05,-1.534049184874194e-05,5.218516886901314e-05,5.21288893805163e-05
28.0283121635,56.97168783650001,8,0,-1.448546378711113,15.09258082585561,-1.699852547270897,-1.670941307256005e-05,4.945509574570683e-05,-1.359882037816717e-05,5.014661127287222e-05,5.006362285407538e-05
29.4716878365,56.97168783650001,8,0,-1.292062621640707,15.71851585413724,-1.682835845487118,-1.670941307256005e-05,5.133290083055172e-05,-1.346268676389695e-05,5.199243164680258e-05,5.184013615194041e-05
30.5283121635,55.5283121635,8,0,-1.647185317726119,16.05288154887926,-1.813560645997243,-1.811329825582699e-05,5.268696921059452e-05,-1.450848516797794e-05,5.342260036200416e-05,5.343391994854479e-05
31.9716878365,55.5283121635,8,0,-1.495387107183451,16.66007439104993,-1.792619958673332,-1.811329825582699e-05,5.450854773710653e-05,-1.434095966938666e-05,5.520977017852383e-05,5.518626968984008e-05
30.5283121635,56.97168783650001,8,0,-1.591343484862358,16.0668420070952,-1.585863330183241,-1.79457727572357e-05,5.268696921059452e-05,-1.268690664146593e-05,5.325214584527912e-05,5.311970930899484e-05
31.9716878365,56.97168783650001,8,0,-1.43954527431969,16.67403484926587,-1.564922642859344,-1.79457727572357e-05,5.450854773710653e-05,-1.251938114287475e-05,5.50453761966081e-05,5.483905488835244e-05
33.0283121635,55.5283121635,8,0,-1.787940457885831,16.99563908038609,-1.655253494401316,-1.931792072954353e-05,5.581639742354414e-05,-1.324202795521053e-05,5.639539499710065e-05,5.644355352223127e-05
34.4716878365,55.5283121635,8,0,-1.641979352414899,17.57948350226982,-1.630656856678095,-1.931792072954353e-05,5.756793068919532e-05,-1.304525485342476e-05,5.811735301945794e-05,5.812616709070964e-05
33.0283121635,56.97168783650001,8,0,-1.722349423957261,17.0120368388683,-1.436311836194919,-1.912114762775787e-05,5.581639742354436e-05,-1.149049468955935e-05,5.625431008179829e-05,5.607360888819199e-05
34.4716878365,56.97168783650001,8,0,-1.576388318486357,17.59588126075192,-1.411715198471752,-1.912114762775787e-05,5.756793068919521e-05,-1.129372158777402e-05,5.798149674887245e-05,5.772712756122682e-05
35.5283121635,55.5283121635,8,0,-1.912793115563784,17.90302807735033,-1.463448379038457,-2.044336043168437e-05,5.881992433997207e-05,-1.170758703230765e-05,5.924990918929171e-05,5.9329373371842e-05
36.9716878365,55.5283121635,8,0,-1.773711698966197,18.45935374374067,-1.43557902559308,-2.044336043168437e-05,6.048890133914311e-05,-1.148463220474464e-05,6.08943001908826e-05,6.093398049554298e-05
35.5283121635,56.97168783650001,8,0,-1.8384748397095,17.9216076463139,-1.254826254142049,-2.022040560412152e-05,5.881992433997207e-05,-1.003861003313639e-05,5.913739060105887e-05,5.891059902132426e-05
36.9716878365,56.97168783650001,8,0,-1.699393423111913,18.47793331270424,-1.226956900696706,-2.022040560412152e-05,6.048890133914311e-05,-9.815655205573648e-06,6.078624448015213e-05,6.049038450672086e-05
38.0283121635,55.5283121635,8,0,-2.018722003213191,18.76922164287552,-1.24258601932741,-2.147528772458262e-05,6.167648685977221e-05,-9.940688154619283e-06,6.19725319851306e-05,6.207740358667039e-05
39.4716878365,55.5283121635,8,0,-1.887424754741438,19.29441063676253,-1.211932959992701,-2.147528772458262e-05,6.325205384143323e-05,-9.695463679941605e-06,6.352851798085896e-05,6.359668644260972e-05
38.0283121635,56.97168783650001,8,0,-1.936980511654109,18.78965701576536,-1.045640146619768,-2.123006324990543e-05,6.167648685977242e-05,-8.365121172958147e-06,6.188695894596366e-05,6.161732247684052e-05
39.4716878365,56.97168783650001,8,0,-1.805683263182439,19.31484600965204,-1.014987087285147,-2.123006324990543e-05,6.325205384143248e-05,-8.119896698281174e-06,6.344671383164225e-05,6.311638878292028e-05
40.5283121635,55.5283121635,8,0,-2.103195380324792,19.58920264754474,-0.9976837084068295,-2.240158733507512e-05,6.436800477640299e-05,-7.981469667254636e-06,6.455116131555182e-05,6.46753864017752e-05
41.97168783650001,55.5283121635,8,0,-1.980423074361166,20.08029187139924,-0.9648246302267399,-2.240158733507512e-05,6.58412724479665e-05,-7.71859704181392e-06,6.600973712333149e-05,6.610316664052373e-05
40.5283121635,56.97168783650001,8,0,-2.015571171844428,19.61110869966483,-0.8135252494615266,-2.213871470963403e-05,6.436800477640299e-05,-6.508201995692213e-06,6.449024073376832e-05,6.418207605715054e-05
41.97168783650001,56.97168783650001,8,0,-1.892798865880851,20.10219792351914,-0.7806661712813625,-2.213871470963403e-05,6.58412724479659e-05,-6.2453293702509e-06,6.59519655962294e-05,6.559452152937123e-05
43.0283121635,55.5283121635,8,0,-2.16426259820314,20.35889954618588,-0.7342278528580921,-2.321275995119875e-05,6.687988862635733e-05,-5.873822822864737e-06,6.697552686213461e-05,6.711309622233139e-05
44.4716878365,55.5283121635,8,0,-2.050572223412774,20.81366104534735,-0.6998062853648708,-2.321275995119875e-05,6.824417312384173e-05,-5.598450282918966e-06,6.83297689827701e-05,6.844449491326548e-05
43.0283121635,56.97168783650001,8,0,-2.072471751554423,20.38184725784806,-0.563692290672489,-2.29373874112526e-05,6.687988862635733e-05,-4.509538325379913e-06,6.69364566304438e-05,6.659508726445601e-05
44.4716878365,56.97168783650001,8,0,-1.958781376764049,20.83660875700956,-0.5292707231792338,-2.29373874112526e-05,6.824417312384183e-05,-4.234165785433871e-06,6.829330176701011e-05,6.791623821691568e-05
45.52831216350001,55.5283121635,8,0,-2.200616863443717,21.07529177841369,-0.4580409498913064,-2.390220738575084e-05,6.920142718167877e-05,-3.664327599130451e-06,6.923746793634995e-05,6.938260323295387e-05
46.97168783650001,55.5283121635,8,0,-2.096368344744731,21.49228585320963,-0.4227398730095557,-2.390220738575084e-05,7.045240940606659e-05,-3.381918984076446e-06,7.048270390933498e-05,7.061416413452049e-05
45.52831216350001,56.97168783650001,8,0,-2.10648065842566,21.09882582966814,-0.3016681718428019,-2.361979877069662e-05,6.920142718167856e-05,-2.413345374742415e-06,6.921711123422157e-05,6.884875195821555e-05
46.97168783650001,56.97168783650001,8,0,-2.002232139726657,21.51581990446415,-0.2663670949610241,-2.361979877069662e-05,7.045240940606659e-05,-2.130936759688193e-06,7.04644754274939e-05,7.007527592585154e-05
48.0283121635,55.5283121635,8,0,-2.211626329666038,21.73647805825305,-0.1751333823554646,-2.446638670153376e-05,7.132603085014256e-05,-1.401067058843717e-06,7.133115360407005e-05,7.147847181787292e-05
49.47168783650001,55.5283121635,8,0,-2.116976667373523,22.11507670742311,-0.1396474702740913,-2.446638670153376e-05,7.246182679765276e-05,-1.117179762192731e-06,7.246504580151153e-05,7.260824342069767e-05
48.0283121635,56.97168783650001,8,0,-2.116997230782196,21.76013533297401,-0.03315888891664964,-2.418249940488223e-05,7.132603085014256e-05,-2.652711113331971e-07,7.132621504475485e-05,7.093781752566503e-05
49.47168783650001,56.97168783650001,8,0,-2.022347568489625,22.13873398214429,0.002327023164764262,-2.418249940488223e-05,7.246182679765341e-05,1.86161853181141e-08,7.246182769414254e-05,7.206780103246143e-05
50.5283121635,55.5283121635,8,0,-2.197333336607111,22.34170442744497,0.1084495522246152,-2.490483021909873e-05,7.325132083710957e-05,8.675964177969216e-07,7.325323795803033e-05,7.33978871903943e-05
51.97168783650001,55.5283121635,8,0,-2.112238179886332,22.68208505432808,0.1434409969281451,-2.490483021909873e-05,7.427246271775892e-05,1.147527975425161e-06,7.427578196641389e-05,7.442546248635266e-05
50.5283121635,56.97168783650001,8,0,-2.104022817397682,22.36503205724732,0.2360922873057567,-2.462489866147043e-05,7.325132083710957e-05,1.888738298446054e-06,7.32604318355143e-05,7.28595040090127e-05
51.97168783650001,56.97168783650001,8,0,-2.018927660676902,22.70541268413044,0.2710837320093205,-2.462489866147043e-05,7.427246271775892e-05,2.168669856074563e-06,7.42843502030008e-05,7.389249325874985e-05
53.0283121635,55.5283121635,8,0,-2.158423861737165,22.89135215745604,0.3867755806832737,-2.522003808352375e-05,7.497906599324903e-05,3.09420464546619e-06,7.500294799567825e-05,7.514070941053633e-05
54.4716878365,55.5283121635,8,0,-2.082646014331704,23.19446354707788,0.4206331834132526,-2.522003808352375e-05,7.588840016211457e-05,3.365065467306021e-06,7.591639122744189e-05,7.606722505148815e-05
53.0283121635,56.97168783650001,8,0,-2.068136921123762,22.91392389260939,0.5004423517914933,-2.494917726168354e-05,7.497906599324903e-05,4.003538814331947e-06,7.501914949658859e-05,7.46135614424306e-05
54.4716878365,56.97168783650001,8,0,-1.992359073718301,23.21703528223123,0.5342999545215128,-2.494917726168354e-05,7.588840016211457e-05,4.274399636172103e-06,7.59336766673336e-05,7.555056710631444e-05
55.5283121635,55.5283121635,8,0,-2.096171109397672,23.38688839152365,0.6541596439895063,-2.541725826329147e-05,7.651497974039381e-05,5.23327715191605e-06,7.658210562408807e-05,7.670945856843474e-05
56.97168783650001,55.5283121635,8,0,-2.029295019893461,23.6543927495405,0.6863044880332502,-2.541725826329147e-05,7.731749281444434e-05,5.490435904266001e-06,7.739079661941674e-05,7.753755752617932e-05
55.5283121635,56.97168783650001,8,0,-2.010451525280931,23.40831828755284,0.7544737782457748,-2.516009951094125e-05,7.651497974039381e-05,6.035790225966198e-06,7.660447739458662e-05,7.620226632446506e-05
56.97168783650001,56.97168783650001,8,0,-1.943575435776738,23.67582264556961,0.7866186222895322,-2.516009951094125e-05,7.731749281444412e-05,6.292948978316257e-06,7.741401133777332e-05,7.704573603589728e-05
58.0283121635,55.5283121635,8,0,-2.012358708582734,23.83078482506043,0.905277082120261,-2.550417572751309e-05,7.786839840705955e-05,7.242216656962088e-06,7.799508940828926e-05,7.810923916139375e-05
59.47168783650001,55.5283121635,8,0,-1.953809625648312,24.06498115679811,0.9352060591579403,-2.550417572751309e-05,7.85709874022726e-05,7.481648473263523e-06,7.870527240445063e-05,7.884300347687552e-05
58.0283121635,56.97168783650001,8,0,-1.932548103148831,23.8507374764189,0.9931007065218389,-2.526474391121138e-05,7.786839840705955e-05,7.944805652174711e-06,7.802117803003356e-05,7.763036432974325e-05
59.47168783650001,56.97168783650001,8,0,-1.87399902021441,24.08493380815659,1.023029683559572,-2.526474391121138e-05,7.85709874022726e-05,8.184237468476579e-06,7.873200623902387e-05,7.838412882070847e-05
60.5283121635,55.5283121635,8,0,-1.909190221368015,24.2264117097818,1.135250388840218,-2.549053807620309e-05,7.905186964839617e-05,9.082003110721742e-06,7.92487460667765e-05,7.934761599910846e-05
61.9716878365,55.5283121635,8,0,-1.858256410225489,24.43014695435191,1.162545645310652,-2.549053807620309e-05,7.966307538210648e-05,9.30036516248522e-06,7.986831866878366e-05,7.999247873256119e-05
60.5283121635,56.97168783650001,8,0,-1.83640287078019,24.24460854742876,1.211651105554088,-2.527217602443961e-05,7.905186964839617e-05,9.693208844432704e-06,7.92765455131985e-05,7.89049703538472e-05
61.9716878365,56.97168783650001,8,0,-1.78546905963765,24.44834379199892,1.238946362024502,-2.527217602443961e-05,7.966307538210664e-05,9.91157089619602e-06,7.989660295223302e-05,7.957417139416962e-05
63.0283121635,55.5283121635,8,0,-1.789192490353893,24.57791595154747,1.339706294286019,-2.538774873037043e-05,8.008068503723501e-05,1.071765035428815e-05,8.035226630445664e-05,8.043445827436444e-05
64.47168783650001,55.5283121635,8,0,-1.745048735197156,24.75449097217442,1.364038534015032,-2.538774873037043e-05,8.061041009911586e-05,1.091230827212025e-05,8.089052021243044e-05,8.099710610507554e-05
63.0283121635,56.97168783650001,8,0,-1.724306517743337,24.59413744470011,1.405921927021057,-2.519309081253876e-05,8.008068503723501e-05,1.124737541616846e-05,8.038024801203689e-05,8.003544074200843e-05
64.47168783650001,56.97168783650001,8,0,-1.680162762586591,24.77071246532709,1.430254166750057,-2.519309081253876e-05,8.061041009911596e-05,1.144203333400045e-05,8.091885822396226e-05,8.062645099600947e-05
65.5283121635,55.5283121635,8,0,-1.655120640762907,24.89009292451756,1.514802383685393,-2.520846039005535e-05,8.097239387106652e-05,1.211841906948314e-05,8.131704391918386e-05,8.138177226638845e-05
66.97168783650001,55.5283121635,8,0,-1.616851224542384,25.04317058939965,1.535928301881007,-2.520846039005535e-05,8.143162686571279e-05,1.228742641504806e-05,8.178440936479697e-05,8.18700519323813e-05
65.5283121635,56.97168783650001,8,0,-1.598784858908034,24.90417686998128,1.572206508016177,-2.503945304449073e-05,8.097239387106652e-05,1.257765206412942e-05,8.134415539937044e-05,8.103323571966825e-05
66.97168783650001,56.97168783650001,8,0,-1.560515442687533,25.05725453486328,1.593332426211785,-2.503945304449073e-05,8.143162686571252e-05,1.274665940969428e-05,8.181177534075146e-05,8.15535819984931e-05
68.0283121635,55.5283121635,8,0,-1.509872195054748,25.16826172274759,1.657224997900127,-2.496620040237326e-05,8.174633526883608e-05,1.325779998320102e-05,8.215654055955264e-05,8.220354576296015e-05
69.47168783650001,55.5283121635,8,0,-1.47649166569709,25.30178384017822,1.674979618816497,-2.496620040237326e-05,8.214690162112797e-05,1.339983695053198e-05,8.256435420230584e-05,8.262638818615818e-05
68.0283121635,56.97168783650001,8,0,-1.462526539277872,25.18009813669181,1.707295791936642,-2.482416343504263e-05,8.174633526883608e-05,1.365836633549313e-05,8.21821762002946e-05,8.191179204167668e-05
69.47168783650001,56.97168783650001,8,0,-1.429146009920227,25.31362025412239,1.72505041285293,-2.482416343504263e-05,8.214690162112781e-05,1.380040330282344e-05,8.259016448699708e-05,8.237009380065243e-05
70.5283121635,55.5283121635,8,0,-1.35641674514364,25.41815286553407,1.764162535792339,-2.46750558768869e-05,8.242322256582393e-05,1.411330028633871e-05,8.288618034681789e-05,8.29156278242816e-05
71.97168783650001,55.5283121635,8,0,-1.326887036156512,25.53627170148258,1.778447651004504,-2.46750558768869e-05,8.277757907366947e-05,1.422758120803603e-05,8.324649391833061e-05,8.328300278803323e-05
70.5283121635,56.97168783650001,8,0,-1.318323104577913,25.4276762756755,1.80845709927299,-2.456077495518972e-05,8.242322256582393e-05,1.446765679418392e-05,8.291012898755138e-05,8.268642597265229e-05
71.97168783650001,56.97168783650001,8,0,-1.288793395590812,25.54579511162391,1.822742214485141,-2.456077495518972e-05,8.277757907366914e-05,1.458193771588113e-05,8.327055478873911e-05,8.309235977968549e-05
73.0283121635,55.5283121635,8,0,-1.197746073834828,25.64581603145082,1.833260234441249,-2.434944026143211e-05,8.30248081597105e-05,1.466608187552999e-05,8.352329823370968e-05,8.353566493630581e-05
74.47168783650001,55.5283121635,8,0,-1.170988914138309,25.7528446702369,1.844030444272345,-2.434944026143211e-05,8.334589407606874e-05,1.475224355417876e-05,8.384874145858061e-05,8.385857579881376e-05
73.0283121635,56.97168783650001,8,0,-1.169025514285158,25.65299617133824,1.873395973986023,-2.42632785827831e-05,8.30248081597105e-05,1.498716779188818e-05,8.354567214388858e-05,8.337428392876856e-05
74.47168783650001,56.97168783650001,8,0,-1.142268354588619,25.7600248101244,1.884166183817153,-2.42632785827831e-05,8.334589407606895e-05,1.507332947053722e-05,8.387117821779811e-05,8.373858122094364e-05
75.5283121635,55.5283121635,8,0,-1.036847739148036,25.85755340151387,1.862563853084703,-2.400395548648481e-05,8.357364907616281e-05,1.490051082467762e-05,8.408716310426018e-05,8.408310728584312e-05
76.97168783650001,55.5283121635,8,0,-1.011751712847648,25.95793750671542,1.869811876358519,-2.400395548648481e-05,8.387480139176746e-05,1.495849501086815e-05,8.439086978440286e-05,8.437362785382443e-05
75.5283121635,56.97168783650001,8,0,-1.017519677084553,25.86238541702974,1.900207892535183,-2.394597130029436e-05,8.357364907616281e-05,1.520166314028146e-05,8.410831219813417e-05,8.399435075843447e-05
76.97168783650001,56.97168783650001,8,0,-0.9924236507841693,25.96276952223128,1.907455915809033,-2.394597130029436e-05,8.38748013917674e-05,1.525964732647226e-05,8.441204093622315e-05,8.432882883774241e-05
78.0283121635,55.5283121635,8,0,-0.876703190404438,26.05988190240851,1.850460359742186,-2.365335573122101e-05,8.409298464003077e-05,1.480368287793749e-05,8.459909104518941e-05,8.457928327932761e-05
79.47168783650001,55.5283121635,8,0,-0.8521252400680153,26.1581937037542,1.854203301161814,-2.365335573122101e-05,8.438792004406784e-05,1.483362640929451e-05,8.489469210683857e-05,8.485062378269707e-05
78.0283121635,56.97168783650001,8,0,-0.8667220132855418,26.06237719668816,1.887327285246868,-2.362341219986426e-05,8.409298464003056e-05,1.509861828197494e-05,8.461950471295228e-05,8.456750994569202e-05
79.47168783650001,56.97168783650001,8,0,-0.8421440629490871,26.16068899803398,1.891070226666455,-2.362341219986426e-05,8.438792004406801e-05,1.512856181333164e-05,8.491509099218497e-05,8.488512078013693e-05
80.5283121635,55.5283121635,8,0,-0.72030970121099,26.2595253234835,1.795623771995339,-2.331261130266197e-05,8.4606728796116e-05,1.436499017596271e-05,8.508265580901524e-05,8.50475077033503e-05
81.97168783650001,55.5283121635,8,0,-0.6950712659005944,26.36047906472509,1.795891951185748,-2.331261130266197e-05,8.490959001984075e-05,1.436713560948598e-05,8.538433790175502e-05,8.531406407442173e-05
80.5283121635,56.97168783650001,8,0,-0.7195945567031057,26.25970410961047,1.833481424960926,-2.331046586913832e-05,8.4606728796116e-05,1.466785139968741e-05,8.510285295093587e-05,8.511661671545612e-05
81.97168783650001,56.97168783650001,8,0,-0.6943561213926959,26.36065785085211,1.833749604151396,-2.331046586913832e-05,8.490959001984091e-05,1.466999683321117e-05,8.540448242072909e-05,8.543146453807581e-05
83.02831216350002,55.5283121635,8,0,-0.5707239250647538,26.46343514874489,1.696973888779847,-2.299706467920313e-05,8.513957161603546e-05,1.357579111023878e-05,8.556399200649467e-05,8.551311683369617e-05
84.47168783650002,55.5283121635,8,0,-0.5436022432388237,26.57192187604861,1.69380368347355,-2.299706467920313e-05,8.546503179794661e-05,1.35504294677884e-05,8.588661503988705e-05,8.57903827143724e-05
83.02831216350002,56.97168783650001,8,0,-0.5791778058815371,26.4613216785407,1.737656411518782,-2.302242632165347e-05,8.513957161603546e-05,1.390125129215026e-05,8.558439814612345e-05,8.566647087293694e-05
84.47168783650002,56.97168783650001,8,0,-0.552056124055607,26.56980840584442,1.734486206212478,-2.302242632165347e-05,8.546503179794661e-05,1.387588964969983e-05,8.590692443805647e-05,8.599367229728566e-05
85.5283121635,55.5283121635,8,0,-0.4311237392493261,26.67883711352328,1.553654966146799,-2.272266565641647e-05,8.571717775467396e-05,1.242923972917439e-05,8.607217162228171e-05,8.600315640895952e-05
86.97168783650002,55.5283121635,8,0,-0.4008391240143565,26.79997557446316,1.547086948187972,-2.272266565641647e-05,8.608059313749359e-05,1.237669558550378e-05,8.643143336016119e-05,8.63071990724342e-05
85.5283121635,56.97168783650001,8,0,-0.4486384538063044,26.67445843488404,1.599081888999321,-2.27752098000874e-05,8.571717775467396e-05,1.279265511199457e-05,8.60929808790612e-05,8.624340296132495e-05
86.97168783650002,56.97168783650001,8,0,-0.4183538385713259,26.79559689582395,1.59251387104044,-2.27752098000874e-05,8.60805931374937e-05,1.274011096832352e-05,8.645209007021548e-05,8.659847839936849e-05
88.02831216350002,55.5283121635,8,0,-0.3048841766654391,26.91329897360248,1.365040622784153,-2.250626854421138e-05,8.636646405686026e-05,1.092032498227323e-05,8.663961567081284e-05,8.654504541325637e-05
89.47168783650001,55.5283121635,8,0,-0.2700843022212691,27.05249847137916,1.355124103273302,-2.250626854421138e-05,8.67840625501903e-05,1.084099282618641e-05,8.705224600890371e-05,8.689081103732992e-05
88.02831216350002,56.97168783650001,8,0,-0.3313282286943764,26.90668796059524,1.41724043445032,-2.258560070029819e-05,8.636646405686026e-05,1.133792347560256e-05,8.666063553856138e-05,8.687376885643717e-05
89.47168783650001,56.97168783650001,8,0,-0.296528354250202,27.04588745837194,1.407323914939503,-2.258560070029819e-05,8.678406255019036e-05,1.125859131951602e-05,8.707304086664729e-05,8.727080093397612e-05
90.52831216350002,55.5283121635,8,0,-0.1956625165304411,27.17481367941203,1.130770540591318,-2.236597099642703e-05,8.711593378734283e-05,9.046164324730548e-06,8.730248034651263e-05,8.716254794841505e-05
91.97168783650001,55.5283121635,8,0,-0.1549049675153666,27.33784387547232,1.117575505600935,-2.236597099642703e-05,8.760502437552372e-05,8.940604044807478e-06,8.778644210038049e-05,8.755918137174948e-05
90.52831216350002,56.97168783650001,8,0,-0.2308492765046166,27.16601698941848,1.191906864113883,-2.247153127634956e-05,8.711593378734283e-05,9.535254912911061e-06,8.732295939877179e-05,8.757961737668681e-05
91.97168783650001,56.97168783650001,8,0,-0.1900917274895422,27.32904718547878,1.178711829123567,-2.247153127634956e-05,8.760502437552372e-05,9.429694632988534e-06,8.780660363903693e-05,8.802628751088199e-05
93.02831216350002,55.5283121635,8,0,-0.107486842801582,27.4718909370382,0.8508238994072966,-2.232147064659562e-05,8.79960404727635e-05,6.806591195258373e-06,8.81009324204402e-05,8.78649220448547e-05
94.47168783650002,55.5283121635,8,0,-0.05922140479317939,27.66495268907181,0.8344612054917246,-2.232147064659562e-05,8.857522572886434e-05,6.675689643933797e-06,8.867559962187415e-05,8.830358767441957e-05
93.02831216350002,56.97168783650001,8,0,-0.1511206932430804,27.46098247442783,0.9232220564199415,-2.245237219792012e-05,8.79960404727635e-05,7.385776451359531e-06,8.811937598722538e-05,8.836723077593333e-05
94.47168783650002,56.97168783650001,8,0,-0.1028552552346458,27.65404422646156,0.9068593625043966,-2.245237219792012e-05,8.857522572886472e-05,7.254874900035173e-06,8.869361329271334e-05,8.885203496439642e-05
95.5283121635,55.5283121635,8,0,-0.04484141489707305,27.81364884757988,0.5256339093885219,-2.239441160573454e-05,8.903954944417328e-05,4.205071275108175e-06,8.907920596742448e-05,8.861895117244729e-05
96.97168783650002,55.5283121635,8,0,0.01260614554762274,28.04343908935866,0.5062844930142277,-2.239441160573454e-05,8.972892016950962e-05,4.050275944113822e-06,8.976548567915386e-05,8.904187464238344e-05
95.5283121635,56.97168783650001,8,0,-0.09643985856189374,27.80074923666368,0.6118052500555171,-2.2549206936729e-05,8.903954944417328e-05,4.894442000444137e-06,8.909319295801366e-05,8.919782003072004e-05
96.97168783650002,56.97168783650001,8,0,-0.0389922981172024,28.03053947844244,0.5924558336812094,-2.2549206936729e-05,8.972892016950956e-05,4.739646669449675e-06,8.977891711092935e-05,8.965771821199179e-05
98.02831216350002,55.5283121635,8,0,-0.01274089267809941,28.20989579848159,0.1562471466465284,-2.260868749535518e-05,9.028185926928355e-05,1.249977173172227e-06,9.028531924687345e-05,8.927809650648466e-05
99.47168783650002,55.5283121635,8,0,0.05569968972207118,28.48365812808227,0.1342008391344153,-2.260868749535518e-05,9.11031462580856e-05,1.073606713075323e-06,9.110568030764465e-05,8.950054317115911e-05
98.02831216350002,56.97168783650001,8,0,-0.07153104604372551,28.19519826014018,0.2589080202468796,-2.278505795545206e-05,9.028185926928355e-05,2.071264161975037e-06,9.029134430582275e-05,8.991355241313514e-05
99.47168783650002,56.97168783650001,8,0,-0.003090463643518504,28.46896058974101,0.236861712734753,-2.278505795545206e-05,9.110314625808603e-05,1.894893701878024e-06,9.111102761354149e-05,9.015260626773054e-05
0.5283121635,58.0283121635,8,0,-0.03582844177209643,5.059400630777249,-0.2603075427707241,-4.162171518292508e-06,1.621874477190487e-05,-2.082460342165793e-06,1.627180152532522e-05,1.834367647010286e-05
1.9716878365,58.0283121635,8,0,0.0755607812240171,5.504957522761703,-0.2812949317672472,-4.162171518292508e-06,1.755541544785823e-05,-2.250359454137978e-06,1.761355492813329e-05,1.888445090993021e-05
0.5283121635,59.4716878365,8,0,-0.09179481242958176,5.045409038112878,-0.09322370827656752,-4.330070630264964e-06,1.621874477190487e-05,-7.457896662125402e-07,1.622550938552563e-05,1.894807300736588e-05
1.9716878365,59.4716878365,8,0,0.01959441056653177,5.490965930097333,-0.1142110972730771,-4.330070630264964e-06,1.755541544785823e-05,-9.136887781846167e-07,1.756494760689024e-05,1.947000991915676e-05
3.0283121635,58.0283121635,8,0,-0.07982306074871226,5.787341782236054,-0.6156356864104321,-4.885307220184722e-06,1.858335215175434e-05,-4.925085491283457e-06,1.883896032855701e-05,1.95308839569768e-05
4.4716878365,58.0283121635,8,0,0.04281899143250789,6.277909990960935,-0.6339753986165096,-4.885307220184722e-06,2.005505677792898e-05,-5.071803188932077e-06,2.03102917066752e-05,2.075619744544736e-05
3.0283121635,59.4716878365,8,0,-0.1287289599649373,5.775115307431862,-0.4316726081384664,-5.032024917833288e-06,1.858335215175391e-05,-3.453380865107731e-06,1.870893510404922e-05,2.009406597073065e-05
4.4716878365,59.4716878365,8,0,-0.006086907783672046,6.265683516156923,-0.4500123203445439,-5.032024917833288e-06,2.005505677792909e-05,-3.600098562756351e-06,2.01835557981139e-05,2.127708189868296e-05
5.528312163500001,58.0283121635,8,0,-0.1532898885100664,6.578434008587419,-0.9288960956326485,-5.753274850102148e-06,2.117362073828779e-05,-7.431168765061188e-06,2.167691894345569e-05,2.177533471434314e-05
6.9716878365,58.0283121635,8,0,-0.02126747641239835,7.106523656978092,-0.9442211663083133,-5.753274850102148e-06,2.275788968345981e-05,-7.553769330466507e-06,2.324973036238139e-05,2.333435602450122e-05
5.528312163500001,59.4716878365,8,0,-0.1941567436451366,6.568217294803787,-0.7308624774862412,-5.875875415507466e-06,2.117362073828823e-05,-5.846899819889929e-06,2.148597387224771e-05,2.226185873731521e-05
6.9716878365,59.4716878365,8,0,-0.06213433154753156,7.096306943194207,-0.7461875481619331,-5.875875415507466e-06,2.275788968345949e-05,-5.969500385295465e-06,2.30657074607593e-05,2.376930316673763e-05
8.028312163500001,58.0283121635,8,0,-0.2512018321621976,7.421982931325616,-1.198597323314195,-6.741432207979525e-06,2.395130684597173e-05,-9.588778586513557e-06,2.468278625328396e-05,2.453728559624858e-05
9.471687836500001,58.0283121635,8,0,-0.1115178840310014,7.980718723850401,-1.210662058512583,-6.741432207979525e-06,2.562751422354609e-05,-9.685296468100665e-06,2.633648397215542e-05,2.626472899417106e-05
8.028312163500001,59.4716878365,8,0,-0.2833744593581355,7.41393977452636,-0.9890714011173457,-6.837950089567122e-06,2.395130684597086e-05,-7.912571208938766e-06,2.445154489053141e-05,2.493368960801389e-05
9.471687836500001,59.4716878365,8,0,-0.143690511226894,7.972675567051327,-1.001136136315802,-6.837950089567122e-06,2.562751422354576e-05,-8.009089090526417e-06,2.611417111926927e-05,2.660740809593774e-05
10.5283121635,58.0283121635,8,0,-0.3691044853080383,8.308124331688317,-1.423978569803683,-7.827633818336375e-06,2.688128144964904e-05,-1.139182855842947e-05,2.779210890092698e-05,2.756093197618254e-05
11.9716878365,58.0283121635,8,0,-0.2233421198788914,8.891173793404905,-1.432605117303889,-7.827633818336375e-06,2.863042983479881e-05,-1.146084093843112e-05,2.950991234315581e-05,2.937478098218826e-05
10.5283121635,59.4716878365,8,0,-0.3921086119753809,8.302373300021483,-1.205335021660099,-7.896646198338403e-06,2.688128144964904e-05,-9.64268017328079e-06,2.753729983964511e-05,2.786466229680929e-05
11.9716878365,59.4716878365,8,0,-0.2463462465462793,8.885422761737889,-1.213961569160305,-7.896646198338403e-06,2.863042983479826e-05,-9.711692553282438e-06,2.926493573671544e-05,2.962582616384196e-05
13.0283121635,58.0283121635,8,0,-0.5029845051472988,9.227729492704094,-1.604775682687969,-8.991734010634631e-06,2.993112198077094e-05,-1.283820546150376e-05,3.096242585516957e-05,3.071820249375524e-05
14.4716878365,58.0283121635,8,0,-0.3526171182468976,9.829199040305699,-1.609819444569496,-8.991734010634631e-06,3.173553062357575e-05,-1.287855555655597e-05,3.272937520455184e-05,3.257464931348752e-05
13.0283121635,59.4716878365,8,0,-0.5164345368313512,9.224366984783082,-1.379224602337354,-9.032084105686788e-06,2.993112198077094e-05,-1.103379681869883e-05,3.069721078607202e-05,3.093150931381369e-05
14.4716878365,59.4716878365,8,0,-0.36606714993095,9.825836532384686,-1.384268364218813,-9.032084105686788e-06,3.173553062357575e-05,-1.10741469137505e-05,3.247419435361587e-05,3.2737538151242e-05
15.5283121635,58.0283121635,8,0,-0.6491239486415616,10.17227051906571,-1.741075502403614,-1.021501305090557e-05,3.307056481992353e-05,-1.392860401922891e-05,3.416347062612667e-05,3.393975417528607e-05
16.9716878365,58.0283121635,8,0,-0.4955428976737988,10.78659472293677,-1.742408450885701,-1.021501305090557e-05,3.491353743153669e-05,-1.393926760708561e-05,3.596540735664344e-05,3.581284319580526e-05
15.5283121635,59.4716878365,8,0,-0.6526784779272354,10.1713818867443,-1.510703925951956,-1.022567663876259e-05,3.307056481992353e-05,-1.208563140761565e-05,3.389813657696227e-05,3.406669843005066e-05
16.9716878365,59.4716878365,8,0,-0.4990974269594544,10.78570609061542,-1.512036874434016,-1.022567663876259e-05,3.49135374315369e-05,-1.209629499547213e-05,3.570987248900247e-05,3.589200300588443e-05
18.0283121635,58.0283121635,8,0,-0.8039662392163271,11.1336786963904,-1.833250245671483,-1.147963492260457e-05,3.627094481982234e-05,-1.466600196537186e-05,3.737169085998884e-05,3.718373103306905e-05
19.4716878365,58.0283121635,8,0,-0.648505127557216,11.75552314302685,-1.830759342477962,-1.147963492260457e-05,3.813647815973167e-05,-1.46460747398237e-05,3.919474230146935e-05,3.905597723559201e-05
18.0283121635,59.4716878365,8,0,-0.7973238307001473,11.13533929851945,-1.600058578182708,-1.145970769705603e-05,3.627094481982234e-05,-1.280046862546166e-05,3.711425665982161e-05,3.722889516329916e-05
19.4716878365,59.4716878365,8,0,-0.6418627190409913,11.75718374515607,-1.597567674989202,-1.145970769705603e-05,3.813647815973222e-05,-1.278054139991361e-05,3.894660603060483e-05,3.905604788591807e-05
20.5283121635,58.0283121635,8,0,-0.9640124274257333,12.1042222638588,-1.881956387311663,-1.276821757884938e-05,3.950472118628874e-05,-1.50556510984933e-05,4.05672074690731e-05,4.042134127316121e-05
21.9716878365,58.0283121635,8,0,-0.8079644169338671,12.72841430582626,-1.875553139618017,-1.276821757884938e-05,4.137729731219114e-05,-1.500442511694414e-05,4.239755303678968e-05,4.22793389922633e-05
20.5283121635,59.4716878365,8,0,-0.9469371002427511,12.10849109565454,-1.647884371573714,-1.271699159730044e-05,3.950472118628874e-05,-1.318307497258971e-05,4.032387014069025e-05,4.038938730096997e-05
21.9716878365,59.4716878365,8,0,-0.7908890897508396,12.73268313762219,-1.641481123880082,-1.271699159730044e-05,4.137729731219168e-05,-1.313184899104066e-05,4.216285642064217e-05,4.220498560416186e-05
23.0283121635,58.0283121635,8,0,-1.125758786755655,13.07642183474927,-1.888178396392839,-1.406356558541751e-05,4.274515690060217e-05,-1.510542717114271e-05,4.373214166503258e-05,4.363010322142354e-05
24.4716878365,58.0283121635,8,0,-0.9703849728045517,13.69791709055368,-1.877815090571666,-1.406356558541751e-05,4.460964266801541e-05,-1.502252072457333e-05,4.555596069088247e-05,4.546246200559068e-05
23.0283121635,59.4716878365,8,0,-1.09812330456579,13.08333070529673,-1.655117675466034,-1.398065913884791e-05,4.274515690060217e-05,-1.324094140372828e-05,4.350758464975067e-05,4.352571665030159e-05
24.4716878365,59.4716878365,8,0,-0.9427494906146867,13.70482596110114,-1.644754369644957,-1.398065913884791e-05,4.460964266801541e-05,-1.315803495715966e-05,4.533930379460805e-05,4.531842266845041e-05
25.5283121635,58.0283121635,8,0,-1.285679468152021,14.04301323933901,-1.853296502980206,-1.534858488955767e-05,4.596618594040645e-05,-1.482637202384165e-05,4.684973594798428e-05,4.679067990836078e-05
26.9716878365,58.0283121635,8,0,-1.132207853520255,14.65689969786608,-1.838984759572991,-1.534858488955767e-05,4.780784531598764e-05,-1.471187807658393e-05,4.865328682705246e-05,4.85870799182384e-05
25.5283121635,59.4716878365,8,0,-1.247514819066258,14.05255440161045,-1.623089081032503,-1.523409094230039e-05,4.596618594040645e-05,-1.298471264826002e-05,4.664733844539132e-05,4.661866645056602e-05
26.9716878365,59.4716878365,8,0,-1.094043204434492,14.66644086013752,-1.608777337625369,-1.523409094230039e-05,4.780784531598764e-05,-1.287021870100295e-05,4.84580143155095e-05,4.837829250753361e-05
28.0283121635,58.0283121635,8,0,-1.440251635704655,14.99695971484545,-1.779158974579565,-1.660637300613126e-05,4.914247239606916e-05,-1.423327179663652e-05,4.990395572468435e-05,4.988544723905878e-05
29.4716878365,58.0283121635,8,0,-1.289867500995294,15.59849625368289,-1.760986839274533,-1.660637300613126e-05,5.094708201258148e-05,-1.408789471419626e-05,5.167375311279517e-05,5.163625271670035e-05
28.0283121635,59.4716878365,8,0,-1.391792608224497,15.00907447171549,-1.55358277251547,-1.646099592369078e-05,4.914247239606916e-05,-1.242866218012376e-05,4.972593967024297e-05,4.965086885644323e-05
29.4716878365,59.4716878365,8,0,-1.24140847351511,15.61061101055304,-1.535410637210424,-1.646099592369078e-05,5.094708201258181e-05,-1.228328509768339e-05,5.150208587934376e-05,5.136798604135502e-05
30.5283121635,58.0283121635,8,0,-1.586015709854713,15.93150882489438,-1.668142559893386,-1.782045733145058e-05,5.224964080754579e-05,-1.334514047914709e-05,5.287939030616219e-05,5.289792944410046e-05
31.9716878365,58.0283121635,8,0,-1.439845110577454,16.51619122200342,-1.646287233438332,-1.782045733145058e-05,5.400368799887288e-05,-1.317029786750666e-05,5.460245139079931e-05,5.459408888858977e-05
30.5283121635,59.4716878365,8,0,-1.527734839307686,15.94607904253114,-1.448886660977499,-1.76456147198095e-05,5.224964080754579e-05,-1.159109328781999e-05,5.272693431703838e-05,5.260622622463744e-05
31.9716878365,59.4716878365,8,0,-1.381564240030356,16.53076143964046,-1.427031334522405,-1.76456147198095e-05,5.400368799887375e-05,-1.141625067617924e-05,5.445559022299315e-05,5.427204413257041e-05
33.0283121635,58.0283121635,8,0,-1.719660301801118,16.84028469807785,-1.523189112600924,-1.897514072422585e-05,5.526463927529e-05,-1.218551290080739e-05,5.576134022630889e-05,5.581268035617122e-05
34.4716878365,58.0283121635,8,0,-1.578748988312967,17.40392995203045,-1.497923465483908,-1.897514072422585e-05,5.695557503714781e-05,-1.198338772387126e-05,5.742547173274532e-05,5.744577471492591e-05
33.0283121635,59.4716878365,8,0,-1.652285242822354,16.85712846282247,-1.311822142368658,-1.877301554728951e-05,5.526463927528979e-05,-1.049457713894926e-05,5.563468213629092e-05,5.546975498355507e-05
34.4716878365,59.4716878365,8,0,-1.511373929334168,17.42077371677522,-1.286556495251574,-1.877301554728951e-05,5.695557503714802e-05,-1.029245196201259e-05,5.730369264733473e-05,5.707614397342787e-05
35.5283121635,58.0283121635,8,0,-1.838120136483996,17.71740330722891,-1.347811229912563,-2.005590708253191e-05,5.816618669231971e-05,-1.07824898393005e-05,5.853601505372893e-05,5.861539327749477e-05
36.9716878365,58.0283121635,8,0,-1.70341040411337,18.25624223671141,-1.319503293511419,-2.005590708253191e-05,5.978270348076721e-05,-1.055602634809135e-05,6.013011345172963e-05,6.017775625728975e-05
35.5283121635,59.4716878365,8,0,-1.762632306081036,17.73627526482965,-1.145746631356625,-1.982944359132303e-05,5.816618669231971e-05,-9.165973050852998e-06,5.84345574020413e-05,5.822765053714989e-05
36.9716878365,59.4716878365,8,0,-1.627922573710411,18.27511419431215,-1.117438694955522,-1.982944359132303e-05,5.978270348076721e-05,-8.939509559644171e-06,6.003286788775381e-05,5.976723598474845e-05
38.0283121635,58.0283121635,8,0,-1.938675515053285,18.55759749209876,-1.146064396984184,-2.104983964184952e-05,6.093525238675865e-05,-9.168515175873469e-06,6.119078810200163e-05,6.129311952178328e-05
39.4716878365,58.0283121635,8,0,-1.810983399964689,19.06836595245315,-1.115169949574669,-2.104983964184952e-05,6.246755776782181e-05,-8.92135959659735e-06,6.270512772800201e-05,6.277798564961009e-05
38.0283121635,59.4716878365,8,0,-1.856290321961227,18.57819379037157,-0.9545262243514249,-2.080268406257318e-05,6.0935252386758e-05,-7.636209794811399e-06,6.111321448284013e-05,6.086746168639515e-05
39.4716878365,59.4716878365,8,0,-1.728598206872594,19.0889622507261,-0.9236317769418286,-2.080268406257318e-05,6.246755776782159e-05,-7.389054215534629e-06,6.26311548254656e-05,6.233374875561631e-05
40.5283121635,58.0283121635,8,0,-2.019043287786212,19.35633897806767,-0.9224871397247605,-2.194600970337001e-05,6.35555193600455e-05,-7.379897117798084e-06,6.371446921113041e-05,6.383452508239964e-05
41.97168783650001,58.0283121635,8,0,-1.899038207310999,19.83635929996852,-0.8895362344037819,-2.194600970337001e-05,6.499558032574805e-05,-7.116289875230255e-06,6.514095679144261e-05,6.523617836527658e-05
40.5283121635,59.4716878365,8,0,-1.931174206930413,19.37830624828162,-0.742479519011928,-2.168240246080261e-05,6.35555193600455e-05,-5.939836152095423e-06,6.36588739587636e-05,6.337830850574439e-05
41.97168783650001,59.4716878365,8,0,-1.811169126455173,19.85832657018258,-0.7095286136909562,-2.168240246080261e-05,6.499558032574838e-05,-5.67622890952765e-06,6.508840985498023e-05,6.476581174553588e-05
43.0283121635,58.0283121635,8,0,-2.077451454789148,20.10994635612582,-0.6820137733125665,-2.273580174022593e-05,6.601378950343395e-05,-5.456110186500532e-06,6.609756753248699e-05,6.62301421836688e-05
44.4716878365,58.0283121635,8,0,-1.965639934740216,20.55719243632155,-0.6475925538875854,-2.273580174022593e-05,6.735552774402113e-05,-5.180740431100683e-06,6.742994644500972e-05,6.754404855364005e-05
43.0283121635,59.4716878365,8,0,-1.98566153632255,20.13289383574247,-0.5142964932391828,-2.246043198482614e-05,6.601378950343395e-05,-4.114371945913462e-06,6.606159697211938e-05,6.575110263881882e-05
44.4716878365,59.4716878365,8,0,-1.873850016273591,20.58013991593831,-0.4798752738142086,-2.246043198482614e-05,6.735552774402145e-05,-3.839002190513668e-06,6.739653162737759e-05,6.705546417982565e-05
45.52831216350001,58.0283121635,8,0,-2.112691970215833,20.81567042334514,-0.4298664066159651,-2.341315064336677e-05,6.83002989308771e-05,-3.438931252927721e-06,6.833252455932289e-05,6.847258906091198e-05
46.97168783650001,58.0283121635,8,0,-2.009406583254166,21.2288119711918,-0.394595835600514,-2.341315064336677e-05,6.95397235744171e-05,-3.156766684804112e-06,6.956651753942323e-05,6.969550253380125e-05
45.52831216350001,59.4716878365,8,0,-2.018637114174449,20.83918413735548,-0.2749383261734656,-2.313098607524262e-05,6.83002989308771e-05,-2.199506609387725e-06,6.831352506458496e-05,6.797874418825096e-05
46.97168783650001,59.4716878365,8,0,-1.915351727212783,21.25232568520215,-0.2396677551579941,-2.313098607524262e-05,6.95397235744171e-05,-1.917342041263953e-06,6.954963988773771e-05,6.919683053998193e-05
48.0283121635,58.0283121635,8,0,-2.124148777506424,21.47175104339577,-0.1714339918345849,-2.397467692273717e-05,7.040892236087159e-05,-1.371471934676679e-06,7.041390425392517e-05,7.05567422415422e-05
49.47168783650001,58.0283121635,8,0,-2.029542893920424,21.85017457773977,-0.1359472063910651,-2.397467692273717e-05,7.154419296390358e-05,-1.087577651128521e-06,7.154728865278547e-05,7.1686779407797e-05
48.0283121635,59.4716878365,8,0,-2.029517349656875,21.49540890035816,-0.02952516645553889,-2.369078263918852e-05,7.040892236087159e-05,-2.362013316443111e-07,7.04090705839218e-05,7.005627949597349e-05
49.47168783650001,59.4716878365,8,0,-1.934911466070854,21.87383243470224,0.005961618988021503,-2.369078263918852e-05,7.154419296390385e-05,4.769295190417203e-08,7.154419893497043e-05,7.118625135862333e-05
50.5283121635,58.0283121635,8,0,-2.111800354298108,22.0774424752537,0.08785345269804722,-2.44197151139569e-05,7.233725620425032e-05,7.028276215843778e-07,7.233853249510373e-05,7.247985327427624e-05
51.97168783650001,58.0283121635,8,0,-2.025848815689634,22.4212486296876,0.1229334925830069,-2.44197151139569e-05,7.3368674667552e-05,9.834679406640554e-07,7.337114731470506e-05,7.351653420548998e-05
50.5283121635,59.4716878365,8,0,-2.01825358127153,22.10082916851034,0.2167807606107987,-2.413907479487717e-05,7.233725620425032e-05,1.73424608488639e-06,7.234504922075337e-05,7.198101135918292e-05
51.97168783650001,59.4716878365,8,0,-1.932302042663056,22.44463532294424,0.251860800495711,-2.413907479487717e-05,7.3368674667552e-05,2.014886403965688e-06,7.337908238888853e-05,7.302236419797766e-05
53.0283121635,58.0283121635,8,0,-2.076198013234388,22.63300674543873,0.34264760123283,-2.475023903870103e-05,7.408657999599146e-05,2.74118080986264e-06,7.410558260025841e-05,7.424160759786248e-05
54.4716878365,58.0283121635,8,0,-1.998703399142443,22.94298520180652,0.376728665100139,-2.475023903870103e-05,7.50165153650948e-05,3.013829320801112e-06,7.503927118170033e-05,7.518586401391096e-05
53.0283121635,59.4716878365,8,0,-1.985315176254772,22.65572745468364,0.4588895223706936,-2.447759052776218e-05,7.408657999599146e-05,3.671116178965549e-06,7.412075170135377e-05,7.375255876449429e-05
54.4716878365,59.4716878365,8,0,-1.90782056216284,22.96570591105137,0.4929705862380569,-2.447759052776218e-05,7.501651536509464e-05,3.943764689904455e-06,7.505558093414286e-05,7.47061345809185e-05
55.5283121635,58.0283121635,8,0,-2.018422873080852,23.13967700085636,0.5877944822667042,-2.497069479454381e-05,7.566170470120503e-05,4.702355858133634e-06,7.571660772785928e-05,7.584412789048161e-05
56.97168783650001,58.0283121635,8,0,-1.949026649936915,23.41726189343211,0.6203325517745741,-2.497069479454381e-05,7.649445937893228e-05,4.962660414196594e-06,7.655510405906463e-05,7.669828183008782e-05
55.5283121635,59.4716878365,8,0,-1.93165468772655,23.16136904719493,0.6918888169826168,-2.471039023848091e-05,7.566170470120503e-05,5.535110535860935e-06,7.573795645062163e-05,7.537286773662378e-05
56.97168783650001,59.4716878365,8,0,-1.862258464582617,23.43895393977067,0.7244268864905274,-2.471039023848091e-05,7.649445937893222e-05,5.79541509192422e-06,7.657735893086014e-05,7.624084077675455e-05
58.0283121635,58.0283121635,8,0,-1.940025782660321,23.59959481575739,0.8184311254691036,-2.508775835711894e-05,7.70707240365519e-05,6.547449003752829e-06,7.717552481921117e-05,7.729192832624033e-05
59.47168783650001,58.0283121635,8,0,-1.878223312196835,23.84680469761133,0.8489438391821332,-2.508775835711894e-05,7.781235368211373e-05,6.791550713457065e-06,7.792429485708853e-05,7.8059646775927e-05
58.0283121635,59.4716878365,8,0,-1.858658546092169,23.61993662489943,0.9111348311643052,-2.484365664741448e-05,7.70707240365519e-05,7.289078649314442e-06,7.720088941433638e-05,7.684617880117097e-05
59.47168783650001,59.4716878365,8,0,-1.796856075628683,23.86714650675337,0.9416475448774093,-2.484365664741448e-05,7.781235368211373e-05,7.533180359019275e-06,7.795036949988167e-05,7.763201999956955e-05
60.5283121635,58.0283121635,8,0,-1.842955524577159,24.01572708281746,1.030061772336007,-2.511003934490088e-05,7.832469108467761e-05,8.240494178688058e-06,7.848855851558733e-05,7.859182993249276e-05
61.9716878365,58.0283121635,8,0,-1.788113677167206,24.23509447245728,1.058137221651708,-2.511003934490088e-05,7.898279325359704e-05,8.46509777321366e-06,7.915461054829728e-05,7.927806290553797e-05
60.5283121635,59.4716878365,8,0,-1.768087659735348,24.03444404902792,1.11232454345095,-2.488543575037544e-05,7.832469108467761e-05,8.898596347607602e-06,7.851614130046764e-05,7.817896003667377e-05
61.9716878365,59.4716878365,8,0,-1.713245812325354,24.25381143866789,1.140399992766644,-2.488543575037544e-05,7.898279325359753e-05,9.12319994213315e-06,7.918274097010191e-05,7.888738680840104e-05
63.0283121635,58.0283121635,8,0,-1.72948129049153,24.39176932506671,1.21861099904626,-2.504775558962626e-05,7.943724687260669e-05,9.748887992370081e-06,7.96641571033615e-05,7.975285065222012e-05
64.47168783650001,58.0283121635,8,0,-1.680857273162147,24.58626539438425,1.243911660960253,-2.504775558962626e-05,8.002073508055928e-05,9.951293287682023e-06,8.025583683686118e-05,8.03637619259769e-05
63.0283121635,59.4716878365,8,0,-1.662012858721018,24.40863643300934,1.291547025040308,-2.484535029431472e-05,7.943724687260669e-05,1.033237620032246e-05,7.969255617034235e-05,7.937981770152617e-05
64.47168783650001,59.4716878365,8,0,-1.613388841391634,24.60313250232687,1.316847686954253,-2.484535029431472e-05,8.002073508055928e-05,1.053478149563403e-05,8.028465028210084e-05,8.001673714909047e-05
65.5283121635,58.0283121635,8,0,-1.602115635834673,24.73204294318984,1.38045304892157,-2.491240438922283e-05,8.042422992687523e-05,1.104362439137256e-05,8.071289570956095e-05,8.078608647547265e-05
66.97168783650001,58.0283121635,8,0,-1.558875618099413,24.90500301413088,1.402715053380958,-2.491240438922283e-05,8.094311013969835e-05,1.122172042704767e-05,8.123968228746582e-05,8.132898732827093e-05
65.5283121635,59.4716878365,8,0,-1.542750290609764,24.74688427949607,1.445313075524473,-2.47343083535481e-05,8.042422992687523e-05,1.156250460419578e-05,8.074110829760548e-05,8.045939872996952e-05
66.97168783650001,59.4716878365,8,0,-1.499510272874499,24.91984435043713,1.467575079983855,-2.47343083535481e-05,8.09431101396984e-05,1.174060063987084e-05,8.126820080142842e-05,8.103185321197693e-05
68.0283121635,58.0283121635,8,0,-1.463543843632605,25.04139399898963,1.512418659451455,-2.471645549881603e-05,8.130329587167288e-05,1.209934927561164e-05,8.164738426960019e-05,8.170460162314363e-05
69.47168783650001,58.0283121635,8,0,-1.42478005137143,25.19644916803433,1.531446982805406,-2.471645549881603e-05,8.176846137880698e-05,1.225157586244325e-05,8.211970274124889e-05,8.218789810803033e-05
68.0283121635,59.4716878365,8,0,-1.412801648022185,25.05407954789223,1.570564347843278,-2.456422891198478e-05,8.130329587167288e-05,1.256451478274623e-05,8.16747861186418e-05,8.143030059412927e-05
69.47168783650001,59.4716878365,8,0,-1.374037855760974,25.20913471693708,1.589592671197195,-2.456422891198478e-05,8.176846137880741e-05,1.271674136957756e-05,8.214732268445196e-05,8.194642460435114e-05
70.5283121635,58.0283121635,8,0,-1.316564865813118,25.32510061658558,1.61178252356371,-2.447308806387044e-05,8.209357386572435e-05,1.289426018850968e-05,8.248219875457909e-05,8.252334558918746e-05
71.97168783650001,58.0283121635,8,0,-1.281310005368362,25.46612005836461,1.627443038633154,-2.447308806387044e-05,8.251663219106142e-05,1.301954430906523e-05,8.29112626305054e-05,8.295650866613197e-05
70.5283121635,59.4716878365,8,0,-1.274803492294637,25.3355409599652,1.664664814230755,-2.4347803943315e-05,8.209357386572435e-05,1.331731851384604e-05,8.25085025168129e-05,8.23070035474541e-05
71.97168783650001,59.4716878365,8,0,-1.239548631849881,25.47656040174423,1.680325329300172,-2.4347803943315e-05,8.251663219106142e-05,1.344260263440138e-05,8.293771317765595e-05,8.277599952997088e-05
73.0283121635,58.0283121635,8,0,-1.164047848397241,25.58879501377099,1.676236078397664,-2.419598912588796e-05,8.281538232278495e-05,1.340988862718131e-05,8.323385336589192e-05,8.325911193159447e-05
74.47168783650001,58.0283121635,8,0,-1.131285997285944,25.71984241821618,1.688445645448862,-2.419598912588796e-05,8.320852453612052e-05,1.35075651635909e-05,8.363154800836557e-05,8.365267635046488e-05
73.0283121635,59.4716878365,8,0,-1.131489002927262,25.59693472513849,1.725378855064617,-2.409831258947802e-05,8.281538232278495e-05,1.380303084051694e-05,8.325904928946929e-05,8.310583719122955e-05
74.47168783650001,59.4716878365,8,0,-1.098727151815938,25.72798212958378,1.73758842211591,-2.409831258947802e-05,8.320852453612084e-05,1.390070737692728e-05,8.365683182259254e-05,8.353797445755943e-05
75.5283121635,58.0283121635,8,0,-1.008906825715535,25.83840468110617,1.703851441446177,-2.389922558717464e-05,8.349002044011214e-05,1.363081153156942e-05,8.392082856867374e-05,8.393054631850068e-05
76.97168783650001,58.0283121635,8,0,-0.9775802508384626,25.96371098061445,1.712567376082924,-2.389922558717464e-05,8.386593933863701e-05,1.370053900866339e-05,8.429964251046345e-05,8.429613677023387e-05
75.5283121635,59.4716878365,8,0,-0.9856643333508499,25.84421530419734,1.750841303761698,-2.382949811008059e-05,8.349002044011214e-05,1.400673043009358e-05,8.394511023434811e-05,8.384498587425435e-05
76.97168783650001,59.4716878365,8,0,-0.9543377584737192,25.96952160370586,1.759557238398458,-2.382949811008059e-05,8.386593933863771e-05,1.407645790718766e-05,8.432396136625529e-05,8.425161939687432e-05
78.0283121635,58.0283121635,8,0,-0.8540946553506714,26.08011547517476,1.693042958581813,-2.359719527726196e-05,8.413964524483977e-05,1.354434366865451e-05,8.456366472243806e-05,8.4558195582407e-05
79.47168783650001,58.0283121635,8,0,-0.8231063600520026,26.20406865636944,1.698253262733529,-2.359719527726196e-05,8.451150478842379e-05,1.358602610186823e-05,8.493667185864692e-05,8.490856312013239e-05
78.0283121635,59.4716878365,8,0,-0.8402005109461879,26.08358901127582,1.739525401529797,-2.355551284404845e-05,8.413964524483955e-05,1.391620321223837e-05,8.45873417490906e-05,8.454452160230674e-05
79.47168783650001,59.4716878365,8,0,-0.8092122156475057,26.20754219247054,1.744735705681518,-2.355551284404845e-05,8.451150478842374e-05,1.395788564545215e-05,8.496033914790967e-05,8.493811178661117e-05
80.5283121635,58.0283121635,8,0,-0.7026158119519907,26.32035756209799,1.642533013927241,-2.330465664792476e-05,8.478723684827516e-05,1.314026411141793e-05,8.518512349871458e-05,8.516455585216527e-05
81.97168783650001,58.0283121635,8,0,-0.6708279408487794,26.44750904651084,1.644248720675342,-2.330465664792476e-05,8.51686913015137e-05,1.315398976540274e-05,8.556601466844124e-05,8.551357346475178e-05
80.5283121635,59.4716878365,8,0,-0.6980405939568746,26.32150136659677,1.690214820582024,-2.329093099393941e-05,8.478723684827516e-05,1.352171856465619e-05,8.520852208922845e-05,8.522641899722538e-05
81.97168783650001,59.4716878365,8,0,-0.6662527228536455,26.44865285100969,1.691930527330247,-2.329093099393941e-05,8.516869130151391e-05,1.353544421864197e-05,8.558935572049289e-05,8.562049876054091e-05
83.02831216350002,58.0283121635,8,0,-0.5575563675400534,26.5658133848712,1.551328563005734,-2.303683108402513e-05,8.545664792561987e-05,1.241062850404587e-05,8.581040907665609e-05,8.577400233459952e-05
84.47168783650002,58.0283121635,8,0,-0.5237848946876591,26.70089927628078,1.549579450478053,-2.303683108402513e-05,8.586190559984859e-05,1.239663560382442e-05,8.621356696000235e-05,8.613648962622502e-05
83.02831216350002,59.4716878365,8,0,-0.5622206676139685,26.56464730985272,1.601985772284385,-2.305082398424687e-05,8.545664792561987e-05,1.281588617827508e-05,8.583376039628991e-05,8.591442971204557e-05
84.47168783650002,59.4716878365,8,0,-0.5284491947615741,26.6997332012623,1.600236659756664,-2.305082398424687e-05,8.586190559984859e-05,1.280189327805331e-05,8.623680729180835e-05,8.632338424219196e-05
85.5283121635,58.0283121635,8,0,-0.4221283952828081,26.82344522322437,1.418714405593208,-2.280956704348448e-05,8.617272743054421e-05,1.134971524474566e-05,8.64674281493677e-05,8.64123061599738e-05
86.97168783650002,58.0283121635,8,0,-0.3851347820020603,26.97141967634736,1.413549206730409,-2.280956704348448e-05,8.66166507899132e-05,1.130839365384327e-05,8.690803468142158e-05,8.680336365214953e-05
85.5283121635,59.4716878365,8,0,-0.4359022589169399,26.82000175731577,1.474204825514331,-2.285088863438682e-05,8.6172727430544e-05,1.179363860411464e-05,8.649074424596112e-05,8.663351172789756e-05
86.97168783650002,59.4716878365,8,0,-0.3989086456361681,26.96797621043885,1.469039626651579,-2.285088863438682e-05,8.661665078991325e-05,1.175231701321263e-05,8.693117610764978e-05,8.707184124555846e-05
88.02831216350002,58.0283121635,8,0,-0.2997251147429809,27.10053849056057,1.244268627874526,-2.263955115962599e-05,8.69615032615882e-05,9.954149022996207e-06,8.718705217179398e-05,8.710501478294096e-05
89.47168783650001,58.0283121635,8,0,-0.2582058552092859,27.26661552869535,1.235760722887702,-2.263955115962599e-05,8.745973437599254e-05,9.886085783101617e-06,8.768121283700517e-05,8.753808350628305e-05
88.02831216350002,59.4716878365,8,0,-0.3224128613747279,27.09486655390264,1.306547517175008,-2.270761439952123e-05,8.69615032615882e-05,1.045238013740006e-05,8.72099899602682e-05,8.740806696003872e-05
89.47168783650001,59.4716878365,8,0,-0.2808936018410328,27.26094359203742,1.29803961218815,-2.270761439952123e-05,8.745973437599254e-05,1.03843168975052e-05,8.770389831048875e-05,8.788832317718813e-05
90.52831216350002,58.0283121635,8,0,-0.1939822717509285,27.40475563228821,1.027904996643518,-2.254454777543354e-05,8.785040384072301e-05,8.223239973148143e-06,8.80033278008251e-05,8.787291481800886e-05
91.97168783650001,58.0283121635,8,0,-0.1465574623965651,27.59445486970566,1.016164433471842,-2.254454777543354e-05,8.841950155297538e-05,8.129315467774736e-06,8.856819235543594e-05,8.835462225030548e-05
90.52831216350002,59.4716878365,8,0,-0.2252904402088847,27.39692859017372,1.099042210675097,-2.263847228080741e-05,8.785040384072301e-05,8.79233768540078e-06,8.802504405759837e-05,8.825714890119295e-05
91.97168783650001,59.4716878365,8,0,-0.1778656308545212,27.58662782759118,1.087301647503347,-2.263847228080741e-05,8.841950155297538e-05,8.698413180026777e-06,8.858956297605933e-05,8.878454330120597e-05
93.02831216350002,58.0283121635,8,0,-0.1088404124012667,27.74419427620951,0.7699464096303782,-2.254364474065166e-05,8.886849401379144e-05,6.159571277043025e-06,8.895356412160876e-05,8.872016257933353e-05
94.47168783650002,58.0283121635,8,0,-0.05404270382080423,27.96338511053136,0.7551389505348028,-2.254364474065166e-05,8.952606651675698e-05,6.041111604278423e-06,8.960741890929705e-05,8.923712989819944e-05
93.02831216350002,59.4716878365,8,0,-0.1483269699894771,27.73432263681246,0.8521429725011321,-2.266210441341629e-05,8.886849401379144e-05,6.817143780009057e-06,8.897256886784737e-05,8.918208146679216e-05
94.47168783650002,59.4716878365,8,0,-0.09352926140900575,27.95351347113434,0.8373355134055297,-2.266210441341629e-05,8.952606651675709e-05,6.698684107244238e-06,8.962597108936582e-05,8.974078153315454e-05
95.5283121635,58.0283121635,8,0,-0.04860176601589306,28.1274420464512,0.4712327609301346,-2.265747928841181e-05,9.004669596145653e-05,3.769862087441077e-06,9.007821184612292e-05,8.960407626782993e-05
96.97168783650002,58.0283121635,8,0,0.0151326999783894,28.38237991042833,0.4536064815713139,-2.265747928841181e-05,9.081150955338792e-05,3.628851852570511e-06,9.084051571725727e-05,9.008962507449006e-05
95.5283121635,59.4716878365,8,0,-0.09560517763940624,28.11569119354532,0.5668344599214846,-2.279848952328235e-05,9.004669596145653e-05,4.534675679371877e-06,9.009223398902273e-05,9.013512009028032e-05
96.97168783650002,59.4716878365,8,0,-0.03187071164513711,28.37062905752239,0.5492081805627113,-2.279848952328235e-05,9.081150955338776e-05,4.39366544450169e-06,9.085397298887237e-05,9.065377299741479e-05
98.02831216350002,58.0283121635,8,0,-0.01797432006286837,28.56361910838974,0.1332656710337633,-2.290841311091297e-05,9.141796060289746e-05,1.066125368270106e-06,9.14204460280767e-05,9.03590465935459e-05
99.47168783650002,58.0283121635,8,0,0.05636247057920052,28.86096627095802,0.1131854095322746,-2.290841311091297e-05,9.231000209060228e-05,9.054832762581968e-07,9.231178107554797e-05,9.060957106562999e-05
98.02831216350002,59.4716878365,8,0,-0.07152168406674786,28.55023226738877,0.2447708569968527,-2.306905520292461e-05,9.141796060289746e-05,1.958166855974821e-06,9.142633303058865e-05,9.094070342230556e-05
99.47168783650002,59.4716878365,8,0,0.002815106575325466,28.84757942995707,0.2246905954953978,-2.306905520292461e-05,9.231000209060234e-05,1.797524763963183e-06,9.231700270951488e-05,9.120595901424335e-05
0.5283121635,60.5283121635,8,0,-0.03532455086132869,5.417586544371609,-0.2392157338398454,-4.447107798253539e-06,1.736453658267821e-05,-1.913725870718763e-06,1.740643307361453e-05,1.937099432087619e-05
1.9716878365,60.5283121635,8,0,0.07053194341424818,5.841012521473917,-0.2581972810098977,-4.447107798253539e-06,1.863481451398513e-05,-2.065578248079182e-06,1.868093399889828e-05,1.988004413277307e-05
0.5283121635,61.97168783650001,8,0,-0.08594200998137769,5.404932179591597,-0.08043099242643946,-4.598960175613686e-06,1.736453658267821e-05,-6.434479394115157e-07,1.736924822373704e-05,1.992204029977624e-05
1.9716878365,61.97168783650001,8,0,0.01991448429419918,5.828358156693905,-0.09941253959649174,-4.598960175613686e-06,1.863481451398513e-05,-7.953003167719339e-07,1.864161837423006e-05,2.041471942803545e-05
3.0283121635,60.5283121635,8,0,-0.07709454317880682,6.109490751724393,-0.5621891047929675,-5.134295139551696e-06,1.96120460400611e-05,-4.497512838343739e-06,1.981473549548488e-05,2.048872910217785e-05
4.4716878365,60.5283121635,8,0,0.03953614422170171,6.576013501326427,-0.5787753228178631,-5.134295139551696e-06,2.10116142888672e-05,-4.630202582542905e-06,2.121502349512249e-05,2.164263755256907e-05
3.0283121635,61.97168783650001,8,0,-0.1213244579118802,6.098433273041261,-0.3872430736922726,-5.266984883751024e-06,1.961204604006153e-05,-3.09794458953818e-06,1.970811433388708e-05,2.100378681545783e-05
4.4716878365,61.97168783650001,8,0,-0.004693770511407847,6.56495602264315,-0.4038292917172225,-5.266984883751024e-06,2.10116142888672e-05,-3.23063433373778e-06,2.111053373565934e-05,2.212046971878683e-05
5.528312163500001,60.5283121635,8,0,-0.1473329134768078,6.861924331566752,-0.8482740682270459,-5.961004788379186e-06,2.207602419179505e-05,-6.786192545816367e-06,2.248081899000949e-05,2.260366828344238e-05
6.9716878365,60.5283121635,8,0,-0.02162843962709315,7.36474222696561,-0.8620212190403251,-5.961004788379186e-06,2.358447787799162e-05,-6.896169752322601e-06,2.398154787555179e-05,2.407534461754375e-05
5.528312163500001,61.97168783650001,8,0,-0.1839919823122911,6.852759564358016,-0.6597173574524333,-6.070981994885745e-06,2.207602419179548e-05,-5.277738859619466e-06,2.232128924330072e-05,2.305098530704153e-05
6.9716878365,61.97168783650001,8,0,-0.05828750846259467,7.355577459756802,-0.6734645082657532,-6.070981994885745e-06,2.358447787799184e-05,-5.387716066126026e-06,2.382719737646577e-05,2.447651826816728e-05
8.028312163500001,60.5283121635,8,0,-0.2413039802809784,7.665170417172868,-1.095478173740542,-6.904309070637424e-06,2.472158851917795e-05,-8.763825389924334e-06,2.531749429906137e-05,2.521290406783135e-05
9.471687836500001,60.5283121635,8,0,-0.1081214503238304,8.197900537001459,-1.106075452020797,-6.904309070637424e-06,2.631977887866373e-05,-8.848603616166376e-06,2.689885038570115e-05,2.684909794867796e-05
8.028312163500001,61.97168783650001,8,0,-0.2695633890282898,7.658105564986039,-0.8957043788048467,-6.989087296879358e-06,2.472158851917795e-05,-7.165635030438773e-06,2.512135201117549e-05,2.557932814652768e-05
9.471687836500001,61.97168783650001,8,0,-0.136380859071124,8.190835684814703,-0.9063016570850613,-6.989087296879358e-06,2.631977887866395e-05,-7.25041325668049e-06,2.670976612639286e-05,2.716672780429948e-05
10.5283121635,60.5283121635,8,0,-0.3546868407732657,8.510081317093357,-1.302602667124005,-7.943062944149135e-06,2.751600968731735e-05,-1.042082133699204e-05,2.826578172729053e-05,2.807907362281395e-05
11.9716878365,60.5283121635,8,0,-0.2155224251505907,9.066738979584057,-1.309827733109062,-7.943062944149135e-06,2.918598267478945e-05,-1.047862186487249e-05,2.991114327874226e-05,2.980323577592351e-05
10.5283121635,61.97168783650001,8,0,-0.3739536834000647,8.505264606436658,-1.093856043689952,-8.000863472029532e-06,2.751600968731735e-05,-8.750848349519617e-06,2.804708940697114e-05,2.836112593857503e-05
11.9716878365,61.97168783650001,8,0,-0.2347892677773533,9.061922268927503,-1.101081109675009,-8.000863472029532e-06,2.918598267478989e-05,-8.808648877400068e-06,2.9700501807388e-05,3.003688266824827e-05
13.0283121635,60.5283121635,8,0,-0.4835032211376089,9.388052793089852,-1.469042750032933,-9.057652542112228e-06,3.042857151479761e-05,-1.175234200026347e-05,3.128448514754595e-05,3.108236796952944e-05
14.4716878365,60.5283121635,8,0,-0.3397663164299969,9.9630004119203,-1.472730771574806,-9.057652542112228e-06,3.215341437128895e-05,-1.178184617259845e-05,3.29789561056258e-05,3.28528599590969e-05
13.0283121635,61.97168783650001,8,0,-0.4933379452493591,9.385594112061913,-1.253437392971448,-9.087156714447479e-06,3.042857151479761e-05,-1.002749914377158e-05,3.105479136638444e-05,3.128121466166549e-05
14.4716878365,61.97168783650001,8,0,-0.3496010405417471,9.960541730892361,-1.257125414513306,-9.087156714447479e-06,3.215341437128895e-05,-1.005700331610645e-05,3.275769018535963e-05,3.300503615963612e-05
15.5283121635,60.5283121635,8,0,-0.6240276188038321,10.29095951341862,-1.594651611785809,-1.022965599090716e-05,3.343029253798264e-05,-1.275721289428647e-05,3.434310606645935e-05,3.415666241625426e-05
16.9716878365,60.5283121635,8,0,-0.4770565212921971,10.87884390346516,-1.594677637333669,-1.022965599090716e-05,3.519394570812226e-05,-1.275742109866935e-05,3.607269055174934e-05,3.594822498282531e-05
15.5283121635,61.97168783650001,8,0,-0.624097020264792,10.29094216305338,-1.374194965518397,-1.022986419529004e-05,3.343029253798264e-05,-1.099355972414718e-05,3.411169813721541e-05,3.427550434265978e-05
16.9716878365,61.97168783650001,8,0,-0.4771259227531934,10.87882655309977,-1.374220991066271,-1.022986419529004e-05,3.519394570812183e-05,-1.099376792853017e-05,3.584967563570822e-05,3.60226664702571e-05
18.0283121635,60.5283121635,8,0,-0.7726997002874141,11.21107666651175,-1.679664344264546,-1.144150037412912e-05,3.649360509306752e-05,-1.343731475411637e-05,3.741749548734177e-05,3.72611069082179e-05
19.4716878365,60.5283121635,8,0,-0.6237761751025497,11.80677076725121,-1.675937331044501,-1.144150037412912e-05,3.828068739528589e-05,-1.340749864835601e-05,3.916865648664914e-05,3.905640446631077e-05
18.0283121635,61.97168783650001,8,0,-0.762760998367439,11.21356134199174,-1.45627905648733,-1.14116842683692e-05,3.649360509306752e-05,-1.165023245189864e-05,3.719174470507631e-05,3.730394690171e-05
19.4716878365,61.97168783650001,8,0,-0.6138374731826377,11.80925544273095,-1.452552043267367,-1.14116842683692e-05,3.828068739528514e-05,-1.162041634613893e-05,3.895099562914208e-05,3.905730801173458e-05
20.5283121635,60.5283121635,8,0,-0.9260541353472624,12.14100841633022,-1.72467192354183,-1.267617996617541e-05,3.95920702405345e-05,-1.379737538833464e-05,4.048726970919693e-05,4.036712691335044e-05
21.9716878365,60.5283121635,8,0,-0.776413947069921,12.73956916943958,-1.717137740013227,-1.267617996617541e-05,4.138775249986259e-05,-1.373710192010581e-05,4.224672011126557e-05,4.215278967534317e-05
20.5283121635,61.97168783650001,8,0,-0.9059629792708068,12.14603120534933,-1.500211641125777,-1.261590649794604e-05,3.95920702405345e-05,-1.200169312900621e-05,4.027293520806163e-05,4.033826437556634e-05
21.9716878365,61.97168783650001,8,0,-0.7563227909933841,12.74459195845902,-1.492677457597146,-1.261590649794604e-05,4.138775249986357e-05,-1.194141966077717e-05,4.204000357086065e-05,4.208454113395761e-05
23.0283121635,60.5283121635,8,0,-1.080677566666656,13.07363823880332,-1.730631765828994,-1.391707880437596e-05,4.270018441750395e-05,-1.384505412663196e-05,4.353430498658727e-05,4.345232754344656e-05
24.4716878365,60.5283121635,8,0,-0.9315151982255205,13.67028771256787,-1.719281983631759,-1.391707880437596e-05,4.449013283879758e-05,-1.375425586905407e-05,4.52889516127409e-05,4.521706826362297e-05
23.0283121635,61.97168783650001,8,0,-1.050411480807416,13.08120476026813,-1.506888213167318,-1.382628054679823e-05,4.270018441750395e-05,-1.205510570533854e-05,4.333577031486177e-05,4.335621134590993e-05
24.4716878365,61.97168783650001,8,0,-0.9012491123662798,13.67785423403268,-1.495538430970123,-1.382628054679823e-05,4.449013283879758e-05,-1.196430744776098e-05,4.509746294136189e-05,4.508420221719198e-05
25.5283121635,60.5283121635,8,0,-1.233196958810867,14.00211005417246,-1.698899879695685,-1.514791831153274e-05,4.579330974040056e-05,-1.359119903756548e-05,4.654189640790324e-05,4.649759573778046e-05
26.9716878365,60.5283121635,8,0,-1.085663868370078,14.59224241593562,-1.683783122416664,-1.514791831153274e-05,4.756370682569002e-05,-1.347026497933331e-05,4.827889348521699e-05,4.823132113763892e-05
25.5283121635,61.97168783650001,8,0,-1.192885606066755,14.01218789235849,-1.477600244034598,-1.502698425330041e-05,4.579330974040056e-05,-1.182080195227678e-05,4.636234736917882e-05,4.633883785692244e-05
26.9716878365,61.97168783650001,8,0,-1.045352515625966,14.60232025412164,-1.462483486755549,-1.502698425330041e-05,4.756370682569002e-05,-1.169986789404439e-05,4.810576663934703e-05,4.803857529851638e-05
28.0283121635,60.5283121635,8,0,-1.380298718156393,14.91984319342698,-1.631270069394106,-1.635283045284204e-05,4.884773719349145e-05,-1.305016055515285e-05,4.949433559978863e-05,4.948574349156739e-05
29.4716878365,60.5283121635,8,0,-1.235495458310123,15.49905623281206,-1.61250300944971,-1.635283045284204e-05,5.058537631164668e-05,-1.290002407559768e-05,5.120121882196772e-05,5.117916369693736e-05
28.0283121635,61.97168783650001,8,0,-1.330253224971425,14.93235456672322,-1.414065179624648,-1.620269397328714e-05,4.884773719349145e-05,-1.131252143699718e-05,4.933589668841821e-05,4.926919098770465e-05
29.4716878365,61.97168783650001,8,0,-1.18544996512512,15.51156760610845,-1.395298119680265,-1.620269397328714e-05,5.058537631164712e-05,-1.116238495744212e-05,5.104856037839536e-05,5.093155813370744e-05
30.5283121635,60.5283121635,8,0,-1.518774133338627,15.82057917236683,-1.530007578805727,-1.751654056457707e-05,5.184087265824476e-05,-1.224006063044582e-05,5.237675767160727e-05,5.240092635339186e-05
31.9716878365,60.5283121635,8,0,-1.377737409204235,16.3847260689044,-1.507783261504156,-1.751654056457707e-05,5.353331334785746e-05,-1.206226609203325e-05,5.404163494160201e-05,5.404542380038777e-05
30.5283121635,61.97168783650001,8,0,-1.459509287201013,15.83539538390123,-1.31845249260414,-1.733874602616423e-05,5.184087265824476e-05,-1.054761994083312e-05,5.2240604352386e-05,5.213173989380074e-05
31.9716878365,61.97168783650001,8,0,-1.318472563066666,16.39954228043862,-1.296228175302514,-1.733874602616423e-05,5.353331334785692e-05,-1.036982540242011e-05,5.391062642158098e-05,5.374833029482969e-05
33.0283121635,60.5283121635,8,0,-1.645584077132242,16.69845436816977,-1.397867504460899,-1.862463254135899e-05,5.475152123984904e-05,-1.118294003568719e-05,5.517516113641773e-05,5.522846682606424e-05
34.4716878365,60.5283121635,8,0,-1.509270313329696,17.24370942337995,-1.372459412678106,-1.862463254135899e-05,5.63872864054796e-05,-1.097967530142485e-05,5.678693751219673e-05,5.681610303289387e-05
33.0283121635,61.97168783650001,8,0,-1.577829165711353,16.71539309602485,-1.193396858757039,-1.842136780709621e-05,5.475152123984861e-05,-9.54717487005631e-06,5.506162208134205e-05,5.491218069312273e-05
34.4716878365,61.97168783650001,8,0,-1.441515401908743,17.26064815123529,-1.167988766974273,-1.842136780709621e-05,5.638728640547993e-05,-9.343910135794185e-06,5.667793045491296e-05,5.647528871277479e-05
35.5283121635,60.5283121635,8,0,-1.757934578512922,17.54809017812148,-1.238091735660102,-1.966386279373853e-05,5.756023623279907e-05,-9.904733885280812e-06,5.787653507840209e-05,5.795489215081302e-05
36.9716878365,60.5283121635,8,0,-1.62720179872374,18.07102129727821,-1.209852778089065,-1.966386279373853e-05,5.912902959026925e-05,-9.678822224712521e-06,5.942515036582057e-05,5.947848567337735e-05
35.5283121635,61.97168783650001,8,0,-1.682630691656753,17.56691614983552,-1.041992565976342,-1.943795113317002e-05,5.756023623279907e-05,-8.335940527810738e-06,5.778519438497273e-05,5.759744512146339e-05
36.9716878365,61.97168783650001,8,0,-1.551897911867571,18.08984726899225,-1.013753608405238,-1.943795113317002e-05,5.912902959026925e-05,-8.110028867241905e-06,5.933776323601966e-05,5.910012542451793e-05
38.0283121635,60.5283121635,8,0,-1.853354702434897,18.36469108200687,-1.054381632577272,-2.062248791339716e-05,6.024969522436989e-05,-8.435053060618179e-06,6.046904648176726e-05,6.056808098106146e-05
39.4716878365,60.5283121635,8,0,-1.72894452799173,18.86233177977954,-1.023737950624456,-2.062248791339716e-05,6.17426173176879e-05,-8.18990360499565e-06,6.194570557185656e-05,6.202131719890532e-05
38.0283121635,61.97168783650001,8,0,-1.771638217227333,18.38512020330869,-0.8677663709125757,-2.037733845777442e-05,6.024969522436968e-05,-6.942130967300605e-06,6.03988517463762e-05,6.017581551863735e-05
39.4716878365,61.97168783650001,8,0,-1.64722804278413,18.8827609010815,-0.8371226889596919,-2.037733845777442e-05,6.174261731768812e-05,-6.696981511677535e-06,6.187892778804705e-05,6.161197520604057e-05
40.5283121635,60.5283121635,8,0,-1.929768933873349,19.14414107226205,-0.8508467595881537,-2.149057344620435e-05,6.280506657833722e-05,-6.80677407670523e-06,6.294225307096839e-05,6.305745619738758e-05
41.97168783650001,60.5283121635,8,0,-1.812290328259632,19.61405549471692,-0.8182868381254,-2.149057344620435e-05,6.421480984570183e-05,-6.5462947050032e-06,6.43396317957483e-05,6.443500436722112e-05
40.5283121635,61.97168783650001,8,0,-1.842942476639159,19.16584768657059,-0.6746288511676862,-2.123009407450178e-05,6.280506657833722e-05,-5.39703080934149e-06,6.289163143830478e-05,6.263708796584905e-05
41.97168783650001,61.97168783650001,8,0,-1.725463871025433,19.6357621090255,-0.6420689297048784,-2.123009407450178e-05,6.421480984570194e-05,-5.136551437639027e-06,6.429193664113329e-05,6.400158842184879e-05
43.0283121635,60.5283121635,8,0,-1.985557663510234,19.88308990412264,-0.6319325086572209,-2.226025644653086e-05,6.521433382400063e-05,-5.055460069257767e-06,6.528731607746304e-05,6.541418456235641e-05
44.4716878365,60.5283121635,8,0,-1.875473744772809,20.32342557907234,-0.5979925104473717,-2.226025644653086e-05,6.653534084884974e-05,-4.783940083578973e-06,6.659972889324274e-05,6.671180643551145e-05
43.0283121635,61.97168783650001,8,0,-1.89505100161752,19.90571656959582,-0.4668066305510822,-2.198873646085272e-05,6.521433382400063e-05,-3.734453044408658e-06,6.525429729999323e-05,6.497274680428359e-05
44.4716878365,61.97168783650001,8,0,-1.784967082880121,20.34605224454542,-0.432866632341382,-2.198873646085272e-05,6.653534084884942e-05,-3.462933058731056e-06,6.656919412796717e-05,6.626150039140498e-05
45.52831216350001,60.5283121635,8,0,-2.019601127743146,20.57902225605573,-0.4023312645693377,-2.292594141362265e-05,6.746855212157285e-05,-3.218650116554702e-06,6.749719442776032e-05,6.763135815911996e-05
46.97168783650001,60.5283121635,8,0,-1.917219995531961,20.98854678490047,-0.3675777814109095,-2.292594141362265e-05,6.869712570810706e-05,-2.940622251287276e-06,6.872071429177715e-05,6.884599831515774e-05
45.52831216350001,61.97168783650001,8,0,-1.926925172654022,20.60219124482795,-0.2487595662525616,-2.264791354835522e-05,6.746855212157263e-05,-1.990076530020493e-06,6.747953768851419e-05,6.717612675031511e-05
46.97168783650001,61.97168783650001,8,0,-1.824544040442819,21.01171577367275,-0.2140060830941063,-2.264791354835522e-05,6.869712570810706e-05,-1.712048664752851e-06,6.870514708858967e-05,6.838617884578419e-05
48.0283121635,60.5283121635,8,0,-2.031304024730336,21.23030489534235,-0.1668828762315324,-2.348441679541095e-05,6.956201888487978e-05,-1.335063009852259e-06,6.956680762691767e-05,6.970414209347769e-05
49.47168783650001,60.5283121635,8,0,-1.936774148427874,21.6084244005522,-0.1318944154037358,-2.348441679541095e-05,7.069637740050931e-05,-1.055155323229887e-06,7.069933266817088e-05,7.08339943401088e-05
48.0283121635,61.97168783650001,8,0,-1.938001462522932,21.2536305358942,-0.02508806177777337,-2.320450910878874e-05,6.956201888487978e-05,-2.007044942221869e-07,6.956212744301958e-05,6.924254756414161e-05
49.47168783650001,61.97168783650001,8,0,-1.843471586220507,21.6317500411039,0.009900399049975759,-2.320450910878874e-05,7.069637740050888e-05,7.920319239980607e-08,7.069639410201406e-05,7.03721383173371e-05
50.5283121635,60.5283121635,8,0,-2.02059983954152,21.83620907929491,0.06952932784846201,-2.393488674996879e-05,7.149234892537691e-05,5.56234622787696e-07,7.149315947575446e-05,7.16298798497325e-05
51.97168783650001,60.5283121635,8,0,-1.933910161893182,22.18296778988826,0.1041808020899788,-2.393488674996879e-05,7.253262505715696e-05,8.334464167198308e-07,7.253442519679599e-05,7.267442725249364e-05
50.5283121635,61.97168783650001,8,0,-1.928195908230953,21.85931006212255,0.1995638443210216,-2.365767495603709e-05,7.149234892537691e-05,1.596510754568172e-06,7.149904536936095e-05,7.116941264082812e-05
51.97168783650001,61.97168783650001,8,0,-1.841506230582616,22.2060687727159,0.2342153185625113,-2.365767495603709e-05,7.253262505715696e-05,1.87372254850009e-06,7.25417489064686e-05,7.221801584707283e-05
53.0283121635,60.5283121635,8,0,-1.987935561015981,22.3969075149724,0.3020808111311749,-2.427891980722905e-05,7.326045249672446e-05,2.416646489049399e-06,7.327541897675454e-05,7.340815303439264e-05
54.4716878365,60.5283121635,8,0,-1.908920109987231,22.7129693190874,0.3358470600758318,-2.427891980722905e-05,7.420863790906946e-05,2.686776480606654e-06,7.42269585615429e-05,7.436818174668803e-05
53.0283121635,61.97168783650001,8,0,-1.897892230497076,22.41941834760213,0.4206039876743272,-2.400878981567234e-05,7.326045249672446e-05,3.364831901394617e-06,7.328954367772966e-05,7.295626791466529e-05
54.4716878365,61.97168783650001,8,0,-1.818876779468336,22.73548015171709,0.4543702366189434,-2.400878981567234e-05,7.420863790906935e-05,3.634961892951547e-06,7.424225828314902e-05,7.392460686596169e-05
55.5283121635,60.5283121635,8,0,-1.93423890375556,22.91344712947545,0.5261007370694986,-2.452032219559815e-05,7.487042193732589e-05,4.208805896555989e-06,7.491495856190204e-05,7.504079661710767e-05
56.97168783650001,60.5283121635,8,0,-1.862585389041651,23.20006118833109,0.5584721113207375,-2.452032219559815e-05,7.573026411389279e-05,4.4677768905659e-06,7.578001726141935e-05,7.591838590480319e-05
55.5283121635,61.97168783650001,8,0,-1.847915239085697,22.93502804564292,0.633581009140368,-2.426135120158857e-05,7.487042193732589e-05,5.068648073122944e-06,7.493517015867698e-05,7.460482160068262e-05
56.97168783650001,61.97168783650001,8,0,-1.77626172437183,23.22164210449839,0.6659523833915323,-2.426135120158857e-05,7.57302641138923e-05,5.327619067132259e-06,7.580117858353799e-05,7.549486386477979e-05
58.0283121635,60.5283121635,8,0,-1.860871324815842,23.38770058462933,0.7371547496660267,-2.466494870711415e-05,7.63293389306665e-05,5.897237997328213e-06,7.641535325621172e-05,7.653187452802022e-05
59.47168783650001,60.5283121635,8,0,-1.796132936443844,23.64665413811732,0.7676719325325649,-2.466494870711415e-05,7.710619959113048e-05,6.141375460260519e-06,7.719876565545454e-05,7.733036732889031e-05
58.0283121635,61.97168783650001,8,0,-1.779492170505018,23.40804537320703,0.834262332223936,-2.442081124418168e-05,7.63293389306665e-05,6.674098657791488e-06,7.643974777958889e-05,7.611892880976919e-05
59.47168783650001,61.97168783650001,8,0,-1.714753782133021,23.66699892669502,0.8647795150905216,-2.442081124418168e-05,7.710619959113048e-05,6.918236120724173e-06,7.722391841232228e-05,7.693386368267824e-05
60.5283121635,60.5283121635,8,0,-1.76957101069929,23.82230083627815,0.9311120476405903,-2.472046790326024e-05,7.764701948464949e-05,7.448896381124722e-06,7.778234761445862e-05,7.78876237394389e-05
61.9716878365,60.5283121635,8,0,-1.711180446829398,24.05586309175771,0.9593741658191188,-2.472046790326024e-05,7.83477062510882e-05,7.674993326552951e-06,7.849038872773219e-05,7.861158376509568e-05
60.5283121635,61.97168783650001,8,0,-1.694205362223303,23.84114224839714,1.018697893445355,-2.449437095783228e-05,7.764701948464949e-05,8.149583147562837e-06,7.780931984975546e-05,7.750454806908939e-05
61.9716878365,61.97168783650001,8,0,-1.635814798353429,24.07470450387664,1.046960011623842,-2.449437095783228e-05,7.834770625108798e-05,8.37568009299074e-06,7.851795775858772e-05,7.824875193500818e-05
63.0283121635,60.5283121635,8,0,-1.662390565092425,24.22056402725826,1.104194582907392,-2.469610103010236e-05,7.883571733930035e-05,8.833556663259137e-06,7.902380015280353e-05,7.91163777089519e-05
64.47168783650001,60.5283121635,8,0,-1.609675204986347,24.43142546768257,1.129863492598234,-2.469610103010236e-05,7.946830166057328e-05,9.038907940785872e-06,7.966402262634886e-05,7.977154038532204e-05
63.0283121635,61.97168783650001,8,0,-1.593940139250288,24.23767663371879,1.183267623066535,-2.449074975257595e-05,7.883571733930035e-05,9.466140984532283e-06,7.905207184788428e-05,7.876967921515679e-05
64.47168783650001,61.97168783650001,8,0,-1.541224779144237,24.44853807414299,1.208936532757316,-2.449074975257595e-05,7.946830166057295e-05,9.671492262058531e-06,7.96927560065213e-05,7.94486751457132e-05
65.5283121635,60.5283121635,8,0,-1.541634313080961,24.58640655978319,1.253007757659366,-2.460235504968562e-05,7.990980844177096e-05,1.002406206127493e-05,8.014961733967601e-05,8.022848208583756e-05
66.97168783650001,60.5283121635,8,0,-1.493831426672887,24.77761810541548,1.275808644499266,-2.460235504968562e-05,8.048344307866784e-05,1.020646915599413e-05,8.073068746216824e-05,8.082170735142585e-05
65.5283121635,61.97168783650001,8,0,-1.48083194817466,24.60160715100976,1.324712087271503,-2.441994795496672e-05,7.990980844177096e-05,1.059769669817202e-05,8.017824323502289e-05,7.992429382723212e-05
66.97168783650001,61.97168783650001,8,0,-1.433029061766609,24.79281869664197,1.347512974111389,-2.441994795496672e-05,8.048344307866757e-05,1.078010379289111e-05,8.075966257880583e-05,8.054471229966961e-05
68.0283121635,60.5283121635,8,0,-1.409799935136852,24.92426228253965,1.374553560156464,-2.445076961846965e-05,8.088547925223636e-05,1.099642848125172e-05,8.117169072409354e-05,8.123621652752363e-05
69.47168783650001,60.5283121635,8,0,-1.36607088381859,25.0991784878127,1.394272306113497,-2.445076961846965e-05,8.14102278680555e-05,1.115417844890798e-05,8.170323541128294e-05,8.177545139128616e-05
68.0283121635,61.97168783650001,8,0,-1.357216612584847,24.93740811317765,1.440147137133897,-2.429301965081363e-05,8.088547925223636e-05,1.152117709707118e-05,8.120004382484616e-05,8.098027002560927e-05
69.47168783650001,61.97168783650001,8,0,-1.313487561266586,25.1123243184507,1.459865883090883,-2.429301965081363e-05,8.14102278680555e-05,1.167892706472706e-05,8.173184426148948e-05,8.15498173901187e-05
70.5283121635,60.5283121635,8,0,-1.269528572100003,25.23900535018899,1.466228543217313,-2.42536957108712e-05,8.178043997828476e-05,1.17298283457385e-05,8.210385114441409e-05,8.215373580430305e-05
71.97168783650001,60.5283121635,8,0,-1.228971098854326,25.4012352431717,1.482706587205131,-2.42536957108712e-05,8.226712965723288e-05,1.186165269764105e-05,8.259632660467001e-05,8.264799317665794e-05
70.5283121635,61.97168783650001,8,0,-1.225587121465728,25.24999071284756,1.527064753085707,-2.412187135896837e-05,8.178043997828476e-05,1.221651802468565e-05,8.213158927675122e-05,8.19513425845685e-05
71.97168783650001,61.97168783650001,8,0,-1.18502964822006,25.41222060583023,1.5435427970736,-2.412187135896837e-05,8.226712965723278e-05,1.23483423765888e-05,8.262424232902322e-05,8.247878245186155e-05
73.0283121635,60.5283121635,8,0,-1.123566661485494,25.53588351235801,1.525810294011396,-2.402412012663998e-05,8.261368056873401e-05,1.220648235209117e-05,8.296185287402068e-05,8.299704020176097e-05
74.47168783650001,60.5283121635,8,0,-1.085224576591783,25.68925185193286,1.538937924212727,-2.402412012663998e-05,8.307378558745855e-05,1.231150339370182e-05,8.342644338389317e-05,8.345639703625883e-05
73.0283121635,61.97168783650001,8,0,-1.08855964761527,25.54463526582556,1.583323421351917,-2.391909908502931e-05,8.261368056873401e-05,1.266658737081533e-05,8.298886877694512e-05,8.28530760391745e-05
74.47168783650001,61.97168783650001,8,0,-1.050217562721603,25.69800360540023,1.596451051553288,-2.391909908502931e-05,8.307378558745801e-05,1.277160841242631e-05,8.345357027199906e-05,8.334822526941113e-05
75.5283121635,60.5283121635,8,0,-0.9747416716828132,25.82046545212109,1.551436980105406,-2.377554571108187e-05,8.340528278413372e-05,1.241149584084325e-05,8.376339777025038e-05,8.378397777446246e-05
76.97168783650001,60.5283121635,8,0,-0.9376114912495845,25.968986173854,1.561146132376234,-2.377554571108187e-05,8.385084494933246e-05,1.248916905900987e-05,8.421195005386246e-05,8.421958816035586e-05
75.5283121635,61.97168783650001,8,0,-0.9488505989605533,25.82693822030165,1.607132250755228,-2.369787249291509e-05,8.340528278413372e-05,1.285705800604183e-05,8.378975480367741e-05,8.370286099039707e-05
76.97168783650001,61.97168783650001,8,0,-0.9117204185273478,25.97545894203448,1.616841403026049,-2.369787249291509e-05,8.385084494933219e-05,1.293473122420839e-05,8.423835910783406e-05,8.417659456811402e-05
78.0283121635,60.5283121635,8,0,-0.8259527059861655,26.09860443509563,1.541585140369519,-2.352193220723223e-05,8.417629635709494e-05,1.233268112295615e-05,8.45282048041534e-05,8.453426512847548e-05
79.47168783650001,60.5283121635,8,0,-0.7889870712993599,26.24646697384285,1.547842836959937,-2.352193220723223e-05,8.461988397333661e-05,1.23827426956795e-05,8.497320009318528e-05,8.495836820749318e-05
78.0283121635,61.97168783650001,8,0,-0.8092655150785637,26.10277623282253,1.597033592399687,-2.347187063450943e-05,8.417629635709494e-05,1.27762687391975e-05,8.455405992287483e-05,8.451991790096104e-05
79.47168783650001,61.97168783650001,8,0,-0.7722998803917891,26.25063877156963,1.603291288990085,-2.347187063450943e-05,8.461988397333623e-05,1.282633031192068e-05,8.499905183125323e-05,8.49841611120459e-05
80.5283121635,60.5283121635,8,0,-0.6801757570190912,26.37641907046314,1.495051124698515,-2.327769767883161e-05,8.494868163109732e-05,1.196040899758812e-05,8.527812362157731e-05,8.526947898957688e-05
81.97168783650001,60.5283121635,8,0,-0.6422837328349411,26.52798716719974,1.497854679103867,-2.327769767883161e-05,8.540338592130713e-05,1.198283743283093e-05,8.573268572847583e-05,8.569534637403048e-05
80.5283121635,61.97168783650001,8,0,-0.6726996119380892,26.37828810673339,1.55188916097472,-2.32552692435886e-05,8.494868163109732e-05,1.241511328779776e-05,8.530363877088428e-05,8.53252579313996e-05
81.97168783650001,61.97168783650001,8,0,-0.6348075877539614,26.5298562034699,1.55469271538014,-2.32552692435886e-05,8.540338592130686e-05,1.243754172304112e-05,8.575814145807228e-05,8.579290856112878e-05
83.02831216350002,60.5283121635,8,0,-0.5404822793331876,26.66029052862328,1.410941518420758,-2.305777571676482e-05,8.574531551506104e-05,1.128753214736606e-05,8.60372819540044e-05,8.601289261007136e-05
84.47168783650002,60.5283121635,8,0,-0.500526884951678,26.82011210614932,1.410316570143352,-2.305777571676482e-05,8.622478024763916e-05,1.128253256114681e-05,8.65152157356777e-05,8.645457767627065e-05
83.02831216350002,61.97168783650001,8,0,-0.5421488080729651,26.65987389643834,1.470874609993015,-2.306277530298416e-05,8.574531551506104e-05,1.176699687994412e-05,8.606252475868823e-05,8.61414708727037e-05
84.47168783650002,61.97168783650001,8,0,-0.5021934136914554,26.81969547396438,1.470249661715615,-2.306277530298416e-05,8.622478024763916e-05,1.176199729372492e-05,8.654033830021067e-05,8.662611018784135e-05
85.5283121635,60.5283121635,8,0,-0.4100687484928329,26.95687417697264,1.288677583253854,-2.287771933675518e-05,8.659005236510671e-05,1.030942066603083e-05,8.683224584837379e-05,8.678884586278702e-05
86.97168783650002,60.5283121635,8,0,-0.3668623109117242,27.12969992729708,1.284679926857089,-2.287771933675518e-05,8.710852961608002e-05,1.027743941485671e-05,8.734809636424673e-05,8.726039846554322e-05
85.5283121635,61.97168783650001,8,0,-0.4207291655508376,26.95420907270807,1.35348723962549,-2.290970058792913e-05,8.65900523651065e-05,1.082789791700392e-05,8.685708072264149e-05,8.699202104354909e-05
86.97168783650002,61.97168783650001,8,0,-0.3775227279697333,27.12703482303249,1.349489583228738,-2.290970058792913e-05,8.710852961607975e-05,1.079591666582991e-05,8.737274170241688e-05,8.750706877728849e-05
88.02831216350002,60.5283121635,8,0,-0.2922939819605279,27.27312231453794,1.128018274964943,-2.275383859390404e-05,8.750782659208982e-05,9.02414619971954e-06,8.769215924385673e-05,8.762088704197259e-05
89.47168783650001,60.5283121635,8,0,-0.2445921173904582,27.46392977281822,1.120740324002043,-2.275383859390404e-05,8.808024896693066e-05,8.96592259201634e-06,8.82612778450345e-05,8.81342075456115e-05
88.02831216350002,61.97168783650001,8,0,-0.3117018511950729,27.2682703472293,1.199571071820054,-2.281206220160767e-05,8.750782659208982e-05,9.596568574560434e-06,8.771613120101157e-05,8.789927014161381e-05
89.47168783650001,61.97168783650001,8,0,-0.2639999866249889,27.45907780550964,1.192293120857188,-2.281206220160767e-05,8.808024896693082e-05,9.538344966857504e-06,8.828497994569564e-05,8.845573646205458e-05
90.52831216350002,60.5283121635,8,0,-0.1907201712275493,27.61631349893052,0.9291058073706003,-2.270335534707257e-05,8.852477933355969e-05,7.432846458964803e-06,8.864881644391406e-05,8.852680957571903e-05
91.97168783650001,60.5283121635,8,0,-0.1372154068650859,27.83033255638037,0.9186883913430408,-2.270335534707257e-05,8.916683650590925e-05,7.349507130744327e-06,8.928741620706514e-05,8.908609776553421e-05
90.52831216350002,61.97168783650001,8,0,-0.218499947301023,27.60936855491215,1.009362953914269,-2.278669467529299e-05,8.852477933355969e-05,8.074903631314148e-06,8.867103224588832e-05,8.887930215617477e-05
91.97168783650001,61.97168783650001,8,0,-0.1649951829385596,27.823387612362,0.9989455378866955,-2.278669467529299e-05,8.916683650590925e-05,7.991564303093564e-06,8.93092704907451e-05,8.948003883246275e-05
93.02831216350002,60.5283121635,8,0,-0.1091527594941724,27.99408283034355,0.6925370375765992,-2.274455509465619e-05,8.96683872646947e-05,5.540296300612793e-06,8.973660953817217e-05,8.950592727468545e-05
94.47168783650002,60.5283121635,8,0,-0.04846901088697741,28.23681782477233,0.6791870653877821,-2.274455509465619e-05,9.039659224798104e-05,5.433496523102256e-06,9.046178931052573e-05,9.009363463443689e-05
93.02831216350002,61.97168783650001,8,0,-0.1447526853309551,27.98518284888436,0.783562660487371,-2.285135487216654e-05,8.96683872646947e-05,6.268501283898968e-06,8.97556245490713e-05,8.992877158824709e-05
94.47168783650002,61.97168783650001,8,0,-0.0840689367237788,28.22791784331307,0.7702126882985403,-2.285135487216654e-05,9.039659224798082e-05,6.161701506388322e-06,9.048034323311686e-05,9.055399559983444e-05
95.5283121635,60.5283121635,8,0,-0.05167344011155439,28.41444644349932,0.4194631212075725,-2.289691216315643e-05,9.096756737128706e-05,3.35570496966058e-06,9.099228603649283e-05,9.05069732311206e-05
96.97168783650002,60.5283121635,8,0,0.01763723184775223,28.69168913133655,0.4034774439711005,-2.289691216315643e-05,9.179929543479874e-05,3.227819551768804e-06,9.182200053811051e-05,9.10485279182863e-05
95.5283121635,61.97168783650001,8,0,-0.09430191274220068,28.40378932534166,0.5234291291464919,-2.302479758104837e-05,9.096756737128706e-05,4.187433033171935e-06,9.100601004255441e-05,9.099185108244314e-05
96.97168783650002,61.97168783650001,8,0,-0.02499124078291182,28.68103201317881,0.5074434519099723,-2.302479758104837e-05,9.179929543479853e-05,4.059547615279779e-06,9.183516504171902e-05,9.156287049576621e-05
98.02831216350002,60.5283121635,8,0,-0.02265961434723174,28.88581232735675,0.1117188591978415,-2.318116062779654e-05,9.245272713901938e-05,8.937508735827322e-07,9.245445409534236e-05,9.134755518090918e-05
99.47168783650002,60.5283121635,8,0,0.05679709830052815,29.20363917794779,0.0935144061284051,-2.318116062779654e-05,9.34062076907925e-05,7.481152490272408e-07,9.340740780078906e-05,9.162295816811223e-05
98.02831216350002,61.97168783650001,8,0,-0.07120482253237714,28.87367602531046,0.230903928169474,-2.332679625235198e-05,9.245272713901938e-05,1.847231425355792e-06,9.246009469140594e-05,9.187743802785065e-05
99.47168783650002,61.97168783650001,8,0,0.008251890115364979,29.19150287590143,0.212699475100024,-2.332679625235198e-05,9.340620769079228e-05,1.701595800800192e-06,9.341240832467485e-05,9.216583309463032e-05
0.5283121635,63.0283121635,8,0,-0.03503677051423204,5.7405658792043,-0.2196381358543449,-4.704570369008982e-06,1.839784022986514e-05,-1.757105086834759e-06,1.843120218351475e-05,2.030661553750077e-05
1.9716878365,63.0283121635,8,0,0.06607983364642123,6.145032295846913,-0.23672314045499,-4.704570369008982e-06,1.961123947979298e-05,-1.89378512363992e-06,1.96480570891114e-05,2.078812295086828e-05
0.5283121635,64.4716878365,8,0,-0.08059678278261884,5.729175876137203,-0.06796322961339198,-4.841250405814143e-06,1.839784022986514e-05,-5.437058369071358e-07,1.840101995405419e-05,2.080624864744168e-05
1.9716878365,64.4716878365,8,0,0.02051982137803443,6.133642292779816,-0.08504823421402351,-4.841250405814143e-06,1.961123947979298e-05,-6.80385873712188e-07,1.96159714659071e-05,2.127360505175373e-05
3.0283121635,63.0283121635,8,0,-0.0743912099295676,6.40154271244354,-0.5117222062565315,-5.359286041729447e-06,2.054444964776298e-05,-4.093777650052252e-06,2.070519536896111e-05,2.136375275499724e-05
4.4716878365,63.0283121635,8,0,0.03695698533847391,6.846935493515706,-0.5266574198823146,-5.359286041729447e-06,2.188062799097948e-05,-4.213259359058517e-06,2.204258367693222e-05,2.245489521292785e-05
3.0283121635,64.4716878365,8,0,-0.114218446264718,6.391585903360023,-0.3446999133545369,-5.478767750735115e-06,2.054444964776385e-05,-2.757599306836295e-06,2.061729926464847e-05,2.1832140277575e-05
4.4716878365,64.4716878365,8,0,-0.002870250996748869,6.8369786844319,-0.3596351269802658,-5.478767750735115e-06,2.188062799097948e-05,-2.877081015842126e-06,2.195605762337956e-05,2.289073048808852e-05
5.528312163500001,63.0283121635,8,0,-0.1409962950210921,7.120063077985851,-0.7716502277062964,-6.147238606456175e-06,2.289699888557159e-05,-6.173201821650372e-06,2.322139616373101e-05,2.336439268112867e-05
6.9716878365,63.0283121635,8,0,-0.02094641333264846,7.600262604739626,-0.7839451940470633,-6.147238606456175e-06,2.433759746583292e-05,-6.271561552376507e-06,2.465681265582811e-05,2.475804351578361e-05
5.528312163500001,64.4716878365,8,0,-0.173782871929659,7.11186643375871,-0.591575405173685,-6.245598337181876e-06,2.289699888557159e-05,-4.73260324138948e-06,2.308788597218728e-05,2.377332052703876e-05
6.9716878365,64.4716878365,8,0,-0.05373299024126954,7.592065960512267,-0.6038703715144519,-6.245598337181876e-06,2.433759746583227e-05,-4.830962972115615e-06,2.452719839357816e-05,2.512601114529401e-05
8.028312163500001,63.0283121635,8,0,-0.2304530727392007,7.887378967217051,-0.9970999663242309,-7.047353006539082e-06,2.542397515328592e-05,-7.976799730593847e-06,2.590668783672164e-05,2.583676072053404e-05
9.471687836500001,63.0283121635,8,0,-0.1031663678893948,8.396525786616275,-1.006400797935947,-7.047353006539082e-06,2.695141561148359e-05,-8.051206383487578e-06,2.742156329227778e-05,2.739022009638122e-05
8.028312163500001,64.4716878365,8,0,-0.2552552903704806,7.881178412809231,-0.8061699090495091,-7.121759659432922e-06,2.542397515328592e-05,-6.449359272396073e-06,2.574040466937216e-05,2.617365551357622e-05
9.471687836500001,64.4716878365,8,0,-0.1279685855206569,8.390325232208525,-0.8154707406612255,-7.121759659432922e-06,2.695141561148381e-05,-6.523765925289804e-06,2.726087071558555e-05,2.768318253785303e-05
10.5283121635,63.0283121635,8,0,-0.3386450766659213,8.69509930445726,-1.186560505268039,-8.039743688896756e-06,2.809523383559597e-05,-9.492484042144308e-06,2.870824194833903e-05,2.855980392721809e-05
11.9716878365,63.0283121635,8,0,-0.2055176562632255,9.227608986068043,-1.192613280269827,-8.039743688896756e-06,2.969276288042832e-05,-9.54090624215862e-06,3.028653878334552e-05,3.020170700106411e-05
10.5283121635,64.4716878365,8,0,-0.3547858100040617,8.691064121122725,-0.9868693746639137,-8.088165888911177e-06,2.809523383559597e-05,-7.894954997311309e-06,2.852088212334105e-05,2.88205499707985e-05
11.9716878365,64.4716878365,8,0,-0.221658389601366,9.223573802733508,-0.9929221496657705,-8.088165888911177e-06,2.969276288042832e-05,-7.943377197326164e-06,3.010576852042581e-05,3.041836856033501e-05
13.0283121635,63.0283121635,8,0,-0.4617091411443104,9.535211770622285,-1.339164220713656,-9.10563866815962e-06,3.088204497890676e-05,-1.071331376570925e-05,3.15871761691513e-05,3.142165426429133e-05
14.4716878365,63.0283121635,8,0,-0.3240716350710726,10.08576179491524,-1.341787903742697,-9.10563866815962e-06,3.253369505178561e-05,-1.073430322994157e-05,3.321437341272341e-05,3.311270909627839e-05
13.0283121635,64.4716878365,8,0,-0.4687056292216076,9.53346264860296,-1.132707961603663,-9.126628132391512e-06,3.088204497890676e-05,-9.061663692829305e-06,3.138872785799478e-05,3.160649570194016e-05
14.4716878365,64.4716878365,8,0,-0.3310681231483699,10.08401267289591,-1.13533164463269,-9.126628132391512e-06,3.253369505178561e-05,-9.082653157061523e-06,3.302299121653016e-05,3.32547008292585e-05
15.5283121635,63.0283121635,8,0,-0.59598738800414,10.40006881842578,-1.454564031838301,-1.022721469635387e-05,3.375701012936581e-05,-1.163651225470641e-05,3.451363642315401e-05,3.43597470989048e-05
16.9716878365,63.0283121635,8,0,-0.4551116485978821,10.96357177605081,-1.453633185576753,-1.022721469635387e-05,3.54475190022409e-05,-1.162906548461402e-05,3.617610461875205e-05,3.607566344920716e-05
15.5283121635,64.4716878365,8,0,-0.5935051313068405,10.4006893826001,-1.243250422728942,-1.021976792626197e-05,3.375701012936581e-05,-9.946003381831534e-06,3.43123563256965e-05,3.447106066274009e-05
16.9716878365,64.4716878365,8,0,-0.4526293919006279,10.96419234022495,-1.242319576467434,-1.021976792626197e-05,3.544751900224036e-05,-9.938556611739473e-06,3.598199486183996e-05,3.614601240092074e-05
18.0283121635,63.0283121635,8,0,-0.7379757262870243,11.28235656384731,-1.532854806111635,-1.138740757519632e-05,3.6693921585341e-05,-1.226283844889308e-05,3.746349390774815e-05,3.73346936234306e-05
19.4716878365,63.0283121635,8,0,-0.5950818670380773,11.85393200084309,-1.528291174432807,-1.138740757519632e-05,3.840864789632836e-05,-1.222632939546246e-05,3.914814281296709e-05,3.90585116775152e-05
18.0283121635,64.4716878365,8,0,-0.7258060418102237,11.28539898496651,-1.31851401723816,-1.135089852176592e-05,3.6693921585341e-05,-1.054811213790528e-05,3.726606076936298e-05,3.737585523584894e-05
19.4716878365,64.4716878365,8,0,-0.5829121825612584,11.85697442196237,-1.313950385559441,-1.135089852176592e-05,3.840864789632858e-05,-1.051160308447553e-05,3.895772768510673e-05,3.906089660815951e-05
20.5283121635,63.0283121635,8,0,-0.8842810104459287,12.1750625618319,-1.574533035436735,-1.256974928289249e-05,3.966762500621883e-05,-1.259626428349388e-05,4.04162467449526e-05,4.031849751849542e-05
21.9716878365,63.0283121635,8,0,-0.7405424172005159,12.75001693481355,-1.566304236882057,-1.256974928289249e-05,4.139248812516378e-05,-1.253043389505646e-05,4.211035333608191e-05,4.203702479893254e-05
20.5283121635,64.4716878365,8,0,-0.8623375476333472,12.18054842753505,-1.358925145568521,-1.250391889445475e-05,3.966762500621883e-05,-1.087140116454817e-05,4.022794731123422e-05,4.029335599845351e-05
21.9716878365,64.4716878365,8,0,-0.7185989543879523,12.75550280051663,-1.350696347013857,-1.250391889445475e-05,4.139248812516357e-05,-1.080557077611085e-05,4.192874863333147e-05,4.197545629883464e-05
23.0283121635,63.0283121635,8,0,-1.031595118289832,13.07145463184038,-1.58048572734758,-1.375826808399977e-05,4.265393091652109e-05,-1.264388581878064e-05,4.335373066136601e-05,4.328906553392293e-05
24.4716878365,63.0283121635,8,0,-0.8881398951206751,13.64527552451701,-1.568608821554744,-1.375826808399977e-05,4.437539359455098e-05,-1.254887057243795e-05,4.504489059177888e-05,4.499117715477086e-05
23.0283121635,64.4716878365,8,0,-0.9999233695088288,13.07937256903563,-1.365302892593844,-1.366325283765676e-05,4.265393091652109e-05,-1.092242314075075e-05,4.317862909334439e-05,4.320173596158782e-05
24.4716878365,64.4716878365,8,0,-0.8564681463396715,13.65319346171226,-1.353425986800954,-1.366325283765676e-05,4.437539359455098e-05,-1.082740789440763e-05,4.487605192228746e-05,4.486989400427925e-05
25.5283121635,63.0283121635,8,0,-1.176690190744955,13.96507852167373,-1.551997900400034,-1.493747142772284e-05,4.562960342195188e-05,-1.241598320320027e-05,4.62593608504145e-05,4.62275869214291e-05
26.9716878365,63.0283121635,8,0,-1.034598332917617,14.53344595298308,-1.536545459251897,-1.493747142772284e-05,4.733470571587994e-05,-1.229236367401517e-05,4.793552881999029e-05,4.790340960220948e-05
25.5283121635,64.4716878365,8,0,-1.135483681016769,13.97538014910577,-1.338860113658986,-1.481385189853828e-05,4.562960342195188e-05,-1.071088090927189e-05,4.610044107047782e-05,4.608240159411684e-05
26.9716878365,64.4716878365,8,0,-0.9933918231894312,14.54374758041513,-1.323407672510998,-1.481385189853828e-05,4.733470571587994e-05,-1.058726138008798e-05,4.778237686851216e-05,4.772687589156545e-05
28.0283121635,63.0283121635,8,0,-1.316435578818867,14.84977784641196,-1.490767982149948,-1.609241612934994e-05,4.857243757157336e-05,-1.192614385719958e-05,4.911772434091971e-05,4.911728151785905e-05
29.4716878365,63.0283121635,8,0,-1.176731910309138,15.40859252045088,-1.471874458019694,-1.609241612934994e-05,5.024888159369011e-05,-1.177499566415755e-05,5.076731963901563e-05,5.075781858465528e-05
28.0283121635,64.4716878365,8,0,-1.266052847804712,14.8623735291655,-1.281212479385327,-1.594126793630747e-05,4.857243757157336e-05,-1.024969983508262e-05,4.897700910174395e-05,4.89188096319351e-05
29.4716878365,64.4716878365,8,0,-1.126349179295018,15.42118820320427,-1.262318955255032,-1.594126793630747e-05,5.024888159368968e-05,-1.009855164204026e-05,5.063184679547506e-05,5.053075887257042e-05
30.5283121635,63.0283121635,8,0,-1.447834003394826,15.71973586172718,-1.398921506362064,-1.720885750024518e-05,5.146142196024283e-05,-1.119137205089652e-05,5.191440552503699e-05,5.194283482300428e-05
31.9716878365,63.0283121635,8,0,-1.31147751458836,16.26516181695304,-1.376788067145309,-1.720885750024518e-05,5.309769982592041e-05,-1.101430453716247e-05,5.352646335934021e-05,5.353982232730928e-05
30.5283121635,64.4716878365,8,0,-1.388811498816738,15.7344914878717,-1.194386773152448,-1.703178998651092e-05,5.146142196024283e-05,-9.555094185219586e-06,5.179306025863078e-05,5.169592303135011e-05
31.9716878365,64.4716878365,8,0,-1.252455010010218,16.27991744309778,-1.17225333393572,-1.703178998651092e-05,5.309769982592106e-05,-9.378026671485757e-06,5.340982845879519e-05,5.326726147179446e-05
33.0283121635,63.0283121635,8,0,-1.568072250125104,16.56953553984818,-1.279015445640697,-1.827345963227887e-05,5.427697152761424e-05,-1.023212356512557e-05,5.463596610067353e-05,5.469019456684353e-05
34.4716878365,63.0283121635,8,0,-1.435942888507178,17.09805298631988,-1.25391195636433,-1.827345963227887e-05,5.586252386702935e-05,-1.003129565091464e-05,5.620031690344061e-05,5.623608246869649e-05
33.0283121635,64.4716878365,8,0,-1.501129612054919,16.58627119936572,-1.080821403213713,-1.807263171806832e-05,5.427697152761424e-05,-8.646571225709703e-06,5.453439562517382e-05,5.440000332418908e-05
34.4716878365,64.4716878365,8,0,-1.369000250436985,17.11478864583746,-1.055717913937522,-1.807263171806832e-05,5.586252386702946e-05,-8.445743311500178e-06,5.610293517452588e-05,5.592337317647811e-05
35.5283121635,63.0283121635,8,0,-1.674580461041657,17.39423228138325,-1.134027926643927,-1.92740433004399e-05,5.700120766925971e-05,-9.07222341315142e-06,5.72700241836006e-05,5.734656267569672e-05
36.9716878365,63.0283121635,8,0,-1.547464655861186,17.90269550210513,-1.10629131836544,-1.92740433004399e-05,5.852659733142536e-05,-8.850330546923517e-06,5.877748400045825e-05,5.883456312029696e-05
35.5283121635,64.4716878365,8,0,-1.600616172299113,17.41272335356889,-0.9433542188731943,-1.905215043421227e-05,5.700120766925971e-05,-7.546833750985554e-06,5.718796859117685e-05,5.70185861164555e-05
36.9716878365,64.4716878365,8,0,-1.473500367118643,17.92118657429077,-0.9156176105947605,-1.905215043421227e-05,5.852659733142536e-05,-7.324940884758085e-06,5.869911785791891e-05,5.848739366141879e-05
38.0283121635,63.0283121635,8,0,-1.765093695877896,18.1894324514595,-0.9673306111384613,-2.019984578797686e-05,5.961825880137269e-05,-7.738644889107691e-06,5.980539225096808e-05,5.990049087159631e-05
39.4716878365,63.0283121635,8,0,-1.643669951000765,18.67512743096802,-0.9373594191063831,-2.019984578797686e-05,6.107534373989826e-05,-7.498875352851065e-06,6.124794857223081e-05,6.132465920086734e-05
38.0283121635,64.4716878365,8,0,-1.685170517125905,18.20941324614756,-0.7851949938228464,-1.996007625172094e-05,5.961825880137291e-05,-6.281559950582771e-06,5.974202591146737e-05,5.954055540969634e-05
39.4716878365,64.4716878365,8,0,-1.563746772248828,18.69510822565587,-0.755223801790863,-1.996007625172094e-05,6.107534373989783e-05,-6.041790414326904e-06,6.11878027217973e-05,6.094903926973772e-05
40.5283121635,63.0283121635,8,0,-1.837709781302665,18.95137069600622,-0.7826434014294585,-2.10417678569735e-05,6.211455405226202e-05,-6.261147211435668e-06,6.223224372416246e-05,6.234202501697979e-05
41.97168783650001,63.0283121635,8,0,-1.722535578408915,19.41206750758121,-0.7508887235538737,-2.10417678569735e-05,6.349664448698702e-05,-6.00710978843099e-06,6.360322305596394e-05,6.369735178732991e-05
40.5283121635,64.4716878365,8,0,-1.753030640301214,18.97254048125658,-0.6098820970888881,-2.078773043396914e-05,6.211455405226202e-05,-4.879056776711105e-06,6.218627890688662e-05,6.195626628074214e-05
41.97168783650001,64.4716878365,8,0,-1.63785643740751,19.4332372928314,-0.5781274192132762,-2.078773043396914e-05,6.349664448698647e-05,-4.625019353706209e-06,6.356004510391368e-05,6.329957778963759e-05
43.0283121635,63.0283121635,8,0,-1.890938357081668,19.67697951675345,-0.5839731397001201,-2.17925863560641e-05,6.447908513927637e-05,-4.671785117600961e-06,6.454228548844799e-05,6.466286332306993e-05
44.4716878365,63.0283121635,8,0,-1.782439411842998,20.11097529770813,-0.5509266313829256,-2.17925863560641e-05,6.578107248214041e-05,-4.407413051063405e-06,6.583649155725009e-05,6.594536312376755e-05
43.0283121635,64.4716878365,8,0,-1.802814334902681,19.6990105222982,-0.4212247218420342,-2.152821428952714e-05,6.447908513927637e-05,-3.369797774736274e-06,6.451207996205503e-05,6.425768366600471e-05
44.4716878365,64.4716878365,8,0,-1.694315389664003,20.13300630325291,-0.3881782135249212,-2.152821428952714e-05,6.578107248214051e-05,-3.105425708199369e-06,6.580867727965471e-05,6.553196609048586e-05
45.52831216350001,63.0283121635,8,0,-1.923737264877035,20.3639456642354,-0.3755395016605045,-2.244711577899483e-05,6.670361593745489e-05,-3.004316013284036e-06,6.672891958173322e-05,6.685650564935684e-05
46.97168783650001,63.0283121635,8,0,-1.822199910764458,20.77009508068571,-0.3417192713236155,-2.244711577899483e-05,6.792206418680582e-05,-2.733754170588924e-06,6.794273412893102e-05,6.806329352161161e-05
45.52831216350001,64.4716878365,8,0,-1.833549983978809,20.38649248445989,-0.223233470491625,-2.217655393630009e-05,6.670361593745467e-05,-1.785867763933e-06,6.671258588495521e-05,6.643851597113545e-05
46.97168783650001,64.4716878365,8,0,-1.732012629866214,20.79264190091027,-0.1894132401547631,-2.217655393630009e-05,6.792206418680582e-05,-1.515305921238105e-06,6.792843495512617e-05,6.764097388028983e-05
48.0283121635,63.0283121635,8,0,-1.935533827421252,21.01074934415955,-0.1616922967634957,-2.300230772307564e-05,6.878282496324754e-05,-1.293538374107965e-06,6.878738223304028e-05,6.89183792978387e-05
49.47168783650001,63.0283121635,8,0,-1.841101000325375,21.38848065254305,-0.1276277001971388,-2.300230772307564e-05,6.991601888839806e-05,-1.021021601577111e-06,6.991882364630276e-05,7.00477292111651e-05
48.0283121635,64.4716878365,8,0,-1.84469490324439,21.03345907520376,-0.02004305611966726,-2.272979095054506e-05,6.878282496324754e-05,-1.603444489573381e-07,6.878289520034634e-05,6.849432965339605e-05
49.47168783650001,64.4716878365,8,0,-1.750262076148496,21.41119038358734,0.01402154044667604,-2.272979095054506e-05,6.991601888839828e-05,1.121723235734083e-07,6.99160528419726e-05,6.962328307339921e-05
50.5283121635,63.0283121635,8,0,-1.92622998961503,21.61668384166764,0.053175102837023,-2.345728304010221e-05,7.071437228502848e-05,4.25400822696184e-07,7.071485269746293e-05,7.084593274812817e-05
51.97168783650001,63.0283121635,8,0,-1.838900979870717,21.9659998806449,0.08695874056850142,-2.345728304010221e-05,7.176232040196023e-05,6.956699245480114e-07,7.176359101790634e-05,7.189731545265881e-05
50.5283121635,64.4716878365,8,0,-1.836140288997808,21.63920626682195,0.1841686174534928,-2.318701393825054e-05,7.071437228502848e-05,1.473348939627942e-06,7.072015128254373e-05,7.04226364549118e-05
51.97168783650001,64.4716878365,8,0,-1.748811279253495,21.9885223057992,0.2179522551849712,-2.318701393825054e-05,7.176232040196023e-05,1.74361804147977e-06,7.177032453287713e-05,7.147755708649585e-05
53.0283121635,63.0283121635,8,0,-1.896191635478393,22.18185480119145,0.2647114250890287,-2.381329707448401e-05,7.249888867219534e-05,2.11769140071223e-06,7.251052810008487e-05,7.263869354973105e-05
54.4716878365,63.0283121635,8,0,-1.815825483755109,22.50331940808459,0.2977071888269354,-2.381329707448401e-05,7.346328249287475e-05,2.381657510615483e-06,7.34778580534445e-05,7.361279347410666e-05
53.0283121635,64.4716878365,8,0,-1.808202932177291,22.20385197701673,0.3852606526739955,-2.354933096458071e-05,7.249888867219534e-05,3.082085221391964e-06,7.252360751982761e-05,7.222294936923978e-05
54.4716878365,64.4716878365,8,0,-1.727836780453997,22.5253165839099,0.4182564164118886,-2.354933096458071e-05,7.346328249287486e-05,3.346051331295109e-06,7.349212598890004e-05,7.320447832576845e-05
55.5283121635,63.0283121635,8,0,-1.846223585295813,22.70715994161095,0.4686878060417252,-2.407364342623536e-05,7.413989068139168e-05,3.749502448333801e-06,7.41756638817207e-05,7.429829052676952e-05
56.97168783650001,63.0283121635,8,0,-1.772545741358794,23.00187131735903,0.5004198291983211,-2.407364342623536e-05,7.502402480863592e-05,4.003358633586568e-06,7.506444035767972e-05,7.51970033787872e-05
55.5283121635,64.4716878365,8,0,-1.761604856878296,22.72831462371533,0.579204571947309,-2.381978724098281e-05,7.413989068139168e-05,4.633636575578472e-06,7.419465451906956e-05,7.389680707512975e-05
56.97168783650001,64.4716878365,8,0,-1.687927012941281,23.02302599946339,0.6109365951038642,-2.381978724098281e-05,7.502402480863586e-05,4.887492760830914e-06,7.508440542760319e-05,7.480675543747714e-05
58.0283121635,63.0283121635,8,0,-1.777532765509867,23.19425134925112,0.6610689548976721,-2.424350592903246e-05,7.564363053001147e-05,5.288551639181377e-06,7.571358249360317e-05,7.58284437819713e-05
59.47168783650001,63.0283121635,8,0,-1.71014441681946,23.46380474401275,0.6911026632135532,-2.424350592903246e-05,7.645229071429635e-05,5.528821305708425e-06,7.652812521425346e-05,7.665485819347768e-05
58.0283121635,64.4716878365,8,0,-1.697442876667481,23.21427382146172,0.7621514779332957,-2.400323626250531e-05,7.564363053001147e-05,6.097211823466366e-06,7.573681273814327e-05,7.54477696454067e-05
59.47168783650001,64.4716878365,8,0,-1.630054527977074,23.48382721622335,0.792185186249204,-2.400323626250531e-05,7.645229071429635e-05,6.337481489993631e-06,7.655214531930159e-05,7.628910466757085e-05
60.5283121635,63.0283121635,8,0,-1.691682789670171,23.645483605383,0.8380723061653897,-2.432977181125094e-05,7.701889376896171e-05,6.704578449323118e-06,7.71296557091818e-05,7.723492878860602e-05
61.9716878365,63.0283121635,8,0,-1.630072110599452,23.89192632166587,0.8660218419071636,-2.432977181125094e-05,7.775822191781034e-05,6.928174735257309e-06,7.78756315741796e-05,7.799329671503433e-05
60.5283121635,64.4716878365,8,0,-1.617150694358864,23.66411662921082,0.9304883247715219,-2.410617552531702e-05,7.701889376896171e-05,7.443906598172175e-06,7.715569685224784e-05,7.688139088594346e-05
61.9716878365,64.4716878365,8,0,-1.555540015288096,23.9105593454939,0.9584378605132686,-2.410617552531702e-05,7.775822191781093e-05,7.667502884106149e-06,7.790230454808705e-05,7.765821190506494e-05
63.0283121635,63.0283121635,8,0,-1.59054365791239,24.06385181424687,0.9962133962418006,-2.434082115671714e-05,7.82767607319199e-05,7.969707169934405e-06,7.843126822698834e-05,7.852552308599565e-05
64.47168783650001,63.0283121635,8,0,-1.53409813815786,24.28963389326499,1.021746054227391,-2.434082115671714e-05,7.895410696897426e-05,8.173968433819131e-06,7.911556090401967e-05,7.922122464622345e-05
63.0283121635,64.4716878365,8,0,-1.52245656995067,24.0808735862373,1.080881675873514,-2.413655989283198e-05,7.82767607319199e-05,8.647053406988115e-06,7.845896053049489e-05,7.820517462991479e-05
64.47168783650001,64.4716878365,8,0,-1.466011050196144,24.30665566525541,1.106414333859173,-2.413655989283198e-05,7.895410696897421e-05,8.851314670873384e-06,7.914375050098936e-05,7.892268356499295e-05
65.5283121635,63.0283121635,8,0,-1.476240450572812,24.45292406012464,1.132336917916616,-2.428630868993271e-05,7.94303493528571e-05,9.058695343332928e-06,7.96277719754648e-05,7.970994558673277e-05
66.97168783650001,63.0283121635,8,0,-1.424259437865587,24.66084811095354,1.155174688823565,-2.428630868993271e-05,8.005412150534379e-05,9.241397510588521e-06,8.025834865123708e-05,8.034945446675604e-05
65.5283121635,64.4716878365,8,0,-1.415339728154263,24.46814924072928,1.210308436977507,-2.410360652267706e-05,7.94303493528571e-05,9.682467495820057e-06,7.965623197316246e-05,7.942852356175606e-05
66.97168783650001,64.4716878365,8,0,-1.363358715447053,24.67607329155812,1.233146207884429,-2.410360652267706e-05,8.005412150534363e-05,9.865169663075433e-06,8.028719179040215e-05,8.009299519839391e-05
68.0283121635,63.0283121635,8,0,-1.351104751742088,24.81677291511632,1.24363414145218,-2.417695353766774e-05,8.04945571297659e-05,9.949073131617443e-06,8.073044149270716e-05,8.079979898109154e-05
69.47168783650001,63.0283121635,8,0,-1.30281138916312,25.0099463654322,1.263552710265798,-2.417695353766774e-05,8.107407748071351e-05,1.010842168212638e-05,8.131622628378454e-05,8.139065419519515e-05
68.0283121635,64.4716878365,8,0,-1.297988568239135,24.83005196099206,1.316074185320605,-2.401760498715888e-05,8.04945571297659e-05,1.052859348256484e-05,8.07590513515579e-05,8.056268942006751e-05
69.47168783650001,64.4716878365,8,0,-1.249695205660148,25.02322541130801,1.33599275413423,-2.401760498715888e-05,8.107407748071373e-05,1.068794203307384e-05,8.134512234589943e-05,8.118144626111798e-05
70.5283121635,63.0283121635,8,0,-1.217632108832326,25.1599103468226,1.327648551444485,-2.402435102572152e-05,8.148581879689819e-05,1.062118841155588e-05,8.175244071230182e-05,8.180852472484959e-05
71.97168783650001,63.0283121635,8,0,-1.172183955124634,25.34170296165337,1.344474320608221,-2.402435102572152e-05,8.20311966413905e-05,1.075579456486577e-05,8.230320307870583e-05,8.23593130287962e-05
70.5283121635,64.4716878365,8,0,-1.172763391062318,25.17112752626511,1.395820782005956,-2.38897448724115e-05,8.148581879689819e-05,1.116656625604765e-05,8.178082100709947e-05,8.162073229558724e-05
71.97168783650001,64.4716878365,8,0,-1.127315237354639,25.35292014109582,1.41264655116976,-2.38897448724115e-05,8.203119664139033e-05,1.130117240935808e-05,8.233178658786882e-05,8.220212721981325e-05
73.0283121635,63.0283121635,8,0,-1.078448159715127,25.48722977078784,1.382272548562998,-2.384081792771868e-05,8.242189379429319e-05,1.105818038850398e-05,8.270881021913551e-05,8.275137677069837e-05
74.47168783650001,63.0283121635,8,0,-1.034945940743699,25.66123864667356,1.395878430743729,-2.384081792771868e-05,8.294392042195034e-05,1.116702744594983e-05,8.323507489819957e-05,8.327172652947963e-05
73.0283121635,64.4716878365,8,0,-1.042165807233195,25.49630035890833,1.447525877020114,-2.373197087027288e-05,8.242189379429319e-05,1.158020701616091e-05,8.273677773042378e-05,8.261749336470369e-05
74.47168783650001,64.4716878365,8,0,-0.9986635882617296,25.67030923479419,1.461131759200872,-2.373197087027288e-05,8.294392042195077e-05,1.168905407360698e-05,8.326317319349308e-05,8.317089985211057e-05
75.5283121635,63.0283121635,8,0,-0.9362852067014016,25.80395811764005,1.405738838190509,-2.363927915555652e-05,8.332169414180927e-05,1.124591070552407e-05,8.361648135648392e-05,8.364541272951203e-05
76.97168783650001,63.0283121635,8,0,-0.8937793426343568,25.97398157390823,1.416039682751498,-2.363927915555652e-05,8.383176451061381e-05,1.132831746201198e-05,8.412946394744743e-05,8.414599265535005e-05
75.5283121635,64.4716878365,8,0,-0.908816287872007,25.8108253473474,1.46949763429107,-2.355687239906834e-05,8.332169414180927e-05,1.175598107432856e-05,8.364399352304836e-05,8.356957794602635e-05
76.97168783650001,64.4716878365,8,0,-0.8663104238049577,25.9808488036156,1.479798478852079,-2.355687239906834e-05,8.383176451061386e-05,1.183838783081663e-05,8.415704149056009e-05,8.410538026710842e-05
78.0283121635,63.0283121635,8,0,-0.7939700640301517,26.11561971915961,1.396610636660043,-2.343319998022417e-05,8.420515915253486e-05,1.117288509328035e-05,8.449431932713348e-05,8.450948522826738e-05
79.47168783650001,63.0283121635,8,0,-0.7514648336768097,26.28564064057298,1.403559214103863,-2.343319998022417e-05,8.471522191677496e-05,1.122847371283091e-05,8.500588883241452e-05,8.500198547985563e-05
78.0283121635,64.4716878365,8,0,-0.7754405241799107,26.12025210412217,1.460368482190022,-2.337761136067345e-05,8.420515915253486e-05,1.168294785752018e-05,8.452140686471613e-05,8.449532986392281e-05
79.47168783650001,64.4716878365,8,0,-0.7329352938265732,26.29027302553552,1.467317059633896,-2.337761136067345e-05,8.47152219167749e-05,1.173853647707117e-05,8.50329797051718e-05,8.502488965377399e-05
80.5283121635,63.0283121635,8,0,-0.6544230259980086,26.42801264589803,1.353775064414767,-2.323656379991205e-05,8.50931788876721e-05,1.083020051531814e-05,8.53631915658934e-05,8.536418129388602e-05
81.97168783650001,63.0283121635,8,0,-0.6108784523838233,26.60219094035477,1.357359537822482,-2.323656379991205e-05,8.561571377104231e-05,1.085887630257985e-05,8.588585805612402e-05,8.586121840855961e-05
80.5283121635,64.4716878365,8,0,-0.6448644302441666,26.43040229483649,1.419091924836078,-2.320788801265052e-05,8.50931788876721e-05,1.135273539868862e-05,8.538988065836658e-05,8.541474295598216e-05
81.97168783650001,64.4716878365,8,0,-0.6013198566299636,26.6045805892933,1.422676398243758,-2.320788801265052e-05,8.561571377104253e-05,1.138141118595007e-05,8.591248813426792e-05,8.595028219530752e-05
83.02831216350002,63.0283121635,8,0,-0.5206668528400487,26.74719692732394,1.276444084804736,-2.306389147094731e-05,8.600756364970864e-05,1.021155267843789e-05,8.624605021026463e-05,8.623157725594517e-05
84.47168783650002,63.0283121635,8,0,-0.4749986116624827,26.92986989203421,1.276687854634009,-2.306389147094731e-05,8.655558254383943e-05,1.021350283707208e-05,8.679297244485379e-05,8.674637932940465e-05
83.02831216350002,64.4716878365,8,0,-0.5200167999620309,26.74735944054345,1.344946446571119,-2.306194131231325e-05,8.600756364970864e-05,1.075957157256895e-05,8.627227579447153e-05,8.634917421042528e-05
84.47168783650002,64.4716878365,8,0,-0.4743485587844649,26.93003240525371,1.345190216400392,-2.306194131231325e-05,8.655558254383943e-05,1.076152173120314e-05,8.681907289929822e-05,8.690342822318156e-05
85.5283121635,63.0283121635,8,0,-0.3958437825935857,27.07949290975596,1.164167124043504,-2.293029443210424e-05,8.697105233729393e-05,9.313336992348032e-06,8.716800870143479e-05,8.71344848046956e-05
86.97168783650002,63.0283121635,8,0,-0.3469216417064658,27.27518147330444,1.161131851863735,-2.293029443210424e-05,8.755811802793937e-05,9.28905481490988e-06,8.775301313283983e-05,8.768000660847172e-05
85.5283121635,64.4716878365,8,0,-0.4039378417395101,27.07746939496954,1.237550335374184,-2.295457660954207e-05,8.697105233729414e-05,9.900402682993473e-06,8.719352093971732e-05,8.732052785763969e-05
86.97168783650002,64.4716878365,8,0,-0.3550157008523813,27.27315795851806,1.234515063194456,-2.295457660954207e-05,8.755811802793969e-05,9.876120505555646e-06,8.77783275424179e-05,8.790581123808993e-05
88.02831216350002,63.0283121635,8,0,-0.2832377550759997,27.43148688855809,1.016859110763275,-2.285155032708967e-05,8.800734824744669e-05,8.134872886106197e-06,8.815638299409321e-05,8.809439449895885e-05
89.47168783650001,63.0283121635,8,0,-0.229883247292995,27.64490491969011,1.010651616086534,-2.285155032708967e-05,8.864760234084275e-05,8.085212928692271e-06,8.879398228675691e-05,8.868100146608292e-05
88.02831216350002,64.4716878365,8,0,-0.2997910742140295,27.42734855877359,1.096890872437741,-2.290121028450376e-05,8.800734824744669e-05,8.775126979501929e-06,8.818065029043515e-05,8.834910105740113e-05
89.47168783650001,64.4716878365,8,0,-0.2464365664310204,27.64076658990562,1.090683377761014,-2.290121028450376e-05,8.864760234084281e-05,8.725467022088111e-06,8.881797096935197e-05,8.897490798583861e-05
90.52831216350002,63.0283121635,8,0,-0.1862982638161892,27.81004009685807,0.8348471302191686,-2.284418652169826e-05,8.914116692099877e-05,6.678777041753349e-06,8.924065865581539e-05,8.912615945562072e-05
91.97168783650001,63.0283121635,8,0,-0.1272824791107698,28.04610323567975,0.8256307155709501,-2.284418652169826e-05,8.984935633746379e-05,6.605045724567601e-06,8.994605492695012e-05,8.975574673336084e-05
90.52831216350002,64.4716878365,8,0,-0.2108753695448087,27.80389582042591,0.9233708072773034,-2.291791783888412e-05,8.914116692099877e-05,7.386966458218427e-06,8.926277268309771e-05,8.944809355949923e-05
91.97168783650001,64.4716878365,8,0,-0.1518595848393893,28.03995895924759,0.914154392629051,-2.291791783888412e-05,8.984935633746379e-05,7.313235141032408e-06,8.996780224936971e-05,9.011505365976612e-05
93.02831216350002,63.0283121635,8,0,-0.1086615079406128,28.22229613527433,0.6189382047793688,-2.292555373362943e-05,9.039827683923036e-05,4.95150563823495e-06,9.045233810216375e-05,9.022455780885978e-05
94.47168783650002,63.0283121635,8,0,-0.04270406762875822,28.48612589652175,0.6069487945445048,-2.292555373362943e-05,9.118976612297261e-05,4.855590356356038e-06,9.124139393248909e-05,9.087578620858813e-05
93.02831216350002,64.4716878365,8,0,-0.1406332685668357,28.21430319511778,0.7178743652471028,-2.302146901550809e-05,9.039827683923036e-05,5.742994921976823e-06,9.047092926171527e-05,9.060981647822512e-05
94.47168783650002,64.4716878365,8,0,-0.07467582825496777,28.47813295636525,0.7058849550123066,-2.302146901550809e-05,9.118976612297277e-05,5.647079640098453e-06,9.125952730262866e-05,9.129457353574157e-05
95.5283121635,63.0283121635,8,0,-0.0541637760877629,28.67568097362836,0.3705098685724976,-2.311386886238352e-05,9.180551013648094e-05,2.964078948579981e-06,9.182461984488287e-05,9.133060119117072e-05
96.97168783650002,63.0283121635,8,0,0.02006577771985363,28.97259918885882,0.356077137544861,-2.311386886238352e-05,9.269626478217234e-05,2.848617100358888e-06,9.271377920882173e-05,9.192195043195437e-05
95.5283121635,64.4716878365,8,0,-0.09265105882810953,28.66605915294327,0.4818541992838543,-2.322933071060456e-05,9.180551013648094e-05,3.854833594270834e-06,9.183779507872136e-05,9.177120584800077e-05
96.97168783650002,64.4716878365,8,0,-0.01842150502049744,28.96297736817372,0.4674214682562718,-2.322933071060456e-05,9.269626478217228e-05,3.739371746050175e-06,9.2726411846791e-05,9.238863248416083e-05
98.02831216350002,63.0283121635,8,0,-0.02684125290622408,29.17788874430374,0.09162415307694273,-2.342820300474291e-05,9.339071698409693e-05,7.329932246155418e-07,9.339186678452999e-05,9.224722641919122e-05
99.47168783650002,63.0283121635,8,0,0.05703575155007456,29.51339676212893,0.07519755617457324,-2.342820300474291e-05,9.439724103757252e-05,6.015804493965859e-07,9.439800890371884e-05,9.254454770205853e-05
98.02831216350002,64.4716878365,8,0,-0.07064551131251573,29.16693767970217,0.2174396597614528,-2.355961577996178e-05,9.339071698409693e-05,1.739517278091622e-06,9.339718501404524e-05,9.272762424548435e-05
99.47168783650002,64.4716878365,8,0,0.01323149314380601,29.50244569752745,0.2010130628591104,-2.355961577996178e-05,9.439724103757279e-05,1.608104502872883e-06,9.440272160058465e-05,9.303634032464678e-05
0.5283121635,65.5283121635,8,0,-0.03493284364661409,6.030380843386744,-0.2015581106511665,-4.936089774378559e-06,1.932516497375487e-05,-1.612464885209332e-06,1.935192758438326e-05,2.115403449207346e-05
1.9716878365,65.5283121635,8,0,0.06214566804316624,6.418694890145865,-0.2168613527363825,-4.936089774378559e-06,2.049010711403223e-05,-1.73489082189106e-06,2.051966669682529e-05,2.161175627591491e-05
0.5283121635,66.9716878365,8,0,-0.07574148920711754,6.020178681996617,-0.05594034311657724,-5.05851571106007e-06,1.932516497375487e-05,-4.475227449326179e-07,1.932721818863919e-05,2.160456997986022e-05
1.9716878365,66.9716878365,8,0,0.02133702248266278,6.408492728755738,-0.07124358520173898,-5.05851571106007e-06,2.049010711403223e-05,-5.699486816139118e-07,2.049328537824283e-05,2.205012050011869e-05
3.0283121635,65.5283121635,8,0,-0.07179166259519487,6.664962158332724,-0.4643758689443412,-5.561703046970802e-06,2.138531223674087e-05,-3.71500695155473e-06,2.151275041999854e-05,2.215861220421926e-05
4.4716878365,65.5283121635,8,0,0.03494198226009115,7.091896737753868,-0.4777635857018322,-5.561703046970802e-06,2.26661159750043e-05,-3.822108685614658e-06,2.279490881945154e-05,2.319492860098906e-05
3.0283121635,66.9716878365,8,0,-0.1074922406154422,6.656037013827526,-0.3042754016613987,-5.668804781031435e-06,2.138531223674044e-05,-2.43420321329119e-06,2.14399564275797e-05,2.258216257251642e-05
4.4716878365,66.9716878365,8,0,-0.0007585957601561333,7.08297159324867,-0.3176631184189575,-5.668804781031435e-06,2.266611597500387e-05,-2.54130494735166e-06,2.272298304230181e-05,2.35901780258746e-05
5.528312163500001,65.5283121635,8,0,-0.1345518717034961,7.353904995831852,-0.6993197871135796,-6.313689986116669e-06,2.364013748402472e-05,-5.594558296908637e-06,2.389912594285533e-05,2.405904090727093e-05
6.9716878365,65.5283121635,8,0,-0.01952916235701796,7.813995833217764,-0.7102785513314809,-6.313689986116669e-06,2.502040999618246e-05,-5.682228410651847e-06,2.527593471369369e-05,2.538352323480905e-05
5.528312163500001,66.9716878365,8,0,-0.163775242951143,7.346599153020074,-0.5267857230937265,-6.401360099859716e-06,2.364013748402515e-05,-4.214285784749812e-06,2.378721468790447e-05,2.44307156569462e-05
6.9716878365,66.9716878365,8,0,-0.0487525336046466,7.80668999040606,-0.5377444873116413,-6.401360099859716e-06,2.502040999618311e-05,-4.30195589849313e-06,2.516697162567847e-05,2.571909171744687e-05
8.028312163500001,65.5283121635,8,0,-0.2191713066963823,8.089392627622377,-0.9038756286829932,-7.172862283526325e-06,2.606139345374871e-05,-7.231005029463946e-06,2.645017035482818e-05,2.640969886061855e-05
9.471687836500001,65.5283121635,8,0,-0.09719237470729203,8.577308355578738,-0.9120266677498979,-7.172862283526325e-06,2.752514063761779e-05,-7.296213341999183e-06,2.790454953900214e-05,2.788878048039996e-05
8.028312163500001,66.9716878365,8,0,-0.240907410874903,8.083958601577478,-0.7209072306992633,-7.238070596061671e-06,2.606139345374785e-05,-5.767257845594106e-06,2.630926162134175e-05,2.671768648451206e-05
9.471687836500001,66.9716878365,8,0,-0.1189284788857319,8.571874329534163,-0.7290582697661681,-7.238070596061671e-06,2.75251406376179e-05,-5.832466158129344e-06,2.776808123311469e-05,2.815752206392188e-05
10.5283121635,65.5283121635,8,0,-0.32178075665272,8.863794134905563,-1.07632672785182,-8.120733729213153e-06,2.862156583701998e-05,-8.610613822814558e-06,2.911930081043089e-05,2.900376248241525e-05
11.9716878365,65.5283121635,8,0,-0.194135576009097,9.374374857480055,-1.081396077150175,-8.120733729213153e-06,3.015330800474345e-05,-8.651168617201401e-06,3.063607937096618e-05,3.057086834179397e-05
10.5283121635,66.9716878365,8,0,-0.3352990214484062,8.860414568706641,-0.8848589568863992,-8.161288523600213e-06,2.862156583701998e-05,-7.078871655091194e-06,2.895905212508712e-05,2.924356232917538e-05
11.9716878365,66.9716878365,8,0,-0.2076538408047202,9.370995291281385,-0.8899283061846461,-8.161288523600213e-06,3.015330800474421e-05,-7.119426449477169e-06,3.048122554704523e-05,3.077084393362981e-05
13.0283121635,65.5283121635,8,0,-0.4386853299073108,9.669718194796149,-1.215614313054833,-9.139567611540311e-06,3.129404648727352e-05,-9.724914504438665e-06,3.18705743748749e-05,3.173678354174322e-05
14.4716878365,65.5283121635,8,0,-0.3066175528380435,10.19798930307322,-1.21740954433326,-9.139567611540311e-06,3.287885981210473e-05,-9.739276354666076e-06,3.343583344916636e-05,3.335501724607811e-05
13.0283121635,66.9716878365,8,0,-0.4434726133163935,9.668521373943877,-1.017512647450986,-9.15392946176756e-06,3.129404648727352e-05,-8.140101179607891e-06,3.169952775936993e-05,3.19078951020599e-05
14.4716878365,66.9716878365,8,0,-0.3114048362471262,10.19679248222095,-1.019307878729399,-9.15392946176756e-06,3.287885981210473e-05,-8.154463029835194e-06,3.327070331756777e-05,3.348709506069407e-05
15.5283121635,65.5283121635,8,0,-0.5663474022639328,10.50003490458825,-1.321229320618616,-1.021233961091519e-05,3.405318961649355e-05,-1.056983456494893e-05,3.467541610646227e-05,3.454989117252888e-05
16.9716878365,65.5283121635,8,0,-0.4310544551191802,11.04120669316726,-1.319623350012197,-1.021233961091519e-05,3.567670498223058e-05,-1.055698680009758e-05,3.627604804358669e-05,3.61961137440356e-05
15.5283121635,66.9716878365,8,0,-0.5620648139801685,10.50110555165919,-1.118289899901487,-1.019949184606389e-05,3.405318961649355e-05,-8.946319199211895e-06,3.450081865041542e-05,3.465394656663228e-05
16.9716878365,66.9716878365,8,0,-0.4267718668354159,11.0422773402382,-1.116683929295096,-1.019949184606389e-05,3.567670498223058e-05,-8.933471434360764e-06,3.61075621892539e-05,3.626264420724508e-05
18.0283121635,65.5283121635,8,0,-0.7013628065401241,11.34787947029944,-1.393136238929906,-1.132266455716795e-05,3.68743045501903e-05,-1.114508991143924e-05,3.751021336015418e-05,3.740547194388974e-05
19.4716878365,65.5283121635,8,0,-0.5639971814409099,11.89734197069629,-1.388057792385726,-1.132266455716795e-05,3.852269205138086e-05,-1.110446233908581e-05,3.913366144614065e-05,3.906327741907503e-05
18.0283121635,66.9716878365,8,0,-0.6878202824223294,11.35126510132889,-1.187087801281044,-1.128203698481456e-05,3.68743045501903e-05,-9.496702410248352e-06,3.733803971267246e-05,3.744522468259525e-05
19.4716878365,66.9716878365,8,0,-0.5504546573231424,11.90072760172563,-1.182009354736891,-1.128203698481456e-05,3.852269205138054e-05,-9.45607483789513e-06,3.896755808076435e-05,3.906739698481539e-05
20.5283121635,65.5283121635,8,0,-0.8404398411917153,12.20665000034262,-1.431725746593092,-1.245472749208758e-05,3.973363187404974e-05,-1.145380597274473e-05,4.035468438438704e-05,4.027639703714932e-05
21.9716878365,65.5283121635,8,0,-0.7021097062426924,12.75997054013871,-1.423155368826694,-1.245472749208758e-05,4.139359349343802e-05,-1.138524295061355e-05,4.198881448902217e-05,4.193289599434247e-05
20.5283121635,66.9716878365,8,0,-0.8175855004813934,12.2123635855202,-1.224230544169395,-1.238616446995662e-05,3.973363187404974e-05,-9.793844353355157e-06,4.018973150600656e-05,4.025520581326265e-05
21.9716878365,66.9716878365,8,0,-0.6792553655323523,12.76568412531636,-1.215660166403092,-1.238616446995662e-05,4.139359349343823e-05,-9.725281331224734e-06,4.182972530536379e-05,4.187818758017722e-05
23.0283121635,65.5283121635,8,0,-0.9803879644836715,13.07000908071035,-1.437790244783571,-1.359324875091603e-05,4.260833942986006e-05,-1.150232195826857e-05,4.319082411157728e-05,4.314107051283538e-05
24.4716878365,65.5283121635,8,0,-0.8421557980383194,13.62293774649176,-1.42576031036124,-1.359324875091603e-05,4.426712542720428e-05,-1.140608248288992e-05,4.482389145998506e-05,4.478536572471525e-05
23.0283121635,66.9716878365,8,0,-0.948308139357636,13.07802903699186,-1.230441995115489,-1.349700927553792e-05,4.260833942986006e-05,-9.84353596092391e-06,4.303682267990039e-05,4.30626589969078e-05
24.4716878365,66.9716878365,8,0,-0.8100759729122839,13.63095770277327,-1.218412060693226,-1.349700927553792e-05,4.426712542720428e-05,-9.747296485545804e-06,4.46754363882316e-05,4.467571332075185e-05
25.5283121635,65.5283121635,8,0,-1.118120114267205,13.93189572151041,-1.412514898920355,-1.472350094286338e-05,4.547656240024706e-05,-1.130011919136284e-05,4.600225651704466e-05,4.598107778511599e-05
26.9716878365,65.5283121635,8,0,-0.9809986757921996,14.48038147541043,-1.397111914890224,-1.472350094286338e-05,4.712201966194712e-05,-1.11768953191218e-05,4.762294233852544e-05,4.760352867361265e-05
25.5283121635,66.9716878365,8,0,-1.077045490186856,13.94216437753049,-1.20683274120782,-1.460027707062233e-05,4.547656240024706e-05,-9.654661929662557e-06,4.586197845923795e-05,4.584944131820973e-05
26.9716878365,66.9716878365,8,0,-0.9399240517118512,14.49065013143051,-1.191429757177703,-1.460027707062233e-05,4.712201966194712e-05,-9.531438057421623e-06,4.748782369813764e-05,4.744307151782302e-05
28.0283121635,65.5283121635,8,0,-1.250669807452886,14.78655107838422,-1.357476424937079,-1.583138424655662e-05,4.831749929679182e-05,-1.085981139949664e-05,4.877386893326848e-05,4.878005407004911e-05
29.4716878365,65.5283121635,8,0,-1.115615320765595,15.32676902513339,-1.338843971150419,-1.583138424655662e-05,4.993815313703931e-05,-1.071075176920335e-05,5.037136851958818e-05,5.037193034114865e-05
28.0283121635,66.9716878365,8,0,-1.200983264021846,14.79897271424199,-1.15489469490617,-1.568232461626349e-05,4.831749929679182e-05,-9.239157559249363e-06,4.864922623047016e-05,4.859943871105167e-05
29.4716878365,66.9716878365,8,0,-1.065928777334528,15.33919066099126,-1.136262241119496,-1.568232461626349e-05,4.993815313703964e-05,-9.09009792895597e-06,5.025145943949655e-05,5.016506243567922e-05
30.5283121635,65.5283121635,8,0,-1.375221798591937,15.62855841704249,-1.274642406023899,-1.690355648912819e-05,5.11115643734095e-05,-1.01971392481912e-05,5.149164094583942e-05,5.152315892037969e-05
31.9716878365,65.5283121635,8,0,-1.243124692273408,16.1569468423166,-1.252983291478603,-1.690355648912819e-05,5.269672964923185e-05,-1.002386633182882e-05,5.305578781806336e-05,5.307649761899842e-05
30.5283121635,66.9716878365,8,0,-1.317464159804298,15.6429978267394,-1.076496746546052,-1.673028357276527e-05,5.11115643734095e-05,-8.611973972368417e-06,5.138377724257691e-05,5.129807038311816e-05
31.9716878365,66.9716878365,8,0,-1.185367053485788,16.17138625201344,-1.054837632000769,-1.673028357276527e-05,5.269672964923163e-05,-8.438701056006151e-06,5.295221587631751e-05,5.282788193640471e-05
33.0283121635,65.5283121635,8,0,-1.489153287420507,16.4528953615562,-1.166365168322523,-1.792760680899058e-05,5.384058778691624e-05,-9.330921346580186e-06,5.414260608849912e-05,5.41968692720673e-05
34.4716878365,65.5283121635,8,0,-1.360827181327693,16.96619978592746,-1.141941730101271,-1.792760680899058e-05,5.538050106003e-05,-9.135533840810167e-06,5.566401830275248e-05,5.570444285312283e-05
33.0283121635,66.9716878365,8,0,-1.424024118830645,16.46917765370353,-0.9738760091833029,-1.773221930322089e-05,5.384058778691581e-05,-7.791008073466422e-06,5.405198459673977e-05,5.393208796355409e-05
34.4716878365,66.9716878365,8,0,-1.295698012737777,16.982482078075,-0.9494525709620233,-1.773221930322089e-05,5.538050106003022e-05,-7.595620567696186e-06,5.557724731419918e-05,5.541902337859166e-05
35.5283121635,65.5283121635,8,0,-1.590081537100322,17.25499470120659,-1.035365914402286,-1.88922566796863e-05,5.648804827354135e-05,-8.282927315218292e-06,5.671490141363856e-05,5.678894646755392e-05
36.9716878365,65.5283121635,8,0,-1.46625137159131,17.75031536324264,-1.008497790031148,-1.88922566796863e-05,5.797401025964949e-05,-8.06798232024918e-06,5.818513681624255e-05,5.82442918622422e-05
35.5283121635,66.9716878365,8,0,-1.518433205444258,17.27290678412061,-0.8496206661387962,-1.867731168471811e-05,5.648804827354135e-05,-6.796965329110369e-06,5.664139244687051e-05,5.648953583853708e-05
36.9716878365,66.9716878365,8,0,-1.394603039935246,17.76822744615666,-0.8227525417677114,-1.867731168471811e-05,5.797401025964949e-05,-6.582020334141691e-06,5.811504965121585e-05,5.792729485433029e-05
38.0283121635,65.5283121635,8,0,-1.67591328739624,18.03080898148253,-0.8847066555209916,-1.978756970485399e-05,5.903931937066109e-05,-7.077653244167933e-06,5.919787129747506e-05,5.928849809075051e-05
39.4716878365,65.5283121635,8,0,-1.557203568140691,18.50564785850473,-0.8557657662157012,-1.978756970485399e-05,6.046383600172766e-05,-6.84612612972561e-06,6.060957948720917e-05,6.068597716604812e-05
38.0283121635,66.9716878365,8,0,-1.598737582582113,18.05010290768614,-0.706642076637792,-1.955604259041167e-05,5.903931937066131e-05,-5.653136613102336e-06,5.914084166683612e-05,5.895980015084162e-05
39.4716878365,66.9716878365,8,0,-1.480027863326583,18.52494178470825,-0.6777011873324609,-1.955604259041167e-05,6.046383600172766e-05,-5.421609498659687e-06,6.055556381394875e-05,6.034289806432123e-05
40.5283121635,65.5283121635,8,0,-1.744891441726546,18.77687374236098,-0.7177492773036408,-2.060515160741373e-05,6.148190912893636e-05,-5.741994218429127e-06,6.158219979727208e-05,6.168608727250553e-05
41.97168783650001,65.5283121635,8,0,-1.631815535192441,19.2291773684974,-0.6871521263595258,-2.060515160741373e-05,6.283882000734562e-05,-5.497217010876207e-06,6.292925996584752e-05,6.302095982132889e-05
40.5283121635,66.9716878365,8,0,-1.663299039209051,18.79727184299035,-0.5481354175025784,-2.036037439986124e-05,6.148190912893636e-05,-4.385083340020628e-06,6.154060487369266e-05,6.133370323107079e-05
41.97168783650001,66.9716878365,8,0,-1.550223132674963,19.2495754691267,-0.5175382665585041,-2.036037439986124e-05,6.28388200073454e-05,-4.140306132468033e-06,6.289029747438748e-05,6.265753537366784e-05
43.0283121635,65.5283121635,8,0,-1.795635052673445,19.49036449845277,-0.5381026511987804,-2.133832376731724e-05,6.380567443718763e-05,-4.304821209590243e-06,6.386005189891044e-05,6.397385911335361e-05
44.4716878365,65.5283121635,8,0,-1.688586340377208,19.91855934763772,-0.5063003401940787,-2.133832376731724e-05,6.509025898474247e-05,-4.050402721552629e-06,6.513768763559202e-05,6.524235584494894e-05
43.0283121635,66.9716878365,8,0,-1.710828889994366,19.51156603912255,-0.3775295827543584,-2.108390527928001e-05,6.380567443718763e-05,-3.020236662034867e-06,6.383252974938845e-05,6.360361567210754e-05
44.4716878365,66.9716878365,8,0,-1.60378017769813,19.93976088830749,-0.3457272717497244,-2.108390527928001e-05,6.509025898474247e-05,-2.765818173997795e-06,6.511244597427382e-05,6.486452297299762e-05
45.52831216350001,65.5283121635,8,0,-1.827169488743749,20.1691432506227,-0.3495599576330838,-2.198225696447816e-05,6.600299399298765e-05,-2.79647966106467e-06,6.602520886538798e-05,6.614566406389392e-05
46.97168783650001,65.5283121635,8,0,-1.726414999666864,20.57216120693025,-0.3170265381204193,-2.198225696447816e-05,6.721204786191027e-05,-2.536212304963354e-06,6.723007332104596e-05,6.734505128145579e-05
45.52831216350001,66.9716878365,8,0,-1.740413703376409,20.19083219696447,-0.1984282240177695,-2.172198960837608e-05,6.600299399298743e-05,-1.587425792142156e-06,6.601017471360749e-05,6.576356745240397e-05
46.97168783650001,66.9716878365,8,0,-1.639659214299506,20.59385015327208,-0.1658948045050372,-2.172198960837608e-05,6.721204786191027e-05,-1.327158436040298e-06,6.721699886693222e-05,6.695889534762078e-05
48.0283121635,65.5283121635,8,0,-1.838944701742553,20.81179133337379,-0.1560292630853663,-2.25340561122752e-05,6.806888802819017e-05,-1.248234104682931e-06,6.807318704537079e-05,6.819716500505266e-05
49.47168783650001,65.5283121635,8,0,-1.744621618457548,21.18908366651381,-0.1232491692781316,-2.25340561122752e-05,6.920076502761022e-05,-9.85993354225053e-07,6.920341438912319e-05,6.93257957742831e-05
48.0283121635,66.9716878365,8,0,-1.75153111825672,20.83364472924525,-0.01454463815784624,-2.22718153618177e-05,6.806888802819017e-05,-1.163571052627699e-07,6.806892549460847e-05,6.780934573197328e-05
49.47168783650001,66.9716878365,8,0,-1.657208034971734,21.2109370623852,0.0182354556492936,-2.22718153618177e-05,6.920076502761e-05,1.458836451943488e-07,6.920082319264785e-05,6.893749149622278e-05
50.5283121635,65.5283121635,8,0,-1.830840613038805,21.41762659796466,0.03853911675858888,-2.29927912400959e-05,7.000107760391796e-05,3.083129340687111e-07,7.000133314927079e-05,7.012591993462389e-05
51.97168783650001,65.5283121635,8,0,-1.742955811281981,21.76916580499196,0.07108376394758054,-2.29927912400959e-05,7.105569522499985e-05,5.686701115806443e-07,7.105655484207661e-05,7.118326902390076e-05
50.5283121635,66.9716878365,8,0,-1.744054887201422,21.43932302942401,0.1703663193938386,-2.273243406258375e-05,7.000107760391796e-05,1.362930555150708e-06,7.000608517712862e-05,6.973857161893417e-05
51.97168783650001,66.9716878365,8,0,-1.656170085444598,21.79086223645131,0.2029109665828031,-2.273243406258375e-05,7.105569522499985e-05,1.623287732662425e-06,7.106271867713475e-05,7.079901745095873e-05
53.0283121635,65.5283121635,8,0,-1.803159705768558,21.9867041857543,0.2302248108542344,-2.335947440706282e-05,7.179998115902858e-05,1.841798486833875e-06,7.180889226516795e-05,7.19314363016741e-05
54.4716878365,65.5283121635,8,0,-1.721592258591121,22.31297397446404,0.2620662672802427,-2.335947440706282e-05,7.277879052515783e-05,2.096530138241941e-06,7.279021915913869e-05,7.291811822792137e-05
53.0283121635,66.9716878365,8,0,-1.71824915529931,22.00793182337161,0.3525759816204574,-2.310474275565508e-05,7.179998115902858e-05,2.820607852963659e-06,7.182093394266131e-05,7.155075197047182e-05
54.4716878365,66.9716878365,8,0,-1.636681708121901,22.33420161208124,0.384417438046425,-2.310474275565508e-05,7.27787905251575e-05,3.0753395043714e-06,7.280344356425157e-05,7.254408303964772e-05
55.5283121635,65.5283121635,8,0,-1.756607878322658,22.51980135813022,0.4152056880599972,-2.363698629713668e-05,7.346865064867484e-05,3.321645504479978e-06,7.349704782417887e-05,7.361519646811835e-05
56.97168783650001,65.5283121635,8,0,-1.681114249862993,22.82177587196889,0.4459013481884966,-2.363698629713668e-05,7.437457419019083e-05,3.567210785507973e-06,7.440702133585392e-05,7.453296771102086e-05
55.5283121635,66.9716878365,8,0,-1.674752784646659,22.54026513154922,0.5284461307495497,-2.339142101610869e-05,7.346865064867484e-05,4.227569045996398e-06,7.351475797698035e-05,7.324730543342e-05
56.97168783650001,66.9716878365,8,0,-1.599259156187038,22.84223964538771,0.5591417908780221,-2.339142101610869e-05,7.437457419019028e-05,4.473134327024177e-06,7.442571280447513e-05,7.417521367313181e-05
58.0283121635,65.5283121635,8,0,-1.692265429199116,23.0183879367099,0.5898192766160486,-2.382995972280508e-05,7.501265374083095e-05,4.718554212928389e-06,7.506893534500125e-05,7.518065666288356e-05
59.47168783650001,65.5283121635,8,0,-1.622486911684391,23.2975020067688,0.6189606070802084,-2.382995972280508e-05,7.584999595100766e-05,4.951684856641667e-06,7.591145282807712e-05,7.603240454404618e-05
58.0283121635,66.9716878365,8,0,-1.614555214627988,23.03781549035268,0.6944870528882046,-2.35968290790917e-05,7.501265374083095e-05,5.555896423105637e-06,7.50908498879776e-05,7.483156455980262e-05
59.47168783650001,66.9716878365,8,0,-1.544776697113262,23.31692956041158,0.7236283833523508,-2.35968290790917e-05,7.584999595100766e-05,5.789027066818806e-06,7.593417282489436e-05,7.569684029014458e-05
60.5283121635,65.5283121635,8,0,-1.611550663818142,23.48458480532198,0.7506150307426749,-2.394462996847563e-05,7.643991190808483e-05,6.004920245941399e-06,7.652963405611492e-05,7.663322416236162e-05
61.9716878365,65.5283121635,8,0,-1.547022484082928,23.74269752426283,0.7778343286317591,-2.394462996847563e-05,7.72142500649074e-05,6.222674629054073e-06,7.730985491535798e-05,7.742294600469073e-05
60.5283121635,66.9716878365,8,0,-1.538965869447359,23.50273100391467,0.8474073003454695,-2.372687558536328e-05,7.643991190808483e-05,6.779258402763756e-06,7.655448540419103e-05,7.630875796742185e-05
61.9716878365,66.9716878365,8,0,-1.474437689712153,23.76084372285549,0.8746265982344996,-2.372687558536328e-05,7.721425006490729e-05,6.997012785875997e-06,7.733535907286482e-05,7.7115272421522e-05
63.0283121635,65.5283121635,8,0,-1.516179010068251,23.92111358341258,0.8943960275715173,-2.398866369894846e-05,7.776050667497483e-05,7.155168220572138e-06,7.78861423307859e-05,7.798021922851293e-05
64.47168783650001,65.5283121635,8,0,-1.456340455408556,24.16046780205136,0.9193708590800542,-2.398866369894846e-05,7.847856933089118e-05,7.354966872640434e-06,7.86103822955569e-05,7.871299614742849e-05
63.0283121635,66.9716878365,8,0,-1.449579459378837,23.93776347108493,0.9841538595610131,-2.378886504688022e-05,7.776050667497483e-05,7.873230876488104e-06,7.791288302447228e-05,7.768597809850068e-05
64.47168783650001,66.9716878365,8,0,-1.389740904719174,24.17711768972358,1.009128691069523,-2.378886504688022e-05,7.84785693308908e-05,8.073029528556184e-06,7.863764388699769e-05,7.843866055014058e-05
65.5283121635,65.5283121635,8,0,-1.408120682823162,24.33124096414657,1.018249630389645,-2.397097895635137e-05,7.898646763152754e-05,8.14599704311716e-06,7.91473441513996e-05,7.923082942768377e-05
66.97168783650001,65.5283121635,8,0,-1.35232557394315,24.55442139966662,1.040705015695329,-2.397097895635137e-05,7.965600893808768e-05,8.325640125562636e-06,7.982296541113337e-05,7.991279934033583e-05
65.5283121635,66.9716878365,8,0,-1.34823965534139,24.34621122101701,1.101942293709629,-2.379133587390606e-05,7.898646763152754e-05,8.815538349677028e-06,7.917515454335609e-05,7.897214103399369e-05
66.97168783650001,66.9716878365,8,0,-1.29244454646142,24.56939165653689,1.124397679015313,-2.379133587390606e-05,7.965600893808719e-05,8.995181432122504e-06,7.985118291191739e-05,7.96769543691489e-05
68.0283121635,65.5283121635,8,0,-1.289559845314623,24.71872130249606,1.119567626981633,-2.390156854700364e-05,8.013155604423908e-05,8.956541015853062e-06,8.032397439176398e-05,8.039606410169831e-05
69.47168783650001,65.5283121635,8,0,-1.237086716240097,24.92861381879416,1.139276239423992,-2.390156854700364e-05,8.076123359313338e-05,9.114209915391934e-06,8.095927896553011e-05,8.103439807065231e-05
68.0283121635,66.9716878365,8,0,-1.237003545468531,24.73186037745758,1.198277320593435,-2.374389964746536e-05,8.013155604423908e-05,9.586218564747477e-06,8.035225484626985e-05,8.017794482709101e-05
69.47168783650001,66.9716878365,8,0,-1.184530416394046,24.94175289375552,1.217985933035678,-2.374389964746536e-05,8.07612335931329e-05,9.743887464285427e-06,8.098786813041584e-05,8.08418628771991e-05
70.5283121635,65.5283121635,8,0,-1.16285789211758,25.08774084236938,1.196057272153146,-2.379133792867176e-05,8.121105700927608e-05,9.568458177225164e-06,8.142859040181399e-05,8.148871555147464e-05
71.97168783650001,65.5283121635,8,0,-1.11291931890977,25.28749513520062,1.212838099255199,-2.379133792867176e-05,8.181031988776979e-05,9.702704794041592e-06,8.203272318464268e-05,8.209160002294672e-05
70.5283121635,66.9716878365,8,0,-1.118109019845491,25.09892806043741,1.2709651319649,-2.365709131185549e-05,8.121105700927608e-05,1.01677210557192e-05,8.145693891306593e-05,8.13158315283562e-05
71.97168783650001,66.9716878365,8,0,-1.068170446637686,25.29868235326862,1.287745959066913,-2.365709131185549e-05,8.181031988776973e-05,1.03019676725353e-05,8.206129453394142e-05,8.19468199144593e-05
73.0283121635,65.5283121635,8,0,-1.030522957959354,25.44286651223412,1.245745465639636,-2.365196667525722e-05,8.224159120551666e-05,9.965963725117087e-06,8.247555603958994e-05,8.252333009740827e-05
74.47168783650001,65.5283121635,8,0,-0.9822736018352964,25.63586393673035,1.259461524160268,-2.365196667525722e-05,8.282058347900534e-05,1.007569219328214e-05,8.30584224887987e-05,8.309995412457073e-05
73.0283121635,66.9716878365,8,0,-0.9939468019043343,25.45201055124787,1.318119499825633,-2.354223820709217e-05,8.224159120551666e-05,1.054495599860507e-05,8.250373246441691e-05,8.239995467293423e-05
74.47168783650001,66.9716878365,8,0,-0.9456974457802998,25.64500797574401,1.331835558346313,-2.354223820709217e-05,8.282058347900507e-05,1.06546844667705e-05,8.308674540150624e-05,8.300695346971279e-05
75.5283121635,65.5283121635,8,0,-0.8951870864524833,25.7890015395357,1.266978928963388,-2.34957999082765e-05,8.324095459567621e-05,1.01358314317071e-05,8.348104178927283e-05,8.351618475655156e-05
76.97168783650001,65.5283121635,8,0,-0.8477301718408015,25.97882919798242,1.277534727876793,-2.34957999082765e-05,8.381043757101639e-05,1.022027782301434e-05,8.40532432615669e-05,8.407672396367553e-05
75.5283121635,66.9716878365,8,0,-0.8670382893502868,25.79603873881125,1.338164300880931,-2.341135351696991e-05,8.324095459567621e-05,1.070531440704745e-05,8.350892004492143e-05,8.344614663360774e-05
76.97168783650001,66.9716878365,8,0,-0.8195813747386094,25.98586639725796,1.348720099794275,-2.341135351696991e-05,8.381043757101634e-05,1.07897607983542e-05,8.408119804788404e-05,8.403904587497813e-05
78.0283121635,65.5283121635,8,0,-0.7595917282595694,26.13134929233791,1.258423675256025,-2.333577296430094e-05,8.422799111808895e-05,1.00673894020482e-05,8.446304085051592e-05,8.448524940077153e-05
79.47168783650001,65.5283121635,8,0,-0.7119838507435876,26.32178080240183,1.265763175887445,-2.333577296430094e-05,8.479928564828073e-05,1.012610540709956e-05,8.503582827002805e-05,8.504082244402557e-05
78.0283121635,66.9716878365,8,0,-0.7400197265757837,26.13624229275879,1.329835491529937,-2.327705695924953e-05,8.422799111808873e-05,1.06386839322395e-05,8.449055052358569e-05,8.447186442762183e-05
79.47168783650001,66.9716878365,8,0,-0.692411849059793,26.32667380282275,1.337174992161377,-2.327705695924953e-05,8.479928564828062e-05,1.069739993729102e-05,8.506334771672269e-05,8.506144746258271e-05
80.5283121635,65.5283121635,8,0,-0.626581432445068,26.47538581332148,1.219067283347693,-2.31853692344814e-05,8.522249974858478e-05,9.75253826678154e-06,8.544139608220879e-05,8.545007899132255e-05
81.97168783650001,65.5283121635,8,0,-0.5778357745809997,26.67036844477775,1.223173115700626,-2.31853692344814e-05,8.58074476429536e-05,9.78538492560501e-06,8.602664001657375e-05,8.601261562866163e-05
80.5283121635,66.9716878365,8,0,-0.615632546170569,26.4781230348901,1.292185770143775,-2.31525225756579e-05,8.522249974858478e-05,1.03374861611502e-05,8.546845504762148e-05,8.549605717311846e-05
81.97168783650001,66.9716878365,8,0,-0.5668868883065317,26.67310566634625,1.296291602496702,-2.31525225756579e-05,8.580744764295322e-05,1.037033281997362e-05,8.605364208429244e-05,8.609384994885457e-05
83.02831216350002,65.5283121635,8,0,-0.4991047913993141,26.82684052344315,1.148227498140107,-2.305860775123232e-05,8.624517350813753e-05,9.185819985120861e-06,8.643782655965031e-05,8.643149846887579e-05
84.47168783650002,65.5283121635,8,0,-0.4481930073033427,27.03048765982704,1.149122160591293,-2.305860775123232e-05,8.685611491728918e-05,9.192977284730344e-06,8.704799902359534e-05,8.701337103346926e-05
83.02831216350002,66.9716878365,8,0,-0.4967190248628013,26.82743696507728,1.224595174284017,-2.305145045162279e-05,8.624517350813753e-05,9.796761394272133e-06,8.646426656717268e-05,8.653881557118748e-05
84.47168783650002,66.9716878365,8,0,-0.4458072407668299,27.03108410146116,1.225489836735236,-2.305145045162279e-05,8.685611491728918e-05,9.803918693881888e-06,8.707431277340719e-05,8.715669148333807e-05
85.5283121635,65.5283121635,8,0,-0.3802209273328625,27.19168358582381,1.045570501270676,-2.29700538361242e-05,8.731756421650246e-05,8.364564010165411e-06,8.747593558753472e-05,8.745074549807549e-05
86.97168783650002,65.5283121635,8,0,-0.3260741338769622,27.40827075964741,1.043320202277396,-2.29700538361242e-05,8.796732573797326e-05,8.346561618219166e-06,8.812409612343481e-05,8.806380219277029e-05
85.5283121635,66.9716878365,8,0,-0.3862217246483413,27.19018338649494,1.126790691454452,-2.298805622807064e-05,8.731756421650246e-05,9.014325531635616e-06,8.75014234965733e-05,8.762046365485884e-05
86.97168783650002,66.9716878365,8,0,-0.3320749311924551,27.40677056031848,1.124540392461165,-2.298805622807064e-05,8.79673257379731e-05,8.996323139689316e-06,8.814938371518364e-05,8.826963687849344e-05
88.02831216350002,65.5283121635,8,0,-0.2731090797039801,27.57611746566591,0.9111418497556136,-2.293484302758546e-05,8.84620631538941e-05,7.289134798044909e-06,8.858117493504171e-05,8.852725127661348e-05
89.47168783650001,65.5283121635,8,0,-0.2146185600965804,27.81007954409551,0.9058635490697547,-2.293484302758546e-05,8.91639493891829e-05,7.246908392558038e-06,8.928095092568674e-05,8.918036102575344e-05
88.02831216350002,66.9716878365,8,0,-0.2871845481997486,27.57259859854197,0.9988776291667342,-2.297706943307277e-05,8.84620631538941e-05,7.991021033333873e-06,8.860513349906827e-05,8.875926016845961e-05
89.47168783650001,66.9716878365,8,0,-0.2286940285923125,27.80656067697172,0.9935993284808278,-2.297706943307277e-05,8.916394938918333e-05,7.948794627846622e-06,8.9304629786067e-05,8.944776264963843e-05
90.52831216350002,65.5283121635,8,0,-0.1810781682936549,27.98656931628905,0.7454125801779692,-2.296870559157093e-05,8.970188434675986e-05,5.963300641423754e-06,8.978073386191571e-05,8.967303466548682e-05
91.97168783650001,65.5283121635,8,0,-0.1170965516234617,28.24249578296982,0.737284654732643,-2.296870559157093e-05,9.046966374680218e-05,5.898277237861144e-06,9.054628286742879e-05,9.036593433170556e-05
90.52831216350002,66.9716878365,8,0,-0.2027526361478671,27.98115069932549,0.8413850051832935,-2.303372899513357e-05,8.970188434675986e-05,6.731080041466348e-06,8.980226773468064e-05,8.996565109190329e-05
91.97168783650001,66.9716878365,8,0,-0.1387710194776739,28.23707716600627,0.8332570797379469,-2.303372899513357e-05,9.046966374680218e-05,6.666056637903576e-06,9.05674539061229e-05,9.069204614770493e-05
93.02831216350002,65.5283121635,8,0,-0.107572560553173,28.42967997282903,0.549342323983929,-2.308797617203338e-05,9.106103396149543e-05,4.394738591871432e-06,9.110331767385303e-05,9.087867507427492e-05
94.47168783650002,65.5283121635,8,0,-0.03691638783205686,28.7123046637135,0.5386191178810812,-2.308797617203338e-05,9.190890803414882e-05,4.308952943048649e-06,9.194925817723604e-05,9.158660916792579e-05
93.02831216350002,66.9716878365,8,0,-0.1361677768274161,28.42253116876047,0.6553265830655357,-2.31737618208561e-05,9.106103396149543e-05,5.242612664524285e-06,9.112115253218121e-05,9.122795174940047e-05
94.47168783650002,66.9716878365,8,0,-0.06551160410633106,28.70515585964481,0.644603376962681,-2.31737618208561e-05,9.190890803414844e-05,5.156827015701448e-06,9.196664811186183e-05,9.196567802555405e-05
95.5283121635,65.5283121635,8,0,-0.05616966230640763,28.91228455082332,0.3244604616236768,-2.330957056003916e-05,9.256424629247974e-05,2.595683692989414e-06,9.257878091513225e-05,9.207829347907648e-05
96.97168783650002,65.5283121635,8,0,0.02237561647093589,29.2264656659327,0.3114907744692996,-2.330957056003916e-05,9.350678963780787e-05,2.491926195754396e-06,9.352007756656709e-05,9.271366590483089e-05
95.5283121635,66.9716878365,8,0,-0.09075549471811684,28.9036380927204,0.4422783797896994,-2.341332805727429e-05,9.256424629247974e-05,3.538227038317595e-06,9.259122594574049e-05,9.24766678327569e-05
96.97168783650002,66.9716878365,8,0,-0.01221021594076888,29.21781920782979,0.4293086926353154,-2.341332805727429e-05,9.350678963780792e-05,3.434469541082523e-06,9.353200565253557e-05,9.313499167209067e-05
98.02831216350002,65.5283121635,8,0,-0.03056438934033245,29.44137894240118,0.07296533030658463,-2.365090919981001e-05,9.423686412715604e-05,5.837226424526771e-07,9.423758670004307e-05,9.306208449661473e-05
99.47168783650002,65.5283121635,8,0,0.05710704840689385,29.79206469339009,0.05821464452991133,-2.365090919981001e-05,9.528892138012276e-05,4.657171562392906e-07,9.528937726533218e-05,9.337860936595586e-05
98.02831216350002,66.9716878365,8,0,-0.06989955141157012,29.43154515188338,0.204472486927445,-2.376891468602372e-05,9.423686412715604e-05,1.63577989541956e-06,9.424253259391908e-05,9.349544906956087e-05
99.47168783650002,66.9716878365,8,0,0.01777188633565174,29.78223090287226,0.1897218011507446,-2.376891468602372e-05,9.528892138012271e-05,1.517774409205957e-06,9.5293758410691e-05,9.382191315412162e-05
0.5283121635,68.0283121635,8,0,-0.03498427963966577,6.289137793870912,-0.1849251724361491,-5.143259929943659e-06,2.015322836409865e-05,-1.479401379489193e-06,2.017483966665006e-05,2.191733977311988e-05
1.9716878365,68.0283121635,8,0,0.05867308361856338,6.663767246903829,-0.1985626193070326,-5.143259929943659e-06,2.12771167231974e-05,-1.588500954456261e-06,2.130097197536868e-05,2.235462227449292e-05
0.5283121635,69.47168783650001,8,0,-0.07135080462847165,6.280046162623711,-0.04443912754881901,-5.252359504910077e-06,2.015322836409865e-05,-3.555130203905521e-07,2.015447202082479e-05,2.232130725162766e-05
1.9716878365,69.47168783650001,8,0,0.0223065586297575,6.654675615656627,-0.05807657441964835,-5.252359504910077e-06,2.12771167231974e-05,-4.646125953571868e-07,2.127915076556404e-05,2.274817236890976e-05
3.0283121635,68.0283121635,8,0,-0.06935120356200275,6.901315368024658,-0.4201758535538319,-5.742976145818135e-06,2.213969014052851e-05,-3.361406828430655e-06,2.224063365662586e-05,2.287656809814989e-05
4.4716878365,68.0283121635,8,0,0.03337429997211605,7.312217382161133,-0.4321181289303829,-5.742976145818135e-06,2.337239618293793e-05,-3.456945031443063e-06,2.347465011728228e-05,2.386526810586671e-05
3.0283121635,69.47168783650001,8,0,-0.101197271232661,6.893353851107129,-0.2660875982527216,-5.838514348830218e-06,2.213969014052894e-05,-2.128700786021773e-06,2.218012186427474e-05,2.325734858394657e-05
4.4716878365,69.47168783650001,8,0,0.00152823230143051,7.304255865243495,-0.2780298736292184,-5.838514348830218e-06,2.337239618293804e-05,-2.224238989033747e-06,2.341467566662617e-05,2.422157875620979e-05
5.528312163500001,68.0283121635,8,0,-0.1282042154688541,7.56460696917638,-0.6313973968765562,-6.461939064841436e-06,2.430930567373949e-05,-5.051179175012449e-06,2.451521877902404e-05,2.468966201644709e-05
6.9716878365,68.0283121635,8,0,-0.01762269141358352,8.006933065397462,-0.6411267339345814,-6.461939064841436e-06,2.563628396240274e-05,-5.129013871476651e-06,2.583988533617662e-05,2.5953248057982e-05
5.528312163500001,69.47168783650001,8,0,-0.1541491142901101,7.558120744471201,-0.4655251107936096,-6.539773761305313e-06,2.430930567373993e-05,-3.724200886348877e-06,2.442129850237777e-05,2.502544187739332e-05
6.9716878365,69.47168783650001,8,0,-0.04356759023485735,8.000446840692211,-0.4752544478516213,-6.539773761305313e-06,2.563628396240296e-05,-3.80203558281297e-06,2.574821007897687e-05,2.625740659462774e-05
8.028312163500001,68.0283121635,8,0,-0.2078601953388839,8.272071249232111,-0.8159935653158346,-7.282809624470116e-06,2.663691615381386e-05,-6.527948522526677e-06,2.694814116314211e-05,2.693284829059693e-05
9.471687836500001,68.0283121635,8,0,-0.09062688716578382,8.741004481924511,-0.8231211885862002,-7.282809624470116e-06,2.804371585189106e-05,-6.584969508689601e-06,2.834796007532292e-05,2.834557985578611e-05
8.028312163500001,69.47168783650001,8,0,-0.2268671907265434,8.267319500385195,-0.6401436030561438,-7.339830610633095e-06,2.663691615381386e-05,-5.12114882444915e-06,2.682880387246945e-05,2.721269365280059e-05
9.471687836500001,69.47168783650001,8,0,-0.109633882553398,8.736252733077777,-0.64727122632655,-7.339830610633095e-06,2.80437158518916e-05,-5.1781698106124e-06,2.823216076005069e-05,2.859062171441832e-05
10.5283121635,68.0283121635,8,0,-0.3047191908492697,9.016815771736654,-0.9721308204990768,-8.188554028106985e-06,2.90975858222367e-05,-7.777046563992615e-06,2.949879770419726e-05,2.941158132698235e-05
11.9716878365,68.0283121635,8,0,-0.1820169737160544,9.507624640269515,-0.9763728141519581,-8.188554028106985e-06,3.057001242783529e-05,-7.810982513215665e-06,3.09596310506338e-05,3.091121994216828e-05
10.5283121635,69.47168783650001,8,0,-0.3160311739233843,9.013987775968126,-0.7880774947993078,-8.22248997732933e-06,2.90975858222367e-05,-6.304619958394462e-06,2.936197849846535e-05,2.96308179188872e-05
11.9716878365,69.47168783650001,8,0,-0.1933289567901149,9.504796644501203,-0.7923194884521347,-8.22248997732933e-06,3.057001242783594e-05,-6.338555907617078e-06,3.082723123597113e-05,3.109475873783956e-05
13.0283121635,68.0283121635,8,0,-0.4152870945466605,9.792071526245318,-1.098623374720735,-9.162575923545566e-06,3.166685855962234e-05,-8.788986997765877e-06,3.213448441371493e-05,3.202819642774934e-05
14.4716878365,68.0283121635,8,0,-0.2882693649918631,10.30014244446451,-1.09978096505277,-9.162575923545566e-06,3.319107131427991e-05,-8.798247720422157e-06,3.364316697775433e-05,3.358019432216032e-05
13.0283121635,69.47168783650001,8,0,-0.418374002098826,9.791299799357276,-0.9080967803884845,-9.171836646202063e-06,3.166685855962234e-05,-7.264774243107876e-06,3.198742399243397e-05,3.218575420144809e-05
14.4716878365,69.47168783650001,8,0,-0.2913562725440286,10.29937071757647,-0.9092543707206143,-9.171836646202063e-06,3.319107131427991e-05,-7.274034965764915e-06,3.350105490549652e-05,3.370246842002811e-05
15.5283121635,68.0283121635,8,0,-0.5361811672711272,10.59123955731462,-1.194839568002863,-1.01887713811193e-05,3.432091151722369e-05,-9.558716544022907e-06,3.482832464487314e-05,3.47274902251836e-05
16.9716878365,68.0283121635,8,0,-0.4059671602420014,11.11209558543113,-1.192784431745388,-1.01887713811193e-05,3.58834796015732e-05,-9.542275453963103e-06,3.63723797821126e-05,3.630996302928108e-05
15.5283121635,69.47168783650001,8,0,-0.5307008039179677,10.59260964815291,-0.9995185574592425,-1.017233029105983e-05,3.432091151722369e-05,-7.996148459673939e-06,3.467731561417158e-05,3.482435984282542e-05
16.9716878365,69.47168783650001,8,0,-0.4004867968888601,11.11346567626934,-0.9974634212017806,-1.017233029105983e-05,3.588347960157298e-05,-7.979707369614245e-06,3.622656818661404e-05,3.637270999203372e-05
18.0283121635,68.0283121635,8,0,-0.6641271726905202,11.40791982071418,-1.260631035593908,-1.1251542809181e-05,3.703664516443777e-05,-1.008504828475126e-05,3.755759373121678e-05,3.747381294754011e-05
19.4716878365,68.0283121635,8,0,-0.5317989374346137,11.9372327617378,-1.255295527491964,-1.1251542809181e-05,3.862458398750865e-05,-1.004236421993572e-05,3.912505977366353e-05,3.907103725264635e-05
18.0283121635,69.47168783650001,8,0,-0.6498991510852843,11.41147682611548,-1.062138682710035,-1.12088587443653e-05,3.703664516443777e-05,-8.497109461680277e-06,3.740792062805239e-05,3.75121648011675e-05
19.4716878365,69.47168783650001,8,0,-0.5175709158294048,11.940789767139,-1.056803174608186,-1.12088587443653e-05,3.862458398750832e-05,-8.45442539686549e-06,3.898062129223354e-05,3.907686308357374e-05
20.5283121635,68.0283121635,8,0,-0.7959555758185552,12.23593151289833,-1.296283170956677,-1.233580305293804e-05,3.979174530192951e-05,-1.037026536765341e-05,4.030250640399124e-05,4.024111665284306e-05
21.9716878365,68.0283121635,8,0,-0.6625551434275714,12.76953324246227,-1.287654804967792,-1.233580305293804e-05,4.139255049062131e-05,-1.030123843974234e-05,4.188185378945665e-05,4.184060871809982e-05
20.5283121635,69.47168783650001,8,0,-0.7729465998482152,12.24168375689092,-1.096182522370174,-1.226677612502702e-05,3.979174530192951e-05,-8.769460178961394e-06,4.015847426960963e-05,4.02238155746258e-05
21.9716878365,69.47168783650001,8,0,-0.6395461674572678,12.77528548645471,-1.087554156381303,-1.226677612502702e-05,4.139255049062087e-05,-8.700433251050427e-06,4.174293902049935e-05,4.179264977177465e-05
23.0283121635,68.0283121635,8,0,-0.9286023973049558,13.0693324515228,-1.302483197174271,-1.342699363259409e-05,4.256474576271691e-05,-1.041986557739417e-05,4.304539480929781e-05,4.300846539253648e-05
24.4716878365,68.0283121635,8,0,-0.7951280763713986,13.60322973525703,-1.290602344864643,-1.342699363259409e-05,4.41664376139196e-05,-1.032481875891714e-05,4.462551289242863e-05,4.459961709793474e-05
23.0283121635,69.47168783650001,8,0,-0.8969201244791174,13.07725301972926,-1.102271715773962,-1.333194681411658e-05,4.256474576271691e-05,-8.818173726191699e-06,4.291039366429714e-05,4.293881722787003e-05
24.4716878365,69.47168783650001,8,0,-0.7634458035455602,13.61115030346349,-1.090390863464294,-1.333194681411658e-05,4.41664376139196e-05,-8.723126907714349e-06,4.449540367584087e-05,4.450137075488889e-05
25.5283121635,68.0283121635,8,0,-1.05911821059602,13.90244294118313,-1.280300817471533,-1.451113262685376e-05,4.533511198026282e-05,-1.024240653977227e-05,4.577018414418233e-05,4.575793254692654e-05
26.9716878365,68.0283121635,8,0,-0.9265193859888137,14.43283823961195,-1.265260407801871,-1.451113262685376e-05,4.692629787554929e-05,-1.012208326241497e-05,4.734042073906542e-05,4.733135749950035e-05
25.5283121635,69.47168783650001,8,0,-1.019010451476922,13.9124698809629,-1.081402580560683,-1.439080934949647e-05,4.533511198026282e-05,-8.651220644485466e-06,4.564676522065198e-05,4.563956240133827e-05
26.9716878365,69.47168783650001,8,0,-0.8864116268697155,14.44286517939173,-1.06636217089113,-1.439080934949647e-05,4.692629787554929e-05,-8.530897367129038e-06,4.722159639945786e-05,4.718660628130182e-05
28.0283121635,68.0283121635,8,0,-1.184686692774541,14.72987725335333,-1.231175899277527,-1.55748992195612e-05,4.808335656495029e-05,-9.849407194220216e-06,4.846208622176108e-05,4.847359411307291e-05
29.4716878365,68.0283121635,8,0,-1.053856923472033,15.25319633056337,-1.213121897835809,-1.55748992195612e-05,4.965331379658039e-05,-9.704975182686475e-06,5.001232632726487e-05,5.002081762317741e-05
28.0283121635,69.47168783650001,8,0,-1.136542688930141,14.74191325431443,-1.03493124532371,-1.5430467208028e-05,4.808335656495029e-05,-8.279449962589683e-06,4.835204030894072e-05,4.831039563651968e-05
29.4716878365,69.47168783650001,8,0,-1.00571291962765,15.26523233152439,-1.016877243882033,-1.5430467208028e-05,4.965331379658017e-05,-8.135017951056266e-06,4.990653370314574e-05,4.98336013721469e-05
30.5283121635,68.0283121635,8,0,-1.3026523079157,15.54658365327636,-1.156907850094891,-1.660575430795133e-05,5.079118953681691e-05,-9.255262800759133e-06,5.110744945640812e-05,5.114105675251383e-05
31.9716878365,68.0283121635,8,0,-1.174420882621669,16.05950935445249,-1.136039429825816,-1.660575430795133e-05,5.232996664034529e-05,-9.088315438606528e-06,5.262822149482205e-05,5.265438346051323e-05
30.5283121635,69.47168783650001,8,0,-1.247003187198165,15.56049593345575,-0.9645607121537905,-1.643880694579872e-05,5.079118953681691e-05,-7.716485697230324e-06,5.101188464797371e-05,5.093717607346523e-05
31.9716878365,69.47168783650001,8,0,-1.118771761904233,16.07342163463147,-0.9436922918847828,-1.643880694579872e-05,5.23299666403441e-05,-7.549538335078262e-06,5.253654597144661e-05,5.242899249191551e-05
33.0283121635,68.0283121635,8,0,-1.410555261895375,16.34789202654366,-1.059642107096394,-1.759209045930013e-05,5.344169869445602e-05,-8.477136856771149e-06,5.369371887197297e-05,5.374726394828316e-05
34.4716878365,68.0283121635,8,0,-1.285677649159139,16.84740247748861,-1.03621065516594,-1.759209045930013e-05,5.494023004729085e-05,-8.289685241327522e-06,5.517631766817128e-05,5.521974225959876e-05
33.0283121635,69.47168783650001,8,0,-1.348071390080778,16.36351299449718,-0.872325687991944,-1.740463884385623e-05,5.344169869445558e-05,-6.978605503935552e-06,5.361313793470178e-05,5.350709665659583e-05
34.4716878365,69.47168783650001,8,0,-1.223193777344497,16.8630234454423,-0.8488942360615178,-1.740463884385623e-05,5.494023004729096e-05,-6.791153888492142e-06,5.509925519947665e-05,5.496071559202903e-05
35.5283121635,68.0283121635,8,0,-1.506170896776625,17.12956672900325,-0.941850298893514,-1.85234002528878e-05,5.60195502502317e-05,-7.534802391148112e-06,5.620947085088284e-05,5.628045409471354e-05
36.9716878365,68.0283121635,8,0,-1.385318706830139,17.6129754887892,-0.9161566918090803,-1.85234002528878e-05,5.746977652958953e-05,-7.329253534472642e-06,5.764608714689301e-05,5.77058944092443e-05
35.5283121635,69.47168783650001,8,0,-1.437654611218063,17.14669580039289,-0.7605720139738253,-1.831785139621211e-05,5.60195502502317e-05,-6.084576111790602e-06,5.614384927284172e-05,5.600864277664507e-05
36.9716878365,69.47168783650001,8,0,-1.316802421271577,17.63010456017884,-0.7348784068893374,-1.831785139621211e-05,5.746977652958953e-05,-5.879027255114699e-06,5.758361807214619e-05,5.741801415233724e-05
38.0283121635,68.0283121635,8,0,-1.587550203326816,17.88786136790387,-0.8063019592299782,-1.93904497449689e-05,5.851119653995382e-05,-6.450415673839825e-06,5.864449535343044e-05,5.873020252213661e-05
39.4716878365,68.0283121635,8,0,-1.471301361568806,18.35285673493591,-0.7786918401429934,-1.93904497449689e-05,5.990618264104994e-05,-6.229534721143948e-06,6.002834233972853e-05,6.010322401475156e-05
38.0283121635,69.47168783650001,8,0,-1.513923219095002,17.90626811396168,-0.6319286965928957,-1.916956879227335e-05,5.851119653995339e-05,-5.055429572743166e-06,5.859336090883455e-05,5.843162807509943e-05
39.4716878365,69.47168783650001,8,0,-1.397674377336928,18.37126348099398,-0.6043185775059245,-1.916956879227335e-05,5.990618264105027e-05,-4.834548620047396e-06,5.998000761087876e-05,5.979150143577048e-05
40.5283121635,68.0283121635,8,0,-1.653058081535229,18.61957181828134,-0.6560270097919201,-2.01854433155378e-05,6.090507628372845e-05,-5.248216078335361e-06,6.098990429129765e-05,6.108750707510996e-05
41.97168783650001,68.0283121635,8,0,-1.541887908020577,19.06425251233994,-0.6268840844592496,-2.01854433155378e-05,6.223911836590428e-05,-5.015072675673997e-06,6.231533266099601e-05,6.240359691253785e-05
40.5283121635,69.47168783650001,8,0,-1.575343613981495,18.63900043516977,-0.4892717495200236,-1.99522999128766e-05,6.090507628372845e-05,-3.914173996160189e-06,6.095241826333602e-05,6.076727070980293e-05
41.97168783650001,69.47168783650001,8,0,-1.464173440466897,19.08368112922816,-0.4601288241873531,-1.99522999128766e-05,6.223911836590362e-05,-3.681030593498825e-06,6.228031244280971e-05,6.207324858236644e-05
43.0283121635,68.0283121635,8,0,-1.701406294866696,19.32208383502892,-0.4942694476535735,-2.090216721159656e-05,6.319179330798591e-05,-3.954155581228588e-06,6.323824941964591e-05,6.334489127010303e-05
44.4716878365,68.0283121635,8,0,-1.59568010629986,19.74498858929627,-0.464007054332976,-2.090216721159656e-05,6.446050757078793e-05,-3.712056434663808e-06,6.450084386221629e-05,6.460046544253048e-05
43.0283121635,69.47168783650001,8,0,-1.620706579345156,19.34225876390931,-0.3356801648032935,-2.066006806503195e-05,6.319179330798591e-05,-2.685441318426348e-06,6.321328879637631e-05,6.300828649988486e-05
44.4716878365,69.47168783650001,8,0,-1.514980390778375,19.76516351817644,-0.3054177714827502,-2.066006806503195e-05,6.446050757078728e-05,-2.443342171862001e-06,6.447803767941666e-05,6.425687972509369e-05
45.52831216350001,68.0283121635,8,0,-1.73167864929262,19.99341205327442,-0.324433676696597,-2.153610132035592e-05,6.536426148991224e-05,-2.595469413572775e-06,6.538363701268181e-05,6.549650757291551e-05
46.97168783650001,68.0283121635,8,0,-1.631646369135103,20.39354117390449,-0.2934850652813633,-2.153610132035592e-05,6.656464885180244e-05,-2.347880522250907e-06,6.658028879954448e-05,6.668896602652636e-05
45.52831216350001,69.47168783650001,8,0,-1.649149018851925,20.01404446088459,-0.1743852564603347,-2.128851242903383e-05,6.536426148991224e-05,-1.395082051682678e-06,6.536987622023801e-05,6.514898302494878e-05
46.97168783650001,69.47168783650001,8,0,-1.549116738694408,20.41417358151466,-0.1434366450450198,-2.128851242903383e-05,6.656464885180244e-05,-1.147493160360159e-06,6.656839568452551e-05,6.633766134064751e-05
48.0283121635,68.0283121635,8,0,-1.743346684206005,20.63222787642663,-0.1500256557389302,-2.208449169060052e-05,6.741780655193002e-05,-1.200205245911442e-06,6.742182999017789e-05,6.753822908279289e-05
49.47168783650001,68.0283121635,8,0,-1.64913978238716,21.00905548370201,-0.1188335261401597,-2.208449169060052e-05,6.854828937375617e-05,-9.506682091212776e-07,6.855078224988634e-05,6.866600044799204e-05
48.0283121635,69.47168783650001,8,0,-1.6601676719426,20.65302262949248,-0.00871530301068844,-2.18349546538103e-05,6.741780655193002e-05,-6.972242408550752e-08,6.74178201683594e-05,6.718534389550208e-05
49.47168783650001,69.47168783650001,8,0,-1.565960770123763,21.02985023676783,0.02247682658800074,-2.18349546538103e-05,6.854828937375606e-05,1.798146127040059e-07,6.854837880754242e-05,6.831257738845427e-05
50.5283121635,68.0283121635,8,0,-1.736274997724998,21.23787462867295,0.02540852277382389,-2.254637969565835e-05,6.935021880993342e-05,2.032681821905911e-07,6.935033121317801e-05,6.946772224051341e-05
51.97168783650001,68.0283121635,8,0,-1.647905902559359,21.5913510093355,0.05640262351372621,-2.254637969565835e-05,7.041064795192109e-05,4.512209881098097e-07,7.041119551455828e-05,7.053029554611097e-05
50.5283121635,69.47168783650001,8,0,-1.653624062418357,21.25853736249961,0.1579621655222558,-2.229842688973842e-05,6.935021880993342e-05,1.263697324178047e-06,6.935457472544898e-05,6.911509629312772e-05
51.97168783650001,69.47168783650001,8,0,-1.565254967252717,21.61201374316217,0.1889562662622801,-2.229842688973842e-05,7.041064795192109e-05,1.511650130098241e-06,7.041680952310462e-05,7.018038522187107e-05
53.0283121635,68.0283121635,8,0,-1.710716165315799,21.81036929962947,0.1983438564253352,-2.292258716871413e-05,7.116175469106694e-05,1.586750851402681e-06,7.116844443136846e-05,7.128449668085415e-05
54.4716878365,68.0283121635,8,0,-1.628080112702922,22.14091351008098,0.2287096898027051,-2.292258716871413e-05,7.215338732242146e-05,1.829677518421641e-06,7.216218925672491e-05,7.228243919458868e-05
53.0283121635,69.47168783650001,8,0,-1.629740609642776,21.83061318854773,0.3222979353445553,-2.267966050169506e-05,7.116175469106694e-05,2.578383482756443e-06,7.117946224359274e-05,7.093775803300612e-05
54.4716878365,69.47168783650001,8,0,-1.547104557029926,22.16115739899913,0.352663768721993,-2.267966050169506e-05,7.215338732242114e-05,2.821310149775944e-06,7.217436637629797e-05,7.194165010464298e-05
55.5283121635,68.0283121635,8,0,-1.667295984377877,22.35039114810761,0.3653348035353196,-2.321566006849529e-05,7.285508846144664e-05,2.922678428282557e-06,7.287731185880813e-05,7.298993127869401e-05
56.97168783650001,68.0283121635,8,0,-1.590175106688299,22.65887465886592,0.3946626232676533,-2.321566006849529e-05,7.378053899372158e-05,3.157300986141227e-06,7.380622533622953e-05,7.392489308477022e-05
55.5283121635,69.47168783650001,8,0,-1.589088465091419,22.36994302792922,0.4810161200696458,-2.298103751063592e-05,7.285508846144664e-05,3.848128960557166e-06,7.289370159519592e-05,7.2654663046096e-05
56.97168783650001,69.47168783650001,8,0,-1.51196758740185,22.6784265386875,0.5103439398020473,-2.298103751063592e-05,7.378053899372147e-05,4.082751518416378e-06,7.382358667894487e-05,7.359875855704579e-05
58.0283121635,68.0283121635,8,0,-1.606990438307601,22.85925828800463,0.5230684871531993,-2.342977603298803e-05,7.443521887226089e-05,4.184547897225594e-06,7.447992956002703e-05,7.458727788617751e-05
59.47168783650001,68.0283121635,8,0,-1.535059758419061,23.14698100755879,0.5509768328808187,-2.342977603298803e-05,7.529838703092338e-05,4.407814663046549e-06,7.534756033023246e-05,7.546198501178438e-05
58.0283121635,69.47168783650001,8,0,-1.532568183033877,22.87786385182307,0.6309645069860236,-2.320650926716686e-05,7.443521887226089e-05,5.047716055888189e-06,7.450041240447169e-05,7.426896638527427e-05
59.47168783650001,69.47168783650001,8,0,-1.460637503145337,23.16558657137723,0.6588728527136972,-2.320650926716686e-05,7.529838703092338e-05,5.270982821709578e-06,7.536884901146274e-05,7.51559127127529e-05
60.5283121635,68.0283121635,8,0,-1.531096283283701,23.33889409451033,0.6684109458532481,-2.35706233821161e-05,7.590933812906e-05,5.347287566825985e-06,7.598114369605682e-05,7.608164623085757e-05
61.9716878365,68.0283121635,8,0,-1.463931176412233,23.6075545219962,0.6945527677246633,-2.35706233821161e-05,7.671531941151762e-05,5.556422141797307e-06,7.679222492869227e-05,7.689988503931067e-05
60.5283121635,69.47168783650001,8,0,-1.461384758293188,23.35632197575795,0.769158606160424,-2.336148880714456e-05,7.590933812906e-05,6.153268849283392e-06,7.600459879204466e-05,7.578563162248213e-05
61.9716878365,69.47168783650001,8,0,-1.394219651421765,23.62498240324365,0.7953004280318392,-2.336148880714456e-05,7.671531941151708e-05,6.362403424254714e-06,7.68163402105549e-05,7.661910935094378e-05
63.0283121635,68.0283121635,8,0,-1.441197492459626,23.79178579901964,0.7984453073181617,-2.364526061508651e-05,7.728667255083054e-05,6.387562458545293e-06,7.738763213204321e-05,7.747997488300239e-05
64.47168783650001,68.0283121635,8,0,-1.37828211551995,24.04344730677834,0.8225123012933875,-2.364526061508651e-05,7.804165707410665e-05,6.5800984103471e-06,7.814799441217059e-05,7.824657100053716e-05
63.0283121635,69.47168783650001,8,0,-1.377018841859006,23.80783046166979,0.8928183727276888,-2.345272466328465e-05,7.728667255083054e-05,7.142546981821511e-06,7.741311767884148e-05,7.721140476172684e-05
64.47168783650001,69.47168783650001,8,0,-1.31410346491933,24.0594919694285,0.9168853667029147,-2.345272466328465e-05,7.804165707410665e-05,7.335082933623317e-06,7.817401260152789e-05,7.799610818868317e-05
65.5283121635,68.0283121635,8,0,-1.3391299298802,24.2209379564564,0.9105015027808887,-2.366196614078176e-05,7.857830540456464e-05,7.28401202224711e-06,7.870787684277804e-05,7.879099398320618e-05
66.97168783650001,68.0283121635,8,0,-1.279866098097248,24.45799328358821,0.9322267029592451,-2.366196614078176e-05,7.928947138596007e-05,7.457813623673961e-06,7.942435587634915e-05,7.951178911519462e-05
65.5283121635,69.47168783650001,8,0,-1.281196062738025,24.23542142324195,0.9993972504553311,-2.348816453935523e-05,7.857830540456464e-05,7.995178003642649e-06,7.873463762681683e-05,7.855477943048247e-05
66.97168783650001,69.47168783650001,8,0,-1.221932230955099,24.47247675037365,1.021122450633593,-2.348816453935523e-05,7.928947138595975e-05,8.168979605068741e-06,7.945153768871672e-05,7.929639422091429e-05
68.0283121635,68.0283121635,8,0,-1.226946567717515,24.62982355456058,1.00217790394738,-2.36300878603445e-05,7.979699262876784e-05,8.017423231579043e-06,7.995213285175294e-05,8.002518533903686e-05
69.47168783650001,68.0283121635,8,0,-1.170662581056256,24.85495950120561,1.02133673962104,-2.36300878603445e-05,8.047240046870296e-05,8.170693916968318e-06,8.063247767077617e-05,8.070701477505909e-05
68.0283121635,69.47168783650001,8,0,-1.175856339254459,24.64259611167634,1.08660388393927,-2.347681717495534e-05,7.979699262876784e-05,8.692831071514156e-06,7.99795944386974e-05,7.982595793092426e-05
69.47168783650001,69.47168783650001,8,0,-1.119572352593244,24.8677320583212,1.105762719612888,-2.347681717495534e-05,8.047240046870241e-05,8.846101756903105e-06,8.066026226757462e-05,8.053113810214591e-05
70.5283121635,68.0283121635,8,0,-1.106885316675488,25.02233539267512,1.071355991867336,-2.355990132750166e-05,8.095698150990078e-05,8.570847934938688e-06,8.113239898116482e-05,8.119474416471368e-05
71.97168783650001,68.0283121635,8,0,-1.052844301253923,25.23849945436138,1.087766161671973,-2.355990132750166e-05,8.160547369495956e-05,8.702129293375782e-06,8.178518557442558e-05,8.184541620162901e-05
70.5283121635,69.47168783650001,8,0,-1.063124863863358,25.03327550587816,1.152417514999629,-2.342861996906527e-05,8.095698150990078e-05,9.219340119997034e-06,8.116014919446187e-05,8.103681135819211e-05
71.97168783650001,69.47168783650001,8,0,-1.009083848441784,25.24943956756445,1.168827684804225,-2.342861996906527e-05,8.160547369495967e-05,9.350621478433803e-06,8.181317189280987e-05,8.171315621457618e-05
73.0283121635,68.0283121635,8,0,-0.9813411350999734,25.40274000544038,1.116209807829185,-2.346248363667221e-05,8.207384092548918e-05,8.929678462633482e-06,8.226239436473967e-05,8.231354334360261e-05
74.47168783650001,68.0283121635,8,0,-0.9287485613162971,25.61311030057508,1.129730441625149,-2.346248363667221e-05,8.27049518108933e-05,9.037843533001196e-06,8.289694845407141e-05,8.294181844301555e-05
73.0283121635,69.47168783650001,8,0,-0.9452861116441316,25.41175376130434,1.195098668504632,-2.335431856630469e-05,8.207384092548918e-05,9.560789348037058e-06,8.229015298520961e-05,8.220083862598299e-05
74.47168783650001,69.47168783650001,8,0,-0.8926935378604819,25.62212405643894,1.208619302300596,-2.335431856630469e-05,8.270495181089297e-05,9.668954418404771e-06,8.292486477175901e-05,8.285686689557669e-05
75.5283121635,68.0283121635,8,0,-0.8528435521816098,25.77563587609777,1.135212448311732,-2.334960806785937e-05,8.316430964525816e-05,9.081699586493855e-06,8.335754240195765e-05,8.339709377881672e-05
76.97168783650001,68.0283121635,8,0,-0.8008537140992305,25.98359522842729,1.145743112412618,-2.334960806785937e-05,8.378818770224671e-05,9.165944899300945e-06,8.398387348612479e-05,8.401265402829843e-05
75.5283121635,69.47168783650001,8,0,-0.8247617812458854,25.78265631883171,1.213197205435294,-2.326536275505219e-05,8.316430964525816e-05,9.705577643482352e-06,8.338512026590756e-05,8.333311701020943e-05
76.97168783650001,69.47168783650001,8,0,-0.7727719431635371,25.9906156711611,1.22372786953614,-2.326536275505219e-05,8.378818770224633e-05,9.789822956289117e-06,8.401153642468402e-05,8.397822825095823e-05
78.0283121635,68.0283121635,8,0,-0.7240401248009221,26.14591701611245,1.127142221282133,-2.32336620122529e-05,8.424616655140055e-05,9.017137770257061e-06,8.443496058351393e-05,8.446247863636483e-05
79.47168783650001,68.0283121635,8,0,-0.6717615058221851,26.35503149202739,1.134622370649788,-2.32336620122529e-05,8.487350997914541e-05,9.0769789651983e-06,8.506370745932584e-05,8.507586207066752e-05
78.0283121635,69.47168783650001,8,0,-0.704093059820635,26.15090378235752,1.205560149750232,-2.317382081731204e-05,8.424616655140055e-05,9.64448119800186e-06,8.446220949100028e-05,8.445022115093007e-05
79.47168783650001,69.47168783650001,8,0,-0.651814440841898,26.36001825827246,1.213040299117847,-2.317382081731204e-05,8.487350997914541e-05,9.704322392942773e-06,8.509097188609276e-05,8.509461849377092e-05
80.5283121635,68.0283121635,8,0,-0.5976856859575967,26.5187422279195,1.091091265812155,-2.312758797739991e-05,8.533812367810846e-05,8.728730126497241e-06,8.551345044855615e-05,8.552820382465786e-05
81.97168783650001,68.0283121635,8,0,-0.5441852856434819,26.73274382917596,1.095500757122985,-2.312758797739991e-05,8.598012848187785e-05,8.76400605698388e-06,8.615583628634205e-05,8.615064104469415e-05
80.5283121635,69.47168783650001,8,0,-0.5859270424619965,26.5216818887934,1.171341866283308,-2.30923120469131e-05,8.533812367810846e-05,9.370734930266465e-06,8.554020560309942e-05,8.55700519281645e-05
81.97168783650001,69.47168783650001,8,0,-0.5324266421478763,26.73568349004988,1.175751357594185,-2.30923120469131e-05,8.59801284818779e-05,9.406010860753483e-06,8.618253791173777e-05,8.622456288375902e-05
83.02831216350002,68.0283121635,8,0,-0.476636569886371,26.89950955967619,1.026479449550943,-2.304484467137734e-05,8.645973984687289e-05,8.211835596407544e-06,8.661347702527183e-05,8.661382370456639e-05
84.47168783650002,68.0283121635,8,0,-0.4209434187746375,27.12228216412312,1.027840703006636,-2.304484467137734e-05,8.712805766021369e-05,8.222725624053089e-06,8.728126983710781e-05,8.725682504453976e-05
83.02831216350002,69.47168783650001,8,0,-0.4730065606711173,26.90041706198,1.110019176218577,-2.303395464373157e-05,8.645973984687289e-05,8.880153409748619e-06,8.663949421177064e-05,8.67114326336355e-05
84.47168783650002,69.47168783650001,8,0,-0.4173134095593838,27.12318966642693,1.111380429674264,-2.303395464373157e-05,8.712805766021369e-05,8.89104343739411e-06,8.730716281888767e-05,8.738707457142845e-05
85.5283121635,68.0283121635,8,0,-0.3638483407440853,27.29383464284137,0.9330762057354401,-2.299938240465417e-05,8.763134952968765e-05,7.464609645883521e-06,8.77571218207939e-05,8.773899903779449e-05
86.97168783650002,68.0283121635,8,0,-0.3049565786477757,27.52940169122661,0.9314585434933658,-2.299938240465417e-05,8.833805067484337e-05,7.451668347946926e-06,8.846259395628488e-05,8.841332154553737e-05
85.5283121635,69.47168783650001,8,0,-0.3681621067229681,27.29275620134658,1.021413848879918,-2.301232370259076e-05,8.763134952968744e-05,8.171310791039348e-06,8.778201228570325e-05,8.789312556969969e-05
86.97168783650002,69.47168783650001,8,0,-0.3092703446266629,27.52832324973181,1.019796186637858,-2.301232370259076e-05,8.83380506748431e-05,8.158369493102861e-06,8.848728660625495e-05,8.860004067046348e-05
88.02831216350002,68.0283121635,8,0,-0.2623749246793787,27.70753080482492,0.8110326626008983,-2.300562440283395e-05,8.887399851518324e-05,6.488261300807187e-06,8.896798837061624e-05,8.892114598308066e-05
89.47168783650001,68.0283121635,8,0,-0.1992469592692618,27.96004266646539,0.8065592597618313,-2.300562440283395e-05,8.963153410010465e-05,6.452474078094651e-06,8.972386668611718e-05,8.963422564009003e-05
88.02831216350002,69.47168783650001,8,0,-0.2743039989169995,27.70454853626552,0.9057246107159858,-2.304141162554681e-05,8.887399851518324e-05,7.245796885727886e-06,8.899115545864097e-05,8.913141736182267e-05
89.47168783650001,69.47168783650001,8,0,-0.2111760335068738,27.95706039790602,0.901251207876939,-2.304141162554681e-05,8.963153410010476e-05,7.210009663015512e-06,8.974675947975082e-05,8.987625037987175e-05
90.52831216350002,68.0283121635,8,0,-0.1753664584841816,28.14658809173126,0.6609259602065516,-2.307844314053438e-05,9.020937506032736e-05,5.287407681652413e-06,9.027103542336168e-05,9.01695950184723e-05
91.97168783650001,68.0283121635,8,0,-0.1069368520533436,28.42030651745461,0.6537837210197174,-2.307844314053438e-05,9.103053033749742e-05,5.230269768157739e-06,9.109043221916508e-05,9.091917170408201e-05
90.52831216350002,69.47168783650001,8,0,-0.1944124296489731,28.14182659894006,0.763570369852781,-2.313558105402876e-05,9.020937506032736e-05,6.108562958822249e-06,9.029161843226744e-05,9.043416376136116e-05
91.97168783650001,69.47168783650001,8,0,-0.125982823218135,28.41554502466341,0.7564281306659876,-2.313558105402876e-05,9.103053033749742e-05,6.0514250453279e-06,9.111066370458662e-05,9.121357844782855e-05
93.02831216350002,68.0283121635,8,0,-0.1060626285324844,28.61714763759207,0.4838170430222977,-2.323311852137761e-05,9.165972254312062e-05,3.870536344178382e-06,9.169231117827029e-05,9.14710797635392e-05
94.47168783650002,68.0283121635,8,0,-0.03124347883312328,28.91642423638952,0.4742695589249682,-2.323311852137761e-05,9.255755233951294e-05,3.794156471399746e-06,9.258862513913263e-05,9.22293439375374e-05
93.02831216350002,69.47168783650001,8,0,-0.1315225861252918,28.61078264819387,0.5960457675712708,-2.330949839415603e-05,9.165972254312062e-05,4.768366140570166e-06,9.170914347889299e-05,9.178604117581222e-05
94.47168783650002,69.47168783650001,8,0,-0.05670343642594933,28.91005924699124,0.5864982834739548,-2.330949839415603e-05,9.255755233951272e-05,4.691986267791638e-06,9.260503287300686e-05,9.257062374770223e-05
95.5283121635,68.0283121635,8,0,-0.05777779148604179,29.12546719421918,0.2813224527782774,-2.348526268813067e-05,9.324771725469018e-05,2.25057962222622e-06,9.325856388526725e-05,9.275361719122366e-05
96.97168783650002,68.0283121635,8,0,0.0245335266435216,29.45471246673743,0.2697260066412597,-2.348526268813067e-05,9.423545307224495e-05,2.157808053130077e-06,9.424534033917984e-05,9.342769418340669e-05
95.5283121635,69.47168783650001,8,0,-0.08870164785146795,29.11773623012782,0.4047894299726094,-2.357803425722695e-05,9.324771725469018e-05,3.238315439780875e-06,9.327015381759352e-05,9.311188255603021e-05
96.97168783650002,69.47168783650001,8,0,-0.006390329721922328,29.446981502646,0.3931929838355713,-2.357803425722695e-05,9.423545307224473e-05,3.14554387068457e-06,9.425644532824062e-05,9.380604654859925e-05
98.02831216350002,68.0283121635,8,0,-0.03387376368761963,29.67787311455677,0.0556997091223402,-2.385069453544579e-05,9.499629297753174e-05,4.455976729787216e-07,9.499671065027322e-05,9.379640431788161e-05
99.47168783650002,68.0283121635,8,0,0.05703602466276614,30.04151226795831,0.04252205694075839,-2.385069453544579e-05,9.608721043773637e-05,3.401764555260671e-07,9.608745164544339e-05,9.412966214639248e-05
98.02831216350002,69.47168783650001,8,0,-0.06901416950503503,29.66908801310242,0.1920643916478442,-2.395611575289804e-05,9.499629297753174e-05,1.536515133182753e-06,9.50012545842565e-05,9.418526477418719e-05
99.47168783650002,69.47168783650001,8,0,0.02189561884534541,30.03272716650394,0.1788867394662895,-2.395611575289804e-05,9.608721043773632e-05,1.431093915730316e-06,9.609147547499089e-05,9.452714424112455e-05
0.5283121635,70.5283121635,8,0,-0.03516651779254687,6.518936039779378,-0.169665139870202,-5.327681688759652e-06,2.088872854152804e-05,-1.357321118961616e-06,2.090628517554292e-05,2.260094586537397e-05
1.9716878365,70.5283121635,8,0,0.05560879169159971,6.882037277715964,-0.1817506971521905,-5.327681688759652e-06,2.19780322553378e-05,-1.454005577217524e-06,2.199737468769598e-05,2.302075071715208e-05
0.5283121635,71.97168783650001,8,0,-0.06739467054469706,6.51087900159134,-0.03350217564403613,-5.424366147016102e-06,2.088872854152804e-05,-2.680174051522891e-07,2.0889411010345e-05,2.296096528741173e-05
1.9716878365,71.97168783650001,8,0,0.02338063893944953,6.873980239527927,-0.04558773292613312,-5.424366147016102e-06,2.19780322553378e-05,-3.64701863409065e-07,2.197924566700482e-05,2.337189851920812e-05
3.0283121635,70.5283121635,8,0,-0.06710800579170861,7.112204941325738,-0.3790614486515778,-5.904509571594057e-06,2.281274221687573e-05,-3.032491589212622e-06,2.289257672810838e-05,2.352124535141698e-05
4.4716878365,70.5283121635,8,0,0.03215585344125271,7.509260378257583,-0.3896569609819522,-5.904509571594057e-06,2.400390852767126e-05,-3.117255687855617e-06,2.408491444344506e-05,2.446881726942431e-05
3.0283121635,71.97168783650001,8,0,-0.09536270533926516,7.105141266438848,-0.2301656598022715,-5.989273670236727e-06,2.281274221687573e-05,-1.841325278418172e-06,2.284214138765986e-05,2.38614442423333e-05
4.4716878365,71.97168783650001,8,0,0.003901153893705045,7.502196703370729,-0.2407611721325781,-5.989273670236727e-06,2.400390852767137e-05,-1.926089377060625e-06,2.403479890970189e-05,2.478797479879982e-05
5.528312163500001,70.5283121635,8,0,-0.1221058970905089,7.753375862095085,-0.5678587637440047,-6.593439560365695e-06,2.490848747637667e-05,-4.542870109952037e-06,2.507142570980834e-05,2.525865989398394e-05
6.9716878365,70.5283121635,8,0,-0.01542345237122333,8.180105640972227,-0.5764566378944648,-6.593439560365695e-06,2.61886768130081e-05,-4.611653103155718e-06,2.635006933808341e-05,2.646897815634879e-05
5.528312163500001,71.97168783650001,8,0,-0.1450335614919527,7.747643945994588,-0.4078350966650623,-6.662222553569918e-06,2.490848747637624e-05,-3.262680773320498e-06,2.499255918091274e-05,2.556004350363083e-05
6.9716878365,71.97168783650001,8,0,-0.03835111677265779,8.174373724871767,-0.4164329708155495,-6.662222553569918e-06,2.618867681300778e-05,-3.331463766524396e-06,2.627292306892902e-05,2.674284387578621e-05
8.028312163500001,70.5283121635,8,0,-0.1968260521729133,8.436316027106862,-0.7334660211361852,-7.378896188638812e-06,2.715367212848029e-05,-5.867728169089482e-06,2.740115761299604e-05,2.740757383290078e-05
9.471687836500001,70.5283121635,8,0,-0.08380714430470482,8.888391658579696,-0.7396795408588259,-7.378896188638812e-06,2.850989902289879e-05,-5.917436326870608e-06,2.875218386898368e-05,2.876154664674946e-05
8.028312163500001,71.97168783650001,8,0,-0.2133954380997198,8.432173680625297,-0.5639376593339404,-7.428604346419341e-06,2.715367212848072e-05,-4.511501274671523e-06,2.730019062823157e-05,2.766015102414166e-05
9.471687836500001,71.97168783650001,8,0,-0.1003765302315749,8.884249312097877,-0.570151179056554,-7.428604346419341e-06,2.850989902289847e-05,-4.561209432452432e-06,2.865404469981395e-05,2.898348038754606e-05
10.5283121635,70.5283121635,8,0,-0.287944552332148,9.154832863921753,-0.8740062412941488,-8.245288858600274e-06,2.952582080641532e-05,-6.992049930353191e-06,2.984668083688486e-05,2.978393779730352e-05
11.9716878365,70.5283121635,8,0,-0.1696676327667479,9.627940542183353,-0.8775502103900649,-8.245288858600274e-06,3.094514384120012e-05,-7.020401683120519e-06,3.125706223609649e-05,3.122318955209607e-05
10.5283121635,71.97168783650001,8,0,-0.297395136588213,9.152470217857736,-0.6965908619460757,-8.27364061136847e-06,2.952582080641532e-05,-5.572726895568605e-06,2.973011171946941e-05,2.99830324928986e-05
11.9716878365,71.97168783650001,8,0,-0.1791182170228671,9.62557789611912,-0.7001348310420731,-8.27364061136847e-06,3.094514384119947e-05,-5.601078648336585e-06,3.114411560567605e-05,3.139053026624591e-05
13.0283121635,70.5283121635,8,0,-0.3921848771878964,9.902761244546781,-0.9882227727923173,-9.177200602638691e-06,3.200258388430001e-05,-7.905782182338538e-06,3.237859277997382e-05,3.229618150475571e-05
14.4716878365,70.5283121635,8,0,-0.2697134697672325,10.39264687422944,-0.9888970076496343,-9.177200602638691e-06,3.347224077334798e-05,-7.911176061197074e-06,3.383600525810807e-05,3.378839828086648e-05
13.0283121635,71.97168783650001,8,0,-0.3939828368073179,9.902311754641925,-0.8045156616612943,-9.182594481496956e-06,3.200258388430001e-05,-6.436125293290355e-06,3.2252515097298e-05,3.244031673424902e-05
14.4716878365,71.97168783650001,8,0,-0.2715114293866541,10.39219738432458,-0.8051898965186384,-9.182594481496956e-06,3.347224077334798e-05,-6.441519172149107e-06,3.371406130970361e-05,3.390088892870643e-05
15.5283121635,70.5283121635,8,0,-0.506339610464134,10.67402680191441,-1.075399451937428,-1.015950819501676e-05,3.456195745449742e-05,-8.603195615499424e-06,3.497195400233194e-05,3.489262622411111e-05
16.9716878365,70.5283121635,8,0,-0.3807142396446888,11.17652828519219,-1.073075760963564,-1.015950819501676e-05,3.606946190433077e-05,-8.584606087708516e-06,3.646461922819966e-05,3.641721629221022e-05
15.5283121635,71.97168783650001,8,0,-0.5001431012004436,10.67557592923034,-0.8869613957082331,-1.014091866722569e-05,3.456195745449742e-05,-7.095691165665864e-06,3.484178077403969e-05,3.498226382859857e-05
16.9716878365,71.97168783650001,8,0,-0.3745177303809806,11.17807741250819,-0.884637704734383,-1.014091866722569e-05,3.606946190433098e-05,-7.077101637875064e-06,3.633885525206854e-05,3.647606280280184e-05
18.0283121635,70.5283121635,8,0,-0.6272831858235381,11.46269261376415,-1.135296593624398,-1.117746028564664e-05,3.71824429127041e-05,-9.082372748995182e-06,3.760518289445918e-05,3.753966789189125e-05
19.4716878365,70.5283121635,8,0,-0.4995151680710137,11.97376468477425,-1.129909328663632,-1.117746028564664e-05,3.871565912573439e-05,-9.03927462930906e-06,3.9121771125519e-05,3.908167262328808e-05
18.0283121635,71.97168783650001,8,0,-0.6129171459280194,11.46628412373803,-0.9436445669955296,-1.113436216596008e-05,3.71824429127041e-05,-7.549156535964236e-06,3.747554041638634e-05,3.757645587948951e-05
19.4716878365,71.97168783650001,8,0,-0.4851491281754496,11.97735619474831,-0.9382573020347371,-1.113436216596008e-05,3.871565912573493e-05,-7.506058416277897e-06,3.89966276104976e-05,3.908898669922181e-05
20.5283121635,70.5283121635,8,0,-0.7519813965310691,12.26299614476451,-1.168102428784963,-1.221673738471102e-05,3.984317278047126e-05,-9.344819430279704e-06,4.025919989079263e-05,4.02124796545761e-05
21.9716878365,70.5283121635,8,0,-0.6230473650256538,12.77873227078617,-1.159642247161967,-1.221673738471102e-05,4.139038115853625e-05,-9.27713797729574e-06,4.178879078421648e-05,4.17598971863456e-05
20.5283121635,71.97168783650001,8,0,-0.7294209122029365,12.26863626584654,-0.9747013815266911,-1.214905593172663e-05,3.984317278047126e-05,-7.797611052213528e-06,4.013391152902854e-05,4.019881042326572e-05
21.9716878365,71.97168783650001,8,0,-0.6004868806974764,12.78437239186838,-0.9662411999037226,-1.214905593172663e-05,4.139038115853679e-05,-7.72992959922978e-06,4.166795053452262e-05,4.171837440519556e-05
23.0283121635,70.5283121635,8,0,-0.8775021411028261,13.0693822908421,-1.174397827162,-1.326351268420272e-05,4.252402504357697e-05,-9.395182617296001e-06,4.291682022580619e-05,4.289090839579912e-05
24.4716878365,70.5283121635,8,0,-0.7483384482959416,13.58603706206964,-1.162907989483636,-1.326351268420272e-05,4.407398935725958e-05,-9.303263915869087e-06,4.444891174332653e-05,4.443347095231796e-05
23.0283121635,71.97168783650001,8,0,-0.846862573960558,13.07704218262766,-0.980652287951606,-1.317159398277592e-05,4.252402504357697e-05,-7.845218303612848e-06,4.279893512221803e-05,4.282966719711098e-05
24.4716878365,71.97168783650001,8,0,-0.7176988811536735,13.5936969538552,-0.9691624502732553,-1.317159398277592e-05,4.407398935725958e-05,-7.753299602186042e-06,4.433532164254904e-05,4.434621158490822e-05
25.5283121635,70.5283121635,8,0,-1.001030383997731,13.87653690835065,-1.155130974857599,-1.430452675547326e-05,4.520574241392026e-05,-9.241047798860791e-06,4.556235429565458e-05,4.555759378936377e-05
26.9716878365,70.5283121635,8,0,-0.872526839092215,14.39055108797271,-1.140705330690995,-1.430452675547326e-05,4.674778495278645e-05,-9.125642645527957e-06,4.70869094254914e-05,4.708619193773318e-05
25.5283121635,71.97168783650001,8,0,-0.9625619995534529,13.88615400446172,-0.9623756574993246,-1.418912160214042e-05,4.520574241392026e-05,-7.699005259994597e-06,4.545419724147955e-05,4.545202152240229e-05
26.9716878365,71.97168783650001,8,0,-0.8340584546479368,14.40016818408378,-0.9479500133327068,-1.418912160214042e-05,4.674778495278645e-05,-7.583600106661655e-06,4.698282321562526e-05,4.695660606748186e-05
28.0283121635,70.5283121635,8,0,-1.11988878120398,14.67942356550182,-1.11159811855792,-1.532718295225419e-05,4.787006643456899e-05,-8.892784948463361e-06,4.818136948394593e-05,4.819708292217307e-05
29.4716878365,70.5283121635,8,0,-0.9928814903799816,15.18745272879781,-1.094379890698651,-1.532718295225419e-05,4.939415392445697e-05,-8.755039125589209e-06,4.968889145968917e-05,4.970349538509266e-05
28.0283121635,71.97168783650001,8,0,-1.07397350691247,14.69090238407469,-0.9210871823219901,-1.518943712937966e-05,4.787006643456899e-05,-7.368697458575921e-06,4.80846003272152e-05,4.805070530597468e-05
29.4716878365,71.97168783650001,8,0,-0.9469662160884447,15.19893154737079,-0.9038689544625992,-1.518943712937966e-05,4.93941539244573e-05,-7.230951635700793e-06,4.959592274098648e-05,4.953525546910699e-05
30.5283121635,70.5283121635,8,0,-1.231564024950689,15.47332463053168,-1.045426482489963,-1.631966458426755e-05,5.049989003766192e-05,-8.363411859919705e-06,5.076057284313924e-05,5.079541891109206e-05
31.9716878365,70.5283121635,8,0,-1.106827379010713,15.97227121429158,-1.025607029627706,-1.631966458426755e-05,5.199672978894163e-05,-8.204856237021651e-06,5.224220030661692e-05,5.227219699930937e-05
30.5283121635,71.97168783650001,8,0,-1.17871215065132,15.48653759910652,-0.858321513579985,-1.616110896136944e-05,5.049989003766192e-05,-6.86657210863988e-06,5.067625028384612e-05,5.061201182018387e-05
31.9716878365,71.97168783650001,8,0,-1.053975504711362,15.98548418286635,-0.8385020607176741,-1.616110896136944e-05,5.199672978894142e-05,-6.708016485741392e-06,5.216138086243501e-05,5.206921471569111e-05
33.0283121635,70.5283121635,8,0,-1.333737822479103,16.25388637512282,-0.9585559045818478,-1.727107013203139e-05,5.307942665837631e-05,-7.668447236654783e-06,5.328778139258299e-05,5.333997119939457e-05
34.4716878365,70.5283121635,8,0,-1.211975897034338,16.74093407690188,-0.9363727931344622,-1.727107013203139e-05,5.454056976371348e-05,-7.490982345075697e-06,5.473539538143437e-05,5.478040647694527e-05
33.0283121635,71.97168783650001,8,0,-1.274582858619335,16.26867511608804,-0.7759130164147017,-1.70936052404523e-05,5.307942665837718e-05,-6.207304131317613e-06,5.321642923867783e-05,5.312354325075045e-05
34.4716878365,71.97168783650001,8,0,-1.152820933174671,16.75572281786669,-0.7537299049673432,-1.70936052404523e-05,5.454056976371315e-05,-6.029839239738745e-06,5.466723689920445e-05,5.454681948101744e-05
35.5283121635,70.5283121635,8,0,-1.424320612898604,17.01716663693928,-0.853216494193124,-1.817155927082696e-05,5.559438972852458e-05,-6.825731953544992e-06,5.57519533205011e-05,5.581939645736923e-05
36.9716878365,70.5283121635,8,0,-1.306158397842188,17.48981549716495,-0.8289504113630534,-1.817155927082696e-05,5.701233630920157e-05,-6.631603290904427e-06,5.715828829115583e-05,5.72175345950125e-05
35.5283121635,71.97168783650001,8,0,-1.359611058685028,17.03334402549268,-0.6759731716084595,-1.797743060818623e-05,5.559438972852458e-05,-5.407785372867676e-06,5.569362863908797e-05,5.557417721600873e-05
36.9716878365,71.97168783650001,8,0,-1.241448843628612,17.50599288571834,-0.6517070887783754,-1.797743060818623e-05,5.701233630920157e-05,-5.213656710227003e-06,5.71028468175005e-05,5.695769451540615e-05
38.0283121635,70.5283121635,8,0,-1.501485667583875,17.75968281373632,-0.7319005479502068,-1.901250038725745e-05,5.803217353802332e-05,-5.855204383601654e-06,5.81432586300838e-05,5.822367165521134e-05
39.4716878365,70.5283121635,8,0,-1.387460622247874,18.21578299508032,-0.7058708091888914,-1.901250038725745e-05,5.940047408205533e-05,-5.646966473511132e-06,5.95020101870368e-05,5.957435108552615e-05
38.0283121635,71.97168783650001,8,0,-1.432073030887071,17.77703597291052,-0.5608629799462735,-1.880426247716704e-05,5.803217353802332e-05,-4.486903839570188e-06,5.809762156415598e-05,5.795409859732995e-05
39.4716878365,71.97168783650001,8,0,-1.318047985551043,18.23313615425463,-0.5348332411849853,-1.880426247716704e-05,5.940047408205566e-05,-4.278665929479883e-06,5.945895296652362e-05,5.92928078747331e-05
40.5283121635,70.5283121635,8,0,-1.563701096677836,18.47845756746936,-0.5973279446517079,-1.978660956334456e-05,6.038202509324421e-05,-4.778623557213663e-06,6.045317198155167e-05,6.05441651204042e-05
41.97168783650001,70.5283121635,8,0,-1.454255539272079,18.91623979709239,-0.569886563326388,-1.978660956334456e-05,6.16953717821133e-05,-4.559092506611104e-06,6.175909471107927e-05,6.184306690738227e-05
40.5283121635,71.97168783650001,8,0,-1.490524079810226,18.49675182168626,-0.433159608543112,-1.956707851274173e-05,6.038202509324421e-05,-3.465276868344896e-06,6.04195568125291e-05,6.025486567999543e-05
41.97168783650001,71.97168783650001,8,0,-1.38107852240445,18.93453405130936,-0.4057182272176971,-1.956707851274173e-05,6.169537178211352e-05,-3.245745817741577e-06,6.172776887200388e-05,6.15445472064989e-05
43.0283121635,70.5283121635,8,0,-1.609757450692229,19.17105957478692,-0.4524051673532016,-2.048807150204467e-05,6.263519659987192e-05,-3.619241338825613e-06,6.267457397836018e-05,6.277372366024248e-05
44.4716878365,70.5283121635,8,0,-1.505232245394671,19.58916039597715,-0.4239296420702665,-2.048807150204467e-05,6.388949906344261e-05,-3.391437136562132e-06,6.392356381591403e-05,6.401742340659367e-05
43.0283121635,71.97168783650001,8,0,-1.533822716604366,19.19004325830889,-0.2956173594069055,-2.026026729978108e-05,6.263519659987192e-05,-2.364938875255244e-06,6.265206060557828e-05,6.246949083496279e-05
44.4716878365,71.97168783650001,8,0,-1.42929751130679,19.60814407949919,-0.2671418341239568,-2.026026729978108e-05,6.388949906344283e-05,-2.137134672991654e-06,6.390306597088642e-05,6.370680229566723e-05
45.52831216350001,70.5283121635,8,0,-1.638788997412602,19.83563691684228,-0.3001788896996646,-2.111263432519415e-05,6.478506933182537e-05,-2.401431117597316e-06,6.480185017921633e-05,6.49067609116697e-05
46.97168783650001,70.5283121635,8,0,-1.539418913120781,20.23311725400956,-0.2710640116587645,-2.111263432519415e-05,6.597751034332722e-05,-2.168512093270116e-06,6.599100703710806e-05,6.609277641436603e-05
45.52831216350001,71.97168783650001,8,0,-1.561149322636869,19.85504683553635,-0.1511237632620009,-2.087971530086706e-05,6.47850693318258e-05,-1.208990106096007e-06,6.478933474937093e-05,6.459252233941319e-05
46.97168783650001,71.97168783650001,8,0,-1.461779238345083,20.25252717270349,-0.1220088852210872,-2.087971530086706e-05,6.597751034332722e-05,-9.760710817686979e-07,6.598025244300044e-05,6.57750430396077e-05
48.0283121635,70.5283121635,8,0,-1.650287298627826,20.47094118624259,-0.143785661554371,-2.165767230460312e-05,6.682724163487854e-05,-1.150285292434968e-06,6.683097984373886e-05,6.693933681129382e-05
49.47168783650001,70.5283121635,8,0,-1.556198294470025,20.8472972028738,-0.1144347429856356,-2.165767230460312e-05,6.795630968477217e-05,-9.154779438850852e-07,6.795864770720389e-05,6.806616732477823e-05
48.0283121635,71.97168783650001,8,0,-1.572018182444622,20.49050846528839,-0.002652155317573162,-2.14228649560535e-05,6.682724163487854e-05,-2.12172425405853e-08,6.682724291015002e-05,6.662011814547723e-05
49.47168783650001,71.97168783650001,8,0,-1.477929178286757,20.86686448191985,0.0266987632510673,-2.14228649560535e-05,6.795630968477293e-05,2.135901060085384e-07,6.795643728907348e-05,6.77463855708281e-05
50.5283121635,70.5283121635,8,0,-1.644106337985428,21.0763410254735,0.01360039081214123,-2.212221310193217e-05,6.875957635190354e-05,1.088031264971298e-07,6.875960891650246e-05,6.88692216504757e-05
51.97168783650001,70.5283121635,8,0,-1.55531489658321,21.43150679108237,0.04278441773490648,-2.212221310193217e-05,6.982507364873016e-05,3.422753418792519e-07,6.982539217907497e-05,6.993637635612804e-05
50.5283121635,71.97168783650001,8,0,-1.566282266191333,21.09579704342202,0.1467875529155365,-2.188874088654988e-05,6.875957635190354e-05,1.174300423324292e-06,6.87633793006966e-05,6.855010558181469e-05
51.97168783650001,71.97168783650001,8,0,-1.477490824789115,21.4509628090309,0.1759715798382746,-2.188874088654988e-05,6.982507364873016e-05,1.407772638706197e-06,6.983047552600246e-05,6.96196420616324e-05
53.0283121635,70.5283121635,8,0,-1.620459096600969,21.65182452368128,0.1688197773222402,-2.250692872806813e-05,7.058220575306088e-05,1.350558218577921e-06,7.058710404634404e-05,7.069594109106144e-05
54.4716878365,70.5283121635,8,0,-1.536873589906656,21.98616655045854,0.1974429416512648,-2.250692872806813e-05,7.158523183339264e-05,1.579543533210119e-06,7.159186039311324e-05,7.170395583297297e-05
53.0283121635,71.97168783650001,8,0,-1.544130658390237,21.67090663323397,0.2941980373637643,-2.227794341343593e-05,7.058220575306088e-05,2.353584298910114e-06,7.059711653496281e-05,7.038202356735758e-05
54.4716878365,71.97168783650001,8,0,-1.460545151695906,22.00524866001129,0.3228212016928296,-2.227794341343593e-05,7.158523183339286e-05,2.582569613542637e-06,7.160299280297198e-05,7.13953520960205e-05
55.5283121635,70.5283121635,8,0,-1.579906082183601,22.19799061805055,0.3187777504507725,-2.281409195742796e-05,7.229749484350865e-05,2.55022200360618e-06,7.231458651442259e-05,7.242080096280594e-05
56.97168783650001,70.5283121635,8,0,-1.501330027872108,22.51229483529652,0.3464628974034998,-2.281409195742796e-05,7.324040749524655e-05,2.771703179227998e-06,7.326039807368015e-05,7.337124353683973e-05
55.5283121635,71.97168783650001,8,0,-1.506079023642831,22.21644738268575,0.4366418319181058,-2.259261078180566e-05,7.229749484350865e-05,3.493134655344846e-06,7.232963164677042e-05,7.211714610186444e-05
56.97168783650001,71.97168783650001,8,0,-1.427502969331285,22.53075159993193,0.4643269788708331,-2.259261078180566e-05,7.32404074952472e-05,3.714615830966665e-06,7.327638985315298e-05,7.30757954698497e-05
58.0283121635,70.5283121635,8,0,-1.523336845864751,22.71603031209766,0.4604905265664065,-2.304750215644533e-05,7.390996647540431e-05,3.683924212531252e-06,7.394494676962808e-05,7.404689270216953e-05
59.47168783650001,70.5283121635,8,0,-1.449473804132169,23.01148247902799,0.4868841189981001,-2.304750215644533e-05,7.479632297619529e-05,3.895072951984801e-06,7.483507245066043e-05,7.494235797598675e-05
58.0283121635,71.97168783650001,8,0,-1.452953932713532,22.73362604038547,0.5712850891652658,-2.283635341699167e-05,7.390996647540431e-05,4.570280713322127e-06,7.396391122926137e-05,7.375848761778089e-05
59.47168783650001,71.97168783650001,8,0,-1.37909089098095,23.02907820731579,0.5976786815969459,-2.283635341699167e-05,7.479632297619529e-05,4.781429452775567e-06,7.485482894126803e-05,7.466498788395129e-05
60.5283121635,70.5283121635,8,0,-1.451945934132227,23.20769908653213,0.5911262368322344,-2.321238625844883e-05,7.54261938242086e-05,4.729009894657876e-06,7.548284178740441e-05,7.5579081910631e-05
61.9716878365,70.5283121635,8,0,-1.382405712610502,23.48585997261904,0.6159038822849036,-2.321238625844883e-05,7.62606764824693e-05,4.927231058279228e-06,7.632165463045983e-05,7.642317877673105e-05
60.5283121635,71.97168783650001,8,0,-1.385872212925291,23.22421751683387,0.6954365691148087,-2.301416509482802e-05,7.54261938242086e-05,5.563492552918469e-06,7.550473826677302e-05,7.531079221191646e-05
61.9716878365,71.97168783650001,8,0,-1.316331991403511,23.50237840292099,0.7202142145674507,-2.301416509482802e-05,7.626067648246995e-05,5.761713716539605e-06,7.634420579322316e-05,7.616866218156981e-05
63.0283121635,70.5283121635,8,0,-1.367204996970157,23.67528230089809,0.708039728508617,-2.331528183102297e-05,7.685466736045e-05,5.664317828068936e-06,7.693467860513724e-05,7.702398364723022e-05
64.47168783650001,70.5283121635,8,0,-1.301510780329935,23.93805916745898,0.7309103346448933,-2.331528183102297e-05,7.764299796013266e-05,5.847282677159146e-06,7.772759253179892e-05,7.78213162128386e-05
63.0283121635,71.97168783650001,8,0,-1.306216713939997,23.69052937165563,0.8065810534689087,-2.313231698193249e-05,7.685466736045e-05,6.45264842775127e-06,7.695866442179416e-05,7.678050976126808e-05
64.47168783650001,71.97168783650001,8,0,-1.240522497299757,23.95330623821659,0.8294516596052122,-2.313231698193249e-05,7.764299796013288e-05,6.635613276841697e-06,7.775211133940373e-05,7.759423846590955e-05
65.5283121635,70.5283121635,8,0,-1.270832893519338,24.1215556400648,0.8088009121388385,-2.336390977131372e-05,7.820564436302282e-05,6.470407297110708e-06,7.830858805842758e-05,7.838992861343949e-05
66.97168783650001,70.5283121635,8,0,-1.208428896871525,24.37117162665605,0.829509504383794,-2.336390977131372e-05,7.895449232279657e-05,6.636076035070352e-06,7.906197858883801e-05,7.914607401615249e-05
65.5283121635,71.97168783650001,8,0,-1.215609980866087,24.13536136822811,0.9024069071106257,-2.319824103335397e-05,7.820564436302282e-05,7.219255256885005e-06,7.83339722227057e-05,7.817576235831339e-05
66.97168783650001,71.97168783650001,8,0,-1.153205984218237,24.38497735481951,0.9231154993555811,-2.319824103335397e-05,7.895449232279701e-05,7.384923994844649e-06,7.908778790328e-05,7.8950786473602e-05
68.0283121635,70.5283121635,8,0,-1.164765600317089,24.54974273562462,0.8912169466157035,-2.336704410951438e-05,7.949098923425244e-05,7.129735572925628e-06,7.961439285639424e-05,7.968692414714895e-05
69.47168783650001,70.5283121635,8,0,-1.105024861942978,24.78870568912106,0.9095463099545237,-2.336704410951438e-05,8.020787809474178e-05,7.276370479636189e-06,8.033551613769536e-05,8.04084087816614e-05
68.0283121635,71.97168783650001,8,0,-1.115887298080162,24.56196231118385,0.9808280541769108,-2.32204092028036e-05,7.949098923425244e-05,7.846624433415286e-06,7.964063168990117e-05,7.950630419400272e-05
69.47168783650001,71.97168783650001,8,0,-1.056146559706024,24.80092526468041,0.9991574175157445,-2.32204092028036e-05,8.02078780947421e-05,7.993259340125956e-06,8.03620841598896e-05,8.024898271541826e-05
70.5283121635,70.5283121635,8,0,-1.051127542255851,24.96347198824179,0.9533491270890171,-2.333438572581215e-05,8.072401239617838e-05,7.626793016712137e-06,8.086357360278593e-05,8.092661255014418e-05
71.97168783650001,70.5283121635,8,0,-0.9933595193705234,25.1945440797831,0.9691205498333776,-2.333438572581215e-05,8.141722867080232e-05,7.752964398667021e-06,8.156048747633793e-05,8.16208869398605e-05
70.5283121635,71.97168783650001,8,0,-1.009070414937484,24.97398627007138,1.040001161416914,-2.320821434385705e-05,8.072401239617838e-05,8.320009291335308e-06,8.08902553649788e-05,8.078347661413248e-05
71.97168783650001,71.97168783650001,8,0,-0.9513023920521562,25.20505836161269,1.055772584161328,-2.320821434385705e-05,8.141722867080232e-05,8.446180673290626e-06,8.15874122230718e-05,8.150106258040182e-05
73.0283121635,70.5283121635,8,0,-0.9322056506462717,25.36673434520084,0.9935258489410735,-2.327644555822874e-05,8.19193144251597e-05,7.948206791528589e-06,8.206923512146471e-05,8.212222593498612e-05
74.47168783650001,70.5283121635,8,0,-0.8756633576383139,25.59290351723267,1.006599341971448,-2.327644555822874e-05,8.259782194125519e-05,8.052794735771587e-06,8.275072497245912e-05,8.279763515182671e-05
73.0283121635,71.97168783650001,8,0,-0.8973430025651457,25.37545000722112,1.078339288453024,-2.317185761398536e-05,8.19193144251597e-05,8.626714307624194e-06,8.209605441721755e-05,8.202015678667337e-05
74.47168783650001,71.97168783650001,8,0,-0.8408007095571879,25.60161917925295,1.09141278148344,-2.317185761398536e-05,8.259782194125519e-05,8.731302251867518e-06,8.277770856505843e-05,8.272076256591285e-05
75.5283121635,70.5283121635,8,0,-0.8104270316500459,25.76384337070075,1.010353430755371,-2.320444119784074e-05,8.309264041156243e-05,8.082827446042966e-06,8.324607344038464e-05,8.328852961589191e-05
76.97168783650001,70.5283121635,8,0,-0.7543135578696738,25.98829726582224,1.020627865352673,-2.320444119784074e-05,8.376600209692689e-05,8.165022922821384e-06,8.392158426997742e-05,8.395426901608869e-05
75.5283121635,71.97168783650001,8,0,-0.7830285393906005,25.77069299376561,1.094523641425942,-2.312224572106241e-05,8.309264041156243e-05,8.756189131407539e-06,8.327279647551538e-05,8.323069135784137e-05
76.97168783650001,71.97168783650001,8,0,-0.7269150656101919,25.99514688888724,1.104798076023272,-2.312224572106241e-05,8.376600209692732e-05,8.838384608186173e-06,8.394839812928752e-05,8.392323694645205e-05
78.0283121635,70.5283121635,8,0,-0.6883406318204566,26.15939841528636,1.002726865786325,-2.313020875405455e-05,8.42607474343727e-05,8.021814926290603e-06,8.441034104077148e-05,8.444173046965486e-05
79.47168783650001,70.5283121635,8,0,-0.6318149890369646,26.38550098642033,1.010140512999692,-2.313020875405455e-05,8.493905514777461e-05,8.081124103997538e-06,8.508991564425642e-05,8.510776052738882e-05
78.0283121635,71.97168783650001,8,0,-0.6685709059182443,26.16434084676191,1.087515329961549,-2.307089957634791e-05,8.42607474343727e-05,8.700122639692396e-06,8.44367631063186e-05,8.443079098245387e-05
79.47168783650001,71.97168783650001,8,0,-0.6120452631347524,26.39044341789588,1.09492897717493,-2.307089957634791e-05,8.493905514777461e-05,8.75943181739944e-06,8.51163580193623e-05,8.512490880784577e-05
80.5283121635,70.5283121635,8,0,-0.5686027462262562,26.55825107964885,0.9698427202719937,-2.30661296516431e-05,8.544128565185732e-05,7.75874176217595e-06,8.557980458070053e-05,8.559929113466624e-05
81.97168783650001,70.5283121635,8,0,-0.510785117816126,26.78952159328937,0.9743746832291801,-2.30661296516431e-05,8.613509719277888e-05,7.794997465833441e-06,8.627402599056472e-05,8.627614766954644e-05
80.5283121635,71.97168783650001,8,0,-0.5565175116737322,26.56127238828698,1.056569162887188,-2.302987394798553e-05,8.544128565185732e-05,8.452553303097505e-06,8.560570153731322e-05,8.563732602889876e-05
81.97168783650001,71.97168783650001,8,0,-0.4986998832635932,26.79254290192754,1.061101125844361,-2.302987394798553e-05,8.613509719277899e-05,8.488809006754888e-06,8.629987366013956e-05,8.634315808615636e-05
83.02831216350002,70.5283121635,8,0,-0.453965656693863,26.96547451150265,0.9112164021002377,-2.302506971062248e-05,8.665269096216357e-05,7.289731216801902e-06,8.677368546053102e-05,8.677950649498765e-05
84.47168783650002,70.5283121635,8,0,-0.39394224546239,27.20556815642854,0.9128894097291415,-2.302506971062248e-05,8.737297189694124e-05,7.303115277833131e-06,8.749362002643006e-05,8.747785184570951e-05
83.02831216350002,71.97168783650001,8,0,-0.4495043030167771,26.96658984992192,1.00125151894742,-2.301168564959122e-05,8.665269096216357e-05,8.010012151579357e-06,8.679876152357215e-05,8.686787881380792e-05
84.47168783650002,71.97168783650001,8,0,-0.3894808917853041,27.20668349484781,1.002924526576337,-2.301168564959122e-05,8.737297189694124e-05,8.023396212610695e-06,8.751857656098766e-05,8.759561044433982e-05
85.5283121635,70.5283121635,8,0,-0.3472681364325245,27.38633440425818,0.8267058852074453,-2.302032555999062e-05,8.791408460277219e-05,6.613647081659562e-06,8.801256966801102e-05,8.800049305517874e-05
86.97168783650002,70.5283121635,8,0,-0.2840959305794337,27.63902322767055,0.8255908623279571,-2.302032555999062e-05,8.867215107300928e-05,6.604726898623656e-06,8.876970542785632e-05,8.873003004291679e-05
85.5283121635,71.97168783650001,8,0,-0.3502415307777991,27.38559105567186,0.9214641939870682,-2.302924574302645e-05,8.791408460277219e-05,7.371713551896546e-06,8.803640451123806e-05,8.81396999486957e-05
86.97168783650002,71.97168783650001,8,0,-0.287069324924663,27.63827987908441,0.9203491711075936,-2.302924574302645e-05,8.867215107300982e-05,7.362793368860749e-06,8.879334913287577e-05,8.889844848799219e-05
88.02831216350002,70.5283121635,8,0,-0.2514260308011895,27.82625991044968,0.7165436968838653,-2.306557122692355e-05,8.924517253807991e-05,5.732349575070922e-06,8.931826986090841e-05,8.927773249210131e-05
89.47168783650001,70.5283121635,8,0,-0.1841379236153466,28.09541233919305,0.7127664424160806,-2.306557122692355e-05,9.005262982431003e-05,5.702131539328645e-06,9.012444336768719e-05,9.00445464230289e-05
88.02831216350002,71.97168783650001,8,0,-0.2614987093819217,27.8237417408045,0.817475857662562,-2.309578926266574e-05,8.924517253807991e-05,6.539806861300497e-06,8.934026897434273e-05,8.946720148321355e-05
89.47168783650001,71.97168783650001,8,0,-0.1942106021960379,28.09289416954803,0.8136986031948045,-2.309578926266574e-05,9.005262982431051e-05,6.509588825558436e-06,9.014617894604544e-05,9.026231502388488e-05
90.52831216350002,70.5283121635,8,0,-0.1694206364945527,28.29081206499719,0.5813785597488016,-2.317479568878032e-05,9.066613511718663e-05,4.651028477990413e-06,9.071362033705783e-05,9.061804134870746e-05
91.97168783650001,70.5283121635,8,0,-0.097031441103546,28.58036884656122,0.5751287521174274,-2.317479568878032e-05,9.153480546187872e-05,4.60103001693942e-06,9.158092402849338e-05,9.141804469268327e-05
90.52831216350002,71.97168783650001,8,0,-0.1860867901783436,28.28664552657624,0.6899623528353939,-2.322479414983169e-05,9.066613511718663e-05,5.519698822683151e-06,9.073297363922035e-05,9.085583551684324e-05
91.97168783650001,71.97168783650001,8,0,-0.1136975947873369,28.57620230814027,0.6837125452039317,-2.322479414983169e-05,9.153480546187872e-05,5.469700361631453e-06,9.159994304193708e-05,9.168225011833645e-05
93.02831216350002,70.5283121635,8,0,-0.1042821663539595,28.78564675497283,0.4223275275243589,-2.336222033631093e-05,9.219749534899622e-05,3.378620220194871e-06,9.222218525965816e-05,9.200466536608156e-05
94.47168783650002,70.5283121635,8,0,-0.02579615829962911,29.09959078719015,0.4138701335407928,-2.336222033631093e-05,9.313932744564818e-05,3.310961068326342e-06,9.316284698407897e-05,9.28073395066683e-05
93.02831216350002,71.97168783650001,8,0,-0.1268352169768114,28.78000849231712,0.5400565396058878,-2.342987948817949e-05,9.219749534899622e-05,4.320452316847103e-06,9.223784002835051e-05,9.22869963494134e-05
94.47168783650002,71.97168783650001,8,0,-0.04834920892244998,29.09395252453456,0.531599145622315,-2.342987948817949e-05,9.313932744564856e-05,4.25279316497852e-06,9.317810319943323e-05,9.311277917697847e-05
95.5283121635,70.5283121635,8,0,-0.05906522082693844,29.31646879643134,0.2410387601985961,-2.364218374379127e-05,9.385995232524184e-05,1.928310081588769e-06,9.386786309515213e-05,9.336025296140348e-05
96.97168783650002,70.5283121635,8,0,0.02651408647968267,29.65878602565783,0.2307277492631104,-2.364218374379127e-05,9.48869040129213e-05,1.845821994104883e-06,9.489408970118131e-05,9.406816647140591e-05
95.5283121635,71.97168783650001,8,0,-0.08656124998821557,29.30959478914102,0.369407721158494,-2.372467183127511e-05,9.385995232524184e-05,2.955261769267952e-06,9.387851808891464e-05,9.368054816320204e-05
96.97168783650002,71.97168783650001,8,0,-0.0009819426815989019,29.65191201836749,0.3590967102230422,-2.372467183127511e-05,9.488690401292124e-05,2.872773681784338e-06,9.490429611530907e-05,9.440593905302765e-05
98.02831216350002,70.5283121635,8,0,-0.03681291380667062,29.88897331303006,0.03976424346726828,-2.402897997460539e-05,9.567416493274153e-05,3.181139477381463e-07,9.567437628120934e-05,9.445456864199714e-05
99.47168783650002,70.5283121635,8,0,0.05684418154127968,30.26360169442187,0.02805830117794556,-2.402897997460539e-05,9.679805007691694e-05,2.244664094235645e-07,9.679815432744239e-05,9.480232549424969e-05
98.02831216350002,71.97168783650001,8,0,-0.06802875991150259,29.88116935150386,0.1802498864892559,-2.412262751291989e-05,9.567416493274153e-05,1.441999091914047e-06,9.567850412668866e-05,9.480146003525445e-05
99.47168783650002,71.97168783650001,8,0,0.02562833543650633,30.25579773289589,0.1685439441999467,-2.412262751291989e-05,9.679805007691765e-05,1.348351553599574e-06,9.680180872977679e-05,9.515665256437795e-05
0.5283121635,73.0283121635,8,0,-0.03545891319161831,6.721814595066813,-0.1556877468934532,-5.490920198266628e-06,2.153817383476709e-05,-1.245501975147625e-06,2.155251442419068e-05,2.320938893167976e-05
1.9716878365,73.0283121635,8,0,0.05290292566836641,7.075261950506752,-0.166330820795574,-5.490920198266628e-06,2.259851590108691e-05,-1.330646566364592e-06,2.261426584383703e-05,2.361432443031416e-05
0.5283121635,74.47168783650001,8,0,-0.06384044359736429,6.714719212465377,-0.02314498860346266,-5.576064789483866e-06,2.153817383476709e-05,-1.851599088277013e-07,2.153848993982745e-05,2.352807552761253e-05
1.9716878365,74.47168783650001,8,0,0.02452139526262043,7.068166567905315,-0.03378806250558349,-5.576064789483866e-06,2.259851590108691e-05,-2.703045000446679e-07,2.259916420569126e-05,2.392549653449912e-05
3.0283121635,73.0283121635,8,0,-0.06508785419645879,7.299219093994751,-0.3409077116349148,-6.047656408624468e-06,2.340957138414037e-05,-2.727261693079319e-06,2.347256174133179e-05,2.409644583117023e-05
4.4716878365,73.0283121635,8,0,0.03120403923984982,7.684386667739985,-0.3502502752502669,-6.047656408624468e-06,2.456507410537607e-05,-2.802002202002135e-06,2.462905762339425e-05,2.500869049514692e-05
3.0283121635,74.47168783650001,8,0,-0.09000135717103808,7.292990718251376,-0.196469871480533,-6.122396917548423e-06,2.340957138414123e-05,-1.571758971844264e-06,2.343046974819433e-05,2.43982832208431e-05
4.4716878365,74.47168783650001,8,0,0.006290536265198376,7.678158291996322,-0.2058124350958986,-6.122396917548423e-06,2.456507410537607e-05,-1.646499480767189e-06,2.458714347295447e-05,2.52925394622453e-05
5.528312163500001,73.0283121635,8,0,-0.116369601453195,7.921426536646985,-0.5085736228281136,-6.709523953967811e-06,2.544166059843291e-05,-4.068588982624908e-06,2.556986482515176e-05,2.576865628015257e-05
6.9716878365,73.0283121635,8,0,-0.0130882585259906,8.334551908355802,-0.5161294773227908,-6.709523953967811e-06,2.668103671355935e-05,-4.129035818582327e-06,2.680820030512175e-05,2.693267675291353e-05
5.528312163500001,74.47168783650001,8,0,-0.1365185467722623,7.91638930031749,-0.3536516084372667,-6.76997078992523e-06,2.544166059843377e-05,-2.829212867498133e-06,2.550366512026617e-05,2.603721337509532e-05
6.9716878365,74.47168783650001,8,0,-0.03323720384507611,8.329514672026233,-0.3612074629319169,-6.76997078992523e-06,2.668103671356001e-05,-2.889659703455335e-06,2.674332641569332e-05,2.717744409875701e-05
8.028312163500001,73.0283121635,8,0,-0.1863006135511971,8.583040115868117,-0.6561681692591597,-7.462594056058323e-06,2.761476886161893e-05,-5.249345354073278e-06,2.781007324850016e-05,2.7835416372474e-05
9.471687836500001,73.0283121635,8,0,-0.07699831737290097,9.020249300581302,-0.6615623512456608,-7.462594056058323e-06,2.892639641575848e-05,-5.292498809965286e-06,2.911782766732589e-05,2.913772640646245e-05
8.028312163500001,74.47168783650001,8,0,-0.2006850988483886,8.579443994543684,-0.4922147249917423,-7.50574751194979e-06,2.761476886161849e-05,-3.937717799933939e-06,2.77247985319831e-05,2.806167301770365e-05
9.471687836500001,74.47168783650001,8,0,-0.09138280267000232,9.016653179257229,-0.4976089069780808,-7.50574751194979e-06,2.892639641575913e-05,-3.980871255824647e-06,2.903481930936765e-05,2.93372006262286e-05
10.5283121635,73.0283121635,8,0,-0.2718287897382119,9.278517532898375,-0.7818310253646571,-8.292666153480977e-06,2.990871913706537e-05,-6.254648202917257e-06,3.016304174791526e-05,3.012157645077914e-05
11.9716878365,73.0283121635,8,0,-0.1574847872373502,9.735893542901822,-0.7847843997304561,-8.292666153480977e-06,3.128084716707571e-05,-6.278275197843649e-06,3.152830933354562e-05,3.150719472500703e-05
10.5283121635,74.47168783650001,8,0,-0.2797044547139111,9.27654861665445,-0.6103150216132969,-8.316293148408075e-06,2.990871913706537e-05,-4.882520172906375e-06,3.006400066873118e-05,3.030099088721145e-05
11.9716878365,74.47168783650001,8,0,-0.1653604522130223,9.733924626658006,-0.6132683959791637,-8.316293148408075e-06,3.128084716707603e-05,-4.906147167833309e-06,3.143223816967572e-05,3.165858723964364e-05
13.0283121635,73.0283121635,8,0,-0.3699001838837694,10.0022653604251,-0.8842830116237936,-9.185492876768141e-06,3.230316930046733e-05,-7.074264092990349e-06,3.260256828587724e-05,3.254096216039824e-05
14.4716878365,73.0283121635,8,0,-0.251491185530738,10.47590135383722,-0.8845985971592404,-9.185492876768141e-06,3.37240772807037e-05,-7.076788777273923e-06,3.401390159428125e-05,3.397964904298941e-05
13.0283121635,74.47168783650001,8,0,-0.3707417453113746,10.0020549700682,-0.7066695140942871,-9.188017561050955e-06,3.230316930046733e-05,-5.653356112754297e-06,3.249485734626958e-05,3.267179534870573e-05
14.4716878365,74.47168783650001,8,0,-0.2523327469583432,10.47569096348032,-0.7069850996296932,-9.188017561050955e-06,3.37240772807037e-05,-5.655880797037546e-06,3.390963834497625e-05,3.408233502898963e-05
15.5283121635,73.0283121635,8,0,-0.4774920725621068,10.74871313598772,-0.9627588473032275,-1.012694514098891e-05,3.477787569321038e-05,-7.70207077842582e-06,3.510574637856544e-05,3.5045196440209e-05
16.9716878365,73.0283121635,8,0,-0.3559818372462678,11.23475407725107,-0.9603104903218933,-1.012694514098891e-05,3.623599851700044e-05,-7.682483922575147e-06,3.655209626367955e-05,3.651763918481832e-05
15.5283121635,74.47168783650001,8,0,-0.4709631206120091,10.75034537397524,-0.7804934943295236,-1.010735828513862e-05,3.477787569321038e-05,-6.243947954636189e-06,3.499398282605641e-05,3.512749392810152e-05
16.9716878365,74.47168783650001,8,0,-0.3494528852961793,11.23638631523856,-0.778045137348176,-1.010735828513862e-05,3.623599851700033e-05,-6.224361098785408e-06,3.64440623663195e-05,3.657238146229542e-05
18.0283121635,73.0283121635,8,0,-0.5916371487009862,11.51237234951188,-1.016950560976426,-1.110313675545266e-05,3.731290123739879e-05,-8.135604487811412e-06,3.765228941213542e-05,3.760271726672327e-05
19.4716878365,73.0283121635,8,0,-0.4679679717614733,12.00704905726993,-1.011674149937528,-1.110313675545266e-05,3.879693136067295e-05,-8.093393199500227e-06,3.912297201505161e-05,3.909476297218367e-05
18.0283121635,74.47168783650001,8,0,-0.577566719264087,11.5158899568711,-0.8314467955672519,-1.106092546714196e-05,3.731290123739879e-05,-6.651574364538015e-06,3.754048435529916e-05,3.763767672332789e-05
19.4716878365,74.47168783650001,8,0,-0.4538975423246372,12.0105666646289,-0.8261703845284215,-1.106092546714196e-05,3.879693136067219e-05,-6.609363076227372e-06,3.901501851390654e-05,3.910322996746079e-05
20.5283121635,73.0283121635,8,0,-0.7094431759761468,12.28788537980768,-1.046961850326047,-1.210052646696981e-05,3.98887877561655e-05,-8.375694802608379e-06,4.022396665252971e-05,4.018999288051319e-05
21.9716878365,73.0283121635,8,0,-0.5845284239839206,12.78754438777659,-1.038848911525994,-1.210052646696981e-05,4.138776478007221e-05,-8.310791292207953e-06,4.170866373637331e-05,4.169017093070523e-05
20.5283121635,74.47168783650001,8,0,-0.6878086725090666,12.29329400567445,-0.8595897223376129,-1.203562295656858e-05,3.98887877561655e-05,-6.876717778700903e-06,4.011548117042546e-05,4.017957213702472e-05
21.9716878365,74.47168783650001,8,0,-0.5628939205168222,12.79295301364343,-0.851476783537519,-1.203562295656858e-05,4.138776478007243e-05,-6.811814268300152e-06,4.160402651037333e-05,4.165464038659445e-05
23.0283121635,73.0283121635,8,0,-0.8281116200438552,13.07006881384501,-1.05327226053926,-1.310601223521635e-05,4.248670950033912e-05,-8.426178084314077e-06,4.280418502621049e-05,4.27877341475256e-05
24.4716878365,73.0283121635,8,0,-0.7028286378191719,13.57120074274375,-1.042365514918972,-1.310601223521635e-05,4.399010528703532e-05,-8.338924119351775e-06,4.429297498403315e-05,4.428615457033306e-05
23.0283121635,74.47168783650001,8,0,-0.7990269650563855,13.07733997759188,-0.8653477872021536,-1.301875827025394e-05,4.248670950033912e-05,-6.922782297617228e-06,4.270173324401844e-05,4.273441212422533e-05
24.4716878365,74.47168783650001,8,0,-0.6737439828317022,13.57847190649061,-0.8544410415818388,-1.301875827025394e-05,4.399010528703532e-05,-6.83552833265471e-06,4.419427401276981e-05,4.420933512256554e-05
25.5283121635,73.0283121635,8,0,-0.9449577306734418,13.85395461064889,-1.03670905854721,-1.410702842667412e-05,4.508862093861518e-05,-8.293672468377678e-06,4.537770771730675e-05,4.537920516291154e-05
26.9716878365,73.0283121635,8,0,-0.8201406651352747,14.35322287280155,-1.023099361921448,-1.410702842667412e-05,4.658642572507319e-05,-8.184794895371586e-06,4.686112188665517e-05,4.686705449439876e-05
25.5283121635,74.47168783650001,8,0,-0.9086652063382039,13.8630277417327,-0.8494834602399727,-1.399815085366841e-05,4.508862093861518e-05,-6.795867681919782e-06,4.528338570111203e-05,4.528583943611364e-05
26.9716878365,74.47168783650001,8,0,-0.7838481408000368,14.36229600388536,-0.835873763614279,-1.399815085366841e-05,4.658642572507319e-05,-6.686990108914232e-06,4.677038538366229e-05,4.675198091707894e-05
28.0283121635,73.0283121635,8,0,-1.057433437251604,14.63483141653548,-0.9984241376632296,-1.509165213243351e-05,4.767740728271481e-05,-7.987393101305837e-06,4.793048679430103e-05,4.794945040373629e-05
29.4716878365,73.0283121635,8,0,-0.9338657489794322,15.12910216962416,-0.9822481680368187,-1.509165213243351e-05,4.916021954198086e-05,-7.85798534429455e-06,4.939958513754486e-05,4.941876169058963e-05
28.0283121635,74.47168783650001,8,0,-1.01429751824766,14.64561539628646,-0.8130726052550403,-1.496224437542168e-05,4.767740728271481e-05,-6.504580842040322e-06,4.784581549345626e-05,4.781919448249221e-05
29.4716878365,74.47168783650001,8,0,-0.8907298299754167,15.13988614937544,-0.7968966356284939,-1.496224437542168e-05,4.916021954198173e-05,-6.375173085027951e-06,4.93182877413482e-05,4.926873468488667e-05
30.5283121635,73.0283121635,8,0,-1.163153370644697,15.40828715563859,-0.9398731632391804,-1.60487205105739e-05,5.023704159455925e-05,-7.518985305913443e-06,5.044958513038926e-05,5.048494567881331e-05
31.9716878365,73.0283121635,8,0,-1.041560012377039,15.89466058870922,-0.9213112463800285,-1.60487205105739e-05,5.169616189377112e-05,-7.370489971040227e-06,5.189604529086738e-05,5.192850321812731e-05
30.5283121635,74.47168783650001,8,0,-1.113654925686886,15.42066176687804,-0.7574831258376686,-1.590022517570047e-05,5.023704159455925e-05,-6.059865006701349e-06,5.037556112766352e-05,5.032120161556064e-05
31.9716878365,74.47168783650001,8,0,-0.9920615674192472,15.9070351999486,-0.7389212089785302,-1.590022517570047e-05,5.169616189377091e-05,-5.911369671828242e-06,5.182515449435599e-05,5.174705454117579e-05
33.0283121635,73.0283121635,8,0,-1.259923437075289,16.17025293840657,-0.8627943971866695,-1.696795734936618e-05,5.275274815256126e-05,-6.902355177493356e-06,5.292316502875091e-05,5.297345905433022e-05
34.4716878365,73.0283121635,8,0,-1.140962850199887,16.64609528590818,-0.8420679558432533,-1.696795734936618e-05,5.418027519506609e-05,-6.736543646746027e-06,5.433937881170522e-05,5.438477395130955e-05
33.0283121635,74.47168783650001,8,0,-1.204652926826268,16.18407056596883,-0.6843535168736883,-1.680214581861912e-05,5.275274815256126e-05,-5.474828134989507e-06,5.286031592420537e-05,5.277984935292365e-05
34.4716878365,74.47168783650001,8,0,-1.085692339950884,16.65991291347036,-0.6636270755303129,-1.680214581861912e-05,5.418027519506587e-05,-5.309016604242503e-06,5.427940660238652e-05,5.417564432691717e-05
35.5283121635,73.0283121635,8,0,-1.345770708612164,16.91704744565199,-0.7691851272303778,-1.784010422408052e-05,5.52111683929761e-05,-6.153481017843023e-06,5.534052410330001e-05,5.540402268055109e-05
36.9716878365,73.0283121635,8,0,-1.230026912655178,17.38002262947994,-0.7465533777340129,-1.784010422408052e-05,5.660009394445992e-05,-5.972427021872103e-06,5.671969554157961e-05,5.677734709752805e-05
35.5283121635,74.47168783650001,8,0,-1.285419376621568,16.93213527864964,-0.5955694332949405,-1.765905022810873e-05,5.52111683929761e-05,-4.764555466359524e-06,5.528896690513631e-05,5.518437108588327e-05
36.9716878365,74.47168783650001,8,0,-1.169675580664582,17.39511046247759,-0.5729376837985077,-1.765905022810873e-05,5.660009394445992e-05,-4.583501470388062e-06,5.667075364163155e-05,5.654446886845658e-05
38.0283121635,73.0283121635,8,0,-1.418972988781642,17.64542031401577,-0.6612742763144688,-1.865704981531387e-05,5.760052339587578e-05,-5.29019421051575e-06,5.769216204578055e-05,5.776696501447649e-05
39.4716878365,73.0283121635,8,0,-1.306948110507412,18.09351982711269,-0.6370299561111196,-1.865704981531387e-05,5.894482193516653e-05,-5.096239648888956e-06,5.902840147974645e-05,5.90973270267981e-05
38.0283121635,74.47168783650001,8,0,-1.35432146823925,17.66158319415137,-0.4932369589033558,-1.84630952536867e-05,5.760052339587578e-05,-3.945895671226846e-06,5.765166358499865e-05,5.752527961617806e-05
39.4716878365,74.47168783650001,8,0,-1.242296589964994,18.1096827072484,-0.4689926386998574,-1.84630952536867e-05,5.894482193516686e-05,-3.751941109598859e-06,5.899025916056644e-05,5.884480662910339e-05
40.5283121635,73.0283121635,8,0,-1.478086258248696,18.35259269184624,-0.5414904823861045,-1.941195017987282e-05,5.991076562050692e-05,-4.331923859088836e-06,5.996986468605687e-05,6.00539745828329e-05
41.97168783650001,73.0283121635,8,0,-1.37019386771339,18.78416225398746,-0.5159545528227621,-1.941195017987282e-05,6.120547430693059e-05,-4.127636422582097e-06,6.125827378361464e-05,6.133722229864608e-05
40.5283121635,74.47168783650001,8,0,-1.409990446079856,18.36961664488845,-0.3796518965832143,-1.92076627433663e-05,5.991076562050692e-05,-3.037215172665714e-06,5.993990320640225e-05,5.979442933898208e-05
41.97168783650001,74.47168783650001,8,0,-1.302098055544533,18.80118620702974,-0.3541159670198855,-1.92076627433663e-05,6.12054743069308e-05,-2.832927736159084e-06,6.123041734246116e-05,6.106931981757692e-05
43.0283121635,73.0283121635,8,0,-1.521968277859409,19.03629304333256,-0.4124256345211947,-2.009933292381616e-05,6.213371236095172e-05,-3.299405076169558e-06,6.216679424480636e-05,6.225817698701898e-05
44.4716878365,73.0283121635,8,0,-1.418527874626995,19.45005465626222,-0.3859410483243254,-2.009933292381616e-05,6.337499719974069e-05,-3.087528386594603e-06,6.340353763037128e-05,6.349102427141629e-05
43.0283121635,74.47168783650001,8,0,-1.451342714667776,19.05394943413047,-0.2572650296725595,-1.988745623424126e-05,6.213371236095172e-05,-2.058120237380476e-06,6.214662120031453e-05,6.19850896433487e-05
44.4716878365,74.47168783650001,8,0,-1.34790231143538,19.46771104706005,-0.2307804434756766,-1.988745623424126e-05,6.337499719974047e-05,-1.846243547805413e-06,6.338523049282787e-05,6.321212885690729e-05
45.52831216350001,73.0283121635,8,0,-1.54979688165721,19.69478642083518,-0.2767944612811672,-2.071517915797121e-05,6.426315405199832e-05,-2.214355690249338e-06,6.42775769609227e-05,6.437421274710829e-05
46.97168783650001,73.0283121635,8,0,-1.451029814426253,20.089854689759,-0.2497192015604927,-2.071517915797121e-05,6.544835885876981e-05,-1.997753612483942e-06,6.545993708363986e-05,6.555428125106339e-05
45.52831216350001,74.47168783650001,8,0,-1.477596189068581,19.71283659398233,-0.1286438604347043,-2.049857708020532e-05,6.426315405199832e-05,-1.029150883477634e-06,6.426627784529064e-05,6.409201842138282e-05
46.97168783650001,74.47168783650001,8,0,-1.378829121837624,20.10790486290616,-0.1015686007140569,-2.049857708020532e-05,6.544835885876981e-05,-8.125488057124548e-07,6.545027929026113e-05,6.526888220312326e-05
48.0283121635,73.0283121635,8,0,-1.561081879306723,20.32689575275477,-0.137391244440683,-2.125697861598533e-05,6.629493191226063e-05,-1.099129955525464e-06,6.629838140598332e-05,6.639830744511284e-05
49.47168783650001,73.0283121635,8,0,-1.467108896991264,20.70278768201661,-0.1100909243383817,-2.125697861598533e-05,6.742260770004613e-05,-8.807273947070539e-07,6.742479439725975e-05,6.752416138631784e-05
48.0283121635,74.47168783650001,8,0,-1.488281025700551,20.34509596615631,0.003568229032342371,-2.103857605516681e-05,6.629493191226063e-05,2.854583225873897e-08,6.629493424488341e-05,6.61115280078457e-05
49.47168783650001,74.47168783650001,8,0,-1.394308043385128,20.720987895418,0.03086854913461655,-2.103857605516681e-05,6.74226077000457e-05,2.469483930769324e-07,6.742278004509989e-05,6.72368153774896e-05
50.5283121635,73.0283121635,8,0,-1.555669952136391,20.93201415111229,0.002954951518148235,-2.172375516772628e-05,6.822698124526842e-05,2.363961214518588e-08,6.822698279842761e-05,6.832832853324297e-05
51.97168783650001,73.0283121635,8,0,-1.466510484959613,21.2886520198194,0.0301145953914559,-2.172375516772628e-05,6.929689485138976e-05,2.409167631316472e-07,6.929705426792076e-05,6.939950009530853e-05
50.5283121635,74.47168783650001,8,0,-1.483244235140977,20.95012058036114,0.1366941522832612,-2.150647801674004e-05,6.822698124526842e-05,1.09355321826609e-06,6.823031281816638e-05,6.804153843722759e-05
51.97168783650001,74.47168783650001,8,0,-1.394084767964199,21.30675844906825,0.1638537961565689,-2.150647801674004e-05,6.929689485138976e-05,1.310830369252551e-06,6.930162536604909e-05,6.911479535290364e-05
53.0283121635,73.0283121635,8,0,-1.533742418773048,21.51010777150862,0.1414249963592289,-2.211606195728064e-05,7.005933880384601e-05,1.131399970873831e-06,7.006281049388749e-05,7.016382555053604e-05
54.4716878365,73.0283121635,8,0,-1.449315584606119,21.84781510817633,0.1680853774099783,-2.211606195728064e-05,7.107246081384914e-05,1.344683019279826e-06,7.107731140664633e-05,7.118082996575902e-05
53.0283121635,74.47168783650001,8,0,-1.462648069304419,21.52788135887577,0.2680652476095527,-2.190277890887476e-05,7.005933880384601e-05,2.144521980876422e-06,7.007183946600618e-05,6.988161500614729e-05
54.4716878365,74.47168783650001,8,0,-1.378221235137509,21.86558869554341,0.2947256286603157,-2.190277890887476e-05,7.107246081384893e-05,2.357805029282525e-06,7.108740659690623e-05,7.09033483434643e-05
55.5283121635,73.0283121635,8,0,-1.495806219806548,22.06170930334604,0.2752528375250254,-2.243594734605779e-05,7.179411474655256e-05,2.202022700200203e-06,7.180697752638129e-05,7.190605249709616e-05
56.97168783650001,73.0283121635,8,0,-1.415933453163957,22.38120036991641,0.3010692488434853,-2.243594734605779e-05,7.275258794626365e-05,2.408553990747883e-06,7.276782140918796e-05,7.287039288436419e-05
55.5283121635,74.47168783650001,8,0,-1.426962456290637,22.07892024422502,0.3950619874888576,-2.222941605551005e-05,7.179411474655256e-05,3.16049589991086e-06,7.182066638285734e-05,7.163298890463332e-05
56.97168783650001,74.47168783650001,8,0,-1.347089689648101,22.39841131079517,0.420878398807304,-2.222941605551005e-05,7.2752587946263e-05,3.367027190458432e-06,7.27824181042679e-05,7.260467065177794e-05
58.0283121635,73.0283121635,8,0,-1.442678887976136,22.58790268093347,0.4017657170180834,-2.268689458627041e-05,7.343543168936801e-05,3.214125736144668e-06,7.34622925619197e-05,7.355797278444096e-05
59.47168783650001,73.0283121635,8,0,-1.367088004629375,22.89026621432052,0.4264132644847931,-2.268689458627041e-05,7.434252228952914e-05,3.411306115878344e-06,7.437249622950142e-05,7.447213561852567e-05
58.0283121635,74.47168783650001,8,0,-1.376952094731414,22.60433437924465,0.5151520420381165,-2.248971420653625e-05,7.343543168936801e-05,4.121216336304932e-06,7.347967606781533e-05,7.32985611564504e-05
59.47168783650001,74.47168783650001,8,0,-1.301361211384653,22.9066979126317,0.5397995895048804,-2.248971420653625e-05,7.434252228952914e-05,4.318396716039043e-06,7.439064491821667e-05,7.422262352304115e-05
60.5283121635,73.0283121635,8,0,-1.375468600991509,23.09030004510164,0.5184203999079032,-2.287373955925414e-05,7.498933502511846e-05,4.147363199263226e-06,7.503325584363562e-05,7.512424848882176e-05
61.9716878365,73.0283121635,8,0,-1.30379904628089,23.37697826394412,0.5415989666908145,-2.287373955925414e-05,7.584936968164588e-05,4.332791733526516e-06,7.589688655215994e-05,7.599169114873129e-05
60.5283121635,74.47168783650001,8,0,-1.313659089570393,23.10575242295692,0.6259247319737493,-2.268831102499079e-05,7.498933502511846e-05,5.007397855789995e-06,7.505346838098367e-05,7.488289125818683e-05
61.9716878365,74.47168783650001,8,0,-1.241989534859802,23.39243064179929,0.6491032987567283,-2.268831102499079e-05,7.584936968164555e-05,5.192826390053827e-06,7.59177362946734e-05,7.576271389068918e-05
63.0283121635,73.0283121635,8,0,-1.295550636795643,23.57101231789882,0.6228347370153849,-2.300257189206511e-05,7.646367992671273e-05,4.98267789612308e-06,7.652604158872188e-05,7.661121651950582e-05
64.47168783650001,73.0283121635,8,0,-1.227359624739134,23.84377636612486,0.6442729030749103,-2.300257189206511e-05,7.728197207139084e-05,5.154183224599282e-06,7.734815396615428e-05,7.743634864920222e-05
63.0283121635,74.47168783650001,8,0,-1.238382193970315,23.58530442860515,0.7251212551000674,-2.283106656358913e-05,7.646367992671273e-05,5.800970040800539e-06,7.654833341984077e-05,7.639217266757576e-05
64.47168783650001,74.47168783650001,8,0,-1.170191181913787,23.85806847683126,0.7465594211596063,-2.283106656358913e-05,7.728197207139105e-05,5.97247536927685e-06,7.737096842271639e-05,7.723206339487081e-05
65.5283121635,73.0283121635,8,0,-1.204541653160748,24.0326149575004,0.7128143266780862,-2.308062525611471e-05,7.786800118652986e-05,5.702514613424689e-06,7.794846977062367e-05,7.802685467244722e-05
66.97168783650001,73.0283121635,8,0,-1.139310888772036,24.29353801505524,0.7322722693334005,-2.308062525611471e-05,7.865077035919439e-05,5.858178154667204e-06,7.873503600866695e-05,7.881501500050021e-05
65.5283121635,74.47168783650001,8,0,-1.152653806080072,24.04558691927057,0.8106604732611663,-2.292496171487268e-05,7.786800118652986e-05,6.48528378608933e-06,7.7972213484107e-05,7.783419756413217e-05
66.97168783650001,74.47168783650001,8,0,-1.087423041691361,24.30650997682541,0.8301184159164535,-2.292496171487268e-05,7.865077035919439e-05,6.640947327331628e-06,7.875919968780375e-05,7.863936798030237e-05
68.0283121635,73.0283121635,8,0,-1.104273191329385,24.47811052470014,0.7863745039641786,-2.311616263201414e-05,7.921337223210393e-05,6.290996031713429e-06,7.930997021440397e-05,7.938074019360812e-05
69.47168783650001,73.0283121635,8,0,-1.041415880610668,24.72953976757501,0.803646006615835,-2.311616263201414e-05,7.996765996072855e-05,6.429168052926679e-06,8.006780681995559e-05,8.013816983631339e-05
68.0283121635,74.47168783650001,8,0,-1.05821585092495,24.48962485980125,0.8806604700421338,-2.297799061080083e-05,7.921337223210393e-05,7.04528376033707e-06,7.93346573914485e-05,7.921831291806013e-05
69.47168783650001,74.47168783650001,8,0,-0.9953585402062863,24.7410541026759,0.897931972693763,-2.297799061080083e-05,7.99676599607279e-05,7.183455781550104e-06,8.00928215750374e-05,7.999484948669619e-05
70.5283121635,73.0283121635,8,0,-0.9967656620026561,24.91088961468666,0.8417583339901676,-2.311836181015782e-05,8.051225929659941e-05,6.734066671921341e-06,8.062154138705903e-05,8.068400207372401e-05
71.97168783650001,73.0283121635,8,0,-0.935633551435421,25.1554180569556,0.8566721221539466,-2.311836181015782e-05,8.124584462340623e-05,6.853376977231573e-06,8.135823528623744e-05,8.141781383609694e-05
70.5283121635,74.47168783650001,8,0,-0.9569955602325058,24.92083214012919,0.9334564998410202,-2.299905150484737e-05,8.051225929659941e-05,7.467651998728161e-06,8.064676984812516e-05,8.055536851126866e-05
71.97168783650001,74.47168783650001,8,0,-0.8958634496652529,25.1653605823982,0.948370288004867,-2.299905150484737e-05,8.124584462340645e-05,7.586962304038936e-06,8.138370742181015e-05,8.131019839643873e-05
73.0283121635,73.0283121635,8,0,-0.8842038241739063,25.33469149652296,0.8774516860282324,-2.309720543457487e-05,8.177837584821259e-05,7.019613488225859e-06,8.189570513562943e-05,8.194926505012906e-05
74.47168783650001,73.0283121635,8,0,-0.8240940711701601,25.57513050853795,0.8898723863795641,-2.309720543457487e-05,8.249969288425755e-05,7.118979091036513e-06,8.261954112247227e-05,8.266740500629779e-05
73.0283121635,74.47168783650001,8,0,-0.8510819565704271,25.34297196342383,0.9676163155337297,-2.299783983176443e-05,8.177837584821259e-05,7.740930524269838e-06,8.192115743910712e-05,8.185765437235776e-05
74.47168783650001,74.47168783650001,8,0,-0.7909722035667448,25.58341097543856,0.9800370158851021,-2.299783983176443e-05,8.249969288425679e-05,7.840296127080816e-06,8.264515979540391e-05,8.259850202836926e-05
75.5283121635,73.0283121635,8,0,-0.7689144320298205,25.75356547445736,0.892196788865928,-2.306337856206132e-05,8.302654106388742e-05,7.137574310927424e-06,8.314645690506152e-05,8.319057630820879e-05
76.97168783650001,73.0283121635,8,0,-0.7090761854761727,25.99291846067196,0.9020258629304352,-2.306337856206132e-05,8.374460002253119e-05,7.216206903443482e-06,8.386634737019179e-05,8.390176692998367e-05
75.5283121635,74.47168783650001,8,0,-0.7427035678575393,25.76011819050044,0.9819541586962772,-2.298474596954447e-05,8.302654106388742e-05,7.855633269570218e-06,8.317187108611681e-05,8.313881821251038e-05
76.97168783650001,74.47168783650001,8,0,-0.6828653213039635,25.99947117671474,0.9917832327608928,-2.298474596954447e-05,8.374460002253032e-05,7.934265862087142e-06,8.389185530109888e-05,8.387414182378689e-05
78.0283121635,73.0283121635,8,0,-0.6533463251796254,26.17183356278426,0.8850058941010599,-2.302817509080221e-05,8.427254446105332e-05,7.080047152808479e-06,8.438920869620492e-05,8.442329046203942e-05
79.47168783650001,73.0283121635,8,0,-0.5929869859266965,26.41327091979598,0.8921829300431336,-2.302817509080221e-05,8.499685653208847e-05,7.13746344034507e-06,8.511462531598032e-05,8.51369286272442e-05
78.0283121635,74.47168783650001,8,0,-0.6342075626674015,26.17661825341231,0.9755449029804676,-2.297075880326553e-05,8.427254446105332e-05,7.804359223843741e-06,8.441434258320526e-05,8.441373814638403e-05
79.47168783650001,74.47168783650001,8,0,-0.5738482234144637,26.41805561042407,0.9827219389225549,-2.297075880326553e-05,8.499685653208858e-05,7.861775511380439e-06,8.513978319088446e-05,8.51526191040829e-05
80.5283121635,73.0283121635,8,0,-0.5400527969169584,26.59405457611779,0.8551767884013191,-2.30034126110285e-05,8.553301688111049e-05,6.841414307210553e-06,8.564071931494924e-05,8.56638527957942e-05
81.97168783650001,73.0283121635,8,0,-0.4783440266203423,26.84088965730426,0.8596815400697955,-2.30034126110285e-05,8.627352212466988e-05,6.877452320558364e-06,8.638162500476325e-05,8.638979823086524e-05
80.5283121635,74.47168783650001,8,0,-0.5280401258010299,26.59705774389677,0.9477399438461884,-2.296737459768071e-05,8.553301688111049e-05,7.581919550769508e-06,8.56653101779968e-05,8.569829037648366e-05
81.97168783650001,74.47168783650001,8,0,-0.4663313555044413,26.84389282508313,0.9522446955146648,-2.296737459768071e-05,8.627352212466956e-05,7.617957564117319e-06,8.640617137940993e-05,8.645021105927775e-05
83.02831216350002,73.0283121635,8,0,-0.4316756173361567,27.0249892074928,0.8023118903563659,-2.300135334146994e-05,8.682530595784587e-05,6.418495122850927e-06,8.691900352401298e-05,8.692933545185701e-05
84.47168783650002,73.0283121635,8,0,-0.3677592653748158,27.28065461533816,0.8041674315709959,-2.300135334146994e-05,8.759230218138197e-05,6.433339452567967e-06,8.768578155581507e-05,8.767743311717268e-05
83.02831216350002,74.47168783650001,8,0,-0.4267275074305132,27.02622623496921,0.8981864182984044,-2.298650901175301e-05,8.682530595784587e-05,7.185491346387235e-06,8.694272532813223e-05,8.700886579065638e-05
84.47168783650002,74.47168783650001,8,0,-0.3628111554691724,27.28189164281457,0.9000419595130615,-2.298650901175301e-05,8.759230218138197e-05,7.200335676104492e-06,8.770939060567717e-05,8.778321821794233e-05
85.5283121635,73.0283121635,8,0,-0.3309296338492036,27.46956512481905,0.7263425394388228,-2.303462692817269e-05,8.816735210650031e-05,5.810740315510582e-06,8.824320886354018e-05,8.823637217920668e-05
86.97168783650002,73.0283121635,8,0,-0.2639238514456332,27.73758825443333,0.7256198534150871,-2.303462692817269e-05,8.897142149534316e-05,5.804958827320696e-06,8.904658473298008e-05,8.901532442976769e-05
85.5283121635,74.47168783650001,8,0,-0.332856796579093,27.46908333413658,0.8268512130441648,-2.304040841636236e-05,8.816735210650031e-05,6.614809704353318e-06,8.826563003471003e-05,8.836127873113797e-05
86.97168783650002,74.47168783650001,8,0,-0.265851014175559,27.73710646375071,0.826128527020429,-2.304040841636236e-05,8.897142149534272e-05,6.609028216163432e-06,8.906882483290931e-05,8.9166216995819e-05
88.02831216350002,73.0283121635,8,0,-0.2405864392764734,27.93284058721743,0.6275598337006436,-2.311614907545866e-05,8.957755903051695e-05,5.020478669605149e-06,8.963344660581081e-05,8.959861861212407e-05
89.47168783650001,73.0283121635,8,0,-0.1695923431349504,28.21681697178352,0.6243840827952309,-2.311614907545866e-05,9.042948818421522e-05,4.995072662361847e-06,9.048439714313489e-05,9.041325570358776e-05
88.02831216350002,74.47168783650001,8,0,-0.2490551083576911,27.93072341994712,0.7340509779128734,-2.314155508270231e-05,8.957755903051695e-05,5.872407823302988e-06,8.965399195395492e-05,8.976818789419543e-05
89.47168783650001,74.47168783650001,8,0,-0.1780610122161681,28.21469980451322,0.7308752270074608,-2.314155508270231e-05,9.042948818421522e-05,5.847001816059686e-06,9.050469398844639e-05,9.06078647086266e-05
90.52831216350002,73.0283121635,8,0,-0.163455203668831,28.41996459015774,0.5066530000811165,-2.325902832386645e-05,9.107465085143982e-05,4.053224000648932e-06,9.111056211232827e-05,9.102057119790543e-05
91.97168783650001,73.0283121635,8,0,-0.08756453430371369,28.72352726761821,0.5012116198597658,-2.325902832386645e-05,9.198533888382123e-05,4.009692958878127e-06,9.202020560932747e-05,9.186515089321196e-05
90.52831216350002,74.47168783650001,8,0,-0.1779655509255855,28.41633700334355,0.6204890041287522,-2.330255936563671e-05,9.107465085143982e-05,4.963912033030017e-06,9.112848332139958e-05,9.123284328027017e-05
91.97168783650001,74.47168783650001,8,0,-0.1020748815604682,28.71989968080402,0.6150476239074828,-2.330255936563671e-05,9.198533888382123e-05,4.920380991259863e-06,9.203781432742343e-05,9.210063967728365e-05
93.02831216350002,73.0283121635,8,0,-0.1023584268465045,28.93613111504229,0.3647557871149789,-2.347645185794264e-05,9.26775063096125e-05,2.918046296919831e-06,9.26958303754466e-05,9.2482342483655e-05
94.47168783650002,73.0283121635,8,0,-0.02066271498769456,29.26291396247753,0.3573084210451967,-2.347645185794264e-05,9.365785485191823e-05,2.858467368361574e-06,9.367529128836498e-05,9.332396157151477e-05
93.02831216350002,74.47168783650001,8,0,-0.1222180696993833,28.93116620432907,0.4872993549032492,-2.353603078650128e-05,9.26775063096125e-05,3.898394839225994e-06,9.2710190129789e-05,9.273370706415607e-05
94.47168783650002,74.47168783650001,8,0,-0.04052235784059999,29.2579490517642,0.4798519888333857,-2.353603078650128e-05,9.365785485191791e-05,3.838815910667086e-06,9.368928259386852e-05,9.359548293276637e-05
95.5283121635,73.0283121635,8,0,-0.060100103332692,29.486524709087,0.2035007543105466,-2.378154009793421e-05,9.440495915174455e-05,1.628006034484373e-06,9.441056528685756e-05,9.390189298387803e-05
96.97168783650002,73.0283121635,8,0,0.02829809362237512,29.84011749690727,0.1943908910138713,-2.378154009793421e-05,9.546573751520536e-05,1.555127128110971e-06,9.547080747909648e-05,9.46392118779519e-05
95.5283121635,74.47168783650001,8,0,-0.08439307212393476,29.48045146688919,0.3360980497430258,-2.385441900430794e-05,9.440495915174455e-05,2.688784397944207e-06,9.442024045031678e-05,9.41863230781842e-05
96.97168783650002,74.47168783650001,8,0,0.004005124831142126,29.8340442547095,0.3269881864464182,-2.385441900430794e-05,9.546573751520546e-05,2.615905491571346e-06,9.54800731892739e-05,9.49387525060754e-05
98.02831216350002,73.0283121635,8,0,-0.03942362408580635,30.07625438290522,0.02508059594091215,-2.418715910339875e-05,9.627555292456534e-05,2.006447675272972e-07,9.627563647385238e-05,9.504094882792285e-05
99.47168783650002,73.0283121635,8,0,0.05654958256065434,30.46014720949107,0.01474859024414488,-2.418715910339875e-05,9.742723140432287e-05,1.17988721953159e-07,9.742726002210235e-05,9.540119569249406e-05
98.02831216350002,74.47168783650001,8,0,-0.06697563927718519,30.06936637910738,0.1690404059106099,-2.426981514897289e-05,9.627555292456534e-05,1.352323247284879e-06,9.627934552286083e-05,9.534835298410676e-05
99.47168783650002,74.47168783650001,8,0,0.0289975673692755,30.45325920569322,0.158708400213863,-2.426981514897289e-05,9.742723140432287e-05,1.269667201710904e-06,9.7430542928686e-05,9.571497287304928e-05
0.5283121635,75.5283121635,8,0,-0.03584461668721817,6.899712730066778,-0.1428923112986754,-5.63447295745252e-06,2.210775642956346e-05,-1.143138490389403e-06,2.211952739583477e-05,2.374717023112321e-05
1.9716878365,75.5283121635,8,0,0.05050918291578488,7.24512792847879,-0.1521959977057984,-5.63447295745252e-06,2.31440020247995e-05,-1.217567981646388e-06,2.315687457086974e-05,2.413952526187685e-05
0.5283121635,76.97168783650001,8,0,-0.06065444710610479,6.893510272462056,-0.01336161189411647,-5.708902448709179e-06,2.210775642956346e-05,-1.068928951529317e-07,2.210785912026494e-05,2.402706149687627e-05
1.9716878365,76.97168783650001,8,0,0.02569935249689825,7.238925470874069,-0.02266529830128022,-5.708902448709179e-06,2.31440020247995e-05,-1.813223864102417e-07,2.314428689632115e-05,2.441309051519202e-05
3.0283121635,75.5283121635,8,0,-0.06330777449810565,7.463892673029542,-0.3055426453975069,-6.17369901681757e-06,2.393510277329302e-05,-2.444341163180055e-06,2.398463140798414e-05,2.460600074444253e-05
4.4716878365,75.5283121635,8,0,0.03044904580564145,7.83891995424453,-0.3137200744999543,-6.17369901681757e-06,2.506018461693798e-05,-2.509760595999634e-06,2.511052068340848e-05,2.548808043259771e-05
3.0283121635,76.97168783650001,8,0,-0.08511425210492063,7.458441053627567,-0.1649074149417777,-6.239118449637799e-06,2.393510277329215e-05,-1.319259319534222e-06,2.394951585616423e-05,2.487165818288984e-05
4.4716878365,76.97168783650001,8,0,0.008642568198898637,7.833468334842844,-0.1730848440442928,-6.239118449637799e-06,2.506018461693798e-05,-1.384678752354342e-06,2.507549165126671e-05,2.573845933148615e-05
5.528312163500001,75.5283121635,8,0,-0.1110776933859534,8.069948336478275,-0.4533317049903697,-6.81140728801767e-06,2.591269683143924e-05,-3.626653639922958e-06,2.601287128458734e-05,2.622237467693327e-05
6.9716878365,75.5283121635,8,0,-0.01074229000746829,8.471289949992215,-0.4599266777558555,-6.81140728801767e-06,2.711672167198106e-05,-3.679413422046844e-06,2.721618568008054e-05,2.734642417209353e-05
5.528312163500001,76.97168783650001,8,0,-0.1286642874273212,8.065551687967796,-0.3028285999226552,-6.864167070141664e-06,2.59126968314388e-05,-2.422628799381241e-06,2.595740165913915e-05,2.645968766622889e-05
6.9716878365,76.97168783650001,8,0,-0.02832888404881739,8.466893301481811,-0.3094235726881409,-6.864167070141664e-06,2.711672167198084e-05,-2.475388581505127e-06,2.716174286789159e-05,2.75633189720918e-05
8.028312163500001,75.5283121635,8,0,-0.1764576158787006,8.713143922311046,-0.5838694823222592,-7.535179508660677e-06,2.80232266440983e-05,-4.670955858578074e-06,2.817596487894717e-05,2.821803120544785e-05
9.471687836500001,75.5283121635,8,0,-0.07040821582016044,9.137341522545206,-0.5885265141342274,-7.535179508660677e-06,2.929581944480079e-05,-4.708212113073819e-06,2.94456757767502e-05,2.947525640974718e-05
8.028312163500001,76.97168783650001,8,0,-0.1888763673769929,8.710039234436474,-0.4247953822345842,-7.572435763155555e-06,2.80232266440983e-05,-3.398363057876674e-06,2.810415416195653e-05,2.841895307333289e-05
9.471687836500001,76.97168783650001,8,0,-0.08282696731847983,9.134236834670526,-0.4294524140464168,-7.572435763155555e-06,2.929581944480046e-05,-3.435619312371335e-06,2.937568467150673e-05,2.965295760484854e-05
10.5283121635,75.5283121635,8,0,-0.2566552361608672,9.388531096323224,-0.6953610565290139,-8.332121632773353e-06,3.024862369716301e-05,-5.562888452232111e-06,3.044811787464262e-05,3.042530891684617e-05
11.9716878365,75.5283121635,8,0,-0.1457788339500206,9.83203670516661,-0.6978132101000454,-8.332121632773353e-06,3.157914052369316e-05,-5.582505680800363e-06,3.177340532979616e-05,3.176367543190983e-05
10.5283121635,76.97168783650001,8,0,-0.2631943123502301,9.386896327275883,-0.5290464532128393,-8.351738861341442e-06,3.024862369716301e-05,-4.232371625702714e-06,3.036429263896758e-05,3.058553765368722e-05
11.9716878365,76.97168783650001,8,0,-0.1523179101393835,9.830401936119269,-0.5314986067837487,-8.351738861341442e-06,3.157914052369316e-05,-4.25198885426999e-06,3.169201337032502e-05,3.189938919783223e-05
13.0283121635,75.5283121635,8,0,-0.3488353824223847,10.09104663056233,-0.7865457419542883,-9.189110528201496e-06,3.257041752373737e-05,-6.292365935634306e-06,3.280612207052639e-05,3.276275003414365e-05
14.4716878365,75.5283121635,8,0,-0.2340268572488902,10.55028073125631,-0.7866034116422017,-9.189110528201496e-06,3.39481198258193e-05,-6.292827293137614e-06,3.417640992201863e-05,3.41539060930505e-05
13.0283121635,76.97168783650001,8,0,-0.3489891682568027,10.09100818410373,-0.6143329541941274,-9.18957188570475e-06,3.257041752373737e-05,-4.914663633553019e-06,3.27145199108517e-05,3.288040966764958e-05
14.4716878365,76.97168783650001,8,0,-0.2341806430833082,10.55024228479771,-0.6143906238820543,-9.18957188570475e-06,3.39481198258193e-05,-4.915124991056435e-06,3.408767614453916e-05,3.424675589042463e-05
15.5283121635,75.5283121635,8,0,-0.450160856637781,10.81559303927811,-0.8566410751690852,-1.009298917266339e-05,3.497002641100018e-05,-6.853128601352681e-06,3.522909093054412e-05,3.518500515089163e-05
16.9716878365,75.5283121635,8,0,-0.3323109891927816,11.28699250905811,-0.8541822889824001,-1.009298917266339e-05,3.638422482034017e-05,-6.833458311859201e-06,3.663405951891133e-05,3.661086410576293e-05
15.5283121635,76.97168783650001,8,0,-0.4436040934732697,10.81723223006924,-0.6798662740015995,-1.007331888316985e-05,3.497002641100018e-05,-5.438930192012796e-06,3.513361834757948e-05,3.52598312456738e-05
16.9716878365,76.97168783650001,8,0,-0.3257542260282431,11.28863169984935,-0.6774074878148467,-1.007331888316985e-05,3.638422482034049e-05,-5.419259902518774e-06,3.654172963276714e-05,3.666125836545306e-05
18.0283121635,75.5283121635,8,0,-0.5578248676531561,11.55710577256893,-0.9052936732120969,-1.103072419454524e-05,3.74289983663431e-05,-7.242349385696775e-06,3.769809795826437e-05,3.766248420272721e-05
19.4716878365,75.5283121635,8,0,-0.4378102009144023,12.03716443952394,-0.9002561578520726,-1.103072419454524e-05,3.886917436720814e-05,-7.20204926281658e-06,3.912770277766237e-05,3.910970478314502e-05
18.0283121635,76.97168783650001,8,0,-0.5443914933597216,11.56046411614229,-0.7252716731038578,-1.099042407166494e-05,3.74289983663431e-05,-5.802173384830862e-06,3.760219963343226e-05,3.769530004025212e-05
19.4716878365,76.97168783650001,8,0,-0.4243768266209313,12.04052278309745,-0.7202341577438741,-1.099042407166494e-05,3.886917436720858e-05,-5.761873261950993e-06,3.903508563767678e-05,3.911892731328761e-05
20.5283121635,75.5283121635,8,0,-0.6690782895071821,12.31061060187732,-0.932537635953861,-1.198953900792484e-05,3.992921655761317e-05,-7.460301087630888e-06,4.019584338759537e-05,4.017296738844156e-05
21.9716878365,75.5283121635,8,0,-0.547752196039597,12.79591497574766,-0.9249126136147852,-1.198953900792484e-05,4.138512967922418e-05,-7.399300908918281e-06,4.164034955478249e-05,4.163063426760549e-05
20.5283121635,76.97168783650001,8,0,-0.6487448966031066,12.31569395010334,-0.7505484957525516,-1.192853882921261e-05,3.992921655761317e-05,-6.004387966020413e-06,4.010244351404772e-05,4.016534362322886e-05
21.9716878365,76.97168783650001,8,0,-0.5274188031355038,12.80099832397375,-0.7429234734134893,-1.192853882921261e-05,4.13851296792244e-05,-5.943387787307915e-06,4.155025987682144e-05,4.160057887494313e-05
23.0283121635,75.5283121635,8,0,-0.7812544618648007,13.07127449875579,-0.9387600387104044,-1.295703387697199e-05,4.245308196551036e-05,-7.510080309683234e-06,4.270639597440491e-05,4.269807051787364e-05
24.4716878365,75.5283121635,8,0,-0.6594388964727083,13.55853676032416,-0.928587512015778,-1.295703387697199e-05,4.391486875021547e-05,-7.428700096126224e-06,4.415642994012559e-05,4.415669370840709e-05
23.0283121635,76.97168783650001,8,0,-0.7541277240123736,13.07805618321889,-0.7560366906222515,-1.287565366341471e-05,4.245308196551036e-05,-6.048293524978012e-06,4.261788428267308e-05,4.265210542618822e-05
24.4716878365,76.97168783650001,8,0,-0.6323121586202811,13.56531844478726,-0.7458641639276117,-1.287565366341471e-05,4.391486875021547e-05,-5.966913311420893e-06,4.407117269524032e-05,4.408969413810533e-05
25.5283121635,75.5283121635,8,0,-0.8917935373250132,13.83445268433324,-0.9246722363626109,-1.392130146690663e-05,4.498368341972637e-05,-7.397377890900887e-06,4.521501840884878e-05,4.522171683619902e-05
26.9716878365,75.5283121635,8,0,-0.7702711042918557,14.32054241646587,-0.9120373793417356,-1.392130146690663e-05,4.644195261612426e-05,-7.296299034733884e-06,4.666163485191135e-05,4.667279094215278e-05
25.5283121635,76.97168783650001,8,0,-0.8581005852693457,13.84287592234715,-0.7423885868129286,-1.382022261073963e-05,4.498368341972637e-05,-5.939108694503429e-06,4.513326326035806e-05,4.513989636210935e-05
26.9716878365,76.97168783650001,8,0,-0.7365781522361883,14.32896565447978,-0.7297537297920532,-1.382022261073963e-05,4.644195261612426e-05,-5.838029838336426e-06,4.658301538661184e-05,4.657151348451502e-05
28.0283121635,75.5283121635,8,0,-0.9982675846727642,14.59573373285011,-0.8912852028859412,-1.487104325723293e-05,4.750496201285856e-05,-7.130281623087529e-06,4.770806858678718e-05,4.772946480053889e-05
29.4716878365,75.5283121635,8,0,-0.877773710962118,15.0777092276927,-0.8763154114361962,-1.487104325723293e-05,4.895088849738631e-05,-7.01052329148957e-06,4.914282906837119e-05,4.916527736284858e-05
28.0283121635,76.97168783650001,8,0,-0.9583481408068866,14.60571359381658,-0.7105443923200805,-1.47512849256353e-05,4.750496201285856e-05,-5.684355138560644e-06,4.763444632239089e-05,4.761457467172906e-05
29.4716878365,76.97168783650001,8,0,-0.8378542670962403,15.08768908865916,-0.695574600870295,-1.47512849256353e-05,4.895088849738631e-05,-5.56459680696236e-06,4.907217906862059e-05,4.90326537083164e-05
30.5283121635,75.5283121635,8,0,-1.098406878958346,15.35098376463886,-0.8398869479676229,-1.579568902437779e-05,5.000187355001101e-05,-6.719095583740983e-06,5.017296331712395e-05,5.020821935023241e-05
31.9716878365,75.5283121635,8,0,-0.9796220391781789,15.82612312375952,-0.8227491052451198,-1.579568902437779e-05,5.142729162737301e-05,-6.581992841960958e-06,5.15880227174679e-05,5.162177728692336e-05
30.5283121635,76.97168783650001,8,0,-1.052705965031526,15.36240899312056,-0.661709688297386,-1.565858628259733e-05,5.000187355001101e-05,-5.293677506379088e-06,5.010839744677681e-05,5.006329012424097e-05
31.9716878365,76.97168783650001,8,0,-0.933921125251314,15.83754835224141,-0.6445718455748016,-1.565858628259733e-05,5.142729162737356e-05,-5.156574764598413e-06,5.152623608523531e-05,5.146096214020999e-05
33.0283121635,75.5283121635,8,0,-1.190127128848516,16.09638996221667,-0.7720201433020641,-1.668551878208858e-05,5.246054958217214e-05,-6.176161146416513e-06,5.259819004323159e-05,5.264612641077476e-05
34.4716878365,75.5283121635,8,0,-1.073669199465806,16.56222167974751,-0.7529177109764342,-1.668551878208858e-05,5.385804473476466e-05,-6.023341687811474e-06,5.398638655925946e-05,5.403114232525348e-05
33.0283121635,76.97168783650001,8,0,-1.139187309313792,16.10912491710035,-0.5973332492279306,-1.653269932348441e-05,5.246054958217214e-05,-4.778665993823445e-06,5.254319653302733e-05,5.247439824007744e-05
34.4716878365,76.97168783650001,8,0,-1.022729379931063,16.57495663463126,-0.5782308169024227,-1.653269932348441e-05,5.385804473476488e-05,-4.625846535219382e-06,5.393396168563556e-05,5.384548513928847e-05
35.5283121635,75.5283121635,8,0,-1.271556864063117,16.82850296462161,-0.689458393622261,-1.753178433669926e-05,5.486845497803964e-05,-5.515667148978088e-06,5.497335300738183e-05,5.503256076757601e-05
36.9716878365,75.5283121635,8,0,-1.157973783343162,17.28283528750143,-0.6686280329417201,-1.753178433669926e-05,5.623145194667909e-05,-5.349024263533761e-06,5.632829742764932e-05,5.638347091727524e-05
35.5283121635,76.97168783650001,8,0,-1.216009235581584,16.84238987174199,-0.519083772542383,-1.736514145125466e-05,5.486845497803964e-05,-4.152670180339064e-06,5.492808943280047e-05,5.483745885949756e-05
36.9716878365,76.97168783650001,8,0,-1.10242615486163,17.29672219462181,-0.4982534118618421,-1.736514145125466e-05,5.623145194667909e-05,-3.986027294894737e-06,5.628538371959852e-05,5.617649456378611e-05
38.0283121635,75.5283121635,8,0,-1.341063860160586,17.54427719014631,-0.594180030391773,-1.832682610463092e-05,5.721453809659667e-05,-4.753440243134184e-06,5.728924177657559e-05,5.735816316016806e-05
39.4716878365,75.5283121635,8,0,-1.230826831721548,17.98522530390246,-0.5718875707526446,-1.832682610463092e-05,5.853738243786512e-05,-4.575100566021157e-06,5.860540186789086e-05,5.86701617399085e-05
38.0283121635,76.97168783650001,8,0,-1.281617301122982,17.55913882990585,-0.428824487733149,-1.814848642751822e-05,5.72145380965971e-05,-3.430595901865192e-06,5.72535588824177e-05,5.714327790984693e-05
39.4716878365,76.97168783650001,8,0,-1.171380272683981,18.00008694366186,-0.4065320280940478,-1.814848642751822e-05,5.853738243786512e-05,-3.252256224752382e-06,5.857184908377116e-05,5.844554342702027e-05
40.5283121635,75.5283121635,8,0,-1.397279319979007,18.24110783018693,-0.4883388175691745,-1.906418008808236e-05,5.948936851258137e-05,-3.906710540553396e-06,5.953791170939284e-05,5.961490218897629e-05
41.97168783650001,75.5283121635,8,0,-1.290776821390363,18.66711782454151,-0.4648745091003355,-1.906418008808236e-05,6.07673984956451e-05,-3.718996072802684e-06,6.081068786858349e-05,6.088398251616423e-05
40.5283121635,76.97168783650001,8,0,-1.334707830728788,18.25675070249948,-0.3285850696860726,-1.887646562033171e-05,5.948936851258137e-05,-2.628680557488581e-06,5.9511406237645e-05,5.938397013765238e-05
41.97168783650001,76.97168783650001,8,0,-1.228205332140053,18.68276069685442,-0.3051207612171929,-1.887646562033171e-05,6.076739849564619e-05,-2.440966089737543e-06,6.078609710151471e-05,6.06455340732147e-05
43.0283121635,75.5283121635,8,0,-1.439118546903213,18.91686314744453,-0.3742314737465087,-1.97386698680459e-05,6.168525690934505e-05,-2.993851789972069e-06,6.171276762252724e-05,6.179614586747344e-05
44.4716878365,75.5283121635,8,0,-1.336651393784563,19.32673175991913,-0.3499045709513934,-1.97386698680459e-05,6.291486274676884e-05,-2.799236567611147e-06,6.29385564702659e-05,6.301914216097052e-05
43.0283121635,76.97168783650001,8,0,-1.374246806116004,18.93308108264133,-0.2205307440684805,-1.954405464568427e-05,6.168525690934505e-05,-1.764245952547844e-06,6.169483533841299e-05,6.155302921565663e-05
44.4716878365,76.97168783650001,8,0,-1.2717796529973,19.34294969511615,-0.1962038412732297,-1.954405464568427e-05,6.291486274676949e-05,-1.569630730185838e-06,6.292233167059166e-05,6.277078811697301e-05
45.52831216350001,75.5283121635,8,0,-1.465797006950157,19.56991078167404,-0.2542623793200406,-2.034647904757973e-05,6.379635210691705e-05,-2.034099034560325e-06,6.380864357163608e-05,6.389673259830697e-05
46.97168783650001,75.5283121635,8,0,-1.367574683539094,19.96280007531829,-0.2293951949304649,-2.034647904757973e-05,6.49750199878498e-05,-1.835161559443719e-06,6.498488686948548e-05,6.507135796795156e-05
45.52831216350001,76.97168783650001,8,0,-1.399484515244676,19.58648890460028,-0.1069288942035147,-2.014754157246318e-05,6.379635210691662e-05,-8.554311536281174e-07,6.379853137043946e-05,6.364539613336856e-05
46.97168783650001,76.97168783650001,8,0,-1.301262191833577,19.97937819824467,-0.08206170981389822,-2.014754157246318e-05,6.49750199878498e-05,-6.564936785111858e-07,6.49762857437595e-05,6.481711076965346e-05
48.0283121635,75.5283121635,8,0,-1.476840948044583,20.19913698352986,-0.1309062112227752,-2.088520062056655e-05,6.58187111057312e-05,-1.047249689782202e-06,6.582187328115529e-05,6.591303449605821e-05
49.47168783650001,75.5283121635,8,0,-1.382979354785324,20.57458335656689,-0.1058278463276623,-2.088520062056655e-05,6.69450502248423e-05,-8.466227706212985e-07,6.694709039169744e-05,6.703791216483694e-05
48.0283121635,76.97168783650001,8,0,-1.409965308324119,20.21585589345997,0.009886178666072137,-2.068457370140516e-05,6.58187111057312e-05,7.90894293285771e-08,6.581872918347396e-05,6.565751957412611e-05
49.47168783650001,76.97168783650001,8,0,-1.316103715064815,20.59130226649719,0.03496454356122572,-2.068457370140516e-05,6.694505022484284e-05,2.797163484898058e-07,6.694527343998633e-05,6.678184449088633e-05
50.5283121635,75.5283121635,8,0,-1.472092085767263,20.80395802167576,-0.006669505647725351,-2.135386109179585e-05,6.775033933797622e-05,-5.335604518180281e-08,6.775034732544284e-05,6.78430083163546e-05
51.97168783650001,75.5283121635,8,0,-1.382612781363615,21.16187523929035,0.01829049961156102,-2.135386109179585e-05,6.882409099082001e-05,1.463239968924881e-07,6.882415034761811e-05,6.891769423859382e-05
50.5283121635,76.97168783650001,8,0,-1.405532071742392,20.82059802518198,0.127549450957816,-2.115418104972123e-05,6.775033933797622e-05,1.020395607662528e-06,6.77532671219177e-05,6.758740403528911e-05
51.97168783650001,76.97168783650001,8,0,-1.316052767338743,21.17851524279657,0.1525094562171295,-2.115418104972123e-05,6.882409099082001e-05,1.220075649737036e-06,6.882822675643069e-05,6.866390872245295e-05
53.0283121635,75.5283121635,8,0,-1.451706235533692,21.38432339674357,0.1159477206627248,-2.175291867110267e-05,6.959119985800637e-05,9.275817653017987e-07,6.959355465042483e-05,6.968623116431865e-05
54.4716878365,75.5283121635,8,0,-1.366537173255706,21.72499964585551,0.1404655625675917,-2.175291867110267e-05,7.06132286053422e-05,1.123724500540733e-06,7.061664628072524e-05,7.071122717074175e-05
53.0283121635,76.97168783650001,8,0,-1.386325323787182,21.4006686246802,0.2437013140796493,-2.155677593586314e-05,6.959119985800637e-05,1.949610512637194e-06,6.960162396910021e-05,6.943464312583091e-05
54.4716878365,76.97168783650001,8,0,-1.301156261509142,21.74134487379236,0.2682191559846381,-2.155677593586314e-05,7.061322860534285e-05,2.145753247877105e-06,7.062571540444599e-05,7.046382398792647e-05
55.5283121635,75.5283121635,8,0,-1.416146134954991,21.94071090510001,0.2344891573680379,-2.208423635593598e-05,7.134319180428401e-05,1.875913258944303e-06,7.135260739029375e-05,7.144391977431404e-05
56.97168783650001,75.5283121635,8,0,-1.335123818295473,22.26480017173808,0.2582525354846401,-2.208423635593598e-05,7.231545960419822e-05,2.066020283877121e-06,7.232676241814156e-05,7.242067718726548e-05
55.5283121635,76.97168783650001,8,0,-1.352777126644106,21.95655315717773,0.3560226323573272,-2.189412933100332e-05,7.134319180428401e-05,2.848181058858618e-06,7.136493804186863e-05,7.120043689657978e-05
56.97168783650001,76.97168783650001,8,0,-1.271754809984608,22.28064242381572,0.3797860104738887,-2.189412933100332e-05,7.2315459604198e-05,3.03828808379111e-06,7.233994966813811e-05,7.218371992652173e-05
58.0283121635,75.5283121635,8,0,-1.366169025380286,22.47411398626613,0.3465771773377839,-2.235103207022982e-05,7.301009997635584e-05,2.772617418702271e-06,7.303024912735793e-05,7.31189334985275e-05
59.47168783650001,75.5283121635,8,0,-1.289041942889468,22.7826223162294,0.3692904601843429,-2.235103207022982e-05,7.393562496624565e-05,2.954323681474743e-06,7.395828120819624e-05,7.40498478047306e-05
58.0283121635,76.97168783650001,8,0,-1.305600271122759,22.48925617483052,0.4622678010739699,-2.216932580745724e-05,7.301009997635584e-05,3.698142408591759e-06,7.304600873343832e-05,7.288759323860723e-05
59.47168783650001,76.97168783650001,8,0,-1.228473188631941,22.79776450479379,0.4849810839205153,-2.216932580745724e-05,7.393562496624565e-05,3.879848671364122e-06,7.397476732336427e-05,7.382732785945643e-05
60.5283121635,75.5283121635,8,0,-1.302809822787866,22.98602212643177,0.4499447991931948,-2.255780913406659e-05,7.459751866281195e-05,3.599558393545558e-06,7.463084770822094e-05,7.471576218432544e-05
61.9716878365,75.5283121635,8,0,-1.229242971253204,23.28028953257042,0.4713334569731912,-2.255780913406659e-05,7.54803208812279e-05,3.770667655785529e-06,7.551656361766216e-05,7.560415979674351e-05
60.5283121635,76.97168783650001,8,0,-1.245773402041137,23.00028123161845,0.5602950764951203,-2.23866998718264e-05,7.459751866281195e-05,4.482360611960962e-06,7.464928182402422e-05,7.450051429372972e-05
61.9716878365,76.97168783650001,8,0,-1.17220655050643,23.29454863775728,0.5816837342752387,-2.23866998718264e-05,7.548032088122844e-05,4.653469874201909e-06,7.553560650171693e-05,7.539995921435955e-05
63.0283121635,75.5283121635,8,0,-1.227360886625038,23.47839534982907,0.5424641215515303,-2.271027111706337e-05,7.611275382875303e-05,4.339712972412243e-06,7.616037440557684e-05,7.624050079861219e-05
64.47168783650001,75.5283121635,8,0,-1.156941159401973,23.76007425872133,0.562278367647603,-2.271027111706337e-05,7.695779055542982e-05,4.498226941180824e-06,7.700851832130105e-05,7.709061913431258e-05
63.0283121635,76.97168783650001,8,0,-1.174522897035367,23.49160484722648,0.6480937123861156,-2.255175714829436e-05,7.611275382875303e-05,5.184749699088925e-06,7.618082059571191e-05,7.604516939843725e-05
64.47168783650001,76.97168783650001,8,0,-1.104103169812275,23.77328375611886,0.6679079584822559,-2.255175714829436e-05,7.695779055543015e-05,5.343263667858048e-06,7.702946688523365e-05,7.69084714823435e-05
65.5283121635,75.5283121635,8,0,-1.141349479466618,23.95363399078682,0.6221710534391354,-2.281522552692264e-05,7.756470835409111e-05,4.977368427513083e-06,7.762637154241662e-05,7.770081287510923e-05
66.97168783650001,75.5283121635,8,0,-1.073591684853925,24.2246651692376,0.64018871589894,-2.281522552692264e-05,7.837780188944344e-05,5.12150972719152e-06,7.844256199957041e-05,7.851777484179668e-05
65.5283121635,76.97168783650001,8,0,-1.09330237957368,23.96564576576006,0.7238077453582842,-2.267108422724382e-05,7.756470835409111e-05,5.790461962866273e-06,7.764826514038099e-05,7.752905623604639e-05
66.97168783650001,76.97168783650001,8,0,-1.025544584960969,24.2366769442109,0.7418254078181159,-2.267108422724382e-05,7.837780188944365e-05,5.934603262544927e-06,7.846486172645732e-05,7.836122322973109e-05
68.0283121635,75.5283121635,8,0,-1.046513996398927,24.41454499130231,0.6872865231601804,-2.288048078151841e-05,7.896375516928652e-05,5.498292185281443e-06,7.903791061988537e-05,7.91058844501103e-05
69.47168783650001,75.5283121635,8,0,-0.9808672800566525,24.67713185667141,0.7033152464895402,-2.288048078151841e-05,7.97515157653938e-05,5.626521971916322e-06,7.98285726275926e-05,7.98956678138234e-05
68.0283121635,76.97168783650001,8,0,-1.003770734187229,24.42523080685523,0.7857565976735642,-2.275225099488331e-05,7.896375516928652e-05,6.286052781388513e-06,7.906078218620124e-05,7.896115143898916e-05
69.47168783650001,76.97168783650001,8,0,-0.9381240178449364,24.6878176722244,0.8017853210029783,-2.275225099488331e-05,7.975151576539402e-05,6.414282568023826e-06,7.985176286907217e-05,7.976801879396099e-05
70.5283121635,75.5283121635,8,0,-0.9447799337872143,24.8643059095664,0.7362346961412253,-2.29147405157722e-05,8.032160285764223e-05,5.889877569129802e-06,8.040554246944214e-05,8.046636877258906e-05
71.97168783650001,75.5283121635,8,0,-0.8806344083939512,25.12088801113945,0.7501136462024387,-2.29147405157722e-05,8.109134916236139e-05,6.00090916961951e-06,8.117783686342685e-05,8.123576942421831e-05
70.5283121635,76.97168783650001,8,0,-0.9077694002907357,24.87355854294051,0.8324529842312152,-2.280370891528276e-05,8.032160285764223e-05,6.659623873849722e-06,8.042900725371698e-05,8.035185052710102e-05
71.97168783650001,76.97168783650001,8,0,-0.8436238748974452,25.13014064451368,0.8463319342924287,-2.280370891528276e-05,8.109134916236172e-05,6.770655474339429e-06,8.120154017664332e-05,8.114004113020658e-05
73.0283121635,75.5283121635,8,0,-0.8382363717629326,25.30642765949743,0.7676590442142633,-2.292749851723932e-05,8.16511576078021e-05,6.141272353714106e-06,8.174123996350336e-05,8.179431894181913e-05
74.47168783650001,75.5283121635,8,0,-0.7749298041966259,25.55965392976265,0.7792603495081337,-2.292749851723932e-05,8.241083641859779e-05,6.23408279606507e-06,8.250299142122293e-05,8.255090395088328e-05
73.0283121635,76.97168783650001,8,0,-0.8072995576459263,25.31416186302668,0.8626188955637237,-2.28346880748883e-05,8.16511576078021e-05,6.90095116450979e-06,8.176497997421867e-05,8.171289400543231e-05
74.47168783650001,76.97168783650001,8,0,-0.7439929900795654,25.56738813329212,0.8742202008576484,-2.28346880748883e-05,8.241083641859844e-05,6.993761606861187e-06,8.252689556398213e-05,8.248976656277196e-05
75.5283121635,75.5283121635,8,0,-0.729113477577255,25.74471674218096,0.7804373613046054,-2.292893652199198e-05,8.296638435704084e-05,6.243498890436843e-06,8.305833237777849e-05,8.310309882935101e-05
76.97168783650001,75.5283121635,8,0,-0.6659379456493877,25.99741886989242,0.7896675680227474,-2.292893652199198e-05,8.372449074017525e-05,6.317340544181979e-06,8.381795667243071e-05,8.385513828400423e-05
75.5283121635,76.97168783650001,8,0,-0.7044995929954352,25.75087021332641,0.8752006591964062,-2.285509486824652e-05,8.296638435704084e-05,7.00160527357125e-06,8.308207198081114e-05,8.305726975543893e-05
76.97168783650001,76.97168783650001,8,0,-0.6413240610675235,26.00357234103805,0.8844308659145482,-2.285509486824652e-05,8.372449074017579e-05,7.075446927316386e-06,8.384179020301351e-05,8.38308447539889e-05
78.0283121635,75.5283121635,8,0,-0.6197612155586558,26.18323739464699,0.7736969952377039,-2.292982580550529e-05,8.428216863531728e-05,6.189575961901631e-06,8.437142866023241e-05,8.440724741812494e-05
79.47168783650001,75.5283121635,8,0,-0.5559697188321806,26.43840338155289,0.7804988379947313,-2.292982580550529e-05,8.504766659603498e-05,6.24399070395785e-06,8.513785872904642e-05,8.516359816927651e-05
78.0283121635,76.97168783650001,8,0,-0.6016229682066729,26.18777195648512,0.8693842403273487,-2.287541106344945e-05,8.428216863531771e-05,6.95507392261879e-06,8.43949049799406e-05,8.439906673439759e-05
79.47168783650001,76.97168783650001,8,0,-0.5378314714802528,26.4429379433908,0.8761860830842948,-2.287541106344945e-05,8.504766659603476e-05,7.009488664674358e-06,8.51613615217635e-05,8.517790305636759e-05
80.5283121635,75.5283121635,8,0,-0.5126290930620421,26.62627369066913,0.7468316490974573,-2.294143205033383e-05,8.561417908459082e-05,5.974653192779658e-06,8.569632474422897e-05,8.572223608321469e-05
81.97168783650001,75.5283121635,8,0,-0.4474421812948979,26.8870213377377,0.7511864421078936,-2.294143205033383e-05,8.639642202579656e-05,6.009491536863149e-06,8.647893406129548e-05,8.649211249604145e-05
80.5283121635,76.97168783650001,8,0,-0.5010163117006972,26.62917688600946,0.8446120167482146,-2.29065937062498e-05,8.561417908459082e-05,6.756896133985717e-06,8.571925454798012e-05,8.575321938994037e-05
81.97168783650001,76.97168783650001,8,0,-0.4358293999335263,26.88992453307814,0.8489668097587323,-2.29065937062498e-05,8.639642202579688e-05,6.791734478069859e-06,8.6501824466466e-05,8.654617652178237e-05
83.02831216350002,75.5283121635,8,0,-0.4102464000572548,27.07829120498824,0.6995210898477322,-2.297542144417381e-05,8.697872897600817e-05,5.596168718781857e-06,8.704988784057456e-05,8.706397231861846e-05
84.47168783650002,75.5283121635,8,0,-0.3428589640207527,27.34784094913425,0.7014520233781114,-2.297542144417381e-05,8.77873782084462e-05,5.611616187024891e-06,8.785840849822064e-05,8.785644599594583e-05
83.02831216350002,76.97168783650001,8,0,-0.405097243976198,27.07957849400851,0.8006022439026078,-2.295997397593064e-05,8.697872897600817e-05,6.404817951220863e-06,8.707193306128864e-05,8.713499581404659e-05
84.47168783650002,76.97168783650001,8,0,-0.3377098079396958,27.34912823815452,0.8025331774329735,-2.295997397593064e-05,8.77873782084462e-05,6.420265419463788e-06,8.788034935562759e-05,8.795072290521561e-05
85.5283121635,75.5283121635,8,0,-0.3152020315218644,27.54389741978449,0.6317549823524614,-2.304376443669755e-05,8.839263336852783e-05,5.054039858819691e-06,8.844990863400039e-05,8.844769163553667e-05
86.97168783650002,75.5283121635,8,0,-0.2447904801454452,27.82554362529016,0.6313315661177026,-2.304376443669755e-05,8.923757198504487e-05,5.050652528941621e-06,8.929434054761691e-05,8.92705310853937e-05
85.5283121635,76.97168783650001,8,0,-0.3163311414811041,27.54361514229474,0.7373723094170775,-2.304715176657533e-05,8.839263336852805e-05,5.89897847533662e-06,8.847064322125219e-05,8.855886952886224e-05
86.97168783650002,76.97168783650001,8,0,-0.2459195901046662,27.8252613478005,0.7369488931824406,-2.304715176657533e-05,8.923757198504531e-05,5.895591145459525e-06,8.931490679761142e-05,8.94046299120179e-05
88.02831216350002,75.5283121635,8,0,-0.230122634186559,28.02779963306338,0.543861841892433,-2.315863213584769e-05,8.987305693315207e-05,4.350894735139464e-06,8.99149108551561e-05,8.988535294156317e-05
89.47168783650001,75.5283121635,8,0,-0.1558527550839779,28.32487914947371,0.5412056706930216,-2.315863213584769e-05,9.076429548238304e-05,4.329645365544173e-06,9.080541772447244e-05,9.074223804043629e-05
88.02831216350002,76.97168783650001,8,0,-0.2372057573849888,28.02602885226378,0.6552666605462236,-2.317988150544298e-05,8.987305693315207e-05,5.242133284369789e-06,8.993379221048051e-05,9.003588452178527e-05
89.47168783650001,76.97168783650001,8,0,-0.1629358782824077,28.3231083686741,0.6526104893468123,-2.317988150544298e-05,9.076429548238304e-05,5.220883914774498e-06,9.082406891293418e-05,9.091474380509945e-05
90.52831216350002,75.5283121635,8,0,-0.1576475092750806,28.5347587451954,0.4365437679816587,-2.333227902583657e-05,9.143734599204533e-05,3.49235014385327e-06,9.146390721747973e-05,9.137933854035305e-05
91.97168783650001,75.5283121635,8,0,-0.0786833726663243,28.85061529163042,0.4318356954963344,-2.333227902583657e-05,9.23849156313504e-05,3.454685563970676e-06,9.241069441513116e-05,9.226304437685409e-05
90.52831216350002,76.97168783650001,8,0,-0.1702023692359731,28.53162003020518,0.5549899728948067,-2.336994360571925e-05,9.143734599204533e-05,4.439919783158454e-06,9.148025599078747e-05,9.156729895161982e-05
91.97168783650001,76.97168783650001,8,0,-0.09123823262721675,28.8474765766402,0.550281900409496,-2.336994360571925e-05,9.23849156313504e-05,4.402255203275968e-06,9.242675588016754e-05,9.247125348341564e-05
93.02831216350002,75.5283121635,8,0,-0.1003984480050883,29.06953697440443,0.3109171879887954,-2.357690461313983e-05,9.310283707649825e-05,2.487337503910363e-06,9.311609161631269e-05,9.290697345141946e-05
94.47168783650002,75.5283121635,8,0,-0.01591276260798313,29.40747971599285,0.304405882673475,-2.357690461313983e-05,9.411666530126351e-05,2.4352470613878e-06,9.41292611330375e-05,9.378251456317655e-05
93.02831216350002,76.97168783650001,8,0,-0.1177619288458258,29.06519610419425,0.4376457160844391,-2.362899505566204e-05,9.310283707649825e-05,3.501165728675513e-06,9.312908399996342e-05,9.312898144418597e-05
94.47168783650002,76.97168783650001,8,0,-0.03327624344868418,29.40313884578282,0.4311344107692,-2.362899505566204e-05,9.411666530126394e-05,3.4490752861536e-06,9.414191797194411e-05,9.402197311884976e-05
95.5283121635,75.5283121635,8,0,-0.06094249588673417,29.63683730795571,0.1685593032729689,-2.390448583320211e-05,9.488663338216765e-05,1.348474426183751e-06,9.489046010910382e-05,9.438215530037536e-05
96.97168783650002,75.5283121635,8,0,0.02987114516002798,30.00009187214276,0.1605710265299194,-2.390448583320211e-05,9.597639707472879e-05,1.284568212239355e-06,9.597983813240278e-05,9.514486314900309e-05
95.5283121635,76.97168783650001,8,0,-0.08224456720165918,29.63151179012698,0.3047797648431517,-2.396839204714689e-05,9.488663338216765e-05,2.438238118745214e-06,9.489913680757949e-05,9.463274878687732e-05
96.97168783650002,76.97168783650001,8,0,0.008569073845148267,29.99476635431421,0.2967914881001023,-2.396839204714689e-05,9.597639707472933e-05,2.374331904800818e-06,9.598814602164984e-05,9.540842726936261e-05
98.02831216350002,75.5283121635,8,0,-0.04174555770895338,30.24123235879179,0.01155929796019662,-2.432657167170208e-05,9.680533999430088e-05,9.2474383681573e-08,9.680535764347003e-05,9.55598063011717e-05
99.47168783650002,75.5283121635,8,0,0.05616698232272377,30.6328825189185,0.002508590686496918,-2.432657167170208e-05,9.798029047468099e-05,2.006872549197534e-08,9.798029129792536e-05,9.593074422656964e-05
98.02831216350002,76.97168783650001,8,0,-0.06588077710535956,30.23519855394269,0.158428108007724,-2.43989773298913e-05,9.680533999430088e-05,1.267424864061792e-06,9.680865324648312e-05,9.583010335066275e-05
99.47168783650002,76.97168783650001,8,0,0.03203176292634424,30.6268487140695,0.1493774007340514,-2.43989773298913e-05,9.798029047468132e-05,1.195019205872411e-06,9.798320771076009e-05,9.620646534667503e-05
0.5283121635,78.0283121635,8,0,-0.03631039796547531,7.054441076077405,-0.131171922117902,-5.759746134351444e-06,2.260325976182007e-05,-1.049375376943216e-06,2.261296264822909e-05,2.421863589766142e-05
1.9716878365,78.0283121635,8,0,0.04838483075591782,7.393221990962977,-0.1392316772639006,-5.759746134351444e-06,2.361960250647679e-05,-1.113853418111205e-06,2.363015604140877e-05,2.460041446664403e-05
0.5283121635,79.4716878365,8,0,-0.05780307835489529,7.04906790598005,-0.004129079035825912,-5.824224175519704e-06,2.260325976182007e-05,-3.30326322866073e-08,2.260326935776629e-05,2.446213562830521e-05
1.9716878365,79.4716878365,8,0,0.02689215036649784,7.387848820865623,-0.01218883418187874,-5.824224175519704e-06,2.361960250647679e-05,-9.751067345502989e-08,2.361968323906523e-05,2.48386277661921e-05
3.0283121635,78.0283121635,8,0,-0.0617788021101342,7.607677422963237,-0.2727603861417334,-6.283834105123018e-06,2.439399079517046e-05,-2.182083089133867e-06,2.443274418887784e-05,2.505365428870514e-05
4.4716878365,78.0283121635,8,0,0.0298316483006591,7.97411922460641,-0.2798536373748188,-6.283834105123018e-06,2.549331620009998e-05,-2.23882909899855e-06,2.553270103343189e-05,2.591014994165959e-05
3.0283121635,79.4716878365,8,0,-0.08069413873147857,7.602948588807764,-0.135344710525489,-6.340580114986942e-06,2.439399079517002e-05,-1.082757684203912e-06,2.4403524039307e-05,2.528521945814607e-05
4.4716878365,79.4716878365,8,0,0.01091631167936002,7.969390390451118,-0.1424379617586151,-6.340580114986942e-06,2.549331620010009e-05,-1.13950369406892e-06,2.550351015334114e-05,2.612883851296743e-05
5.528312163500001,78.0283121635,8,0,-0.1062897417682547,8.200078543049033,-0.4018630658464905,-6.90019000809764e-06,2.632528313117151e-05,-3.214904526771924e-06,2.640287067795656e-05,2.66225426801413e-05
6.9716878365,78.0283121635,8,0,-0.008485531679016223,8.591295383405987,-0.4075701551733567,-6.90019000809764e-06,2.749893365224236e-05,-3.260561241386854e-06,2.757602491380426e-05,2.771234018374472e-05
5.528312163500001,79.4716878365,8,0,-0.1215086466396991,8.196273816831036,-0.2551567507127822,-6.945846722711865e-06,2.632528313117107e-05,-2.041254005702257e-06,2.635656253413903e-05,2.683015786314062e-05
6.9716878365,79.4716878365,8,0,-0.02370443655045174,8.587490657188026,-0.2608638400395129,-6.945846722711865e-06,2.749893365224204e-05,-2.086910720316103e-06,2.753051468470008e-05,2.790257890540504e-05
8.028312163500001,78.0283121635,8,0,-0.1674260535806447,8.827494583841789,-0.51625874453622,-7.597759038531493e-06,2.838192351115824e-05,-4.13006995628976e-06,2.85000572350556e-05,2.85571274270051e-05
9.471687836500001,78.0283121635,8,0,-0.06419916723396124,9.240402129228523,-0.5202497720923879,-7.597759038531493e-06,2.962064614731843e-05,-4.161998176739103e-06,2.97366399045074e-05,2.977533159367319e-05
8.028312163500001,79.4716878365,8,0,-0.1780687937305339,8.824833898804316,-0.3614184150162224,-7.629687258981161e-06,2.838192351115824e-05,-2.891347320129779e-06,2.843986634998743e-05,2.87337049136716e-05
9.471687836500001,79.4716878365,8,0,-0.07484190738391394,9.237741444190796,-0.3654094425724038,-7.629687258981161e-06,2.962064614731768e-05,-2.92327554057923e-06,2.967791021994374e-05,2.993196235357984e-05
10.5283121635,78.0283121635,8,0,-0.2426377641427462,9.485511123107154,-0.6142571189849213,-8.36484974374251e-06,3.054774580525709e-05,-4.91405695187937e-06,3.070227442898907e-05,3.069599907977699e-05
11.9716878365,78.0283121635,8,0,-0.1347910363829854,9.916898034146197,-0.6162824150205505,-8.36484974374251e-06,3.184190653837422e-05,-4.930259320164404e-06,3.199248299693418e-05,3.199310526212816e-05
10.5283121635,79.4716878365,8,0,-0.2480385535711087,9.484160925750064,-0.4524870273452802,-8.381052112027597e-06,3.054774580525709e-05,-3.619896218762242e-06,3.063171606197001e-05,3.083755657130255e-05
11.9716878365,79.4716878365,8,0,-0.1401918258113568,9.915547836789072,-0.4545123233809772,-8.381052112027597e-06,3.184190653837411e-05,-3.636098587047817e-06,3.192391388293051e-05,3.211342854535853e-05
13.0283121635,78.0283121635,8,0,-0.3292982223531107,10.16954754431126,-0.6946503804612555,-9.189392346978958e-06,3.28059907196785e-05,-5.557203043690044e-06,3.298903751498281e-05,3.296177336379406e-05
14.4716878365,78.0283121635,8,0,-0.2176510362617945,10.61613628867652,-0.6945313971581869,-9.189392346978958e-06,3.41457569527743e-05,-5.556251177265496e-06,3.432313075772796e-05,3.431111765097793e-05
13.0283121635,79.4716878365,8,0,-0.3289809335451443,10.16962686651325,-0.5271796013242678,-9.18844048055506e-06,3.28059907196785e-05,-4.217436810594142e-06,3.291161275507004e-05,3.306640348205587e-05
14.4716878365,79.4716878365,8,0,-0.2173337474538282,10.61621561087851,-0.5270606180212398,-9.18844048055506e-06,3.41457569527743e-05,-4.216484944169919e-06,3.424808296711239e-05,3.439410745350747e-05
15.5283121635,78.0283121635,8,0,-0.4247500740503325,10.87494124723537,-0.7566670572607643,-1.005915323474936e-05,3.513961205039344e-05,-6.053336458086114e-06,3.534138763265914e-05,3.53118255069347e-05
16.9716878365,78.0283121635,8,0,-0.3101253749606503,11.3334400435941,-0.7542881845464439,-1.005915323474936e-05,3.651510843946963e-05,-6.034305476371551e-06,3.670975081628497e-05,3.669646592587427e-05
15.5283121635,79.4716878365,8,0,-0.4184064134786487,10.87652716237829,-0.5847300086262819,-1.004012225303431e-05,3.513961205039344e-05,-4.677840069010255e-06,3.526037335453457e-05,3.537905037562534e-05
16.9716878365,79.4716878365,8,0,-0.3037817143889847,11.33502595873695,-0.5823511359119072,-1.004012225303431e-05,3.651510843946941e-05,-4.658809087295258e-06,3.663137053446329e-05,3.674226051006953e-05
18.0283121635,78.0283121635,8,0,-0.5263434957957958,11.5970200615496,-0.7999300116282184,-1.096191523578623e-05,3.753153899359535e-05,-6.399440093025747e-06,3.774175330972003e-05,3.771841784821414e-05
19.4716878365,78.0283121635,8,0,-0.4095565351892962,12.0641679039756,-0.7952315784771468,-1.096191523578623e-05,3.893298252087335e-05,-6.361852627817174e-06,3.913495705047469e-05,3.912580200411845e-05
18.0283121635,79.4716878365,8,0,-0.5138143407261992,11.600152350317,-0.6247495707183874,-1.092432777057744e-05,3.753153899359535e-05,-4.9979965657471e-06,3.766007802408589e-05,3.774876103660376e-05
19.4716878365,79.4716878365,8,0,-0.3970273801196273,12.06730019274329,-0.6200511375672753,-1.092432777057744e-05,3.893298252087422e-05,-4.960409100538202e-06,3.905605909145292e-05,3.913536147861285e-05
20.5283121635,78.0283121635,8,0,-0.6314690511879513,12.33116540560314,-0.824419448068283,-1.188563328828395e-05,3.99649045388804e-05,-6.595355584546264e-06,4.017379425080599e-05,4.016061194733323e-05
21.9716878365,78.0283121635,8,0,-0.513317396564525,12.80377202409684,-0.8173919556888416,-1.188563328828395e-05,4.138272439436152e-05,-6.539135645510733e-06,4.158265735684479e-05,4.158038113258933e-05
20.5283121635,79.4716878365,8,0,-0.6127290715093507,12.33585040052279,-0.6471919661330894,-1.182941334924815e-05,3.99649045388804e-05,-5.177535729064715e-06,4.009397391223783e-05,4.015530853359358e-05
21.9716878365,79.4716878365,8,0,-0.4945774168859156,12.80845701901653,-0.6401644737535667,-1.182941334924815e-05,4.138272439436163e-05,-5.121315790028533e-06,4.150566354130902e-05,4.155525526694059e-05
23.0283121635,78.0283121635,8,0,-0.737587229708494,13.07286859235524,-0.8304409055285488,-1.281857400895137e-05,4.242324927930356e-05,-6.64352724422839e-06,4.262227425648955e-05,4.2620932883747e-05
24.4716878365,78.0283121635,8,0,-0.6188416466385687,13.54785092463494,-0.8211203677134207,-1.281857400895137e-05,4.384819627614267e-05,-6.568962941707365e-06,4.403793389686064e-05,4.404400395067928e-05
23.0283121635,79.4716878365,8,0,-0.7127324622014313,13.07908228423201,-0.6523225309235927,-1.274400970643018e-05,4.242324927930356e-05,-5.218580247388742e-06,4.254638811024819e-05,4.25817330056783e-05
24.4716878365,79.4716878365,8,0,-0.5939868791315059,13.55406461651171,-0.6430019931084104,-1.274400970643018e-05,4.384819627614267e-05,-5.144015944867283e-06,4.396484868632604e-05,4.398617560752039e-05
25.5283121635,78.0283121635,8,0,-0.8422562553489477,13.81778230577002,-0.8185975313086712,-1.374944586173265e-05,4.489070838274321e-05,-6.54878025046937e-06,4.507297952545217e-05,4.508397370096241e-05
26.9716878365,78.0283121635,8,0,-0.7236521681806787,14.29219865444309,-0.807061679043296,-1.374944586173265e-05,4.631395742876244e-05,-6.456493432346368e-06,4.648696867024248e-05,4.650215283025919e-05
25.5283121635,79.4716878365,8,0,-0.811493982641371,13.82547287394691,-0.6406914005562133,-1.365715904360991e-05,4.489070838274321e-05,-5.125531204449706e-06,4.500267201124063e-05,4.501301062349771e-05
26.9716878365,79.4716878365,8,0,-0.692889895473102,14.29988922261999,-0.6291555482908109,-1.365715904360991e-05,4.631395742876244e-05,-5.033244386326487e-06,4.641937940257997e-05,4.641393345641574e-05
28.0283121635,78.0283121635,8,0,-0.9431591935352652,14.56176874080248,-0.7897654968060618,-1.466752441195483e-05,4.735218732539615e-05,-6.318123974448494e-06,4.751268329360491e-05,4.753581049510325e-05
29.4716878365,78.0283121635,8,0,-0.8253885450650973,15.03285133468315,-0.7761305408741925,-1.466752441195483e-05,4.876543510703817e-05,-6.20904432699354e-06,4.891701374773596e-05,4.894163662391348e-05
28.0283121635,79.4716878365,8,0,-0.906799311050317,14.57085871142372,-0.6131095241008913,-1.455844476449999e-05,4.735218732539615e-05,-4.90487619280713e-06,4.744918269295506e-05,4.743551289154587e-05
29.4716878365,79.4716878365,8,0,-0.7890286625801668,15.04194130530432,-0.5994745681689949,-1.455844476449999e-05,4.876543510703795e-05,-4.79579654535196e-06,4.885610697915566e-05,4.882559697948952e-05
30.5283121635,78.0283121635,8,0,-1.038130817005204,15.30094530453817,-0.7450712126371535,-1.556277485804719e-05,4.979352962812631e-05,-5.960569701097228e-06,4.992915089271108e-05,4.996376949299067e-05
31.9716878365,78.0283121635,8,0,-0.9218342599156806,15.76613153289627,-0.729488845381261,-1.556277485804719e-05,5.11890883132006e-05,-5.835910763050088e-06,5.131639944849579e-05,5.13504622947042e-05
30.5283121635,79.4716878365,8,0,-0.9965778376560488,15.31133354937546,-0.5706263770029218,-1.543811591999972e-05,4.979352962812631e-05,-4.565011016023374e-06,4.98732987071433e-05,4.983680329799338e-05
31.9716878365,79.4716878365,8,0,-0.8802812805665523,15.77651977773345,-0.5550440097470294,-1.543811591999972e-05,5.118908831320027e-05,-4.440352077976235e-06,5.126298786454831e-05,5.120938624925441e-05
33.0283121635,78.0283121635,8,0,-1.125184177805987,16.03172819204218,-0.6858690082972042,-1.64259719226129e-05,5.220167755677976e-05,-5.486952066377634e-06,5.231117672706164e-05,5.235635543784063e-05
34.4716878365,78.0283121635,8,0,-1.010943629831104,16.48869038394171,-0.6685233554035034,-1.64259719226129e-05,5.357256413247836e-05,-5.348186843228027e-06,5.367457155314824e-05,5.371781381027781e-05
33.0283121635,79.4716878365,8,0,-1.078929103422947,16.04329196063794,-0.5145081863348802,-1.628720669946378e-05,5.220167755677976e-05,-4.116065490679041e-06,5.226346395129176e-05,5.220558467534546e-05
34.4716878365,79.4716878365,8,0,-0.9646885554480917,16.50025415253736,-0.4971625334412064,-1.628720669946378e-05,5.357256413247803e-05,-3.977300267529651e-06,5.362912787224998e-05,5.355466643870103e-05
35.5283121635,78.0283121635,8,0,-1.202536419610579,16.75087363959937,-0.6137181180199667,-1.724881545443334e-05,5.456482478240644e-05,-4.909744944159734e-06,5.464864413969938e-05,5.470325823832099e-05
36.9716878365,78.0283121635,8,0,-1.090868091746324,17.19754695105639,-0.5948224120042354,-1.724881545443334e-05,5.59048447167775e-05,-4.758579296033883e-06,5.598214834539878e-05,5.603408411144789e-05
35.5283121635,79.4716878365,8,0,-1.152147870235222,16.76347077694321,-0.4462156262235572,-1.709764980630728e-05,5.456482478240644e-05,-3.569725009788458e-06,5.460925194469605e-05,5.453171723092217e-05
36.9716878365,79.4716878365,8,0,-1.040479542370967,17.21014408840023,-0.4273199202077852,-1.709764980630728e-05,5.59048447167775e-05,-3.418559361662282e-06,5.594484385810919e-05,5.585198787360364e-05
38.0283121635,78.0283121635,8,0,-1.268633079521782,17.45551626327371,-0.5303581093327387,-1.802403886508867e-05,5.687255850609328e-05,-4.24286487466191e-06,5.693259956023745e-05,5.699539866131888e-05
39.4716878365,78.0283121635,8,0,-1.15998113741022,17.89012403171996,-0.5101509360404608,-1.802403886508867e-05,5.817638181143203e-05,-4.081207488323686e-06,5.823098888146717e-05,5.829093298060637e-05
38.0283121635,79.4716878365,8,0,-1.214747284075618,17.46898771213538,-0.3673801961654355,-1.786238147875028e-05,5.687255850609372e-05,-2.939041569323484e-06,5.690144268050342e-05,5.680627029125912e-05
39.4716878365,79.4716878365,8,0,-1.1060953419641,17.90359548058145,-0.3471730228731982,-1.786238147875028e-05,5.817638181143192e-05,-2.777384182985586e-06,5.820173497156801e-05,5.809314769849294e-05
40.5283121635,78.0283121635,8,0,-1.322169981054567,18.14320363573614,-0.4376822509948443,-1.874550684796353e-05,5.91159876191993e-05,-3.501458007958754e-06,5.915533317753181e-05,5.922499225783083e-05
41.97168783650001,78.0283121635,8,0,-1.21690102266462,18.56427946929593,-0.4164233069858629,-1.874550684796353e-05,6.037921511987867e-05,-3.331386455886903e-06,6.041426491686216e-05,6.048135534131015e-05
40.5283121635,79.4716878365,8,0,-1.265479463697337,18.15737626507545,-0.2797788134098695,-1.857543529589184e-05,5.91159876191993e-05,-2.238230507278956e-06,5.913210470321642e-05,5.902158866418423e-05
41.97168783650001,79.4716878365,8,0,-1.160210505307327,18.57845209863549,-0.2585198694008881,-1.857543529589184e-05,6.037921511987943e-05,-2.068158955207105e-06,6.039275627290266e-05,6.027125914715516e-05
43.0283121635,78.0283121635,8,0,-1.362111804360235,18.81192614479111,-0.3377086926646319,-1.940829868978563e-05,6.128785310681971e-05,-2.701669541317056e-06,6.131045943303255e-05,6.138561898257225e-05
44.4716878365,78.0283121635,8,0,-1.260510333907283,19.21833202660291,-0.3156740743396805,-1.940829868978563e-05,6.250707075225513e-05,-2.525392594717444e-06,6.252653014409199e-05,6.259975011056326e-05
43.0283121635,79.4716878365,8,0,-1.303352822160184,18.82661589034112,-0.1853064869851906,-1.923202174318548e-05,6.128785310681971e-05,-1.482451895881524e-06,6.129467588637076e-05,6.117136237187617e-05
44.4716878365,79.4716878365,8,0,-1.201751351707178,19.23302177215314,-0.1632718686601984,-1.923202174318548e-05,6.250707075225578e-05,-1.306174949281588e-06,6.251228852518863e-05,6.238081963100419e-05
45.52831216350001,78.0283121635,8,0,-1.387706518564113,19.46014120359027,-0.2325496769979904,-2.000877382227738e-05,6.338261706634015e-05,-1.860397415983923e-06,6.339299178239173e-05,6.34722901802919e-05
46.97168783650001,78.0283121635,8,0,-1.289971571137213,19.85108099329787,-0.2100267933904362,-2.000877382227738e-05,6.455543643546296e-05,-1.68021434712349e-06,6.456378169662647e-05,6.464198285454056e-05
45.52831216350001,79.4716878365,8,0,-1.32764549561078,19.47515645932847,-0.08594725585755764,-1.982859075341727e-05,6.338261706633971e-05,-6.875780468604611e-07,6.338403741437142e-05,6.32506923863121e-05
46.97168783650001,79.4716878365,8,0,-1.229910548183843,19.86609624903621,-0.06342437225008478,-1.982859075341727e-05,6.455543643546296e-05,-5.073949780006783e-07,6.455619916078336e-05,6.441777169090626e-05
48.0283121635,78.0283121635,8,0,-1.398495049019684,20.08679102427413,-0.1243792928095635,-2.054461697628229e-05,6.539652731689296e-05,-9.950343424765078e-07,6.539940736978274e-05,6.548150717808869e-05
49.47168783650001,78.0283121635,8,0,-1.304738077950956,20.46181890854904,-0.10166154721564,-2.054461697628229e-05,6.652161096971768e-05,-8.132923777251196e-07,6.652351018505983e-05,6.660543761006089e-05
48.0283121635,79.4716878365,8,0,-1.33791439410223,20.10193618800349,0.01625616379355432,-2.036287501152993e-05,6.539652731689296e-05,1.300493103484346e-07,6.539657661998084e-05,6.525614729126415e-05
49.47168783650001,79.4716878365,8,0,-1.24415742303343,20.47696407227869,0.03897390938759981,-2.036287501152993e-05,6.652161096971855e-05,3.117912751007985e-07,6.652189069021513e-05,6.637955272277117e-05
50.5283121635,78.0283121635,8,0,-1.39431579983132,20.69131339539694,-0.01540048293441853,-2.101486127577777e-05,6.732765550513525e-05,-1.232038634753482e-07,6.732769846062584e-05,6.741130758888398e-05
51.97168783650001,78.0283121635,8,0,-1.304559885565431,21.0503370524605,0.007218099422367282,-2.101486127577777e-05,6.840472647632592e-05,5.774479537893826e-08,6.840473579883883e-05,6.84890548834445e-05
50.5283121635,79.4716878365,8,0,-1.333999580213225,20.70639245030146,0.1192333884644553,-2.083391261692349e-05,6.732765550513525e-05,9.538671077156426e-07,6.733023552909713e-05,6.718580743131781e-05
51.97168783650001,79.4716878365,8,0,-1.244243665947335,21.06541610736502,0.1418519708212547,-2.083391261692349e-05,6.840472647632592e-05,1.134815766570037e-06,6.840833409175345e-05,6.826513082749551e-05
53.0283121635,78.0283121635,8,0,-1.375303928635372,21.2736451866613,0.09218786945473269,-2.141988872096223e-05,6.917590774022445e-05,7.375029556378615e-07,6.917740864208745e-05,6.926129695113753e-05
54.4716878365,78.0283121635,8,0,-1.289484309992676,21.61692366123208,0.1144178808038188,-2.141988872096223e-05,7.02057431639368e-05,9.153430464305503e-07,7.020802918361238e-05,7.029335422134613e-05
53.0283121635,79.4716878365,8,0,-1.316023898371179,21.28846519422735,0.2209172974188987,-2.124204863016965e-05,6.917590774022445e-05,1.76733837935119e-06,6.91845431562161e-05,6.903929443304515e-05
54.4716878365,79.4716878365,8,0,-1.230204279728428,21.63174366879835,0.2431473087679712,-2.124204863016965e-05,7.020574316393745e-05,1.94517847014377e-06,7.021608592704711e-05,7.007502534068969e-05
55.5283121635,78.0283121635,8,0,-1.341885547263457,21.83421860933777,0.196222939385224,-2.176140863871328e-05,7.094300798769163e-05,1.569783515081792e-06,7.094965288055512e-05,7.103266461763608e-05
56.97168783650001,78.0283121635,8,0,-1.259851419471521,22.16235512050552,0.217784520589593,-2.176140863871328e-05,7.192741752119487e-05,1.742276164716744e-06,7.19355168430737e-05,7.202044091274141e-05
55.5283121635,79.4716878365,8,0,-1.284387997384996,21.84859299680739,0.3192741310731827,-2.158891598907789e-05,7.094300798769163e-05,2.554193048585462e-06,7.096063071616976e-05,7.081778510517504e-05
56.97168783650001,79.4716878365,8,0,-1.202353869593005,22.17672950797535,0.340835712277633,-2.158891598907789e-05,7.192741752119552e-05,2.726685698221064e-06,7.194728901078849e-05,7.181131161200861e-05
58.0283121635,78.0283121635,8,0,-1.294767272754583,22.37395055610486,0.2946082850914126,-2.204241571769855e-05,7.263245559773921e-05,2.356866280731301e-06,7.264712147010016e-05,7.272818387518805e-05
59.47168783650001,78.0283121635,8,0,-1.216284746673986,22.68788066042725,0.3152356038983831,-2.204241571769855e-05,7.357424591070637e-05,2.521884831187065e-06,7.35908716674791e-05,7.367399731226848e-05
58.0283121635,79.4716878365,8,0,-1.239761089269219,22.3877021019762,0.4123320742122939,-2.187739716724246e-05,7.263245559773921e-05,3.298656593698351e-06,7.266122990846206e-05,7.252400965502638e-05
59.47168783650001,79.4716878365,8,0,-1.161278563188622,22.70163220629859,0.4329593930192644,-2.187739716724246e-05,7.357424591070637e-05,3.463675144154115e-06,7.360565736262132e-05,7.347761041225503e-05
60.5283121635,78.0283121635,8,0,-1.234921756938306,22.89422560266897,0.3853418979500052,-2.226713010433775e-05,7.424945933409135e-05,3.082735183600042e-06,7.427406866237195e-05,7.435219709601852e-05
61.9716878365,78.0283121635,8,0,-1.159677834792435,23.19520129125246,0.4047870751501905,-2.226713010433775e-05,7.51523863998418e-05,3.238296601201524e-06,7.517928981221533e-05,7.525925992590427e-05
60.5283121635,79.4716878365,8,0,-1.183067951071108,22.90718905413577,0.4982077811688788,-2.211156868673616e-05,7.424945933409135e-05,3.98566224935103e-06,7.429065522906307e-05,7.416223486681375e-05
61.9716878365,79.4716878365,8,0,-1.107824028925202,23.2081647427194,0.5176529583690777,-2.211156868673616e-05,7.515238639984223e-05,4.141223666952621e-06,7.519644683352808e-05,7.507906290362323e-05
63.0283121635,78.0283121635,8,0,-1.163569963584167,23.39687345324865,0.4665415934735652,-2.244092264606825e-05,7.580085102126301e-05,3.732332747788522e-06,7.583628728301247e-05,7.591058723262437e-05
64.47168783650001,78.0283121635,8,0,-1.091177361337813,23.68644386223406,0.4845780337934283,-2.244092264606825e-05,7.666956224821925e-05,3.876624270347426e-06,7.670745549472326e-05,7.67829836971306e-05
63.0283121635,79.4716878365,8,0,-1.115472789397938,23.40889774679521,0.5751304968430954,-2.229663112350956e-05,7.580085102126301e-05,4.601043974744763e-06,7.58547718135901e-05,7.573823331799021e-05
64.47168783650001,79.4716878365,8,0,-1.043080187151593,23.69846815578059,0.5931669371629449,-2.229663112350956e-05,7.666956224821914e-05,4.745335497303559e-06,7.672641317908216e-05,7.662229234415415e-05
65.5283121635,78.0283121635,8,0,-1.082161029776261,23.88414173681027,0.5364676168877804,-2.257022868473225e-05,7.729498238161388e-05,4.291740935102244e-06,7.734107086294036e-05,7.741073708071483e-05
66.97168783650001,78.0283121635,8,0,-1.012163666974004,24.1641311880193,0.5528927627252008,-2.257022868473225e-05,7.813495073524096e-05,4.423142101801607e-06,7.81834953082785e-05,7.825339475485687e-05
65.5283121635,79.4716878365,8,0,-1.038360640876401,23.89509183403524,0.6414636610911389,-2.243882751803267e-05,7.729498238161388e-05,5.131709288729112e-06,7.736095056493523e-05,7.725923977588948e-05
66.97168783650001,79.4716878365,8,0,-0.9683632780741354,24.1750812852443,0.6578888069286001,-2.243882751803267e-05,7.813495073524107e-05,5.2631104554288e-06,7.82037594088649e-05,7.811535349505092e-05
68.0283121635,78.0283121635,8,0,-0.9923505385488429,24.35866510139522,0.5935426111313731,-2.266245380447247e-05,7.874160875530377e-05,4.748340889050985e-06,7.879716470339972e-05,7.88614772903441e-05
69.47168783650001,78.0283121635,8,0,-0.9242295235426985,24.6311491614198,0.6081801986256523,-2.266245380447247e-05,7.95590609353775e-05,4.865441589005219e-06,7.961692333764635e-05,7.968013199841907e-05
68.0283121635,79.4716878365,8,0,-0.9533169718971237,24.36842349305815,0.6957241336405756,-2.254535310451731e-05,7.874160875530377e-05,5.565793069124605e-06,7.881801222806405e-05,7.873389546315418e-05
69.47168783650001,79.4716878365,8,0,-0.885195956890934,24.64090755308291,0.7103617211349361,-2.254535310451731e-05,7.955906093537804e-05,5.682893769079489e-06,7.96380739478651e-05,7.956766982753631e-05
70.5283121635,78.0283121635,8,0,-0.8959779444041835,24.82343150719582,0.6363693634204768,-2.272587462785004e-05,8.015176317854996e-05,5.090954907363814e-06,8.021470682405706e-05,8.027302276934009e-05
71.97168783650001,78.0283121635,8,0,-0.829157905895876,25.09071166122905,0.6490713168401017,-2.272587462785004e-05,8.095360364064965e-05,5.192570534720813e-06,8.101857769023877e-05,8.107417577082888e-05
70.5283121635,79.4716878365,8,0,-0.8621060686183908,24.83189947614227,0.7365994211829245,-2.262425900049266e-05,8.015176317854996e-05,5.892795369463397e-06,8.023616162125628e-05,8.017217957556934e-05
71.97168783650001,79.4716878365,8,0,-0.7952860301100833,25.0991796301755,0.7493013746026037,-2.262425900049266e-05,8.095360364064965e-05,5.994410996820829e-06,8.104026049145769e-05,8.098995655655431e-05
73.0283121635,78.0283121635,8,0,-0.7950437387639253,25.28174648876371,0.6637469872708976,-2.276953715505553e-05,8.1537623755055e-05,5.309975898167181e-06,8.160515890749803e-05,8.165689411239856e-05
74.47168783650001,78.0283121635,8,0,-0.7288993918334397,25.54632387648565,0.6743951348708822,-2.276953715505553e-05,8.233135591822083e-05,5.395161078967058e-06,8.240054803453302e-05,8.244775722664814e-05
73.0283121635,79.4716878365,8,0,-0.7666486784972637,25.28884525383038,0.762963507666681,-2.268435197425554e-05,8.1537623755055e-05,6.103708061333448e-06,8.162691241509589e-05,8.158532449579224e-05
74.47168783650001,79.4716878365,8,0,-0.7005043315667328,25.5534226415525,0.7736116552666655,-2.268435197425554e-05,8.233135591822138e-05,6.188893242133325e-06,8.24224594324701e-05,8.239412297407207e-05
75.5283121635,78.0283121635,8,0,-0.6916867294715221,25.737195951923,0.6746863910511887,-2.280315429584726e-05,8.291237642973079e-05,5.39749112840951e-06,8.298122617473016e-05,8.302581407494374e-05
76.97168783650001,78.0283121635,8,0,-0.6255496132560685,26.00174441678481,0.6831942196798286,-2.280315429584726e-05,8.370602182431624e-05,5.465553757438629e-06,8.37760924027843e-05,8.381423163996797e-05
75.5283121635,79.4716878365,8,0,-0.6689991864617246,25.74286783767544,0.7738920653742885,-2.273509166681787e-05,8.291237642973079e-05,6.191136522994307e-06,8.300300169596016e-05,8.298570463155263e-05
76.97168783650001,79.4716878365,8,0,-0.6028620702462888,26.00741630253719,0.7823998940030097,-2.273509166681787e-05,8.370602182431602e-05,6.259199152024077e-06,8.379795942870692e-05,8.379313729840423e-05
78.0283121635,78.0283121635,8,0,-0.5881615510434912,26.19360780521875,0.6684260161673988,-2.283700320751417e-05,8.429007421753478e-05,5.347408129339191e-06,8.435676366817906e-05,8.439355406478108e-05
79.47168783650001,78.0283121635,8,0,-0.521326932873893,26.46094627789714,0.6747407001391637,-2.283700320751417e-05,8.509208963556995e-05,5.397925601113309e-06,8.515953994449823e-05,8.518787479837757e-05
78.0283121635,79.4716878365,8,0,-0.57132239378556,26.1978175945331,0.7686779434219445,-2.278648573574027e-05,8.429007421753435e-05,6.149423547375556e-06,8.437829212532035e-05,8.438667385503011e-05
79.47168783650001,79.4716878365,8,0,-0.5044877756159352,26.4651560672116,0.7749926273936821,-2.278648573574027e-05,8.509208963556985e-05,6.199941019149457e-06,8.518109614097816e-05,8.520081321709891e-05
80.5283121635,78.0283121635,8,0,-0.4868162361715074,26.6550124158433,0.6444488860352787,-2.288182188842346e-05,8.568549271963577e-05,5.15559108828223e-06,8.574666479401824e-05,8.577467001722171e-05
81.97168783650001,78.0283121635,8,0,-0.4185502397490231,26.92807640153324,0.6485538261372786,-2.288182188842346e-05,8.650468467670557e-05,5.188430609098229e-06,8.656617463778261e-05,8.658350363521411e-05
80.5283121635,79.4716878365,8,0,-0.4758697292327865,26.65774904257798,0.7468478806690317,-2.28489823676073e-05,8.568549271963577e-05,5.974783045352254e-06,8.576765792089823e-05,8.580229091408535e-05
81.97168783650001,79.4716878365,8,0,-0.4076037328102746,26.93081302826803,0.7509528207710046,-2.28489823676073e-05,8.65046846767059e-05,6.007622566168037e-06,8.65871335296317e-05,8.663141917987291e-05
83.02831216350002,78.0283121635,8,0,-0.390069380520206,27.1256015448313,0.6025019829792916,-2.294870325352969e-05,8.711398044787631e-05,4.820015863834333e-06,8.716672635508067e-05,8.71839803923378e-05
84.47168783650002,78.0283121635,8,0,-0.319616459963858,27.40741322705669,0.6044200727286462,-2.294870325352969e-05,8.795941549455248e-05,4.835360581829169e-06,8.801209336067666e-05,8.801567978364131e-05
83.02831216350002,79.4716878365,8,0,-0.3849544745218187,27.12688027133089,0.7081813638137044,-2.293335853553453e-05,8.711398044787631e-05,5.665450910509635e-06,8.718684930330556e-05,8.724678525359428e-05
84.47168783650002,79.4716878365,8,0,-0.3145015539654707,27.40869195355629,0.7100994535631268,-2.293335853553453e-05,8.795941549455248e-05,5.680795628505014e-06,8.803212152654275e-05,8.809886836653917e-05
85.5283121635,78.0283121635,8,0,-0.3003861387081193,27.60968507569184,0.542618859334664,-2.304898370441945e-05,8.859130115318036e-05,4.340950874677312e-06,8.863348291873884e-05,8.863542499420965e-05
86.97168783650002,78.0283121635,8,0,-0.226977082262672,27.90332130147362,0.5424166571610395,-2.304898370441945e-05,8.947220983052573e-05,4.339333257288316e-06,8.951403043488184e-05,8.949690100599826e-05
85.5283121635,79.4716878365,8,0,-0.3009253445043889,27.60955027424304,0.6527324440028215,-2.305060132180847e-05,8.859130115318123e-05,5.221859552022572e-06,8.865232868661074e-05,8.873340052181913e-05
86.97168783650002,79.4716878365,8,0,-0.2275162880590047,27.90318650002457,0.6525302418291428,-2.305060132180847e-05,8.947220983052584e-05,5.220241934633142e-06,8.953272262429703e-05,8.961489149620906e-05
88.02831216350002,78.0283121635,8,0,-0.2202520157979455,28.11164452485849,0.4651461892139357,-2.319412207044022e-05,9.013346409218552e-05,3.721169513711486e-06,9.01640024911828e-05,9.013941046408244e-05
89.47168783650001,78.0283121635,8,0,-0.1431127189389478,28.42020171229449,0.4629391170254336,-2.319412207044022e-05,9.105913565449349e-05,3.703512936203469e-06,9.108914006592748e-05,9.103330293619803e-05
88.02831216350002,79.4716878365,8,0,-0.2261375416338609,28.11017314339951,0.5808551345023506,-2.321177864794796e-05,9.013346409218552e-05,4.646841076018805e-06,9.018107100049747e-05,9.027171701812967e-05
89.47168783650001,79.4716878365,8,0,-0.1489982447748819,28.41873033083543,0.5786480623139298,-2.321177864794796e-05,9.105913565449328e-05,4.629184498511438e-06,9.110599920783381e-05,9.118470674141115e-05
90.52831216350002,78.0283121635,8,0,-0.1521431819045098,28.63588203160123,0.3707746787081566,-2.339556380737541e-05,9.175653704664752e-05,2.966197429665252e-06,9.177563541336438e-05,9.169641744412461e-05
91.97168783650001,78.0283121635,8,0,-0.07050447570400387,28.96243685640325,0.3667332896150401,-2.339556380737541e-05,9.273620152105359e-05,2.933866316920321e-06,9.27547283181198e-05,9.26141874989775e-05
90.52831216350002,79.4716878365,8,0,-0.1629202194860815,28.63318777220583,0.4932327380089427,-2.342789492012012e-05,9.175653704664752e-05,3.945861904071542e-06,9.179032039011469e-05,9.186121531459262e-05
91.97168783650001,79.4716878365,8,0,-0.08128151328557554,28.95974259700786,0.4891913489158263,-2.342789492012012e-05,9.273620152105359e-05,3.91353079132661e-06,9.276915356986571e-05,9.279648138507739e-05
93.02831216350002,78.0283121635,8,0,-0.09849185430872698,29.18676329010704,0.2605743767139165,-2.366458456587355e-05,9.34764360117895e-05,2.084595013711332e-06,9.348570943361123e-05,9.328131630027958e-05
94.47168783650002,78.0283121635,8,0,-0.01160070731838925,29.53432787806839,0.2549316382644603,-2.366458456587355e-05,9.451912977567355e-05,2.039453106115682e-06,9.452792764470572e-05,9.418617602585396e-05
93.02831216350002,79.4716878365,8,0,-0.1135391568406012,29.18300146447407,0.3909110971995447,-2.370972647346918e-05,9.34764360117895e-05,3.127288777596358e-06,9.34972963980933e-05,9.347549487414216e-05
94.47168783650002,79.4716878365,8,0,-0.02664800985020932,29.53056605243564,0.3852683587500343,-2.370972647346918e-05,9.45191297756742e-05,3.082146870000274e-06,9.453921373860701e-05,9.439532815488581e-05
95.5283121635,78.0283121635,8,0,-0.06164517965369232,29.76855272856641,0.1360339702240405,-2.401210675774494e-05,9.530868487513545e-05,1.088271761792324e-06,9.53111662339639e-05,9.480451240718475e-05
96.97168783650002,78.0283121635,8,0,0.03122239395555582,30.1400230230034,0.1290933956675001,-2.401210675774494e-05,9.642309575844641e-05,1.032747165340001e-06,9.642530970229141e-05,9.55889790916462e-05
95.5283121635,79.4716878365,8,0,-0.08015337847112303,29.76392567886205,0.2753353306378706,-2.406763135419723e-05,9.530868487513545e-05,2.202682645102965e-06,9.531884475880277e-05,9.502318585827461e-05
96.97168783650002,79.4716878365,8,0,0.01271419513813399,30.13539597329908,0.2683947560813303,-2.406763135419723e-05,9.642309575844652e-05,2.147158048650642e-06,9.643266064747978e-05,9.581869172318555e-05
98.02831216350002,78.0283121635,8,0,-0.0438160280734099,30.38533918192588,-0.0008968859852931735,-2.444848263537561e-05,9.726813820462154e-05,-7.175087882345388e-09,9.726813831036283e-05,9.601521195158714e-05
99.47168783650002,78.0283121635,8,0,0.05570797311744968,30.78343518668932,-0.008752554940704066,-2.444848263537561e-05,9.846242621891184e-05,-7.002043952563253e-08,9.846243619130078e-05,9.639523509638927e-05
98.02831216350002,79.4716878365,8,0,-0.06476447862131707,30.3801020692889,0.1483891158011574,-2.451132798701934e-05,9.726813820462154e-05,1.187112926409259e-06,9.727103114640324e-05,9.625064100476097e-05
99.47168783650002,79.4716878365,8,0,0.03475952256960468,30.77819807405259,0.1405334468457058,-2.451132798701934e-05,9.84624262189126e-05,1.124267574765647e-06,9.846499577364683e-05,9.663524252345714e-05
0.5283121635,80.5283121635,8,0,-0.03684644460637965,7.187660749057436,-0.1204165001391792,-5.868037221986363e-06,2.30299915526689e-05,-9.633320011134339e-07,2.303801762669757e-05,2.462788485912953e-05
1.9716878365,80.5283121635,8,0,0.0464906259814577,7.521009031408785,-0.1273191786164193,-5.868037221986363e-06,2.403003639972294e-05,-1.018553428931354e-06,2.403870878326649e-05,2.500084006011267e-05
0.5283121635,81.97168783650001,8,0,-0.05525358721246154,7.183058963405916,0.004589105742549421,-5.923258649804608e-06,2.30299915526689e-05,3.671284594039537e-08,2.303000319067591e-05,2.483722044843251e-05
1.9716878365,81.97168783650001,8,0,0.02808348337537581,7.516407245757265,-0.002313572734704162,-5.923258649804608e-06,2.403003639972294e-05,-1.85085818776333e-08,2.403003925890396e-05,2.520579898918675e-05
3.0283121635,80.5283121635,8,0,-0.06050808951429643,7.731919508814068,-0.2423312595301573,-6.379161493497002e-06,2.479054889981645e-05,-1.938650076241258e-06,2.482066416519666e-05,2.544297223248684e-05
4.4716878365,80.5283121635,8,0,0.02930140574238349,8.091157489840787,-0.2484137940870638,-6.379161493497002e-06,2.586826284289661e-05,-1.987310352696511e-06,2.589885179521695e-05,2.627794459014208e-05
3.0283121635,81.97168783650001,8,0,-0.07672818166615558,7.727864485775968,-0.1076170166450837,-6.427821769952472e-06,2.479054889981602e-05,-8.609361331606696e-07,2.479648346761298e-05,2.564239565759818e-05
4.4716878365,81.97168783650001,8,0,0.01308131359056031,8.087102466802831,-0.1136995512020038,-6.427821769952472e-06,2.586826284289661e-05,-9.095964096160307e-07,2.587466610842449e-05,2.646662139740998e-05
5.528312163500001,80.5283121635,8,0,-0.1020484191759836,8.31288152449504,-0.3538538993490579,-6.976860160959179e-06,2.668285961372491e-05,-2.830831194792463e-06,2.674227398968138e-05,2.697181058564177e-05
6.9716878365,80.5283121635,8,0,-0.006397933959605417,8.695483465360553,-0.3587380961489641,-6.976860160959179e-06,2.783066543632145e-05,-2.869904769191712e-06,2.788972165115642e-05,2.803251538141665e-05
5.528312163500001,81.97168783650001,8,0,-0.1150729439756608,8.309625393294986,-0.2103781715244229,-7.015933735358103e-06,2.668285961372448e-05,-1.683025372195383e-06,2.670386044181799e-05,2.715119783756251e-05
6.9716878365,81.97168783650001,8,0,-0.01942245875926485,8.69222733416057,-0.215262368324302,-7.015933735358103e-06,2.783066543632124e-05,-1.722098946594416e-06,2.785192874708021e-05,2.819726971399159e-05
8.028312163500001,80.5283121635,8,0,-0.1593007378643452,8.926909113326849,-0.4529638626557476,-7.651289651827383e-06,2.869354975293739e-05,-3.623710901245981e-06,2.878365063270597e-05,2.885441093701319e-05
9.471687836500001,80.5283121635,8,0,-0.05849757356824048,9.330121770511267,-0.456350189452574,-7.651289651827383e-06,2.990318772449064e-05,-3.650801515620592e-06,2.999170586394684e-05,3.003916655773856e-05
8.028312163500001,81.97168783650001,8,0,-0.1683309426559183,8.924651562128956,-0.3017591162115911,-7.678380266202102e-06,2.869354975293739e-05,-2.414072929692729e-06,2.873356236753815e-05,2.900760843890953e-05
9.471687836500001,81.97168783650001,8,0,-0.0675277783598407,9.327864219313266,-0.3051454430083632,-7.678380266202102e-06,2.990318772449032e-05,-2.441163544066906e-06,2.994278829829138e-05,3.017542313039095e-05
10.5283121635,80.5283121635,8,0,-0.2299362438310975,9.570059998033372,-0.5381067318447442,-8.391843978686208e-06,3.080814098877166e-05,-4.304853854757954e-06,3.092597412147257e-05,3.093453942054777e-05
11.9716878365,80.5283121635,8,0,-0.1247078834107529,9.99097343971475,-0.5397669268117193,-8.391843978686208e-06,3.20708813138158e-05,-4.318135414493754e-06,3.218576175784062e-05,3.219598795283955e-05
10.5283121635,81.97168783650001,8,0,-0.234363430409716,9.568953201388718,-0.3802641912142813,-8.405125538422063e-06,3.080814098877166e-05,-3.042113529714251e-06,3.086705327100446e-05,3.105794400063419e-05
11.9716878365,81.97168783650001,8,0,-0.1291350699894074,9.989866643069952,-0.3819243861812971,-8.405125538422063e-06,3.207088131381537e-05,-3.055395089450377e-06,3.212845973359977e-05,3.230122116549971e-05
13.0283121635,80.5283121635,8,0,-0.3115218791544745,10.23818481679231,-0.6081560560676909,-9.187417866728163e-06,3.301140891705896e-05,-4.865248448541527e-06,3.315117879803459e-05,3.313828728559181e-05
14.4716878365,80.5283121635,8,0,-0.2026194730672981,10.67379444114101,-0.6079258102542683,-9.187417866728163e-06,3.431823779010508e-05,-4.863406482034146e-06,3.445373331422301e-05,3.44512484064269e-05
13.0283121635,81.97168783650001,8,0,-0.310907890318699,10.23833831400125,-0.4448024469368584,-9.185575900220837e-06,3.301140891705896e-05,-3.558419575494867e-06,3.308629529845283e-05,3.323004737083983e-05
14.4716878365,81.97168783650001,8,0,-0.2020054842315226,10.67394793834996,-0.4445722011233409,-9.185575900220837e-06,3.431823779010508e-05,-3.556577608986727e-06,3.439080716942076e-05,3.452437059047281e-05
15.5283121635,80.5283121635,8,0,-0.4015695374193675,10.9270128928312,-0.6623757405380907,-1.002663283400693e-05,3.528769688699532e-05,-5.299005924304726e-06,3.544208579782642e-05,3.542543829843668e-05
16.9716878365,80.5283121635,8,0,-0.2897543177835615,11.37427377137442,-0.6601478909839614,-1.002663283400693e-05,3.662947952262499e-05,-5.281183127871692e-06,3.677845315785646e-05,3.677401345890549e-05
15.5283121635,81.97168783650001,8,0,-0.3956286052747879,10.92849812586734,-0.4946529110844362,-1.000881003757319e-05,3.528769688699532e-05,-3.957223288675489e-06,3.537396099010004e-05,3.54849475917296e-05
16.9716878365,81.97168783650001,8,0,-0.2838133856389549,11.37575900441067,-0.4924250615301307,-1.000881003757319e-05,3.662947952262532e-05,-3.939400492241046e-06,3.671251909217167e-05,3.681496954422389e-05
18.0283121635,80.5283121635,8,0,-0.4975782729723863,11.63222774129157,-0.7003846931730179,-1.089803266654489e-05,3.762119139051091e-05,-5.603077545384143e-06,3.778241872654198e-05,3.776995226141732e-05
19.4716878365,80.5283121635,8,0,-0.3836095584708503,12.08810259929771,-0.6961031812977697,-1.089803266654489e-05,3.898881596452934e-05,-5.568825450382158e-06,3.914374559520022e-05,3.914233251075583e-05
18.0283121635,81.97168783650001,8,0,-0.4861609079718332,11.6350820825417,-0.5294316214206058,-1.086378057154323e-05,3.762119139051091e-05,-4.235452971364847e-06,3.771351364806371e-05,3.779750457589539e-05
19.4716878365,81.97168783650001,8,0,-0.3721921934702519,12.09095694054803,-0.5251501095454255,-1.086378057154323e-05,3.898881596452988e-05,-4.201200876363404e-06,3.907717075321213e-05,3.915181825025807e-05
20.5283121635,80.5283121635,8,0,-0.5970711971615961,12.34953402202649,-0.7221246397736244,-1.17902550485383e-05,3.999616582821405e-05,-5.776997118188995e-06,4.015677988321934e-05,4.015210335601933e-05
21.9716878365,80.5283121635,8,0,-0.4816956609381813,12.81103616692015,-0.7157793237678816,-1.17902550485383e-05,4.138067226289502e-05,-5.726234590143053e-06,4.15343992911682e-05,4.153846836005978e-05
20.5283121635,81.97168783650001,8,0,-0.5801503544796511,12.35376423269698,-0.5490613354384348,-1.173949252049247e-05,3.999616582821405e-05,-4.392490683507479e-06,4.008923185789211e-05,4.014865006177848e-05
21.9716878365,81.97168783650001,8,0,-0.4647748182562186,12.81526637759071,-0.5427160194327327,-1.173949252049247e-05,4.138067226289524e-05,-4.341728155461862e-06,4.146924138488118e-05,4.151773154320626e-05
23.0283121635,80.5283121635,8,0,-0.6976285893802419,13.07471763306703,-0.7278313308513621,-1.269218559247039e-05,4.239719929731867e-05,-5.822650646810897e-06,4.255062767356527e-05,4.255529823739783e-05
24.4716878365,80.5283121635,8,0,-0.5815705001510585,13.53894998998376,-0.7194536046163295,-1.269218559247039e-05,4.378989636806888e-05,-5.755628836930636e-06,4.393614499910937e-05,4.394696412101712e-05
23.0283121635,81.97168783650001,8,0,-0.6752879860868393,13.08030278389038,-0.5537441970076,-1.262516378259019e-05,4.239719929731867e-05,-4.4299535760608e-06,4.248622123298816e-05,4.252227698543491e-05
24.4716878365,81.97168783650001,8,0,-0.5592298968576559,13.54453514080711,-0.5453664707725809,-1.262516378259019e-05,4.378989636806888e-05,-4.362931766180647e-06,4.387412386185666e-05,4.389766469080422e-05
25.5283121635,80.5283121635,8,0,-0.7969184503018978,13.80370043227203,-0.7180088195401662,-1.359309938678369e-05,4.480937614351199e-05,-5.744070556321329e-06,4.495027316190872e-05,4.496478732949481e-05
26.9716878365,80.5283121635,8,0,-0.680870660871181,14.26789158999489,-0.7076678921590779,-1.359309938678369e-05,4.620194961668059e-05,-5.661343137272623e-06,4.633565340919509e-05,4.635386616467757e-05
25.5283121635,81.97168783650001,8,0,-0.7693426439521307,13.81059438385947,-0.5439371353942266,-1.351037196773439e-05,4.480937614351199e-05,-4.351497083153813e-06,4.489043464237449e-05,4.490400191762965e-05
26.9716878365,81.97168783650001,8,0,-0.6532948545214139,14.27478554158233,-0.5335962080130706,-1.351037196773439e-05,4.620194961668059e-05,-4.268769664104565e-06,4.627814482699056e-05,4.627797864561229e-05
28.0283121635,80.5283121635,8,0,-0.8927253422477497,14.53259073585246,-0.6934061163267808,-1.448279368387477e-05,4.721847062852608e-05,-5.547248930614247e-06,4.734290097608402e-05,4.736715372475711e-05
29.4716878365,80.5283121635,8,0,-0.7773408773917625,14.99412859527641,-0.681205747768082,-1.448279368387477e-05,4.860308420679793e-05,-5.449645982144656e-06,4.872055678187447e-05,4.874642798650683e-05
28.0283121635,81.97168783650001,8,0,-0.8601910260912735,14.54072431489158,-0.5203294190427726,-1.438519073540534e-05,4.721847062852608e-05,-4.162635352342181e-06,4.728870914558923e-05,4.728069061147657e-05
29.4716878365,81.97168783650001,8,0,-0.7448065612353219,15.00226217431539,-0.5081290504840331,-1.438519073540534e-05,4.86030842067975e-05,-4.065032403872265e-06,4.866860163177768e-05,4.864617391970886e-05
30.5283121635,80.5283121635,8,0,-0.9829779551378355,15.25773033554339,-0.6549953266374455,-1.535171372487579e-05,4.961111943784912e-05,-5.239962613099564e-06,4.971661319144598e-05,4.975013007549737e-05
31.9716878365,80.5283121635,8,0,-0.8688621310631328,15.7141936318422,-0.6410707955216356,-1.535171372487579e-05,5.098050932674555e-05,-5.128566364173085e-06,5.107949214892138e-05,5.11130209166494e-05
30.5283121635,81.97168783650001,8,0,-0.9458458721622707,15.26701335628728,-0.4838215905253376,-1.524031747594909e-05,4.961111943784912e-05,-3.8705727242027e-06,4.966882060926844e-05,4.96403006229698e-05
31.9716878365,81.97168783650001,8,0,-0.8317300480875227,15.72347665258627,-0.4698970594094599,-1.524031747594909e-05,5.098050932674609e-05,-3.759176475275679e-06,5.103381597534472e-05,5.099082197732286e-05
33.0283121635,80.5283121635,8,0,-1.065775455706809,15.9757383598223,-0.6039503377353527,-1.619107214611963e-05,5.19749831159968e-05,-4.831602701882822e-06,5.206049172321909e-05,5.210255928474269e-05
34.4716878365,80.5283121635,8,0,-0.9534785365195093,16.4249260365715,-0.5884654301151996,-1.619107214611963e-05,5.33225461462444e-05,-4.707723440921597e-06,5.340216114237602e-05,5.344313754137523e-05
33.0283121635,81.97168783650001,8,0,-1.024482368719842,15.98606163156918,-0.4355049589543892,-1.606719288515883e-05,5.197498311599724e-05,-3.484039671635113e-06,5.201955321637854e-05,5.197185944562949e-05
34.4716878365,81.97168783650001,8,0,-0.9121854495326049,16.43524930831812,-0.4200200513342902,-1.606719288515883e-05,5.332254614624408e-05,-3.360160410674322e-06,5.336320081268094e-05,5.330158229893282e-05
35.5283121635,80.5283121635,8,0,-1.139412360532971,16.68355192749109,-0.5416252146095971,-1.699296109569838e-05,5.429889605639785e-05,-4.333001716876777e-06,5.4364673544585e-05,5.441442081074394e-05
36.9716878365,80.5283121635,8,0,-1.029422816335304,17.12351010428176,-0.5247690610785301,-1.699296109569838e-05,5.561877058676986e-05,-4.19815248862824e-06,5.567940052889565e-05,5.572743779468114e-05
35.5283121635,81.97168783650001,8,0,-1.094462617783369,16.69478936317849,-0.3766408983131098,-1.685811186744957e-05,5.429889605639785e-05,-3.013127186504878e-06,5.433077931546817e-05,5.426550203865628e-05
36.9716878365,81.97168783650001,8,0,-0.9844730735857015,17.13474753996916,-0.3597847447820292,-1.685811186744957e-05,5.561877058676986e-05,-2.878277958256233e-06,5.564733562667826e-05,5.556925688880794e-05
38.0283121635,80.5283121635,8,0,-1.202401444460436,17.37846324006007,-0.4695316551027668,-1.775045521432145e-05,5.657300352376058e-05,-3.756253240822134e-06,5.662043282970363e-05,5.667688706065452e-05
39.4716878365,80.5283121635,8,0,-1.095139916472607,17.80750935201139,-0.4515152982532993,-1.775045521432145e-05,5.786014185961451e-05,-3.612122386026395e-06,5.79032574836412e-05,5.795781371067585e-05
38.0283121635,81.97168783650001,8,0,-1.154357826195279,17.3904741446265,-0.3086393631209568,-1.760632435952609e-05,5.657300352376101e-05,-2.469114904967654e-06,5.659354442401421e-05,5.651253387104006e-05
39.4716878365,81.97168783650001,8,0,-1.047096298207424,17.81952025657792,-0.29062300627153,-1.760632435952609e-05,5.786014185961527e-05,-2.32498405017224e-06,5.787804474102624e-05,5.778585966206636e-05
40.5283121635,80.5283121635,8,0,-1.253494066378265,18.05815255450777,-0.3893151036644872,-1.845770305601666e-05,5.878888342752747e-05,-3.114520829315898e-06,5.882026442883985e-05,5.888239188427918e-05
41.97168783650001,80.5283121635,8,0,-1.149308165137229,18.47489615947191,-0.3703677400432352,-1.845770305601666e-05,6.00391142424199e-05,-2.962941920345882e-06,6.006706410187536e-05,6.012745978021876e-05
40.5283121635,81.97168783650001,8,0,-1.202967763388404,18.07078413025523,-0.2330362518029199,-1.830612414704708e-05,5.878888342752747e-05,-1.864290014423359e-06,5.880015221595111e-05,5.870550280295904e-05
41.97168783650001,81.97168783650001,8,0,-1.098781862147305,18.48752773521963,-0.2140888881816002,-1.830612414704708e-05,6.003911424242066e-05,-1.712711105452801e-06,6.004847355067101e-05,5.994468879779058e-05
43.0283121635,80.5283121635,8,0,-1.291697263366889,18.72071637845204,-0.3027293931254454,-1.911000434553568e-05,6.093965022174004e-05,-2.421835145003564e-06,6.095796367971278e-05,6.102470077129621e-05
44.4716878365,80.5283121635,8,0,-1.19085732713716,19.12407612337095,-0.2830942952253252,-1.911000434553568e-05,6.214972945649678e-05,-2.264754361802602e-06,6.216550638694324e-05,6.22309408497179e-05
43.0283121635,81.97168783650001,8,0,-1.23933700229983,18.73380644371881,-0.1514694887806895,-1.89529235623345e-05,6.093965022174004e-05,-1.211755910245516e-06,6.094424472870887e-05,6.083827043767145e-05
44.4716878365,81.97168783650001,8,0,-1.138497066070055,19.1371661886379,-0.1318343908806099,-1.89529235623345e-05,6.214972945649733e-05,-1.05467512704488e-06,6.215315811314252e-05,6.204039488380892e-05
45.52831216350001,80.5283121635,8,0,-1.316287021593355,19.36469023194488,-0.2116100413689304,-1.970387065465464e-05,6.302003835949831e-05,-1.692880330951443e-06,6.302869832210543e-05,6.309897602361493e-05
46.97168783650001,80.5283121635,8,0,-1.218982946041598,19.75390653415191,-0.191540219156503,-1.970387065465464e-05,6.418768726611939e-05,-1.532321753252024e-06,6.419468384064207e-05,6.426425214313765e-05
45.52831216350001,81.97168783650001,8,0,-1.26276749569362,19.37807011341996,-0.06565392804132146,-1.954331207695554e-05,6.302003835949874e-05,-5.252314243305717e-07,6.30208736734021e-05,6.29060770063489e-05
46.97168783650001,81.97168783650001,8,0,-1.165463420141899,19.76728641562684,-0.04558410582886693,-1.954331207695554e-05,6.418768726611939e-05,-3.646728466309354e-07,6.418808432830508e-05,6.406904010229524e-05
48.0283121635,80.5283121635,8,0,-1.326817260792938,19.98906541094315,-0.1178465479172278,-2.023706756329192e-05,6.502646312365242e-05,-9.427723833378221e-07,6.502906913994784e-05,6.510183229146121e-05
49.47168783650001,80.5283121635,8,0,-1.233156481424667,20.36370852841623,-0.09760025093964708,-2.023706756329192e-05,6.615039247607167e-05,-7.808020075171767e-07,6.615215673480849e-05,6.622486769266684e-05
48.0283121635,81.97168783650001,8,0,-1.272827135519443,20.00256294226152,0.02264462113513773,-2.007509718747144e-05,6.502646312365242e-05,1.811569690811018e-07,6.502655953143316e-05,6.490559575843621e-05
49.47168783650001,81.97168783650001,8,0,-1.1791663561512,20.3772060597345,0.04289091811267776,-2.007509718747144e-05,6.615039247607135e-05,3.43127344901422e-07,6.615073383658194e-05,6.602814521852328e-05
50.5283121635,80.5283121635,8,0,-1.323124247274719,20.59329934729772,-0.02335419511114388,-2.070863706911727e-05,6.695705730917247e-05,-1.868335608891511e-07,6.69571568542114e-05,6.703137934797343e-05
51.97168783650001,80.5283121635,8,0,-1.233130917575841,20.95327266609323,-0.003190382272046945,-2.070863706911727e-05,6.8036977265559e-05,-2.552305817637556e-08,6.803697910065388e-05,6.811177476605558e-05
50.5283121635,81.97168783650001,8,0,-1.269354079703993,20.6067418891904,0.1116357994371459,-2.054732656640509e-05,6.695705730917247e-05,8.930863954971675e-07,6.695933600226397e-05,6.683497413570937e-05
51.97168783650001,81.97168783650001,8,0,-1.179360750005115,20.96671520798591,0.1317996122761887,-2.054732656640509e-05,6.8036977265559e-05,1.054396898209509e-06,6.804011471033371e-05,6.79167222704842e-05
53.0283121635,80.5283121635,8,0,-1.305326355005721,21.17731936519622,0.069954051384744,-2.111889982817528e-05,6.881168305263247e-05,5.596324110779521e-07,6.881255368360556e-05,6.888725017256306e-05
54.4716878365,80.5283121635,8,0,-1.218941720430121,21.52285790349862,0.08978013802996053,-2.111889982817528e-05,6.984829866753966e-05,7.182411042396843e-07,6.984971638253112e-05,6.992549296516961e-05
53.0283121635,81.97168783650001,8,0,-1.252456790618441,21.19053675629304,0.1995310032480344,-2.096029113501344e-05,6.881168305263247e-05,1.596248025984275e-06,6.881877826919399e-05,6.869386004600153e-05
54.4716878365,81.97168783650001,8,0,-1.166072156042859,21.53607529459536,0.219357089893278,-2.096029113501344e-05,6.984829866753944e-05,1.754856719146224e-06,6.98567759345447e-05,6.973529179851135e-05
55.5283121635,80.5283121635,8,0,-1.273819302716766,21.74151985939893,0.1601949311137973,-2.146943765621279e-05,7.059191899224998e-05,1.281559448910378e-06,7.05963788305585e-05,7.067061342450551e-05
56.97168783650001,80.5283121635,8,0,-1.190903228230796,22.07318415734281,0.1794359593849791,-2.146943765621279e-05,7.158691188608162e-05,1.435487675079832e-06,7.159244751665014e-05,7.166807758465022e-05
55.5283121635,81.97168783650001,8,0,-1.222509893993543,21.75434721157973,0.2845690428427122,-2.131550943004312e-05,7.059191899224998e-05,2.276552342741697e-06,7.060601441395458e-05,7.048341242792499e-05
56.97168783650001,81.97168783650001,8,0,-1.139593819507554,22.08601150952369,0.303810071113921,-2.131550943004312e-05,7.158691188608184e-05,2.430480568911368e-06,7.160280551211115e-05,7.148588424525052e-05
58.0283121635,80.5283121635,8,0,-1.229267186436946,22.28675314209126,0.2455410078431203,-2.176305751027123e-05,7.230102380384159e-05,1.964328062744962e-06,7.231127788834225e-05,7.238417022637715e-05
59.47168783650001,80.5283121635,8,0,-1.149600757448457,22.60541885804522,0.2639614080584505,-2.176305751027123e-05,7.325702095170345e-05,2.111691264467604e-06,7.326875186587235e-05,7.334310754643976e-05
58.0283121635,81.97168783650001,8,0,-1.180146119196065,22.29903340890148,0.3650406513258935,-2.161569430854859e-05,7.230102380384159e-05,2.920325210607148e-06,7.23237200793913e-05,7.220629602255143e-05
59.47168783650001,81.97168783650001,8,0,-1.100479690207576,22.61769912485543,0.3834610515411965,-2.161569430854859e-05,7.325702095170345e-05,3.067688412329572e-06,7.328181273098385e-05,7.317202578326667e-05
60.5283121635,80.5283121635,8,0,-1.172589783965322,22.8143144009667,0.3242450747655408,-2.200373882946239e-05,7.394387791026568e-05,2.593960598124326e-06,7.396140675249225e-05,7.403213581207088e-05
61.9716878365,80.5283121635,8,0,-1.095878870586796,23.1211580544808,0.3416244786474384,-2.200373882946239e-05,7.486440887080799e-05,2.732995829179507e-06,7.488368192541125e-05,7.495565872164359e-05
60.5283121635,81.97168783650001,8,0,-1.126244706946965,22.82590067022129,0.4393114448333294,-2.186470359840731e-05,7.394387791026568e-05,3.514491558666635e-06,7.397609709777823e-05,7.386666081368631e-05
61.9716878365,81.97168783650001,8,0,-1.049533793568403,23.13274432373553,0.456690848715227,-2.186470359840731e-05,7.486440887080842e-05,3.653526789721816e-06,7.489889564607163e-05,7.479870924887541e-05
63.0283121635,80.5283121635,8,0,-1.104946717147511,23.32592136333642,0.39466256394709,-2.219656658554117e-05,7.552690573639454e-05,3.15730051157672e-06,7.555240100955614e-05,7.562020697227481e-05
64.47168783650001,80.5283121635,8,0,-1.030826372466423,23.62240274206077,0.4107987988495533,-2.219656658554117e-05,7.64163498725676e-05,3.286390390796427e-06,7.644372297196028e-05,7.651226364758482e-05
63.0283121635,81.97168783650001,8,0,-1.061916757407483,23.33667885327143,0.5058430809687353,-2.206747670632108e-05,7.552690573639454e-05,4.046744647749883e-06,7.556883722065853e-05,7.547010691376905e-05
64.47168783650001,81.97168783650001,8,0,-0.9877964127263947,23.63316023199578,0.5219793158711986,-2.206747670632108e-05,7.64163498725676e-05,4.175834526969589e-06,7.646059511576112e-05,7.637235101123049e-05
65.5283121635,80.5283121635,8,0,-1.027719110687011,23.82368935627586,0.4552718724130049,-2.234765263921912e-05,7.705798122863237e-05,3.64217497930404e-06,7.709133192765059e-05,7.715551626721025e-05
66.97168783650001,80.5283121635,8,0,-0.9557586666538977,24.11153113240832,0.4699835267382946,-2.234765263921912e-05,7.792150655702972e-05,3.759868213906357e-06,7.795674082867324e-05,7.802085843089336e-05
65.5283121635,81.97168783650001,8,0,-0.9884880324861127,23.83349712582609,0.5632125384627149,-2.222995940461643e-05,7.705798122863237e-05,4.50570030770172e-06,7.710907226234328e-05,7.702363567637258e-05
66.97168783650001,81.97168783650001,8,0,-0.9165275884529631,24.12133890195869,0.5779241927880859,-2.222995940461643e-05,7.792150655703016e-05,4.623393542304687e-06,7.797483675844148e-05,7.790073437434543e-05
68.0283121635,80.5283121635,8,0,-0.9424893785279327,24.31010248300254,0.5046927258729007,-2.246404799769141e-05,7.854631944843047e-05,4.037541806983205e-06,7.858665005513893e-05,7.864657351917961e-05
69.47168783650001,80.5283121635,8,0,-0.8721981088444579,24.59126756173644,0.5178213487252206,-2.246404799769141e-05,7.938981468463217e-05,4.142570789801765e-06,7.943191863956498e-05,7.949071676782959e-05
68.0283121635,81.97168783650001,8,0,-0.9074797175884664,24.31885489823741,0.610129630398222,-2.235901901487302e-05,7.854631944843047e-05,4.881037043185776e-06,7.860531187280323e-05,7.853558735880514e-05
69.47168783650001,81.97168783650001,8,0,-0.8371884479049729,24.60001997697138,0.6232582532504877,-2.235901901487302e-05,7.938981468463239e-05,4.986066026003901e-06,7.945086193805951e-05,7.939293926978673e-05
70.5283121635,80.5283121635,8,0,-0.8510197011912091,24.78798159798332,0.5417029058687984,-2.255364832219852e-05,8.000235687449959e-05,4.333623246950387e-06,8.004811702877731e-05,8.010319381650686e-05
71.97168783650001,80.5283121635,8,0,-0.7818529388274502,25.06464864743836,0.553114947532239,-2.255364832219852e-05,8.083235802286469e-05,4.424919580257912e-06,8.087968298340836e-05,8.093236898338417e-05
70.5283121635,81.97168783650001,8,0,-0.8205875900888273,24.79558962575892,0.6454530494144086,-2.246235198889138e-05,8.000235687449959e-05,5.163624395315269e-06,8.006736977134098e-05,8.00155644115122e-05
71.97168783650001,81.97168783650001,8,0,-0.751420827725096,25.07225667521384,0.6568650910778492,-2.246235198889138e-05,8.083235802286437e-05,5.254920728622794e-06,8.08991483456024e-05,8.085925602186665e-05
73.0283121635,80.5283121635,8,0,-0.7552296346396066,25.26044966000865,0.5652538498215941,-2.262509455885366e-05,8.143762261973936e-05,4.522030798572753e-06,8.148672550385694e-05,8.153640837052544e-05
74.47168783650001,80.5283121635,8,0,-0.6865952611070751,25.53498715413878,0.5748424859227795,-2.262509455885366e-05,8.226123510212974e-05,4.598739887382236e-06,8.231161882358938e-05,8.2357499499161e-05
73.0283121635,81.97168783650001,8,0,-0.729659938369779,25.26684208407611,0.6682054101203919,-2.254838547004418e-05,8.143762261973936e-05,5.345643280963135e-06,8.150627860537254e-05,8.147433664758776e-05
74.47168783650001,81.97168783650001,8,0,-0.6610255648372112,25.54137957820638,0.6777940462216044,-2.254838547004418e-05,8.226123510213018e-05,5.422352369772836e-06,8.233131993195804e-05,8.231107655752606e-05
75.5283121635,80.5283121635,8,0,-0.6571731216076797,25.73089488053449,0.5744857805601715,-2.268766989357217e-05,8.286460211499652e-05,4.595886244481372e-06,8.291460617541661e-05,8.295834812106263e-05
76.97168783650001,80.5283121635,8,0,-0.5884383839042524,26.00583383134821,0.582172788668697,-2.268766989357217e-05,8.368941896743764e-05,4.657382309349576e-06,8.374037172773701e-05,8.377880595518986e-05
75.5283121635,81.97168783650001,8,0,-0.6366744333182242,25.73601955260686,0.6775878871152708,-2.26261738287038e-05,8.286460211499652e-05,5.420703096922167e-06,8.293419267970585e-05,8.292371818787409e-05
76.97168783650001,81.97168783650001,8,0,-0.5679396956147702,26.01095850342067,0.6852748952238235,-2.26261738287038e-05,8.368941896743796e-05,5.482199161790588e-06,8.376004490942091e-05,8.376074633894961e-05
78.0283121635,80.5283121635,8,0,-0.5590149709709165,26.20293187469808,0.5687431193693966,-2.275119340686539e-05,8.429659397581057e-05,4.549944954955172e-06,8.434491972379515e-05,8.438207509791285e-05
79.47168783650001,80.5283121635,8,0,-0.4895136276718359,26.4809372478944,0.5744809898487107,-2.275119340686539e-05,8.513061009539954e-05,4.595847918789685e-06,8.517953457336774e-05,8.520977921241344e-05
78.0283121635,81.97168783650001,8,0,-0.5437139830260787,26.20675712168429,0.6729951343180038,-2.270529044303088e-05,8.429659397581057e-05,5.38396107454403e-06,8.436427669282256e-05,8.437639126956725e-05
79.47168783650001,81.97168783650001,8,0,-0.4742126397270257,26.4847624948805,0.6787330047973179,-2.270529044303088e-05,8.513061009539922e-05,5.429864038378543e-06,8.519891934749538e-05,8.522133634843289e-05
80.5283121635,80.5283121635,8,0,-0.463006642583319,26.68036077825087,0.5475909742162121,-2.282590987886732e-05,8.574755980446944e-05,4.380727793729697e-06,8.579173029089494e-05,8.582130093982605e-05
81.97168783650001,80.5283121635,8,0,-0.3920464899684513,26.96420138871034,0.5513654355513824,-2.282590987886732e-05,8.659908163584785e-05,4.41092348441106e-06,8.664351469572036e-05,8.666430525462007e-05
80.5283121635,81.97168783650001,8,0,-0.4529414123560533,26.68287708580769,0.6540312031385948,-2.279571418818552e-05,8.574755980446944e-05,5.232249625108758e-06,8.5810577415455e-05,8.584561639914145e-05
81.97168783650001,81.97168783650001,8,0,-0.3819812597411856,26.96671769626716,0.6578056644738736,-2.279571418818552e-05,8.659908163584785e-05,5.262445315790988e-06,8.666233265187903e-05,8.670623613703579e-05
83.02831216350002,80.5283121635,8,0,-0.3714609381499949,27.16712403093658,0.5108334652634603,-2.292237422682925e-05,8.723196564951706e-05,4.086667722107682e-06,8.726985591875122e-05,8.728984483411878e-05
84.47168783650002,80.5283121635,8,0,-0.2983318173720848,27.45964051404822,0.5126665866978111,-2.292237422682925e-05,8.810951509885198e-05,4.101332693582488e-06,8.814737628469686e-05,8.815584643273323e-05
83.02831216350002,81.97168783650001,8,0,-0.3665726143249692,27.16834611189284,0.6205271464303522,-2.290770925535417e-05,8.723196564951706e-05,4.964217171442818e-06,8.728787408835254e-05,8.734468093461284e-05
84.47168783650002,81.97168783650001,8,0,-0.2934434935470591,27.46086259500448,0.6223602678647844,-2.290770925535417e-05,8.810951509885198e-05,4.978882142918275e-06,8.816531007845583e-05,8.82283248216012e-05
85.5283121635,80.5283121635,8,0,-0.286724967692626,27.66726026262529,0.4585345485580747,-2.305132810671663e-05,8.876461281455503e-05,3.668276388464598e-06,8.879469044234352e-05,8.880046722598277e-05
86.97168783650002,80.5283121635,8,0,-0.2107074015290014,27.97133052727979,0.4584885490697038,-2.305132810671663e-05,8.967682360851853e-05,3.667908392557631e-06,8.970665198954467e-05,8.969560238621632e-05
85.5283121635,81.97168783650001,8,0,-0.2868476329948484,27.66722959630015,0.5725608978035253,-2.305169610262363e-05,8.876461281455634e-05,4.580487182428202e-06,8.881150237053802e-05,8.888572134165229e-05
86.97168783650002,81.97168783650001,8,0,-0.2108300668312602,27.9712998609545,0.5725148983151814,-2.305169610262363e-05,8.96768236085194e-05,4.580119186521452e-06,8.972332657359298e-05,8.979811814823886e-05
88.02831216350002,80.5283121635,8,0,-0.2111505507884761,28.1848544705174,0.3910418238035657,-2.322356533893705e-05,9.036045474628647e-05,3.128334590428525e-06,9.038199083492348e-05,9.036217752402044e-05
89.47168783650001,80.5283121635,8,0,-0.1315252001108433,28.50335587322794,0.3892236661624403,-2.322356533893705e-05,9.131595895441806e-05,3.113789329299522e-06,9.133711735658347e-05,9.12881595074074e-05
88.02831216350002,81.97168783650001,8,0,-0.2159989711647841,28.18364236542333,0.5104798498199877,-2.323811060006597e-05,9.036045474628647e-05,4.083838798559902e-06,9.03971461302207e-05,9.047701366815566e-05
89.47168783650001,81.97168783650001,8,0,-0.1363736204871513,28.50214376813386,0.5086616921788352,-2.323811060006597e-05,9.131595895441806e-05,4.069293537430681e-06,9.13520858448666e-05,9.141939391509159e-05
90.52831216350002,80.5283121635,8,0,-0.1470610369816505,28.7239834620951,0.3090135636430472,-2.344978208801735e-05,9.203439590828961e-05,2.472108509144377e-06,9.204762417176082e-05,9.197376960587169e-05
91.97168783650001,80.5283121635,8,0,-0.06311919931796783,29.05975081274983,0.3055803458947042,-2.344978208801735e-05,9.304169796025381e-05,2.444642767157634e-06,9.305452211790994e-05,9.292090924575109e-05
90.52831216350002,81.97168783650001,8,0,-0.1562162843105197,28.72169465026288,0.4349263201385988,-2.347724783000396e-05,9.203439590828961e-05,3.47941056110879e-06,9.206059143420964e-05,9.211647577780111e-05
91.97168783650001,81.97168783650001,8,0,-0.07227444664683702,29.05746200091761,0.4314931023902558,-2.347724783000396e-05,9.304169796025381e-05,3.451944819122046e-06,9.306725884547734e-05,9.307855859690328e-05
93.02831216350002,80.5283121635,8,0,-0.09671340588193456,29.28865537772174,0.2134488823522611,-2.374040720099958e-05,9.38010679334151e-05,1.707591058818089e-06,9.380726938994048e-05,9.360797713488169e-05
94.47168783650002,80.5283121635,8,0,-0.007768797836808616,29.64443380990224,0.2086139574980771,-2.374040720099958e-05,9.48684032299566e-05,1.668911659984617e-06,9.487427363762693e-05,9.453794187643601e-05
93.02831216350002,81.97168783650001,8,0,-0.1096065388264522,29.28543209448561,0.3468657944200167,-2.377908659983313e-05,9.38010679334151e-05,2.774926355360134e-06,9.381743792459641e-05,9.377574682847646e-05
94.47168783650002,81.97168783650001,8,0,-0.02066193078128187,29.64121052666629,0.342030869565765,-2.377908659983313e-05,9.486840322995714e-05,2.73624695652612e-06,9.488417695634626e-05,9.471841768055232e-05
95.5283121635,80.5283121635,8,0,-0.06225445042442601,29.88274201762012,0.1057205763120654,-2.410540785545426e-05,9.567457801672391e-05,8.457646104965228e-07,9.56760709807934e-05,9.517223233427972e-05
96.97168783650002,80.5283121635,8,0,0.03234348130748721,30.26113374454777,0.09976023577224348,-2.410540785545426e-05,9.680975319750686e-05,7.980818861779478e-07,9.681107008728872e-05,9.597518135038424e-05
95.5283121635,81.97168783650001,8,0,-0.07814869186397821,29.87876845726023,0.2476174739098253,-2.415309057977291e-05,9.567457801672391e-05,1.980939791278603e-06,9.568276446988321e-05,9.536076142834226e-05
96.97168783650002,81.97168783650001,8,0,0.01644923986793501,30.25716018418788,0.241657133370017,-2.415309057977291e-05,9.680975319750686e-05,1.933257066960136e-06,9.681747714837595e-05,9.617300633122739e-05
98.02831216350002,80.5283121635,8,0,-0.04566987319885385,30.50990269961486,-0.01239027462354432,-2.455406575392822e-05,9.766822453732664e-05,-9.912219698835455e-08,9.766824463433247e-05,9.641098085501752e-05
99.47168783650002,80.5283121635,8,0,0.05518113818008175,30.9133067451306,-0.0191298244933062,-2.455406575392822e-05,9.887843667387387e-05,-1.530385959464496e-07,9.887848411033183e-05,9.679865822753509e-05
98.02831216350002,81.97168783650001,8,0,-0.06364200618502913,30.50540966636832,0.138886242444995,-2.460798215288675e-05,9.766822453732664e-05,1.11108993955996e-06,9.76707485266724e-05,9.661360841924115e-05
99.47168783650002,81.97168783650001,8,0,0.03720900519397929,30.90881371188435,0.1321466925752602,-2.460798215288675e-05,9.887843667387474e-05,1.057173540602082e-06,9.888069926159158e-05,9.70051108067818e-05
0.5283121635,83.02831216350002,8,0,-0.03744615872240242,7.30086851717015,-0.1105150038695983,-5.960522521647807e-06,2.33927361819224e-05,-8.841200309567861e-07,2.339939209560036e-05,2.497869866298474e-05
1.9716878365,83.02831216350002,8,0,0.04479068290150101,7.629815883665763,-0.1163381742881977,-5.960522521647807e-06,2.437957828140924e-05,-9.307053943055817e-07,2.438671412495471e-05,2.534436541570593e-05
0.5283121635,84.47168783650001,8,0,-0.05297461317194685,7.296986403557764,0.0128402585661486,-6.00710788499644e-06,2.33927361819224e-05,1.027220685291888e-07,2.33928259085136e-05,2.515588874401902e-05
1.9716878365,84.47168783650001,8,0,0.02926222845195658,7.625933770053377,0.007017088147630475,-6.00710788499644e-06,2.437957828140924e-05,5.61367051810438e-08,2.437960420828197e-05,2.551797700412163e-05
3.0283121635,83.02831216350002,8,0,-0.0595005063094014,7.837842693643779,-0.2140093859239449,-6.460675775105107e-06,2.512869702470761e-05,-1.712075087391559e-06,2.515187769807013e-05,2.577727046555255e-05
4.4716878365,83.02831216350002,8,0,0.02881519104007602,8.191105483041689,-0.2191467027812087,-6.460675775105107e-06,2.618848539290134e-05,-1.75317362224967e-06,2.621200364885664e-05,2.659432230391572e-05
3.0283121635,84.47168783650001,8,0,-0.07320001792857278,7.834417815738986,-0.08153583989971508,-6.501774309962622e-06,2.512869702470761e-05,-6.522867191977207e-07,2.51320595476155e-05,2.594633186844932e-05
4.4716878365,84.47168783650001,8,0,0.01511567942090464,8.187680605136896,-0.08667315675689762,-6.501774309962622e-06,2.618848539290134e-05,-6.933852540551809e-07,2.619216178650781e-05,2.675453086140896e-05
5.528312163500001,83.02831216350002,8,0,-0.09838411373565359,8.40933249585709,-0.3089587520401589,-7.042295160639763e-06,2.698857127773121e-05,-2.471670016321271e-06,2.703339174376261e-05,2.727268425642205e-05
6.9716878365,83.02831216350002,8,0,-0.004543537096298955,8.78469480241451,-0.3130771493943307,-7.042295160639763e-06,2.811465819740346e-05,-2.504617195154646e-06,2.81592096117168e-05,2.830895173830657e-05
5.528312163500001,84.47168783650001,8,0,-0.1093665066800211,8.406586897620864,-0.1681978870811678,-7.075242339472758e-06,2.698857127773078e-05,-1.345583096649342e-06,2.700185434793037e-05,2.742520407326927e-05
6.9716878365,84.47168783650001,8,0,-0.01552593004061276,8.781949204178497,-0.1723162844354345,-7.075242339472758e-06,2.811465819740368e-05,-1.378530275483476e-06,2.812815366897671e-05,2.844931837046526e-05
8.028312163500001,83.02831216350002,8,0,-0.1521506720867043,9.012140703532697,-0.3935674516325385,-7.696594713503611e-06,2.8960570788974e-05,-3.148539613060308e-06,2.902805476659767e-05,2.911153265104195e-05
9.471687836500001,83.02831216350002,8,0,-0.05340156714003985,9.407137123319355,-0.3964014742684902,-7.696594713503611e-06,3.014556004833397e-05,-3.171211794147921e-06,3.021188152338153e-05,3.026795700002872e-05
8.028312163500001,84.47168783650001,8,0,-0.1597080657825569,9.010251355108872,-0.2454437942124338,-7.719266894591278e-06,2.896057078897443e-05,-1.96355035369947e-06,2.898683025464193e-05,2.924226137684003e-05
9.471687836500001,84.47168783650001,8,0,-0.06095896083588404,9.405247774895564,-0.2482778168484668,-7.719266894591278e-06,3.014556004833451e-05,-1.986222534787734e-06,3.01715892830607e-05,3.038450766065843e-05
10.5283121635,83.02831216350002,8,0,-0.2186689549500631,9.642735033986268,-0.4664416498153303,-8.413928683029216e-06,3.103168727271611e-05,-3.731533198522642e-06,3.111974095038374e-05,3.114182289886781e-05
11.9716878365,83.02831216350002,8,0,-0.1156726766396816,10.05472014722779,-0.4677877846401008,-8.413928683029216e-06,3.226764261244068e-05,-3.742302277120807e-06,3.235352500798769e-05,3.237284458461274e-05
10.5283121635,84.47168783650001,8,0,-0.2222586478160093,9.641837610769782,-0.3119472323497583,-8.424697761627055e-06,3.103168727271611e-05,-2.495577858798066e-06,3.107110860261559e-05,3.124757973044825e-05
11.9716878365,84.47168783650001,8,0,-0.1192623695055919,10.05382272401145,-0.313293367174461,-8.424697761627055e-06,3.226764261244112e-05,-2.506346937395688e-06,3.230619918399771e-05,3.246329019198952e-05
13.0283121635,83.02831216350002,8,0,-0.2956812390148711,10.29734387813284,-0.5265595623237239,-9.18405506735386e-06,3.318804540123699e-05,-4.212476498589792e-06,3.329248515878727e-05,3.329257183944438e-05
14.4716878365,83.02831216350002,8,0,-0.1891285854480294,10.72355449240021,-0.5262704340543021,-9.18405506735386e-06,3.446667724403909e-05,-4.210163472434417e-06,3.456796101363619e-05,3.457429174311216e-05
13.0283121635,84.47168783650001,8,0,-0.2949102302966295,10.2975366303124,-0.3667305819734612,-9.181742041199136e-06,3.318804540123699e-05,-2.933844655787689e-06,3.323877229951997e-05,3.337163177914752e-05
14.4716878365,84.47168783650001,8,0,-0.1883575767297878,10.72374724457977,-0.366441453703958,-9.181742041199136e-06,3.446667724403909e-05,-2.931531629631664e-06,3.451584401999952e-05,3.463755668445517e-05
15.5283121635,83.02831216350002,8,0,-0.3808544058637877,10.97204232557313,-0.5732412040018768,-9.996367959222625e-06,3.541521896652505e-05,-4.585929632015015e-06,3.553070382950606e-05,3.552565348401479e-05
16.9716878365,83.02831216350002,8,0,-0.2714517111771908,11.40965310431952,-0.5712200047802273,-9.996367959222625e-06,3.672805130276421e-05,-4.569760038241819e-06,3.683951874938816e-05,3.684310219298068e-05
15.5283121635,84.47168783650001,8,0,-0.3754645412727222,10.9733897917209,-0.4091371619719818,-9.980198365449429e-06,3.541521896652505e-05,-3.273097295775854e-06,3.547414164533346e-05,3.557735475661718e-05
16.9716878365,84.47168783650001,8,0,-0.2660618465861346,11.41100057046725,-0.4071159627503729,-9.980198365449429e-06,3.67280513027641e-05,-3.256927702002983e-06,3.678475817710078e-05,3.687900593342057e-05
18.0283121635,83.02831216350002,8,0,-0.4718247858086686,11.66282929805698,-0.6061191216425501,-1.084010275303332e-05,3.769851358242926e-05,-4.848952973140401e-06,3.781931417161499e-05,3.781654597772957e-05
19.4716878365,83.02831216350002,8,0,-0.3602814592463299,12.10900260430633,-0.602314508119816,-1.084010275303332e-05,3.903703350117732e-05,-4.818516064958528e-06,3.915313967842765e-05,3.915859514712289e-05
18.0283121635,84.47168783650001,8,0,-0.4616791497480084,11.66536570707214,-0.4388041317989746,-1.080966584485134e-05,3.769851358242926e-05,-3.510433054391797e-06,3.776194127691789e-05,3.784101574051203e-05
19.4716878365,84.47168783650001,8,0,-0.3501358231856968,12.11153901332139,-0.4349995182761999,-1.080966584485134e-05,3.9037033501177e-05,-3.479996146209599e-06,3.909769776143112e-05,3.916762423417376e-05
20.5283121635,83.02831216350002,8,0,-0.5662379045426404,12.3656968685361,-0.6251109927135975,-1.170451878936533e-05,4.002322030294964e-05,-5.00088794170878e-06,4.014380703265128e-05,4.014663763121902e-05
21.9716878365,83.02831216350002,8,0,-0.4532551937460125,12.81762771172261,-0.6195125574225325,-1.170451878936533e-05,4.137901283250917e-05,-4.95610045938026e-06,4.149444239737064e-05,4.150397072852769e-05
20.5283121635,84.47168783650001,8,0,-0.5513087437665574,12.36942915873012,-0.4556369265185339,-1.165973130703708e-05,4.002322030294964e-05,-3.645095412148271e-06,4.008741090360918e-05,4.014459286292451e-05
21.9716878365,84.47168783650001,8,0,-0.4383260329699117,12.82136000191671,-0.4500384912275502,-1.165973130703708e-05,4.137901283250939e-05,-3.600307929820402e-06,4.144004048268865e-05,4.14871123005242e-05
23.0283121635,83.02831216350002,8,0,-0.6617842350583487,13.07669291042154,-0.6303944416045676,-1.257906388052395e-05,4.237484470139561e-05,-5.043155532836541e-06,4.249030551929478e-05,4.250016193865077e-05
24.4716878365,83.02831216350002,8,0,-0.5480450073791716,13.53164982113825,-0.6230287585052586,-1.257906388052395e-05,4.373971543354574e-05,-4.984230068042069e-06,4.384977683590563e-05,4.386447384156757e-05
23.0283121635,84.47168783650001,8,0,-0.6421424134603182,13.08160336582105,-0.4597856000859236,-1.252013841572986e-05,4.237484470139561e-05,-3.678284800687388e-06,4.243639234136023e-05,4.247276375918507e-05
24.4716878365,84.47168783650001,8,0,-0.5284031857811411,13.53656027653776,-0.4524199169866688,-1.252013841572986e-05,4.373971543354574e-05,-3.61935933589335e-06,4.379786629519983e-05,4.382309418531574e-05
25.5283121635,83.02831216350002,8,0,-0.7562318798758101,13.79197813299109,-0.6223839933450508,-1.345352452199547e-05,4.473931552947214e-05,-4.979071946760406e-06,4.484562564454328e-05,4.486299328379655e-05
26.9716878365,83.02831216350002,8,0,-0.6423912534350937,14.24734063875396,-0.6133111569705803,-1.345352452199547e-05,4.610540304676074e-05,-4.906489255764642e-06,4.620628183888802e-05,4.622668722951063e-05
25.5283121635,84.47168783650001,8,0,-0.7320376495437806,13.7980266905741,-0.4516230536839492,-1.338094183099938e-05,4.473931552947214e-05,-3.612984429471593e-06,4.479541072929614e-05,4.481174102447591e-05
26.9716878365,84.47168783650001,8,0,-0.6181970231030642,14.25338919633697,-0.4425502173095058,-1.338094183099938e-05,4.610540304676074e-05,-3.540401738476046e-06,4.615803430313961e-05,4.616244399378807e-05
28.0283121635,83.02831216350002,8,0,-0.847456856192164,14.50787835763802,-0.6017097739070506,-1.431816462592534e-05,4.710317622939539e-05,-4.813678191256405e-06,4.71973455602635e-05,4.722219676294103e-05
29.4716878365,83.02831216350002,8,0,-0.7341335635075943,14.9611715283763,-0.5910203003981981,-1.431816462592534e-05,4.846305574161022e-05,-4.728162403185585e-06,4.855195139317902e-05,4.85782854420936e-05
28.0283121635,84.47168783650001,8,0,-0.8189515935017826,14.51500467331061,-0.4317248348801694,-1.423264883785419e-05,4.710317622939539e-05,-3.453798679041355e-06,4.71517582955601e-05,4.714885171008545e-05
29.4716878365,84.47168783650001,8,0,-0.7056283008172128,14.96829784404889,-0.4210353613712898,-1.423264883785419e-05,4.846305574161022e-05,-3.368282890970319e-06,4.850826280561526e-05,4.849306473879032e-05
30.5283121635,83.02831216350002,8,0,-0.9334713726375545,15.22093262241223,-0.569197382948325,-1.516385449036996e-05,4.945376148982918e-05,-4.5535790635866e-06,4.953388439152048e-05,4.956588817984228e-05
31.9716878365,83.02831216350002,8,0,-0.8212397953554538,15.66985893154063,-0.5570093188754933,-1.516385449036996e-05,5.080054041721438e-05,-4.456074551003946e-06,5.087570975180935e-05,5.090798035802793e-05
30.5283121635,84.47168783650001,8,0,-0.9009698684433731,15.22905799846078,-0.400850017025201,-1.506634997778741e-05,4.945376148982918e-05,-3.206800136201608e-06,4.949358327477942e-05,4.947241905702147e-05
31.9716878365,84.47168783650001,8,0,-0.7887382911613088,15.67798430758903,-0.3886619529523965,-1.506634997778741e-05,5.080054041721395e-05,-3.109295623619172e-06,5.083721415179396e-05,5.080385178444983e-05
33.0283121635,83.02831216350002,8,0,-1.012450209552812,15.92793741350603,-0.5258483021845052,-1.598219060137382e-05,5.177935989086153e-05,-4.206786417476041e-06,5.18445887434372e-05,5.188322420996492e-05
34.4716878365,83.02831216350002,8,0,-0.901833075705146,16.37040594889669,-0.5123043900459086,-1.598219060137382e-05,5.310676549703352e-05,-4.098435120367268e-06,5.316749307214134e-05,5.320554778515355e-05
33.0283121635,84.47168783650001,8,0,-0.9763331105165003,15.93696668826524,-0.3599226014130877,-1.587383930426499e-05,5.177935989086196e-05,-2.879380811304701e-06,5.180998328630264e-05,5.177176808189137e-05
34.4716878365,84.47168783650001,8,0,-0.8657159766688522,16.37943522365583,-0.3463786892745181,-1.587383930426499e-05,5.310676549703374e-05,-2.771029514196145e-06,5.313458313253895e-05,5.308473185665965e-05
35.5283121635,83.02831216350002,8,0,-1.082755075867423,16.62598705034907,-0.4728202428719335,-1.676560588305501e-05,5.406936262181096e-05,-3.782561942975468e-06,5.411982353800101e-05,5.416444786459893e-05
36.9716878365,83.02831216350002,8,0,-0.9742168553633048,17.06013993236554,-0.4580850152304119,-1.676560588305501e-05,5.537182126786038e-05,-3.664680121843295e-06,5.541833397007212e-05,5.546188802594826e-05
35.5283121635,84.47168783650001,8,0,-1.043461135489978,16.63581053544343,-0.3100129121157147,-1.664772406192267e-05,5.406936262181096e-05,-2.480103296925718e-06,5.409110072808315e-05,5.403728149883325e-05
36.9716878365,84.47168783650001,8,0,-0.9349229149858598,17.06996341745991,-0.2952776844741389,-1.664772406192267e-05,5.537182126786038e-05,-2.362221475793111e-06,5.539118611626972e-05,5.532673174332543e-05
38.0283121635,83.02831216350002,8,0,-1.1429566360279,17.31251002528788,-0.4114069544739374,-1.750746925551958e-05,5.631439738974352e-05,-3.291255635791499e-06,5.635106330796638e-05,5.640095640214812e-05
39.4716878365,83.02831216350002,8,0,-1.036897701940782,17.73674576163635,-0.3956636654802229,-1.750746925551958e-05,5.758710459878894e-05,-3.165309323841783e-06,5.762044501297838e-05,5.766909875646711e-05
38.0283121635,84.47168783650001,8,0,-1.10097453204477,17.32300555128353,-0.2523185533432736,-1.738152294357008e-05,5.631439738974309e-05,-2.018548426746189e-06,5.63282169262057e-05,5.626047427775691e-05
39.4716878365,84.47168783650001,8,0,-0.9949155979576245,17.74724128763211,-0.236575264349532,-1.738152294357008e-05,5.758710459878883e-05,-1.892602114796256e-06,5.759904750194244e-05,5.752205607862812e-05
40.5283121635,83.02831216350002,8,0,-1.191853791357072,17.98530093888591,-0.3430171854402521,-1.820217288345136e-05,5.850644603752056e-05,-2.744137483522016e-06,5.853098005652002e-05,5.858537584265623e-05
41.97168783650001,83.02831216350002,8,0,-1.088605432091985,18.39829437594626,-0.3264645323530779,-1.820217288345136e-05,5.974542634870161e-05,-2.611716258824623e-06,5.97672972867807e-05,5.982054904172352e-05
40.5283121635,84.47168783650001,8,0,-1.147713383124771,17.99633604094398,-0.1881446465427689,-1.806975165875445e-05,5.850644603752056e-05,-1.505157172342151e-06,5.851384154489584e-05,5.843407196505631e-05
41.97168783650001,84.47168783650001,8,0,-1.044465023859755,18.40932947800405,-0.1715919934555947,-1.806975165875445e-05,5.974542634870075e-05,-1.372735947644758e-06,5.975147997938189e-05,5.966416390332286e-05
43.0283121635,83.02831216350002,8,0,-1.228489763948978,18.64254758691624,-0.2691526779785569,-1.884520531416972e-05,6.063894408929113e-05,-2.153221423828455e-06,6.065352407860495e-05,6.071163338749375e-05
44.4716878365,83.02831216350002,8,0,-1.128310134475616,19.04326610480969,-0.2520013100160574,-1.884520531416972e-05,6.184109964297148e-05,-2.016010480128459e-06,6.185369057811083e-05,6.191094789500348e-05
43.0283121635,84.47168783650001,8,0,-1.18275278271561,18.65398183222458,-0.1188832337684727,-1.870799437046961e-05,6.063894408929113e-05,-9.510658701477812e-07,6.064179389616875e-05,6.055208486589769e-05
44.4716878365,84.47168783650001,8,0,-1.082573153242285,19.05470035011788,-0.1017318658059867,-1.870799437046961e-05,6.184109964297105e-05,-8.138549264478934e-07,6.184315535491173e-05,6.174783811059417e-05
45.52831216350001,83.02831216350002,8,0,-1.252164562138239,19.28285274514348,-0.1913852660688156,-1.943320879495714e-05,6.270686043416971e-05,-1.531082128550525e-06,6.271399461642734e-05,6.277502232845805e-05
46.97168783650001,83.02831216350002,8,0,-1.155235652540385,19.67056838353489,-0.1738541182170572,-1.943320879495714e-05,6.387000734934395e-05,-1.390832945736458e-06,6.387581229176709e-05,6.393640307476784e-05
45.52831216350001,84.47168783650001,8,0,-1.205414834533694,19.29454017704448,-0.04599190167202177,-1.92929596121434e-05,6.270686043416927e-05,-3.679352133761742e-07,6.270727316568433e-05,6.26098733071415e-05
46.97168783650001,84.47168783650001,8,0,-1.108485924935804,19.68225581543604,-0.02846075382024983,-1.92929596121434e-05,6.387000734934395e-05,-2.276860305619986e-07,6.387016319043902e-05,6.376924401742509e-05
48.0283121635,83.02831216350002,8,0,-1.2624434932768,19.9052502552878,-0.1113333084959558,-1.9964019382716e-05,6.47067556115424e-05,-8.906664679676464e-07,6.470909781525302e-05,6.477225580984249e-05
49.47168783650001,83.02831216350002,8,0,-1.168869172410735,20.27954753875207,-0.09364582969881612,-1.9964019382716e-05,6.582964746193519e-05,-7.491666375905289e-07,6.583128289719786e-05,6.589446720349914e-05
48.0283121635,84.47168783650001,8,0,-1.215276883151112,19.91704190781923,0.02902817280314328,-1.982251955233894e-05,6.47067556115424e-05,2.322253824251462e-07,6.470691510813804e-05,6.460420082861537e-05
49.47168783650001,84.47168783650001,8,0,-1.121702562285065,20.29133919128342,0.04671565160028297,-1.982251955233894e-05,6.582964746193497e-05,3.737252128022638e-07,6.583005512783178e-05,6.572597454872629e-05
50.5283121635,83.02831216350002,8,0,-1.259161516658501,20.50921512669684,-0.03063781058502523,-2.043668895466467e-05,6.663681761875668e-05,-2.451024846802019e-07,6.663699010264805e-05,6.670150699604157e-05
51.97168783650001,83.02831216350002,8,0,-1.168966680950867,20.86999446952738,-0.01301817635960233,-2.043668895466467e-05,6.771915564724828e-05,-1.041454108768186e-07,6.771918640602234e-05,6.778416931943441e-05
50.5283121635,84.47168783650001,8,0,-1.212175825390634,20.52096154951381,0.1046544429763848,-2.029573188086107e-05,6.663681761875668e-05,8.372355438110782e-07,6.663883339738736e-05,6.653327320157682e-05
51.97168783650001,84.47168783650001,8,0,-1.121980989683,20.88174089234434,0.1222740772018754,-2.029573188086107e-05,6.771915564724828e-05,9.781926176150035e-07,6.772187345805862e-05,6.761708041802917e-05
53.0283121635,83.02831216350002,8,0,-1.242423379609551,21.09466751613422,0.04906134018949147,-2.085148882765794e-05,6.849687475531715e-05,3.924907215159317e-07,6.84973057878989e-05,6.85624341319744e-05
54.4716878365,83.02831216350002,8,0,-1.155554205537761,21.44214421242138,0.06639193250538038,-2.085148882765794e-05,6.953930484417863e-05,5.31135460043043e-07,6.954008507419548e-05,6.960603081827425e-05
53.0283121635,84.47168783650001,8,0,-1.196208466767325,21.10622124434478,0.1793651012971221,-2.071284408913126e-05,6.849687475531715e-05,1.434920810376977e-06,6.850264448702213e-05,6.839676198396737e-05
54.4716878365,84.47168783650001,8,0,-1.10933929269558,21.45369794063176,0.1966956936129568,-2.071284408913126e-05,6.953930484417808e-05,1.573565548903654e-06,6.954616318610829e-05,6.944308441947356e-05
55.5283121635,83.02831216350002,8,0,-1.212599635475606,21.66197061391053,0.1261485824101204,-2.120989532465036e-05,7.028838567289418e-05,1.009188659280963e-06,7.02911683229242e-05,7.03561897695591e-05
56.97168783650001,83.02831216350002,8,0,-1.128924902621006,21.99666954532893,0.142975441881632,-2.120989532465036e-05,7.129248246714938e-05,1.143803535053056e-06,7.129601815064694e-05,7.136206545200917e-05
55.5283121635,84.47168783650001,8,0,-1.16772801021817,21.67318852022489,0.2516606816920755,-2.107528044887805e-05,7.028838567289418e-05,2.013285453536604e-06,7.029947549271271e-05,7.019581199959524e-05
56.97168783650001,84.47168783650001,8,0,-1.084053277363632,22.00788745164304,0.2684875411635735,-2.107528044887805e-05,7.129248246714862e-05,2.147900329308589e-06,7.130496748404314e-05,7.120597955732724e-05
58.0283121635,83.02831216350002,8,0,-1.170318787032624,22.21192262967562,0.1990549262559561,-2.151455822224489e-05,7.201440744458807e-05,1.592439410047649e-06,7.202118523664087e-05,7.208541408331687e-05
59.47168783650001,83.02831216350002,8,0,-1.089632210079028,22.53466893749,0.2151731418246323,-2.151455822224489e-05,7.298264636803123e-05,1.721385134597058e-06,7.299048501526132e-05,7.305576361326883e-05
58.0283121635,84.47168783650001,8,0,-1.127336878849613,22.22266810672137,0.3200847916864187,-2.138561249769586e-05,7.201440744458807e-05,2.560678333491349e-06,7.203195519735395e-05,7.193303268742223e-05
59.47168783650001,84.47168783650001,8,0,-1.046650301896017,22.54541441453576,0.3362030072550271,-2.138561249769586e-05,7.298264636803123e-05,2.689624058040217e-06,7.300180696595492e-05,7.290921122099617e-05
60.5283121635,83.02831216350002,8,0,-1.116455918652773,22.745743218341,0.2662789126927061,-2.176925351436167e-05,7.367954303361341e-05,2.130231301541649e-06,7.369142720771457e-05,7.375421268523444e-05
61.9716878365,83.02831216350002,8,0,-1.038479404100139,23.05764927655154,0.2814963187120466,-2.176925351436167e-05,7.461526120824502e-05,2.251970549696372e-06,7.462841342322545e-05,7.469206150647298e-05
60.5283121635,84.47168783650001,8,0,-1.075876169267793,22.75588815568724,0.3832436845216305,-2.164751426620673e-05,7.367954303361341e-05,3.065949476173044e-06,7.370418875543211e-05,7.361247368345943e-05
61.9716878365,84.47168783650001,8,0,-0.9978996547151224,23.06779421389793,0.398461090540998,-2.164751426620673e-05,7.461526120824545e-05,3.187688724327984e-06,7.464164361626176e-05,7.455764392847282e-05
63.0283121635,83.02831216350002,8,0,-1.052118264263051,23.26505480144893,0.3264060828482389,-2.19788222868009e-05,7.528986997604702e-05,2.611248662785911e-06,7.530739203615171e-05,7.536811962390724e-05
64.47168783650001,83.02831216350002,8,0,-0.9765059930702416,23.56750388622017,0.3405458952527619,-2.19788222868009e-05,7.619721723036072e-05,2.724367162022096e-06,7.62161137659965e-05,7.627729592844698e-05
63.0283121635,84.47168783650001,8,0,-1.014412097851062,23.27448134305193,0.4398244896375064,-2.186570378756494e-05,7.528986997604702e-05,3.518595917100052e-06,7.532171699166018e-05,7.52395852247724e-05
64.47168783650001,84.47168783650001,8,0,-0.9387998266582525,23.57693042782316,0.4539643020420024,-2.186570378756494e-05,7.619721723036072e-05,3.631714416336019e-06,7.623083041993051e-05,7.6157513249108e-05
65.5283121635,83.02831216350002,8,0,-0.9786281982803446,23.77185931088428,0.3781268995874657,-2.214909768320452e-05,7.685285235345396e-05,3.025015196699726e-06,7.687595437852173e-05,7.693404623667812e-05
66.97168783650001,83.02831216350002,8,0,-0.9049714305070653,24.06648638197739,0.3910300366737947,-2.214909768320452e-05,7.773673356673331e-05,3.128240293390357e-06,7.776122024522682e-05,7.781914514218868e-05
65.5283121635,84.47168783650001,8,0,-0.9442198327167466,23.78046140227518,0.4886120512473976,-2.204587258651373e-05,7.685285235345396e-05,3.908896409979181e-06,7.689146131566597e-05,7.682116392643849e-05
66.97168783650001,84.47168783650001,8,0,-0.8705630649435125,24.07508847336811,0.5015151883337536,-2.204587258651373e-05,7.773673356673276e-05,4.012121506670029e-06,7.777704775241685e-05,7.771636327112438e-05
68.0283121635,83.02831216350002,8,0,-0.8975041295781176,24.26851090332203,0.4202532203947794,-2.22868219373076e-05,7.837723819429298e-05,3.362025763158235e-06,7.840530200104877e-05,7.846021606790828e-05
69.47168783650001,83.02831216350002,8,0,-0.8253366319303721,24.55718089391301,0.4317803580520179,-2.22868219373076e-05,7.924324816606593e-05,3.454242864416143e-06,7.927261961982598e-05,7.932655550279343e-05
68.0283121635,84.47168783650001,8,0,-0.8667650958257527,24.27619566176012,0.5285044668664114,-2.21946048360505e-05,7.837723819429298e-05,4.228035734931291e-06,7.842165518557256e-05,7.836528403211174e-05
69.47168783650001,84.47168783650001,8,0,-0.7945975981780347,24.564865652351,0.5400316045235144,-2.21946048360505e-05,7.924324816606561e-05,4.320252836188115e-06,7.928922737320203e-05,7.9242969176605e-05
70.5283121635,83.02831216350002,8,0,-0.8104397241929986,24.75768516260299,0.451733575246256,-2.239955524749998e-05,7.987294429968395e-05,3.613868601970048e-06,7.990485896918355e-05,7.995608484460329e-05
71.97168783650001,83.02831216350002,8,0,-0.7392437359703337,25.04246911549365,0.4617670195876362,-2.239955524749998e-05,8.072729615835592e-05,3.694136156701089e-06,8.076036772711718e-05,8.080965155647124e-05
70.5283121635,84.47168783650001,8,0,-0.7836838726160567,24.76437412549722,0.5585275575803613,-2.231928769276916e-05,7.987294429968395e-05,4.46822046064289e-06,7.992176273905e-05,7.988121305078372e-05
71.97168783650001,84.47168783650001,8,0,-0.7124878843933375,25.0491580783881,0.5685610019217822,-2.231928769276916e-05,8.072729615835657e-05,4.548488015374257e-06,8.077746442942268e-05,8.074724259824048e-05
73.0283121635,83.02831216350002,8,0,-0.7192817844597252,25.24234522483782,0.4716676414989193,-2.249557789014137e-05,8.135093014704879e-05,3.773341131991354e-06,8.138519563914768e-05,8.143224172341355e-05
74.47168783650001,83.02831216350002,8,0,-0.6484944608067114,25.52549451944988,0.4801131293134347,-2.249557789014137e-05,8.220037803088496e-05,3.840905034507478e-06,8.223559331424916e-05,8.227962297999706e-05
73.0283121635,84.47168783650001,8,0,-0.6967604836212162,25.24797555004745,0.5778486269783457,-2.242801398762585e-05,8.135093014704879e-05,4.622789015826766e-06,8.140238467905307e-05,8.137930797476165e-05
74.47168783650001,84.47168783650001,8,0,-0.6259731599682476,25.53112484465932,0.5862941147927527,-2.242801398762585e-05,8.220037803088442e-05,4.690352918342022e-06,8.225291723320626e-05,8.224011314973933e-05
75.5283121635,83.02831216350002,8,0,-0.6260069771264956,25.72570513288443,0.4793204174441168,-2.258378643311233e-05,8.282306200693137e-05,3.834563339552934e-06,8.285792457664936e-05,8.290028172518017e-05
76.97168783650001,83.02831216350002,8,0,-0.5550272791384137,26.00962392483676,0.486108974130726,-2.258378643311233e-05,8.367481838278835e-05,3.888871793045808e-06,8.371038788582003e-05,8.374857169467093e-05
75.5283121635,84.47168783650001,8,0,-0.6079041592956278,25.73023083734215,0.5857899644262252,-2.252947797961972e-05,8.282306200693137e-05,4.686319715409802e-06,8.287515078313794e-05,8.287088205153649e-05
76.97168783650001,84.47168783650001,8,0,-0.5369244613076187,26.01414962929418,0.5925785211127939,-2.252947797961972e-05,8.367481838278748e-05,4.740628168902351e-06,8.372769376772909e-05,8.373336956417633e-05
78.0283121635,83.02831216350002,8,0,-0.5326974397586435,26.2111905614895,0.4741366663497417,-2.267358425641925e-05,8.430196774857329e-05,3.793093330797933e-06,8.433558065693444e-05,8.437262451911936e-05
79.47168783650001,83.02831216350002,8,0,-0.4608934768021351,26.49840641331553,0.4792266599630898,-2.267358425641925e-05,8.516361530405139e-05,3.833813279704719e-06,8.519767934430877e-05,8.522927857270106e-05
78.0283121635,84.47168783650001,8,0,-0.5191241234562733,26.21458389056509,0.5818426107844638,-2.263286430751214e-05,8.430196774857329e-05,4.65474088627571e-06,8.435259755457976e-05,8.436801739386142e-05
79.47168783650001,84.47168783650001,8,0,-0.4473201604997827,26.50179974239105,0.5869326043977984,-2.263286430751214e-05,8.516361530405117e-05,4.695460835182387e-06,8.521472296675359e-05,8.523941999690831e-05
80.5283121635,83.02831216350002,8,0,-0.4415151141991664,26.70239686320045,0.4557562249650758,-2.277476585599769e-05,8.580088205360076e-05,3.646049799720607e-06,8.583148268505756e-05,8.586221910954074e-05
81.97168783650001,83.02831216350002,8,0,-0.3682319823372779,26.995529390648,0.4591357521141433,-2.277476585599769e-05,8.668027963594342e-05,3.673086016913146e-06,8.67110862667228e-05,8.67347907608485e-05
80.5283121635,84.47168783650001,8,0,-0.4325030418016897,26.70464988129982,0.565680922757746,-2.274772963880526e-05,8.580088205360076e-05,4.525447382061967e-06,8.58480286326518e-05,8.588326309858153e-05
81.97168783650001,84.47168783650001,8,0,-0.3592199099398918,26.99778240874701,0.5690604499067591,-2.274772963880526e-05,8.668027963594234e-05,4.552483599254073e-06,8.672760789130345e-05,8.677087256148339e-05
83.02831216350002,83.02831216350002,8,0,-0.354674470045433,27.20304418134912,0.4240307383009644,-2.289739364922468e-05,8.73334809563535e-05,3.392245906407715e-06,8.735957303161177e-05,8.738198640919747e-05
84.47168783650002,83.02831216350002,8,0,-0.2792426689897676,27.50477138557178,0.4257204618738996,-2.289739364922468e-05,8.823866256902149e-05,3.405763694991197e-06,8.826474884732995e-05,8.827758615169182e-05
83.02831216350002,84.47168783650001,8,0,-0.3501685405176778,27.20417066373106,0.5371784398843946,-2.288387586064141e-05,8.73334809563535e-05,4.297427519075157e-06,8.737535473685612e-05,8.742907076067345e-05
84.47168783650002,84.47168783650001,8,0,-0.2747367394620124,27.50589786795372,0.5388681634573705,-2.288387586064141e-05,8.823866256902149e-05,4.310945307658964e-06,8.828045711082474e-05,8.83396922194856e-05
85.5283121635,83.02831216350002,8,0,-0.2744131027795911,27.71692917463433,0.3790422920392733,-2.305166526860215e-05,8.891370384105351e-05,3.032338336314186e-06,8.893423114868789e-05,8.894363422785683e-05
86.97168783650002,83.02831216350002,8,0,-0.1961576494622381,28.02995098790374,0.3790988215417607,-2.305166526860215e-05,8.985276928086174e-05,3.032790572334086e-06,8.987313198878557e-05,8.986771166980617e-05
85.5283121635,84.47168783650001,8,0,-0.2742623574397154,27.71696686096916,0.4964254720152619,-2.305121303258241e-05,8.891370384105307e-05,3.971403776122095e-06,8.8948909266791e-05,8.901660105971784e-05
86.97168783650002,84.47168783650001,8,0,-0.196006904122326,28.02998867423872,0.4964820015176952,-2.305121303258241e-05,8.985276928086174e-05,3.971856012141561e-06,8.988769002064826e-05,8.995532894459129e-05
88.02831216350002,83.02831216350002,8,0,-0.2029595335355721,28.24787271354985,0.3211242634185103,-2.324776867815371e-05,9.055556031018798e-05,2.568994107348082e-06,9.057005656925207e-05,9.055493680491366e-05
89.47168783650001,83.02831216350002,8,0,-0.1212099202441914,28.57487116671538,0.3196441260545858,-2.324776867815371e-05,9.153655566968455e-05,2.557153008436687e-06,9.155079589893446e-05,9.150839334839619e-05
88.02831216350002,84.47168783650001,8,0,-0.2069065665061007,28.24688595530722,0.4437486833555821,-2.32596097770653e-05,9.055556031018798e-05,3.549989466844657e-06,9.058323535906707e-05,9.065299062949547e-05
89.47168783650001,84.47168783650001,8,0,-0.1251569532147014,28.57388440847282,0.4422685459916711,-2.32596097770653e-05,9.153655566968477e-05,3.538148367933369e-06,9.156381163741178e-05,9.162030991435538e-05
90.52831216350002,83.02831216350002,8,0,-0.1424974139152004,28.79966275804405,0.2508845013255681,-2.349572193096388e-05,9.227291875687311e-05,2.007076010604545e-06,9.228161725120023e-05,9.221321568719526e-05
91.97168783650001,83.02831216350002,8,0,-0.05659857994792006,29.14325809391317,0.248008696267788,-2.349572193096388e-05,9.330370476448048e-05,1.984069570142304e-06,9.331212999445063e-05,9.318536958370313e-05
90.52831216350002,84.47168783650001,8,0,-0.1501662274024422,28.79774555467224,0.3797327522764489,-2.351872837142561e-05,9.227291875687311e-05,3.037862018211591e-06,9.229284035396238e-05,9.233480786286151e-05
91.97168783650001,84.47168783650001,8,0,-0.06426739343516186,29.14134089054136,0.3768569472187093,-2.351872837142561e-05,9.330370476448048e-05,3.014855577749675e-06,9.332315274423718e-05,9.33195332753071e-05
93.02831216350002,83.02831216350002,8,0,-0.09512526337267779,29.37599152454121,0.1692306793310561,-2.380519406242553e-05,9.407927308923e-05,1.353845434648449e-06,9.408316002419299e-05,9.388937004228733e-05
94.47168783650002,83.02831216350002,8,0,-0.004449758336015464,29.73869354468786,0.1651497399026157,-2.380519406242553e-05,9.516737914966994e-05,1.321197919220926e-06,9.517104703311811e-05,9.484058116726506e-05
93.02831216350002,84.47168783650001,8,0,-0.106007768515294,29.37327089825556,0.3052439368859678,-2.383784157785338e-05,9.407927308923e-05,2.441951495087743e-06,9.40919143582995e-05,9.40320247417563e-05
94.47168783650002,84.47168783650001,8,0,-0.0153322634786317,29.7359729184022,0.3011629974574597,-2.383784157785338e-05,9.516737914966994e-05,2.409303979659678e-06,9.517957220924353e-05,9.499386221569194e-05
95.5283121635,83.02831216350002,8,0,-0.0628108522260753,29.98038601491395,0.07739734683987191,-2.41853035390546e-05,9.598748392950548e-05,6.191787747189753e-07,9.59882814890419e-05,9.548833048065404e-05
96.97168783650002,83.02831216350002,8,0,0.03322763658205119,30.36453997014645,0.07235675720179213,-2.41853035390546e-05,9.7139945795203e-05,5.788540576143371e-07,9.714063623292112e-05,9.630680339049806e-05
95.5283121635,84.47168783650001,8,0,-0.07625242459432435,29.97702562182188,0.2214550800521027,-2.422562825615934e-05,9.598748392950548e-05,1.771640640416822e-06,9.599401096323132e-05,9.564832651899545e-05
96.97168783650002,84.47168783650001,8,0,0.01978606421376661,30.36117957705425,0.2164144904139823,-2.422562825615934e-05,9.713994579520257e-05,1.731315923311858e-06,9.714611991494518e-05,9.647451877350122e-05
98.02831216350002,83.02831216350002,8,0,-0.04733940397834679,30.61613102606027,-0.02302615819439475,-2.464439091357892e-05,9.800949080657553e-05,-1.84209265555158e-07,9.80095599707836e-05,9.675061994430028e-05
99.47168783650002,83.02831216350002,8,0,0.05459220310019042,31.02385745437441,-0.02872043133154176,-2.464439091357892e-05,9.923267009151796e-05,-2.29763450652334e-07,9.923277663101249e-05,9.714467640873563e-05
98.02831216350002,84.47168783650001,8,0,-0.06252413234411769,30.61233484396882,0.1298712524233679,-2.468994509867623e-05,9.800949080657553e-05,1.038970019386944e-06,9.801169016337074e-05,9.692231482777655e-05
99.47168783650002,84.47168783650001,8,0,0.0394074747343911,31.02006127228286,0.124176979286099,-2.468994509867623e-05,9.923267009151763e-05,9.934158342887918e-07,9.923466096938105e-05,9.731952414503191e-05
0.5283121635,85.5283121635,8,0,-0.03810596489361817,7.39538647514994,-0.1013569906046981,-6.038248267779529e-06,2.36957214923947e-05,-8.108559248375851e-07,2.370124854733221e-05,2.527448837458252e-05
1.9716878365,85.5283121635,8,0,0.04325231487651093,7.720819594230456,-0.1061684586779174,-6.038248267779529e-06,2.467202084963625e-05,-8.493476694233391e-07,2.46778922860419e-05,2.563421461049494e-05
0.5283121635,86.97168783650002,8,0,-0.05093654642211254,7.392178829767817,0.02068042905049557,-6.076740012365012e-06,2.36957214923947e-05,1.654434324039646e-07,2.369595132994122e-05,2.542131851002041e-05
1.9716878365,86.97168783650002,8,0,0.03042173334801657,7.717611948848333,0.01586896097730342,-6.076740012365012e-06,2.467202084963625e-05,1.269516878184274e-07,2.467215188469187e-05,2.577817006845481e-05
3.0283121635,85.5283121635,8,0,-0.05875985063719158,7.926535890278397,-0.1875383747548825,-6.52926023426173e-06,2.541192272940062e-05,-1.50030699803906e-06,2.542953072567297e-05,2.605955954863436e-05
4.4716878365,85.5283121635,8,0,0.02833599694416877,8.274919280603839,-0.1917876756079646,-6.52926023426173e-06,2.645707290037695e-05,-1.534301404863716e-06,2.647490459535483e-05,2.686189729451049e-05
3.0283121635,86.97168783650002,8,0,-0.07009131957843628,7.923703023043222,-0.05689460338292353,-6.563254641085573e-06,2.541192272940106e-05,-4.551568270633882e-07,2.541354240176024e-05,2.619984192083944e-05
4.4716878365,86.97168783650002,8,0,0.01700452800289654,8.272086413368553,-0.06114390423595135,-6.563254641085573e-06,2.645707290037705e-05,-4.891512338876108e-07,2.645888432853616e-05,2.699501928729051e-05
5.528312163500001,85.5283121635,8,0,-0.09531852121290996,8.490304988564983,-0.2668098823876215,-7.097263258733298e-06,2.724523078037827e-05,-2.134479059100972e-06,2.727836472672878e-05,2.752747036162489e-05
6.9716878365,85.5283121635,8,0,-0.002973754407415985,8.859684055786959,-0.2702117688149091,-7.097263258733298e-06,2.83533679820442e-05,-2.161694150519273e-06,2.838629113250474e-05,2.854351205133207e-05
5.528312163500001,86.97168783650002,8,0,-0.1043902183522172,8.488037064280157,-0.128292732179435,-7.124478350151219e-06,2.724523078037827e-05,-1.02634185743548e-06,2.725289118039367e-05,2.76543472404786e-05
6.9716878365,86.97168783650002,8,0,-0.0120454515467503,8.857416131502024,-0.1316946186067768,-7.124478350151219e-06,2.835336798204388e-05,-1.053556948854215e-06,2.836118791584587e-05,2.866048734106436e-05
8.028312163500001,85.5283121635,8,0,-0.1460256650161229,9.08386772080256,-0.3376190106112902,-7.734376304693641e-06,2.918519723858108e-05,-2.700952084890322e-06,2.923453019737758e-05,2.933004274829481e-05
9.471687836500001,85.5283121635,8,0,-0.04898711580676141,9.472021917640006,-0.3399449474844076,-7.734376304693641e-06,3.034965982909343e-05,-2.719559579875261e-06,3.03981486474825e-05,3.046284288449377e-05
8.028312163500001,86.97168783650002,8,0,-0.1522281633444904,9.082317096220331,-0.1920611867972611,-7.752983799678634e-06,2.918519723858065e-05,-1.536489494378089e-06,2.920116838002948e-05,2.943913718927947e-05
9.471687836500001,86.97168783650002,8,0,-0.05518961413508316,9.47047129305796,-0.1943871236703785,-7.752983799678634e-06,3.034965982909353e-05,-1.555096989363028e-06,3.036552041108905e-05,3.05603080354136e-05
10.5283121635,85.5283121635,8,0,-0.2089224981292497,9.704040083708648,-0.3987517968119162,-8.431784060980517e-06,3.122006626637107e-05,-3.190014374495329e-06,3.128412241296917e-05,3.131871354212426e-05
11.9716878365,85.5283121635,8,0,-0.1077948298404943,10.10855075686367,-0.399825678221047,-8.431784060980517e-06,3.243359828583614e-05,-3.198605425768376e-06,3.249609283384339e-05,3.252419552737859e-05
10.5283121635,86.97168783650002,8,0,-0.211786181886914,9.703324162769231,-0.2470602943788506,-8.440375112253509e-06,3.122006626637107e-05,-1.976482355030805e-06,3.124467554892623e-05,3.140729789818698e-05
11.9716878365,86.97168783650002,8,0,-0.1106585135981675,10.10783483592422,-0.248134175787995,-8.440375112253509e-06,3.243359828583603e-05,-1.98507340630396e-06,3.245768571411988e-05,3.260014639074387e-05
13.0283121635,85.5283121635,8,0,-0.2819060432694878,10.34737367330021,-0.4493099408259157,-9.179998277102531e-06,3.333712058917627e-05,-3.594479526607326e-06,3.341295638859783e-05,3.342492221681193e-05
14.4716878365,85.5283121635,8,0,-0.1773279750081587,10.76568594634553,-0.4490035625817298,-9.179998277102531e-06,3.459205740831222e-05,-3.592028500653838e-06,3.466562614475765e-05,3.468027131092743e-05
13.0283121635,86.97168783650002,8,0,-0.2810890346183434,10.347577925463,-0.2924428384338271,-9.177547251149097e-06,3.333712058917627e-05,-2.339542707470617e-06,3.336928197569755e-05,3.349145446037175e-05
14.4716878365,86.97168783650002,8,0,-0.1765109663570144,10.76589019850832,-0.2921364601896547,-9.177547251149097e-06,3.459205740831222e-05,-2.337091681517238e-06,3.462323263819178e-05,3.47337048993379e-05
15.5283121635,85.5283121635,8,0,-0.3627812148956058,11.01024119130945,-0.4886868726816564,-9.969092840713496e-06,3.552299678410671e-05,-3.909494981453251e-06,3.56068357287522e-05,3.561231940862064e-05
16.9716878365,85.5283121635,8,0,-0.2554114770282441,11.4397201427789,-0.4869154646753204,-9.969092840713496e-06,3.681143363851505e-05,-3.895323717402564e-06,3.689238257753123e-05,3.690337307260921e-05
15.5283121635,86.97168783650002,8,0,-0.3580574602118984,11.01142212998037,-0.3276322658807632,-9.954921576662374e-06,3.552299678410671e-05,-2.621058127046105e-06,3.556073075776745e-05,3.565614334176475e-05
16.9716878365,86.97168783650002,8,0,-0.2506877223445909,11.4409010814496,-0.325860857874373,-9.954921576662374e-06,3.68114336385144e-05,-2.606886862994984e-06,3.684773424473635e-05,3.693404159447057e-05
18.0283121635,85.5283121635,8,0,-0.4493073353463224,11.68891424119031,-0.5165440030071309,-1.078891486606048e-05,3.776397144008604e-05,-4.132352024057047e-06,3.785173924236859e-05,3.785770684131579e-05
19.4716878365,85.5283121635,8,0,-0.3398119340357457,12.12689584643262,-0.5132620254840468,-1.078891486606048e-05,3.907791625581297e-05,-4.106096203872374e-06,3.916229872034654e-05,3.917394152092316e-05
18.0283121635,86.97168783650002,8,0,-0.4405553952848731,11.69110222620567,-0.3523009010412926,-1.076265904587613e-05,3.776397144008604e-05,-2.818407208330341e-06,3.780485997707418e-05,3.78788380139654e-05
19.4716878365,86.97168783650002,8,0,-0.3310599939742871,12.12908383144802,-0.3490189235182085,-1.076265904587613e-05,3.907791625581308e-05,-2.792151388145668e-06,3.911699085532293e-05,3.918217158223836e-05
20.5283121635,85.5283121635,8,0,-0.5392398409392394,12.3796340174149,-0.5327879551425004,-1.162927470493749e-05,4.004622072847908e-05,-4.262303641140003e-06,4.013396269190187e-05,4.014346589323012e-05
21.9716878365,85.5283121635,8,0,-0.4282804908638149,12.8234714177166,-0.527985267387808,-1.162927470493749e-05,4.137773292938417e-05,-4.223882139102464e-06,4.146174516144306e-05,4.147602105805432e-05
20.5283121635,86.97168783650002,8,0,-0.5264326735934652,12.38283580925135,-0.3663489300293095,-1.159085320290017e-05,4.004622072847908e-05,-2.930791440234476e-06,4.008777339266544e-05,4.014243172306085e-05
21.9716878365,86.97168783650002,8,0,-0.4154733235181043,12.82667320955279,-0.3615462422746577,-1.159085320290017e-05,4.137773292938341e-05,-2.892369938197262e-06,4.141718828193487e-05,4.146257764810974e-05
23.0283121635,85.5283121635,8,0,-0.6303679453304887,13.07867561026658,-0.5375491751901171,-1.248011791327082e-05,4.235605630911743e-05,-4.300393401520937e-06,4.244023904404674e-05,4.245457999085178e-05
24.4716878365,85.5283121635,8,0,-0.5185915304243403,13.52578126989117,-0.531247602530898,-1.248011791327082e-05,4.369737328799121e-05,-4.249980820247184e-06,4.377763927208012e-05,4.379549754874429e-05
23.0283121635,86.97168783650002,8,0,-0.6135637515726979,13.08287665870602,-0.3698845528310024,-1.242970533199745e-05,4.235605630911743e-05,-2.959076422648019e-06,4.239598345581029e-05,4.243229919135575e-05
24.4716878365,86.97168783650002,8,0,-0.5017873366665495,13.52998231833062,-0.3635829801717562,-1.242970533199745e-05,4.369737328799121e-05,-2.908663841374049e-06,4.373503181615187e-05,4.376148179176168e-05
25.5283121635,85.5283121635,8,0,-0.7205489370196707,13.7824066406705,-0.5311619793145765,-1.333168191099935e-05,4.468014039976133e-05,-4.249295834516612e-06,4.475785024875608e-05,4.477749568436077e-05
26.9716878365,85.5283121635,8,0,-0.6085778784691485,14.23029087487259,-0.5234122401611915,-1.333168191099935e-05,4.60237931023676e-05,-4.187297921289532e-06,4.609755084358748e-05,4.611944692602446e-05
25.5283121635,86.97168783650002,8,0,-0.6998829659440498,13.78757313343941,-0.3632053914887794,-1.326968399777248e-05,4.468014039976133e-05,-2.905643131910236e-06,4.471654026075407e-05,4.473518793456035e-05
26.9716878365,86.97168783650002,8,0,-0.5879119073935275,14.23545736764149,-0.3554556523354215,-1.326968399777248e-05,4.60237931023676e-05,-2.843645218683372e-06,4.60578679877249e-05,4.606621998803537e-05
28.0283121635,85.5283121635,8,0,-0.807739630430671,14.48734083623621,-0.5141458456579676,-1.417463948636712e-05,4.700568238030041e-05,-4.113166765263741e-06,4.707473671965385e-05,4.709972158163746e-05
29.4716878365,85.5283121635,8,0,-0.6961630727448771,14.93364706697939,-0.5050247572188946,-1.417463948636712e-05,4.834460107252993e-05,-4.040198057751157e-06,4.840980577426484e-05,4.843593050459443e-05
28.0283121635,86.97168783650002,8,0,-0.7834167279266575,14.49342156186222,-0.3467810091293037,-1.410167077885507e-05,4.700568238030041e-05,-2.774248073034429e-06,4.70371535953978e-05,4.703884062738503e-05
29.4716878365,86.97168783650002,8,0,-0.6718401702409089,14.93972779260521,-0.3376599206903527,-1.410167077885507e-05,4.834460107252939e-05,-2.701279365522821e-06,4.837380017299005e-05,4.836505757721635e-05
30.5283121635,85.5283121635,8,0,-0.890025298086262,15.19018699470254,-0.4871875987467962,-1.500023054963807e-05,4.932061862151713e-05,-3.89750078997437e-06,4.937960647047326e-05,4.940972456121905e-05
31.9716878365,85.5283121635,8,0,-0.7793910613532447,15.63272394163461,-0.4767954581847138,-1.500023054963807e-05,5.064822946231333e-05,-3.814363665477711e-06,5.070358914398922e-05,5.073397047718226e-05
30.5283121635,86.97168783650002,8,0,-0.8623129232542048,15.19711508841055,-0.3212362436471076,-1.49170934251419e-05,4.932061862151713e-05,-2.569889949176861e-06,4.934631106033109e-05,4.933190913614545e-05
31.9716878365,86.97168783650002,8,0,-0.7516786865211875,15.63965203534262,-0.3108441030851201,-1.49170934251419e-05,5.064822946231333e-05,-2.486752824680961e-06,5.067180029595689e-05,5.064717976879792e-05
33.0283121635,85.5283121635,8,0,-0.9656462149388707,15.88789358800418,-0.4511240644059243,-1.580038275820773e-05,5.161377645356447e-05,-3.608992515247394e-06,5.166204342124091e-05,5.169694580813706e-05
34.4716878365,85.5283121635,8,0,-0.856453498563253,16.32466445350665,-0.4395820995463265,-1.580038275820773e-05,5.292408905007188e-05,-3.516656796370612e-06,5.296904679911483e-05,5.300359742288968e-05
33.0283121635,86.97168783650002,8,0,-0.9348676419799604,15.89558823124404,-0.287334989842417,-1.570804703933111e-05,5.16137764535649e-05,-2.298679918739336e-06,5.163339264158321e-05,5.160398368276735e-05
34.4716878365,86.97168783650002,8,0,-0.8256749256043978,16.33235909674629,-0.2757930249828598,-1.570804703933111e-05,5.292408905007166e-05,-2.206344199862879e-06,5.294181652422666e-05,5.290274995607124e-05
35.5283121635,85.5283121635,8,0,-1.033021769696869,16.5776890693094,-0.406924781822039,-1.65678209184775e-05,5.387502243754758e-05,-3.255398254576312e-06,5.391261307510262e-05,5.395186395796106e-05
36.9716878365,85.5283121635,8,0,-0.9257146252971618,17.00691764690823,-0.3943725785153317,-1.65678209184775e-05,5.516270817034407e-05,-3.154980628122654e-06,5.519738341044444e-05,5.52359246962509e-05
35.5283121635,86.97168783650002,8,0,-0.9995492275457574,16.58605720484718,-0.2459640652224641,-1.646740329202417e-05,5.387502243754758e-05,-1.967712521779713e-06,5.388878061896511e-05,5.384566526219638e-05
36.9716878365,86.97168783650002,8,0,-0.8922420831460505,17.01528578244601,-0.2334118619157569,-1.646740329202417e-05,5.516270817034407e-05,-1.867294895326055e-06,5.517487553256132e-05,5.512299151257025e-05
38.0283121635,85.5283121635,8,0,-1.09077196011645,17.25711778068471,-0.3556744296318986,-1.72961644969204e-05,5.609539446628422e-05,-2.845395437055189e-06,5.61229631512188e-05,5.616607435452134e-05
39.4716878365,85.5283121635,8,0,-0.9857335755045273,17.6772713191324,-0.3422672669866364,-1.72961644969204e-05,5.735585508162729e-05,-2.738138135893091e-06,5.738095447135607e-05,5.742322974137722e-05
38.0283121635,86.97168783650002,8,0,-1.055019526395931,17.26605588911457,-0.198116852714056,-1.718890719575863e-05,5.609539446628335e-05,-1.584934821712448e-06,5.61039628931509e-05,5.604865109239142e-05
39.4716878365,86.97168783650002,8,0,-0.9499811417839821,17.68620942756236,-0.184709690068726,-1.718890719575863e-05,5.735585508162674e-05,-1.477677520549808e-06,5.736317724730142e-05,5.730027384470934e-05
40.5283121635,85.5283121635,8,0,-1.137736000491613,17.9240712374778,-0.2985547346847722,-1.79800121915554e-05,5.826721676032223e-05,-2.388437877478178e-06,5.828591657682842e-05,5.833237015665856e-05
41.97168783650001,85.5283121635,8,0,-1.03528385090575,18.33387983582125,-0.2844607897915628,-1.79800121915554e-05,5.94966425553526e-05,-2.275686318332503e-06,5.951334962579707e-05,5.955903257567119e-05
40.5283121635,86.97168783650002,8,0,-1.100152147443055,17.93346720073994,-0.144876510306004,-1.786726063240972e-05,5.826721676032223e-05,-1.159012082448032e-06,5.827162747947171e-05,5.820581952648236e-05
41.97168783650001,86.97168783650002,8,0,-0.997699997857155,18.34327579908354,-0.1307825654127404,-1.786726063240972e-05,5.949664255535303e-05,-1.046260523301923e-06,5.95001797703524e-05,5.94281935854481e-05
43.0283121635,85.5283121635,8,0,-1.172987733769147,18.57681449631064,-0.2368257647282458,-1.861501234510978e-05,6.038419657520937e-05,-1.894606117825966e-06,6.039555433560934e-05,6.044481790407364e-05
44.4716878365,85.5283121635,8,0,-1.07336966028727,18.97528679023815,-0.2222231805052306,-1.861501234510978e-05,6.157961345699188e-05,-1.777785444041845e-06,6.158946490541906e-05,6.163816600695849e-05
43.0283121635,86.97168783650002,8,0,-1.134047509174332,18.58654955245935,-0.08739865450552597,-1.849819167132533e-05,6.038419657520937e-05,-6.991892360442079e-07,6.038574589438284e-05,6.03113076359804e-05
44.4716878365,86.97168783650002,8,0,-1.034429435692455,18.98502184638685,-0.07279607028244303,-1.849819167132533e-05,6.157961345699188e-05,-5.823685622595443e-07,6.158067226678772e-05,6.150164603204941e-05
45.52831216350001,85.5283121635,8,0,-1.195847555420961,19.21400729892068,-0.1718066402557524,-1.919791801648362e-05,6.244150140088294e-05,-1.374453122046019e-06,6.244728594575826e-05,6.249882317488096e-05
46.97168783650001,85.5283121635,8,0,-1.099238824466282,19.6004422227394,-0.1568804795842784,-1.919791801648362e-05,6.360080617233909e-05,-1.255043836674227e-06,6.360556181496178e-05,6.365683418275862e-05
45.52831216350001,86.97168783650002,8,0,-1.156044460297013,19.22395807270167,-0.02689354382376039,-1.907850873111177e-05,6.244150140088294e-05,-2.151483505900831e-07,6.244164335600562e-05,6.236057759266154e-05
46.97168783650001,86.97168783650002,8,0,-1.059435729342333,19.61039299652039,-0.01196738315227281,-1.907850873111177e-05,6.360080617233909e-05,-9.573906521818248e-08,6.360083388775239e-05,6.351688386050909e-05
48.0283121635,85.5283121635,8,0,-1.205890614047155,19.8347197198465,-0.1048558196508622,-1.97266257408281e-05,6.443581559474653e-05,-8.388465572068977e-07,6.443790573751267e-05,6.449118350241218e-05
49.47168783650001,85.5283121635,8,0,-1.112391997759356,20.2087141849977,-0.08979495279906873,-1.97266257408281e-05,6.555779899020012e-05,-7.183596223925498e-07,6.555931166791335e-05,6.561265722718547e-05
48.0283121635,86.97168783650002,8,0,-1.165728302442427,19.84476029774768,0.03539210478094475,-1.960613880601391e-05,6.443581559474653e-05,2.83136838247558e-07,6.443605406564559e-05,6.435046940630346e-05
49.47168783650001,86.97168783650002,8,0,-1.072229686154573,20.2187547628991,0.05045297163272468,-1.960613880601391e-05,6.555779899020077e-05,4.036237730617974e-07,6.555827721854362e-05,6.5471561202118e-05
50.5283121635,85.5283121635,8,0,-1.20295114384273,20.43844212322434,-0.03735120290234469,-2.020019735887621e-05,6.636537570939207e-05,-2.988096232187576e-07,6.636563356861312e-05,6.642012668215396e-05
51.97168783650001,85.5283121635,8,0,-1.112588041136075,20.79989453405096,-0.02234519113408014,-2.020019735887621e-05,6.744973294187193e-05,-1.787615290726411e-07,6.744982408755492e-05,6.750470053400829e-05
50.5283121635,86.97168783650002,8,0,-1.162935112460781,20.44844613106983,0.09819345115767882,-2.008014926473036e-05,6.636537570939207e-05,7.855476092614305e-07,6.636716027923488e-05,6.627923843684273e-05
51.97168783650001,86.97168783650002,8,0,-1.072572009754126,20.80989854189645,0.1131994629258756,-2.008014926473036e-05,6.744973294187193e-05,9.055957034070049e-07,6.745207523233337e-05,6.736476188250671e-05
53.0283121635,85.5283121635,8,0,-1.187122893683336,21.02508934048649,0.02932964566766498,-2.061886473217586e-05,6.822998420450343e-05,2.346371653413198e-07,6.823013911507353e-05,6.828533333044022e-05
54.4716878365,85.5283121635,8,0,-1.099845488701017,21.37419896041577,0.04409360061135344,-2.061886473217586e-05,6.927731306429125e-05,3.527488048908275e-07,6.927765910581221e-05,6.933348794058317e-05
53.0283121635,86.97168783650002,8,0,-1.147752347166833,21.03493197711562,0.1602457531412241,-2.050075309262636e-05,6.822998420450343e-05,1.281966025129793e-06,6.823461436758447e-05,6.814657673557917e-05
54.4716878365,86.97168783650002,8,0,-1.060474942184442,21.38404159704518,0.1750097080849126,-2.050075309262636e-05,6.927731306429212e-05,1.400077664679301e-06,6.928277124128415e-05,6.919701119071193e-05
55.5283121635,85.5283121635,8,0,-1.158755733204225,21.59499910253847,0.09382883986880927,-2.098401762828429e-05,7.003100171468647e-05,7.506307189504742e-07,7.003254936280938e-05,7.008794316355478e-05
56.97168783650001,85.5283121635,8,0,-1.074440164348733,21.93226137796043,0.1081688132364674,-2.098401762828429e-05,7.104278854095237e-05,8.653505058917391e-07,7.104482277145771e-05,7.11009985546936e-05
55.5283121635,86.97168783650002,8,0,-1.120515804223622,21.60455908478362,0.2203021931521153,-2.086929784134248e-05,7.003100171468647e-05,1.762417545216922e-06,7.003954355604079e-05,6.995361779289026e-05
56.97168783650001,86.97168783650002,8,0,-1.036200235368157,21.94182136020548,0.2346421665198276,-2.086929784134248e-05,7.104278854095205e-05,1.877137332158621e-06,7.105237182141439e-05,7.097027101633869e-05
58.0283121635,85.5283121635,8,0,-1.118448624984261,22.14892488266471,0.1548267875849682,-2.12981755060814e-05,7.177131852451448e-05,1.238614300679746e-06,7.177543936313241e-05,7.183054496579528e-05
59.47168783650001,85.5283121635,8,0,-1.036899116338714,22.4751229172469,0.168568859961607,-2.12981755060814e-05,7.274991262826104e-05,1.348550879692856e-06,7.275474658087721e-05,7.281064743635049e-05
58.0283121635,86.97168783650002,8,0,-1.08180309864643,22.15808626424917,0.2771510505532749,-2.118823892706791e-05,7.177131852451448e-05,2.217208404426199e-06,7.178453748305931e-05,7.170292469904117e-05
59.47168783650001,86.97168783650002,8,0,-1.000253590000884,22.48428429883135,0.2908931229299544,-2.118823892706791e-05,7.274991262826104e-05,2.327144983439635e-06,7.276432310216664e-05,7.268791856117346e-05
60.5283121635,85.5283121635,8,0,-1.067039242436047,22.68802341653846,0.2110598480513755,-2.156494430902611e-05,7.34553063268719e-05,1.688478784411004e-06,7.346280666381617e-05,7.351715058552976e-05
61.9716878365,85.5283121635,8,0,-0.9879911324130308,23.00421585663052,0.2240406068075655,-2.156494430902611e-05,7.440388364714809e-05,1.792324854460524e-06,7.44122513337699e-05,7.446725061432178e-05
60.5283121635,86.97168783650002,8,0,-1.032423885752801,22.69667725570927,0.3296320130860477,-2.146109823897638e-05,7.34553063268719e-05,2.637056104688382e-06,7.347361908193012e-05,7.339846204061497e-05
61.9716878365,86.97168783650002,8,0,-0.9533757757296861,23.01286969580173,0.3426127718422377,-2.146109823897638e-05,7.440388364714928e-05,2.740902174737901e-06,7.442347111774513e-05,7.435470906538623e-05
63.0283121635,85.5283121635,8,0,-1.005590576209368,23.2138372517705,0.2613368864568037,-2.178895964528637e-05,7.508875166663308e-05,2.09069509165443e-06,7.510003005332042e-05,7.515315349469051e-05
64.47168783650001,85.5283121635,8,0,-0.928714167416838,23.52134288694062,0.2734056860394246,-2.178895964528637e-05,7.601126857214343e-05,2.187245488315397e-06,7.602349616316601e-05,7.607697498420338e-05
63.0283121635,86.97168783650002,8,0,-0.9734071106557307,23.22188311815891,0.3766514996455844,-2.169240924862546e-05,7.508875166663308e-05,3.013211997164675e-06,7.511219953407975e-05,7.504555201584552e-05
64.47168783650001,86.97168783650002,8,0,-0.8965307018632638,23.52938875332877,0.3887202992282867,-2.169240924862546e-05,7.601126857214268e-05,3.109762393826293e-06,7.603600708349129e-05,7.597672303186008e-05
65.5283121635,85.5283121635,8,0,-0.9353749015151189,23.72827273252949,0.3045546895184543,-2.197581787087197e-05,7.667877266530647e-05,2.436437516147635e-06,7.669381333105584e-05,7.674527239501794e-05
66.97168783650001,85.5283121635,8,0,-0.8602800522360381,24.02865212964582,0.3155756827384582,-2.197581787087197e-05,7.757991085665544e-05,2.524605461907666e-06,7.759591347268986e-05,7.764727338649484e-05
65.5283121635,86.97168783650002,8,0,-0.9059855862617026,23.73562006134285,0.4171969634372114,-2.188764992511172e-05,7.667877266530647e-05,3.337575707497691e-06,7.670701813694867e-05,7.665081518554357e-05
66.97168783650001,86.97168783650002,8,0,-0.8308907369825942,24.03599945845928,0.4282179566571882,-2.188764992511172e-05,7.757991085665576e-05,3.425743653257506e-06,7.760939846399648e-05,7.756129818245412e-05
68.0283121635,85.5283121635,8,0,-0.8578554715154176,24.23357383926806,0.3397123224885897,-2.213199658026378e-05,7.823372066287013e-05,2.717698579908718e-06,7.825211472313359e-05,7.830147990919686e-05
69.47168783650001,85.5283121635,8,0,-0.7840968533662496,24.52860831186473,0.3495663018051925,-2.213199658026378e-05,7.911882408066014e-05,2.79653041444154e-06,7.913813032278222e-05,7.918680437646086e-05
68.0283121635,86.97168783650002,8,0,-0.8315781933377915,24.24014315881247,0.4503502497122465,-2.205316474573091e-05,7.823372066287013e-05,3.602801997697972e-06,7.82660678556716e-05,7.822209583945017e-05
69.47168783650001,86.97168783650002,8,0,-0.7578195751886598,24.535177631409,0.4602042290288493,-2.205316474573091e-05,7.911882408065971e-05,3.681633832230795e-06,7.915230652855496e-05,7.911694561505201e-05
70.5283121635,85.5283121635,8,0,-0.7746662575978194,24.73229227713438,0.3659246230840446,-2.226476584602053e-05,7.976306829290828e-05,2.927396984672356e-06,7.978406229465726e-05,7.983091523075135e-05
71.97168783650001,85.5283121635,8,0,-0.7017492157120815,25.02396044467734,0.3745107356734599,-2.226476584602053e-05,8.063807279553713e-05,2.996085885387679e-06,8.065987644341229e-05,8.070533434319035e-05
70.5283121635,86.97168783650002,8,0,-0.751769957359631,24.73801635219393,0.4753001859127463,-2.219607694530596e-05,7.976306829290828e-05,3.80240148730197e-06,7.979850707921472e-05,7.976837082472664e-05
71.97168783650001,86.97168783650002,8,0,-0.6788529154738665,25.02968451973699,0.4838862985021073,-2.219607694530596e-05,8.063807279553746e-05,3.871090388016859e-06,8.067449074560949e-05,8.065324781936277e-05
73.0283121635,85.5283121635,8,0,-0.6875899786250113,25.22725414041983,0.3824351304012447,-2.23820912439359e-05,8.127728523224347e-05,3.059481043209957e-06,8.129985527593946e-05,8.134377692951947e-05
74.47168783650001,85.5283121635,8,0,-0.614976949345297,25.51770625753869,0.3896725512103741,-2.23820912439359e-05,8.214864158360004e-05,3.117380409682993e-06,8.217187853155989e-05,8.221361540072138e-05
73.0283121635,86.97168783650002,8,0,-0.6682901898004676,25.23207908762597,0.4913546743208703,-2.232419187746227e-05,8.127728523224347e-05,3.930837394566962e-06,8.131455768749642e-05,8.12996380573195e-05
74.47168783650001,86.97168783650002,8,0,-0.5956771605207267,25.52253120474493,0.4985920951300132,-2.232419187746227e-05,8.214864158360036e-05,3.988736761040106e-06,8.21866998679647e-05,8.218073203437279e-05
75.5283121635,85.5283121635,8,0,-0.5985345534403592,25.72152337862424,0.3886288270410401,-2.249252927390854e-05,8.278770245434986e-05,3.10903061632832e-06,8.281065064874524e-05,8.285118593753259e-05
76.97168783650001,85.5283121635,8,0,-0.5256520187124583,26.01305351753585,0.3944584880145727,-2.249252927390854e-05,8.366229287108467e-05,3.155667904116582e-06,8.368573985322832e-05,8.372322256638187e-05
75.5283121635,86.97168783650002,8,0,-0.5829887908442544,25.72540981927327,0.4979526291328234,-2.244589198612023e-05,8.278770245434986e-05,3.983621033062587e-06,8.282538898288116e-05,8.282677482700362e-05
76.97168783650001,86.97168783650002,8,0,-0.5101062561163801,26.01693995818477,0.5037822901063967,-2.244589198612023e-05,8.366229287108434e-05,4.030258320851174e-06,8.370054893975493e-05,8.371070258335653e-05
78.0283121635,85.5283121635,8,0,-0.5095079814314332,26.21836215959504,0.3840451218356587,-2.260511526825661e-05,8.430636529584926e-05,3.07236097468527e-06,8.432843367862466e-05,8.436499409472369e-05
79.47168783650001,85.5283121635,8,0,-0.4357539671356969,26.51337821677798,0.3884316013610657,-2.260511526825661e-05,8.51914134673981e-05,3.107452810888526e-06,8.521380346881207e-05,8.524630988822993e-05
78.0283121635,86.97168783650002,8,0,-0.4978107026970502,26.22128647927837,0.4946761432792499,-2.257002343205325e-05,8.43063652958484e-05,3.957409146233999e-06,8.434298639363675e-05,8.436134141313049e-05
79.47168783650001,86.97168783650002,8,0,-0.4240566884012509,26.51630253646156,0.4990626228047247,-2.257002343205325e-05,8.519141346739799e-05,3.992500982437797e-06,8.522838076810397e-05,8.525499199717277e-05
80.5283121635,85.5283121635,8,0,-0.422591513952054,26.72118807615491,0.3683915117082601,-2.272924330557049e-05,8.584587505485733e-05,2.947132093666081e-06,8.586587040105905e-05,8.589747801568742e-05
81.97168783650001,85.5283121635,8,0,-0.3473436691964693,27.02217945517724,0.3713251847648446,-2.272924330557049e-05,8.674884919192434e-05,2.970601478118756e-06,8.676899671470683e-05,8.679518663074017e-05
80.5283121635,86.97168783650002,8,0,-0.414768385801108,26.72314385819264,0.4812632788417457,-2.270577392111766e-05,8.584587505485733e-05,3.850106230733966e-06,8.588000318467099e-05,8.591526990240698e-05
81.97168783650001,86.97168783650002,8,0,-0.339520541045478,27.02413523721516,0.4841969518983437,-2.270577392111766e-05,8.674884919192489e-05,3.873575615186749e-06,8.678310972036287e-05,8.682553210265639e-05
83.02831216350002,85.5283121635,8,0,-0.3399108352255364,27.23352798599985,0.3415583291196749,-2.28745370615216e-05,8.741921822337994e-05,2.732466632957399e-06,8.743613946376983e-05,8.74607701109815e-05
84.47168783650002,85.5283121635,8,0,-0.2625351588283085,27.54303069158876,0.3430578647565315,-2.28745370615216e-05,8.834772634014668e-05,2.744462918052252e-06,8.836465399989657e-05,8.838146938070387e-05
83.02831216350002,86.97168783650002,8,0,-0.3359120735271626,27.23452767642445,0.4576218437155576,-2.286254077642647e-05,8.741921822337994e-05,3.66097474972446e-06,8.744959279706451e-05,8.750028999511775e-05
84.47168783650002,86.97168783650002,8,0,-0.2585363971299346,27.54403038201336,0.459121379352387,-2.286254077642647e-05,8.834772634014668e-05,3.672971034819096e-06,8.837804512198711e-05,8.843350063995927e-05
85.5283121635,85.5283121635,8,0,-0.2636048361485708,27.75896812300766,0.3036349029458373,-2.305070997408155e-05,8.903958186254335e-05,2.429079223566699e-06,8.905274030204684e-05,8.906565989092846e-05
86.97168783650002,85.5283121635,8,0,-0.1834651426489158,28.07952689700628,0.3037501711162258,-2.305070997408155e-05,9.000125818453921e-05,2.430001368929806e-06,9.001431462412781e-05,9.001420385727561e-05
85.5283121635,86.97168783650002,8,0,-0.2632974543607158,27.75904496845435,0.423844443195483,-2.304978782871777e-05,8.903958186254248e-05,3.390755545563864e-06,8.90652189817312e-05,8.912672427850054e-05
86.97168783650002,86.97168783650002,8,0,-0.1831577608609969,28.07960374245322,0.4239597113658714,-2.304978782871777e-05,9.00012581845391e-05,3.391677690926971e-06,9.002669114297516e-05,9.008743583524202e-05
88.02831216350002,85.5283121635,8,0,-0.1957914498093158,28.30109998494736,0.2549273341181604,-2.32674126273477e-05,9.072015311167901e-05,2.039418672945283e-06,9.072927449193282e-05,9.07188528611156e-05
89.47168783650001,85.5283121635,8,0,-0.1122596877812443,28.63522703305965,0.2537427485550423,-2.32674126273477e-05,9.172253425601587e-05,2.029941988440339e-06,9.173149230757029e-05,9.169544577484395e-05
88.02831216350002,86.97168783650002,8,0,-0.1989503446442793,28.30031026123863,0.3802249771601854,-2.327688931185259e-05,9.072015311167901e-05,3.041799817281483e-06,9.074044069894214e-05,9.080073799962747e-05
89.47168783650001,86.97168783650002,8,0,-0.1154185826162264,28.63443730935084,0.3790403915970809,-2.327688931185259e-05,9.172253425601565e-05,3.032323132776647e-06,9.174251997763944e-05,9.178880419721873e-05
90.52831216350002,85.5283121635,8,0,-0.1385299353551508,28.86346140176412,0.1959779135590165,-2.353406491454777e-05,9.247390043392928e-05,1.567823308472132e-06,9.247919739282368e-05,9.241641035070757e-05
91.97168783650001,85.5283121635,8,0,-0.05099748294701811,29.21359121139665,0.1936161917387907,-2.353406491454777e-05,9.352428986282688e-05,1.548929533910326e-06,9.35294135417331e-05,9.340952928877967e-05
90.52831216350002,86.97168783650002,8,0,-0.14482786020905,28.86188692055064,0.3272765921713116,-2.355295868910947e-05,9.247390043392928e-05,2.618212737370493e-06,9.248866892278798e-05,9.251776031787024e-05
91.97168783650001,86.97168783650002,8,0,-0.05729540780091735,29.21201673018317,0.3249148703510858,-2.355295868910947e-05,9.352428986282688e-05,2.599318962808687e-06,9.353871543817365e-05,9.352123927847187e-05
93.02831216350002,85.5283121635,8,0,-0.09377895893283839,29.44947213409786,0.1275859915911417,-2.385967037586337e-05,9.431333399625942e-05,1.020687932729134e-06,9.431553793537429e-05,9.412768369529271e-05
94.47168783650002,85.5283121635,8,0,-0.001669022837452516,29.81791187847941,0.1242122578654596,-2.385967037586337e-05,9.541865322940405e-05,9.93698062923677e-07,9.542072279803554e-05,9.50965990835771e-05
93.02831216350002,86.97168783650002,8,0,-0.1027755822013425,29.44722297828074,0.2657508957343161,-2.388666024566888e-05,9.431333399625942e-05,2.126007165874529e-06,9.432289309351864e-05,9.424637411709518e-05
94.47168783650002,86.97168783650002,8,0,-0.01066564610596554,29.81566272266225,0.2623771620086611,-2.388666024566888e-05,9.541865322940395e-05,2.099017296069289e-06,9.542788486500444e-05,9.522400037803491e-05
95.5283121635,85.5283121635,8,0,-0.06334983835419372,30.06236335716179,0.05082985021376155,-2.425261016846285e-05,9.625024261360107e-05,4.066388017100924e-07,9.625058566490753e-05,9.575553064594813e-05
96.97168783650002,85.5283121635,8,0,0.03386892961339782,30.45123842903215,0.04665594543916592,-2.425261016846285e-05,9.741686782921216e-05,3.732475635133273e-07,9.741715408304136e-05,9.65868497648487e-05
95.5283121635,86.97168783650002,8,0,-0.07448025108663003,30.05958075397868,0.1966580021651207,-2.428600140666015e-05,9.625024261360107e-05,1.573264017320965e-06,9.625537603691323e-05,9.588842172923492e-05
96.97168783650002,86.97168783650002,8,0,0.02273851688094375,30.44845582584897,0.192484097390525,-2.428600140666015e-05,9.741686782921194e-05,1.5398727791242e-06,9.742173853048597e-05,9.672602835748443e-05
98.02831216350002,85.5283121635,8,0,-0.04885440291854692,30.70510046337962,-0.03291115971078057,-2.472041446004305e-05,9.829540500514962e-05,-2.632892776862445e-07,9.829554588370626e-05,9.703728651286859e-05
99.47168783650002,85.5283121635,8,0,0.05394417920547312,31.1162947918757,-0.03762236699012423,-2.472041446004305e-05,9.952898799063786e-05,-3.009789359209938e-07,9.952917026150836e-05,9.743658347520685e-05
98.02831216350002,86.97168783650002,8,0,-0.06141762232989656,30.70195965852679,0.1212867134752892,-2.475810411827709e-05,9.829540500514962e-05,9.702937078023138e-07,9.829731769998559e-05,9.717970011450893e-05
99.47168783650002,86.97168783650002,8,0,0.04138095979416789,31.11315398702304,0.1165755061960133,-2.475810411827709e-05,9.95289879906384e-05,9.326040495681066e-07,9.953073744437522e-05,9.758154777646209e-05
0.5283121635,88.02831216350002,8,0,-0.03882513766074669,7.472355032690186,-0.09283369457946183,-6.102124466666537e-06,2.394259621473719e-05,-7.426695566356946e-07,2.394718498965692e-05,2.551825475840724e-05
1.9716878365,88.02831216350002,8,0,0.04184586728633821,7.795039052478526,-0.09669117886585765,-6.102124466666537e-06,2.491064827410221e-05,-7.735294309268613e-07,2.491547092212674e-05,2.587323095620523e-05
0.5283121635,89.47168783650001,8,0,-0.04911176242463156,7.469783376499215,0.02817281284124692,-6.132984340958192e-06,2.394259621473719e-05,2.253825027299754e-07,2.394301845562539e-05,2.563625937866855e-05
1.9716878365,89.47168783650001,8,0,0.03155924252245335,7.792467396287554,0.02431532855471557,-6.132984340958192e-06,2.491064827410221e-05,1.945226284377245e-07,2.491095299586289e-05,2.598898667340317e-05
3.0283121635,88.02831216350002,8,0,-0.05828976263519214,7.998944069437499,-0.1626555370033722,-6.585682495982613e-06,2.564325283230815e-05,-1.301244296026977e-06,2.565638192894126e-05,2.629250206000575e-05
4.4716878365,88.02831216350002,8,0,0.02783197199765164,8.343431007968874,-0.1660654910361626,-6.585682495982613e-06,2.667671364790227e-05,-1.328523928289301e-06,2.668997391094903e-05,2.708299581998496e-05
3.0283121635,89.47168783650001,8,0,-0.06738297338933608,7.996670766748828,-0.03347293505426892,-6.612962128244937e-06,2.564325283230771e-05,-2.677834804341514e-07,2.564380859153898e-05,2.64053718958502e-05
4.4716878365,89.47168783650001,8,0,0.01873876124350771,8.341157705280203,-0.036882889086951,-6.612962128244937e-06,2.667671364790184e-05,-2.95063112695608e-07,2.667736745819416e-05,2.719023018441014e-05
5.528312163500001,88.02831216350002,8,0,-0.09286742842457452,8.556561285174869,-0.2270243696178922,-7.142424799098533e-06,2.745529005529924e-05,-1.816194956943138e-06,2.747910878731318e-05,2.773823225179477e-05
6.9716878365,88.02831216350002,8,0,-0.001729971168000333,8.921111114201166,-0.2297513094834044,-7.142424799098533e-06,2.854893954237813e-05,-1.838010475867236e-06,2.857258703915551e-05,2.873787771456624e-05
5.528312163500001,89.47168783650001,8,0,-0.1001392680659228,8.554743325264395,-0.09031818373305811,-7.164240318022468e-06,2.74552900552988e-05,-7.225454698644648e-07,2.745905971298275e-05,2.78405334858601e-05
6.9716878365,89.47168783650001,8,0,-0.009001810809330379,8.919293154290765,-0.09304512359848902,-7.164240318022468e-06,2.854893954237791e-05,-7.443609887879121e-07,2.855281775429914e-05,2.883233685726677e-05
8.028312163500001,88.02831216350002,8,0,-0.1409615211343418,9.142684966933341,-0.2846443685905215,-7.765224841176565e-06,2.936936111109416e-05,-2.277154948724172e-06,2.940423809243339e-05,2.951135125717589e-05
9.471687836500001,88.02831216350002,8,0,-0.04531286093642573,9.525279607725006,-0.2864988251312833,-7.765224841176565e-06,3.051714503346915e-05,-2.291990601050267e-06,3.05514200915055e-05,3.062487481121413e-05
8.028312163500001,89.47168783650001,8,0,-0.1459067385761563,9.141448662573023,-0.1411713782937152,-7.780060493502118e-06,2.93693611110946e-05,-1.129371026349722e-06,2.93779425660312e-05,2.959954931871387e-05
9.471687836500001,89.47168783650001,8,0,-0.05025807837826735,9.524043303364579,-0.1430258348344635,-7.780060493502118e-06,3.051714503346926e-05,-1.144206678675708e-06,3.052568950083851e-05,3.070380937226975e-05
10.5283121635,88.02831216350002,8,0,-0.2007596544321371,9.754418555001342,-0.3344962925027272,-8.445965738183912e-06,3.137474709955001e-05,-2.675970340021818e-06,3.141965307037579e-05,3.146601794551961e-05
11.9716878365,88.02831216350002,8,0,-0.1011572798544504,10.15282805331209,-0.3353316453546683,-8.445965738183912e-06,3.256997559448224e-05,-2.682653162837346e-06,3.261379360576061e-05,3.265054017093935e-05
10.5283121635,89.47168783650001,8,0,-0.202987262037277,9.753861653100058,-0.185092730636252,-8.452648560999332e-06,3.137474709955001e-05,-1.480741845090016e-06,3.138850546364285e-05,3.153785974219931e-05
11.9716878365,89.47168783650001,8,0,-0.1033848874596268,10.15227115141066,-0.1859280834881389,-8.452648560999332e-06,3.256997559448181e-05,-1.487424667905111e-06,3.258345416576222e-05,3.271226767545946e-05
13.0283121635,88.02831216350002,8,0,-0.270291414290273,10.38858196413627,-0.3758202599414811,-9.175798097037886e-06,3.345969541666827e-05,-3.006562079531849e-06,3.351263373713173e-05,3.353563473146174e-05
14.4716878365,88.02831216350002,8,0,-0.167330475633034,10.80042571876522,-0.3755292909479935,-9.175798097037886e-06,3.469522668055514e-05,-3.004234327583948e-06,3.474659810308587e-05,3.476923581499484e-05
13.0283121635,89.47168783650001,8,0,-0.2695154969739626,10.38877594346534,-0.2213788519557849,-9.173470345088955e-06,3.345969541666827e-05,-1.77103081564628e-06,3.34780801536432e-05,3.358980523321711e-05
14.4716878365,89.47168783650001,8,0,-0.1665545583167236,10.8006196980943,-0.2210878829620941,-9.173470345088955e-06,3.469522668055514e-05,-1.768703063696753e-06,3.471304713377882e-05,3.481287449340266e-05
15.5283121635,88.02831216350002,8,0,-0.3474808395081905,11.04179618717376,-0.4080972556057499,-9.945375636165213e-06,3.561173247056256e-05,-3.264778044846e-06,3.567014885293177e-05,3.568532372558146e-05
16.9716878365,88.02831216350002,8,0,-0.241780079512135,11.46459922715798,-0.4066086643064113,-9.945375636165213e-06,3.688014159051523e-05,-3.252869314451291e-06,3.69365660814239e-05,3.695452135807704e-05
15.5283121635,89.47168783650001,8,0,-0.343511262709665,11.04278858137339,-0.2495461156117886,-9.933466905769637e-06,3.561173247056256e-05,-1.996368924894309e-06,3.56335985313131e-05,3.572122208361236e-05
16.9716878365,89.47168783650001,8,0,-0.2378105027136188,11.46559162135757,-0.2480575243123551,-9.933466905769637e-06,3.688014159051512e-05,-1.984460194498841e-06,3.690116280007888e-05,3.697980459091795e-05
18.0283121635,88.02831216350002,8,0,-0.4301939405480226,11.71056116828787,-0.4310303694651178,-1.074506954438397e-05,3.781795089095961e-05,-3.448242955720942e-06,3.787908501036261e-05,3.789300604184295e-05
19.4716878365,88.02831216350002,8,0,-0.3223828124829313,12.14180568054824,-0.4283054205184015,-1.074506954438397e-05,3.91116844277407e-05,-3.426443364147212e-06,3.917048630787231e-05,3.918779624763001e-05
18.0283121635,89.47168783650001,8,0,-0.4229274100234823,11.71237780091901,-0.2693136773675078,-1.072326995281035e-05,3.781795089095961e-05,-2.154509418940062e-06,3.784184618456485e-05,3.791058264119947e-05
19.4716878365,89.47168783650001,8,0,-0.315116281958391,12.14362231317937,-0.2665887284207373,-1.072326995281035e-05,3.91116844277407e-05,-2.132709827365898e-06,3.913449156483075e-05,3.919493305794101e-05
20.5283121635,88.02831216350002,8,0,-0.516281712061025,12.39132719992871,-0.4445264532188529,-1.156516323853825e-05,4.006527240942069e-05,-3.556211625750823e-06,4.012643631823549e-05,4.014191841109133e-05
21.9716878365,88.02831216350002,8,0,-0.4069886054972653,12.82849962618375,-0.4405558549879223,-1.156516323853825e-05,4.137678968818581e-05,-3.524446839903378e-06,4.143538213021108e-05,4.145383843261896e-05
20.5283121635,89.47168783650001,8,0,-0.5056934501117869,12.39397426541602,-0.280586793373241,-1.153339845269053e-05,4.006527240942069e-05,-2.244694346985928e-06,4.008967357596012e-05,4.014155018687966e-05
21.9716878365,89.47168783650001,8,0,-0.3964003435480095,12.83114669167113,-0.2766161951422834,-1.153339845269053e-05,4.137678968818602e-05,-2.212929561138267e-06,4.139991811447849e-05,4.144340586182342e-05
23.0283121635,88.02831216350002,8,0,-0.6036191469643009,13.08056024708872,-0.4486785779389362,-1.239602946795674e-05,4.234068810825536e-05,-3.589428623511489e-06,4.239947029793484e-05,4.241769960845028e-05
24.4716878365,88.02831216350002,8,0,-0.4934606321050787,13.52119430652561,-0.4434796291541648,-1.239602946795674e-05,4.366259028656602e-05,-3.547837033233319e-06,4.371866805304454e-05,4.373909729084888e-05
23.0283121635,89.47168783650001,8,0,-0.5897552835380995,13.08402621294528,-0.283440805650076,-1.235443787767814e-05,4.234068810825536e-05,-2.267526445200608e-06,4.236417954691776e-05,4.240009360567759e-05
24.4716878365,89.47168783650001,8,0,-0.4795967686788773,13.52466027238216,-0.2782418568652504,-1.235443787767814e-05,4.366259028656602e-05,-2.225934854922004e-06,4.368469442065566e-05,4.3711957454033e-05
25.5283121635,88.02831216350002,8,0,-0.69014073026745,13.7748016494062,-0.4437494198449428,-1.32282916563808e-05,4.463147786231379e-05,-3.549995358759542e-06,4.468587934484105e-05,4.470730104016921e-05
26.9716878365,88.02831216350002,8,0,-0.5797117381368606,14.21651761792856,-0.4373634115318069,-1.32282916563808e-05,4.595662576788086e-05,-3.498907292254455e-06,4.600829296104729e-05,4.603108519310491e-05
25.5283121635,89.47168783650001,8,0,-0.6731113747658992,13.77905898828159,-0.2781059316490724,-1.317720358987614e-05,4.463147786231379e-05,-2.224847453192579e-06,4.465287652793855e-05,4.467342037762447e-05
26.9716878365,89.47168783650001,8,0,-0.5626823826353098,14.22077495680394,-0.2717199233359907,-1.317720358987614e-05,4.595662576788086e-05,-2.173759386687926e-06,4.597659587087632e-05,4.598832208622638e-05
28.0283121635,88.02831216350002,8,0,-0.7738728019169043,14.47072261693165,-0.4301555030429858,-1.405297105967941e-05,4.692541061571479e-05,-3.441244024343887e-06,4.697392267208428e-05,4.699862425472029e-05
29.4716878365,88.02831216350002,8,0,-0.6637376752142918,14.9112631237421,-0.4226453280935244,-1.405297105967941e-05,4.824703213614613e-05,-3.381162624748195e-06,4.829287424735136e-05,4.831820597653767e-05
28.0283121635,89.47168783650001,8,0,-0.7538456687184674,14.47572940023126,-0.2649528129890807,-1.39928896600841e-05,4.692541061571479e-05,-2.119622503912646e-06,4.694384284605566e-05,4.694963203555185e-05
29.4716878365,89.47168783650001,8,0,-0.6437105420158282,14.91626990704181,-0.2574426380396464,-1.39928896600841e-05,4.824703213614646e-05,-2.059541104317171e-06,4.826406521128295e-05,4.826107795044026e-05
30.5283121635,88.02831216350002,8,0,-0.8529630541123217,15.16517384409056,-0.4084520958555574,-1.486162084843187e-05,4.921092674437964e-05,-3.26761676684446e-06,4.925256074433764e-05,4.928044665751867e-05
31.9716878365,88.02831216350002,8,0,-0.7436474272360609,15.6024363515956,-0.3998999991669831,-1.486162084843187e-05,5.052271426689476e-05,-3.199199993335865e-06,5.056182440759932e-05,5.058975536536277e-05
30.5283121635,89.47168783650001,8,0,-0.8301574629425916,15.17087524188299,-0.2444786555410856,-1.479320407492268e-05,4.921092674437964e-05,-1.955829244328685e-06,4.922586474685051e-05,4.921766397629447e-05
31.9716878365,89.47168783650001,8,0,-0.7208418360662954,15.60813774938818,-0.2359265588524435,-1.479320407492268e-05,5.05227142668952e-05,-1.887412470819548e-06,5.053634640506557e-05,5.051965968596129e-05
33.0283121635,88.02831216350002,8,0,-0.9257072930329713,15.85523044413972,-0.3793184905387967,-1.564644769301728e-05,5.147730325567347e-05,-3.034547924310373e-06,5.15115824069947e-05,5.1542459402244e-05
34.4716878365,88.02831216350002,8,0,-0.8176907850926911,16.28729647590084,-0.3698238874170394,-1.564644769301728e-05,5.277350135095683e-05,-2.958591099336315e-06,5.280546999985702e-05,5.283598652784603e-05
33.0283121635,89.47168783650001,8,0,-0.9003883513752227,15.86156017955443,-0.2172937286282813,-1.557049086804425e-05,5.147730325567434e-05,-1.738349829026251e-06,5.148856892260104e-05,5.146733406731766e-05
34.4716878365,89.47168783650001,8,0,-0.7923718434349958,16.29362621131533,-0.2077991255066054,-1.557049086804425e-05,5.277350135095705e-05,-1.662393004052843e-06,5.278360882992369e-05,5.275443291665794e-05
35.5283121635,88.02831216350002,8,0,-0.9905734676421636,16.5382322768363,-0.3435433879022266,-1.640042091792396e-05,5.371480205998988e-05,-2.748347103217813e-06,5.374172386222248e-05,5.377534606314634e-05
36.9716878365,88.02831216350002,8,0,-0.8842831953834631,16.9633933658711,-0.3332206850512048,-1.640042091792396e-05,5.49902853270943e-05,-2.665765480409639e-06,5.50151619202485e-05,5.504819691466818e-05
35.5283121635,89.47168783650001,8,0,-0.9630462600396195,16.54511407873694,-0.1841079795141345,-1.631783929511633e-05,5.371480205998988e-05,-1.472863836113076e-06,5.372254519238273e-05,5.368942913435059e-05
36.9716878365,89.47168783650001,8,0,-0.856755987780919,16.97027516777174,-0.1737852766631534,-1.631783929511633e-05,5.49902853270943e-05,-1.390282213305227e-06,5.499706120639525e-05,5.495678745674001e-05
38.0283121635,88.02831216350002,8,0,-1.046222864472905,17.21181962486297,-0.3020101472316723,-1.711736886620367e-05,5.591480109113983e-05,-2.416081177853378e-06,5.593477808189865e-05,5.597087233189211e-05
39.4716878365,88.02831216350002,8,0,-0.9420278000748468,17.62859988245521,-0.290986515996794,-1.711736886620367e-05,5.716514186391653e-05,-2.327892127974352e-06,5.718337546913798e-05,5.721881759922803e-05
38.0283121635,89.47168783650001,8,0,-1.016826514513176,17.21916871235304,-0.1457175506346933,-1.702917981632459e-05,5.591480109114026e-05,-1.165740405077546e-06,5.591945830862561e-05,5.587580006857918e-05
39.4716878365,89.47168783650001,8,0,-0.9126314501151631,17.63594896994509,-0.1346939193998015,-1.702917981632459e-05,5.716514186391642e-05,-1.077551355198412e-06,5.716905407604796e-05,5.711923089463771e-05
40.5283121635,88.02831216350002,8,0,-1.091528296982254,17.87396408436523,-0.2556817338751524,-1.779206181783539e-05,5.806990770755452e-05,-2.045453871001219e-06,5.808369301205586e-05,5.812197359782077e-05
41.97168783650001,88.02831216350002,8,0,-0.9897345068903372,18.28113924473289,-0.2440948060064628,-1.779206181783539e-05,5.929143318865752e-05,-1.952758448051702e-06,5.930379852688511e-05,5.934149640590572e-05
40.5283121635,89.47168783650001,8,0,-1.060629822665839,17.88168870294433,-0.1029910487373585,-1.769936639488615e-05,5.806990770755452e-05,-8.239283898988682e-07,5.807214752683668e-05,5.801945289087597e-05
41.97168783650001,89.47168783650001,8,0,-0.9588360325739309,18.28886386331196,-0.09140412086862826,-1.769936639488615e-05,5.929143318865742e-05,-7.312329669490261e-07,5.929316940128642e-05,5.923547429673602e-05
43.0283121635,88.02831216350002,8,0,-1.125589085692196,18.52299448063204,-0.205585286909015,-1.842028065872066e-05,6.017405360657629e-05,-1.64468229527212e-06,6.018265691052405e-05,6.022283399882584e-05
44.4716878365,88.02831216350002,8,0,-1.026435890312795,18.91960726214965,-0.1935807655178198,-1.842028065872066e-05,6.13638919511291e-05,-1.548646124142558e-06,6.137140622019532e-05,6.141117027332147e-05
43.0283121635,89.47168783650001,8,0,-1.093577028648864,18.53099749489288,-0.05685549384000814,-1.832424448759066e-05,6.017405360657629e-05,-4.548439507200651e-07,6.01747124784502e-05,6.011462979507213e-05
44.4716878365,89.47168783650001,8,0,-0.9944238332694262,18.92761027641063,-0.04485097244885357,-1.832424448759066e-05,6.136389195112953e-05,-3.588077795908286e-07,6.136429584553567e-05,6.130050587852199e-05
45.52831216350001,88.02831216350002,8,0,-1.14774263055766,19.15761760482919,-0.1527963230915413,-1.899887050164787e-05,6.222257043989954e-05,-1.222370584732331e-06,6.222716930329977e-05,6.226895338828446e-05
46.97168783650001,88.02831216350002,8,0,-1.051399721038311,19.54298924290659,-0.1405255226218745,-1.899887050164787e-05,6.337868535413174e-05,-1.124204180974996e-06,6.338252067125412e-05,6.342412416584204e-05
45.52831216350001,89.47168783650001,8,0,-1.115020495971846,19.16579813847551,-0.008281958812489647,-1.890070409789031e-05,6.222257043989911e-05,-6.625567049991718e-08,6.222258396811639e-05,6.215687698893196e-05
46.97168783650001,89.47168783650001,8,0,-1.01867758645246,19.55116977655306,0.003988841657204343,-1.890070409789031e-05,6.337868535413174e-05,3.191073325763474e-08,6.337868844814734e-05,6.331065028935583e-05
48.0283121635,88.02831216350002,8,0,-1.157572415275411,19.77693359004919,-0.09842267833867097,-1.952577860092066e-05,6.421224542037772e-05,-7.873814267093677e-07,6.421409629940001e-05,6.425720002865185e-05
49.47168783650001,88.02831216350002,8,0,-1.064137953774699,20.15067143605203,-0.08604002478654381,-1.952577860092066e-05,6.533345895838626e-05,-6.883201982923505e-07,6.533485473130468e-05,6.537803483494669e-05
48.0283121635,89.47168783650001,8,0,-1.124552005803181,19.78518869241724,0.04172901391249172,-1.942671737250397e-05,6.421224542037772e-05,3.338321112999337e-07,6.421257852898813e-05,6.414309744621514e-05
49.47168783650001,89.47168783650001,8,0,-1.031117544302369,20.15892653842049,0.05411166746453755,-1.942671737250397e-05,6.533345895838745e-05,4.328933397163004e-07,6.533401168087364e-05,6.526361207304393e-05
50.5283121635,88.02831216350002,8,0,-1.154912347062456,20.38044579907161,-0.04358835443037384,-2.000007614985714e-05,6.614135643467911e-05,-3.487068354429907e-07,6.614170933094312e-05,6.618584761979994e-05
51.97168783650001,88.02831216350002,8,0,-1.064412062510625,20.74244693727893,-0.0312488889281983,-2.000007614985714e-05,6.722735984930107e-05,-2.499911114255864e-07,6.722753896561564e-05,6.727199838482173e-05
50.5283121635,89.47168783650001,8,0,-1.12200710572352,20.38867210940634,0.09216207239737131,-1.990136042584034e-05,6.614135643467911e-05,7.372965791789705e-07,6.614293587186745e-05,6.607158740797905e-05
51.97168783650001,89.47168783650001,8,0,-1.031506821171689,20.75067324761367,0.1045015378995469,-1.990136042584034e-05,6.722735984930107e-05,8.360123031963748e-07,6.722936521699983e-05,6.715850244754936e-05
53.0283121635,88.02831216350002,8,0,-1.139847415316981,20.96806517338008,0.01058252009305638,-2.04219638677184e-05,6.800968648706983e-05,8.466016074445103e-08,6.80097067494452e-05,6.805459584598354e-05
54.4716878365,88.02831216350002,8,0,-1.052234689653014,21.31851607603595,0.02272558584275942,-2.04219638677184e-05,6.906103919503744e-05,1.818046867420754e-07,6.906113153913877e-05,6.910654110682113e-05
53.0283121635,89.47168783650001,8,0,-1.107465906650944,20.97616055054659,0.1420016085889805,-2.032481934172029e-05,6.800968648706983e-05,1.136012868711844e-06,6.801333871750522e-05,6.794205597713328e-05
54.4716878365,89.47168783650001,8,0,-1.019853180986904,21.32661145320275,0.1541446743387378,-2.032481934172029e-05,6.906103919503831e-05,1.233157394709902e-06,6.906529211836307e-05,6.899584899092724e-05
55.5283121635,88.02831216350002,8,0,-1.112710738230764,21.54010908280008,0.06298139320376375,-2.079276162857851e-05,6.981851765554487e-05,5.0385114563011e-07,6.981921807611227e-05,6.986457409416237e-05
56.97168783650001,88.02831216350002,8,0,-1.027867660575285,21.879481393422,0.07477902257341848,-2.079276162857851e-05,7.083663458741063e-05,5.982321805873478e-07,7.083761101512657e-05,7.088361346864226e-05
55.5283121635,89.47168783650001,8,0,-1.081250393245019,21.54797416904652,0.1902460096869698,-2.069838059362127e-05,6.981851765554487e-05,1.521968077495758e-06,6.982491486749213e-05,6.975562755579806e-05
56.97168783650001,89.47168783650001,8,0,-0.996407315589539,21.88734647966844,0.2020436390566516,-2.069838059362127e-05,7.083663458741063e-05,1.616349112453213e-06,7.084376950954864e-05,7.077758818382116e-05
58.0283121635,88.02831216350002,8,0,-1.074077147782842,22.09729480652783,0.1125304512934196,-2.111488271812735e-05,7.157060509911531e-05,9.002436103473571e-07,7.157279103853185e-05,7.161832838006305e-05
59.47168783650001,88.02831216350002,8,0,-0.9918164979950381,22.42633740567904,0.1238399901523846,-2.111488271812735e-05,7.255773289656896e-05,9.907199212190769e-07,7.25603523881592e-05,7.260656747274852e-05
58.0283121635,89.47168783650001,8,0,-1.043918377492124,22.10483449910051,0.2359214259750847,-2.10244064072552e-05,7.157060509911531e-05,1.887371407800677e-06,7.158022171035655e-05,7.151482720522579e-05
59.47168783650001,89.47168783650001,8,0,-0.9616577277043206,22.43387709825172,0.2472309648341039,-2.10244064072552e-05,7.255773289656896e-05,1.977847718672831e-06,7.256818212566813e-05,7.250704104108816e-05
60.5283121635,88.02831216350002,8,0,-1.024753531498054,22.64072785881581,0.1581970764918793,-2.139179358784642e-05,7.327013197340904e-05,1.265576611935034e-06,7.327436179597389e-05,7.331979179940596e-05
61.9716878365,88.02831216350002,8,0,-0.9448216418463762,22.96045541742253,0.1688842962476394,-2.139179358784642e-05,7.422931464922918e-05,1.351074369981115e-06,7.423408689797592e-05,7.428011780442553e-05
60.5283121635,89.47168783650001,8,0,-0.9962542788160276,22.64785267198632,0.2780949109693694,-2.130629582980034e-05,7.327013197340904e-05,2.224759287754955e-06,7.328321364048865e-05,7.322354924828485e-05
61.9716878365,89.47168783650001,8,0,-0.9163223891642946,22.96758023059325,0.2887821307251837,-2.130629582980034e-05,7.422931464922983e-05,2.31025704580147e-06,7.424327935709807e-05,7.418887223860716e-05
63.0283121635,88.02831216350002,8,0,-0.96576619654304,23.17188543693543,0.1990074997931476,-2.162796017848607e-05,7.492264635542778e-05,1.592059998345181e-06,7.492920893141695e-05,7.497423895999759e-05
64.47168783650001,88.02831216350002,8,0,-0.8878466322018257,23.48356369430028,0.2089484669766113,-2.162796017848607e-05,7.585768112752236e-05,1.67158773581289e-06,7.586484628580392e-05,7.591028721868991e-05
63.0283121635,89.47168783650001,8,0,-0.9392569507203614,23.1785127483911,0.3158868463050239,-2.154843244101803e-05,7.492264635542778e-05,2.527094770440191e-06,7.493919305751986e-05,7.488700954701474e-05
64.47168783650001,89.47168783650001,8,0,-0.861337386379093,23.49019100575617,0.3258278134884605,-2.154843244101803e-05,7.585768112752301e-05,2.606622507907684e-06,7.587511654475392e-05,7.582903315400238e-05
65.5283121635,88.02831216350002,8,0,-0.8983455428863225,23.69259530808806,0.2340596286862776,-2.182878198370668e-05,7.653498142019084e-05,1.872477029490221e-06,7.654389184747065e-05,7.658822477527071e-05
66.97168783650001,88.02831216350002,8,0,-0.8220635395917242,23.99772332126646,0.2431424113240029,-2.182878198370668e-05,7.745036545972602e-05,1.945139290592023e-06,7.745989214263598e-05,7.750433636559499e-05
65.5283121635,89.47168783650001,8,0,-0.8741247891857036,23.69865049651322,0.3484826336282165,-2.175611972260482e-05,7.653498142019084e-05,2.787861069025732e-06,7.655474568863584e-05,7.651168180380576e-05
66.97168783650001,89.47168783650001,8,0,-0.7978427858910964,24.00377850969165,0.3575654162659824,-2.175611972260482e-05,7.745036545972613e-05,2.860523330127859e-06,7.747098128352639e-05,7.743468899187849e-05
68.0283121635,88.02831216350002,8,0,-0.8239083245808265,24.20501046097901,0.2625351132450748,-2.200051500744185e-05,7.811516013479748e-05,2.100280905960599e-06,7.812617413097047e-05,7.816950756939518e-05
69.47168783650001,88.02831216350002,8,0,-0.7488359254610266,24.50530005745821,0.2706613539305052,-2.200051500744185e-05,7.901602892423508e-05,2.165290831444041e-06,7.902763085047287e-05,7.907067750366206e-05
68.0283121635,89.47168783650001,8,0,-0.8022383494197154,24.21042795476929,0.375143711924843,-2.193550508195852e-05,7.811516013479748e-05,3.001149695398744e-06,7.813766092060743e-05,7.810521781346344e-05
69.47168783650001,89.47168783650001,8,0,-0.7271659502998791,24.51071755124863,0.3832699526103546,-2.193550508195852e-05,7.901602892423551e-05,3.066159620882837e-06,7.90393053601594e-05,7.901412943397797e-05
70.5283121635,88.02831216350002,8,0,-0.7440377414102626,24.71157982490265,0.2837107985743882,-2.215018463243496e-05,7.967228563281669e-05,2.269686388595106e-06,7.968493224348649e-05,7.972695533219425e-05
71.97168783650001,88.02831216350002,8,0,-0.6696995846361782,25.00893245199899,0.2907972022907657,-2.215018463243496e-05,8.056434351410571e-05,2.326377618326126e-06,8.057751433579598e-05,8.061876976943451e-05
70.5283121635,89.47168783650001,8,0,-0.725140664833364,24.71630409404688,0.3952180337355284,-2.209349340270427e-05,7.967228563281669e-05,3.161744269884227e-06,7.969683763772218e-05,7.967635050839516e-05
71.97168783650001,89.47168783650001,8,0,-0.6508025080593161,25.01365672114307,0.4023044374518517,-2.209349340270427e-05,8.056434351410527e-05,3.218435499614813e-06,8.058956268720846e-05,8.057666050910816e-05
73.0283121635,88.02831216350002,8,0,-0.6604615393327231,25.21501530526012,0.296969785962552,-2.228548917007281e-05,8.121641820829856e-05,2.375758287700416e-06,8.123004956140444e-05,8.127043137009282e-05
74.47168783650001,88.02831216350002,8,0,-0.5863412631950498,25.51149640981082,0.3029495855262979,-2.228548917007281e-05,8.210586152195064e-05,2.423596684210383e-06,8.21199264553943e-05,8.215898953526838e-05
73.0283121635,89.47168783650001,8,0,-0.6445154071625359,25.21900183830267,0.4081502001690613,-2.223765077356225e-05,8.121641820829856e-05,3.265201601352491e-06,8.124217574446822e-05,8.123477608886525e-05
74.47168783650001,89.47168783650001,8,0,-0.5703951310248083,25.51548294285358,0.4141299997328886,-2.223765077356225e-05,8.210586152195129e-05,3.313039997863108e-06,8.213215321171288e-05,8.21324712893777e-05
75.5283121635,88.02831216350002,8,0,-0.5750282116966323,25.71825530306616,0.3018123823721164,-2.241469451988215e-05,8.2758439539169e-05,2.414499058976931e-06,8.277229535373505e-05,8.281064953002357e-05
76.97168783650001,88.02831216350002,8,0,-0.5005754629161547,26.01606629818807,0.30663685425269,-2.241469451988215e-05,8.365187252453474e-05,2.453094834021521e-06,8.366605434906196e-05,8.370245957985499e-05
75.5283121635,89.47168783650001,8,0,-0.5621629533484365,25.72147161765321,0.4134915055429146,-2.237609874483756e-05,8.2758439539169e-05,3.307932044343317e-06,8.278445313032765e-05,8.279100550991406e-05
76.97168783650001,89.47168783650001,8,0,-0.4877102045679047,26.01928261277533,0.4183159774234476,-2.237609874483756e-05,8.365187252453539e-05,3.346527819387581e-06,8.367827230498544e-05,8.369245925850618e-05
78.0283121635,88.02831216350002,8,0,-0.48968129038587,26.22442478318648,0.2978672512718417,-2.254651995578397e-05,8.430990433850542e-05,2.382938010174734e-06,8.432318778823174e-05,8.435897461257533e-05
79.47168783650001,88.02831216350002,8,0,-0.4143193434297423,26.52587257101099,0.3015073581620029,-2.254651995578397e-05,8.521424770197895e-05,2.412058865296023e-06,8.522774356773447e-05,8.526079698814492e-05
78.0283121635,89.47168783650001,8,0,-0.4799743386787378,26.22685152111326,0.4109101717060201,-2.251739910066257e-05,8.430990433850542e-05,3.287281373648161e-06,8.433518734565789e-05,8.43561610748002e-05
79.47168783650001,89.47168783650001,8,0,-0.4046123917226101,26.52829930893777,0.414550278596249,-2.251739910066257e-05,8.521424770197895e-05,3.316402228769992e-06,8.523976462206811e-05,8.526797440947618e-05
80.5283121635,88.02831216350002,8,0,-0.4064316046870271,26.73679183991188,0.2849030817390685,-2.269001460692799e-05,8.588287917146763e-05,2.279224653912548e-06,8.589483955273628e-05,8.59271079588856e-05
81.97168783650001,88.02831216350002,8,0,-0.3295656227881576,27.04425576750736,0.2873513145650101,-2.269001460692799e-05,8.680527095425406e-05,2.298810516520081e-06,8.681733528097797e-05,8.684568100909746e-05
80.5283121635,89.47168783650001,8,0,-0.3999029838177766,26.73842399512919,0.4002020545874809,-2.267042874432024e-05,8.588287917146763e-05,3.201616436699847e-06,8.590648075456448e-05,8.59416582439299e-05
81.97168783650001,89.47168783650001,8,0,-0.323037001918844,27.04588792272492,0.4026502874134226,-2.267042874432024e-05,8.680527095425482e-05,3.22120229930738e-06,8.682896091336213e-05,8.687038337329756e-05
83.02831216350002,88.02831216350002,8,0,-0.3273272747469784,27.25872058876713,0.2628410631012363,-2.285442375020403e-05,8.748976770385237e-05,2.102728504809891e-06,8.749978423889328e-05,8.752650997410766e-05
84.47168783650002,88.02831216350002,8,0,-0.2483532651794897,27.57461662703708,0.2641135434702085,-2.285442375020403e-05,8.843745581866224e-05,2.112908347761669e-06,8.844748345834518e-05,8.846799624764729e-05
83.02831216350002,89.47168783650001,8,0,-0.3239339937629264,27.25956890901314,0.381302077452335,-2.284424390725187e-05,8.748976770385237e-05,3.05041661961868e-06,8.751084747787198e-05,8.755862440474829e-05
84.47168783650002,89.47168783650001,8,0,-0.2449599841954377,27.57546494728309,0.3825745578213478,-2.284424390725187e-05,8.843745581866224e-05,3.060596462570783e-06,8.845849584590567e-05,8.85102087412376e-05
85.5283121635,88.02831216350002,8,0,-0.2544211057703052,27.79362010114148,0.2317683865245111,-2.304904361937816e-05,8.914312120826898e-05,1.854147092196089e-06,8.915078133929139e-05,8.916719165073572e-05
86.97168783650002,88.02831216350002,8,0,-0.1727356405350848,28.12036196208236,0.2319072705699564,-2.304904361937816e-05,9.012334679109162e-05,1.855258164559651e-06,9.01309496870554e-05,9.013594274293347e-05
85.5283121635,89.47168783650001,8,0,-0.2540507483157297,27.79371269050512,0.3542965843773274,-2.304793254701443e-05,8.914312120826898e-05,2.834372675018619e-06,8.916102011087567e-05,8.921668618016372e-05
86.97168783650002,89.47168783650001,8,0,-0.1723652830804916,28.12045455144608,0.3544354684227591,-2.304793254701443e-05,9.012334679109183e-05,2.835483747382073e-06,9.014110462409979e-05,9.01952341013038e-05
88.02831216350002,88.02831216350002,8,0,-0.1897349688112921,28.34488900517036,0.191952891890243,-2.328306310433242e-05,9.085543279159416e-05,1.535623135121944e-06,9.086059763911561e-05,9.085495865586213e-05
89.47168783650001,88.02831216350002,8,0,-0.104745754965677,28.68484586055282,0.1910290881120447,-2.328306310433242e-05,9.187530335774154e-05,1.528232704896357e-06,9.188037331586566e-05,9.185059556931948e-05
88.02831216350002,89.47168783650001,8,0,-0.1921984455533439,28.34427313598484,0.3194367126586385,-2.329045353455857e-05,9.085543279159416e-05,2.555493701269108e-06,9.086973407340277e-05,9.092120710500935e-05
89.47168783650001,89.47168783650001,8,0,-0.1072092317077287,28.6842299913673,0.3185129088804266,-2.329045353455857e-05,9.187530335774154e-05,2.548103271043413e-06,9.188939616628568e-05,9.192605431500056e-05
90.52831216350002,88.02831216350002,8,0,-0.1352207044947127,28.91585531437134,0.1438588387202088,-2.356539050588015e-05,9.263891356958405e-05,1.15087070976167e-06,9.264176301419754e-05,9.258482086120005e-05
91.97168783650001,88.02831216350002,8,0,-0.04635809367183175,29.27130575766287,0.1419750161592249,-2.356539050588015e-05,9.370526489945862e-05,1.135800129273799e-06,9.370801497294799e-05,9.359512474944772e-05
90.52831216350002,89.47168783650001,8,0,-0.1402442313239307,28.91459943266404,0.2771527549545434,-2.35804610863678e-05,9.263891356958405e-05,2.217222039636348e-06,9.264948759467147e-05,9.266668370560538e-05
91.97168783650001,89.47168783650001,8,0,-0.05138162050104977,29.27004987595556,0.2752689323936002,-2.35804610863678e-05,9.370526489945862e-05,2.202151459148802e-06,9.371560086250899e-05,9.36852736204113e-05
93.02831216350002,88.02831216350002,8,0,-0.09271707743416435,29.50971102685249,0.08816360636494983,-2.390446346927131e-05,9.450524894787527e-05,7.053088509195986e-07,9.450629923368509e-05,9.432485387419475e-05
94.47168783650002,88.02831216350002,8,0,0.0005534005437874967,29.88279293876429,0.08545742616279445,-2.390446346927131e-05,9.562449468361069e-05,6.836594093023556e-07,9.562547224246476e-05,9.530820703060344e-05
93.02831216350002,89.47168783650001,8,0,-0.09993355797315484,29.50790690671774,0.2280693233318635,-2.392611291088828e-05,9.450524894787527e-05,1.824554586654908e-06,9.451227580689397e-05,9.442057413616307e-05
94.47168783650002,89.47168783650001,8,0,-0.006663079995185228,29.88098881862961,0.2253631431297352,-2.392611291088828e-05,9.562449468361091e-05,1.802905145037881e-06,9.563129155866943e-05,9.541086258930796e-05
95.5283121635,88.02831216350002,8,0,-0.0639023511580934,30.129441073933,0.02577492573026122,-2.430804038285229e-05,9.646533331751205e-05,2.061994058420898e-07,9.646542132980044e-05,9.597623386801384e-05
96.97168783650002,88.02831216350002,8,0,0.03426165993753472,30.52209711831551,0.02242238016657608,-2.430804038285229e-05,9.764330145065959e-05,1.793790413326087e-07,9.764336741308071e-05,9.681796397230751e-05
95.5283121635,89.47168783650001,8,0,-0.07284247266109034,30.12720604355725,0.1730209423736083,-2.433486074736129e-05,9.646533331751205e-05,1.384167538988866e-06,9.646929824676603e-05,9.608325000940251e-05
96.97168783650002,89.47168783650001,8,0,0.02532153843452889,30.51986208793972,0.1696683968099638,-2.433486074736129e-05,9.764330145065948e-05,1.35734717447971e-06,9.764707740179623e-05,9.69299581504042e-05
98.02831216350002,88.02831216350002,8,0,-0.05024215470669624,30.77774629815049,-0.04215198062925069,-2.478297193358182e-05,9.852898187784689e-05,-3.372158450340055e-07,9.852921241979767e-05,9.727375570027584e-05
99.47168783650002,88.02831216350002,8,0,0.05323749473517125,31.19166489591796,-0.04593329021106803,-2.478297193358182e-05,9.977073767114932e-05,-3.674663216885442e-07,9.977100870122175e-05,9.76772717545142e-05
98.02831216350002,89.47168783650001,8,0,-0.06032564692475972,30.77522542509597,0.113067493533593,-2.4813222410236e-05,9.852898187784689e-05,9.045399482687441e-07,9.853064023461567e-05,9.73883067376973e-05
99.47168783650002,89.47168783650001,8,0,0.04315400251716284,31.18914402286366,0.1092861839517892,-2.4813222410236e-05,9.977073767114997e-05,8.742894716143139e-07,9.977227152163298e-05,9.779383022481109e-05
0.5283121635,90.52831216350002,8,0,-0.03960565304708252,7.532728295490146,-0.08483874805498597,-6.15292072614278e-06,2.413641506800613e-05,-6.787099844398877e-07,2.414021664884997e-05,2.571255876385151e-05
1.9716878365,90.52831216350002,8,0,0.04054455502354859,7.85332912777267,-0.08778966592413616,-6.15292072614278e-06,2.50982175648537e-05,-7.023173273930892e-07,2.510216292006327e-05,2.606384588747877e-05
0.5283121635,91.97168783650001,8,0,-0.04747476736508771,7.530761016910644,0.03538656405090634,-6.176528069096795e-06,2.413641506800613e-05,2.830925124072507e-07,2.413707600369023e-05,2.580300794050516e-05
1.9716878365,91.97168783650001,8,0,0.0326754407055434,7.851361849193169,0.03243564618174259,-6.176528069096795e-06,2.50982175648537e-05,2.594851694539407e-07,2.509875578981011e-05,2.615260934655877e-05
3.0283121635,90.52831216350002,8,0,-0.05809440851022574,8.055861721156896,-0.1390949578853657,-6.630591484158238e-06,2.582523303451024e-05,-1.112759663082926e-06,2.583476807497029e-05,2.64783801575725e-05
4.4716878365,90.52831216350002,8,0,0.02727565017549205,8.397341955899767,-0.1417055408603111,-6.630591484158238e-06,2.684967373873886e-05,-1.133644326882489e-06,2.685926731054033e-05,2.725962172136794e-05
3.0283121635,91.97168783650001,8,0,-0.06505596311002559,8.054121332507082,-0.01103986985682981,-6.651476147957747e-06,2.582523303451068e-05,-8.831895885463847e-08,2.582529307926481e-05,2.656497260213414e-05
4.4716878365,91.97168783650001,8,0,0.02031409557565578,8.395601567249807,-0.01365045283182936,-6.651476147957747e-06,2.684967373873886e-05,-1.092036226546349e-07,2.684976273120302e-05,2.734196856153482e-05
5.528312163500001,90.52831216350002,8,0,-0.09104285245863863,8.608745213356595,-0.1892094639345001,-7.178333298552919e-06,2.762081896470802e-05,-1.513675711476e-06,2.763727145903825e-05,2.790675491863724e-05
6.9716878365,90.52831216350002,8,0,-0.0008455830233602413,8.969534291097709,-0.1912953664241751,-7.178333298552919e-06,2.870318619793135e-05,-1.530362931393401e-06,2.871949645065516e-05,2.889351412912117e-05
5.528312163500001,91.97168783650001,8,0,-0.09660525909779016,8.607354611696808,-0.05391355978161001,-7.195020518470374e-06,2.762081896470802e-05,-4.3130847825288e-07,2.762215470635141e-05,2.798537400347674e-05
6.9716878365,91.97168783650001,8,0,-0.006407989662494007,8.968143689437992,-0.05599946227124444,-7.195020518470374e-06,2.870318619793157e-05,-4.479956981699555e-07,2.870458384666007e-05,2.896619440140242e-05
8.028312163500001,90.52831216350002,8,0,-0.1369840774317299,9.189096843396008,-0.2341529655859153,-7.78962652249834e-06,2.95146971608126e-05,-1.873223724687323e-06,2.953819817614808e-05,2.96566949360679e-05
9.471687836500001,90.52831216350002,8,0,-0.04242391506816157,9.567337492850282,-0.2355653687008169,-7.78962652249834e-06,3.064941910917542e-05,-1.884522949606535e-06,3.067250302827372e-05,3.075498446561249e-05
8.028312163500001,91.97168783650001,8,0,-0.1407504857383688,9.188155241319347,-0.09231272204046799,-7.800925747418258e-06,2.95146971608126e-05,-7.385017763237439e-07,2.951835066729791e-05,2.972462160457767e-05
9.471687836500001,91.97168783650001,8,0,-0.04619032337475559,9.566395890773801,-0.09372512515539669,-7.800925747418258e-06,3.064941910917596e-05,-7.498010012431736e-07,3.065307413559178e-05,3.081586285965724e-05
10.5283121635,90.52831216350002,8,0,-0.1942255563610966,9.794247711565314,-0.2731121379253041,-8.456919949607759e-06,3.149697312209787e-05,-2.184897103402433e-06,3.152682135038546e-05,3.158445915802612e-05
11.9716878365,90.52831216350002,8,0,-0.09582233326128708,10.18786060396455,-0.2737354914106023,-8.456919949607759e-06,3.267781179929559e-05,-2.189883931284818e-06,3.270693681338326e-05,3.27523366318445e-05
10.5283121635,91.97168783650001,8,0,-0.1958878323218736,9.793832142575118,-0.1255073032756845,-8.46190677749009e-06,3.149697312209787e-05,-1.004058426205476e-06,3.150327944404046e-05,3.163992933299372e-05
11.9716878365,91.97168783650001,8,0,-0.09748460922199165,10.18744503497465,-0.1261306567608878,-8.46190677749009e-06,3.267781179929646e-05,-1.009045254087102e-06,3.268399815202427e-05,3.280007955197924e-05
13.0283121635,90.52831216350002,8,0,-0.2609061936659058,10.42123124156779,-0.3054770929583113,-9.171884812985125e-06,3.355666492794963e-05,-2.44381674366649e-06,3.359157931338726e-05,3.362499111486156e-05
14.4716878365,90.52831216350002,8,0,-0.1592201334344403,10.82797548249365,-0.3052265926688003,-9.171884812985125e-06,3.477689765072722e-05,-2.441812741350402e-06,3.481078855030131e-05,3.484125002619991e-05
13.0283121635,91.97168783650001,8,0,-0.2602381928938762,10.42139824176079,-0.1529480026110446,-9.169880810669037e-06,3.355666492794963e-05,-1.223584020888357e-06,3.356542324785139e-05,3.366695022947206e-05
14.4716878365,91.97168783650001,8,0,-0.1585521326624106,10.82814248268665,-0.1526975023215878,-9.169880810669037e-06,3.477689765072722e-05,-1.221580018572702e-06,3.478538501688052e-05,3.487513474508925e-05
15.5283121635,90.52831216350002,8,0,-0.3350488538826348,11.06686678065886,-0.3308276048858593,-9.925649756951514e-06,3.568201278121444e-05,-2.646620839086874e-06,3.572037648142631e-05,3.574458921217233e-05
16.9716878365,90.52831216350002,8,0,-0.2306665371728296,11.48439604749808,-0.3296465902174605,-9.925649756951514e-06,3.69346005817321e-05,-2.637172721739684e-06,3.697167455165905e-05,3.699629885348348e-05
15.5283121635,91.97168783650001,8,0,-0.3318994814336436,11.0676541237711,-0.1742541298211655,-9.916201639604541e-06,3.568201278121444e-05,-1.394033038569324e-06,3.569266492113352e-05,3.577253103659695e-05
16.9716878365,91.97168783650001,8,0,-0.2275171647238476,11.48518339061029,-0.1730731151527261,-9.916201639604541e-06,3.693460058173199e-05,-1.384584921221808e-06,3.694482803201162e-05,3.701607878400691e-05
18.0283121635,90.52831216350002,8,0,-0.4146084364878559,11.72783724588677,-0.3489188773787855,-1.070901679347055e-05,3.786076593602795e-05,-2.791351019030284e-06,3.790083826550717e-05,3.792208463930147e-05
19.4716878365,90.52831216350002,8,0,-0.3081298528431931,12.15375158046542,-0.3467762818896671,-1.070901679347055e-05,3.91385089397639e-05,-2.774210255117337e-06,3.917707801682267e-05,3.919966880187769e-05
18.0283121635,91.97168783650001,8,0,-0.4088948485169639,11.72926564287949,-0.1892010019118322,-1.069187602955788e-05,3.786076593602795e-05,-1.513608015294658e-06,3.787255959323092e-05,3.793593208314952e-05
19.4716878365,91.97168783650001,8,0,-0.3024162648723374,12.155179977458,-0.1870584064227274,-1.069187602955788e-05,3.913850893976346e-05,-1.496467251381819e-06,3.914974159201936e-05,3.920547028461386e-05
20.5283121635,90.52831216350002,8,0,-0.4975157278712712,12.40076081873169,-0.3596674033152857,-1.151265898417342e-05,4.008044720223841e-05,-2.877339226522286e-06,4.012053324315195e-05,4.014141982251946e-05
21.9716878365,90.52831216350002,8,0,-0.3895423789507064,12.83265421441395,-0.3565553413320511,-1.151265898417342e-05,4.137612738928519e-05,-2.852442730656409e-06,4.14145595502648e-05,4.143674729652581e-05
20.5283121635,91.97168783650001,8,0,-0.4892168959157983,12.40283552672056,-0.1977073799344252,-1.1487762488307e-05,4.008044720223841e-05,-1.581659039475401e-06,4.009257219780299e-05,4.014143188467557e-05
21.9716878365,91.97168783650001,8,0,-0.3812435469952158,12.83472892240289,-0.1945953179511499,-1.1487762488307e-05,4.13761273892854e-05,-1.556762543609199e-06,4.138758598807964e-05,4.142898832862198e-05
23.0283121635,90.52831216350002,8,0,-0.5817173424374444,13.0822568583774,-0.3631372505153926,-1.232730098250175e-05,4.232859582075765e-05,-2.905098004123141e-06,4.236717190517705e-05,4.238878060516414e-05
24.4716878365,90.52831216350002,8,0,-0.4728413457332672,13.51776084519411,-0.3590687772521238,-1.232730098250175e-05,4.363510778120777e-05,-2.872550218016991e-06,4.367194553023513e-05,4.36944565009662e-05
23.0283121635,91.97168783650001,8,0,-0.5708680804020614,13.08496917388625,-0.1998232554589643,-1.229475319639559e-05,4.232859582075765e-05,-1.598586043671715e-06,4.23402892194722e-05,4.237547891574671e-05
24.4716878365,91.97168783650001,8,0,-0.4619920836978841,13.52047316070296,-0.1957547821957633,-1.229475319639559e-05,4.363510778120777e-05,-1.566038257566106e-06,4.364606791629061e-05,4.367378284482069e-05
25.5283121635,90.52831216350002,8,0,-0.665212076852868,13.76900628656642,-0.35952691797464,-1.314388367518231e-05,4.459298977849482e-05,-2.87621534379712e-06,4.462878790967413e-05,4.465154328247648e-05
26.9716878365,90.52831216350002,8,0,-0.5560062165275093,14.20582972786785,-0.3545339638063205,-1.314388367518231e-05,4.590346010239913e-05,-2.836271710450564e-06,4.593749974716335e-05,4.596067710112427e-05
25.5283121635,91.97168783650001,8,0,-0.6518975324040341,13.77233492267863,-0.1957181274867643,-1.310394004183581e-05,4.459298977849482e-05,-1.565745019894114e-06,4.460361038814233e-05,4.462565460955237e-05
26.9716878365,91.97168783650001,8,0,-0.5426916720786754,14.20915836398006,-0.1907251733184313,-1.310394004183581e-05,4.590346010239913e-05,-1.525801386547451e-06,4.591332191991575e-05,4.592791270412617e-05
28.0283121635,90.52831216350002,8,0,-0.7460839610507679,14.45780670937922,-0.3491567577690031,-1.395371404286583e-05,4.686184863885411e-05,-2.793254062152025e-06,4.68939052268906e-05,4.691794144536288e-05
29.4716878365,90.52831216350002,8,0,-0.6370926401179631,14.89377199311044,-0.3432882106354585,-1.395371404286583e-05,4.816974449004777e-05,-2.746305685083668e-06,4.82000813136989e-05,4.822410245156025e-05
28.0283121635,91.97168783650001,8,0,-0.730434502028253,14.46171907413485,-0.185669776369714,-1.390676566579829e-05,4.686184863885411e-05,-1.485358210957712e-06,4.687092388106596e-05,4.688035336200953e-05
29.4716878365,91.97168783650001,8,0,-0.621443181095457,14.89768435786603,-0.1798012292361694,-1.390676566579829e-05,4.816974449004766e-05,-1.438409833889355e-06,4.817807592328189e-05,4.818021153607802e-05
30.5283121635,90.52831216350002,8,0,-0.8225322151245686,15.14562250186778,-0.3324568541633013,-1.474860108989284e-05,4.912401777807654e-05,-2.659654833306411e-06,4.915169278316486e-05,4.917701483822153e-05
31.9716878365,90.52831216350002,8,0,-0.7142632771147204,15.57869825390717,-0.3257767481924529,-1.474860108989284e-05,5.042324503419472e-05,-2.606213985539623e-06,5.044929016850551e-05,5.047425888765514e-05
30.5283121635,91.97168783650001,8,0,-0.8047185992022525,15.15007590584836,-0.1700534471485828,-1.469516024212589e-05,4.912401777807654e-05,-1.360427577188662e-06,4.913126698218078e-05,4.912874200894183e-05
31.9716878365,91.97168783650001,8,0,-0.6964496611924407,15.5831516578876,-0.163373341177653,-1.469516024212589e-05,5.042324503419428e-05,-1.306986729421224e-06,5.042980248251908e-05,5.042031727937476e-05
33.0283121635,90.52831216350002,8,0,-0.8928982308932252,15.82963000999844,-0.3099551940978496,-1.552097834685707e-05,5.13691346167096e-05,-2.479641552782796e-06,5.139210703755585e-05,5.141866491768552e-05
34.4716878365,90.52831216350002,8,0,-0.7858156357456121,16.2579603905889,-0.3025409567821747,-1.552097834685707e-05,5.265412575848095e-05,-2.420327654257398e-06,5.267560039130841e-05,5.270158612537904e-05
33.0283121635,91.97168783650001,8,0,-0.8731269313842889,15.83457283487554,-0.1493313013764845,-1.546166444833016e-05,5.136913461670917e-05,-1.194650411011876e-06,5.137447300720742e-05,5.136082366305003e-05
34.4716878365,91.97168783650001,8,0,-0.7660443362366216,16.26290321546621,-0.1419170640606471,-1.546166444833016e-05,5.265412575848117e-05,-1.135336512485177e-06,5.265885630436639e-05,5.263875961777003e-05
35.5283121635,90.52831216350002,8,0,-0.9556896067948841,16.50725793970457,-0.2822659480745384,-1.626401309350728e-05,5.358777709249052e-05,-2.258127584596308e-06,5.360602218199208e-05,5.363374646624437e-05
36.9716878365,90.52831216350002,8,0,-0.8502069618445196,16.92918851950602,-0.2742066612280384,-1.626401309350728e-05,5.485356883189489e-05,-2.193653289824307e-06,5.487048086179904e-05,5.489753467070396e-05
35.5283121635,91.97168783650001,8,0,-0.9341981752040365,16.51263079760228,-0.1240419806489384,-1.619953879873474e-05,5.358777709249052e-05,-9.923358451915075e-07,5.359130452668794e-05,5.356753551666644e-05
36.9716878365,91.97168783650001,8,0,-0.828715530253672,16.93456137740374,-0.1159826938024384,-1.619953879873474e-05,5.485356883189489e-05,-9.278615504195072e-07,5.485659787026196e-05,5.482706250668479e-05
38.0283121635,90.52831216350002,8,0,-1.009601187851494,17.17622292136615,-0.2500777000764137,-1.69717021382177e-05,5.577159429865286e-05,-2.00062160061131e-06,5.57853472161514e-05,5.581416629009547e-05
39.4716878365,90.52831216350002,8,0,-0.9060761479742103,17.59032308087528,-0.2414723391993423,-1.69717021382177e-05,5.701389477718026e-05,-1.931778713594738e-06,5.702650241077436e-05,5.705466224174408e-05
38.0283121635,91.97168783650001,8,0,-0.9866535588460597,17.18195982861737,-0.09479014026052843,-1.690285925120129e-05,5.577159429865242e-05,-7.583211220842274e-07,5.577357241903816e-05,5.574085193912131e-05
39.4716878365,91.97168783650001,8,0,-0.883128518968749,17.59605998812661,-0.08618477938341632,-1.690285925120129e-05,5.701389477718016e-05,-6.894782350673305e-07,5.701550256523494e-05,5.697784410604523e-05
40.5283121635,90.52831216350002,8,0,-1.053533007660406,17.83456017230945,-0.2141415098761183,-1.763895376236086e-05,5.791341895751857e-05,-1.713132079008946e-06,5.792312892518934e-05,5.795297662931692e-05
41.97168783650001,90.52831216350002,8,0,-0.9522625672522018,18.23964193394227,-0.2050971400590604,-1.763895376236086e-05,5.912866424241702e-05,-1.640777120472483e-06,5.913743044568002e-05,5.916672122579179e-05
40.5283121635,91.97168783650001,8,0,-1.029414688148451,17.84058975218744,-0.06223584926378463,-1.756659880382499e-05,5.791341895751857e-05,-4.97886794110277e-07,5.791423999787691e-05,5.787388081217745e-05
41.97168783650001,91.97168783650001,8,0,-0.9281442477402466,18.24567151382026,-0.0531914794467945,-1.756659880382499e-05,5.912866424241702e-05,-4.255318355743561e-07,5.91292544873107e-05,5.90849064519575e-05
43.0283121635,90.52831216350002,8,0,-1.086605001565434,18.48064913831756,-0.1752587504136099,-1.826165531566343e-05,6.000736124386853e-05,-1.402070003308879e-06,6.001363972641249e-05,6.004445757212665e-05
44.4716878365,90.52831216350002,8,0,-0.987821704263145,18.87578232752672,-0.1658886720902708,-1.826165531566343e-05,6.1192760811496e-05,-1.327109376722166e-06,6.119830202796735e-05,6.122873326959044e-05
43.0283121635,91.97168783650001,8,0,-1.061618126036548,18.48689585719978,-0.02708380446016191,-1.818669468907678e-05,6.000736124386853e-05,-2.166704356812953e-07,6.000751133835789e-05,5.996094769750512e-05
44.4716878365,91.97168783650001,8,0,-0.962834828734259,18.88202904640894,-0.01771372613689056,-1.818669468907678e-05,6.1192760811496e-05,-1.417098090951245e-07,6.11928240572498e-05,6.114331125018884e-05
45.52831216350001,90.52831216350002,8,0,-1.108168360174822,19.11323398157896,-0.1342687265811442,-1.88367259378226e-05,6.204888342919252e-05,-1.074149812649154e-06,6.205244941257354e-05,6.208418552696977e-05
46.97168783650001,90.52831216350002,8,0,-1.012037450047599,19.49775762208785,-0.1246905790648942,-1.88367259378226e-05,6.320245435071921e-05,-9.975246325191539e-07,6.320548649527922e-05,6.323704886021517e-05
45.52831216350001,91.97168783650001,8,0,-1.082626633464967,19.11961941325642,0.009927638609785999,-1.876010075769303e-05,6.204888342919252e-05,7.942110887828799e-08,6.204890294345532e-05,6.199766515895665e-05
46.97168783650001,91.97168783650001,8,0,-0.9864957233377432,19.50414305376532,0.01950578612595465,-1.876010075769303e-05,6.320245435071921e-05,1.560462890076372e-07,6.320252862372782e-05,6.314943989277089e-05
48.0283121635,90.52831216350002,8,0,-1.117813417719851,19.73143879684853,-0.09203614063723427,-1.936215397418234e-05,6.403485488409117e-05,-7.362891250978741e-07,6.403647997568459e-05,6.406908605875042e-05
49.47168783650001,90.52831216350002,8,0,-1.024430948720734,20.104968672845,-0.08236998362292529,-1.936215397418234e-05,6.515544451208058e-05,-6.589598689834024e-07,6.515672892360509e-05,6.518939062578723e-05
48.0283121635,91.97168783650001,8,0,-1.09203699901499,19.73788290152475,0.04803756286140105,-1.928482471806776e-05,6.403485488409117e-05,3.843005028912085e-07,6.403529801496903e-05,6.398098577028619e-05
49.47168783650001,91.97168783650001,8,0,-0.9986545300158731,20.11141277752121,0.05770371987575068,-1.928482471806776e-05,6.515544451208058e-05,4.616297590060055e-07,6.51560754327423e-05,6.510103662276477e-05
50.5283121635,90.52831216350002,8,0,-1.115374015159619,20.33477747628085,-0.04943851627584842,-1.983701882953546e-05,6.59635871362264e-05,-3.955081302067873e-07,6.596404291928395e-05,6.5997470075549e-05
51.97168783650001,90.52831216350002,8,0,-1.02476592507346,20.69720983662549,-0.03980491800883654,-1.983701882953546e-05,6.705088421726031e-05,-3.184393440706923e-07,6.705117598191279e-05,6.70848796219075e-05
50.5283121635,91.97168783650001,8,0,-1.089684419780958,20.34119987512551,0.08647361885328209,-1.975995004339947e-05,6.59635871362264e-05,6.917889508262567e-07,6.596498279772366e-05,6.59092379694409e-05
51.97168783650001,91.97168783650001,8,0,-0.9990763296947982,20.70363223547015,0.09610721712032108,-1.975995004339947e-05,6.705088421726031e-05,7.688577369625686e-07,6.705258656994677e-05,6.6997234258921e-05
53.0283121635,90.52831216350002,8,0,-1.100928336495666,20.92315820024042,-0.007353723011047932,-2.026149723697847e-05,6.783484890996588e-05,-5.882978408838346e-08,6.783485873143766e-05,6.786905281432844e-05
54.4716878365,90.52831216350002,8,0,-1.013050478923092,21.27466963053072,0.00212811216468,-2.026149723697847e-05,6.888938320083677e-05,1.702489731744e-08,6.888938401363617e-05,6.892404427168852e-05
53.0283121635,91.97168783650001,8,0,-1.075643442693634,20.92947942369093,0.12446306334765,-2.018564255557237e-05,6.783484890996588e-05,9.957045067812004e-07,6.783766471948134e-05,6.778214433327414e-05
54.4716878365,91.97168783650001,8,0,-0.987765585121096,21.28099085398108,0.1339448985233915,-2.018564255557237e-05,6.888938320083633e-05,1.071559188187132e-06,6.88926057582943e-05,6.883856224639065e-05
55.5283121635,90.52831216350002,8,0,-1.074796280553771,21.49688259861005,0.03335224772861654,-2.06368541766601e-05,6.964986133999517e-05,2.668179818289323e-07,6.965005846666986e-05,6.968495543983132e-05
56.97168783650001,90.52831216350002,8,0,-0.9895353952664738,21.83792613975924,0.04256628050307732,-2.06368541766601e-05,7.067299196344273e-05,3.405302440246186e-07,7.067330945506272e-05,7.070881195397232e-05
55.5283121635,91.97168783650001,8,0,-1.050225526488776,21.5030252871263,0.161243575659629,-2.056314191446512e-05,6.964986133999517e-05,1.289948605277032e-06,6.965447232261295e-05,6.960082216668789e-05
56.97168783650001,91.97168783650001,8,0,-0.9649646412015525,21.8440688282752,0.1704576084339137,-2.056314191446512e-05,7.067299196344187e-05,1.363660867471309e-06,7.067808716815406e-05,7.062693708448538e-05
58.0283121635,90.52831216350002,8,0,-1.037533491584055,22.05663969612519,0.07183711402547076,-2.096541892996912e-05,7.141127382086785e-05,5.746969122037661e-07,7.141216764304146e-05,7.144768936737457e-05
59.47168783650001,90.52831216350002,8,0,-0.9547090814648911,22.38793733660184,0.0806721732867432,-2.096541892996912e-05,7.240516674229781e-05,6.453773862939455e-07,7.240628194092559e-05,7.24424834872994e-05
58.0283121635,91.97168783650001,8,0,-1.013973333553995,22.0625297356327,0.1960737292043243,-2.089473845587895e-05,7.141127382086785e-05,1.568589833634594e-06,7.141793724506041e-05,7.136776655808414e-05
59.47168783650001,91.97168783650001,8,0,-0.9311489234348311,22.39382737610936,0.2049087884656103,-2.089473845587895e-05,7.240516674229781e-05,1.639270307724882e-06,7.241236664186327e-05,7.236563540198899e-05
60.5283121635,90.52831216350002,8,0,-0.9899222231223721,22.60349481774914,0.1072936309803879,-2.12505469681909e-05,7.312312119529514e-05,8.583490478431032e-07,7.312507287277599e-05,7.316112363484512e-05
61.9716878365,90.52831216350002,8,0,-0.9092892963087795,22.92602652500351,0.1156450015230118,-2.12505469681909e-05,7.409071631705826e-05,9.251600121840944e-07,7.409296062574206e-05,7.412969091045753e-05
60.5283121635,91.97168783650001,8,0,-0.9676519016754836,22.60906239811086,0.228243021200723,-2.118373600385024e-05,7.312312119529514e-05,1.825944169605784e-06,7.313195872790304e-05,7.308681623834801e-05
61.9716878365,91.97168783650001,8,0,-0.8870189748619088,22.93159410536516,0.2365943917432655,-2.118373600385024e-05,7.409071631705804e-05,1.892755133946124e-06,7.41001159213055e-05,7.40592500809048e-05
63.0283121635,90.52831216350002,8,0,-0.9329592446037989,23.13887367863074,0.1389603475418505,-2.149656852563675e-05,7.479076316730142e-05,1.111682780334804e-06,7.479397178623764e-05,7.483043574573688e-05
64.47168783650001,90.52831216350002,8,0,-0.8542118745317113,23.4538631589191,0.1467312368467577,-2.149656852563675e-05,7.573573160816647e-05,1.173849894774062e-06,7.573927434388717e-05,7.577633896333059e-05
63.0283121635,91.97168783650001,8,0,-0.9122368731241366,23.14405427150066,0.2570814026499552,-2.143440141119776e-05,7.479076316730142e-05,2.056651221199642e-06,7.480175127864896e-05,7.476310265924477e-05
64.47168783650001,91.97168783650001,8,0,-0.8334895030521308,23.45904375178868,0.2648522919548217,-2.143440141119776e-05,7.573573160816549e-05,2.118818335638574e-06,7.574728057255826e-05,7.571362982183291e-05
65.5283121635,90.52831216350002,8,0,-0.867841014866138,23.6645419118769,0.1661317812043145,-2.170872477707316e-05,7.642080692989899e-05,1.329054249634516e-06,7.642530686017039e-05,7.646204631603075e-05
66.97168783650001,90.52831216350002,8,0,-0.7906166694326382,23.9734392936109,0.1732346734689168,-2.170872477707316e-05,7.734749907510098e-05,1.385877387751334e-06,7.735234622674798e-05,7.73895304252171e-05
65.5283121635,91.97168783650001,8,0,-0.8488999688271255,23.66927717338665,0.2819682993544684,-2.165190163895612e-05,7.642080692989899e-05,2.255746394835747e-06,7.64337761826758e-05,7.640298261303017e-05
66.97168783650001,91.97168783650001,8,0,-0.7716756233936533,23.97817455512054,0.2890711916190571,-2.165190163895612e-05,7.734749907510065e-05,2.312569532952457e-06,7.736100230960714e-05,7.733580230041246e-05
68.0283121635,90.52831216350002,8,0,-0.7959463385405119,24.1825802924173,0.1881680594798988,-2.189309251726348e-05,7.802101400656777e-05,1.505344475839191e-06,7.802668370999512e-05,7.806353744289535e-05
69.47168783650001,90.52831216350002,8,0,-0.7198309329319539,24.48704191485153,0.1945259789982355,-2.189309251726348e-05,7.893439887387047e-05,1.556207831985884e-06,7.894040328440161e-05,7.897747475074224e-05
68.0283121635,91.97168783650001,8,0,-0.7789918864914513,24.18681890542957,0.3023411678926952,-2.18422291611163e-05,7.802101400656777e-05,2.418729343141562e-06,7.80356575173336e-05,7.801395430875194e-05
69.47168783650001,91.97168783650001,8,0,-0.7028764808828933,24.4912805278638,0.3086990874110319,-2.18422291611163e-05,7.893439887387047e-05,2.469592699288255e-06,7.894952632172362e-05,7.893388036348671e-05
70.5283121635,90.52831216350002,8,0,-0.7188166901068476,24.69535589498726,0.2045041364202047,-2.205649812433172e-05,7.960019221604471e-05,1.636033091361637e-06,7.96067742495892e-05,7.964355364588959e-05
71.97168783650001,90.52831216350002,8,0,-0.6433503258621736,24.99722135196596,0.2100518552236195,-2.205649812433172e-05,8.050578858698079e-05,1.680414841788956e-06,8.051267124494193e-05,8.054937772151191e-05
70.5283121635,91.97168783650001,8,0,-0.7040227732978499,24.69905437418951,0.3177036827872282,-2.201211637390473e-05,7.960019221604471e-05,2.541629462297825e-06,7.961608318024551e-05,7.960455577499072e-05
71.97168783650001,91.97168783650001,8,0,-0.6285564090532301,25.00091983116799,0.3232514015906701,-2.201211637390473e-05,8.050578858698014e-05,2.586011212725361e-06,8.052209400828152e-05,8.051694901994995e-05
73.0283121635,90.52831216350002,8,0,-0.6381343378620672,25.20548937954242,0.214658744798925,-2.220642138479255e-05,8.116807348482538e-05,1.7172699583914e-06,8.117520486836246e-05,8.121168170809753e-05
74.47168783650001,90.52831216350002,8,0,-0.5628177029337058,25.50675591925587,0.2193439798366451,-2.220642138479255e-05,8.207187310396572e-05,1.754751838693161e-06,8.207925464027243e-05,8.211530577395951e-05
73.0283121635,91.97168783650001,8,0,-0.6256403777613535,25.2086128695676,0.3276336971913996,-2.216893950449041e-05,8.116807348482538e-05,2.621069577531197e-06,8.118469120227585e-05,8.118424196769565e-05
74.47168783650001,91.97168783650001,8,0,-0.5503237428330197,25.50987940928093,0.3323189322291739,-2.216893950449041e-05,8.20718731039654e-05,2.658551457833391e-06,8.2088821232824e-05,8.20949269595876e-05
75.5283121635,90.52831216350002,8,0,-0.5556983299308929,25.71581853133515,0.2182432841570651,-2.235088948084697e-05,8.273517796421716e-05,1.745946273256521e-06,8.274242944418821e-05,8.277829975560334e-05
76.97168783650001,90.52831216350002,8,0,-0.479999749926451,26.01861285135291,0.222027936032379,-2.235088948084697e-05,8.364356092427046e-05,1.776223488259032e-06,8.36510017582107e-05,8.368600893278169e-05
75.5283121635,91.97168783650001,8,0,-0.5456059249303626,25.71834163258528,0.3317911541636737,-2.232061226584538e-05,8.273517796421716e-05,2.65432923330939e-06,8.275194129450672e-05,8.276323100938604e-05
76.97168783650001,91.97168783650001,8,0,-0.4699073449260025,26.02113595260272,0.3355758060388792,-2.232061226584538e-05,8.364356092426949e-05,2.684606448311033e-06,8.366056184882641e-05,8.367838663652506e-05
78.0283121635,90.52831216350002,8,0,-0.4733983221491203,26.22935810063412,0.2149708666950029,-2.249836111138447e-05,8.431266457974845e-05,1.719766933560023e-06,8.431958663350489e-05,8.435437141642713e-05
79.47168783650001,90.52831216350002,8,0,-0.3967614702891682,26.53590550807392,0.2178323540528168,-2.249836111138447e-05,8.523230680206788e-05,1.742658832422535e-06,8.523935368396062e-05,8.527266250251873e-05
78.0283121635,91.97168783650001,8,0,-0.4657676891949318,26.23126575887266,0.3299261444849721,-2.247546921252191e-05,8.431266457974845e-05,2.639409155879777e-06,8.432897120675946e-05,8.435229551659868e-05
79.47168783650001,91.97168783650001,8,0,-0.389130837334962,26.53781316631254,0.3327876318427996,-2.247546921252191e-05,8.52323068020681e-05,2.662301054742397e-06,8.524875585728638e-05,8.527829318957089e-05
80.5283121635,90.52831216350002,8,0,-0.3931861399868053,26.74925589579957,0.2046657427823674,-2.265760036459743e-05,8.591216777854805e-05,1.63732594225894e-06,8.591834050019302e-05,8.595112525246021e-05
81.97168783650001,90.52831216350002,8,0,-0.315038431021331,27.06184673166146,0.2065984831042388,-2.265760036459743e-05,8.684994028613374e-05,1.65278786483391e-06,8.685617627718872e-05,8.688642887033044e-05
80.5283121635,91.97168783650001,8,0,-0.388032165795094,26.7505443893475,0.3218873062305647,-2.26421384420223e-05,8.591216777854805e-05,2.575098449844517e-06,8.592743709316428e-05,8.596243931571751e-05
81.97168783650001,91.97168783650001,8,0,-0.3098844568296286,27.06313522520936,0.3238200465524631,-2.26421384420223e-05,8.684994028613363e-05,2.590560372419705e-06,8.686526117555888e-05,8.690556361925872e-05
83.02831216350002,90.52831216350002,8,0,-0.3170448815551099,27.27874499167113,0.187273302518749,-2.283753961431325e-05,8.754561987859167e-05,1.498186420149992e-06,8.755070321557571e-05,8.757947120285371e-05
84.47168783650002,90.52831216350002,8,0,-0.2368065911485937,27.59969815329719,0.1882903807670042,-2.283753961431325e-05,8.850847936346987e-05,1.506323046136034e-06,8.851357363027422e-05,8.853759444931361e-05
83.02831216350002,91.97168783650001,8,0,-0.3143326728930953,27.27942304383663,0.3076307381285107,-2.282940298832721e-05,8.754561987859167e-05,2.461045905028086e-06,8.755933673721718e-05,8.760431128381463e-05
84.47168783650002,91.97168783650001,8,0,-0.2340943824865791,27.60037620546269,0.3086478163766846,-2.282940298832721e-05,8.850847936346987e-05,2.469182531013477e-06,8.85221676804259e-05,8.857020110159138e-05
85.5283121635,90.52831216350002,8,0,-0.2469552947727447,27.82109183268548,0.1628707973498394,-2.304713040942116e-05,8.92250581004117e-05,1.302966378798716e-06,8.922883834253108e-05,8.924878531021825e-05
86.97168783650002,90.52831216350002,8,0,-0.1640494587599299,28.15271517673673,0.1630058483867756,-2.304713040942116e-05,9.021992813256548e-05,1.304046787094205e-06,9.022368138990496e-05,9.023367162971108e-05
85.5283121635,91.97168783650001,8,0,-0.2465951586741584,27.82118186670998,0.2872295513689808,-2.304605000112529e-05,8.922505810041127e-05,2.297836410951846e-06,8.923681424015525e-05,8.928698723498167e-05
86.97168783650002,91.97168783650001,8,0,-0.1636893226613614,28.15280521076117,0.2873646024059576,-2.304605000112529e-05,9.021992813256483e-05,2.298916819247661e-06,9.023159199325431e-05,9.027939355187126e-05
88.02831216350002,90.52831216350002,8,0,-0.1848591079915485,28.37953994720374,0.1316788455333641,-2.329518110333594e-05,9.096241511744518e-05,1.053430764266913e-06,9.09648431678114e-05,9.096414345917967e-05
89.47168783650001,90.52831216350002,8,0,-0.09872226344287238,28.72408732539844,0.1309881545495466,-2.329518110333594e-05,9.199605725202929e-05,1.047905236396373e-06,9.199843835817723e-05,9.197494329137769e-05
88.02831216350002,91.97168783650001,8,0,-0.1867009506152248,28.37907948654782,0.2608841123564868,-2.330070663120697e-05,9.096241511744518e-05,2.087072898851895e-06,9.097194467949516e-05,9.101519931112252e-05
89.47168783650001,91.97168783650001,8,0,-0.1005641060665665,28.72362686474245,0.260193421372588,-2.330070663120697e-05,9.199605725202908e-05,2.081547370980704e-06,9.20054514585689e-05,9.203305171309461e-05
90.52831216350002,90.52831216350002,8,0,-0.1326189688448567,28.95724895676436,0.09407367794645068,-2.359017986571502e-05,9.276929183672181e-05,7.525894235716054e-07,9.277050872286984e-05,9.271970909199118e-05
91.97168783650001,90.52831216350002,8,0,-0.04271279909030667,29.31687363578256,0.09263847563683376,-2.359017986571502e-05,9.384816587377641e-05,7.411078050946701e-07,9.384933507304265e-05,9.374364726689548e-05
90.52831216350002,91.97168783650001,8,0,-0.1364461750039618,28.95629215522458,0.228932932578316,-2.360166148419234e-05,9.276929183672181e-05,1.831463460626528e-06,9.277649735200311e-05,9.278271429728901e-05
91.97168783650001,91.97168783650001,8,0,-0.04654000524941182,29.31591683424278,0.2274977302686178,-2.360166148419234e-05,9.384816587377641e-05,1.819981842148943e-06,9.385521598011598e-05,9.381297816395649e-05
93.02831216350002,90.52831216350002,8,0,-0.09197465955210138,29.55722857182053,0.05059994848107344,-2.394010176802314e-05,9.465671115746737e-05,4.047995878485875e-07,9.465705657617008e-05,9.448254120162782e-05
94.47168783650002,90.52831216350002,8,0,0.002201403639836563,29.93393282458828,0.04852884512900817,-2.394010176802314e-05,9.578682391577062e-05,3.882307610320653e-07,9.57871386376403e-05,9.547729879790261e-05
93.02831216350002,91.97168783650001,8,0,-0.09749760182433853,29.55584783625247,0.1918640432689795,-2.395667059483986e-05,9.465671115746737e-05,1.534912346151836e-06,9.466167656957834e-05,9.455611811091236e-05
94.47168783650002,91.97168783650001,8,0,-0.003321538632454768,29.93255208902001,0.1897929399169007,-2.395667059483986e-05,9.578682391576997e-05,1.518343519335205e-06,9.579163685862431e-05,9.555615033654865e-05
95.5283121635,90.52831216350002,8,0,-0.06449531642023487,30.18226732362711,0.00198377991880445,-2.435219887144644e-05,9.663485168874292e-05,1.58702393504356e-08,9.663485220917981e-05,9.615249385195276e-05
96.97168783650002,90.52831216350002,8,0,0.03439986722875865,30.57784805822308,-0.0005847540063383568,-2.435219887144644e-05,9.782159389253085e-05,-4.678032050706854e-09,9.782159393731129e-05,9.700240344844062e-05
95.5283121635,91.97168783650001,8,0,-0.07134474022074144,30.18055496767698,0.1503265553922414,-2.437274714284796e-05,9.663485168874292e-05,1.202612443137931e-06,9.663783960229514e-05,9.623465540653072e-05
96.97168783650002,91.97168783650001,8,0,0.02755044342826096,30.57613570227299,0.1477580214670851,-2.437274714284796e-05,9.782159389253096e-05,1.18206417173668e-06,9.782445254172609e-05,9.708833350535734e-05
98.02831216350002,90.52831216350002,8,0,-0.05152749366034115,30.83485589876572,-0.05085445269833479,-2.483277269872566e-05,9.871276087097857e-05,-4.068356215866783e-07,9.871309579764388e-05,9.746239537196359e-05
99.47168783650002,90.52831216350002,8,0,0.05247011129500301,31.2508463185871,-0.05374969079888214,-2.483277269872566e-05,9.996073213044271e-05,-4.299975263910571e-07,9.99611025369878e-05,9.786920708166523e-05
98.02831216350002,91.97168783650001,8,0,-0.0592481285950619,30.83292574003204,0.1051419547347236,-2.485593460352983e-05,9.871276087097857e-05,8.411356378777886e-07,9.871419226297284e-05,9.755025824762957e-05
99.47168783650002,91.97168783650001,8,0,0.04474947636027338,31.24891615985338,0.1022467166341356,-2.485593460352983e-05,9.99607321304426e-05,8.179737330730845e-07,9.996207224362999e-05,9.795858201401748e-05
0.5283121635,93.0283121635,8,0,-0.04045206594666739,7.577271132969592,-0.07726864399477831,-6.191263517405009e-06,2.427962927826002e-05,-6.181491519582265e-07,2.42827639834943e-05,2.585949998466924e-05
1.9716878365,93.0283121635,8,0,0.0393243142999613,7.896376653956107,-0.07934997530705955,-6.191263517405009e-06,2.523694584121957e-05,-6.347998024564764e-07,2.524015100073416e-05,2.620805597553019e-05
0.5283121635,94.47168783650002,8,0,-0.04600228277936314,7.575883578761418,0.0423959263750836,-6.207914167903096e-06,2.427962927826002e-05,3.391674110006689e-07,2.42805725403329e-05,2.592338994290184e-05
1.9716878365,94.47168783650002,8,0,0.03377409746726556,7.894989099747933,0.04031459506292434,-6.207914167903096e-06,2.523694584121957e-05,3.225167605033948e-07,2.523777279930856e-05,2.627077552391496e-05
3.0283121635,93.0283121635,8,0,-0.05817898646125963,8.09792824245708,-0.1165897045383714,-6.664515350641694e-06,2.595991356503166e-05,-9.327176363069711e-07,2.596657869697459e-05,2.661907129235114e-05
4.4716878365,93.0283121635,8,0,0.02664334610637153,8.437217572727604,-0.118432092091546,-6.664515350641694e-06,2.697778155584323e-05,-9.47456736732368e-07,2.698445096033313e-05,2.739343002978177e-05
3.0283121635,94.47168783650002,8,0,-0.06309201993635583,8.096699984087898,0.01064379431304791,-6.679254451066657e-06,2.595991356503036e-05,8.51503545043833e-08,2.595996910084037e-05,2.668027921809157e-05
4.4716878365,94.47168783650002,8,0,0.02173031263135661,8.43598931435875,0.008801406759873301,-6.679254451066657e-06,2.697778155584291e-05,7.041125407898641e-08,2.697781838127278e-05,2.745167853550363e-05
5.528312163500001,93.0283121635,8,0,-0.08985466229670935,8.647376812941028,-0.152966580812698,-7.205436369702291e-06,2.774348953124865e-05,-1.223732646501584e-06,2.775419846454568e-05,2.803451769297526e-05
6.9716878365,93.0283121635,8,0,-0.0003475704762250231,9.005405180222965,-0.1544377576693731,-7.205436369702291e-06,2.881757463309446e-05,-1.235502061354985e-06,2.882816520187635e-05,2.901164302356929e-05
5.528312163500001,94.47168783650002,8,0,-0.09377780058123086,8.646396028369761,-0.01870594308188986,-7.217205784555746e-06,2.774348953124822e-05,-1.496475446551189e-07,2.774364967026176e-05,2.80901616647228e-05
6.9716878365,94.47168783650002,8,0,-0.004270708760737207,9.004424395651736,-0.02017711993860562,-7.217205784555746e-06,2.881757463309414e-05,-1.614169595088449e-07,2.881775539806489e-05,2.906313069618721e-05
8.028312163500001,93.0283121635,8,0,-0.1341122977643447,9.223512108818639,-0.1856434425955499,-7.807969039900814e-06,2.962252858643112e-05,-1.485147540764399e-06,2.963725451812719e-05,2.976711020902524e-05
9.471687836500001,93.0283121635,8,0,-0.04035479805451292,9.598542107657966,-0.186636368595082,-7.807969039900814e-06,3.07476185829491e-05,-1.493090948760656e-06,3.076206840416397e-05,3.085395961263567e-05
8.028312163500001,94.47168783650002,8,0,-0.1367601004295467,9.222850158152474,-0.04500719303084273,-7.815912447896528e-06,2.962252858643155e-05,-3.600575442467419e-07,2.96233942637541e-05,2.981526456661385e-05
9.471687836500001,94.47168783650002,8,0,-0.04300260071974193,9.597880156991693,-0.04600011903029347,-7.815912447896528e-06,3.074761858294921e-05,-3.680009522423477e-07,3.074849649541151e-05,3.08971634833358e-05
10.5283121635,93.0283121635,8,0,-0.1893524594986293,9.823834137817084,-0.2140210464757008,-8.464995180649279e-06,3.158775120861356e-05,-1.712168371805606e-06,3.160604073162358e-05,3.167465389723583e-05
11.9716878365,93.0283121635,8,0,-0.09183620766605038,10.2138991451474,-0.2144524022836393,-8.464995180649279e-06,3.275794623060452e-05,-1.715619218269114e-06,3.277578869760746e-05,3.282998297672973e-05
10.5283121635,94.47168783650002,8,0,-0.1905027416529874,9.823546567278493,-0.06774666872687253,-8.468446027112353e-06,3.158775120861356e-05,-5.419733498149802e-07,3.158958439355067e-05,3.171405299605237e-05
11.9716878365,94.47168783650002,8,0,-0.09298648982038094,10.21361157460892,-0.06817802453471618,-8.468446027112353e-06,3.275794623060484e-05,-5.454241962777294e-07,3.275975013898278e-05,3.286393773233712e-05
13.0283121635,93.0283121635,8,0,-0.2537994414138462,10.44553530105822,-0.237648144317342,-9.168586453370882e-06,3.362875251651737e-05,-1.901185154538736e-06,3.364985618569041e-05,3.369324303392731e-05
14.4716878365,93.0283121635,8,0,-0.1530584418492298,10.84849929931668,-0.2374566133690005,-9.168586453370882e-06,3.483764451129277e-05,-1.899652906952004e-06,3.485813593656246e-05,3.489638429094226e-05
13.0283121635,94.47168783650002,8,0,-0.2532886922185043,10.44566298835705,-0.0865366449704307,-9.167054205784855e-06,3.362875251651737e-05,-6.922931597634456e-07,3.363155208092284e-05,3.372311719696509e-05
14.4716878365,94.47168783650002,8,0,-0.1525476926538878,10.84862698661552,-0.08634511402221121,-9.167054205784855e-06,3.483764451129277e-05,-6.907609121776896e-07,3.484035513800829e-05,3.492055441096356e-05
15.5283121635,93.0283121635,8,0,-0.3255536698996626,11.0855830903031,-0.2562118683030587,-9.9102382159214e-06,3.573430882488965e-05,-2.04969494642447e-06,3.57573079223268e-05,3.579006694998357e-05
16.9716878365,93.0283121635,8,0,-0.2221502976153533,11.49919657944034,-0.2553563359101909,-9.9102382159214e-06,3.697514929230136e-05,-2.042850687281527e-06,3.699739108426988e-05,3.702851212341651e-05
15.5283121635,94.47168783650002,8,0,-0.3232722501853851,11.08615344523167,-0.1011068098767166,-9.903393956778566e-06,3.573430882488965e-05,-8.088544790137327e-07,3.573789245289231e-05,3.581003413189033e-05
16.9716878365,94.47168783650002,8,0,-0.219868877901094,11.49976693436883,-0.1002512774837946,-9.903393956778566e-06,3.697514929230114e-05,-8.020102198703569e-07,3.697857929080707e-05,3.704270070786931e-05
18.0283121635,93.0283121635,8,0,-0.4026400539419268,11.74079740595513,-0.2695276512950598,-1.068108609737827e-05,3.789266374220994e-05,-2.156221210360479e-06,3.791658099064281e-05,3.794465523617975e-05
19.4716878365,93.0283121635,8,0,-0.2971520850647438,12.16274928146386,-0.2679854164184837,-1.068108609737827e-05,3.915851936873614e-05,-2.143883331347869e-06,3.918156385064405e-05,3.92091595939267e-05
18.0283121635,94.47168783650002,8,0,-0.3985274276044626,11.74182556253949,-0.1112956979792447,-1.066874821836587e-05,3.789266374220994e-05,-8.903655838339575e-07,3.789674457629221e-05,3.795463988961353e-05
19.4716878365,94.47168783650002,8,0,-0.2930394587272889,12.16377743804819,-0.1097534631027634,-1.066874821836587e-05,3.915851936873603e-05,-8.780277048221069e-07,3.916238709443401e-05,3.921343749167848e-05
20.5283121635,93.0283121635,8,0,-0.4830523512013336,12.40792232543201,-0.2775290885457729,-1.147210538418987e-05,4.009179332234349e-05,-2.220232708366183e-06,4.011568188948221e-05,4.014149806835525e-05
21.9716878365,93.0283121635,8,0,-0.3760609985164707,12.83588773617146,-0.2752941500352551,-1.147210538418987e-05,4.137568955456185e-05,-2.202353200282041e-06,4.139862454914632e-05,4.142418979270664e-05
20.5283121635,94.47168783650002,8,0,-0.4770925151734304,12.40941228443899,-0.1170420595184105,-1.145422587610617e-05,4.009179332234349e-05,-9.363364761472842e-07,4.009604512344737e-05,4.014166682337467e-05
21.9716878365,94.47168783650002,8,0,-0.3701011624885857,12.83737769517836,-0.1148071210079469,-1.145422587610617e-05,4.137568955456163e-05,-9.184569680635753e-07,4.137968113520512e-05,4.141883891668727e-05
23.0283121635,93.0283121635,8,0,-0.5647937200222062,13.08369232961912,-0.280257999215732,-1.227429376776635e-05,4.231965043079893e-05,-2.242063993725856e-06,4.234266000294143e-05,4.236720981785943e-05
24.4716878365,93.0283121635,8,0,-0.456872649845069,13.51537661032766,-0.277339447664961,-1.227429376776635e-05,4.361470327292458e-05,-2.218715581319688e-06,4.363671458597247e-05,4.366089671488986e-05
23.0283121635,94.47168783650002,8,0,-0.5570109158870702,13.0856380306529,-0.1183763939499312,-1.225094535536094e-05,4.231965043079893e-05,-9.470111515994493e-07,4.232375869916607e-05,4.23579199117151e-05
24.4716878365,94.47168783650002,8,0,-0.449089845709933,13.51732231136145,-0.1154578423992686,-1.225094535536094e-05,4.361470327292458e-05,-9.23662739194149e-07,4.361852088974247e-05,4.364636480934992e-05
25.5283121635,93.0283121635,8,0,-0.6459136671554244,13.76489310051514,-0.2778548156868874,-1.307883821530947e-05,4.456438885537279e-05,-2.222838525495099e-06,4.458581017349612e-05,4.460950178231498e-05
26.9716878365,93.0283121635,8,0,-0.537618965451311,14.1980719073316,-0.2742753366757048,-1.307883821530947e-05,4.586392527582215e-05,-2.194202693405639e-06,4.588433854781685e-05,4.590745212591747e-05
25.5283121635,94.47168783650002,8,0,-0.6363683897923798,13.7672794198559,-0.1154127631307171,-1.305020238322034e-05,4.456438885537279e-05,-9.233021050457368e-07,4.456808771026677e-05,4.459126011053879e-05
26.9716878365,94.47168783650002,8,0,-0.5280736880882664,14.20045822667236,-0.1118332841195074,-1.305020238322034e-05,4.586392527582215e-05,-8.946662729560594e-07,4.586732166659414e-05,4.588431718369479e-05
28.0283121635,93.0283121635,8,0,-0.724541593795236,14.44841704653537,-0.2705493236944921,-1.387726673737305e-05,4.681456782394938e-05,-2.164394589555937e-06,4.683385837378979e-05,4.685687028608757e-05
29.4716878365,93.0283121635,8,0,-0.6164026503798672,14.88097282019685,-0.26634379942407,-1.387726673737305e-05,4.81122351449338e-05,-2.130750395392561e-06,4.813053968394868e-05,4.81527785938086e-05
28.0283121635,94.47168783650002,8,0,-0.7133268624076421,14.45122072938227,-0.1083409085715745,-1.384362254321027e-05,4.681456782394938e-05,-8.667272685725959e-07,4.68176637695011e-05,4.683030141290137e-05
29.4716878365,94.47168783650002,8,0,-0.6051879189923275,14.88377650304353,-0.104135384301166,-1.384362254321027e-05,4.811223514493315e-05,-8.330830744093277e-07,4.811503550984855e-05,4.812172131720651e-05
30.5283121635,93.0283121635,8,0,-0.7989171026131858,15.13131370735936,-0.2586517013805336,-1.466158569424968e-05,4.905933754564048e-05,-2.069213611044268e-06,4.907613154593388e-05,4.909856274689606e-05
31.9716878365,93.0283121635,8,0,-0.691428389460734,15.56126855996916,-0.2538658860211406,-1.466158569424968e-05,5.034920210346991e-05,-2.030927088169125e-06,5.036505969850862e-05,5.03865847985133e-05
30.5283121635,94.47168783650002,8,0,-0.786154928321273,15.13450425093233,-0.09741863165186855,-1.462329917137394e-05,4.905933754564048e-05,-7.793490532149484e-07,4.906172187768883e-05,4.906438429892829e-05
31.9716878365,94.47168783650002,8,0,-0.6786662151688212,15.56445910354214,-0.09263281629240784,-1.462329917137394e-05,5.034920210346991e-05,-7.410625303392628e-07,5.035131513515057e-05,5.03483675552109e-05
33.0283121635,93.0283121635,8,0,-0.867417170256843,15.81083515348552,-0.2425437613783743,-1.542440306761031e-05,5.128860622735914e-05,-1.940350091026995e-06,5.130271203153693e-05,5.132464669023956e-05
34.4716878365,93.0283121635,8,0,-0.7610309004579303,16.23638023268117,-0.2372330005328399,-1.542440306761031e-05,5.25652414649461e-05,-1.897864004262719e-06,5.257848313739445e-05,5.259945738757159e-05
33.0283121635,94.47168783650002,8,0,-0.8532551413353096,15.81437566071618,-0.08296435668011301,-1.538191698084593e-05,5.128860622736001e-05,-6.63714853440904e-07,5.129025803115447e-05,5.12836506170886e-05
34.4716878365,94.47168783650002,8,0,-0.7468688715365142,16.23992073991136,-0.07765359583459218,-1.538191698084593e-05,5.256524146494555e-05,-6.212287666767374e-07,5.25666613812626e-05,5.255490820542311e-05
35.5283121635,93.0283121635,8,0,-0.928580226710638,16.48447644223404,-0.2226702847102081,-1.615903787926127e-05,5.349318879651743e-05,-1.781362277681665e-06,5.350457656181573e-05,5.352611145255791e-05
36.9716878365,93.0283121635,8,0,-0.8236998917835194,16.90399778194251,-0.2168982503367953,-1.615903787926127e-05,5.475175281564285e-05,-1.735186002694363e-06,5.476236622108138e-05,5.478296674191638e-05
35.5283121635,94.47168783650002,8,0,-0.9131881350482942,16.48832446514962,-0.06534978231958424,-1.611286160427424e-05,5.349318879651743e-05,-5.22798258556674e-07,5.349417044309504e-05,5.347914975433051e-05
36.9716878365,94.47168783650002,8,0,-0.8083078001211756,16.9078458048581,-0.05957774794627989,-1.611286160427424e-05,5.475175281564285e-05,-4.766219835702391e-07,5.475255422389174e-05,5.473296703618456e-05
38.0283121635,93.0283121635,8,0,-0.9811271260341607,17.15001113574481,-0.1995303439242968,-1.685961571190516e-05,5.566493733521072e-05,-1.596242751394374e-06,5.567371947281301e-05,5.56949740732218e-05
39.4716878365,93.0283121635,8,0,-0.8781019189400761,17.56211196412115,-0.1933677614937058,-1.685961571190516e-05,5.690123982033974e-05,-1.546942091949647e-06,5.690934970036337e-05,5.692976914997096e-05
38.0283121635,94.47168783650002,8,0,-0.9646935728860084,17.15411952403199,-0.04499253328330574,-1.681031505246081e-05,5.566493733521116e-05,-3.59940266266446e-07,5.566538423326305e-05,5.564294776361034e-05
39.4716878365,94.47168783650002,8,0,-0.8616683657919779,17.56622035240811,-0.03882995085272836,-1.681031505246081e-05,5.690123982033952e-05,-3.106396068218269e-07,5.690156709785066e-05,5.687524406309769e-05
40.5283121635,93.0283121635,8,0,-1.023978950439382,17.80552183865268,-0.1736685392661149,-1.752115011232816e-05,5.779685304404007e-05,-1.389348314128919e-06,5.780325962838842e-05,5.782437750538521e-05
41.97168783650001,93.0283121635,8,0,-0.9230990882679411,18.20904128733844,-0.1671918922940743,-1.752115011232816e-05,5.900741139009736e-05,-1.337535138352594e-06,5.901325516793746e-05,5.903369790860733e-05
40.5283121635,94.47168783650002,8,0,-1.006707891847255,17.80983960330071,-0.02234874600898044,-1.746933693655178e-05,5.779685304404007e-05,-1.787899680718436e-07,5.779695921989272e-05,5.776822777321988e-05
41.97168783650001,94.47168783650002,8,0,-0.9058280296758143,18.21335905198648,-0.01587209903688557,-1.746933693655178e-05,5.900741139009736e-05,-1.269767922950846e-07,5.900746409596883e-05,5.897560834022141e-05
43.0283121635,93.0283121635,8,0,-1.056271566301585,18.44942568136256,-0.1456661088009362,-1.813960955725512e-05,5.988317943340146e-05,-1.165328870407489e-06,5.98875304559302e-05,5.990867592201443e-05
44.4716878365,93.0283121635,8,0,-0.9577645293018797,18.84345382936138,-0.1389563155713058,-1.813960955725512e-05,6.106526387739792e-05,-1.111650524570447e-06,6.106916422463779e-05,6.108983990702784e-05
43.0283121635,94.47168783650002,8,0,-1.038378784355958,18.45389887684897,0.002094446698594574,-1.808593121141824e-05,5.988317943340146e-05,1.675557358875659e-08,5.988318033359527e-05,5.984937665018751e-05
44.4716878365,94.47168783650002,8,0,-0.9398717473562526,18.84792702484779,0.008804239928252022,-1.808593121141824e-05,6.106526387739792e-05,7.043391942601618e-08,6.106527954657392e-05,6.102917550015845e-05
45.52831216350001,93.0283121635,8,0,-1.07736684813306,19.08049466348196,-0.1161319143381465,-1.871196964481136e-05,6.191947640164872e-05,-9.290553147051723e-07,6.192215251368008e-05,6.194350460425943e-05
46.97168783650001,93.0283121635,8,0,-0.9813945503981003,19.4643838544218,-0.1092729811264816,-1.871196964481136e-05,6.307114397446825e-05,-8.741838490118527e-07,6.30734799566191e-05,6.309459594480978e-05
45.52831216350001,94.47168783650002,8,0,-1.059076359568566,19.08506728562309,0.0278265322643345,-1.865709817911788e-05,6.191947640164872e-05,2.22612258114676e-07,6.191963015639431e-05,6.188205558506735e-05
46.97168783650001,94.47168783650002,8,0,-0.9631040618336062,19.46895647656293,0.0346854654760401,-1.865709817911788e-05,6.307114397446825e-05,2.774837238083208e-07,6.307137950197091e-05,6.303236845993025e-05
48.0283121635,93.0283121635,8,0,-1.08686050356511,19.69787078172924,-0.08569334355133795,-1.923625023679174e-05,6.390267490438565e-05,-6.855467484107036e-07,6.390408810029528e-05,6.392583308120646e-05
49.47168783650001,93.0283121635,8,0,-0.9935174055753482,20.07124317368829,-0.07877100671551165,-1.923625023679174e-05,6.502279208026279e-05,-6.301680537240933e-07,6.502397031055152e-05,6.504572383052645e-05
48.0283121635,94.47168783650002,8,0,-1.068400938669139,19.70248567295323,0.05432130343316962,-1.918087154210383e-05,6.390267490438565e-05,4.34570427465357e-07,6.390324315818817e-05,6.38632534209244e-05
49.47168783650001,94.47168783650002,8,0,-0.9750578406793498,20.07585806491239,0.06124364026918565,-1.918087154210383e-05,6.502279208026312e-05,4.899491221534852e-07,6.502350478117245e-05,6.498296047483895e-05
50.5283121635,93.0283121635,8,0,-1.084586465386049,20.30107589548258,-0.05498719973127334,-1.971153740562142e-05,6.583111203785309e-05,-4.398975978501867e-07,6.583167757042235e-05,6.585400079086383e-05
51.97168783650001,93.0283121635,8,0,-0.9938986306255648,20.66382723452451,-0.04808757473021995,-1.971153740562142e-05,6.691936605497889e-05,-3.847005978417596e-07,6.69197931364662e-05,6.694236376386675e-05
50.5283121635,94.47168783650002,8,0,-1.066187465383329,20.30567564548326,0.08104455240953322,-1.965634040561326e-05,6.583111203785309e-05,6.483564192762657e-07,6.583234134107145e-05,6.57913221186262e-05
51.97168783650001,94.47168783650002,8,0,-0.9754996306228456,20.66842698452519,0.0879441774105324,-1.965634040561326e-05,6.691936605497889e-05,7.035534192842592e-07,6.692079537984998e-05,6.68801001465222e-05
53.0283121635,93.0283121635,8,0,-1.070617860480504,20.89001632654059,-0.02465067056923488,-2.013799021477008e-05,6.770454653331429e-05,-1.97205364553879e-07,6.770465721405122e-05,6.77277349149515e-05
54.4716878365,93.0283121635,8,0,-0.9825429485729771,21.2423159741707,-0.01785892872286168,-2.013799021477008e-05,6.876144547620462e-05,-1.428714297828934e-07,6.876150287879697e-05,6.87850458296022e-05
53.0283121635,94.47168783650002,8,0,-1.052506548890374,20.89454415443813,0.1074616972919474,-2.00836562799997e-05,6.770454653331429e-05,8.59693578335579e-07,6.770665118777431e-05,6.766599410073176e-05
54.4716878365,94.47168783650002,8,0,-0.9644316369828472,21.24684380206823,0.1142534391382799,-2.00836562799997e-05,6.876144547620462e-05,9.140275131062393e-07,6.876379626474943e-05,6.872431828518876e-05
55.5283121635,93.0283121635,8,0,-1.045264613938843,21.46498224164111,0.004687525791705277,-2.051683255791718e-05,6.952415486440261e-05,3.750020633364222e-08,6.952415876891725e-05,6.954815033240452e-05
56.97168783650001,93.0283121635,8,0,-0.959692792508033,21.80726952736435,0.01128843238727847,-2.051683255791718e-05,7.055101672157234e-05,9.030745909822772e-08,7.055103910992132e-05,7.0575679690983e-05
55.5283121635,94.47168783650002,8,0,-1.027662196350684,21.46938284603815,0.1330452579378937,-2.046402530515271e-05,6.952415486440261e-05,1.06436206350315e-06,6.952730201934494e-05,6.948838147815181e-05
56.97168783650001,94.47168783650002,8,0,-0.9420903749198741,21.81167013176139,0.1396461645334669,-2.046402530515271e-05,7.055101672157234e-05,1.117169316267735e-06,7.055444478205285e-05,7.051751675715194e-05
58.0283121635,93.0283121635,8,0,-1.009067793291239,22.02664192002594,0.03241572595294603,-2.085033047455272e-05,7.1292508378716e-05,2.593258076235682e-07,7.129269083929072e-05,7.13177318707327e-05
59.47168783650001,93.0283121635,8,0,-0.9258235413226465,22.35961892790031,0.03874627434794344,-2.085033047455272e-05,7.22914394023391e-05,3.099701947835475e-07,7.229169729215521e-05,7.231752676918381e-05
58.0283121635,94.47168783650002,8,0,-0.9921863309044534,22.03086228562264,0.1572821039058062,-2.079968608739236e-05,7.1292508378716e-05,1.258256831246449e-06,7.129680607295017e-05,7.126095737203236e-05
59.47168783650001,94.47168783650002,8,0,-0.9089420789358611,22.36383929349701,0.1636126523008171,-2.079968608739236e-05,7.22914394023391e-05,1.308901218406537e-06,7.229604010333164e-05,7.226293962538217e-05
60.5283121635,93.0283121635,8,0,-0.9627908367967146,22.57603105706327,0.05794756554357023,-2.11417555234001e-05,7.301353205203982e-05,4.635805243485619e-07,7.301410266683397e-05,7.304029920186813e-05
61.9716878365,93.0283121635,8,0,-0.8816356048620211,22.90065198480204,0.06393279569100609,-2.11417555234001e-05,7.398739483525615e-05,5.114623655280487e-07,7.39880823002969e-05,7.401515531190475e-05
60.5283121635,94.47168783650002,8,0,-0.9468302230703456,22.58002121049486,0.1796804134456377,-2.109387368222099e-05,7.301353205203982e-05,1.437443307565102e-06,7.301902078786634e-05,7.298751969127929e-05
61.9716878365,94.47168783650002,8,0,-0.8656749911356068,22.90464213823382,0.1856656435930736,-2.109387368222099e-05,7.398739483525669e-05,1.485325148744589e-06,7.399319528431214e-05,7.396512699219622e-05
63.0283121635,93.0283121635,8,0,-0.9074078359703321,23.11453729248978,0.08072984014970011,-2.139533490909688e-05,7.469244560474354e-05,6.458387211976009e-07,7.469353081802668e-05,7.472095479700279e-05
64.47168783650001,93.0283121635,8,0,-0.8280435242186162,23.43199453949664,0.08630040942212271,-2.139533490909688e-05,7.564481734576413e-05,6.904032753769817e-07,7.564604531851537e-05,7.567437874029192e-05
63.0283121635,94.47168783650002,8,0,-0.8925529845771329,23.11825100533808,0.1997763077772196,-2.135077035491728e-05,7.469244560474354e-05,1.598210462217756e-06,7.469909391367399e-05,7.467313778241447e-05
64.47168783650001,94.47168783650002,8,0,-0.813188672825417,23.43570825234494,0.2053468770496828,-2.135077035491728e-05,7.564481734576413e-05,1.642775016397462e-06,7.565177260093649e-05,7.562985193276304e-05
65.5283121635,93.0283121635,8,0,-0.8440890523960709,23.64388017334239,0.1002499773844842,-2.161618910634134e-05,7.633568779661249e-05,8.019998190758734e-07,7.633732940101731e-05,7.636601525802525e-05
66.97168783650001,93.0283121635,8,0,-0.766162266377318,23.9555873174174,0.1053431418165967,-2.161618910634134e-05,7.727080922883753e-05,8.427451345327736e-07,7.727260472894991e-05,7.730217742163393e-05
65.5283121635,94.47168783650002,8,0,-0.8305072805770504,23.64727561629714,0.2171401564126816,-2.157544379088427e-05,7.633568779661249e-05,1.737121251301453e-06,7.634339211165543e-05,7.632408226892668e-05
66.97168783650001,94.47168783650002,8,0,-0.752580494558261,23.9589827603723,0.2222333208448213,-2.157544379088427e-05,7.727080922883796e-05,1.77786656675857e-06,7.727880283972706e-05,7.72640406692134e-05
68.0283121635,93.0283121635,8,0,-0.7741838403308785,24.16608676387862,0.1160431549587158,-2.18102577001617e-05,7.795082471667627e-05,9.283452396697265e-07,7.795298439208864e-05,7.798292594243084e-05
69.47168783650001,93.0283121635,8,0,-0.6972908877839004,24.47365857406653,0.1206036924058715,-2.18102577001617e-05,7.887354014724001e-05,9.648295392469721e-07,7.887585152873775e-05,7.890660332489576e-05
68.0283121635,94.47168783650002,8,0,-0.7620224071384269,24.16912712217673,0.2313825837791696,-2.177377340058435e-05,7.795082471667627e-05,1.851060670233357e-06,7.795941369719667e-05,7.794773800330562e-05
69.47168783650001,94.47168783650002,8,0,-0.6851294545914488,24.47669893236464,0.2359431212263659,-2.177377340058435e-05,7.887354014724001e-05,1.887544969810927e-06,7.888238914844082e-05,7.887567545683764e-05
70.5283121635,93.0283121635,8,0,-0.6992011193973235,24.68346309642461,0.1276991392452567,-2.198421405921112e-05,7.954644280407661e-05,1.021593113962054e-06,7.954901253549729e-05,7.958015776648634e-05
71.97168783650001,93.0283121635,8,0,-0.6228937180188883,24.98869270193835,0.1316802381160956,-2.198421405921112e-05,8.046213162061784e-05,1.053441904928765e-06,8.0464839649162e-05,8.049666534018881e-05
70.5283121635,94.47168783650002,8,0,-0.6885848557415546,24.68611716233855,0.2421602413128017,-2.195236526824382e-05,7.954644280407661e-05,1.937281930502414e-06,7.955568606416531e-05,7.955249903854493e-05
71.97168783650001,94.47168783650002,8,0,-0.6122774543630918,24.99134676785241,0.2461413401837762,-2.195236526824382e-05,8.046213162061816e-05,1.969130721470209e-06,8.047159589966484e-05,8.047367799807656e-05
73.0283121635,93.0283121635,8,0,-0.6207874973800269,25.19856161888032,0.1348689535644269,-2.214536928672034e-05,8.113202717832104e-05,1.078951628515415e-06,8.113484508643574e-05,8.116708260042031e-05
74.47168783650001,93.0283121635,8,0,-0.5445791738009955,25.50339491319645,0.1382330975886395,-2.214536928672034e-05,8.204652706126942e-05,1.105864780709116e-06,8.204946131651541e-05,8.208218904401925e-05
73.0283121635,94.47168783650002,8,0,-0.6118164466487936,25.20080438156313,0.2491814389330143,-2.211845613452664e-05,8.113202717832104e-05,1.993451511464114e-06,8.114164814702965e-05,8.114764207759822e-05
74.47168783650001,94.47168783650002,8,0,-0.5356081230697534,25.50563767587929,0.2525455829572405,-2.211845613452664e-05,8.204652706126953e-05,2.020364663657924e-06,8.205632279449814e-05,8.206776722587442e-05
75.5283121635,93.0283121635,8,0,-0.5407030849947292,25.71414473940435,0.1372715112602408,-2.230156566350661e-05,8.271782563408969e-05,1.098172090081926e-06,8.272069641099835e-05,8.275381773969197e-05
76.97168783650001,93.0283121635,8,0,-0.4640762579012492,26.02065204777827,0.1399913950479308,-2.230156566350661e-05,8.363734755921146e-05,1.119931160383446e-06,8.364030730914037e-05,8.367363501657011e-05
75.5283121635,94.47168783650002,8,0,-0.5334500615608713,25.71595799526282,0.2522117519004213,-2.227980659320504e-05,8.271782563408969e-05,2.01769401520337e-06,8.272751802734344e-05,8.274316895483865e-05
76.97168783650001,94.47168783650002,8,0,-0.4568232344673913,26.02246530363674,0.2549316356881791,-2.227980659320504e-05,8.363734755921146e-05,2.039453085505433e-06,8.364716415468901e-05,8.366827564569102e-05
78.0283121635,93.0283121635,8,0,-0.4607949773517044,26.23314450119774,0.1347003620344353,-2.246105952848364e-05,8.431469838571411e-05,1.077602896275482e-06,8.431741716396894e-05,8.435101548399666e-05
79.47168783650001,93.0283121635,8,0,-0.3832087317257287,26.54348948370164,0.1367598732911749,-2.246105952848364e-05,8.524573333322581e-05,1.094078986329399e-06,8.524851165834385e-05,8.528183606026124e-05
78.0283121635,94.47168783650002,8,0,-0.4553029473338217,26.23451750870207,0.2510797304734118,-2.244458343842988e-05,8.431469838571367e-05,2.008637843787294e-06,8.432414550105252e-05,8.434959426972086e-05
79.47168783650001,94.47168783650002,8,0,-0.3777167017077927,26.54486249120619,0.2531392417300972,-2.244458343842988e-05,8.524573333322603e-05,2.025113933840778e-06,8.525525304694814e-05,8.528588467594011e-05
80.5283121635,93.0283121635,8,0,-0.3829683067037148,26.75861834679486,0.1270306980429513,-2.263239325888777e-05,8.593395335510651e-05,1.016245584343611e-06,8.593633146880889e-05,8.596953819274024e-05
81.97168783650001,93.0283121635,8,0,-0.3038668801091822,27.07502405317299,0.1284259996528264,-2.263239325888777e-05,8.68831704742409e-05,1.027407997222611e-06,8.688558004949341e-05,8.691755478296164e-05
80.5283121635,94.47168783650002,8,0,-0.3792475024106423,26.75954854786812,0.2456828379347503,-2.262123084600855e-05,8.593395335510651e-05,1.965462703478003e-06,8.594284912348554e-05,8.597761862218654e-05
81.97168783650001,94.47168783650002,8,0,-0.300146075816091,27.07595425424633,0.2470781395446254,-2.262123084600855e-05,8.688317047424112e-05,1.976625116357003e-06,8.689208958753972e-05,8.693118050251301e-05
83.02831216350002,93.0283121635,8,0,-0.3091547050815953,27.29370085947933,0.1142267466847075,-2.282425574384457e-05,8.758716651439914e-05,9.138139734776599e-07,8.758905726460708e-05,8.761987055453752e-05
84.47168783650002,93.0283121635,8,0,-0.2279767191660547,27.6184128031415,0.1149674851172271,-2.282425574384457e-05,8.856130234538562e-05,9.197398809378168e-07,8.856320094661444e-05,8.859061633529987e-05
83.02831216350002,94.47168783650002,8,0,-0.3071794025949126,27.294194685101,0.2359937255579634,-2.281832983638452e-05,8.758716651439914e-05,1.887949804463707e-06,8.759523697749309e-05,8.763753919172205e-05
84.47168783650002,94.47168783650002,8,0,-0.226001416679372,27.61890662876317,0.2367344639904695,-2.281832983638452e-05,8.856130234538562e-05,1.893875711923756e-06,8.85693525290685e-05,8.861378513876446e-05
85.5283121635,93.0283121635,8,0,-0.2412779612657303,27.84155130819444,0.09634963851290565,-2.304533052260589e-05,8.928598655523479e-05,7.707971081032453e-07,8.928730880713193e-05,8.931089977612122e-05
86.97168783650002,93.0283121635,8,0,-0.1574664404449129,28.17679739147771,0.09646029395973377,-2.304533052260589e-05,9.02917248050846e-05,7.716823516778701e-07,9.029303833566098e-05,9.030800495161696e-05
85.5283121635,94.47168783650002,8,0,-0.2409828800742604,27.84162507849245,0.2220669197441319,-2.304444527903159e-05,8.928598655523522e-05,1.776535357953055e-06,8.929301020968851e-05,8.93380281286919e-05
86.97168783650002,94.47168783650002,8,0,-0.1571713592534705,28.1768711617756,0.2221775751909058,-2.304444527903159e-05,9.02917248050847e-05,1.777420601527246e-06,9.029869307868404e-05,9.034045082724097e-05
88.02831216350002,93.0283121635,8,0,-0.1812166223361213,28.40529678089961,0.07356578079051508,-2.330413061619527e-05,9.104192299674765e-05,5.885262463241206e-07,9.104268026129213e-05,9.104714236760284e-05
89.47168783650001,93.0283121635,8,0,-0.09422984520197009,28.75324388943622,0.0730871591552839,-2.330413061619527e-05,9.208576432235746e-05,5.846972732422712e-07,9.208650500399835e-05,9.206939816644158e-05
88.02831216350002,94.47168783650002,8,0,-0.1824929466969269,28.40497769980941,0.2040459464916879,-2.330795958927769e-05,9.104192299674765e-05,1.632367571933503e-06,9.104774829383867e-05,9.108335656891701e-05
89.47168783650001,94.47168783650002,8,0,-0.09550616956278457,28.75292480834598,0.203567324856416,-2.330795958927769e-05,9.208576432235735e-05,1.628538598851328e-06,9.209150988163096e-05,9.211059010194773e-05
90.52831216350002,93.0283121635,8,0,-0.1307632837882124,28.98797067922691,0.04615569050212247,-2.360881905150381e-05,9.286611680055668e-05,3.692455240169798e-07,9.286640944273212e-05,9.282211676345397e-05
91.97168783650001,93.0283121635,8,0,-0.04008650939359537,29.35067777680538,0.04514653811755445,-2.360881905150381e-05,9.395423809329209e-05,3.611723049404356e-07,9.395451548724823e-05,9.385632641554245e-05
90.52831216350002,94.47168783650002,8,0,-0.13345435681389,28.98729791097049,0.1821708520941294,-2.361689227058084e-05,9.286611680055668e-05,1.457366816753035e-06,9.287067505103655e-05,9.286676109766687e-05
91.97168783650001,94.47168783650002,8,0,-0.04277758241927287,29.35000500854896,0.18116169970948,-2.361689227058084e-05,9.395423809329209e-05,1.44929359767584e-06,9.395870426653323e-05,9.390542514423854e-05
93.02831216350002,93.0283121635,8,0,-0.0915803415302987,29.59244637371471,0.01452314676728345,-2.396701419186872e-05,9.476909266911129e-05,1.161851741382676e-07,9.476912109136594e-05,9.460211346570225e-05
94.47168783650002,93.0283121635,8,0,0.003261559242681678,29.97181397680663,0.01306184604229978,-2.396701419186872e-05,9.590719547838706e-05,1.044947683383982e-07,9.59072182504966e-05,9.560543192636389e-05
93.02831216350002,94.47168783650002,8,0,-0.09547714346364256,29.59147217323137,0.1567859979268089,-2.397870459766875e-05,9.476909266911129e-05,1.254287983414471e-06,9.477240471889843e-05,9.465419820262118e-05
94.47168783650002,94.47168783650002,8,0,-0.0006352426906168773,29.97083977632348,0.1553246972019065,-2.397870459766875e-05,9.59071954783876e-05,1.242597577615252e-06,9.591041522164333e-05,9.566122019497657e-05
95.5283121635,93.0283121635,8,0,-0.06515205074158281,30.22136589217059,-0.02079558552695894,-2.438557927610953e-05,9.676049249553913e-05,-1.663646842156715e-07,9.676054961087663e-05,9.628599795324764e-05
96.97168783650002,93.0283121635,8,0,0.03427694889423982,30.61908189071388,-0.0226093066068992,-2.438557927610953e-05,9.795364049116901e-05,-1.808744528551936e-07,9.795370734534277e-05,9.714202045601678e-05
95.5283121635,94.47168783650002,8,0,-0.06998864028816243,30.22015674478394,0.1283479139267359,-2.440008904474927e-05,9.676049249553913e-05,1.026783311413888e-06,9.676266784214664e-05,9.634410684489628e-05
96.97168783650002,94.47168783650002,8,0,0.02944035934764244,30.61787274332716,0.1265341928467821,-2.440008904474927e-05,9.79536404911688e-05,1.012273542774257e-06,9.795573417518487e-05,9.720276587601134e-05
98.02831216350002,93.0283121635,8,0,-0.05273285601420596,30.87706364079295,-0.05912282728024159,-2.487039605187982e-05,9.884878993534881e-05,-4.729826182419327e-07,9.884924199082015e-05,9.760514705920289e-05
99.47168783650002,93.0283121635,8,0,0.05163762451431175,31.29454556290703,-0.06116626563534529,-2.487039605187982e-05,0.000100101235701691,-4.893301250827624e-07,0.0001001017146965041,9.801440996672874e-05
98.02831216350002,94.47168783650002,8,0,-0.05818202496112157,30.87570134855623,0.09743289351249548,-2.488674355872057e-05,9.884878993534881e-05,7.794631480999639e-07,9.885001746626649e-05,9.766724320552864e-05
99.47168783650002,94.47168783650002,8,0,0.04618845556745121,31.29318327067052,0.095389455157446,-2.488674355872057e-05,0.0001001012357016917,7.63115641259568e-07,0.0001001024004938149,9.807755983767268e-05
0.5283121635,95.52831216350002,8,0,-0.04137141332890693,7.606557399382654,-0.07002301869727713,-6.217634442158624e-06,2.437408080868762e-05,-5.60184149578217e-07,2.437664506486961e-05,2.596070128951865e-05
1.9716878365,95.52831216350002,8,0,0.03816367637194595,7.924697758186065,-0.07126122277636732,-6.217634442158624e-06,2.532850188509785e-05,-5.700897822109386e-07,2.533107728629473e-05,2.630740632894887e-05
0.5283121635,96.97168783650002,8,0,-0.04467329087318372,7.605731929996584,0.04927961585402939,-6.227540074791454e-06,2.437408080868762e-05,3.942369268322352e-07,2.437535048249659e-05,2.599874782594633e-05
1.9716878365,96.97168783650002,8,0,0.03486179882766915,7.923872288799996,0.048041411774885,-6.227540074791454e-06,2.532850188509785e-05,3.843312941990799e-07,2.532967206564995e-05,2.634476400104312e-05
3.0283121635,95.52831216350002,8,0,-0.0585500919480042,8.125624769793635,-0.09487339200550378,-6.687860110068521e-06,2.604883933689803e-05,-7.589871360440302e-07,2.605323794832863e-05,2.671603044797265e-05
4.4716878365,95.52831216350002,8,0,0.02591469476757036,8.463483916655933,-0.09596989165574978,-6.687860110068521e-06,2.706241677748493e-05,-7.677591332459982e-07,2.706678250350839e-05,2.748570726296094e-05
3.0283121635,96.97168783650002,8,0,-0.06147409101527312,8.124893770026681,0.03182378806781744,-6.696632107270218e-06,2.60488393368976e-05,2.545903045425395e-07,2.604933417817516e-05,2.675249669870456e-05
4.4716878365,96.97168783650002,8,0,0.02299069570034673,8.46275291688916,0.03072728841767985,-6.696632107270218e-06,2.706241677748503e-05,2.458183073414388e-07,2.706286425631864e-05,2.752042696957331e-05
5.528312163500001,95.52831216350002,8,0,-0.08931177856911798,8.67284849407544,-0.1178942724748235,-7.224076486681528e-06,2.78245646038967e-05,-9.431541797985882e-07,2.783090849341325e-05,2.812267355091596e-05
6.9716878365,95.52831216350002,8,0,-0.0002576832244942651,9.029064875453935,-0.1187694840295965,-7.224076486681528e-06,2.889321374803218e-05,-9.501558722367718e-07,2.88994617252946e-05,2.909322099740331e-05
5.528312163500001,96.97168783650002,8,0,-0.0916456760486386,8.672265019705424,0.01568687054217957,-7.231078179119983e-06,2.782456460389627e-05,1.254949643374366e-07,2.782467691773768e-05,2.815585370410181e-05
6.9716878365,96.97168783650002,8,0,-0.002591580704042418,9.028481401083809,0.01481165898725755,-7.231078179119983e-06,2.889321374803142e-05,1.184932718980604e-07,2.889331091684062e-05,2.912394155652633e-05
8.028312163500001,95.52831216350002,8,0,-0.1323605871023323,9.246239976672884,-0.1386079397692769,-7.820545860065769e-06,2.969385639503509e-05,-1.108863518154216e-06,2.970204864771659e-05,2.984341182554366e-05
9.471687836500001,95.52831216350002,8,0,-0.03913164991249696,9.619155725432226,-0.1391973534522177,-7.820545860065769e-06,3.081260364131311e-05,-1.113578827617741e-06,3.082062654621025e-05,3.092242383699504e-05
8.028312163500001,96.97168783650002,8,0,-0.1339323569235438,9.245847034217716,0.001235466015462369,-7.825261169529512e-06,2.969385639503552e-05,9.883728123698948e-09,2.969385704595755e-05,2.987215720944835e-05
9.471687836500001,96.97168783650002,8,0,-0.04070341973378078,9.618762782976768,0.0006460523325080986,-7.825261169529512e-06,3.081260364131268e-05,5.168418660064789e-09,3.081260381415188e-05,3.094823253591203e-05
10.5283121635,95.52831216350002,8,0,-0.1861633403715213,9.843410254014154,-0.1566348406934046,-8.470450892400191e-06,3.164784348514251e-05,-1.253078725547236e-06,3.165762595178373e-05,3.173709366450249e-05
11.9716878365,95.52831216350002,8,0,-0.0892324700658218,10.23113373523695,-0.1568881591141827,-8.470450892400191e-06,3.28110139288109e-05,-1.255105272913461e-06,3.282055165585115e-05,3.288380101328947e-05
10.5283121635,96.97168783650002,8,0,-0.1868388561603171,9.843241375066954,-0.01123853523503186,-8.472477439766578e-06,3.164784348514251e-05,-8.99082818802549e-08,3.164789385543377e-05,3.176064284253472e-05
11.9716878365,96.97168783650002,8,0,-0.08990798585466298,10.23096485628957,-0.01149185365574221,-8.472477439766578e-06,3.281101392881036e-05,-9.193482924593765e-08,3.281106511151118e-05,3.290411375045124e-05
13.0283121635,95.52831216350002,8,0,-0.249005372186347,10.46165650044791,-0.1716884240662701,-9.166142391354634e-06,3.367650509918238e-05,-1.373507392530161e-06,3.368751071026098e-05,3.374059818046644e-05
14.4716878365,95.52831216350002,8,0,-0.1488890882369516,10.86212163624549,-0.1715685645956277,-9.166142391354634e-06,3.487790050657512e-05,-1.372548516765022e-06,3.488859112526973e-05,3.493470422428753e-05
13.0283121635,96.97168783650002,8,0,-0.2486857469312826,10.46173640676167,-0.0215139981421769,-9.165183515589441e-06,3.367650509918238e-05,-1.721119851374152e-07,3.367667795894154e-05,3.375848295252266e-05
14.4716878365,96.97168783650002,8,0,-0.1485694629818872,10.86220154255926,-0.02139413867157519,-9.165183515589441e-06,3.487790050657512e-05,-1.711531093726015e-07,3.487806678282999e-05,3.494919211318658e-05
15.5283121635,95.52831216350002,8,0,-0.3190427615921902,11.09804405963299,-0.1835692822175523,-9.8993720848014e-06,3.576897520009932e-05,-1.468554257740419e-06,3.578077820202896e-05,3.582172873643239e-05
16.9716878365,95.52831216350002,8,0,-0.2162872675289234,11.50906603588606,-0.1830513197874443,-9.8993720848014e-06,3.700204112885852e-05,-1.464410558299554e-06,3.701346922734541e-05,3.705101872745307e-05
15.5283121635,96.97168783650002,8,0,-0.3176615284451629,11.09838936791975,-0.02943604112277389,-9.895228385360319e-06,3.576897520009932e-05,-2.354883289821912e-07,3.576927879887059e-05,3.583371180831029e-05
16.9716878365,96.97168783650002,8,0,-0.2149060343818872,11.50941134417285,-0.02891807869255742,-9.895228385360319e-06,3.700204112885863e-05,-2.313446295404593e-07,3.700232643337943e-05,3.705955539512242e-05
18.0283121635,95.52831216350002,8,0,-0.394350796635651,11.74948347291929,-0.1921589453255979,-1.066150932756951e-05,3.791382775065024e-05,-1.537271562604783e-06,3.792598727739231e-05,3.796050088939784e-05
19.4716878365,95.52831216350002,8,0,-0.2895190093238686,12.16881062216642,-0.1912290530213133,-1.066150932756951e-05,3.917180919839162e-05,-1.529832424170506e-06,3.918354751004441e-05,3.921596237349349e-05
18.0283121635,96.97168783650002,8,0,-0.3918710838240811,11.75010340112218,-0.03491126435791088,-1.06540701891348e-05,3.791382775065024e-05,-2.79290114863287e-07,3.79142292623829e-05,3.796652878515863e-05
19.4716878365,96.97168783650002,8,0,-0.2870392965121904,12.16943055036974,-0.03398137205353141,-1.06540701891348e-05,3.917180919839293e-05,-2.718509764282513e-07,3.917218000169993e-05,3.921858258114373e-05
20.5283121635,95.52831216350002,8,0,-0.4729686326226297,12.41280222741612,-0.1974135846012978,-1.144374140632531e-05,4.009934203382968e-05,-1.579308676810383e-06,4.011143691924011e-05,4.014178910963615e-05
21.9716878365,95.52831216350002,8,0,-0.3666281839168293,12.83816402223932,-0.1960680100951645,-1.144374140632531e-05,4.137542741829928e-05,-1.568544080761316e-06,4.138706991664297e-05,4.141573330779546e-05
20.5283121635,96.97168783650002,8,0,-0.4693804339395711,12.41369927708688,-0.03790291154266538,-1.143297681027613e-05,4.009934203382968e-05,-3.032232923413231e-07,4.009978808191778e-05,4.014195444689616e-05
21.9716878365,96.97168783650002,8,0,-0.3630399852337889,12.83906107191001,-0.03655733703651848,-1.143297681027613e-05,4.137542741829907e-05,-2.924586962921479e-07,4.137583233222548e-05,4.141259950253362e-05
23.0283121635,95.52831216350002,8,0,-0.5529402193837405,13.08481112972505,-0.199357792333063,-1.223725760580801e-05,4.231374779062715e-05,-1.594862338664504e-06,4.232540221641751e-05,4.235251042971277e-05
24.4716878365,95.52831216350002,8,0,-0.4456524238324207,13.51396231193033,-0.1976018904810574,-1.223725760580801e-05,4.360120133724298e-05,-1.580815123848459e-06,4.361238751600177e-05,4.363788892410848e-05
23.0283121635,96.97168783650002,8,0,-0.5482578144449142,13.08598173095976,-0.03842609900617851,-1.222321039099153e-05,4.231374779062715e-05,-3.074087920494281e-07,4.231418098042159e-05,4.234702135618348e-05
24.4716878365,96.97168783650002,8,0,-0.4409700188935943,13.51513291316504,-0.0366701971540916,-1.222321039099153e-05,4.360120133724298e-05,-2.933615772327328e-07,4.360158674399506e-05,4.362926428052868e-05
25.5283121635,95.52831216350002,8,0,-0.6323516292428253,13.76236532983468,-0.1980785282265651,-1.303341747744478e-05,4.454545035886522e-05,-1.584628225812521e-06,4.455635093497129e-05,4.45806139025323e-05
26.9716878365,95.52831216350002,8,0,-0.524661399612588,14.19312624835563,-0.1959258553149213,-1.303341747744478e-05,4.583773311442807e-05,-1.567406842519371e-06,4.58481640681554e-05,4.587080794686424e-05
25.5283121635,96.97168783650002,8,0,-0.6266111681453794,13.76380044510904,-0.03654318378123632,-1.301619609415244e-05,4.454545035886522e-05,-2.923454702498905e-07,4.454582154926765e-05,4.45697695931256e-05
26.9716878365,96.97168783650002,8,0,-0.5189209385151421,14.19456136362999,-0.03439051086967385,-1.301619609415244e-05,4.583773311442807e-05,-2.751240869573908e-07,4.583805464287451e-05,4.585703496769284e-05
28.0283121635,95.52831216350002,8,0,-0.7093649315436754,14.44242008153393,-0.1937192574720254,-1.38239038461669e-05,4.678323620614351e-05,-1.549754059776203e-06,4.679314157858852e-05,4.681478284225841e-05
29.4716878365,95.52831216350002,8,0,-0.6017916207247858,14.87271332480949,-0.1911907214693372,-1.38239038461669e-05,4.807411593597019e-05,-1.529525771754698e-06,4.808356329827708e-05,4.81035761733225e-05
28.0283121635,96.97168783650002,8,0,-0.7026221688699121,14.44410577220237,-0.03235929124369109,-1.380367555814561e-05,4.678323620614351e-05,-2.588743299495287e-07,4.678351273291673e-05,4.67989541919854e-05
29.4716878365,96.97168783650002,8,0,-0.59504885805105,14.87439901547782,-0.02983075524098933,-1.380367555814561e-05,4.807411593596986e-05,-2.386460419279146e-07,4.807434603355485e-05,4.808505999492069e-05
30.5283121635,95.52831216350002,8,0,-0.782248742200907,15.1220813423525,-0.1864742594289711,-1.46008610489249e-05,4.901645928928871e-05,-1.491794075431769e-06,4.902520354204817e-05,4.90444125668935e-05
31.9716878365,95.52831216350002,8,0,-0.6752778930573005,15.54996473892692,-0.1835973134684432,-1.46008610489249e-05,5.030010947901199e-05,-1.468778507747546e-06,5.03084184231351e-05,5.032603206478456e-05
30.5283121635,96.97168783650002,8,0,-0.7745768863062024,15.12399930632617,-0.02601798571348016,-1.457784548124078e-05,4.901645928928871e-05,-2.081438857078413e-07,4.901662960234303e-05,4.902402722822476e-05
31.9716878365,96.97168783650002,8,0,-0.6676060371625603,15.55188270290074,-0.02314103975293875,-1.457784548124078e-05,5.030010947901242e-05,-1.8512831802351e-07,5.030024154399655e-05,5.030322761342764e-05
33.0283121635,95.52831216350002,8,0,-0.8494055398577132,15.7986513007363,-0.1765830574799212,-1.535701876813372e-05,5.123520859424231e-05,-1.41266445983937e-06,5.124269969526396e-05,5.125968870698962e-05
34.4716878365,95.52831216350002,8,0,-0.7434815312487748,16.22234733517205,-0.1733909205566675,-1.535701876813372e-05,5.250629669754957e-05,-1.38712736445334e-06,5.251338418429458e-05,5.252886659253543e-05
33.0283121635,96.97168783650002,8,0,-0.8408931747290191,15.80077939201874,-0.01769704456648603,-1.533148167274785e-05,5.123520859424318e-05,-1.415763565318882e-07,5.123528387154021e-05,5.1235219624301e-05
34.4716878365,96.97168783650002,8,0,-0.7349691661201341,16.22447542645428,-0.01450490764325942,-1.533148167274785e-05,5.250629669754979e-05,-1.160392611460753e-07,5.250634631997479e-05,5.250226876516071e-05
35.5283121635,95.52831216350002,8,0,-0.9093957953436584,16.46966888429308,-0.1643249093059829,-1.608580165253417e-05,5.343045706601279e-05,-1.314599274447863e-06,5.343667149990019e-05,5.345169599722237e-05
36.9716878365,95.52831216350002,8,0,-0.804915380528513,16.88759054355366,-0.1608557983034102,-1.608580165253417e-05,5.468422204379453e-05,-1.286846386427281e-06,5.469007140160109e-05,5.470373493210699e-05
35.5283121635,96.97168783650002,8,0,-0.9001448326700947,16.47198162496147,-0.007604287083102113,-1.605804876451348e-05,5.343045706601279e-05,-6.083429666481691e-08,5.343047038048435e-05,5.342365263616845e-05
36.9716878365,96.97168783650002,8,0,-0.7956644178549492,16.88990328422205,-0.004135176080515782,-1.605804876451348e-05,5.468422204379453e-05,-3.308140864412626e-08,5.468422591128255e-05,5.467387104428334e-05
38.0283121635,95.52831216350002,8,0,-0.9609589180222704,17.13294526275908,-0.150013299964798,-1.678142474787853e-05,5.559419197524685e-05,-1.200106399718384e-06,5.559916656630951e-05,5.561252931139454e-05
39.4716878365,95.52831216350002,8,0,-0.8582656589879738,17.54371829889626,-0.1463096598992934,-1.678142474787853e-05,5.682651108365841e-05,-1.170477279194347e-06,5.683116387840004e-05,5.684336279446207e-05
38.0283121635,96.97168783650002,8,0,-0.9510825445143132,17.1354143561362,0.004026588586592949,-1.675179562735476e-05,5.559419197524729e-05,3.221270869274359e-08,5.559419556099746e-05,5.558145086406128e-05
39.4716878365,96.97168783650002,8,0,-0.8483892854800708,17.54618739227317,0.007730228652070431,-1.675179562735476e-05,5.68265110836582e-05,6.184182921656345e-08,5.682652407801529e-05,5.681078663560932e-05
40.5283121635,95.52831216350002,8,0,-1.003030988772817,17.78659432303854,-0.1339903941015351,-1.743897462250384e-05,5.771952662474156e-05,-1.071923152812281e-06,5.772334841736006e-05,5.773539537454994e-05
41.97168783650001,95.52831216350002,8,0,-0.9024105952828076,18.18907589699857,-0.1300981179963671,-1.743897462250384e-05,5.892697134662168e-05,-1.040784943970936e-06,5.893051737420179e-05,5.894164022239285e-05
40.5283121635,96.97168783650002,8,0,-0.9926515858256657,17.78918917377532,0.01694019613354778,-1.740783641366239e-05,5.771952662474156e-05,1.355215690683823e-07,5.771958774122428e-05,5.770184532541081e-05
41.97168783650001,96.97168783650002,8,0,-0.8920311923356197,18.19167074773551,0.02083247223875649,-1.740783641366239e-05,5.892697134662211e-05,1.666597779100519e-07,5.892706231249106e-05,5.890692716702972e-05
43.0283121635,95.52831216350002,8,0,-1.034759229558778,18.42905806854709,-0.1166214243079775,-1.805447598942576e-05,5.980079320299769e-05,-9.329713944638196e-07,5.980358814669602e-05,5.981470023625936e-05
44.4716878365,95.52831216350002,8,0,-0.9364358140085081,18.82235173074817,-0.1125890594563252,-1.805447598942576e-05,6.098067418960093e-05,-9.007124756506019e-07,6.098324031562823e-05,6.099369970445793e-05
43.0283121635,96.97168783650002,8,0,-1.024006256620877,18.43174631178156,0.03086369901750957,-1.802221707061205e-05,5.980079320299769e-05,2.469095921400766e-07,5.980098904543895e-05,5.977926178340626e-05
44.4716878365,96.97168783650002,8,0,-0.9256828410705804,18.82503997398275,0.03489606386920244,-1.802221707061205e-05,6.098067418960126e-05,2.791685109536195e-07,6.098092080973433e-05,6.095744243503047e-05
45.52831216350001,95.52831216350002,8,0,-1.055513155864034,19.05912688558973,-0.09828901598696284,-1.862494360723669e-05,6.183361655857835e-05,-7.863121278957027e-07,6.183553764689661e-05,6.184612027607623e-05
46.97168783650001,95.52831216350002,8,0,-0.9596464140748937,19.44259385274629,-0.09416695868871199,-1.862494360723669e-05,6.298401746004803e-05,-7.533356695096959e-07,6.298575594113598e-05,6.299597711905474e-05
45.52831216350001,96.97168783650002,8,0,-1.044521003068843,19.0618749237888,0.04551109669676109,-1.859196714885133e-05,6.183361655857922e-05,3.640887735740887e-07,6.183402861637776e-05,6.18093922053147e-05
46.97168783650001,96.97168783650002,8,0,-0.948654261279775,19.44534189094507,0.04963315399490352,-1.859196714885133e-05,6.298401746004803e-05,3.970652319592281e-07,6.298450062879365e-05,6.29587816117026e-05
48.0283121635,95.52831216350002,8,0,-1.064892370279434,19.67595462691053,-0.07938747132909391,-1.914841928642261e-05,6.381496870233724e-05,-6.350997706327513e-07,6.381618413549193e-05,6.382665565302545e-05
49.47168783650001,95.52831216350002,8,0,-0.97157569434835,20.04922133063487,-0.07522715674697335,-1.914841928642261e-05,6.493476881351025e-05,-6.018172539757867e-07,6.493584566185817e-05,6.494625476970822e-05
48.0283121635,96.97168783650002,8,0,-1.053798198060409,19.67872816996529,0.06058754256757287,-1.911513676976554e-05,6.381496870233724e-05,4.847003405405829e-07,6.381567692648714e-05,6.378924835195965e-05
49.47168783650001,96.97168783650002,8,0,-0.9604815221292533,20.05199487368991,0.06474785714972053,-1.911513676976554e-05,6.493476881351112e-05,5.179828571977643e-07,6.493556686227442e-05,6.490873627404662e-05
50.5283121635,95.52831216350002,8,0,-1.062730980692089,20.27906848565168,-0.06031705312188466,-1.962399392673602e-05,6.574320393863903e-05,-4.825364249750773e-07,6.574388581513091e-05,6.575466566241892e-05
51.97168783650001,95.52831216350002,8,0,-0.9719905035759258,20.64203039411633,-0.05617015015515602,-1.962399392673602e-05,6.683208966403299e-05,-4.493612012412482e-07,6.683267355621581e-05,6.684368617810785e-05
50.5283121635,96.97168783650002,8,0,-1.051672572780668,20.28183308762953,0.07579366255238773,-1.959081870300176e-05,6.574320393863903e-05,6.063493004191019e-07,6.574428104370837e-05,6.571719703386861e-05
51.97168783650001,96.97168783650002,8,0,-0.9609320956645044,20.64479499609419,0.07994056551918413,-1.959081870300176e-05,6.683208966403299e-05,6.395245241534731e-07,6.683327275896079e-05,6.680646498363497e-05
53.0283121635,95.52831216350002,8,0,-1.04909866077967,20.86837366829957,-0.04147832085638807,-2.00518146491346e-05,6.761807466718235e-05,-3.318265668511046e-07,6.761838865319562e-05,6.762988579483486e-05
54.4716878365,95.52831216350002,8,0,-0.9608932243390127,21.2211954140622,-0.03739594353732896,-2.00518146491346e-05,6.867653990447024e-05,-2.991675482986317e-07,6.86767920813759e-05,6.868880257702666e-05
53.0283121635,96.97168783650002,8,0,-1.038212321261853,20.87109525317902,0.09082983380459846,-2.001915563058115e-05,6.761807466718235e-05,7.266386704367876e-07,6.761958086118545e-05,6.759297688276489e-05
54.4716878365,96.97168783650002,8,0,-0.9500068848211143,21.22391699894198,0.09491221112376599,-2.001915563058115e-05,6.867653990447122e-05,7.592976889901279e-07,6.867816490559025e-05,6.865249940227034e-05
55.5283121635,95.52831216350002,8,0,-1.024298408884033,21.44415291788259,-0.02326657571864884,-2.043307724273498e-05,6.944072806433152e-05,-1.861326057491907e-07,6.944082443643252e-05,6.9453426536456e-05
56.97168783650001,95.52831216350002,8,0,-0.938520438710416,21.78726479857706,-0.01929852244870502,-2.043307724273498e-05,7.047006370641492e-05,-1.543881795896401e-07,7.047012925886053e-05,7.048350126019845e-05
55.5283121635,96.97168783650002,8,0,-1.013716933497173,21.44679828672931,0.1054003795418305,-2.04013328165744e-05,6.944072806433152e-05,8.432030363346443e-07,6.944270646870353e-05,6.941769671401607e-05
56.97168783650001,96.97168783650002,8,0,-0.9279389633235295,21.78991016742388,0.1093684328118015,-2.04013328165744e-05,7.047006370641525e-05,8.749474624944117e-07,7.047216974679152e-05,7.044873212810392e-05
58.0283121635,95.52831216350002,8,0,-0.9888610984911752,22.00706098303546,-0.006066467187263152,-2.077000430160012e-05,7.12136840245064e-05,-4.853173749810522e-08,7.121369042599297e-05,7.122775414328916e-05
59.47168783650001,95.52831216350002,8,0,-0.9053383611105259,22.34115193255806,-0.002260497226346816,-2.077000430160012e-05,7.22159568730742e-05,-1.808397781077452e-08,7.22159577523205e-05,7.223101610991659e-05
58.0283121635,96.97168783650002,8,0,-0.9787118452620289,22.00959829634274,0.119217638883725,-2.073955654191269e-05,7.12136840245064e-05,9.537411110698002e-07,7.121615701414393e-05,7.119381573408386e-05
59.47168783650001,96.97168783650002,8,0,-0.8951891078813796,22.34368924586534,0.123023608844682,-2.073955654191269e-05,7.22159568730742e-05,9.841888707574561e-07,7.221856188420642e-05,7.219838658750635e-05
60.5283121635,95.52831216350002,8,0,-0.943536944452454,22.55811416872839,0.009753197318269078,-2.106580955723057e-05,7.294079489549282e-05,7.802557854615262e-08,7.294081108581767e-05,7.295665375852465e-05
61.9716878365,95.52831216350002,8,0,-0.8620351564506512,22.88412132073561,0.01335204408922121,-2.106580955723057e-05,7.391881635151446e-05,1.068163527137697e-07,7.391884638197857e-05,7.393587071586352e-05
60.5283121635,96.97168783650002,8,0,-0.9339400197300058,22.56051339990901,0.13200587932092,-2.103701878306322e-05,7.294079489549282e-05,1.05604703456736e-06,7.294376155350317e-05,7.292510597260119e-05
61.9716878365,96.97168783650002,8,0,-0.8524382317282031,22.88652055191622,0.1356047260918586,-2.103701878306322e-05,7.391881635151446e-05,1.084837808734869e-06,7.392191472527399e-05,7.390596940218742e-05
63.0283121635,95.52831216350002,8,0,-0.8892840294335915,23.09867513518673,0.023844415743027,-2.132464900233687e-05,7.462718765614438e-05,1.90755325944216e-07,7.462728246297584e-05,7.464517529194748e-05
64.47168783650001,95.52831216350002,8,0,-0.8095102845224806,23.41777011483117,0.02719445427249974,-2.132464900233687e-05,7.558447259507772e-05,2.175556341799979e-07,7.558459469502443e-05,7.56038144745935e-05
63.0283121635,96.97168783650002,8,0,-0.8803505933549252,23.10090849420639,0.1435050331097081,-2.129784869410087e-05,7.462718765614438e-05,1.148040264877664e-06,7.46306224978379e-05,7.461659736187056e-05
64.47168783650001,96.97168783650002,8,0,-0.800576848443769,23.42000347385102,0.1468550716392757,-2.129784869410087e-05,7.558447259507827e-05,1.174840573114205e-06,7.558803413142387e-05,7.557720562350019e-05
65.5283121635,95.52831216350002,8,0,-0.8272540416985867,23.63043312853829,0.03588472538695463,-2.155155943626611e-05,7.62791892446814e-05,2.87077803095637e-07,7.627939984689166e-05,7.629956237938327e-05
66.97168783650001,95.52831216350002,8,0,-0.7488610213046343,23.9440052101141,0.03894821974538673,-2.155155943626611e-05,7.721990548940883e-05,3.115857579630938e-07,7.722015122192658e-05,7.724174182196331e-05
65.5283121635,96.97168783650002,8,0,-0.8190847234094525,23.63247545811058,0.1534742559779374,-2.152705148139871e-05,7.62791892446814e-05,1.227794047823499e-06,7.628304231895344e-05,7.627450578445042e-05
66.97168783650001,96.97168783650002,8,0,-0.7406917030154725,23.9460475396865,0.1565377503364102,-2.152705148139871e-05,7.721990548940915e-05,1.252302002691282e-06,7.722387573138613e-05,7.72189569907438e-05
68.0283121635,95.52831216350002,8,0,-0.7587753664908572,24.15537982719185,0.04558172905974307,-2.175238503452422e-05,7.79042357402066e-05,3.646538324779446e-07,7.790456931556621e-05,7.792716435024092e-05
69.47168783650001,95.52831216350002,8,0,-0.6813663023503027,24.46501608375407,0.0483254544589659,-2.175238503452422e-05,7.883314450989325e-05,3.866036356717272e-07,7.883351598931927e-05,7.885759407964726e-05
68.0283121635,96.97168783650002,8,0,-0.7514587654264435,24.15720897745796,0.1616953252706012,-2.173043523133098e-05,7.79042357402066e-05,1.293562602164809e-06,7.790843416250881e-05,7.790614402389373e-05
69.47168783650001,96.97168783650002,8,0,-0.6740497012858624,24.46684523402028,0.164439050669824,-2.173043523133098e-05,7.883314450989358e-05,1.315512405358592e-06,7.883744651183161e-05,7.883912270654835e-05
70.5283121635,95.52831216350002,8,0,-0.6853336487655506,24.67578097078186,0.05267745816049803,-2.193369245267525e-05,7.951076602551437e-05,4.214196652839843e-07,7.951120368808057e-05,7.953633012403438e-05
71.97168783650001,95.52831216350002,8,0,-0.6084680121515262,24.98324351723796,0.05507324439645424,-2.193369245267525e-05,8.043315366488266e-05,4.405859551716339e-07,8.043362773215224e-05,8.046024175290082e-05
70.5283121635,96.97168783650002,8,0,-0.6789448854696856,24.67737816160582,0.1679759130815482,-2.191452616278765e-05,7.951076602551437e-05,1.343807304652386e-06,7.951521693413569e-05,7.951981455602789e-05
71.97168783650001,96.97168783650002,8,0,-0.6020792488556523,24.98484070806196,0.1703716993175044,-2.191452616278765e-05,8.043315366488277e-05,1.362973594540035e-06,8.043769117532399e-05,8.044652059052847e-05
73.0283121635,95.52831216350002,8,0,-0.6085499062855062,25.19414390446121,0.05695263773696575,-2.210267482368258e-05,8.110810041930426e-05,4.55621101895726e-07,8.11086032485308e-05,8.113628052171389e-05
74.47168783650001,95.52831216350002,8,0,-0.5317498074361504,25.50134429985863,0.05897791159236636,-2.210267482368258e-05,8.202970160549653e-05,4.718232927389309e-07,8.203023606001644e-05,8.205934115720961e-05
73.0283121635,96.97168783650002,8,0,-0.6031491760044014,25.19549408703148,0.1721527860111083,-2.208647263283927e-05,8.110810041930426e-05,1.377222288088866e-06,8.111269527522523e-05,8.112468069660569e-05
74.47168783650001,96.97168783650002,8,0,-0.5263490771549728,25.5026944824292,0.1741780598665224,-2.208647263283927e-05,8.20297016054974e-05,1.393424478932179e-06,8.203436357290287e-05,8.205074252765316e-05
75.5283121635,95.52831216350002,8,0,-0.5301562221106568,25.71318112297829,0.05823093344618563,-2.226704480913673e-05,8.270630457121904e-05,4.65847467569485e-07,8.270682139952803e-05,8.27369495878688e-05
76.97168783650001,95.52831216350002,8,0,-0.4529135143781895,26.02215195390816,0.05986927996733798,-2.226704480913673e-05,8.363321706400864e-05,4.789542397387039e-07,8.363375860183549e-05,8.36651496126497e-05
75.5283121635,96.97168783650002,8,0,-0.5257872980542144,25.7142733539924,0.1740949950448456,-2.22539380369674e-05,8.270630457121904e-05,1.392759960358765e-06,8.27109246418257e-05,8.273060674616888e-05
76.97168783650001,96.97168783650002,8,0,-0.4485445903217107,26.02324418492241,0.1757333415660116,-2.22539380369674e-05,8.363321706400908e-05,1.405866732528092e-06,8.363788329140235e-05,8.366196850243341e-05
78.0283121635,95.52831216350002,8,0,-0.4519689886523377,26.23576984074533,0.05638326766554383,-2.243491663628374e-05,8.431603868130693e-05,4.510661413243506e-07,8.431651516359017e-05,8.43487710966589e-05
79.47168783650001,95.52831216350002,8,0,-0.3737530837979319,26.54863346016296,0.05762503073528775,-2.243491663628374e-05,8.52546295395598e-05,4.61000245882302e-07,8.525512290279844e-05,8.528825969941615e-05
78.0283121635,96.97168783650002,8,0,-0.4486576204664079,26.23659768279182,0.1737071249470978,-2.242498253172596e-05,8.431603868130693e-05,1.389656999576782e-06,8.432056146161286e-05,8.434794336030583e-05
79.47168783650001,96.97168783650002,8,0,-0.3704417156120385,26.54946130220929,0.1749488880169094,-2.242498253172596e-05,8.525462953955937e-05,1.399591104135275e-06,8.525917722619958e-05,8.529069976854321e-05
80.5283121635,95.52831216350002,8,0,-0.3758596173327513,26.76490755185554,0.05133228994450565,-2.261467681694923e-05,8.594839185980391e-05,4.106583195560452e-07,8.594878020469464e-05,8.598235073896397e-05
81.97168783650001,95.52831216350002,8,0,-0.2961260299068593,27.0838419015591,0.05217523088266619,-2.261467681694923e-05,8.690519490891461e-05,4.174018470613295e-07,8.690559260767586e-05,8.693915412141034e-05
80.5283121635,96.97168783650002,8,0,-0.3736117748307191,26.76546951248104,0.1709326710833429,-2.260793328944313e-05,8.594839185980391e-05,1.367461368666743e-06,8.595269809534009e-05,8.598719869298152e-05
81.97168783650001,96.97168783650002,8,0,-0.2938781874047915,27.08440386218475,0.1717756120215848,-2.260793328944313e-05,8.690519490891504e-05,1.374204896172678e-06,8.69095057271592e-05,8.694731273380759e-05
83.02831216350002,95.52831216350002,8,0,-0.3037225749538282,27.3036634850086,0.04305707424193844,-2.281484302785913e-05,8.761470121199056e-05,3.444565939355075e-07,8.761496982230069e-05,8.764787573597779e-05
84.47168783650002,95.52831216350002,8,0,-0.2219222233484794,27.63086489142999,0.04350710306540335,-2.281484302785913e-05,8.859630543125475e-05,3.480568245232268e-07,8.859657726952944e-05,8.862733581303426e-05
83.02831216350002,96.97168783650002,8,0,-0.3025224980911823,27.30396350422426,0.16575760165003,-2.281124279727119e-05,8.761470121199056e-05,1.32606081320024e-06,8.761868210141414e-05,8.765844706287583e-05
84.47168783650002,96.97168783650002,8,0,-0.2207221464858335,27.63116491064565,0.1662076304734814,-2.281124279727119e-05,8.859630543125475e-05,1.329661043787851e-06,8.860027270179104e-05,8.86411881401532e-05
85.5283121635,95.52831216350002,8,0,-0.237440567281161,27.85512581058808,0.03159809111325657,-2.304391046377017e-05,8.932635504770676e-05,2.527847289060525e-07,8.932649721173484e-05,8.935389221118793e-05
86.97168783650002,95.52831216350002,8,0,-0.1530298651966202,28.19276861892624,0.03167007847488493,-2.304391046377017e-05,9.033928347272125e-05,2.533606277990794e-07,9.03394250094106e-05,9.035942112853591e-05
85.5283121635,96.97168783650002,8,0,-0.2372486009834853,27.85517380216263,0.158214144240095,-2.304333456487726e-05,8.93263550477072e-05,1.26571315392076e-06,8.932991912931768e-05,8.937010533801374e-05
86.97168783650002,96.97168783650002,8,0,-0.152837898898909,28.19281661050094,0.1582861316017504,-2.304333456487726e-05,9.033928347272212e-05,1.266289052814003e-06,9.034281893079138e-05,9.037880307988675e-05
88.02831216350002,95.52831216350002,8,0,-0.1788466694543294,28.42234442942082,0.0170624669606779,-2.331018488579051e-05,9.109457950971008e-05,1.364997356854232e-07,9.109462022517178e-05,9.110452763060292e-05
89.47168783650001,95.52831216350002,8,0,-0.09129844254774344,28.77253733704717,0.01678113570408794,-2.331018488579051e-05,9.214515823258911e-05,1.342490856327035e-07,9.214519725809112e-05,9.213466753403843e-05
88.02831216350002,96.97168783650002,8,0,-0.1795968861386772,28.42215687524973,0.1483848073206102,-2.331243553584355e-05,9.109457950971008e-05,1.187078458564882e-06,9.109765868571369e-05,9.112615384546728e-05
89.47168783650001,96.97168783650002,8,0,-0.09204865923205574,28.77234978287622,0.1481034760639796,-2.331243553584355e-05,9.214515823258954e-05,1.184827808511837e-06,9.214819783339299e-05,9.21592563663226e-05
90.52831216350002,95.52831216350002,8,0,-0.1296832089430762,29.00826917375437,-0.0003705049597473812,-2.362160160762134e-05,9.293020792316845e-05,-2.96403967797905e-09,9.293020794201314e-05,9.289285374143527e-05
91.97168783650001,95.52831216350002,8,0,-0.03849846574811799,29.37300814653421,-0.000969621083361902,-2.362160160762134e-05,9.402442484150795e-05,-7.756968666895216e-09,9.402442496937152e-05,9.393411707829393e-05
90.52831216350002,96.97168783650002,8,0,-0.1312808519393274,29.00786976300531,0.1364066098326908,-2.36263945366101e-05,9.293020792316845e-05,1.091252878661526e-06,9.293276206151317e-05,9.291949583570448e-05
91.97168783650001,96.97168783650002,8,0,-0.0400961087443692,29.37260873578515,0.1358074937091711,-2.36263945366101e-05,9.402442484150795e-05,1.086459949673369e-06,9.402693304770679e-05,9.396340617120791e-05
93.02831216350002,95.52831216350002,8,0,-0.09155724667722875,29.6156832890842,-0.02044369480002023,-2.398552982063449e-05,9.484343232241121e-05,-1.635495584001619e-07,9.484348859750801e-05,9.468463199529891e-05
94.47168783650002,95.52831216350002,8,0,0.003722180936157393,29.99680099953775,-0.02131325106445668,-2.398552982063449e-05,9.598678545377185e-05,-1.705060085156534e-07,9.598684603500719e-05,9.56938135436234e-05
93.02831216350002,96.97168783650002,8,0,-0.0938760633824467,29.6151035849079,0.1224754466201401,-2.399248627075014e-05,9.484343232241121e-05,9.798035729611208e-07,9.48454519111391e-05,9.471569392624613e-05
94.47168783650002,96.97168783650002,8,0,0.001403364230983861,29.99622129536162,0.1216058903556359,-2.399248627075014e-05,9.598678545377239e-05,9.728471228450872e-07,9.598875749434874e-05,9.572707195950643e-05
95.5283121635,95.52831216350002,8,0,-0.06589258155346656,30.24713214809884,-0.0428164668366145,-2.440856197945016e-05,9.684353693915904e-05,-3.42531734692916e-07,9.684377884786873e-05,9.637805285261789e-05
96.97168783650002,95.52831216350002,8,0,0.03388537313614748,30.64624396685729,-0.04389630676817128,-2.440856197945016e-05,9.804087239543441e-05,-3.511704541453702e-07,9.80411241737193e-05,9.723824786108163e-05
95.5283121635,96.97168783650002,8,0,-0.06877215470434805,30.24641225481112,0.1068504651978203,-2.44172006989028e-05,9.684353693915904e-05,8.548037215825623e-07,9.684504336312488e-05,9.641268617878274e-05
96.97168783650002,96.97168783650002,8,0,0.03100579998530151,30.64552407356971,0.1057706252662635,-2.44172006989028e-05,9.804087239543484e-05,8.46165002130108e-07,9.804233409299079e-05,9.727444102705662e-05
98.02831216350002,95.52831216350002,8,0,-0.05387832720458086,30.90484728123644,-0.0670592417894775,-2.489628847204381e-05,9.893861396172024e-05,-5.3647393431582e-07,9.893919498315725e-05,9.770351186616811e-05
99.47168783650002,95.52831216350002,8,0,0.05073334904435178,31.32329398623217,-0.06827545195369963,-2.489628847204381e-05,0.0001001939540767074,-5.462036156295971e-07,0.0001001945503201906,9.811444175858764e-05
98.02831216350002,96.97168783650002,8,0,-0.05712155430914656,30.90403647446029,0.08985827258401738,-2.49060181533575e-05,9.893861396172024e-05,7.18866180672139e-07,9.893965713215095e-05,9.774050354343608e-05
99.47168783650002,96.97168783650002,8,0,0.04749012193982338,31.32248317945617,0.088642062419863,-2.49060181533575e-05,0.0001001939540767079,7.09136499358904e-07,0.0001001949590140515,9.815205516946835e-05
0.5283121635,98.02831216350002,8,0,-0.04237314180761054,7.620968915712081,-0.06300481786739401,-6.232369186354018e-06,2.442099904372474e-05,-5.04038542939152e-07,2.442307090154215e-05,2.601729826101277e-05
1.9716878365,98.02831216350002,8,0,0.03704366944158455,7.938636160708861,-0.0634157860564255,-6.232369186354018e-06,2.537400077871508e-05,-5.07326288451404e-07,2.537603647110134e-05,2.636297906007467e-05
0.5283121635,99.47168783650001,8,0,-0.04346905697832515,7.620694936919402,0.05612039900637156,-6.235656931866162e-06,2.442099904372474e-05,4.489631920509725e-07,2.442264270914468e-05,2.602993245569128e-05
1.9716878365,99.47168783650001,8,0,0.03594775427086994,7.938362181916182,0.05570943081731296,-6.235656931866162e-06,2.537400077871508e-05,4.456754465385036e-07,2.537557163353995e-05,2.637538585471957e-05
3.0283121635,98.02831216350002,8,0,-0.05921596874766744,8.139272096934244,-0.07368129213323418,-6.700908777539929e-06,2.609304348518771e-05,-5.894503370658735e-07,2.609569201957407e-05,2.677027765939352e-05
4.4716878365,98.02831216350002,8,0,0.02507232058453912,8.47642525426307,-0.07404530254116412,-6.700908777539929e-06,2.710450295717419e-05,-5.923624203293129e-07,2.710709770671363e-05,2.753735732756967e-05
3.0283121635,99.47168783650001,8,0,-0.06018666316868737,8.139029423328717,0.05275114186507586,-6.703820860802772e-06,2.609304348518684e-05,4.220091349206069e-07,2.609440096510528e-05,2.678238989667327e-05
4.4716878365,99.47168783650001,8,0,0.02410162616359157,8.476182580657833,0.0523871314572137,-6.703820860802772e-06,2.710450295717419e-05,4.190970516577096e-07,2.710580171715223e-05,2.754889221919566e-05
5.528312163500001,98.02831216350002,8,0,-0.08942302183032069,8.685422395937788,-0.08359045653648063,-7.234491586607255e-06,2.786489008446517e-05,-6.687236522918451e-07,2.786807497496563e-05,2.817203411769423e-05
6.9716878365,98.02831216350002,8,0,-0.0005932890568622895,9.040741327031622,-0.08388094531707997,-7.234491586607255e-06,2.893084687774668e-05,-6.710475625366398e-07,2.893395943038941e-05,2.913892368659681e-05
5.528312163500001,99.47168783650001,8,0,-0.09019765857831485,8.685228736750654,0.04965414262365301,-7.236815496851129e-06,2.786489008446474e-05,3.972331409892241e-07,2.786601388396384e-05,2.81830596765322e-05
6.9716878365,99.47168783650001,8,0,-0.001367925804874215,9.040547667844416,0.04936365384316209,-7.236815496851129e-06,2.893084687774603e-05,3.949092307452967e-07,2.893192483414637e-05,2.914913506803367e-05
8.028312163500001,98.02831216350002,8,0,-0.131740447144248,9.257487354260636,-0.09253544468605159,-7.827559314270102e-06,2.972935189134943e-05,-7.402835574884126e-07,2.973299946584836e-05,2.988617689952194e-05
9.471687836500001,98.02831216350002,8,0,-0.03877382430461251,9.629353845619178,-0.09273086202725531,-7.827559314270102e-06,3.084495136542506e-05,-7.418468962180425e-07,3.084850871267818e-05,3.096082107453669e-05
8.028312163500001,99.47168783650001,8,0,-0.1322615600544861,9.257357076033077,0.04691448957344201,-7.829122653000816e-06,2.972935189134943e-05,3.753159165875361e-07,2.973028948614406e-05,2.989573402120626e-05
9.471687836500001,99.47168783650001,8,0,-0.03929493721487765,9.629223567391511,0.04671907223211631,-7.829122653000816e-06,3.084495136542473e-05,3.737525778569305e-07,3.084585434585481e-05,3.096940490273677e-05
10.5283121635,98.02831216350002,8,0,-0.1846744915710361,9.853131783838073,-0.100359782638119,-8.473463800097772e-06,3.167776130153866e-05,-8.028782611049518e-07,3.168177456063305e-05,3.177213008391194e-05
11.9716878365,98.02831216350002,8,0,-0.08803452619343988,10.23969164534846,-0.1004433125347822,-8.473463800097772e-06,3.283744088606981e-05,-8.035465002782577e-07,3.284134800164139e-05,3.2914023343243e-05
10.5283121635,99.47168783650001,8,0,-0.1848972379621379,9.853076097240297,0.04460016542819382,-8.474132039271078e-06,3.167776130153866e-05,3.568013234255506e-07,3.16785539457994e-05,3.17799646329624e-05
11.9716878365,99.47168783650001,8,0,-0.08825727258457805,10.23963595875054,0.04451663553154414,-8.474132039271078e-06,3.283744088606938e-05,3.561330842523532e-07,3.283820839749791e-05,3.292078411707179e-05
13.0283121635,98.02831216350002,8,0,-0.2465469403269109,10.46970370028316,-0.1069453302233775,-9.164713169272642e-06,3.370028939316764e-05,-8.5556264178702e-07,3.37045581118334e-05,3.376720886393514e-05
14.4716878365,98.02831216350002,8,0,-0.1467414089771664,10.86892582568214,-0.1069045634396028,-9.164713169272642e-06,3.489795576936457e-05,-8.552365075168225e-07,3.49021053171928e-05,3.495626179551623e-05
13.0283121635,99.47168783650001,8,0,-0.2464382289036564,10.46973087813897,0.04276296680123934,-9.164387035002879e-06,3.370028939316764e-05,3.421037344099147e-07,3.37009719662746e-05,3.377316372520119e-05
14.4716878365,99.47168783650001,8,0,-0.1466326975539118,10.86895300353795,0.04280373358495981,-9.164387035002879e-06,3.489795576936457e-05,3.424298686796785e-07,3.489862105652972e-05,3.496108863793599e-05
15.5283121635,98.02831216350002,8,0,-0.3155472143781481,11.10431600923594,-0.1122099279926342,-9.893203893398823e-06,3.578624900105751e-05,-8.976794239410734e-07,3.579065880957899e-05,3.583956009427586e-05
16.9716878365,98.02831216350002,8,0,-0.2131142256355707,11.51404796420625,-0.1120365135605009,-9.893203893398823e-06,3.701544486596844e-05,-8.962921084840073e-07,3.701972587947378e-05,3.706372299324784e-05
15.5283121635,99.47168783650001,8,0,-0.3150847758927307,11.10443161885729,0.04143955512135415,-9.89181657794257e-06,3.578624900105751e-05,3.315164409708332e-07,3.578685050257703e-05,3.584355483679378e-05
16.9716878365,99.47168783650001,8,0,-0.212651787150135,11.51416357382767,0.04161296955331123,-9.89181657794257e-06,3.701544486596866e-05,3.329037564264899e-07,3.701603551820539e-05,3.706657241540313e-05
18.0283121635,98.02831216350002,8,0,-0.3897808655729031,11.75392337056233,-0.1161048881449193,-1.065043746628316e-05,3.792437947825779e-05,-9.288391051593542e-07,3.79288193469377e-05,3.79694728523557e-05
19.4716878365,98.02831216350002,8,0,-0.2852758925122383,12.17194326280499,-0.1157941825241009,-1.065043746628316e-05,3.917843915498577e-05,-9.26353460192807e-07,3.918274417176878e-05,3.921986458751995e-05
18.0283121635,99.47168783650001,8,0,-0.3889523172507028,11.75413050764288,0.04065257144618677,-1.064795182131656e-05,3.792437947825779e-05,3.252205715694942e-07,3.792492385831915e-05,3.797148829775854e-05
19.4716878365,99.47168783650001,8,0,-0.2844473441900108,12.17215039988565,0.04096327706697807,-1.064795182131656e-05,3.917843915498609e-05,3.277062165358245e-07,3.917897797688818e-05,3.922074688642531e-05
20.5283121635,98.02831216350002,8,0,-0.467314375088876,12.41539391368305,-0.1186124327707714,-1.142772113123084e-05,4.010311202385687e-05,-9.488994621661712e-07,4.010747996154901e-05,4.014203904649578e-05
21.9716878365,98.02831216350002,8,0,-0.361298243296118,12.83945844085409,-0.1181631595043275,-1.142772113123084e-05,4.137530560536997e-05,-9.453052760346201e-07,4.137953609428309e-05,4.141107478680297e-05
20.5283121635,99.47168783650001,8,0,-0.4661163130450978,12.415693429194,0.04041176491841958,-1.142412694509951e-05,4.010311202385687e-05,3.232941193473567e-07,4.01036191248635e-05,4.014210483964026e-05
21.9716878365,99.47168783650001,8,0,-0.3601001812523217,12.8397579563651,0.04086103818484992,-1.142412694509951e-05,4.137530560537018e-05,3.268883054787994e-07,4.137581155275999e-05,4.141004299122143e-05
23.0283121635,98.02831216350002,8,0,-0.5462162757199671,13.08557566259595,-0.1197431484195144,-1.221635261238065e-05,4.231081514088301e-05,-9.57945187356115e-07,4.23150221638388e-05,4.234434769160799e-05
24.4716878365,98.02831216350002,8,0,-0.4392441090050281,13.51346432945571,-0.1191570753225331,-1.221635261238065e-05,4.359448114146227e-05,-9.532566025802647e-07,4.359855128262059e-05,4.362506094466392e-05
23.0283121635,99.47168783650001,8,0,-0.5446534141280353,13.08596637799393,0.04071510165289376,-1.221166402760486e-05,4.231081514088301e-05,3.257208132231501e-07,4.231130160583835e-05,4.234253217767435e-05
24.4716878365,99.47168783650001,8,0,-0.4376812474130962,13.51385504485369,0.04130117474990215,-1.221166402760486e-05,4.359448114146227e-05,3.304093979992172e-07,4.359497019787914e-05,4.362220186109943e-05
25.5283121635,98.02831216350002,8,0,-0.6245946849849173,13.761357653439,-0.119533495210062,-1.300778911470294e-05,4.453602023899274e-05,-9.562679616804959e-07,4.453999280050643e-05,4.456448336655733e-05
26.9716878365,98.02831216350002,8,0,-0.5172057973769788,14.19091320387076,-0.1188151312471697,-1.300778911470294e-05,4.5824686890288e-05,-9.505210499773575e-07,4.582852588949447e-05,4.585031989999272e-05
25.5283121635,99.47168783650001,8,0,-0.6226790477503932,13.76183656274764,0.04154983620179151,-1.300204220299936e-05,4.453602023899274e-05,3.32398689614332e-07,4.453650030367653e-05,4.456088543639861e-05
26.9716878365,99.47168783650001,8,0,-0.5152901601424547,14.19139211317939,0.04226820016472446,-1.300204220299936e-05,4.5824686890288e-05,3.381456013177957e-07,4.58251728152449e-05,4.584574697303032e-05
28.0283121635,98.02831216350002,8,0,-0.7006313618455078,14.43972579762557,-0.1180433834632049,-1.379380099600608e-05,4.676762764187822e-05,-9.443470677056396e-07,4.677130876863482e-05,4.679123617551413e-05
29.4716878365,98.02831216350002,8,0,-0.5933400792882662,14.86889092785453,-0.1171996937823154,-1.379380099600608e-05,4.805512303256512e-05,-9.375975502585229e-07,4.805867620135514e-05,4.807603071258099e-05
28.0283121635,99.47168783650001,8,0,-0.6983815226963968,14.44028825741285,0.04289354037261732,-1.378705147855874e-05,4.676762764187822e-05,3.431483229809386e-07,4.676811377205009e-05,4.678597881265305e-05
29.4716878365,99.47168783650001,8,0,-0.5910902401391729,14.86945338764174,0.04373723005356113,-1.378705147855874e-05,4.80551230325649e-05,3.49897840428489e-07,4.80556179517682e-05,4.806987843287379e-05
30.5283121635,98.02831216350002,8,0,-0.7726123948825743,15.11781356993958,-0.1153538122955098,-1.45666105195759e-05,4.899509333971272e-05,-9.228304983640787e-07,4.899844272780101e-05,4.90140859498537e-05
31.9716878365,98.02831216350002,8,0,-0.6658997910361935,15.54466398532511,-0.1143939474946675,-1.45666105195759e-05,5.027564458586929e-05,-9.151515799573403e-07,5.027887342449983e-05,5.029210598143091e-05
30.5283121635,99.47168783650001,8,0,-0.7700527554134808,15.11845347980686,0.04471509347411502,-1.455893160116862e-05,4.899509333971272e-05,3.577207477929202e-07,4.899559670326846e-05,4.900731121091935e-05
31.9716878365,99.47168783650001,8,0,-0.6633401515670734,15.54530389519249,0.04567495827503863,-1.455893160116862e-05,5.027564458586961e-05,3.653996662003091e-07,5.027615941863208e-05,5.02845255691084e-05
33.0283121635,98.02831216350002,8,0,-0.8389556048270972,15.79294759555435,-0.1115645531225254,-1.531901601189018e-05,5.120859678963557e-05,-8.925164249802033e-07,5.121159009458001e-05,5.122328575908012e-05
34.4716878365,98.02831216350002,8,0,-0.7332621401874633,16.21572145411288,-0.1104995876939109,-1.531901601189018e-05,5.247691836531118e-05,-8.839967015512873e-07,5.247979986905945e-05,5.248929619112941e-05
33.0283121635,99.47168783650001,8,0,-0.836115697017477,15.79365757250688,0.0469756438368444,-1.531049628846143e-05,5.120859678963601e-05,3.758051506947552e-07,5.12091275710171e-05,5.121515091565324e-05
34.4716878365,99.47168783650001,8,0,-0.7304222323779328,16.21643143106506,0.04804060926545889,-1.531049628846143e-05,5.247691836531053e-05,3.843248741236711e-07,5.247746309925077e-05,5.248045228714413e-05
35.5283121635,98.02831216350002,8,0,-0.8982347097420655,16.46268818515731,-0.1067918561381846,-1.604450161930046e-05,5.339918996029704e-05,-8.543348491054769e-07,5.340181748629049e-05,5.340997471330707e-05
36.9716878365,98.02831216350002,8,0,-0.7939537697161461,16.87981194526099,-0.1056345310131818,-1.604450161930046e-05,5.465056124060808e-05,-8.450762481054547e-07,5.465308662330805e-05,5.46593047813915e-05
35.5283121635,99.47168783650001,8,0,-0.8951485094086165,16.46345973524068,0.04962955390072242,-1.603524301830011e-05,5.339918996029704e-05,3.970364312057793e-07,5.339975753402229e-05,5.34006492941601e-05
36.9716878365,99.47168783650001,8,0,-0.790867569382697,16.88058349534435,0.0507868790257794,-1.603524301830011e-05,5.465056124060808e-05,4.062950322062352e-07,5.465114507173051e-05,5.464937289891653e-05
38.0283121635,98.02831216350002,8,0,-0.9492002659613474,17.12486483473058,-0.1011661585914613,-1.673733271886078e-05,5.555892768390695e-05,-8.093292687316907e-07,5.556119264664967e-05,5.556629194028829e-05
39.4716878365,98.02831216350002,8,0,-0.8466725997296498,17.53497549965737,-0.09993062355285619,-1.673733271886078e-05,5.678925967868731e-05,-7.994449884228495e-07,5.679143267957361e-05,5.679489687222775e-05
38.0283121635,99.47168783650001,8,0,-0.9459055058584358,17.12568852475645,0.05262534075601687,-1.672744843855215e-05,5.555892768390738e-05,4.21002726048135e-07,5.555954066868351e-05,5.555595543768388e-05
39.4716878365,99.47168783650001,8,0,-0.8433778396267924,17.53579918968302,0.05386087579455426,-1.672744843855215e-05,5.67892596786871e-05,4.308870063564341e-07,5.678989103862737e-05,5.678406139019993e-05
40.5283121635,98.02831216350002,8,0,-0.9907973691774785,17.77760667572948,-0.09482977870024864,-1.739263692195151e-05,5.768097925767631e-05,-7.586382296019892e-07,5.768289576743254e-05,5.768548032492817e-05
41.97168783650001,98.02831216350002,8,0,-0.8903064357420245,18.1795704094713,-0.09353133185478953,-1.739263692195151e-05,5.888687045890175e-05,-7.482506548383162e-07,5.888870537365816e-05,5.888999463424982e-05
40.5283121635,99.47168783650001,8,0,-0.9873348442561998,17.7784723069598,0.05590662145298639,-1.738224934718768e-05,5.768097925767631e-05,4.472529716238911e-07,5.768164547417461e-05,5.767432036128091e-05
41.97168783650001,99.47168783650001,8,0,-0.8868439108207005,18.1804360407018,0.05720506829847262,-1.738224934718768e-05,5.88868704589023e-05,4.57640546387781e-07,5.888755695228631e-05,5.887844714975548e-05
43.0283121635,98.02831216350002,8,0,-1.022180082556244,18.41936783954987,-0.08793458673646586,-1.800647053581988e-05,5.975972115260459e-05,-7.034766938917268e-07,5.97613120410241e-05,5.976197525769369e-05
44.4716878365,98.02831216350002,8,0,-0.9239483124319312,18.81229492004713,-0.08658940995104791,-1.800647053581988e-05,6.093850239409634e-05,-6.927152796083833e-07,6.094002195007499e-05,6.093975631493754e-05
43.0283121635,99.47168783650001,8,0,-1.018592944461706,18.42026462407351,0.0594130684500576,-1.799570912153626e-05,5.975972115260459e-05,4.753045476004608e-07,5.976044750799161e-05,5.975018604401171e-05
44.4716878365,99.47168783650001,8,0,-0.9203611743373301,18.81319170457101,0.06075824523550265,-1.799570912153626e-05,6.09385023940971e-05,4.860659618840212e-07,6.093925066875236e-05,6.092769420568033e-05
45.52831216350001,98.02831216350002,8,0,-1.04272255472359,19.04894769171936,-0.08063965362722481,-1.857587032849098e-05,6.179081065728082e-05,-6.451172290177984e-07,6.179210525328178e-05,6.179147631605912e-05
46.97168783650001,98.02831216350002,8,0,-0.946908534945524,19.43220377083162,-0.07926454454205827,-1.857587032849098e-05,6.294057889461762e-05,-6.341163563364661e-07,6.294181207354741e-05,6.294063757580094e-05
45.52831216350001,99.47168783650001,8,0,-1.039055597163038,19.04986443110964,0.06308137603987457,-1.856486945580943e-05,6.179081065728126e-05,5.046510083189966e-07,6.179160297877224e-05,6.177925726710955e-05
46.97168783650001,99.47168783650001,8,0,-0.9432415773850078,19.43312051022176,0.06445648512506821,-1.856486945580943e-05,6.294057889461762e-05,5.156518810005457e-07,6.294139446648162e-05,6.292826265521334e-05
48.0283121635,98.02831216350002,8,0,-1.052026799893968,19.66550589772591,-0.07310888586043568,-1.909889047784142e-05,6.377124031263807e-05,-5.848710868834855e-07,6.377227225842289e-05,6.377100092390808e-05
49.47168783650001,98.02831216350002,8,0,-0.9587233865041229,20.03871955128529,-0.0717209885710713,-1.909889047784142e-05,6.489088127331621e-05,-5.737679085685704e-07,6.489186117171704e-05,6.48904345200344e-05
48.0283121635,99.47168783650001,8,0,-1.048325740455355,19.66643116258556,0.06684623422435927,-1.908778729952558e-05,6.377124031263807e-05,5.347698737948742e-07,6.377210315114885e-05,6.37585553244274e-05
49.47168783650001,99.47168783650001,8,0,-0.955022327065465,20.03964481614512,0.06823413151380497,-1.908778729952558e-05,6.489088127331676e-05,5.458730521104398e-07,6.489176832667992e-05,6.487795169386485e-05
50.5283121635,98.02831216350002,8,0,-1.049927133363806,20.26857230296679,-0.06550866239564478,-1.957462466913761e-05,6.569937307618475e-05,-5.240692991651582e-07,6.570017826312418e-05,6.56989195595748e-05
51.97168783650001,98.02831216350002,8,0,-0.9591604898343595,20.63163887708458,-0.06412519995025194,-1.957462466913761e-05,6.678857279853812e-05,-5.130015996020155e-07,6.678933460544056e-05,6.678830816872614e-05
50.5283121635,99.47168783650001,8,0,-1.04623790017593,20.26949461126376,0.07064130289849857,-1.956355696957398e-05,6.569937307618475e-05,5.651304231879886e-07,6.570030949980838e-05,6.568645319971831e-05
51.97168783650001,99.47168783650001,8,0,-0.9554712566464829,20.63256118538154,0.07202476534395917,-1.956355696957398e-05,6.678857279853812e-05,5.761981227516734e-07,6.678953398091449e-05,6.677592402236235e-05
53.0283121635,98.02831216350002,8,0,-1.03649128462351,20.85805164100829,-0.05800549375981696,-2.000321342360186e-05,6.757495827892533e-05,-4.640439500785357e-07,6.757557297340919e-05,6.757497238747218e-05
54.4716878365,98.02831216350002,8,0,-0.9482208375826513,21.21113342917173,-0.0566435061470649,-2.000321342360186e-05,6.863420364341564e-05,-4.531480491765192e-07,6.863478280574784e-05,6.863479039252291e-05
53.0283121635,99.47168783650001,8,0,-1.032859317656478,20.85895963275005,0.07440017680144509,-1.999231752270077e-05,6.757495827892533e-05,5.952014144115607e-07,6.75759696745317e-05,6.756269210363573e-05
54.4716878365,99.47168783650001,8,0,-0.9445888706156094,21.21204142091352,0.07576216441414294,-1.999231752270077e-05,6.863420364341575e-05,6.060973153131435e-07,6.863523987290921e-05,6.862271165289543e-05
55.5283121635,98.02831216350002,8,0,-1.012018243140935,21.4342231227936,-0.05076372506740098,-2.038583687628587e-05,6.939912858745225e-05,-4.061098005392078e-07,6.939958780778415e-05,6.940026740674263e-05
56.97168783650001,98.02831216350002,8,0,-0.9261375392506572,21.77774593835471,-0.04943981631463327,-2.038583687628587e-05,7.04296970341356e-05,-3.955185305170661e-07,7.04301276712729e-05,7.043177149665519e-05
55.5283121635,99.47168783650001,8,0,-1.008487819800258,21.43510572862877,0.07805733076809811,-2.037524560626384e-05,6.939912858745225e-05,6.244586461447849e-07,6.940021448720799e-05,6.938837947616874e-05
56.97168783650001,99.47168783650001,8,0,-0.922607115909952,21.77862854418999,0.07938123952085227,-2.037524560626384e-05,7.042969703413592e-05,6.350499161668181e-07,7.043080733566032e-05,7.042020332190134e-05
58.0283121635,98.02831216350002,8,0,-0.9770329237128434,21.99773499946384,-0.04394330318610476,-2.072469335545217e-05,7.117437833725456e-05,-3.515464254888381e-07,7.117471453335232e-05,7.117726038157314e-05
59.47168783650001,98.02831216350002,8,0,-0.8933713646321362,22.33238123578667,-0.04267340057530276,-2.072469335545217e-05,7.217831704622304e-05,-3.413872046024221e-07,7.217863066585047e-05,7.218246980182089e-05
58.0283121635,99.47168783650001,8,0,-0.973646516750506,21.99858160120442,0.08154903543487442,-2.071453413456516e-05,7.117437833725456e-05,6.523922834789954e-07,7.117553628525046e-05,7.116596872658003e-05
59.47168783650001,99.47168783650001,8,0,-0.8899849576697987,22.33322783752725,0.08281893804583905,-2.071453413456516e-05,7.217831704622304e-05,6.625515043667124e-07,7.217949843130186e-05,7.217161385704343e-05
60.5283121635,98.02831216350002,8,0,-0.9322777646534739,22.54959422768912,-0.03769762388984881,-2.102296422904241e-05,7.290452374032795e-05,-3.015809911187904e-07,7.290476581765208e-05,7.290971693798731e-05
61.9716878365,98.02831216350002,8,0,-0.8506031916362087,22.87629251975818,-0.0364967512027104,-2.102296422904241e-05,7.388461861653514e-05,-2.919740096216832e-07,7.388484317346209e-05,7.389138364348962e-05
60.5283121635,99.47168783650001,8,0,-0.9290754374880246,22.55039480948048,0.08481423563607651,-2.101335724754606e-05,7.290452374032795e-05,6.785138850886122e-07,7.290574921273078e-05,7.289922109946439e-05
61.9716878365,99.47168783650001,8,0,-0.8474008644707229,22.87709310154969,0.08601510832317427,-2.101335724754606e-05,7.388461861653557e-05,6.881208665853941e-07,7.388586601959833e-05,7.388143592333464e-05
63.0283121635,98.02831216350002,8,0,-0.8787013891020363,23.09115139396075,-0.03217146807852136,-2.128476556029511e-05,7.459464557195601e-05,-2.573717446281709e-07,7.459481828916094e-05,7.460265725195893e-05
64.47168783650001,98.02831216350002,8,0,-0.7987234856997771,23.41106300756978,-0.03105353332292994,-2.128476556029511e-05,7.555438041278312e-05,-2.484282665834395e-07,7.555453974014364e-05,7.556422618296026e-05
63.0283121635,99.47168783650001,8,0,-0.8757202297536661,23.09189668379784,0.08779538702492111,-2.127582208225e-05,7.459464557195601e-05,7.023630961993689e-07,7.459593196210246e-05,7.459315009349256e-05
64.47168783650001,99.47168783650001,8,0,-0.7957423263513164,23.41180829740724,0.08891332178053964,-2.127582208225e-05,7.55543804127842e-05,7.113065742443171e-07,7.555568669482233e-05,7.555537454304316e-05
65.5283121635,98.02831216350002,8,0,-0.8174444645077132,23.62408106919742,-0.02749902773416593,-2.151508714178261e-05,7.62510149930379e-05,-2.199922218733275e-07,7.625113874890871e-05,7.626228365100398e-05
66.97168783650001,98.02831216350002,8,0,-0.7388189456063712,23.93858314480279,-0.02647662412867658,-2.151508714178261e-05,7.7194521219854e-05,-2.118129930294126e-07,7.719463484783085e-05,7.720784318938208e-05
65.5283121635,99.47168783650001,8,0,-0.81471805489302,23.62476267160109,0.09043925061792821,-2.150690791293854e-05,7.62510149930379e-05,7.235140049434256e-07,7.625235367058841e-05,7.625394875638284e-05
66.97168783650001,99.47168783650001,8,0,-0.7360925359916237,23.93926474720668,0.09146165422344466,-2.150690791293854e-05,7.719452121985465e-05,7.316932337875573e-07,7.71958772479229e-05,7.720026455061486e-05
68.0283121635,98.02831216350002,8,0,-0.7498228863007599,24.15035776465825,-0.0238020130983313,-2.171971944788903e-05,7.788100315594699e-05,-1.904161047866504e-07,7.788109416497505e-05,7.789589106792656e-05
69.47168783650001,98.02831216350002,8,0,-0.6721564445387207,24.4610235317064,-0.02288623039657114,-2.171971944788903e-05,7.881300045709146e-05,-1.830898431725691e-07,7.881308381767026e-05,7.883011329185187e-05
68.0283121635,99.47168783650001,8,0,-0.7473807990960486,24.15096828645942,0.09269764954483554,-2.171239318627489e-05,7.788100315594699e-05,7.415811963586844e-07,7.78823836065301e-05,7.788889979764243e-05
69.47168783650001,99.47168783650001,8,0,-0.6697143573339828,24.46163405350769,0.0936134322465686,-2.171239318627489e-05,7.881300045709178e-05,7.489074579725488e-07,7.881439526535446e-05,7.882397048625246e-05
70.5283121635,98.02831216350002,8,0,-0.6773083887618991,24.67222764352421,-0.02118782359240498,-2.190516895885744e-05,7.949297517028699e-05,-1.695025887392398e-07,7.949304600764738e-05,7.95117592923643e-05
71.97168783650001,98.02831216350002,8,0,-0.6001643751582293,24.98080369793889,-0.02038806525889907,-2.190516895885744e-05,8.041870333353103e-05,-1.631045220711926e-07,8.041876833074924e-05,8.043982857469424e-05
70.5283121635,99.47168783650001,8,0,-0.6751756998728036,24.67276081574649,0.09452819681312696,-2.189877089219016e-05,7.949297517028699e-05,7.562255745050157e-07,7.94943852189073e-05,7.950626747077255e-05
71.97168783650001,99.47168783650001,8,0,-0.5980316862691248,24.9813368701612,0.09532795514668709,-2.189877089219016e-05,8.041870333353113e-05,7.626236411734967e-07,8.042012436826913e-05,8.043526680980164e-05
73.0283121635,98.02831216350002,8,0,-0.6015066504934543,25.19217611038223,-0.01974775721704067,-2.207856216988484e-05,8.10961688736179e-05,-1.579820577363254e-07,8.109622934946234e-05,8.111902355079361e-05
74.47168783650001,98.02831216350002,8,0,-0.5244114744326627,25.5005568146254,-0.01907155773442967,-2.207856216988484e-05,8.20213109863474e-05,-1.525724618754373e-07,8.202136689021864e-05,8.204654945149155e-05
73.0283121635,99.47168783650001,8,0,-0.5997034518731761,25.1926269100373,0.09589500687414657,-2.2073152574024e-05,8.10961688736179e-05,7.671600549931726e-07,8.109759499139806e-05,8.111516776611671e-05
74.47168783650001,99.47168783650001,8,0,-0.522608275812348,25.50100761428061,0.09657120635678468,-2.2073152574024e-05,8.202131098634783e-05,7.725696508542775e-07,8.202274443349267e-05,8.204369238393399e-05
75.5283121635,98.02831216350002,8,0,-0.5241329165308377,25.71289135572335,-0.01955522755279159,-2.224753841747736e-05,8.270055867153937e-05,-1.564418204223327e-07,8.270061697185702e-05,8.272751407785587e-05
76.97168783650001,98.02831216350002,8,0,-0.4465831603460151,26.02309038046264,-0.0190080633744185,-2.224753841747736e-05,8.363115574575725e-05,-1.52064506995348e-07,8.36312103450384e-05,8.366041813462147e-05
75.5283121635,99.47168783650001,8,0,-0.5226738120551033,25.71325613184228,0.09676940672457808,-2.224316110405015e-05,8.270055867153937e-05,7.741552537966247e-07,8.270198636107876e-05,8.272540759259332e-05
76.97168783650001,99.47168783650001,8,0,-0.4451240558702265,26.02345515658179,0.09731657090301894,-2.224316110405015e-05,8.36311557457579e-05,7.785325672241515e-07,8.363258693507522e-05,8.365936356120491e-05
78.0283121635,98.02831216350002,8,0,-0.446985108149434,26.23722387870337,-0.02066395485156455,-2.242013144904088e-05,8.431670449837031e-05,-1.653116388125164e-07,8.431676850607977e-05,8.434754093431535e-05
79.47168783650001,98.02831216350002,8,0,-0.3684553623939806,26.55134286172518,-0.02024904237525344,-2.242013144904088e-05,8.525906144743575e-05,-1.619923390020275e-07,8.525912237263017e-05,8.529189127743215e-05
78.0283121635,99.47168783650001,8,0,-0.4458786748793075,26.23750048702103,0.09713066378156179,-2.241681214923061e-05,8.431670449837074e-05,7.770453102524943e-07,8.431811874816018e-05,8.434726922241606e-05
79.47168783650001,99.47168783650001,8,0,-0.3673489291238816,26.55161947004274,0.0975455762578458,-2.241681214923061e-05,8.525906144743586e-05,7.803646100627663e-07,8.52604753224947e-05,8.529270647112753e-05
80.5283121635,98.02831216350002,8,0,-0.3719143401111342,26.76814195449542,-0.02310609878918794,-2.260463945195196e-05,8.595558572647424e-05,-1.848487903135035e-07,8.595566441332861e-05,8.598956464391853e-05
81.97168783650001,98.02831216350002,8,0,-0.291865775939864,27.0883362111805,-0.02282417330514482,-2.260463945195196e-05,8.691616849652948e-05,-1.825933864411586e-07,8.691624460152321e-05,8.695129338521116e-05
80.5283121635,99.47168783650001,8,0,-0.3711625388202444,26.76832990481814,0.09696674746777126,-2.260238404807929e-05,8.595558572647424e-05,7.7573397974217e-07,8.59569715195369e-05,8.599118058806941e-05
81.97168783650001,99.47168783650001,8,0,-0.2911139746489289,27.0885241615034,0.09724867295186858,-2.260238404807929e-05,8.691616849653002e-05,7.779893836149486e-07,8.691755013423264e-05,8.695401011469609e-05
83.02831216350002,98.02831216350002,8,0,-0.300792719635818,27.3086829595273,-0.02689030576430874,-2.280948307045646e-05,8.762841964619602e-05,-2.151224461144699e-07,8.762852440557162e-05,8.766360440151181e-05
84.47168783650002,98.02831216350002,8,0,-0.2186824230805184,27.6371241457485,-0.02673937670454485,-2.280948307045646e-05,8.861374320485961e-05,-2.139150136363588e-07,8.861384587553345e-05,8.864794554762633e-05
83.02831216350002,99.47168783650001,8,0,-0.300390242143096,27.30878357890048,0.09627513906853169,-2.280827563797829e-05,8.762841964619602e-05,7.702011125482536e-07,8.762976250270578e-05,8.766712318579965e-05
84.47168783650002,99.47168783650001,8,0,-0.2182799455877964,27.63722476512168,0.09642606812830913,-2.280827563797829e-05,8.861374320485961e-05,7.714085450264731e-07,8.861507836288971e-05,8.86525548010522e-05
85.5283121635,98.02831216350002,8,0,-0.2354782685047478,27.8619004265849,-0.03199965349806827,-2.304305080048311e-05,8.934646397987548e-05,-2.559972279845462e-07,8.934660975525289e-05,8.937801398133124e-05
86.97168783650002,98.02831216350002,8,0,-0.1507693662939031,28.20073603542828,-0.0319747335168557,-2.304305080048311e-05,9.036297080640561e-05,-2.557978681348456e-07,9.03631150502147e-05,9.038825688918554e-05
85.5283121635,99.47168783650001,8,0,-0.2354118152215863,27.86191703990583,0.09506369981807615,-2.304285144063374e-05,8.934646397987592e-05,7.605095985446092e-07,8.93477505083744e-05,8.93834076698687e-05
86.97168783650002,99.47168783650001,8,0,-0.1507029130107416,28.20075264874921,0.09508861979924807,-2.304285144063374e-05,9.036297080640605e-05,7.607089583939845e-07,9.036424647197291e-05,9.039470322516518e-05
88.02831216350002,98.02831216350002,8,0,-0.1777767964011687,28.43080668048527,-0.03838949019510315,-2.331353109287195e-05,9.112080281467377e-05,-3.071159215608252e-07,9.112100887175519e-05,9.113670190772627e-05
89.47168783650001,98.02831216350002,8,0,-0.08994940275529739,28.78211625506875,-0.0384822986214796,-2.331353109287195e-05,9.217473153842423e-05,-3.078583889718368e-07,9.217493670347115e-05,9.217124881728403e-05
88.02831216350002,99.47168783650001,8,0,-0.178024285538263,28.43074480820099,0.09335160027369033,-2.331427356028323e-05,9.112080281467377e-05,7.468128021895226e-07,9.112202124227683e-05,9.11438935348761e-05
89.47168783650001,99.47168783650001,8,0,-0.09019689189238278,28.78205438278451,0.09325879184727323,-2.331427356028323e-05,9.217473153842433e-05,7.460703347781858e-07,9.21759364477937e-05,9.217942397033513e-05
90.52831216350002,98.02831216350002,8,0,-0.1294005667204257,29.01831091215974,-0.04598518450998467,-2.362873054323315e-05,9.29621153722875e-05,-3.678814760798774e-07,9.296240556754795e-05,9.293248923721337e-05
91.97168783650001,98.02831216350002,8,0,-0.03796357376086146,29.38405888399799,-0.04618382948403039,-2.362873054323315e-05,9.405935928780227e-05,-3.694706358722431e-07,9.405964926662388e-05,9.397768983176606e-05
90.52831216350002,99.47168783650001,8,0,-0.1299302866512502,29.01817848217703,0.09117030492930772,-2.363031970302563e-05,9.29621153722875e-05,7.293624394344618e-07,9.296325602168595e-05,9.294134577603113e-05
91.97168783650001,99.47168783650001,8,0,-0.03849329369168597,29.38392645401529,0.09097165995524846,-2.363031970302563e-05,9.405935928780227e-05,7.277732796419877e-07,9.406048438408883e-05,9.398742442521671e-05
93.02831216350002,98.02831216350002,8,0,-0.09192364194431057,29.62715259255554,-0.05467982556741854,-2.399587772826622e-05,9.488042720973318e-05,-4.374386045393483e-07,9.488082962778672e-05,9.473084164615435e-05
94.47168783650002,98.02831216350002,8,0,0.003572638369043091,30.00913771380896,-0.05496847358370119,-2.399587772826622e-05,9.602638257349343e-05,-4.397477886696095e-07,9.602678536850033e-05,9.574329007441061e-05
93.02831216350002,99.47168783650001,8,0,-0.09269336998765887,29.62696016054471,0.08856459490265292,-2.399818691239627e-05,9.488042720973318e-05,7.085167592212234e-07,9.488148289065601e-05,9.474116405561698e-05
94.47168783650002,99.47168783650001,8,0,0.0028029103257321,30.00894528179827,0.08827594688641094,-2.399818691239627e-05,9.602638257349386e-05,7.062075750912875e-07,9.602742137085189e-05,9.575434037245068e-05
95.5283121635,98.02831216350002,8,0,-0.06673387962803012,30.25983021474687,-0.06433193855585688,-2.442141258660719e-05,9.68848437908924e-05,-5.146555084468551e-07,9.688538965948235e-05,9.642957423140779e-05
96.97168783650002,98.02831216350002,8,0,0.03321647858866683,30.65963164761366,-0.06469048502482028,-2.442141258660719e-05,9.808424808949276e-05,-5.175238801985622e-07,9.808479465560685e-05,9.729208898857712e-05
95.5283121635,99.47168783650001,8,0,-0.06769000354537447,30.25959118376753,0.08559359876918844,-2.442428095835922e-05,9.68848437908924e-05,6.847487901535075e-07,9.688581007675868e-05,9.644107992305744e-05
96.97168783650002,99.47168783650001,8,0,0.03226035467133137,30.65939261663436,0.08523505230014372,-2.442428095835922e-05,9.808424808949287e-05,6.818804184011498e-07,9.80851969158879e-05,9.730411095012818e-05
98.02831216350002,98.02831216350002,8,0,-0.05498167595483672,30.91852548865148,-0.07476330989245202,-2.491076175397666e-05,9.89832669044486e-05,-5.981064791396162e-07,9.898398874972238e-05,9.775854047879603e-05
99.47168783650002,98.02831216350002,8,0,0.04974838912199964,31.33744574895883,-0.07516706946610573,-2.491076175397666e-05,0.0001002400276853706,-6.013365557288458e-07,0.0001002407500211381,9.817039489222511e-05
98.02831216350002,99.47168783650001,8,0,-0.05605836815111154,30.91825631560241,0.08233178772299116,-2.491399183056548e-05,9.89832669044486e-05,6.586543017839293e-07,9.898414227172592e-05,9.777082662534637e-05
99.47168783650002,99.47168783650001,8,0,0.04867169692576923,31.33717657590994,0.08192802814936456,-2.491399183056548e-05,0.0001002400276853712,6.554242251949165e-07,0.000100240885783999,9.818288653571473e-05
