xcoord,ycoord,g,damage,sigma_xx,sigma_yy,tau_xy,e_xx,e_yy,e_xy,elocal,enonlocal_true,
0.2641560817500012,49.01415608175001,2,0,-0.03080820805393758,12.13973803601602,-0.04329140186616458,-9.810376694585412e-06,3.88718082816944e-05,-3.463312149293166e-07,4.655842337061397e-05,4.719080080197923e-05
0.9858439182500045,49.01415608175001,2,0,0.004325688485191215,12.28027362217253,-0.04524705384583642,-9.810376694585412e-06,3.929341504016394e-05,-3.619764307666914e-07,4.720479506254258e-05,4.740173261771883e-05
0.2641560817500003,49.73584391825,2,0,-0.03602327999984212,12.13843426802927,0.009409442942528729,-9.826021910422909e-06,3.887180828169353e-05,7.527554354022983e-08,4.653752561377356e-05,4.726215609869099e-05
0.9858439182500013,49.73584391825,2,0,-0.0008893834605685491,12.27896985418636,0.007453790962870434,-9.826021910422909e-06,3.929341504016481e-05,5.963032770296348e-08,4.718386544217235e-05,4.74706778383442e-05
0.264156081750001,47.76415608175001,2,0,-0.02668552008879477,12.06831189234126,-0.07872226849904605,-9.740043178157147e-06,3.863994647156305e-05,-6.297781479923685e-07,4.629670187437792e-05,4.687024073424824e-05
0.9858439182500038,47.76415608175001,2,0,0.009934005329798712,12.21478999401563,-0.08463421656799704,-9.740043178157147e-06,3.907938077658618e-05,-6.770737325439763e-07,4.697047262599069e-05,4.709213478447307e-05
0.2641560817500014,48.48584391825001,2,0,-0.04245071493952013,12.06437059362844,-0.02379298037101995,-9.787338762709216e-06,3.863994647156262e-05,-1.903438429681596e-07,4.623351232525886e-05,4.708578739657871e-05
0.9858439182500052,48.48584391825001,2,0,-0.005831189520863589,12.21084869530307,-0.02970492843997093,-9.787338762709216e-06,3.90793807765865e-05,-2.376394275197674e-07,4.690718238468787e-05,4.73003023121368e-05
1.514156081750005,47.76415608175001,2,0,-0.1104029456733753,12.3168051884981,-0.1940206668981704,-1.020673357695328e-05,3.950209895973262e-05,-1.552165335185363e-06,4.700091427323218e-05,4.737097133717024e-05
2.235843918250007,47.76415608175001,2,0,-0.05078184161810029,12.5552896047192,-0.1984188540929708,-1.020673357695328e-05,4.021755220839592e-05,-1.587350832743767e-06,4.809739720332074e-05,4.791087291595381e-05
1.514156081750007,48.48584391825001,2,0,-0.1221314448592885,12.31387306370162,-0.1045890108153391,-1.024191907451102e-05,3.950209895973262e-05,-8.367120865227125e-07,4.695251227824719e-05,4.757032292659574e-05
2.235843918250007,48.48584391825001,2,0,-0.06251034080404061,12.55235747992262,-0.1089871980099904,-1.024191907451102e-05,4.02175522083956e-05,-8.718975840799233e-07,4.804890633166073e-05,4.809351804886179e-05
1.514156081750006,49.01415608175001,2,0,-0.1112824661715326,12.37871734711345,-0.09262081912268424,-1.025907776943966e-05,3.970092148370026e-05,-7.40966552981474e-07,4.723424141129212e-05,4.766747184552576e-05
2.235843918250007,49.01415608175001,2,0,-0.05363900369428132,12.60929119702245,-0.09408243522027387,-1.025907776943966e-05,4.039264303342728e-05,-7.52659481762191e-07,4.829429462637226e-05,4.818255310174969e-05
1.514156081750003,49.73584391825,2,0,-0.1151801090985738,12.37774293638142,-0.00615562540664475,-1.027077069822057e-05,3.970092148369939e-05,-4.9245003253158e-08,4.721817967446059e-05,4.773353603852876e-05
2.235843918250006,49.73584391825,2,0,-0.05753664662125901,12.60831678629068,-0.007617241504275039,-1.027077069822057e-05,4.039264303342717e-05,-6.093793203420031e-08,4.827820395802268e-05,4.82431562569964e-05
0.2641560817500002,46.51415608175,2,0,-0.02361057109477382,11.92228369564225,-0.1166762238657997,-9.613380784017074e-06,3.817019628293101e-05,-9.334097909263978e-07,4.574534677461382e-05,4.629379309445805e-05
0.9858439182500007,46.51415608175,2,0,0.01607471969861241,12.08102485881579,-0.1266825356450866,-9.613380784017074e-06,3.864641977245164e-05,-1.013460285160693e-06,4.647563132882752e-05,4.653589401960191e-05
0.2641560817500007,47.23584391825001,2,0,-0.05029406917275914,11.91561282112289,-0.05714828767573428,-9.693431278251139e-06,3.817019628293145e-05,-4.571863014058743e-07,4.563833971463762e-05,4.665802650059157e-05
0.9858439182500027,47.23584391825001,2,0,-0.01060877837949059,12.07435398429596,-0.0671545994550076,-9.693431278251139e-06,3.864641977245067e-05,-5.372367956400607e-07,4.636843847885742e-05,4.688731219980708e-05
0.2641560817500012,45.26415608175001,2,0,-0.02161593091154446,11.69772991308293,-0.1583143650882356,-9.427354909383284e-06,3.74500284665946e-05,-1.266514920705885e-06,4.488926513614519e-05,4.54493568153021e-05
0.9858439182500045,45.26415608175001,2,0,0.02291871369289256,11.87586849150068,-0.1726557308973672,-9.427354909383284e-06,3.798444420184785e-05,-1.381245847178938e-06,4.570893530790975e-05,4.572224121320842e-05
0.2641560817500003,45.98584391825,2,0,-0.05985957306921552,11.68816900254338,-0.09151239818163369,-9.542085835856189e-06,3.745002846659417e-05,-7.320991854530695e-07,4.473577037090173e-05,4.596993102837884e-05
0.9858439182500013,45.98584391825,2,0,-0.01532492846479627,11.86630758096105,-0.1058537639907924,-9.542085835856189e-06,3.79844442018472e-05,-8.468301119263395e-07,4.555513905638226e-05,4.622371418962758e-05
1.514156081750007,45.26415608175001,2,0,-0.1186083370582103,11.99788089596144,-0.4148017306922647,-9.977851395355424e-06,3.848810553672317e-05,-3.318413845538118e-06,4.57598703673134e-05,4.606185611388802e-05
2.23584391825001,45.26415608175001,2,0,-0.04847395193353687,12.27841843646013,-0.4252170650060624,-9.977851395355424e-06,3.932971815821926e-05,-3.401736520048499e-06,4.704986786304969e-05,4.671681687968526e-05
1.514156081750003,45.98584391825,2,0,-0.1463825618950896,11.99093733975208,-0.3096001530052952,-1.006117406986595e-05,3.848810553672274e-05,-2.476801224042362e-06,4.564432104140234e-05,4.654058677937311e-05
2.235843918250007,45.98584391825,2,0,-0.07624817677038909,12.27147488025089,-0.3200154873191064,-1.006117406986595e-05,3.932971815821915e-05,-2.560123898552851e-06,4.693409000054301e-05,4.715251563287188e-05
1.514156081750002,46.51415608175,2,0,-0.112712587695142,12.190732136319,-0.3004897198171958,-1.011326598967965e-05,3.91005129063769e-05,-2.403917758537566e-06,4.651304330637186e-05,4.683884542446402e-05
2.235843918250006,46.51415608175,2,0,-0.04901408571311316,12.44552614424711,-0.3078641069535212,-1.011326598967965e-05,3.986489493016125e-05,-2.462912855628169e-06,4.768459557709608e-05,4.742442312966303e-05
1.514156081750004,47.23584391825001,2,0,-0.1323776200586315,12.18581587822799,-0.2049419668442203,-1.017226108677001e-05,3.910051290637647e-05,-1.639535734753762e-06,4.643163962176949e-05,4.717497253119862e-05
2.235843918250006,47.23584391825001,2,0,-0.06867911807655736,12.44060988615629,-0.2123163539805321,-1.017226108677001e-05,3.986489493016136e-05,-1.698530831844257e-06,4.760303720704887e-05,4.773158947270032e-05
0.264156081750001,44.01415608175001,2,0,-0.02082412404154121,11.3883597874544,-0.2050901797028866,-9.177325026896453e-06,3.645941061908731e-05,-1.640721437623093e-06,4.37040563041368e-05,4.431911584306553e-05
0.9858439182500038,44.01415608175001,2,0,0.03068789351270773,11.5944078576714,-0.2241267444902861,-9.177325026896453e-06,3.70775548297383e-05,-1.793013955922289e-06,4.465234207040998e-05,4.463552130854884e-05
0.2641560817500014,44.73584391825,2,0,-0.07158829680769641,11.375668744263,-0.1278221533714181,-9.329617545195026e-06,3.645941061908775e-05,-1.022577226971345e-06,4.350005192243405e-05,4.500702221955813e-05
0.9858439182500052,44.73584391825,2,0,-0.02007627925348343,11.58171681447985,-0.1468587181587769,-9.329617545195026e-06,3.70775548297383e-05,-1.174869745270216e-06,4.444786933145226e-05,4.529668621331175e-05
0.2641560817500002,42.76415608175,2,0,-0.02147318473042192,10.98500291080301,-0.2588895200150834,-8.856716519779759e-06,3.516918786235397e-05,-2.071116160120667e-06,4.215401054307683e-05,4.287936926424689e-05
0.9858439182500007,42.76415608175,2,0,0.03968631103050813,11.22964089384673,-0.283126402422665,-8.856716519779759e-06,3.590310181148513e-05,-2.265011219381319e-06,4.328014677014964e-05,4.325534233292963e-05
0.2641560817500007,43.48584391825001,2,0,-0.08610487115068022,10.96884498919795,-0.1671502763735664,-9.050611579040533e-06,3.516918786235397e-05,-1.337202210988531e-06,4.1893796549816e-05,4.374901295193394e-05
0.9858439182500027,43.48584391825001,2,0,-0.02494537538976838,11.21348297224159,-0.1913871587811344,-9.050611579040533e-06,3.590310181148491e-05,-1.531097270249075e-06,4.301921471786499e-05,4.408854486434326e-05
1.514156081750002,42.76415608175,2,0,-0.1441009723026756,11.39392470954218,-0.6808186187833563,-9.576262879002303e-06,3.65758398483771e-05,-5.44654895026685e-06,4.338385475830975e-05,4.371701935859257e-05
2.235843918250004,42.76415608175,2,0,-0.05209759330971409,11.76193822551402,-0.6976021764640988,-9.576262879002303e-06,3.767988039629264e-05,-5.580817411712791e-06,4.507593763413757e-05,4.460237138076191e-05
1.514156081750004,43.48584391825001,2,0,-0.1888571261177816,11.38273567108854,-0.5428135502938327,-9.710531340447728e-06,3.657583984837754e-05,-4.342508402350662e-06,4.319414786354407e-05,4.450719458289247e-05
2.235843918250006,43.48584391825001,2,0,-0.09685374712484718,11.75074918706027,-0.559597107974521,-9.710531340447728e-06,3.767988039629275e-05,-4.476776863796168e-06,4.488585214152208e-05,4.531143497218262e-05
1.514156081750005,44.01415608175001,2,0,-0.1287490566749909,11.73417583573179,-0.5402428269894375,-9.799337649945403e-06,3.765236191968172e-05,-4.3219426159155e-06,4.472459760284038e-05,4.502680721505061e-05
2.235843918250008,44.01415608175001,2,0,-0.04939422636788526,12.05159515696021,-0.5537871880076286,-9.799337649945403e-06,3.860461988336699e-05,-4.430297504061029e-06,4.618419960381246e-05,4.57794147264612e-05
1.514156081750007,44.73584391825,2,0,-0.1648673527235682,11.72514626171924,-0.4212105815286295,-9.90769253809081e-06,3.765236191968042e-05,-3.369684652229036e-06,4.457319356798535e-05,4.565624010212168e-05
2.23584391825001,44.73584391825,2,0,-0.08551252241630891,12.04256558294828,-0.4347549425467935,-9.90769253809081e-06,3.860461988336754e-05,-3.478039540374348e-06,4.603248754033462e-05,4.634889560069754e-05
0.26415608175,41.51415608175001,2,0,-0.02395712450529919,10.47485986855336,-0.3222160476232472,-8.456550693259645e-06,3.353871727897499e-05,-2.577728380985978e-06,4.018919660842087e-05,4.110094834129112e-05
0.9858439182500001,41.51415608175001,2,0,0.05035335303118504,10.7721017786993,-0.3523395091138828,-8.456550693259645e-06,3.44304430094128e-05,-2.818716072911062e-06,4.155779533566425e-05,4.155749936590505e-05
0.26415608175,42.23584391825,2,0,-0.1042863551470168,10.45477756089293,-0.2107503313186158,-8.697538385184797e-06,3.353871727897499e-05,-1.686002650548926e-06,3.986490215951563e-05,4.216982249034179e-05
0.9858439182500001,42.23584391825,2,0,-0.02997587761053255,10.75201947103887,-0.2408737928092514,-8.697538385184797e-06,3.44304430094128e-05,-1.926990342474011e-06,4.123239983174057e-05,4.257715073563779e-05
0.26415608175,40.26415608175,2,0,-0.02887872705926364,9.840483365458869,-0.3984236795456488,-7.964798618956739e-06,3.151264975111579e-05,-3.18738943636519e-06,3.774157213486428e-05,3.89511809936895e-05
0.9858439182500001,40.26415608175,2,0,0.06336078535358114,10.20944141511025,-0.4353505602564607,-7.964798618956739e-06,3.261952390006993e-05,-3.482804482051686e-06,3.944074776590951e-05,3.951672005356465e-05
0.26415608175,40.98584391825,2,0,-0.1273504089545954,9.815865444985038,-0.2600644109263818,-8.260213664642733e-06,3.151264975111579e-05,-2.080515287411055e-06,3.734240873011817e-05,4.023851595156468e-05
0.9858439182500001,40.98584391825,2,0,-0.03511089654175059,10.18482349463642,-0.2969912916370989,-8.260213664642733e-06,3.261952390006993e-05,-2.375930333096792e-06,3.903988646390062e-05,4.073745943617765e-05
1.514156081750001,40.26415608175,2,0,-0.1959276672567714,10.45200325752563,-1.028187247961132,-8.988571141242173e-06,3.360315255788743e-05,-8.225497983689058e-06,3.965838075180585e-05,4.019973801643156e-05
2.235843918250004,40.26415608175,2,0,-0.06422355724878592,10.97881969755757,-1.051907196484222,-8.988571141242173e-06,3.518360187798326e-05,-8.415257571873776e-06,4.207844168722336e-05,4.150023873367034e-05
1.514156081750001,40.98584391825,2,0,-0.259180863318583,10.43618995850977,-0.8306310829490861,-9.178330729427283e-06,3.360315255788613e-05,-6.645048663592688e-06,3.937937004261449e-05,4.134314696853498e-05
2.235843918250004,40.98584391825,2,0,-0.1274767533104892,10.96300639854215,-0.8543510314722299,-9.178330729427283e-06,3.518360187798326e-05,-6.834808251777839e-06,4.179920098159276e-05,4.249897259590363e-05
1.514156081750001,41.51415608175001,2,0,-0.165967373180449,10.9696515827742,-0.8414646405372688,-9.306816860396797e-06,3.52356589634218e-05,-6.73171712429815e-06,4.170735023077576e-05,4.211375869867171e-05
2.235843918250004,41.51415608175001,2,0,-0.05695360925755022,11.4057066384658,-0.8616235217506198,-9.306816860396797e-06,3.654382413049659e-05,-6.892988174004959e-06,4.371170009442659e-05,4.317693643342529e-05
1.514156081750001,42.23584391825,2,0,-0.2197243897492092,10.95621232863228,-0.6779439946528804,-9.468087910103294e-06,3.523565896342267e-05,-5.423551957223043e-06,4.147577213454748e-05,4.307570014629992e-05
2.235843918250004,42.23584391825,2,0,-0.1107106258263828,11.39226738432359,-0.6981028758662314,-9.468087910103294e-06,3.654382413049659e-05,-5.584823006929852e-06,4.347972763326356e-05,4.403043422107428e-05
0.26415608175,39.01415608175,2,0,-0.03709304107787537,9.058524925475895,-0.4919569130366219,-7.365517671829917e-06,2.901695419438516e-05,-3.935655304292975e-06,3.472044064515135e-05,3.639930222505384e-05
0.9858439182500001,39.01415608175,2,0,0.07980012532066016,9.526097591070037,-0.5369003978352122,-7.365517671829917e-06,3.041967219116759e-05,-4.295203182681697e-06,3.687414777954119e-05,3.711322978209734e-05
0.26415608175,39.73584391825,2,0,-0.1569423338741074,9.028562602276837,-0.3166171634387777,-7.725065550218612e-06,2.901695419438516e-05,-2.532937307510221e-06,3.423152560473669e-05,3.792246677613246e-05
0.9858439182500001,39.73584391825,2,0,-0.04004916747557186,9.496135267870979,-0.3615606482373543,-7.725065550218612e-06,3.041967219116759e-05,-2.892485185898835e-06,3.638260378696522e-05,3.854561064459913e-05
0.26415608175,37.76415608175,2,0,-0.04962327745227224,8.098541730740664,-0.6084095431924277,-6.637627872439802e-06,2.595503216033194e-05,-4.867276345539421e-06,3.100906207954069e-05,3.34288244574604e-05
0.9858439182500001,37.76415608175,2,0,0.1015901623052966,8.703395489770939,-0.6629735121698181,-6.637627872439802e-06,2.776959343742276e-05,-5.303788097358545e-06,3.379521756743236e-05,3.434666691806211e-05
0.26415608175,38.48584391825,2,0,-0.1951271947253272,8.0621657514224,-0.3815893835561017,-7.074139624258966e-06,2.595503216033194e-05,-3.052715068448814e-06,3.04093166057924e-05,3.519523439472881e-05
0.9858439182500001,38.48584391825,2,0,-0.0439137549677584,8.667019510452675,-0.4361533525334516,-7.074139624258966e-06,2.776959343742276e-05,-3.489226820267612e-06,3.319144786166189e-05,3.598812620154303e-05
1.514156081750001,37.76415608175,2,0,-0.2848099539280682,9.091385825502268,-1.507630390299949,-8.184500512971633e-06,2.932028260474971e-05,-1.206104312239959e-05,3.428751881634304e-05,3.543119417757568e-05
2.235843918250004,37.76415608175,2,0,-0.08297659434700666,9.898719263826514,-1.539851916030179,-8.184500512971633e-06,3.174228291972245e-05,-1.231881532824143e-05,3.798429523660881e-05,3.747633529228448e-05
1.514156081750001,38.48584391825,2,0,-0.3707340225421549,9.069904808348612,-1.20488035092837,-8.442272718813784e-06,2.932028260474928e-05,-9.639042807426963e-06,3.387574134065343e-05,3.693146028327241e-05
2.235843918250004,38.48584391825,2,0,-0.1689006629610574,9.877238246673002,-1.2371018766586,-8.442272718813784e-06,3.174228291972245e-05,-9.896815013268803e-06,3.757494187871314e-05,3.871580511636375e-05
1.514156081750001,39.01415608175,2,0,-0.2354760767321458,9.82991273105754,-1.247927538838145,-8.617453630388897e-06,3.164410160076984e-05,-9.983420310705161e-06,3.719675979459943e-05,3.796677516506346e-05
2.235843918250004,39.01415608175,2,0,-0.07360229667584672,10.47740785128274,-1.27553140697782,-8.617453630388897e-06,3.358658696144543e-05,-1.020425125582256e-05,4.016776448086889e-05,3.958477696094837e-05
1.514156081750001,39.73584391825,2,0,-0.3090863917713094,9.81151015229775,-1.00511686875371,-8.838284575506388e-06,3.164410160076984e-05,-8.04093495002968e-06,3.686069192925784e-05,3.929504191837231e-05
2.235843918250004,39.73584391825,2,0,-0.1472126117150734,10.45900527252269,-1.032720736893439,-8.838284575506388e-06,3.358658696144467e-05,-8.261765895147509e-06,3.983213568896439e-05,4.071938236672207e-05
0.2641560817500012,36.51415608175,2,0,-0.06722959429161057,6.92294319383295,-0.7537895660779896,-5.753489256799514e-06,2.220720189569873e-05,-6.030316528623917e-06,2.646812363213246e-05,3.006269819279461e-05
0.9858439182500045,36.51415608175,2,0,0.1322428596240492,7.720833009495589,-0.820073493103783,-5.753489256799514e-06,2.460087134268664e-05,-6.560587944830264e-06,3.014214699174527e-05,3.126286218643258e-05
0.2641560817500003,37.23584391825,2,0,-0.2439867330272403,6.878753909148771,-0.454580885204405,-6.283760673006186e-06,2.220720189569786e-05,-3.63664708163524e-06,2.572642312232969e-05,3.205356552707143e-05
0.9858439182500013,37.23584391825,2,0,-0.04451427911155337,7.676643724811519,-0.5208648122301848,-6.283760673006186e-06,2.46008713426861e-05,-4.166918497841478e-06,2.939471694527334e-05,3.308053624122883e-05
0.264156081750001,35.26415608175,2,0,-0.08846717748296795,5.491326423480419,-0.9312204229993873,-4.676156106729832e-06,1.764301829712371e-05,-7.449763383995099e-06,2.096496301926877e-05,2.64098184618644e-05
0.9858439182500038,35.26415608175,2,0,0.1787890973636659,6.560351522866954,-1.012042523599479,-4.676156106729832e-06,2.085009359528332e-05,-8.096340188795833e-06,2.587966687471486e-05,2.799954154422513e-05
0.2641560817500014,35.98584391825,2,0,-0.3039927790831538,5.437445023080643,-0.5303360107294366,-5.322732911530606e-06,1.764301829712458e-05,-4.242688085835493e-06,2.003023943326769e-05,2.855046072443393e-05
0.9858439182500052,35.98584391825,2,0,-0.03673650423659236,6.506470122466889,-0.6111581113295013,-5.322732911530606e-06,2.085009359528332e-05,-4.88926489063601e-06,2.49393999484831e-05,2.9901413760666e-05
1.514156081750005,35.26415608175,2,0,-0.3811698040672642,7.227109434184526,-2.151911542794561,-7.001430920362865e-06,2.343168603264429e-05,-1.721529234235649e-05,2.71621644598008e-05,2.98295738703034e-05
2.235843918250007,35.26415608175,2,0,-0.06067260361346261,8.509098235999733,-2.202350202034761,-7.001430920362865e-06,2.727765243808991e-05,-1.761880161627808e-05,3.297693820075177e-05,3.323959208249451e-05
1.514156081750007,35.98584391825,2,0,-0.5156728953743264,7.193483661357896,-1.671165742113899,-7.404940194284161e-06,2.343168603264473e-05,-1.33693259369112e-05,2.643452705169223e-05,3.146791519435867e-05
2.235843918250007,35.98584391825,2,0,-0.1951756949205969,8.475472463172814,-1.721604401354099,-7.404940194284161e-06,2.727765243808948e-05,-1.377283521083279e-05,3.226920985037327e-05,3.439672366528645e-05
1.514156081750006,36.51415608175,2,0,-0.3392995574808646,8.225583042760439,-1.811247129291274,-7.666225018147118e-06,2.659330538281809e-05,-1.448997703433019e-05,3.092233049855109e-05,3.266235700712263e-05
2.235843918250007,36.51415608175,2,0,-0.08515275901312691,9.24217023663139,-1.850038896809917,-7.666225018147118e-06,2.964306696443095e-05,-1.480031117447934e-05,3.556065328351569e-05,3.528568396870193e-05
1.514156081750002,37.23584391825,2,0,-0.4427442708640177,8.199721864414515,-1.430026931589627,-7.976559158296467e-06,2.659330538281766e-05,-1.144021545271701e-05,3.039517512513577e-05,3.42872914023619e-05
2.235843918250005,37.23584391825,2,0,-0.1885974723962525,9.216309058285576,-1.468818699108256,-7.976559158296467e-06,2.964306696443084e-05,-1.175054959286605e-05,3.504112743719705e-05,3.655723710085619e-05
0.2641560817500002,34.01415608175,2,0,-0.1037943695133288,3.778571758412464,-1.129573099763279,-3.354999389172623e-06,1.217446512253055e-05,-9.036584798106234e-06,1.448334920183034e-05,2.273995828949772e-05
0.9858439182500007,34.01415608175,2,0,0.2553915698078724,5.215315515697269,-1.22881111343054,-3.354999389172623e-06,1.648469639438496e-05,-9.83048890744432e-06,2.104976502e-05,2.485254799369317e-05
0.2641560817500007,34.73584391825,2,0,-0.3684290726260557,3.712413082634283,-0.5907941907813555,-4.148903498510804e-06,1.217446512253055e-05,-4.726353526250844e-06,1.325726218405231e-05,2.485289902685262e-05
0.9858439182500027,34.73584391825,2,0,-0.009243133304827511,5.149156839919195,-0.690032204448657,-4.148903498510804e-06,1.648469639438529e-05,-5.520257635589255e-06,1.983485475398365e-05,2.664670203931373e-05
0.2641560817500012,32.76415608175,2,0,-0.08460338853185084,1.828409143052962,-1.293769021726442,-1.733458157744292e-06,5.918591968594959e-06,-1.035015217381154e-05,7.473095461323121e-06,1.961069334557112e-05
0.9858439182500045,32.76415608175,2,0,0.3853196100397139,3.708101137339221,-1.415559597105009,-1.733458157744292e-06,1.155766795145374e-05,-1.132447677684007e-05,1.584433493860948e-05,2.231948699416297e-05
0.2641560817500003,33.48584391825,2,0,-0.4093782562081189,1.747215426133624,-0.5888845238691222,-2.707782760772879e-06,5.918591968594091e-06,-4.711076190952977e-06,5.726193440591843e-06,2.133531351068422e-05
0.9858439182500013,33.48584391825,2,0,0.06054474236344587,3.626907420419883,-0.7106750992476752,-2.707782760772879e-06,1.155766795145287e-05,-5.685400793981402e-06,1.423331752281409e-05,2.369307421690531e-05
1.514156081750007,32.76415608175,2,0,-0.151313140252368,4.873288347906055,-2.746420116862784,-4.38283272713242e-06,1.571557322550127e-05,-2.197136093490227e-05,1.948382270415251e-05,2.54846502565675e-05
2.23584391825001,32.76415608175,2,0,0.3253978996960829,6.780132507699858,-2.876959140331981,-4.38283272713242e-06,2.143610570488268e-05,-2.301567312265585e-05,2.798671916578901e-05,3.142324345548295e-05
1.514156081750003,33.48584391825,2,0,-0.49941720283689,4.786262332259924,-2.031353556940013,-5.427144914885986e-06,1.571557322550127e-05,-1.62508284555201e-05,1.763681985193182e-05,2.640298888851719e-05
2.235843918250007,33.48584391825,2,0,-0.02270616288846616,6.693106492053619,-2.161892580409251,-5.427144914885986e-06,2.143610570488235e-05,-1.729514064327401e-05,2.621149464195697e-05,3.144885274963084e-05
1.514156081750002,34.01415608175,2,0,-0.3587750194710571,6.102507551473514,-2.495434380433257,-6.030086103486193e-06,1.981504418029209e-05,-1.996347504346606e-05,2.321257079382677e-05,2.726548688431532e-05
2.235843918250006,34.01415608175,2,0,0.04026232107072847,7.698656913640656,-2.570803602126775,-6.030086103486193e-06,2.460349226679351e-05,-2.05664288170142e-05,3.039037259286879e-05,3.174516882513873e-05
1.514156081750004,34.73584391825,2,0,-0.5597596106537848,6.052261403677832,-1.896878369620511,-6.633039877034376e-06,1.981504418029209e-05,-1.517502695696409e-05,2.210068727495302e-05,2.870353659841264e-05
2.235843918250006,34.73584391825,2,0,-0.1607222701119633,7.648410765845118,-1.972247591314029,-6.633039877034376e-06,2.460349226679395e-05,-1.577798073051223e-05,2.932220493238586e-05,3.25291101044122e-05
0.264156081750001,31.51415608175,2,0,0.05322572608781288,-0.112413651798346,-1.254412778789528,2.60253244919678e-07,-4.023042666249574e-07,-1.003530223031622e-05,2.191238471905905e-06,1.766279745475035e-05
0.9858439182500038,31.51415608175,2,0,0.608824712451859,2.109982293657839,-1.404216347771623,2.60253244919678e-07,6.264883569743595e-06,-1.123373078217298e-05,1.065056159194354e-05,2.088004185868987e-05
0.2641560817500014,32.23584391825,2,0,-0.3462504578645081,-0.2122826977864262,-0.4210142992434993,-9.381753069372849e-07,-4.023042666249574e-07,-3.368114393947994e-06,2.782869660088579e-07,1.862664563422394e-05
0.9858439182500052,32.23584391825,2,0,0.2093485284994837,2.010113247669541,-0.5708178682256484,-9.381753069372849e-07,6.264883569742944e-06,-4.566542945805187e-06,8.494066020848365e-06,2.156573724551998e-05
0.2641560817500002,30.26415608175,2,0,0.1979220383013305,-1.430413450906402,-0.7356557313710699,1.777681283289379e-06,-4.735660673541552e-06,-5.885245850968559e-06,7.960035956179242e-07,1.676868665687518e-05
0.9858439182500007,30.26415608175,2,0,0.6941776753305656,0.5546090972105381,-0.8343702886563851,1.777681283289379e-06,1.219406970809269e-06,-6.674962309251081e-06,4.994715623445981e-06,2.035404257652191e-05
0.2641560817500007,30.98584391825,2,0,-0.06531678112620831,-1.496223155763558,0.00872772417282331,9.879648250069799e-07,-4.735660673542419e-06,6.982179338258648e-08,3.278254147705816e-07,1.716495884721509e-05
0.9858439182500027,30.98584391825,2,0,0.4309388559031894,0.4887993923540328,-0.08998683311245122,9.879648250069799e-07,1.219406970810353e-06,-7.198946648996098e-07,3.345247903637658e-06,2.055536925066885e-05
1.514156081750002,30.26415608175,2,0,1.514335660672759,2.07940746482636,-2.096966538183,3.18234814229174e-06,5.442635358906146e-06,-1.6775732305464e-05,1.408843878932054e-05,2.564953928485873e-05
2.235843918250004,30.26415608175,2,0,1.979586234371461,3.940409759621168,-2.45786814403937,3.18234814229174e-06,1.102564224329057e-05,-1.966294515231496e-05,2.250487919839726e-05,3.6531749424317e-05
1.514156081750004,30.98584391825,2,0,0.5519313783889298,1.838806394255268,-1.399090677634961,2.951352954403612e-07,5.442635358905712e-06,-1.119272542107969e-05,9.49901377997803e-06,2.512393549474492e-05
2.235843918250006,30.98584391825,2,0,1.017181952087677,3.699808689050257,-1.759992283491317,2.951352954403612e-07,1.102564224329068e-05,-1.407993826793054e-05,1.801095422769363e-05,3.421508018838175e-05
1.514156081750005,31.51415608175,2,0,0.4348777800795146,3.547166614791471,-2.720323787295425,-1.44612439557873e-06,1.10030309432691e-05,-2.17625902983634e-05,1.642514901285333e-05,2.49774010080019e-05
2.235843918250008,31.51415608175,2,0,0.958017073613203,5.639723788926225,-2.954073424593797,-1.44612439557873e-06,1.728070246567336e-05,-2.363258739675037e-05,2.575919844170304e-05,3.295434997731594e-05
1.514156081750007,32.23584391825,2,0,-0.1884545860493915,3.391333523259245,-1.935614846994879,-3.316121493965448e-06,1.10030309432691e-05,-1.548491877595903e-05,1.334351391326989e-05,2.510266513525572e-05
2.23584391825001,32.23584391825,2,0,0.334684707484306,5.483890697394035,-2.169364484293224,-3.316121493965448e-06,1.728070246567346e-05,-1.735491587434579e-05,2.275599152039899e-05,3.182664022183592e-05
0.26415608175,29.01415608175,2,0,-0.001828445340183116,-1.472543142517741,0.08437193550640874,1.172183488925607e-06,-4.710675299784625e-06,6.7497548405127e-07,3.605371532854545e-07,1.630561673233882e-05
0.9858439182500001,29.01415608175,2,0,0.2971885025686599,-0.2764753508823693,0.166229315080147,1.172183488925607e-06,-1.12247192487851e-06,1.329834520641176e-06,6.43736505617418e-07,1.997629356697464e-05
0.26415608175,29.73584391825,2,0,0.2164579001898105,-1.417971556135243,0.5328973573696461,1.827042525515588e-06,-4.710675299784625e-06,4.263178858957169e-06,6.647299883408258e-07,1.65384266311792e-05
0.9858439182500001,29.73584391825,2,0,0.5154748480986535,-0.2219037644998709,0.6147547369433708,1.827042525515588e-06,-1.12247192487851e-06,4.918037895546967e-06,1.942895661652868e-06,2.019887971472438e-05
0.26415608175,27.76415608175,2,0,-0.5868470563838855,-0.5920063507123161,0.3164901685237596,-1.404305499858581e-06,-1.424942677172303e-06,2.531921348190077e-06,1.086456765262203e-07,1.608607384473926e-05
0.9858439182500001,27.76415608175,2,0,-0.5031127492928447,-0.2570691223481527,0.5303216553922594,-1.404305499858581e-06,-4.201309920798127e-07,4.242573243138075e-06,3.398979922415762e-07,1.973055700888552e-05
0.26415608175,28.48584391825,2,0,-0.01662975806780471,-0.4494520261332959,0.4420916291603886,3.063463950896616e-07,-1.424942677172303e-06,3.536733033283109e-06,3.992604607023422e-07,1.618440916852204e-05
0.9858439182500001,28.48584391825,2,0,0.06710454902323615,-0.1145147977691325,0.6559231160289426,3.063463950896616e-07,-4.201309920798127e-07,5.247384928231541e-06,1.126735898800896e-06,1.985080687615186e-05
1.51415608175,27.76415608175,2,0,-1.989298370780633,-0.3492416509659907,0.2127187534821915,-6.086361465725233e-06,4.738654135333364e-07,1.701750027857532e-06,3.357388158971018e-07,2.625633252319107e-05
2.23584391825,27.76415608175,2,0,-1.869495711036739,0.1299689880095886,1.057277554403235,-6.086361465725233e-06,1.911497330460074e-06,8.458220435225879e-06,1.01184734827402e-06,4.044059962367446e-05
1.51415608175,28.48584391825,2,0,0.2628584316755208,0.2137975496479123,0.3924227430980609,6.701089416433366e-07,4.738654135329028e-07,3.139381944784487e-06,1.986776539945674e-06,2.628769191217048e-05
2.23584391825,28.48584391825,2,0,0.3826610914193885,0.6930081886233832,1.236981544019131,6.701089416433366e-07,1.911497330459315e-06,9.89585235215305e-06,4.94374711750488e-06,4.020719116617103e-05
1.51415608175,29.01415608175,2,0,1.187407310836443,0.531180183805057,-0.5002557619526173,3.37475924763257e-06,7.498507395070284e-07,-4.002046095620939e-06,6.418798561977478e-06,2.620254266458296e-05
2.235843918250001,29.01415608175,2,0,1.314663750217641,1.040205941329851,-0.4211593062507284,3.37475924763257e-06,2.276928012081409e-06,-3.369274450005827e-06,8.617772912506891e-06,3.954229470591614e-05
1.514156081750001,29.73584391825,2,0,1.398331192708045,0.583911154272822,-0.3093711028808875,4.007530893247486e-06,7.498507395065947e-07,-2.4749688230471e-06,7.309104167426107e-06,2.593855120495825e-05
2.235843918250003,29.73584391825,2,0,1.525587632089198,1.092936911797435,-0.2302746471790121,4.007530893247486e-06,2.276928012080433e-06,-1.842197177432097e-06,9.5335134869739e-06,3.795917225215326e-05
2.764156081750006,49.01415608175001,2,0,-0.2487118065869773,12.74442395918105,-0.1332092872375717,-1.099141694842317e-05,4.098112611464894e-05,-1.065674297900574e-06,4.822673492082282e-05,4.863380710206472e-05
3.485843918250002,49.01415608175001,2,0,-0.172374795950887,13.04977200172541,-0.1339963115396783,-1.099141694842317e-05,4.189717024228202e-05,-1.071970492317427e-06,4.962949767938815e-05,4.935157470187256e-05
2.764156081750006,49.73584391825,2,0,-0.2508105380593384,12.74389927631296,-0.01870377128355841,-1.099771314284025e-05,4.098112611464894e-05,-1.496301702684673e-07,4.821729392631946e-05,4.868987913518917e-05
3.485843918250002,49.73584391825,2,0,-0.1744735274233475,13.04924731885692,-0.01949079558562434,-1.099771314284025e-05,4.189717024228083e-05,-1.559263646849947e-07,4.962005793337383e-05,4.940072851689948e-05
2.764156081750007,47.76415608175001,2,0,-0.2524789603735291,12.69455636382243,-0.2882940222087013,-1.096357776425324e-05,4.08245635325306e-05,-2.30635217766961e-06,4.802806384870636e-05,4.838270067999533e-05
3.485843918250005,47.76415608175001,2,0,-0.1739012495640369,13.0088672070604,-0.2906306018392866,-1.096357776425324e-05,4.176749606224451e-05,-2.325044814714293e-06,4.94719245343244e-05,4.913185652504958e-05
2.764156081750006,48.48584391825001,2,0,-0.2587098393882923,12.69299864406901,-0.1704274559945033,-1.098227040129775e-05,4.082456353253147e-05,-1.363419647956027e-06,4.799986886202338e-05,4.855149888306585e-05
3.485843918250002,48.48584391825001,2,0,-0.1801321285789084,13.00730948730655,-0.1727640356250751,-1.098227040129775e-05,4.176749606224408e-05,-1.382112285000601e-06,4.944373797019281e-05,4.927953066879127e-05
4.014156081750003,47.76415608175001,2,0,-0.4386396997082511,13.17826673789622,-0.3587199690455081,-1.194626042938338e-05,4.25213653210345e-05,-2.869759752364065e-06,4.933251673142155e-05,4.973297820632913e-05
4.735843918250001,47.76415608175001,2,0,-0.3455833174037899,13.55049226711406,-0.3588165131221692,-1.194626042938338e-05,4.363804190868803e-05,-2.870532104977353e-06,5.104047993868704e-05,5.062611733613165e-05
4.01415608175,48.48584391825001,2,0,-0.4388971505795509,13.17820237517839,-0.2191353955888166,-1.194703278199728e-05,4.25213653210345e-05,-1.753083164710532e-06,4.932640926093102e-05,4.986467527455431e-05
4.735843918250001,48.48584391825001,2,0,-0.3458407682751261,13.55042790439609,-0.2192319396655319,-1.194703278199728e-05,4.36380419086876e-05,-1.753855517324255e-06,5.103453061079866e-05,5.073528828161635e-05
4.01415608175,49.01415608175001,2,0,-0.4298870709342015,13.21478188384015,-0.1639030714346677,-1.194746413406156e-05,4.263121168503583e-05,-1.311224571477342e-06,4.949248627703804e-05,4.992895331268563e-05
4.735843918250001,49.01415608175001,2,0,-0.3391042051908251,13.57791334681365,-0.1639538368273575,-1.194746413406156e-05,4.372060607395634e-05,-1.31163069461886e-06,5.115900783309e-05,5.078861341288968e-05
4.01415608175,49.73584391825,2,0,-0.4300224453148247,13.21474804024486,-0.02772877281964365,-1.194787025720332e-05,4.263121168503539e-05,-2.218301825571492e-07,4.949030984648712e-05,4.997286711045348e-05
4.735843918250001,49.73584391825,2,0,-0.3392395795714482,13.57787950321836,-0.027779538212347,-1.194787025720332e-05,4.372060607395591e-05,-2.22236305698776e-07,5.115688020113893e-05,5.082512943537019e-05
2.764156081750007,46.51415608175,2,0,-0.2625317694957068,12.59375105027865,-0.4496934631999445,-1.091510250260918e-05,4.051002877648825e-05,-3.597547705599556e-06,4.761840820495648e-05,4.793403652368579e-05
3.485843918250005,46.51415608175,2,0,-0.1793520676510689,12.9264698576572,-0.4535031728791262,-1.091510250260918e-05,4.15081851986239e-05,-3.62802538303301e-06,4.914663647224734e-05,4.874074850323377e-05
2.764156081750007,47.23584391825001,2,0,-0.2726909953069985,12.59121124382569,-0.3249239104328115,-1.094558018004295e-05,4.051002877648782e-05,-2.599391283462493e-06,4.757185162513128e-05,4.821725213944797e-05
3.485843918250005,47.23584391825001,2,0,-0.1895112934622611,12.92393005120464,-0.3287336201120475,-1.094558018004295e-05,4.150818519862466e-05,-2.62986896089638e-06,4.910011179798241e-05,4.898749027889664e-05
2.764156081750009,45.26415608175001,2,0,-0.2796695306255956,12.44096014766949,-0.6208573932043986,-1.084771061613749e-05,4.003480809704283e-05,-4.966859145635188e-06,4.699226290390008e-05,4.728363923371727e-05
3.485843918250006,45.26415608175001,2,0,-0.1892754543456698,12.80253645278919,-0.6260033701870407,-1.084771061613749e-05,4.111953701240194e-05,-5.008026961496326e-06,4.865263951691106e-05,4.81772659380671e-05
2.764156081750007,45.98584391825,2,0,-0.2933921359124336,12.43752949634778,-0.485266278784605,-1.088887843199801e-05,4.003480809704283e-05,-3.88213023027684e-06,4.692801778165128e-05,4.768387569955976e-05
3.485843918250005,45.98584391825,2,0,-0.2029980596325349,12.79910580146737,-0.4904122557671388,-1.088887843199801e-05,4.111953701240161e-05,-3.92329804613711e-06,4.858848560862554e-05,4.852364954542721e-05
4.014156081750003,45.26415608175001,2,0,-0.4856333846338687,12.99652039237872,-0.7703399828287358,-1.195124314473135e-05,4.197737196331899e-05,-6.162719862629886e-06,4.852416579345089e-05,4.888710510694898e-05
4.735843918249999,45.26415608175001,2,0,-0.3807234050377697,13.41616031076311,-0.7698937911199111,-1.195124314473135e-05,4.323629171847218e-05,-6.159150328959289e-06,5.04479869497176e-05,4.993279507726937e-05
4.014156081750003,45.98584391825,2,0,-0.4844435400769127,12.99681785351796,-0.6129750134343972,-1.194767361106048e-05,4.197737196331899e-05,-4.903800107475178e-06,4.851489288374961e-05,4.919305982487905e-05
4.735843918250001,45.98584391825,2,0,-0.3795335604807231,13.41645777190272,-0.6125288217255455,-1.194767361106048e-05,4.323629171847326e-05,-4.900230573804364e-06,5.043924466936676e-05,5.018214887366066e-05
4.014156081750004,46.51415608175,2,0,-0.4568729648042775,13.10536413245458,-0.5597879237190196,-1.194628479333735e-05,4.230266359569806e-05,-4.478303389752157e-06,4.900984733643194e-05,4.938529271986316e-05
4.735843918250001,46.51415608175,2,0,-0.3591730544478349,13.49616377388035,-0.5597598253550113,-1.194628479333735e-05,4.347506251997538e-05,-4.478078602840091e-06,5.080243194667545e-05,5.033950828794622e-05
4.014156081750004,47.23584391825001,2,0,-0.4567980358338373,13.10538286469719,-0.4132380581843282,-1.194606000642603e-05,4.230266359569806e-05,-3.305904465474626e-06,4.900108457834156e-05,4.960452803793806e-05
4.735843918250001,47.23584391825001,2,0,-0.3590981254774488,13.49618250612274,-0.4132099598204149,-1.194606000642603e-05,4.347506251997472e-05,-3.305679678563319e-06,5.079397528742347e-05,5.052006840645064e-05
2.764156081750007,44.01415608175001,2,0,-0.3051038481437303,12.23470338974118,-0.8056861758611022,-1.076409502585288e-05,3.939513392568674e-05,-6.445489406888818e-06,4.614182536635743e-05,4.642636487720066e-05
3.485843918250003,44.01415608175001,2,0,-0.2044816344669598,12.63719224444826,-0.8119586730336199,-1.076409502585288e-05,4.060260048980799e-05,-6.495669384268959e-06,4.798930885983769e-05,4.744125804764972e-05
2.764156081750009,44.73584391825,2,0,-0.3218305072705161,12.23052172495948,-0.6547528553459874,-1.081427500323323e-05,3.939513392568674e-05,-5.238022842767899e-06,4.606083460749247e-05,4.694669022440323e-05
3.485843918250005,44.73584391825,2,0,-0.2212082935937367,12.6330105796666,-0.6610253525184779,-1.081427500323323e-05,4.060260048980809e-05,-5.288202820147823e-06,4.790854111831913e-05,4.788724001035233e-05
2.764156081750004,42.76415608175,2,0,-0.3404713184355335,11.97321432396227,-1.008651158860828,-1.066807967816352e-05,3.858666289142769e-05,-8.069209270886624e-06,4.505779488753276e-05,4.535753525966637e-05
3.485843918250001,42.76415608175,2,0,-0.2260267100762565,12.43099275739938,-1.015756462410943,-1.066807967816352e-05,3.995999819173901e-05,-8.126051699287548e-06,4.715764532641217e-05,4.653532932279252e-05
2.764156081750005,43.48584391825001,2,0,-0.3594187945691885,11.96847745492886,-0.8369842463220754,-1.072492210656449e-05,3.858666289142769e-05,-6.695873970576603e-06,4.496114331800339e-05,4.600055208776475e-05
3.485843918250002,43.48584391825001,2,0,-0.2449741862099657,12.42625588836575,-0.8440895498721367,-1.072492210656449e-05,3.995999819173836e-05,-6.752716398977093e-06,4.706149214085377e-05,4.707901467069034e-05
4.01415608175,42.76415608175,2,0,-0.581073021049801,12.67549146082241,-1.233779721826486,-1.199982683601729e-05,4.102643109147154e-05,-9.870237774611888e-06,4.706977163199958e-05,4.74564197252154e-05
4.735843918250001,42.76415608175,2,0,-0.4527218906540718,13.18889598240533,-1.231089156223015,-1.199982683601729e-05,4.256664465622029e-05,-9.848713249784122e-06,4.94187597140508e-05,4.879509143997963e-05
4.01415608175,43.48584391825001,2,0,-0.5738981794404596,12.67728517122488,-1.041253026232852,-1.197830231118937e-05,4.102643109147198e-05,-8.330024209862816e-06,4.706903078719732e-05,4.792661205731872e-05
4.735843918250001,43.48584391825001,2,0,-0.4455470490447668,13.19068969280765,-1.038562460629368,-1.197830231118937e-05,4.256664465622029e-05,-8.308499685034942e-06,4.94195061938946e-05,4.91638285991229e-05
4.01415608175,44.01415608175001,2,0,-0.5264129316775454,12.85265645550048,-0.9938068156591724,-1.196664654576853e-05,4.154963100294357e-05,-7.95045452527338e-06,4.78762814505244e-05,4.824165527670982e-05
4.73584391825,44.01415608175001,2,0,-0.4114238554946859,13.31261276023192,-0.9925168633461562,-1.196664654576853e-05,4.292949991713789e-05,-7.94013490676925e-06,4.998320415861135e-05,4.941348800238326e-05
4.014156081750002,44.73584391825,2,0,-0.5229730588426817,12.85351642370961,-0.821323201384951,-1.195632692726426e-05,4.154963100294487e-05,-6.570585611079607e-06,4.78694773079772e-05,4.863217702659967e-05
4.735843918249999,44.73584391825,2,0,-0.4079839826599581,13.3134727284405,-0.8200332490718534,-1.195632692726426e-05,4.292949991713756e-05,-6.560265992574827e-06,4.99772916454917e-05,4.97268330175636e-05
2.764156081750003,41.51415608175001,2,0,-0.3877554937738092,11.65471975888486,-1.234839677289595,-1.056459338718408e-05,3.76053076234506e-05,-9.878717418316759e-06,4.37311104397264e-05,4.407582219034848e-05
3.485843918250001,41.51415608175001,2,0,-0.2551003548409865,12.18534031461615,-1.24240546980202,-1.056459338718408e-05,3.919716929064448e-05,-9.939243758416163e-06,4.616250969466238e-05,4.546844601381345e-05
2.764156081750003,42.23584391825,2,0,-0.407930940473574,11.64967589720992,-1.035856968890415,-1.062511972728337e-05,3.76053076234506e-05,-8.286855751123319e-06,4.361956475088304e-05,4.484180543802169e-05
3.485843918250001,42.23584391825,2,0,-0.2752758015407331,12.18029645294128,-1.043422761402813,-1.062511972728337e-05,3.919716929064469e-05,-8.347382091222506e-06,4.605201965209726e-05,4.610377875184091e-05
2.764156081750003,40.26415608175,2,0,-0.4489485784721929,11.27793819485245,-1.48981071311193,-1.045898600699297e-05,3.644856108630558e-05,-1.191848570489544e-05,4.215649800581793e-05,4.258889496817099e-05
3.485843918250001,40.26415608175,2,0,-0.2926582862478897,11.90309936374966,-1.4974472111126,-1.045898600699297e-05,3.832404459299722e-05,-1.19795776889008e-05,4.501647547380236e-05,4.426265839569109e-05
2.764156081750003,40.98584391825,2,0,-0.4693125731405599,11.27284719618535,-1.255375274775692,-1.052007799099807e-05,3.644856108630558e-05,-1.004300219820554e-05,4.202922127400903e-05,4.347215664935114e-05
3.485843918250001,40.98584391825,2,0,-0.3130222809163379,11.89800836508224,-1.263011772776375,-1.052007799099807e-05,3.832404459299624e-05,-1.0104094182211e-05,4.489135992664442e-05,4.497511930122996e-05
4.01415608175,40.26415608175,2,0,-0.7394287354864968,12.2353197878137,-1.777191629835691,-1.215442778380775e-05,3.974456630939302e-05,-1.421753303868553e-05,4.502808215685658e-05,4.554525910056567e-05
4.735843918250001,40.26415608175,2,0,-0.5723075691594075,12.90380445312205,-1.769778883039123,-1.215442778380775e-05,4.175002030531809e-05,-1.415823106431298e-05,4.807486330484741e-05,4.737562596473554e-05
4.01415608175,40.98584391825,2,0,-0.7196614106957706,12.24026161901151,-1.526509880344935,-1.209512580943568e-05,3.974456630939345e-05,-1.221207904275948e-05,4.504827105483314e-05,4.613409334431802e-05
4.735843918250001,40.98584391825,2,0,-0.5525402443687533,12.90874628431958,-1.519097133548448,-1.209512580943568e-05,4.175002030531766e-05,-1.215277706838758e-05,4.809916845654378e-05,4.779750666294392e-05
4.01415608175,41.51415608175001,2,0,-0.6515938380590445,12.46804050909098,-1.493844528255197,-1.205953268906173e-05,4.041900469953837e-05,-1.195075622604158e-05,4.61138412465365e-05,4.654714608988251e-05
4.735843918250001,41.51415608175001,2,0,-0.5060726090142587,13.05012542527012,-1.48910199839359,-1.205953268906173e-05,4.21652594480758e-05,-1.191281598714872e-05,4.877270656096496e-05,4.810158568049192e-05
4.01415608175,42.23584391825,2,0,-0.6389470917611533,12.47120219566586,-1.275562684688086,-1.202159245016838e-05,4.041900469953967e-05,-1.020450147750469e-05,4.612269208004046e-05,4.708679293326616e-05
4.735843918250001,42.23584391825,2,0,-0.4934258627163675,13.053287111845,-1.27082015482637,-1.202159245016838e-05,4.21652594480771e-05,-1.016656123861096e-05,4.878403561025102e-05,4.851046430777564e-05
2.764156081750003,39.01415608175,2,0,-0.5250629492739622,10.84289619571882,-1.779034928718417,-1.035451839425174e-05,3.51173181857194e-05,-1.423227942974733e-05,4.033931499666665e-05,4.092421139087158e-05
3.485843918250001,39.01415608175,2,0,-0.3384337728611051,11.58941290137025,-1.78654818528029,-1.035451839425174e-05,3.735686830267369e-05,-1.429238548224232e-05,4.374631335016751e-05,4.296561251109949e-05
2.764156081750003,39.73584391825,2,0,-0.5450983001057379,10.83788735801074,-1.499091164099131,-1.041462444674695e-05,3.511731818571897e-05,-1.199272931279305e-05,4.019066551104901e-05,4.190617509382393e-05
3.485843918250001,39.73584391825,2,0,-0.358469123692899,11.5844040636621,-1.506604420661059,-1.041462444674695e-05,3.735686830267303e-05,-1.205283536528847e-05,4.360197472941498e-05,4.372421267410752e-05
2.764156081750003,37.76415608175,2,0,-0.6136424026002114,10.35208521656257,-2.106520276843346,-1.024532386157073e-05,3.36175866150804e-05,-1.685216221474677e-05,3.830790932580877e-05,3.914903428968126e-05
3.485843918250001,37.76415608175,2,0,-0.3885236808847998,11.25256010342422,-2.114499099044103,-1.024532386157073e-05,3.631901127566534e-05,-1.691599279235283e-05,4.240356903138262e-05,4.167379182182426e-05
2.764156081750003,38.48584391825,2,0,-0.6349192618023931,10.34676600176176,-1.768842194270297,-1.030915443917706e-05,3.361758661507954e-05,-1.415073755416238e-05,3.81200459440872e-05,4.018543773900564e-05
3.485843918250001,38.48584391825,2,0,-0.4098005400869544,11.24724088862351,-1.776821016471054,-1.030915443917706e-05,3.63190112756648e-05,-1.421456813176843e-05,4.222405944528797e-05,4.241620389960335e-05
4.01415608175,37.76415608175,2,0,-0.9597979499906897,11.72941424098748,-2.419710032707548,-1.245488483276019e-05,3.830196393115248e-05,-1.935768026166038e-05,4.26465807266514e-05,4.356261934728601e-05
4.735843918250001,37.76415608175,2,0,-0.7334560547039422,12.63478182213447,-2.407309143625418,-1.245488483276019e-05,4.101806667459345e-05,-1.925847314900335e-05,4.674680537458564e-05,4.619823458165848e-05
4.01415608175,38.48584391825,2,0,-0.9267289124383806,11.73768150037556,-2.08019718977748,-1.235567772010326e-05,3.830196393115248e-05,-1.664157751821984e-05,4.266423115957033e-05,4.409687337799392e-05
4.735843918250001,38.48584391825,2,0,-0.7003870171516691,12.6430490815224,-2.067796300695324,-1.235567772010326e-05,4.101806667459302e-05,-1.654237040556259e-05,4.677527132076014e-05,4.645778162328476e-05
4.01415608175,39.01415608175,2,0,-0.8440347647113988,11.98523219301277,-2.08588311498746,-1.228909700148669e-05,3.902797082940999e-05,-1.668706491989968e-05,4.385004839977874e-05,4.45116326628213e-05
4.735843918250001,39.01415608175,2,0,-0.6502025237996034,12.76056115665996,-2.075546265810523,-1.228909700148669e-05,4.135395772035153e-05,-1.660437012648418e-05,4.737367079639413e-05,4.669403714680233e-05
4.01415608175,39.73584391825,2,0,-0.8164698335729077,11.99212342579726,-1.795134753619795,-1.220640220807111e-05,3.902797082940956e-05,-1.436107802895836e-05,4.387769519268472e-05,4.51105220712209e-05
4.735843918250001,39.73584391825,2,0,-0.6226375926611127,12.76745238944444,-1.78479790444283,-1.220640220807111e-05,4.13539577203511e-05,-1.427838323554264e-05,4.74080781120357e-05,4.707995219902224e-05
2.764156081750005,36.51415608175,2,0,-0.7029685215950039,9.811533993116997,-2.472120601169472,-1.009872646359761e-05,3.195928359525039e-05,-1.977696480935578e-05,3.613389616234475e-05,3.740594510720891e-05
3.485843918250002,36.51415608175,2,0,-0.4297801936457604,10.90428730491397,-2.483397275151086,-1.009872646359761e-05,3.523754353064131e-05,-1.986717820120869e-05,4.108154299783383e-05,4.057527930159077e-05
2.764156081750004,37.23584391825,2,0,-0.7330396522128226,9.804016210462542,-2.062338109245511,-1.018893985545107e-05,3.195928359525039e-05,-1.649870487396409e-05,3.586047239897903e-05,3.840427148364625e-05
3.485843918250001,37.23584391825,2,0,-0.4598513242634978,10.89676952225984,-2.073614783227153,-1.018893985545107e-05,3.523754353064229e-05,-1.658891826581722e-05,4.082358248589569e-05,4.118051756247555e-05
2.764156081750007,35.26415608175,2,0,-0.7588317628824055,9.23001391985119,-2.866842523082086,-9.812272777104649e-06,3.014310995382973e-05,-2.293474018465668e-05,3.396245190527433e-05,3.597188742427052e-05
3.485843918250005,35.26415608175,2,0,-0.4269476699809083,10.55755029145718,-2.890033278961815,-9.812272777104649e-06,3.41257190686477e-05,-2.312026623169452e-05,3.994159615959305e-05,4.002663890741262e-05
2.764156081750006,35.98584391825,2,0,-0.8206737785616713,9.214553415931375,-2.369016383729826,-9.997798824142447e-06,3.014310995382973e-05,-1.895213106983861e-05,3.349258816734423e-05,3.675418976283713e-05
3.485843918250002,35.98584391825,2,0,-0.4887896856602012,10.54208978753726,-2.392207139609596,-9.997798824142447e-06,3.412571906864737e-05,-1.913765711687677e-05,3.949796691836305e-05,4.026609844781277e-05
4.014156081750003,35.26415608175,2,0,-1.138007362491252,11.26385442170949,-3.145033949549197,-1.26527070973396e-05,3.695474003946337e-05,-2.516027159639358e-05,4.066763564511816e-05,4.300642264511363e-05
4.735843918250001,35.26415608175,2,0,-0.8258057030365755,12.5126610595282,-3.144225090673662,-1.26527070973396e-05,4.070115995291948e-05,-2.51538007253893e-05,4.628319068711635e-05,4.709259172928429e-05
4.01415608175,35.98584391825,2,0,-1.135850405489896,11.26439366095969,-2.676731460367061,-1.264623622633542e-05,3.695474003946294e-05,-2.141385168293649e-05,4.047243278573187e-05,4.285540048875638e-05
4.735843918250001,35.98584391825,2,0,-0.8236487460351301,12.51320029877876,-2.675922601491512,-1.264623622633542e-05,4.070115995292013e-05,-2.14073808119321e-05,4.611094880611647e-05,4.641759653608126e-05
4.01415608175,36.51415608175,2,0,-1.070287279365862,11.48335667773035,-2.774933468695202,-1.261160463615503e-05,3.76029711922298e-05,-2.219946774956161e-05,4.152861002723997e-05,4.291993238444371e-05
4.735843918250001,36.51415608175,2,0,-0.8049365612016453,12.54475955038721,-2.763915419580268,-1.261160463615503e-05,4.078717981020039e-05,-2.211132335664214e-05,4.631715115577067e-05,4.615630953881144e-05
4.01415608175,37.23584391825,2,0,-1.040905815059375,11.49070204380697,-2.376907391448823,-1.252346024323557e-05,3.76029711922298e-05,-1.901525913159058e-05,4.149053639936846e-05,4.324725895853496e-05
4.735843918250001,37.23584391825,2,0,-0.7755550968950864,12.55210491646412,-2.365889342333929,-1.252346024323557e-05,4.078717981020126e-05,-1.892711473867143e-05,4.629553166924981e-05,4.611745538008585e-05
2.764156081750007,34.01415608175,2,0,-0.7059843613179448,8.610772367710419,-3.267008915272581,-9.147767850385758e-06,2.81192590657277e-05,-2.613607132218065e-05,3.202232094916044e-05,3.534170172755049e-05
3.485843918250005,34.01415608175,2,0,-0.3045839083048665,10.21637417976273,-3.321601391993433,-9.147767850385758e-06,3.293606450188464e-05,-2.657281113594746e-05,3.922237324982926e-05,4.068793040762695e-05
2.764156081750007,34.73584391825,2,0,-0.8515642992400672,8.574377383230026,-2.664908235752977,-9.584507664152234e-06,2.811925906572813e-05,-2.131926588602381e-05,3.113235335530524e-05,3.559341239590862e-05
3.485843918250005,34.73584391825,2,0,-0.4501638462269346,10.17997919528256,-2.719500712473747,-9.584507664152234e-06,3.293606450188572e-05,-2.175600569978998e-05,3.837069063591428e-05,4.013966844038296e-05
2.764156081750009,32.76415608175,2,0,-0.3874195309901292,7.92339669361797,-3.640997761602193,-7.578459854062789e-06,2.56648050443696e-05,-2.912798209281755e-05,3.063608698040515e-05,3.631183003527373e-05
3.485843918250006,32.76415608175,2,0,0.09862121621988384,9.867559682458023,-3.769971399808191,-7.578459854062789e-06,3.149729401088976e-05,-3.015977119846553e-05,3.935519930671151e-05,4.372910375011386e-05
2.764156081750007,33.48584391825,2,0,-0.7313492328727991,7.837414268147302,-2.911936640787201,-8.610248959710798e-06,2.56648050443696e-05,-2.329549312629761e-05,2.88566862007705e-05,3.553420115384066e-05
3.485843918250005,33.48584391825,2,0,-0.2453084856628043,9.781577256987282,-3.040910278993185,-8.610248959710798e-06,3.149729401088954e-05,-2.432728223194548e-05,3.76188364179952e-05,4.164971670012317e-05
4.014156081750003,32.76415608175,2,0,-0.798092896935358,10.9211152472757,-3.919026972330268,-1.12907894680137e-05,3.558604310883052e-05,-3.135221577864214e-05,4.075842369514536e-05,4.932886866806546e-05
4.735843918249999,32.76415608175,2,0,-0.3532444545242606,12.70050901692009,-4.005656599049965,-1.12907894680137e-05,4.092422441776369e-05,-3.204525279239972e-05,4.877099633345295e-05,5.721043722016127e-05
4.014156081750003,33.48584391825,2,0,-1.029105234854587,10.86336216279589,-3.251754308713595,-1.198382648177139e-05,3.558604310883052e-05,-2.601403446970876e-05,3.952199140858259e-05,4.619775750647989e-05
4.735843918250001,33.48584391825,2,0,-0.5842567924434445,12.64275593244046,-3.338383935433278,-1.198382648177139e-05,4.092422441776423e-05,-2.670707148346623e-05,4.756272575265704e-05,5.250772051858873e-05
4.014156081750004,34.01415608175,2,0,-1.081538723903675,11.08102093520724,-3.524372261630527,-1.232574066465755e-05,3.632449797178611e-05,-2.819497809304421e-05,4.032940662607694e-05,4.463115676493284e-05
4.735843918250001,34.01415608175,2,0,-0.7114914770644596,12.5612099225641,-3.554508499850029,-1.232574066465755e-05,4.076506493385669e-05,-2.843606799880023e-05,4.697923831328855e-05,5.005802283921882e-05
4.014156081750004,34.73584391825,2,0,-1.16190202582214,11.06093010972763,-2.969301391371677,-1.256683057041294e-05,3.632449797178611e-05,-2.375441113097341e-05,3.9754011952089e-05,4.34822351052548e-05
4.735843918250001,34.73584391825,2,0,-0.791854778982942,12.54111909708442,-2.999437629591043,-1.256683057041294e-05,4.076506493385648e-05,-2.399550103672835e-05,4.643110954715364e-05,4.806804101728465e-05
2.764156081750007,31.51415608175,2,0,0.4169305060877857,7.035555528031709,-3.952952402776848,-4.294266802944453e-06,2.218023328483124e-05,-3.162361922221478e-05,2.997026288528214e-05,3.995699470011901e-05
3.485843918250003,31.51415608175,2,0,1.009271806867223,9.40492073114946,-4.218918542489621,-4.294266802944453e-06,2.928832889418449e-05,-3.375134833991697e-05,4.06615704103409e-05,5.111162690167041e-05
2.764156081750009,32.23584391825,2,0,-0.2923125331461265,6.858244768223096,-3.064440451607637,-6.42199592064608e-06,2.218023328483081e-05,-2.45155236128611e-05,2.658025985949087e-05,3.749691399425171e-05
3.485843918250005,32.23584391825,2,0,0.3000287676333744,9.227609971341099,-3.330406591320302,-6.42199592064608e-06,2.928832889418482e-05,-2.664325273056241e-05,3.731364124142483e-05,4.626441494739534e-05
2.764156081750004,30.26415608175,2,0,1.873852677992943,5.599453915167471,-4.221962695660628,1.51676543744344e-06,1.641917038614155e-05,-3.377570156528503e-05,2.949950526069756e-05,4.71932867464328e-05
3.485843918250001,30.26415608175,2,0,2.636551514206539,8.650249260021857,-4.682443638866942,1.51676543744344e-06,2.557155642070471e-05,-3.745954911093554e-05,4.330996172051967e-05,6.543893825902507e-05
2.764156081750005,30.98584391825,2,0,0.645903496109399,5.292466619696585,-3.077914441340288,-2.167082108207191e-06,1.641917038614155e-05,-2.46233155307223e-05,2.362558944927518e-05,4.255512994849621e-05
3.485843918250002,30.98584391825,2,0,1.408602332323005,8.343261964551008,-3.538395384546642,-2.167082108207191e-06,2.557155642070482e-05,-2.830716307637314e-05,3.753934183254868e-05,5.624942493811343e-05
4.01415608175,30.26415608175,2,0,1.119308052930401,10.47453419572699,-5.105655229806108,-4.797841587204305e-06,3.262306298398203e-05,-4.084524183844886e-05,4.554239760549933e-05,8.103293551198969e-05
4.735843918250001,30.26415608175,2,0.05317467392658248,1.857701651461954,13.10920401241446,-5.110167780355724,-4.797841587204305e-06,4.273575115101977e-05,-4.317728002944845e-05,6.084732646981702e-05,0.0001053908767893975
4.01415608175,30.98584391825,2,0,0.3419619892637766,10.2801976798106,-3.841569208926283,-7.129879778204395e-06,3.26230629839829e-05,-3.073255367141026e-05,4.166658453215592e-05,6.74407317760865e-05
4.735843918250001,30.98584391825,2,0,1.184686003183588,13.65109373548985,-4.133073982801299,-7.129879778204395e-06,4.273575115102063e-05,-3.306459186241039e-05,5.706206003033764e-05,8.432165567220458e-05
4.01415608175,31.51415608175,2,0,-0.01089203571032105,10.7424047289325,-4.394350053183961,-8.628778297419025e-06,3.438440876115225e-05,-3.515480042547169e-05,4.267015007809204e-05,5.993170579107481e-05
4.73584391825,31.51415608175,2,0,0.556995756558281,13.01395589800691,-4.614728643066246,-8.628778297419025e-06,4.119906226837547e-05,-3.691782914452997e-05,5.298346427441936e-05,7.287397724316637e-05
4.014156081750002,32.23584391825,2,0,-0.5985682753962869,10.59548566901101,-3.542518364781154,-1.039180701647692e-05,3.438440876115225e-05,-2.834014691824923e-05,3.990447613553312e-05,5.300886901969894e-05
4.735843918249999,32.23584391825,2,0,-0.03068048312777538,12.86703683808505,-3.762896954663411,-1.039180701647692e-05,4.119906226837439e-05,-3.010317563730729e-05,5.023778656418833e-05,6.266755926218694e-05
2.764156081750001,29.01415608175,2,0,4.184660469261195,3.137137955758649,-3.825191843673514,1.088120313702891e-05,6.691113083018719e-06,-3.060153474938811e-05,2.83034451612031e-05,5.634317427223893e-05
3.485843918250001,29.01415608175,2,0,5.062385520573871,6.64803816100935,-4.558711869376319,1.088120313702891e-05,1.722381369877082e-05,-3.646969495501055e-05,4.408737858735448e-05,8.890427881989685e-05
2.764156081750003,29.73584391825,2,0,2.228607067387044,2.648124605289976,-2.508604266704515,5.013042931406559e-06,6.691113083018285e-06,-2.006883413363612e-05,1.880594950236296e-05,5.08877820880692e-05
3.485843918250001,29.73584391825,2,0,3.106332118699791,6.159024810540965,-3.242124292407238,5.013042931406559e-06,1.722381369877125e-05,-2.593699433925791e-05,3.483067336111683e-05,7.418877998533293e-05
2.76415608175,27.76415608175,2,0,-3.01936687895483,-0.3789536377425863,-0.6387197152318185,-9.358811102461387e-06,1.202841862387588e-06,-5.109757721854548e-06,6.463082365679397e-07,6.000410264242401e-05
3.48584391825,27.76415608175,2,0,-3.300509767358366,-1.503525191356728,1.409916229455369,-9.358811102461387e-06,-2.170872798454835e-06,1.127932983564295e-05,6.479131447489046e-07,9.926831976546385e-05
2.76415608175,28.48584391825,2,0,2.443662306877576,0.9868036587155153,-1.060434047837054,7.03027645503583e-06,1.202841862387588e-06,-8.483472382696429e-06,1.286980666180162e-05,5.878588500264553e-05
3.48584391825,28.48584391825,2,0,2.162519418474059,-0.1377678948985536,0.9882018968500393,7.03027645503583e-06,-2.170872798454618e-06,7.905615174800314e-06,8.265956125441043e-06,9.562432125031799e-05
4.01415608175,27.76415608175,2,0.3812476640315825,5.320959578669892,7.009196680313146,-11.65407109028528,1.845603263803439e-05,2.93698474457052e-05,-0.0001506783300888274,8.601954786127594e-05,0.0001579494542161014
4.735843918250001,27.76415608175,2,0.6661020344020971,5.362917279903133,13.74862943105231,-6.766379969782035,1.845603263803439e-05,0.0001189144123245723,-0.0001621185072551286,0.0002163277108965442,0.0002790050778647998
4.01415608175,28.48584391825,2,0.2702101564305393,3.492851386829127,7.571280463288374,-5.576850118673701,7.015855471733735e-06,2.936984744570433e-05,-6.113376520996104e-05,5.872763565962916e-05,0.0001351327041123417
4.735843918250001,28.48584391825,2,0.5350830750546951,5.694373559727898,18.70025679918767,-4.217606765091156,7.015855471733735e-06,0.0001189144123245723,-7.257394237626148e-05,0.0001950566960027452,0.0002062331771731903
4.01415608175,29.01415608175,2,0.1597897843944953,2.659545772471132,9.170738482934532,-7.29179980103196,1.397216629547851e-06,3.239513876631241e-05,-6.942833748601414e-05,5.638072618031862e-05,0.0001181648100055006
4.735843918250001,29.01415608175,2,0.4114097612750716,3.379495603766507,12.48999732814602,-5.395795590127077,1.397216629547851e-06,6.331126905498882e-05,-7.333856710659784e-05,0.0001024551826511625,0.0001655449633167645
4.01415608175,29.73584391825,2,0,1.861923900180718,10.58896183951767,-4.814025899667297,-2.51301299103584e-06,3.239513876631198e-05,-3.851220719733837e-05,4.807285715455251e-05,9.462441130995129e-05
4.735843918250001,29.73584391825,2,0.2219668056111939,3.453119900319733,16.25648900747417,-4.125758003900599,-2.51301299103584e-06,6.331126905498806e-05,-4.242243681792154e-05,9.522548807596888e-05,0.0001271545964786646
5.26415608175,49.01415608175001,2,0,-0.6408763031837328,13.76554889981621,-0.184433155394755,-1.306324329004091e-05,4.456245752195885e-05,-1.47546524315804e-06,5.098145052998137e-05,5.145384316707348e-05
5.985843918249998,49.01415608175001,2,0,-0.5399940915549029,14.16907774633153,-0.1837960208817463,-1.306324329004091e-05,4.577304406150481e-05,-1.47036816705397e-06,5.283116576204406e-05,5.24116245540834e-05
5.26415608175,49.73584391825,2,0,-0.6391772778155245,13.76597365615826,-0.03310983795153707,-1.305814621393629e-05,4.456245752195885e-05,-2.648787036122965e-07,5.098611197603089e-05,5.148500545880084e-05
5.985843918250001,49.73584391825,2,0,-0.5382950661866674,14.16950250267369,-0.03247270343852832,-1.305814621393629e-05,4.577304406150513e-05,-2.597816275082265e-07,5.283592573196727e-05,5.243555795666984e-05
5.264156081749999,47.76415608175001,2,0,-0.6539999915963643,13.74248216358989,-0.404721629844359,-1.308678570398027e-05,4.449914291676472e-05,-3.237773038754872e-06,5.08618876525324e-05,5.131553890134264e-05
5.985843918249997,47.76415608175001,2,0,-0.5510087318496728,14.15444720257665,-0.4027380691304985,-1.308678570398027e-05,4.573503803372502e-05,-3.221904553043988e-06,5.274976592747976e-05,5.23059345156103e-05
5.264156081749999,48.48584391825001,2,0,-0.6487104963594752,13.74380453739911,-0.2502347402244163,-1.307091721826961e-05,4.449914291676472e-05,-2.00187792179533e-06,5.087645853801027e-05,5.140843473985988e-05
5.985843918249997,48.48584391825001,2,0,-0.5457192366128556,14.15576957638559,-0.2482511795106235,-1.307091721826961e-05,4.573503803372415e-05,-1.986009436084988e-06,5.27646483778552e-05,5.237689205773244e-05
6.514156081749996,47.76415608175001,2,0,-0.884399640814185,14.36157070482046,-0.4276842154304217,-1.431933541446176e-05,4.666454596807682e-05,-3.421473723443373e-06,5.256030569200631e-05,5.305281170747999e-05
7.235843918249994,47.76415608175001,2,0,-0.7757689919943602,14.79609330009976,-0.4240392558178157,-1.431933541446176e-05,4.796811375391472e-05,-3.392314046542525e-06,5.454890763461576e-05,5.410292252850144e-05
6.514156081749997,48.48584391825001,2,0,-0.8746797485138886,14.36400067789554,-0.2647382422005891,-1.429017573756087e-05,4.666454596807682e-05,-2.117905937604712e-06,5.259159085924429e-05,5.310839710317195e-05
7.235843918249996,48.48584391825001,2,0,-0.7660490996940457,14.79852327317491,-0.2610932825879695,-1.429017573756087e-05,4.796811375391494e-05,-2.088746260703756e-06,5.458061989412935e-05,5.413844873551809e-05
6.514156081749998,49.01415608175001,2,0,-0.8682233000776129,14.37212428971416,-0.1953125662349734,-1.427601399201968e-05,4.668537636714739e-05,-1.562500529879787e-06,5.263990943812944e-05,5.313564568147604e-05
7.235843918249998,49.01415608175001,2,0,-0.7613939939971384,14.79944151403605,-0.1941211998045922,-1.427601399201968e-05,4.796732804011308e-05,-1.552969598436738e-06,5.459617592559471e-05,5.415592680034019e-05
6.51415608175,49.73584391825,2,0,-0.8650463229298437,14.37291853400123,-0.03506860711430206,-1.426648306057649e-05,4.668537636714782e-05,-2.805488569144164e-07,5.265014053200587e-05,5.315450478614802e-05
7.23584391825,49.73584391825,2,0,-0.7582170168493598,14.80023575832317,-0.03387724068388025,-1.426648306057649e-05,4.796732804011362e-05,-2.710179254710419e-07,5.460654400784444e-05,5.41681515544375e-05
5.264156081749999,46.51415608175,2,0,-0.6791745629472437,13.69750314355573,-0.6301095398172794,-1.313136111627576e-05,4.437534970973614e-05,-5.040876318538235e-06,5.062891905203464e-05,5.107292958848863e-05
5.985843918249997,46.51415608175,2,0,-0.5719052779756666,14.12658028344204,-0.6265620999875717,-1.313136111627576e-05,4.566258112939506e-05,-5.012496799900574e-06,5.259422449602448e-05,5.212245827692586e-05
5.264156081749999,47.23584391825001,2,0,-0.6697147234012841,13.69986810344222,-0.4692056123599408,-1.310298159763789e-05,4.437534970973614e-05,-3.753644898879527e-06,5.065515253699238e-05,5.122564056697903e-05
5.985843918249997,47.23584391825001,2,0,-0.5624454384297071,14.12894524332853,-0.4656581725302061,-1.310298159763789e-05,4.566258112939506e-05,-3.725265380241649e-06,5.262103365659669e-05,5.22377591895181e-05
5.264156081749998,45.26415608175001,2,0,-0.7174368830674478,13.63222883147092,-0.8629244414140634,-1.320158109099257e-05,4.419708176716091e-05,-6.903395531312508e-06,5.028664262416921e-05,5.073179884974187e-05
5.98584391825,45.26415608175001,2,0,-0.6036029269521288,14.0875646559322,-0.8574494014016668,-1.320158109099257e-05,4.556308924054473e-05,-6.859595211213335e-06,5.237060680408037e-05,5.186902778134835e-05
5.264156081749999,45.98584391825,2,0,-0.7028367763676644,13.63587885814614,-0.6921735072411804,-1.315778077089344e-05,4.419708176716178e-05,-5.537388057929443e-06,5.032741808998981e-05,5.094060509917026e-05
5.985843918249998,45.98584391825,2,0,-0.5890028202523818,14.09121468260727,-0.6866984672287838,-1.315778077089344e-05,4.556308924054517e-05,-5.49358773783027e-06,5.241231786404754e-05,5.202365699388586e-05
6.51415608175,45.26415608175001,2,0,-0.9580352869071311,14.31680917505468,-0.903088522485391,-1.451916025814656e-05,4.658021758970066e-05,-7.224708179883127e-06,5.220960291398701e-05,5.271815860818477e-05
7.23584391825,45.26415608175001,2,0,-0.8402987157033901,14.78775545986964,-0.8937786543048858,-1.451916025814656e-05,4.799305644414555e-05,-7.150229234439086e-06,5.436170430770206e-05,5.390079823786699e-05
6.514156081749998,45.98584391825,2,0,-0.9332089717592398,14.32301575384138,-0.7264836656796025,-1.444468131270267e-05,4.658021758969979e-05,-5.811869325436821e-06,5.228923156489839e-05,5.283516951717166e-05
7.235843918249998,45.98584391825,2,0,-0.8154724005553717,14.79396203865685,-0.7171737974990839,-1.444468131270267e-05,4.79930564441462e-05,-5.737390379992671e-06,5.444252997636633e-05,5.396921106714557e-05
6.514156081749997,46.51415608175,2,0,-0.9140829749057486,14.3423529714849,-0.6632717893417821,-1.439894789688632e-05,4.662679588867628e-05,-5.306174314734257e-06,5.241442349642185e-05,5.291064131832407e-05
7.235843918249996,46.51415608175,2,0,-0.8018286172209752,14.79137040222399,-0.6569634055698812,-1.439894789688632e-05,4.797384818089356e-05,-5.255707244559049e-06,5.446813451019563e-05,5.40144687447425e-05
6.514156081749996,47.23584391825001,2,0,-0.8972606181805847,14.34655856066646,-0.4948902528146356,-1.434848082671104e-05,4.662679588867714e-05,-3.959122022517084e-06,5.246850243416985e-05,5.299982320463307e-05
7.235843918249994,47.23584391825001,2,0,-0.7850062604958565,14.79557599140538,-0.4885818690426804,-1.434848082671104e-05,4.797384818089388e-05,-3.908654952341443e-06,5.452298081821871e-05,5.406970219009653e-05
5.26415608175,44.01415608175001,2,0,-0.7701577288358727,13.54939277326173,-1.105365558229273,-1.330401895088418e-05,4.397418305750623e-05,-8.842924465834187e-06,4.98429000127166e-05,5.030232653758925e-05
5.985843918250001,44.01415608175001,2,0,-0.6473028535672749,14.04081227433612,-1.097458876021579,-1.330401895088418e-05,4.54484415607294e-05,-8.779671008172629e-06,5.208955760476942e-05,5.155884584992693e-05
5.264156081749999,44.73584391825,2,0,-0.7490732429486284,13.55466389473354,-0.9210832453263496,-1.324076549322244e-05,4.397418305750623e-05,-7.368665962610797e-06,4.990207687502327e-05,5.056077262462546e-05
5.985843918250001,44.73584391825,2,0,-0.6262183676800577,14.04608339580782,-0.9131765631186276,-1.324076549322244e-05,4.544844156072908e-05,-7.305412504949021e-06,5.215018772111219e-05,5.174448201069545e-05
5.26415608175,42.76415608175,2,0,-0.838849744075211,13.45320888439442,-1.359312004297939,-1.344688628855621e-05,4.372134822532231e-05,-1.087449603438351e-05,4.931124854913727e-05,4.980172460500829e-05
5.985843918250001,42.76415608175,2,0,-0.7043084729208444,13.99137396901189,-1.348357324670356,-1.344688628855621e-05,4.533584347917472e-05,-1.078685859736285e-05,5.176802119231318e-05,5.121322584180312e-05
5.26415608175,43.48584391825001,2,0,-0.8096372650682779,13.46051200414616,-1.157500097566442,-1.335924885153541e-05,4.372134822532231e-05,-9.26000078053154e-06,4.939326204559308e-05,5.009894023372271e-05
5.985843918250001,43.48584391825001,2,0,-0.6750959939139474,13.99867708876348,-1.146545417938887,-1.335924885153541e-05,4.533584347917428e-05,-9.172363343511094e-06,5.185225060425843e-05,5.141649618850261e-05
6.514156081750001,42.76415608175,2,0,-1.092004574591674,14.26361118189177,-1.397042996267313,-1.490530358420677e-05,4.651715944172701e-05,-1.117634397013851e-05,5.16814495672198e-05,5.225065346565078e-05
7.235843918250001,42.76415608175,2,0,-0.9575945766110072,14.80125117381444,-1.380370227195503,-1.490530358420677e-05,4.8130079417495e-05,-1.104296181756402e-05,5.41316729112843e-05,5.367345720650369e-05
6.514156081750001,43.48584391825001,2,0,-1.047543857066845,14.27472636127298,-1.195427999296274,-1.477192143163229e-05,4.651715944172701e-05,-9.563423994370188e-06,5.1822665372566e-05,5.238978697659243e-05
7.235843918250001,43.48584391825001,2,0,-0.9131338590861784,14.81236635319565,-1.17875523022445,-1.477192143163229e-05,4.8130079417495e-05,-9.430041841795595e-06,5.427540667272661e-05,5.373131090552572e-05
6.514156081750001,44.01415608175001,2,0,-1.017120897187207,14.28872086912635,-1.147723530433748,-1.468576356630014e-05,4.653760349895408e-05,-9.181788243469986e-06,5.195859228866487e-05,5.249029362712849e-05
7.235843918250001,44.01415608175001,2,0,-0.8920052930370863,14.78918328572683,-1.134972841309388,-1.468576356630014e-05,4.803899074875553e-05,-9.079782730475106e-06,5.424284367321564e-05,5.377853696681076e-05
6.514156081750001,44.73584391825,2,0,-0.9831190595223238,14.29722132854257,-0.9600501242085397,-1.458375805330549e-05,4.653760349895408e-05,-7.680400993668318e-06,5.206723832899021e-05,5.26257493919616e-05
7.235843918250001,44.73584391825,2,0,-0.8580034553722031,14.79768374514305,-0.9472994350841527,-1.458375805330549e-05,4.803899074875553e-05,-7.578395480673222e-06,5.435325242186351e-05,5.384970726666633e-05
5.26415608175,41.51415608175001,2,0,-0.9247421182914408,13.34988012299601,-1.625991657718667,-1.363907887692941e-05,4.345941008822036e-05,-1.300793326174934e-05,4.87140843841051e-05,4.925896517687418e-05
5.985843918250001,41.51415608175001,2,0,-0.7756229055306152,13.94635697403931,-1.611340112837005,-1.363907887692941e-05,4.524884064135027e-05,-1.289072090269604e-05,5.14319348225832e-05,5.086654517415401e-05
5.26415608175,42.23584391825,2,0,-0.8856713319403626,13.35964781958377,-1.402312838577429,-1.352186651787618e-05,4.345941008822036e-05,-1.121850270861943e-05,4.882299583025417e-05,4.957665396687044e-05
5.985843918250001,42.23584391825,2,0,-0.7365521191794917,13.95612467062726,-1.387661293695793,-1.352186651787618e-05,4.524884064135081e-05,-1.110129034956634e-05,5.154418813544994e-05,5.106586691163632e-05
5.26415608175,40.26415608175,2,0,-1.027911993681875,13.24823544903979,-1.90546445837652,-1.388790673901383e-05,4.321668303187282e-05,-1.524371566701216e-05,4.808734314644484e-05,4.872349549808549e-05
5.985843918250001,40.26415608175,2,0,-0.8611167361184298,13.91541647929357,-1.886620998321995,-1.388790673901383e-05,4.521822612263415e-05,-1.509296798657596e-05,5.112030878776878e-05,5.057557668115842e-05
5.26415608175,40.98584391825,2,0,-0.9776627668697837,13.26079775574281,-1.655271572031502,-1.373715905857756e-05,4.321668303187282e-05,-1.324217257625201e-05,4.82248354326969e-05,4.90303620541546e-05
5.985843918250001,40.98584391825,2,0,-0.8108675093064019,13.92797878599634,-1.636428111977031,-1.373715905857756e-05,4.521822612263339e-05,-1.309142489581624e-05,5.126277534147453e-05,5.073517230284468e-05
6.514156081750001,40.26415608175,2,0,-1.287066082787954,14.25544360321325,-1.902988126516357,-1.552296634749205e-05,4.664707239651275e-05,-1.522390501213086e-05,5.118366689053497e-05,5.19089607495476e-05
7.235843918250001,40.26415608175,2,0,-1.128554622300418,14.88948944516339,-1.877560548177736,-1.552296634749205e-05,4.854920992236318e-05,-1.502048438542188e-05,5.406202002996049e-05,5.369975258747171e-05
6.514156081750001,40.98584391825,2,0,-1.219259207218301,14.27239532210566,-1.665220935784999,-1.531954572078309e-05,4.664707239651275e-05,-1.332176748627999e-05,5.139406043349935e-05,5.197039421957993e-05
7.235843918250001,40.98584391825,2,0,-1.060747746730764,14.90644116405581,-1.639793357446364,-1.531954572078309e-05,4.854920992236318e-05,-1.311834685957091e-05,5.427719735142944e-05,5.364027300617661e-05
6.514156081750001,41.51415608175001,2,0,-1.182594085190306,14.24912456629088,-1.64977666452166,-1.518360072564168e-05,4.654327388028305e-05,-1.319821331617328e-05,5.140837108925833e-05,5.203659226773861e-05
7.235843918250001,41.51415608175001,2,0,-1.037008516624532,14.83146684055398,-1.628778163638119,-1.518360072564168e-05,4.829030070307235e-05,-1.303022530910495e-05,5.405748187823029e-05,5.362564037751608e-05
6.514156081750001,42.23584391825,2,0,-1.126598082834345,14.26312356687987,-1.43139831167285,-1.50156127185738e-05,4.654327388028305e-05,-1.14511864933828e-05,5.15845930278732e-05,5.21560152286454e-05
7.235843918250001,42.23584391825,2,0,-0.9810125142685706,14.84546584114297,-1.410399810789376,-1.50156127185738e-05,4.829030070307235e-05,-1.128319848631501e-05,5.423721912265034e-05,5.364514287386062e-05
5.26415608175,39.01415608175,2,0,-1.145626718961422,13.16040808435589,-2.195919741310675,-1.419433196816126e-05,4.302980724510798e-05,-1.75673579304854e-05,4.748725128122652e-05,4.828203236958403e-05
5.985843918250001,39.01415608175,2,0,-0.957916789234285,13.91124780326444,-2.172928976657337,-1.419433196816126e-05,4.528232640183363e-05,-1.73834318132587e-05,5.089131790928666e-05,5.043811151660375e-05
5.26415608175,39.73584391825,2,0,-1.084318013219121,13.17573526079146,-1.914354846720091,-1.401040585093436e-05,4.302980724510798e-05,-1.531483877376073e-05,4.764873419708451e-05,4.852298116343881e-05
5.985843918250001,39.73584391825,2,0,-0.8966080834920294,13.92657497969983,-1.8913640820667,-1.401040585093436e-05,4.528232640183308e-05,-1.51309126565336e-05,5.106004199306915e-05,5.049597948338468e-05
5.26415608175,37.76415608175,2,0,-1.269396871222964,13.10233215451687,-2.492944429130918,-1.454393571152698e-05,4.294298039143234e-05,-1.994355543304734e-05,4.699949824789626e-05,4.809255051455079e-05
5.985843918250001,37.76415608175,2,0,-1.05749192694208,13.94995193164041,-2.467113823120121,-1.454393571152698e-05,4.548583972280296e-05,-1.973691058496096e-05,5.083135566825495e-05,5.063230265464736e-05
5.26415608175,38.48584391825,2,0,-1.200515255194135,13.11955255852407,-2.175087012709631,-1.433729086344049e-05,4.294298039143234e-05,-1.740069610167705e-05,4.716711401747155e-05,4.816669882482047e-05
5.985843918250001,38.48584391825,2,0,-0.9886103109132414,13.96717233564765,-2.14925640669878,-1.433729086344049e-05,4.548583972280307e-05,-1.719405125359024e-05,5.100911467452051e-05,5.047463920025209e-05
6.514156081750001,37.76415608175,2,0,-1.511141998061107,14.38589774695009,-2.387494508812265,-1.634437259135561e-05,4.724378638868917e-05,-1.909995607049812e-05,5.116089887670546e-05,5.241725260220164e-05
7.235843918250001,37.76415608175,2,0,-1.322813641641988,15.13921117262657,-2.356261434268062,-1.634437259135561e-05,4.95037266657186e-05,-1.88500914741445e-05,5.456669790445248e-05,5.475407440799813e-05
6.514156081750001,38.48584391825,2,0,-1.427853799276748,14.40671979664618,-2.105001974183371,-1.609450799500253e-05,4.724378638868917e-05,-1.684001579346697e-05,5.140376718911731e-05,5.210816724573589e-05
7.235843918250001,38.48584391825,2,0,-1.239525442857629,15.16003322232265,-2.073768899639222,-1.609450799500253e-05,4.95037266657186e-05,-1.659015119711378e-05,5.481738080418244e-05,5.426310848634447e-05
6.514156081750001,39.01415608175,2,0,-1.400253396593225,14.29565138553379,-2.151500353431837,-1.591733197752535e-05,4.686628715098269e-05,-1.72120028274547e-05,5.107111048928406e-05,5.197209280742233e-05
7.235843918250001,39.01415608175,2,0,-1.227341555982306,14.98729874797746,-2.122226692769568,-1.591733197752535e-05,4.894122923831371e-05,-1.697781354215654e-05,5.420419242459871e-05,5.400692848495729e-05
6.514156081750001,39.73584391825,2,0,-1.322190301493963,14.3151671593086,-1.892132592515392,-1.568314269222756e-05,4.686628715098269e-05,-1.513706074012314e-05,5.13079328111304e-05,5.190941588478824e-05
7.235843918250001,39.73584391825,2,0,-1.149278460883044,15.00681452175228,-1.862858931853204,-1.568314269222756e-05,4.894122923831371e-05,-1.490287145482563e-05,5.444729589925832e-05,5.379799762690839e-05
5.26415608175,36.51415608175,2,0,-1.380073075874186,13.09371483083227,-2.78919511276655,-1.489120570746321e-05,4.300394591936259e-05,-2.23135609021324e-05,4.67514326204306e-05,4.845632064771428e-05
5.985843918250001,36.51415608175,2,0,-1.140730657456216,14.05108450450415,-2.764338992665376,-1.489120570746321e-05,4.587605494037823e-05,-2.211471194132301e-05,5.106850910619013e-05,5.15036907011091e-05
5.26415608175,37.23584391825,2,0,-1.313790088937744,13.11028557756638,-2.43018148513973,-1.469235674665388e-05,4.300394591936259e-05,-1.944145188111784e-05,4.688230385859482e-05,4.81701544481032e-05
5.985843918250001,37.23584391825,2,0,-1.074447670519728,14.06765525123844,-2.405325365038488,-1.469235674665388e-05,4.587605494037878e-05,-1.924260292030791e-05,5.121270526102295e-05,5.090803617326345e-05
5.26415608175,35.26415608175,2,0,-1.442833234187977,13.15749479400361,-3.075534751928712,-1.514306218460442e-05,4.325824992816195e-05,-2.46042780154297e-05,4.69230318200898e-05,4.997541992760168e-05
5.985843918250001,35.26415608175,2,0,-1.172859915961002,14.23738806691152,-3.059148462050933,-1.514306218460442e-05,4.649792974688565e-05,-2.447318769640747e-05,5.178575598773441e-05,5.376528395106124e-05
5.26415608175,35.98584391825,2,0,-1.399136461180717,13.16841898725543,-2.670574774588141,-1.501197186558264e-05,4.325824992816195e-05,-2.136459819670512e-05,4.693860440046506e-05,4.894004007505463e-05
5.985843918250001,35.98584391825,2,0,-1.129163142953741,14.24831226016333,-2.65418848471047,-1.501197186558264e-05,4.649792974688565e-05,-2.123350787768376e-05,5.181720304555759e-05,5.226928793572181e-05
6.51415608175,35.26415608175,2,0,-1.627415133563574,14.79520649645649,-2.779120140749815,-1.704389362456862e-05,4.864659289551161e-05,-2.223296112599852e-05,5.250522379516113e-05,5.637794201608407e-05
7.235843918249998,35.26415608175,2,0,-1.408200377570008,15.67206552043075,-2.760336468517674,-1.704389362456862e-05,5.12771699674344e-05,-2.208269174814139e-05,5.646558277715055e-05,5.972599256937493e-05
6.514156081750001,35.98584391825,2,0,-1.577325340944363,14.80772894461156,-2.450298006759493,-1.689362424671121e-05,4.864659289551248e-05,-1.960238405407594e-05,5.259641945071702e-05,5.457387490567043e-05
7.23584391825,35.98584391825,2,0,-1.358110584950842,15.68458796858564,-2.431514334527284,-1.689362424671121e-05,5.127716996743473e-05,-1.945211467621827e-05,5.656561585324565e-05,5.754087573763173e-05
6.514156081750001,36.51415608175,2,0,-1.599172073542319,14.54518892518463,-2.600782326204587,-1.675350177548312e-05,4.782394221942467e-05,-2.080625860963669e-05,5.157881150469938e-05,5.362124550729682e-05
7.235843918250001,36.51415608175,2,0,-1.395037240793796,15.36172825617872,-2.571713284600099,-1.675350177548312e-05,5.027356021240694e-05,-2.057370627680079e-05,5.526590552147553e-05,5.635914277246447e-05
6.514156081750001,37.23584391825,2,0,-1.521654629263617,14.56456828625431,-2.294580077081708,-1.652094944264702e-05,4.782394221942467e-05,-1.835664061665366e-05,5.178596950331252e-05,5.282268070045937e-05
7.235843918250001,37.23584391825,2,0,-1.317519796515095,15.3811076172484,-2.26551103547722,-1.652094944264702e-05,5.027356021240694e-05,-1.812408828381776e-05,5.548200671494107e-05,5.531570510225444e-05
5.26415608175,34.01415608175,2,0,-1.397304162421158,13.31820709752263,-3.351666032486665,-1.51259389977658e-05,4.373610604200932e-05,-2.681332825989332e-05,4.777383909477049e-05,5.389729847213579e-05
5.985843918250001,34.01415608175,2,0,-1.09093180432765,14.54369652989666,-3.357623605970399,-1.51259389977658e-05,4.741257433913142e-05,-2.686098884776319e-05,5.329667132667764e-05,5.895952849168604e-05
5.26415608175,34.73584391825,2,0,-1.413191025044437,13.31423538186681,-2.892107495346336,-1.517359958563564e-05,4.373610604200932e-05,-2.313685996277069e-05,4.753108761175203e-05,5.130371331173064e-05
5.985843918250001,34.73584391825,2,0,-1.106818666950893,14.53972481424098,-2.898065068830083,-1.517359958563564e-05,4.741257433913185e-05,-2.318452055064067e-05,5.307022248070675e-05,5.5557928505146e-05
5.264156081749999,32.76415608175,2,0,-1.080443435683717,13.60877488335538,-3.616191856418096,-1.43444389008722e-05,4.441243437528419e-05,-2.892953485134477e-05,4.989410714089421e-05,6.287710975721704e-05
5.985843918250001,32.76415608175,2,0,-0.7311279754430942,15.00603672431787,-3.686107751545877,-1.43444389008722e-05,4.860421989817166e-05,-2.948886201236702e-05,5.622805248551523e-05,7.047717848687102e-05
5.26415608175,33.48584391825,2,0,-1.266885822691279,13.56216428660336,-3.092218666057324,-1.490376606189478e-05,4.441243437528376e-05,-2.473774932845859e-05,4.896517230284821e-05,5.699838070329258e-05
5.985843918250001,33.48584391825,2,0,-0.9175703624506379,14.95942612756592,-3.162134561185133,-1.490376606189478e-05,4.860421989817145e-05,-2.529707648948106e-05,5.530796383884141e-05,6.295712947584289e-05
6.514156081750001,32.76415608175,2,0,-1.27504358618115,15.67910424858301,-3.008671992486066,-1.662342287464609e-05,5.119316846441055e-05,-2.406937593988853e-05,5.69544749211918e-05,7.583682565525949e-05
7.235843918250001,32.76415608175,2,0,-1.034930794634366,16.63955541477015,-3.052600445354174,-1.662342287464609e-05,5.407452196297196e-05,-2.442080356283339e-05,6.13252170253971e-05,8.287958530090803e-05
6.514156081750001,33.48584391825,2,0,-1.392186127162853,15.64981861333758,-2.64850280516589,-1.697485049759119e-05,5.119316846441055e-05,-2.118802244132712e-05,5.639425417452078e-05,6.709876208203916e-05
7.235843918250001,33.48584391825,2,0,-1.152073335616069,16.61026977952472,-2.692431258034052,-1.697485049759119e-05,5.407452196297196e-05,-2.153945006427242e-05,6.076707134950453e-05,7.245516401638204e-05
6.514156081750001,34.01415608175,2,0,-1.553731576344805,15.16321471997607,-2.906670781730348,-1.710251282028423e-05,4.976527236499927e-05,-2.325336625384278e-05,5.415635414396826e-05,6.245026962323411e-05
7.23584391825,34.01415608175,2,0,-1.324463055954004,16.08028880153928,-2.906339822840361,-1.710251282028423e-05,5.251649460968888e-05,-2.325071858272289e-05,5.830681137207442e-05,6.69249217315491e-05
6.51415608175,34.73584391825,2,0,-1.552849019304736,15.16343535923596,-2.562768001144187,-1.709986514916392e-05,4.976527236499884e-05,-2.050214400915349e-05,5.405383693092457e-05,5.848841561985834e-05
7.235843918249998,34.73584391825,2,0,-1.323580498913863,16.08050944079945,-2.562437042254119,-1.709986514916392e-05,5.251649460968932e-05,-2.049949633803295e-05,5.821131970736911e-05,6.224044011510335e-05
5.26415608175,31.51415608175,2,0,-0.6383151736808079,14.05576726750338,-3.898815976005956,-1.328722236978129e-05,4.548910739495546e-05,-3.119052780804765e-05,5.29940011521358e-05,8.255855269923664e-05
5.985843918250001,31.51415608175,2,0,-0.2294845281927058,15.69108984945579,-3.976824095290141,-1.328722236978129e-05,5.039507514081269e-05,-3.181459276232112e-05,6.042543689462106e-05,9.60750334439885e-05
5.264156081749999,32.23584391825,2,0,-0.8463368251051189,14.00376185464744,-3.285570007773789,-1.391128732405433e-05,4.54891073949559e-05,-2.628456006219032e-05,5.193172583212677e-05,6.97259372017177e-05
5.985843918250001,32.23584391825,2,0,-0.4375061796169986,15.63908443659992,-3.363578127057987,-1.391128732405433e-05,5.039507514081334e-05,-2.69086250164639e-05,5.937735161562587e-05,7.935109410987093e-05
5.26415608175,30.26415608175,2,0.1974139348320476,0.3384747847264498,13.22625903407076,-4.563497597439713,-1.183410518614524e-05,5.239718318862793e-05,-4.548793252705913e-05,6.615368651772273e-05,0.0001234458089403911
5.985843918250001,30.26415608175,2,0.3390067745797016,1.175664444962475,14.48048697604143,-3.832477590224831,-1.183410518614524e-05,6.868001822332823e-05,-4.638447043432757e-05,9.083703348173836e-05,0.0001484148596288037
5.26415608175,30.98584391825,2,0,0.1228842345811501,16.40484080509152,-3.6506371865448,-1.273064309341353e-05,5.239718318862793e-05,-2.92050974923584e-05,6.406780166910349e-05,9.695274894866969e-05
5.985843918250001,30.98584391825,2,0.1322765255032452,1.284046050905669,18.94453152561631,-3.264986957124839,-1.273064309341353e-05,6.86800182233292e-05,-3.010163539962684e-05,8.894657494759291e-05,0.000114580613640463
6.51415608175,30.26415608175,2,0.407903752770201,0.4886354567239257,14.92839227170749,-2.959807134969427,-1.752938040801531e-05,8.002068434947562e-05,-3.999089200537619e-05,0.0001001918175507363,0.0001646246815091312
7.235843918249998,30.26415608175,2,0.4741208645808981,1.078210154913029,15.83575988640166,-2.573649482538267,-1.752938040801531e-05,9.472112536439972e-05,-3.915195426777577e-05,0.0001226336230324505,0.000183941687781298
6.514156081750001,30.98584391825,2,0.2180605230663282,0.863972334843349,19.76953435374295,-2.471950252361325,-1.669044267041487e-05,8.002068434947475e-05,-2.529045099045188e-05,0.000100846678077561,0.0001265496861741953
7.23584391825,30.98584391825,2,0.305436580299221,1.618295416755928,20.96389533887765,-2.122890832719946,-1.669044267041487e-05,9.472112536439983e-05,-2.445151325285166e-05,0.0001233942926205766,0.0001416219357654258
6.514156081750001,31.51415608175,2,0.05435722696706513,-0.8844021804405076,15.85624348562048,-3.238257867807559,-1.64069162355515e-05,5.440479467032962e-05,-2.739518947453344e-05,6.2224930777743e-05,0.000105517384917907
7.235843918250001,31.51415608175,2,0.1570501981945647,-0.3634575137065363,15.83392843141951,-2.893374468798298,-1.64069162355515e-05,6.045358440367695e-05,-2.745951858676519e-05,7.140104251144622e-05,0.0001177978881439201
6.514156081750001,32.23584391825,2,0,-0.9566822267336477,16.7623277777946,-2.668299967648101,-1.647124534778335e-05,5.440479467032962e-05,-2.134639974118481e-05,6.191305022113515e-05,8.613106461812577e-05
7.235843918250001,32.23584391825,2,0,-0.4526164156213701,18.77859102224371,-2.676341106677151,-1.647124534778335e-05,6.045358440367695e-05,-2.141072885341721e-05,7.111533246958052e-05,9.502913161313092e-05
5.26415608175,29.01415608175,2,0.5169321641743113,1.397001388900855,13.58862909810188,-5.087483350584097,-1.324968950387402e-05,8.770199309666472e-05,-8.425290153111955e-05,0.0001199857207696091,0.0001990493351405369
5.985843918250001,29.01415608175,2,0.6114861179101653,2.280052062458889,15.55481863187935,-4.02968518150199,-1.324968950387402e-05,0.0001234225601260733,-8.297639527990344e-05,0.0001741167042754357,0.0002432048279313902
5.26415608175,29.73584391825,2,0.3500869066012711,2.156046614035655,18.35109716309871,-3.942724955733682,-1.197318325265809e-05,8.770199309666472e-05,-4.853233450171192e-05,0.0001197692651205711,0.000150802506759625
5.985843918250001,29.73584391825,2,0.470844389536985,3.330585981286406,21.24194029170292,-3.125710830728319,-1.197318325265809e-05,0.0001234225601260728,-4.725582825049592e-05,0.0001745460568583791,0.0001828796139740726
5.26415608175,27.76415608175,2,0.7348517822756232,3.943834393576072,15.46673228951875,-4.830154978974529,9.311178100584769e-07,0.0001747644250046148,-0.0001457344882927482,0.000275228073193795,0.0003426155150577459
5.985843918250001,27.76415608175,2,0.7749603752249057,4.529473863523485,17.85597245084773,-4.401144909092156,9.311178100584769e-07,0.0002378049323774763,-0.0001564575985581448,0.0003720454824961364,0.0003953468377192339
5.26415608175,28.48584391825,2,0.6237980483347937,4.250970923235515,21.60859203342878,-3.888704626628372,-9.791992455338656e-06,0.0001747644250046148,-8.269398091988742e-05,0.0002575637002751541,0.0002504454758102031
5.985843918250001,28.48584391825,2,0.6921935205255747,5.095145344824411,24.14812978519505,-3.594298245060466,-9.791992455338656e-06,0.0002378049323774759,-9.34170911852843e-05,0.0003548422521965611,0.000300135248950217
6.514156081750001,27.76415608175,2,0.7893012850710166,4.210285609097904,18.35246066747652,-1.264051273786892,-5.73831019935474e-06,0.0002627431575332848,-4.799464578463875e-05,0.0003981191415181195,0.0004184199849351723
7.235843918250001,27.76415608175,2,0.7952023905397156,4.179269105392464,18.18606668553163,-1.459965443560182,-5.73831019935474e-06,0.0002678351483395829,-5.703056583161172e-05,0.0004060980483459957,0.0004287256727608247
6.514156081750001,28.48584391825,2,0.7189515284554431,4.769538626467479,24.26849804209201,-1.507215700858266,-1.477423024632738e-05,0.0002627431575332848,-4.290265497834071e-05,0.0003853807933372113,0.0003254363743670791
7.235843918250001,28.48584391825,2,0.7368204218166955,4.577969885485699,23.17222414720712,-1.708646533325489,-1.477423024632738e-05,0.0002678351483395829,-5.193857502531346e-05,0.0003933504598687894,0.0003448705613575437
6.514156081750001,29.01415608175,2,0.6502329154874529,2.075565064611026,16.18504825604029,-2.280667367833032,-1.802979947888929e-05,0.000143328816768182,-5.216425372928351e-05,0.0001969380455103658,0.0002675559198625894
7.23584391825,29.01415608175,2,0.6800683452593435,2.396126964702766,16.79488733621517,-2.080464131107258,-1.802979947888929e-05,0.0001619931542758349,-5.20227142336066e-05,0.0002256448805057421,0.0002899288474503811
6.51415608175,29.73584391825,2,0.5255770676106983,2.837672876728262,21.95894245263507,-1.986641061082757,-1.788825998321196e-05,0.0001433288167681816,-3.349991622163088e-05,0.0001967277100516725,0.0002024071879525147
7.235843918249998,29.73584391825,2,0.5742969369346587,3.208386141649108,22.35240340129956,-1.775095393890734,-1.788825998321196e-05,0.0001619931542758349,-3.335837672595321e-05,0.0002254872528848623,0.0002236804049979988
7.764156081749999,49.01415608175001,2,0,-1.09989216167792,15.01112138171601,-0.1976490336379216,-1.552855202274215e-05,4.891550215083357e-05,-1.581192269103373e-06,5.44136792729868e-05,5.491455164883958e-05
8.48584391825,49.01415608175001,2,0,-0.9908498140066522,15.44729077240108,-0.1960898458578276,-1.552855202274215e-05,5.022401032288878e-05,-1.56871876686262e-06,5.640792953338692e-05,5.596687216004811e-05
7.76415608175,49.73584391825,2,0,-1.095734327597501,15.01216084023625,-0.03408551213106076,-1.551607852050101e-05,4.8915502150834e-05,-2.72684097048486e-07,5.442768087182646e-05,5.492222953569744e-05
8.485843918250001,49.73584391825,2,0,-0.9866919799262162,15.44833023092139,-0.03252632435092606,-1.551607852050101e-05,5.022401032288943e-05,-2.602105948074085e-07,5.64220876927825e-05,5.596876212516671e-05
7.764156081749996,47.76415608175001,2,0,-1.117407351798565,15.01139816294852,-0.4304589580299273,-1.558482205611423e-05,4.893040000287412e-05,-3.443671664239418e-06,5.437183101660176e-05,5.488195667769574e-05
8.48584391825,47.76415608175001,2,0,-1.006953423643973,15.45321387556689,-0.4257276757149285,-1.558482205611423e-05,5.025584714072923e-05,-3.405821405719428e-06,5.63912019597551e-05,5.596020673319481e-05
7.764156081749997,48.48584391825001,2,0,-1.104790598958425,15.01455235115883,-0.2647780657979169,-1.554697179759402e-05,4.893040000287499e-05,-2.118224526383335e-06,5.441428604403603e-05,5.490376056906147e-05
8.48584391825,48.48584391825001,2,0,-0.9943366708038681,15.45636806377705,-0.2600467834829316,-1.554697179759402e-05,5.025584714072966e-05,-2.080374267863453e-06,5.643413944320786e-05,5.596457974967838e-05
9.014156081750002,47.76415608175001,2,0,-1.342929344111601,15.67054949490317,-0.4167849444601426,-1.683381349707966e-05,5.122010185897941e-05,-3.334279555681141e-06,5.624351819056338e-05,5.675010562244455e-05
9.73584391825001,47.76415608175001,2,0,-1.233850532115366,16.10686474288811,-0.4115970598377478,-1.683381349707966e-05,5.252904760293423e-05,-3.292776478701982e-06,5.82353803194216e-05,5.782989946530975e-05
9.014156081750002,48.48584391825001,2,0,-1.329094985118422,15.67400808465173,-0.2531667264658844,-1.679231042010033e-05,5.122010185898028e-05,-2.025333811727075e-06,5.629100301965013e-05,5.674279869262193e-05
9.73584391825001,48.48584391825001,2,0,-1.220016173122259,16.11032333263638,-0.247978841843449,-1.679231042010033e-05,5.252904760293423e-05,-1.983830734747592e-06,5.828334091929333e-05,5.780811320362971e-05
9.014156081750002,49.01415608175001,2,0,-1.325886194717228,15.66155587602332,-0.1929220337811271,-1.677208052391378e-05,5.11776877590484e-05,-1.543376270249017e-06,5.625107668140885e-05,5.673939371382027e-05
9.73584391825001,49.01415608175001,2,0,-1.217803941577515,16.09388488858217,-0.1912012803765472,-1.677208052391378e-05,5.247467479672495e-05,-1.529610243012377e-06,5.822538144584873e-05,5.779764133754902e-05
9.014156081750002,49.73584391825,2,0,-1.321297518971718,15.6627030449597,-0.03079865407162614,-1.675831449667725e-05,5.11776877590484e-05,-2.463892325730091e-07,5.626683735328514e-05,5.673739806855764e-05
9.73584391825001,49.73584391825,2,0,-1.213215265832005,16.09503205751855,-0.02907790066705978,-1.675831449667725e-05,5.247467479672495e-05,-2.326232053364782e-07,5.824129816790764e-05,5.77908179290453e-05
7.764156081749998,46.51415608175,2,0,-1.148544402423695,15.01423779723508,-0.6642618820756826,-1.568673232554389e-05,4.89643964730912e-05,-5.31409505660546e-06,5.430631257408127e-05,5.483013214241059e-05
8.485843918250003,46.51415608175,2,0,-1.035279738295843,15.46729645374649,-0.6562041884714984,-1.568673232554389e-05,5.032357244262543e-05,-5.249633507771988e-06,5.637580053557133e-05,5.595473856039039e-05
7.764156081749996,47.23584391825001,2,0,-1.127057219479317,15.01960959297145,-0.4943648858839579,-1.562227077671097e-05,4.896439647309207e-05,-3.954919087071664e-06,5.437850239933732e-05,5.486222800023527e-05
8.48584391825,47.23584391825001,2,0,-1.013792555351492,15.47266824948274,-0.4863071922798145,-1.562227077671097e-05,5.032357244262597e-05,-3.890457538238516e-06,5.644883729923076e-05,5.595756979447261e-05
7.76415608175,45.26415608175001,2,0,-1.193586553588153,15.02223910037089,-0.898628117525498,-1.58372682517788e-05,4.902603436405736e-05,-7.189024940203984e-06,5.422644891991619e-05,5.476992042683865e-05
8.485843918250003,45.26415608175001,2,0,-1.076144111424229,15.49200886902658,-0.8870121767233681,-1.58372682517788e-05,5.043534367002445e-05,-7.096097413786945e-06,5.637037494557862e-05,5.596176677551341e-05
7.764156081749999,45.98584391825,2,0,-1.162610711448995,15.02998306090555,-0.7224644542797075,-1.574434072536122e-05,4.902603436405693e-05,-5.77971563423766e-06,5.433025482137927e-05,5.480539840266446e-05
8.485843918250003,45.98584391825,2,0,-1.045168269285062,15.49975282956128,-0.7108485134774828,-1.574434072536122e-05,5.043534367002412e-05,-5.686788107819862e-06,5.647545691971716e-05,5.595586313807089e-05
9.014156081750007,45.26415608175001,2,0,-1.4139207569684,15.72507015812773,-0.8590803956573079,-1.710460254880106e-05,5.145136111158344e-05,-6.872643165258463e-06,5.627746992807782e-05,5.68272935617206e-05
9.73584391825001,45.26415608175001,2,0,-1.300045593146003,16.18057081341732,-0.8467501901641246,-1.710460254880106e-05,5.28178630774522e-05,-6.774001521312996e-06,5.835410409548248e-05,5.800011036837624e-05
9.014156081750007,45.98584391825,2,0,-1.381040208986573,15.73329029512318,-0.6882676499238619,-1.700596090485558e-05,5.145136111158344e-05,-5.506141199390895e-06,5.638992712583508e-05,5.679392569236862e-05
9.73584391825001,45.98584391825,2,0,-1.267165045164249,16.18879095041248,-0.6759374444306244,-1.700596090485558e-05,5.281786307745134e-05,-5.407499555444995e-06,5.846775384418017e-05,5.793309043532184e-05
9.014156081750006,46.51415608175,2,0,-1.372374823095806,15.69089665938314,-0.6394287670120669,-1.694431676141309e-05,5.130876916850267e-05,-5.115430136096535e-06,5.624892625984543e-05,5.677559814080281e-05
9.73584391825001,46.51415608175,2,0,-1.26133886133517,16.13504050642568,-0.6307071060201118,-1.694431676141309e-05,5.264120070963031e-05,-5.045656848160895e-06,5.827538302380791e-05,5.78936218024847e-05
9.014156081750004,47.23584391825001,2,0,-1.349117060450588,15.69671110004458,-0.4728748243710439,-1.687454347347754e-05,5.13087691685031e-05,-3.782998594968352e-06,5.632864557236032e-05,5.675889420809653e-05
9.73584391825001,47.23584391825001,2,0,-1.238081098689988,16.14085494708698,-0.4641531633791025,-1.687454347347754e-05,5.264120070963031e-05,-3.71322530703282e-06,5.835591983354917e-05,5.785281142531815e-05
7.76415608175,44.01415608175001,2,0,-1.252620554471319,15.03948246236362,-1.132504950325519,-1.603997174419912e-05,4.912844032314064e-05,-9.060039602604153e-06,5.414773540965267e-05,5.471877023722879e-05
8.485843918250001,44.01415608175001,2,0,-1.129700192818801,15.5311639089737,-1.117068775367017,-1.603997174419912e-05,5.060348466297087e-05,-8.936550202936133e-06,5.638909259574533e-05,5.599929196340441e-05
7.76415608175,44.73584391825,2,0,-1.211457421248777,15.04977324566939,-0.9481244078467818,-1.59164823445316e-05,4.912844032314108e-05,-7.584995262774254e-06,5.428517259692801e-05,5.474670847986909e-05
8.485843918250003,44.73584391825,2,0,-1.088537059596267,15.54145469227943,-0.9326882328883064,-1.59164823445316e-05,5.060348466297119e-05,-7.461505863106451e-06,5.652832411310335e-05,5.59734034941894e-05
7.764156081750002,42.76415608175,2,0,-1.32515578331673,15.07170266678711,-1.363876576755118,-1.629786064004322e-05,4.928957316037213e-05,-1.091101261404095e-05,5.409342864386105e-05,5.47034557360951e-05
8.485843918250005,42.76415608175,2,0,-1.195582796569563,15.58999461377578,-1.344414215560878,-1.629786064004322e-05,5.084444900133815e-05,-1.075531372448702e-05,5.645283293050061e-05,5.609466030992676e-05
7.764156081750001,43.48584391825001,2,0,-1.273256153465341,15.08467757424996,-1.169517096634421,-1.614216175048906e-05,4.928957316037213e-05,-9.356136773075365e-06,5.426581508708033e-05,5.470718069946448e-05
8.485843918250001,43.48584391825001,2,0,-1.143683166718174,15.60296952123863,-1.15005473544014,-1.614216175048906e-05,5.084444900133815e-05,-9.200437883521116e-06,5.662763837747787e-05,5.603178262925699e-05
9.014156081750007,42.76415608175,2,0,-1.529174530172284,15.85133800283599,-1.278500845293201,-1.75744288988201e-05,5.194762123321298e-05,-1.02280067623456e-05,5.647682135707587e-05,5.709093610502947e-05
9.73584391825001,42.76415608175,2,0,-1.407587301327154,16.33768691821651,-1.25904832737091,-1.75744288988201e-05,5.340666797935454e-05,-1.007238661896728e-05,5.868944180398826e-05,5.842160762188521e-05
9.014156081750004,43.48584391825001,2,0,-1.477301149046238,15.86430634811736,-1.096120002025316,-1.741880875544185e-05,5.194762123321255e-05,-8.768960016202528e-06,5.665290236706094e-05,5.698464255428979e-05
9.73584391825001,43.48584391825001,2,0,-1.355713920200991,16.35065526349835,-1.076667484103011,-1.741880875544185e-05,5.340666797935551e-05,-8.613339872824092e-06,5.886757047727899e-05,5.826330235229383e-05
9.014156081750004,44.01415608175001,2,0,-1.46676200853786,15.77684629459086,-1.073267572880175,-1.731511546299384e-05,5.165931774952105e-05,-8.586140583041399e-06,5.634552015654363e-05,5.692328750822553e-05
9.73584391825001,44.01415608175001,2,0,-1.349299900449557,16.24669472694407,-1.057308172879495,-1.731511546299384e-05,5.306886304658068e-05,-8.458465383035961e-06,5.848546362443173e-05,5.816716855657584e-05
9.014156081750006,44.73584391825,2,0,-1.424203608536007,15.78748589459106,-0.8970744107477746,-1.718744026298806e-05,5.165931774952018e-05,-7.176595285982197e-06,5.649062033008162e-05,5.686195595580982e-05
9.73584391825001,44.73584391825,2,0,-1.306741500447631,16.25733432694456,-0.8811150107470136,-1.718744026298806e-05,5.306886304658068e-05,-7.048920085976108e-06,5.863216925142089e-05,5.806283141193009e-05
7.764156081750002,41.51415608175001,2,0,-1.409497793377292,15.12647218241711,-1.589354806218288,-1.661157068474102e-05,4.953230921843658e-05,-1.271483844974631e-05,5.409678531839032e-05,5.47652875608525e-05
8.485843918250007,41.51415608175001,2,0,-1.272314164647108,15.67520669733785,-1.56586326873711,-1.661157068474102e-05,5.117851276319879e-05,-1.252690614989688e-05,5.65908978870923e-05,5.628981345878528e-05
7.764156081750002,42.23584391825,2,0,-1.346853693427651,15.14213320740452,-1.383579363122944,-1.64236383848921e-05,4.953230921843658e-05,-1.106863490498355e-05,5.430334987266473e-05,5.471902542267824e-05
8.485843918250007,42.23584391825,2,0,-1.209670064697413,15.69086772232547,-1.360087825641833,-1.64236383848921e-05,5.117851276319944e-05,-1.088070260513467e-05,5.680061068486083e-05,5.616379946231904e-05
7.764156081750001,40.26415608175,2,0,-1.501771401540015,15.21333810759966,-1.803730307965546,-1.697633897100778e-05,4.988409906555094e-05,-1.442984246372437e-05,5.420402394494009e-05,5.497076187820858e-05
8.485843918250005,40.26415608175,2,0,-1.356367448542826,15.79495391958842,-1.776646231644848,-1.697633897100778e-05,5.162894650151721e-05,-1.421316985315878e-05,5.684334878213459e-05,5.665243199961731e-05
7.764156081750002,40.98584391825,2,0,-1.429547198018146,15.23139415848041,-1.585624378469791,-1.675966636044239e-05,4.988409906555181e-05,-1.268499502775832e-05,5.443969417530707e-05,5.483274014081523e-05
8.485843918250005,40.98584391825,2,0,-1.28414324502112,15.81300997046851,-1.558540302149132,-1.675966636044239e-05,5.162894650151612e-05,-1.246832241719306e-05,5.70829590590216e-05,5.642074215254584e-05
9.014156081750007,40.26415608175,2,0,-1.667197765384871,16.09538489069413,-1.641101778801106,-1.821134076178689e-05,5.283898986252911e-05,-1.312881423040885e-05,5.707058581329857e-05,5.78348404400814e-05
9.73584391825001,40.26415608175,2,0,-1.537110056566277,16.61573572596851,-1.616555523474775,-1.821134076178689e-05,5.440004236835223e-05,-1.29324441877982e-05,5.943265608961183e-05,5.938357025345617e-05
9.014156081750009,40.98584391825,2,0,-1.60174108451461,16.11174906091197,-1.445970215573284,-1.801497071917633e-05,5.283898986252998e-05,-1.156776172458627e-05,5.728930831403909e-05,5.754364433647045e-05
9.735843918250012,40.98584391825,2,0,-1.471653375696063,16.63209989618616,-1.421423960246994,-1.801497071917633e-05,5.440004236835255e-05,-1.137139168197595e-05,5.965424108918899e-05,5.902346814328235e-05
9.014156081750009,41.51415608175001,2,0,-1.597888051081714,15.9549770329085,-1.469940590607933,-1.787722338978828e-05,5.233423694617255e-05,-1.175952472486346e-05,5.670403214941561e-05,5.737213659075764e-05
9.735843918250012,41.51415608175001,2,0,-1.4719469141824,16.45874158050575,-1.447445258120387,-1.787722338978828e-05,5.384553058896432e-05,-1.15795620649631e-05,5.899322751720708e-05,5.880457247970615e-05
9.014156081750009,42.23584391825,2,0,-1.537900497781616,15.96997392123352,-1.281028885258826,-1.769726072988799e-05,5.233423694617255e-05,-1.024823108207061e-05,5.690638342213351e-05,5.719476481916967e-05
9.735843918250012,42.23584391825,2,0,-1.41195936088223,16.47373846883107,-1.258533552771267,-1.769726072988799e-05,5.384553058896519e-05,-1.006826842217014e-05,5.91980670280483e-05,5.856664051540792e-05
7.764156081750002,39.01415608175,2,0,-1.594489423440314,15.3438307360161,-1.999581650565432,-1.737743074382188e-05,5.037584989400377e-05,-1.599665320452346e-05,5.447804384624671e-05,5.543484002221554e-05
8.485843918250005,39.01415608175,2,0,-1.440779887292744,15.95866888060638,-1.970136362417963,-1.737743074382188e-05,5.222036432777461e-05,-1.57610908993437e-05,5.726406852170187e-05,5.730113121334974e-05
7.764156081750001,39.73584391825,2,0,-1.515968655046926,15.36346092811472,-1.76901734634424,-1.714186843864194e-05,5.037584989400464e-05,-1.415213877075392e-05,5.473015000834707e-05,5.513209405518766e-05
8.485843918250005,39.73584391825,2,0,-1.362259118899456,15.9782990727046,-1.739572058196716,-1.714186843864194e-05,5.222036432777429e-05,-1.391657646557373e-05,5.752085725333634e-05,5.688833153747757e-05
7.764156081750001,37.76415608175,2,0,-1.674578118203942,15.53125482069411,-2.16716316997831,-1.77836538348079e-05,5.10396779207843e-05,-1.733730535982648e-05,5.500300872998196e-05,5.63745805178865e-05
8.485843918250005,37.76415608175,2,0,-1.513215069042403,16.17670701734027,-2.137881018431477,-1.77836538348079e-05,5.297603451072277e-05,-1.710304814745182e-05,5.792483245482261e-05,5.846506373846906e-05
7.764156081750002,38.48584391825,2,0,-1.596492380745672,15.55077625505895,-1.925118596236136,-1.754939662243331e-05,5.103967792078517e-05,-1.540094876988909e-05,5.524662477142572e-05,5.576776326649194e-05
8.485843918250005,38.48584391825,2,0,-1.435129331584231,16.19622845170471,-1.895836444689304,-1.754939662243331e-05,5.297603451072245e-05,-1.516669155751443e-05,5.81736132414929e-05,5.77236153332724e-05
9.014156081750007,37.76415608175,2,0,-1.765317320949034,16.52077619830972,-1.887864006647793,-1.886563638568469e-05,5.427873769135033e-05,-1.510291205318235e-05,5.846171191616229e-05,5.990377376566115e-05
9.73584391825001,37.76415608175,2,0,-1.630092763709782,17.06167442726673,-1.865957228748953,-1.886563638568469e-05,5.590143237822135e-05,-1.492765782999163e-05,6.09148463503798e-05,6.17439194368933e-05
9.014156081750009,38.48584391825,2,0,-1.706899246552124,16.53538071690908,-1.685027170788916,-1.869038216249406e-05,5.427873769135077e-05,-1.348021736631132e-05,5.864742842195542e-05,5.907820577872055e-05
9.735843918250012,38.48584391825,2,0,-1.571674689312917,17.07627894586591,-1.663120392890103,-1.869038216249406e-05,5.590143237822125e-05,-1.330496314312082e-05,6.110350956240349e-05,6.082316363250911e-05
9.014156081750009,39.01415608175,2,0,-1.727781742184274,16.28105620896066,-1.783705494640172,-1.855374654215821e-05,5.348160526242153e-05,-1.426964395712137e-05,5.763277708123692e-05,5.85996549131507e-05
9.735843918250012,39.01415608175,2,0,-1.594343418816278,16.81480950243265,-1.758950340426924,-1.855374654215821e-05,5.50828651428375e-05,-1.407160272341539e-05,6.005388542044125e-05,6.028099644485585e-05
9.014156081750007,39.73584391825,2,0,-1.661767997615469,16.29755964510287,-1.583548009588055,-1.835570530845179e-05,5.348160526242153e-05,-1.266838407670444e-05,5.784984847380279e-05,5.811779762129278e-05
9.73584391825001,39.73584391825,2,0,-1.528329674247364,16.83131293857528,-1.558792855374752,-1.835570530845179e-05,5.50828651428388e-05,-1.247034284299802e-05,6.027402009546954e-05,5.972052394631159e-05
7.764156081750002,36.51415608175,2,0,-1.721052277348477,15.79019269333596,-2.295003504767973,-1.813952144218389e-05,5.190545844055384e-05,-1.836002803814378e-05,5.588942521678894e-05,5.823685411973366e-05
8.485843918250005,36.51415608175,2,0,-1.553651370741293,16.45979631976469,-2.270285487456121,-1.813952144218389e-05,5.391426931984004e-05,-1.816228389964897e-05,5.892018459543057e-05,6.062895965747217e-05
7.764156081750001,37.23584391825,2,0,-1.655137564516782,15.80667137154374,-2.043902144857157,-1.79417773036887e-05,5.190545844055341e-05,-1.635121715885725e-05,5.608176611966546e-05,5.70361714180311e-05
8.485843918250005,37.23584391825,2,0,-1.487736657909526,16.47627499797277,-2.019184127545265,-1.79417773036887e-05,5.391426931984048e-05,-1.615347302036212e-05,5.911760477133382e-05,5.92435484038485e-05
7.764156081749999,35.26415608175,2,0,-1.701245704718985,16.13477095324959,-2.37332795909933,-1.835180301770042e-05,5.299226361417386e-05,-1.898662367279464e-05,5.728037706961321e-05,6.20070076049074e-05
8.485843918250001,35.26415608175,2,0,-1.529983545476473,16.81981959021963,-2.360526019527481,-1.835180301770042e-05,5.5047409525084e-05,-1.888420815621984e-05,6.038497315128033e-05,6.489080602178475e-05
7.764156081750001,35.98584391825,2,0,-1.667107199194048,16.14330557963109,-2.116434720235644,-1.824938750112583e-05,5.299226361417473e-05,-1.693147776188515e-05,5.734944354126942e-05,5.956878566167312e-05
8.485843918250005,35.98584391825,2,0,-1.495845039951654,16.82835421660067,-2.103632780663849,-1.824938750112583e-05,5.504740952508346e-05,-1.682906224531079e-05,6.045812258057934e-05,6.214213777560161e-05
9.014156081750004,35.26415608175,2,0,-1.682835103738554,17.19450817141555,-1.938750527235461,-1.914067886909581e-05,5.636869423152058e-05,-1.551000421788368e-05,6.128472942890826e-05,6.684091384864274e-05
9.73584391825001,35.26415608175,2,0,-1.553279183864104,17.71273185091335,-1.937656742417656,-1.914067886909581e-05,5.792336527001398e-05,-1.550125393934125e-05,6.364133485545892e-05,6.928490909520565e-05
9.014156081750007,35.98584391825,2,0,-1.679918344224378,17.19523736129423,-1.744416647423785,-1.913192859055339e-05,5.636869423152101e-05,-1.395533317939028e-05,6.126015260271815e-05,6.388883733227345e-05
9.73584391825001,35.98584391825,2,0,-1.550362424349983,17.71346104079181,-1.743322862605913,-1.913192859055339e-05,5.792336527001376e-05,-1.394658290084731e-05,6.361806040835772e-05,6.608755715293337e-05
9.014156081750009,36.51415608175,2,0,-1.758885998885145,16.82281150409196,-1.942840680660884,-1.908668439970603e-05,5.524010561220238e-05,-1.554272544528707e-05,5.964561416688903e-05,6.22583611308021e-05
9.735843918250012,36.51415608175,2,0,-1.624432562708667,17.36062524879787,-1.928483286960269,-1.908668439970603e-05,5.685354684632012e-05,-1.542786629568215e-05,6.208661296805212e-05,6.431786320431783e-05
9.014156081750007,37.23584391825,2,0,-1.720599615683471,16.83238309989238,-1.74116052639614,-1.897182525010101e-05,5.524010561220238e-05,-1.392928421116912e-05,5.975416361689968e-05,6.075589382403038e-05
9.73584391825001,37.23584391825,2,0,-1.58614617950702,17.37019684459818,-1.726803132695456,-1.897182525010101e-05,5.685354684631979e-05,-1.381442506156365e-05,6.219752678274484e-05,6.268032136491969e-05
7.76415608175,34.01415608175,2,0,-1.552392076467323,16.57503656871829,-2.39393019613903,-1.822768389967006e-05,5.428203068107238e-05,-1.915144156911224e-05,5.939369831217044e-05,6.997566210696968e-05
8.485843918250001,34.01415608175,2,0,-1.379699409373369,17.26580723709411,-2.408718153082528,-1.822768389967006e-05,5.635434268619983e-05,-1.926974522466023e-05,6.253560956842077e-05,7.383578770535983e-05
7.764156081749999,34.73584391825,2,0,-1.591826628316547,16.56517793075585,-2.134891195498139,-1.834598755521763e-05,5.428203068107195e-05,-1.707912956398511e-05,5.918179940347681e-05,6.479552174406831e-05
8.48584391825,34.73584391825,2,0,-1.419133961222548,17.25594859913185,-2.149679152441597,-1.834598755521763e-05,5.635434268619994e-05,-1.719743321953278e-05,6.232528957325083e-05,6.802411007693822e-05
7.76415608175,32.76415608175,2,0,-1.38246226287177,17.10509049081303,-2.363135957408205,-1.810795163384008e-05,5.58422593808991e-05,-1.890508765926564e-05,6.190271692777765e-05,8.771988432684526e-05
8.485843918250001,32.76415608175001,2,0,-1.220112684383201,17.75448880476722,-2.370129799024345,-1.810795163384002e-05,5.779045432276165e-05,-1.896103839219476e-05,6.485981552137714e-05,9.390106754444558e-05
7.76415608175,33.48584391825,2,0,-1.40111250718151,17.10042792973559,-2.119611589675467,-1.81639023667693e-05,5.58422593808991e-05,-1.695689271740373e-05,6.177651054361646e-05,7.611822654783184e-05
8.485843918250001,33.48584391825,2,0,-1.238762928693045,17.74982624368948,-2.126605431291607,-1.816390236676933e-05,5.779045432276078e-05,-1.701284345033286e-05,6.473540317322336e-05,8.076949756113715e-05
9.01415608175,32.76415608175001,2,0,-1.297137775937304,18.20154754195825,-1.831440443442328,-1.871207891656597e-05,5.928266235501623e-05,-1.465152354753862e-05,6.623926259710076e-05,9.803097776396636e-05
9.735843918250001,32.76415608175001,2,0.03157968394819333,-1.084393498534224,18.31387272882206,-1.781606177837198,-1.871207891656597e-05,6.141125557291227e-05,-1.471762744590657e-05,6.947916617430379e-05,0.0001031329190972744
9.01415608175,33.48584391825,2,0,-1.319172408726804,18.19603888376087,-1.565366291205242,-1.877818281493447e-05,5.928266235501623e-05,-1.252293032964194e-05,6.611164798598127e-05,8.391473265391208e-05
9.735843918250001,33.48584391825,2,0,-1.141789640568784,18.90556995639296,-1.573629278501317,-1.877818281493447e-05,6.141125557291248e-05,-1.258903422801053e-05,6.93527998792672e-05,8.785640371618187e-05
9.01415608175,34.01415608175,2,0,-1.487988742785268,17.64122832004257,-1.876706957038964,-1.887454663294691e-05,5.764232161836443e-05,-1.501365565631171e-05,6.35457984159349e-05,7.645994514924693e-05
9.735843918250003,34.01415608175,2,0,-1.367446086387504,18.12339894563362,-1.901352825596953,-1.887454663294691e-05,5.90888334951376e-05,-1.521082260477562e-05,6.57468893723533e-05,7.976915101492125e-05
9.014156081750002,34.73584391825,2,0,-1.553711058939976,17.62479774100376,-1.695892972442264,-1.907171358141093e-05,5.7642321618364e-05,-1.356714377953811e-05,6.3260984845654e-05,7.020933203606053e-05
9.735843918250008,34.73584391825,2,0,-1.433168402542239,18.10696836659471,-1.720538841000279,-1.907171358141093e-05,5.908883349513684e-05,-1.376431072800223e-05,6.546172241104722e-05,7.29508811215818e-05
7.76415608175,31.51415608175,2,0.2134443669414197,-0.4891861487633928,15.88524764059732,-2.199180235362997,-1.814696022583523e-05,6.512462592090686e-05,-2.236770184264089e-05,7.606107742799068e-05,0.0001258422345686571
8.485843918250001,31.51415608175,2,0.2725165025798116,-0.04549693710887848,16.32002986735909,-2.030056668840553,-1.814696022583525e-05,7.183735893743712e-05,-2.232415361766492e-05,8.630289918114633e-05,0.0001355392944896448
7.76415608175,32.23584391825,2,0.01073501002094668,-0.6008978631191537,19.98274816204381,-1.935864072360617,-1.810341200085888e-05,6.512462592090686e-05,-1.565496882611084e-05,7.595514621666057e-05,0.0001010433921200494
8.485843918250001,32.23584391825001,2,0.08211384640658859,-0.04408064617895224,20.59476642576562,-1.791188350963005,-1.810341200085886e-05,7.183735893743679e-05,-1.561142060113423e-05,8.621638141265164e-05,0.000108576590400599
7.764156081749999,30.26415608175,2,0.5071913550377031,1.211027287129578,16.24191248708437,-1.632139507450292,-1.850260291507355e-05,0.000103499195175175,-2.649530642994562e-05,0.0001344649233608629,0.0001953972195174002
8.48584391825,30.26415608175,2,0.5378574310862749,1.49312391787613,16.66104622495786,-1.516210431654925,-1.850260291507355e-05,0.0001127808868766954,-2.624662662379371e-05,0.0001487317696602105,0.0002073773079773128
7.76415608175,30.98584391825,2,0.3515532520870259,1.647244018034808,21.38484741793134,-1.395264061309305,-1.825392310892158e-05,0.000103499195175175,-1.721361472842558e-05,0.0001346532834013252,0.0001511242664217759
8.485843918250001,30.98584391825,2,0.3977361234935053,1.995761679506371,21.72514483431373,-1.277170933871119,-1.825392310892158e-05,0.0001127808868766951,-1.696493492227367e-05,0.000148937108344688,0.0001620128669751167
9.01415608175,30.26415608175,2,0.55396546819048,1.851842323708464,16.95094639438209,-0.836112716448145,-1.711719863631336e-05,0.0001182902910880179,-1.499637641159512e-05,0.0001589589093045022,0.000214280224977344
9.735843918250001,30.26415608175,2,0.5690141959716746,1.996605561369595,17.20800926670847,-0.8607142786510255,-1.711719863631336e-05,0.0001240605716119071,-1.597666133048702e-05,0.0001678613414980538,0.0002211592564827492
9.01415608175,30.98584391825,2,0.4229359794432681,2.207287039897772,21.88340643749875,-0.6655059983752227,-1.809748355520533e-05,0.0001182902910880179,-9.226095887706395e-06,0.0001575719687171591,0.0001686444755026218
9.735843918250001,30.98584391825,2,0.4482375788387039,2.375826332487709,21.98519450913438,-0.7039371731428423,-1.809748355520533e-05,0.0001240605716119064,-1.020638080659808e-05,0.0001664709695814259,0.0001758737663831022
9.01415608175,31.51415608175001,2,0.3055305271985876,0.128262185344135,16.57719848775784,-1.401959459228355,-1.850523356377962e-05,7.623722494090037e-05,-1.614999091116857e-05,9.242905437056628e-05,0.0001416400768352363
9.735843918250001,31.51415608175001,2,0.3399288509132004,0.4138764443277685,16.92396925551561,-1.343550049229858,-1.850523356377962e-05,8.154514939284166e-05,-1.628369973253512e-05,0.0001005674542057908,0.0001486106642490325
9.01415608175,32.23584391825001,2,0.1236275590540656,0.1227984311262293,20.90951301790691,-1.187711030971406,-1.863894238514664e-05,7.623722494090037e-05,-1.08420664592275e-05,9.21750266847008e-05,0.0001134984371196794
9.735843918250001,32.23584391825001,2,0.1689756133902446,0.4840287587085514,21.29788461317303,-1.140142115015307,-1.863894238514664e-05,8.154514939284134e-05,-1.097577528059437e-05,0.0001003177109217192,0.0001194119741432952
7.76415608175,29.01415608175,2,0.6937422225950067,2.891795540002016,17.16019277515397,-0.9268233716391937,-1.460994241527392e-05,0.0001717480643077165,-2.42102814039186e-05,0.0002449658273846407,0.0003014911950523163
8.485843918250001,29.01415608175,2,0.703907881719545,2.992871174819222,17.37884569639429,-1.003994344407063,-1.460994241527392e-05,0.0001797346366315596,-2.712654021965128e-05,0.0002573205288655582,0.0003107071885691267
7.764156081749999,29.73584391825,2,0.5979005882551889,3.405891233833946,22.43265894172186,-0.8154429846771457,-1.752620123100641e-05,0.0001717480643077165,-1.622370908007514e-05,0.0002408512134072829,0.0002356879166110478
8.48584391825,29.73584391825,2,0.6184026611489168,3.486204336523933,22.30475703349651,-0.9129701018419287,-1.752620123100641e-05,0.0001797346366315599,-1.913996789580782e-05,0.0002531965043445524,0.0002472198313662815
7.76415608175,27.76415608175,2,0.7973104530040361,3.977363828404123,18.13116789238799,-0.6360526960333209,-8.768928094020501e-06,0.0002705509337095229,-2.510450905673933e-05,0.0004057026042402625,0.0004325329251666033
8.485843918250001,27.76415608175,2,0.7973630779622221,4.015637210027018,18.28368458828671,-0.7244021507975569,-8.768928094020501e-06,0.0002728786065166696,-2.85990191131113e-05,0.000409320884295946,0.0004326288443512191
7.76415608175,28.48584391825,2,0.7447256899636825,4.711878340193471,22.76068925141711,-0.7267926448031565,-1.22634381503928e-05,0.0002705509337095229,-2.277683624959384e-05,0.0004007828535829251,0.0003542356561272333
8.485843918250001,28.48584391825,2,0.7496930125842681,4.668743741021208,22.5120052875648,-0.8219876936502112,-1.22634381503928e-05,0.0002728786065166693,-2.627134630596569e-05,0.0004043991620253916,0.0003603873838663461
9.01415608175,27.76415608175,2,0.7964672551615061,4.153785652637478,18.39333923586591,-0.127920778028967,-6.989328922879795e-06,0.0002728585863504629,-5.028017604949962e-06,0.0004116955801196373,0.0004310018861559342
9.735843918250001,27.76415608175,2,0.7939303911690323,4.164647934649151,18.45895208500761,-0.2250170866532585,-6.989328922879795e-06,0.0002704762174320632,-8.735575825267192e-06,0.0004080214818832715,0.0004264610345198206
9.01415608175,28.48584391825,2,0.751558423441177,4.763267612167494,22.37500983132961,-0.2301310138464031,-1.069688714319718e-05,0.0002728585863504629,-7.41038652334958e-06,0.0004064872538832884,0.0003627536364150697
9.735843918250001,28.48584391825,2,0.7518033320623861,4.709297411501888,22.15585432881535,-0.3449296049615864,-1.069688714319718e-05,0.0002704762174320631,-1.111794474366714e-05,0.0004028157521060711,0.000363066630862884
9.01415608175,29.01415608175,2,0.7086528049736791,3.202776510543702,17.56302000818716,-0.3965205608448477,-1.304811317118204e-05,0.0001841083207027891,-1.088791840426746e-05,0.0002661297263841707,0.0003152058775547204
9.735843918250001,29.01415608175,2,0.711818052357224,3.263142376940193,17.75285784117902,-0.4900544521287917,-1.304811317118204e-05,0.0001880708754783076,-1.360402915275602e-05,0.0002722608216267327,0.0003182805309145251
9.01415608175,29.73584391825,2,0.6288626091064402,3.743892503949501,22.2889361845586,-0.321282673520349,-1.576422391967082e-05,0.0001841083207027891,-6.925363628748279e-06,0.0002623327123699341,0.0002535512342975547
9.735843918250001,29.73584391825,2,0.6379417667719287,3.771861721255146,22.22190571073023,-0.4363468973420206,-1.576422391967082e-05,0.0001880708754783075,-9.641474377237048e-06,0.0002684589167802076,0.0002593170340344854
10.26415608175001,49.01415608175001,2,0,-1.538538422056761,16.30559254111022,-0.182766995913741,-1.796779698346981e-05,5.340872686919809e-05,-1.462135967309928e-06,5.810525740547798e-05,5.856647582478456e-05
10.98584391825,49.01415608175001,2,0,-1.433964198611454,16.72388943489144,-0.1810830732205341,-1.796779698346981e-05,5.466361755054178e-05,-1.448664585764273e-06,6.001339233961865e-05,5.96087230828838e-05
10.26415608175001,49.73584391825,2,0,-1.534047961541452,16.30671515623904,-0.02590566074568527,-1.795432560192388e-05,5.340872686919809e-05,-2.072452859654822e-07,5.812082508954494e-05,5.855647318388685e-05
10.98584391825,49.73584391825,2,0,-1.429473738096064,16.7250120500206,-0.02422173805250545,-1.795432560192388e-05,5.466361755054275e-05,-1.937739044200436e-07,6.002909908145173e-05,5.959486238079733e-05
10.26415608175001,47.76415608175001,2,0,-1.553441465544897,16.32105146845936,-0.3907396348277781,-1.802785386451116e-05,5.347011787150587e-05,-3.125917078622225e-06,5.812776031836266e-05,5.861289782449915e-05
10.98584391825,47.76415608175001,2,0,-1.448265961929342,16.74175348292158,-0.385695254520192,-1.802785386451116e-05,5.473222391489253e-05,-3.085562036161536e-06,6.00463352818412e-05,5.967229528127343e-05
10.26415608175001,48.48584391825001,2,0,-1.539989784724613,16.32441438866443,-0.2329763794044855,-1.79874988220503e-05,5.347011787150587e-05,-1.863811035235884e-06,5.817436663383634e-05,5.858159476166937e-05
10.98584391825,48.48584391825001,2,0,-1.434814281109012,16.74511640312684,-0.2279319990969265,-1.79874988220503e-05,5.473222391489307e-05,-1.823455992775412e-06,6.009336118909968e-05,5.962947116603332e-05
11.51415608175,47.76415608175001,2,0,-1.743917594678355,16.94863746140882,-0.3562921303607627,-1.913944627209779e-05,5.56307739522509e-05,-2.850337042886101e-06,5.998375171365046e-05,6.043394220396431e-05
12.23584391825,47.76415608175001,2,0,-1.644519402017847,17.34623023205085,-0.351903530435756,-1.913944627209779e-05,5.6823552264177e-05,-2.815228243486048e-06,6.179533117832027e-05,6.145540283749847e-05
11.51415608175,48.48584391825001,2,0,-1.732214661545036,16.95156319469215,-0.2071948413701497,-1.910433747269783e-05,5.56307739522509e-05,-1.657558730961198e-06,6.002438448516854e-05,6.038369125023771e-05
12.23584391825,48.48584391825001,2,0,-1.632816468884528,17.34915596533418,-0.2028062414451159,-1.910433747269783e-05,5.6823552264177e-05,-1.622449931560927e-06,6.183629688088348e-05,6.139638243609663e-05
11.51415608175,49.01415608175001,2,0,-1.732521244573648,16.92887054443168,-0.1687962571847288,-1.908716441818102e-05,5.55584027378403e-05,-1.350370057477831e-06,5.993573581508331e-05,6.035931259977454e-05
12.23584391825,49.01415608175001,2,0,-1.633378918547018,17.3254398485382,-0.1673201499267923,-1.908716441818102e-05,5.674811065015984e-05,-1.338561199414339e-06,6.174303465532934e-05,6.136771403753656e-05
11.51415608175,49.73584391825,2,0,-1.728584958552601,16.92985461593694,-0.02008276814475813,-1.907535556011788e-05,5.55584027378403e-05,-1.60662145158065e-07,5.994941235535588e-05,6.034295984181296e-05
12.23584391825,49.73584391825,2,0,-1.629442632525972,17.32642392004346,-0.01860666088690293,-1.907535556011788e-05,5.674811065015984e-05,-1.488532870952235e-07,6.175682271759435e-05,6.134841091749734e-05
10.26415608175001,46.51415608175,2,0,-1.578371505332438,16.35413734337903,-0.595552313082534,-1.813409869176702e-05,5.359593670307885e-05,-4.764418504660272e-06,5.819326664416753e-05,5.870166337773983e-05
10.98584391825,46.51415608175,2,0,-1.472041863590766,16.77945591034572,-0.5871818742630318,-1.813409869176702e-05,5.48718924039789e-05,-4.697454994104255e-06,6.01319865070275e-05,5.979125035437679e-05
10.26415608175001,47.23584391825001,2,0,-1.556050335147035,16.35971763592566,-0.4360578504700543,-1.806713518121103e-05,5.359593670307972e-05,-3.488462803760434e-06,5.827050511170235e-05,5.864507011321055e-05
10.98584391825,47.23584391825001,2,0,-1.449720693405427,16.78503620289209,-0.4276874116505521,-1.806713518121103e-05,5.487189240397901e-05,-3.421499293204417e-06,6.020993103764963e-05,5.971564388414087e-05
10.26415608175001,45.26415608175001,2,0,-1.61243689209402,16.40692876988474,-0.7943383819978569,-1.828534107060865e-05,5.379212157730637e-05,-6.354707055982855e-06,5.831187873495309e-05,5.88438471384603e-05
10.98584391825,45.26415608175001,2,0,-1.504501745797751,16.83866935506981,-0.7827415961233575,-1.828534107060865e-05,5.508734333286159e-05,-6.26193276898686e-06,6.027862773592132e-05,5.997616205598643e-05
10.26415608175001,45.98584391825,2,0,-1.581512129762094,16.41465996046785,-0.632435662553481,-1.819256678361298e-05,5.37921215773068e-05,-5.059485300427848e-06,5.841866934720296e-05,5.875492552112771e-05
10.98584391825,45.98584391825,2,0,-1.473576983465898,16.84640054565264,-0.6208388766790087,-1.819256678361298e-05,5.508734333286116e-05,-4.96671101343207e-06,6.038641611570517e-05,5.986105598813427e-05
11.51415608175,45.26415608175001,2,0,-1.785625557168684,17.05437553774467,-0.7136180235133385,-1.935750221313552e-05,5.600250216651788e-05,-5.708944188106708e-06,6.028859850588852e-05,6.078448757853499e-05
12.23584391825,45.26415608175001,2,0,-1.685205667577143,17.45605509611083,-0.7039307319412348,-1.935750221313552e-05,5.720754084161637e-05,-5.631445855529878e-06,6.211735809903949e-05,6.186055905776008e-05
11.51415608175,45.98584391825,2,0,-1.759792779643107,17.06083373212606,-0.5629881891260264,-1.928000388055879e-05,5.600250216651788e-05,-4.503905513008211e-06,6.037792181052005e-05,6.065267739359715e-05
12.23584391825,45.98584391825,2,0,-1.659372890051565,17.46251329049223,-0.5533008975539228,-1.928000388055879e-05,5.720754084161637e-05,-4.426407180431382e-06,6.220743058409794e-05,6.17092968267662e-05
11.51415608175,46.51415608175,2,0,-1.762086875965796,16.98995799159621,-0.5391126445079548,-1.923064439636751e-05,5.577753507388051e-05,-4.312901156063639e-06,6.009824102213379e-05,6.057228981101074e-05
12.23584391825,46.51415608175,2,0,-1.662228035392489,17.38939335388944,-0.531943358748633,-1.923064439636751e-05,5.69758411607602e-05,-4.255546869989064e-06,6.191758876545773e-05,6.161654231270443e-05
11.51415608175,47.23584391825001,2,0,-1.742968780607455,16.9947375154358,-0.3893243836480343,-1.917329011029249e-05,5.577753507388051e-05,-3.114595069184274e-06,6.016451837743908e-05,6.048447703601554e-05
12.23584391825,47.23584391825001,2,0,-1.643109940034148,17.39417287772903,-0.3821550978886853,-1.917329011029249e-05,5.69758411607602e-05,-3.057240783109483e-06,6.198441433331411e-05,6.151439449863942e-05
10.26415608175001,44.01415608175001,2,0,-1.65397805276177,16.48250338489776,-0.9835701150311262,-1.847873247675587e-05,5.406719327388223e-05,-7.86856092024901e-06,5.849941858434267e-05,5.905684494218337e-05
10.98584391825,44.01415608175001,2,0,-1.544149418863564,16.92181792049058,-0.9689809225598078,-1.847873247675587e-05,5.53851368806607e-05,-7.751847380478463e-06,6.049917215957427e-05,6.024360498171038e-05
10.26415608175001,44.73584391825,2,0,-1.615073539504876,16.49222951321225,-0.8188271641839132,-1.83620189369854e-05,5.40671932738831e-05,-6.550617313471306e-06,5.863335335978164e-05,5.892474620350892e-05
10.98584391825,44.73584391825,2,0,-1.505244905606743,16.93154404880478,-0.804237971712622,-1.83620189369854e-05,5.53851368806607e-05,-6.433903773700976e-06,6.063439309895193e-05,6.007866574987729e-05
10.26415608175001,42.76415608175,2,0,-1.700163394639038,16.58485208634647,-1.158809284538409,-1.870840453192209e-05,5.443165739201991e-05,-9.270474276307271e-06,5.87781700419283e-05,5.936683111952676e-05
10.98584391825,42.76415608175,2,0,-1.588390360755935,17.03194422187888,-1.141701995196369,-1.870840453192209e-05,5.577293379861715e-05,-9.133615961570956e-06,6.081171861030831e-05,6.061855822284552e-05
10.26415608175001,43.48584391825001,2,0,-1.654543956393694,16.5962569459078,-0.9911497337138087,-1.857154621718606e-05,5.443165739201991e-05,-7.929197869710469e-06,5.89345036550774e-05,5.917530123841265e-05
10.98584391825,43.48584391825001,2,0,-1.542770922510591,17.04334908144021,-0.9740424443717963,-1.857154621718606e-05,5.577293379861715e-05,-7.792339554974371e-06,6.096960270165167e-05,6.038826873383737e-05
11.51415608175,42.76415608175,2,0,-1.838048509015938,17.2617693580092,-1.020267632146209,-1.969117071525836e-05,5.67081007528422e-05,-8.162141057169669e-06,6.095955726242812e-05,6.150207207512616e-05
12.23584391825,42.76415608175,2,0,-1.736911240181418,17.66631843334728,-1.007222107259518,-1.969117071525836e-05,5.792174797885643e-05,-8.05777685807614e-06,6.279966510655371e-05,6.266414970553166e-05
11.51415608175,43.48584391825001,2,0,-1.803260442651315,17.27046637460036,-0.8685617288943623,-1.958680651616449e-05,5.67081007528422e-05,-6.948493831154898e-06,6.107849377401595e-05,6.124754912109733e-05
12.23584391825,43.48584391825001,2,0,-1.702123173816796,17.67501544993844,-0.8555162040076711,-1.958680651616449e-05,5.792174797885643e-05,-6.844129632061369e-06,6.291964453370821e-05,6.238217930171407e-05
11.51415608175,44.01415608175001,2,0,-1.812171240440079,17.14408501681237,-0.8756286946829778,-1.951421598285815e-05,5.631080904615164e-05,-7.005029557463822e-06,6.056915665623076e-05,6.108641380822051e-05
12.23584391825,44.01415608175001,2,0,-1.711251258723049,17.54776494368049,-0.8638840914260393,-1.951421598285815e-05,5.7521848826756e-05,-6.911072731408314e-06,6.240613200512552e-05,6.220225030388452e-05
11.51415608175,44.73584391825,2,0,-1.780852298421454,17.15191475231703,-0.7242487221074869,-1.942025915680227e-05,5.631080904615164e-05,-5.793989776859895e-06,6.067699354855613e-05,6.090070690055766e-05
12.23584391825,44.73584391825,2,0,-1.679932316704424,17.55559467918514,-0.7125041188504943,-1.942025915680227e-05,5.7521848826756e-05,-5.700032950803954e-06,6.251489042732422e-05,6.199264554385593e-05
10.26415608175001,41.51415608175001,2,0,-1.746424552306936,16.7187029006604,-1.314494457659165,-1.896352088791051e-05,5.489698892395881e-05,-1.051595566127332e-05,5.917774626974005e-05,5.981413290452683e-05
10.98584391825,41.51415608175001,2,0,-1.632979223092279,17.17248421751902,-1.295733575219511,-1.896352088791051e-05,5.625833287453469e-05,-1.036586860175609e-05,6.124022559387757e-05,6.113986738961646e-05
10.26415608175001,42.23584391825,2,0,-1.696395532467723,16.7312101556202,-1.144326463837315,-1.881343382839287e-05,5.489698892395881e-05,-9.154611710698521e-06,5.934796389600586e-05,5.953800554855616e-05
10.98584391825,42.23584391825,2,0,-1.582950203253103,17.18499147247868,-1.125565581397566,-1.881343382839287e-05,5.625833287453425e-05,-9.004524651180529e-06,6.141219654118751e-05,6.081994847568758e-05
10.26415608175001,40.26415608175,2,0,-1.785731128444025,16.88920229596229,-1.443832686439812,-1.922570144779071e-05,5.547403224983455e-05,-1.15506614915185e-05,5.973594228082673e-05,6.046565466293419e-05
10.98584391825,40.26415608175,2,0,-1.671302593666911,17.34691643507075,-1.424868463414768,-1.922570144779071e-05,5.684717466715992e-05,-1.139894770731814e-05,6.18152384122326e-05,6.187323443445718e-05
10.26415608175001,40.98584391825,2,0,-1.735159867043843,16.90184511131234,-1.272189884274127,-1.907398766359017e-05,5.547403224983455e-05,-1.017751907419302e-05,5.990586709739064e-05,6.006269573557613e-05
10.98584391825,40.98584391825,2,0,-1.620731332266657,17.35955925042108,-1.253225661249015,-1.907398766359017e-05,5.684717466716079e-05,-1.002580528999212e-05,6.19870019515254e-05,6.142209451165902e-05
11.51415608175,40.26415608175,2,0,-1.863723781202928,17.59250243532587,-1.234075758195868,-2.003791804811006e-05,5.778698681800512e-05,-9.872606065566944e-06,6.21766911228951e-05,6.285236260551567e-05
12.23584391825,40.26415608175,2,0,-1.764184437164263,17.99065981148053,-1.222536819459391,-2.003791804811006e-05,5.89814589464691e-05,-9.78029455567513e-06,6.398715249936944e-05,6.411981074456018e-05
11.51415608175,40.98584391825,2,0,-1.832953277905657,17.60019506115019,-1.084766742137871,-1.994560653821825e-05,5.778698681800512e-05,-8.678133937102973e-06,6.227756807721266e-05,6.237195764676387e-05
12.23584391825,40.98584391825,2,0,-1.733413933866992,17.99835243730485,-1.073227803401395,-1.994560653821825e-05,5.89814589464691e-05,-8.585822427211159e-06,6.408903475910933e-05,6.360763321613438e-05
11.51415608175,41.51415608175001,2,0,-1.857811220237407,17.41033322346254,-1.141876714792528,-1.987326248352973e-05,5.719931529127005e-05,-9.135013718340225e-06,6.148507277340331e-05,6.206913564830917e-05
12.23584391825,41.51415608175001,2,0,-1.757022235147253,17.81348916382316,-1.128709699398635,-1.987326248352973e-05,5.84087831123519e-05,-9.029677595189076e-06,6.33182935753153e-05,6.328220925993704e-05
11.51415608175,42.23584391825,2,0,-1.822699179187016,17.41911123372514,-0.9906932371572699,-1.976792636037856e-05,5.719931529127005e-05,-7.925545897258159e-06,6.160356117925015e-05,6.172221552159802e-05
12.23584391825,42.23584391825,2,0,-1.721910194096862,17.82226717408576,-0.977526221763417,-1.976792636037856e-05,5.84087831123519e-05,-7.820209774107335e-06,6.343786466347513e-05,6.290531200599382e-05
10.26415608175001,39.01415608175,2,0,-1.807756063673478,17.10138728418274,-1.538924180736074,-1.946592923110132e-05,5.617064416032352e-05,-1.231139344588859e-05,6.049927825634432e-05,6.144481746863302e-05
10.98584391825,39.01415608175,2,0,-1.693538758432993,17.55825650514468,-1.522023261133677,-1.946592923110132e-05,5.754125182320935e-05,-1.217618608906942e-05,6.25745228466974e-05,6.294309410493912e-05
10.26415608175001,39.73584391825,2,0,-1.762686944733741,17.1126545639178,-1.367598222875319,-1.933072187428221e-05,5.617064416032396e-05,-1.094078578300255e-05,6.064678020425155e-05,6.083599306513676e-05
10.98584391825,39.73584391825,2,0,-1.64846963949322,17.56952378487989,-1.350697303272909,-1.933072187428221e-05,5.754125182321022e-05,-1.080557842618327e-05,6.272376210374959e-05,6.228078504715197e-05
10.26415608175001,37.76415608175,2,0,-1.79801473731313,17.35937291658626,-1.591314835397585,-1.964114549267102e-05,5.698840512292653e-05,-1.273051868318068e-05,6.152286286099142e-05,6.300554935565588e-05
10.98584391825,37.76415608175,2,0,-1.685767230793888,17.80836294266323,-1.579810022433358,-1.964114549267102e-05,5.833537520115743e-05,-1.263848017946686e-05,6.356339407043011e-05,6.461224072297864e-05
10.26415608175001,38.48584391825,2,0,-1.767335236075348,17.36704279189557,-1.422943575618574,-1.954910698895757e-05,5.69884051229261e-05,-1.138354860494859e-05,6.161523851291425e-05,6.202614832459338e-05
10.98584391825,38.48584391825,2,0,-1.65508772955607,17.81603281797268,-1.411438762654454,-1.954910698895757e-05,5.833537520115743e-05,-1.129151010123564e-05,6.365715350653212e-05,6.356780577044639e-05
11.51415608175,37.76415608175,2,0,-1.78918763778672,18.0641442876597,-1.303507437670344,-2.017671587104527e-05,5.923661183074042e-05,-1.042805950136276e-05,6.420636501409645e-05,6.571167031666611e-05
12.23584391825,37.76415608175,2,0,-1.696249789158596,18.4358956821722,-1.303351366788567,-2.017671587104527e-05,6.035186601427791e-05,-1.042681093430854e-05,6.589920722918353e-05,6.710867645877004e-05
11.51415608175,38.48584391825,2,0,-1.788771448768798,18.06424833491419,-1.164100664728077,-2.01754673039915e-05,5.923661183074042e-05,-9.312805317824614e-06,6.419153729934965e-05,6.462778360428852e-05
12.23584391825,38.48584391825,2,0,-1.695833600140674,18.43599972942668,-1.163944593846381,-2.01754673039915e-05,6.035186601427791e-05,-9.311556750771048e-06,6.588477970914723e-05,6.598203945551212e-05
11.51415608175,39.01415608175,2,0,-1.845301994524637,17.81026654175544,-1.290079047437957,-2.015317961588318e-05,5.84690945292371e-05,-1.032063237950366e-05,6.307061003050164e-05,6.39768613110016e-05
12.23584391825,39.01415608175,2,0,-1.748276515231356,18.19836845892856,-1.282623731282476,-2.015317961588318e-05,5.963340028075647e-05,-1.026098985025981e-05,6.483609794039237e-05,6.530288920497685e-05
11.51415608175,39.73584391825,2,0,-1.825421151443277,17.81523675252578,-1.144540828497995,-2.009353708663911e-05,5.84690945292371e-05,-9.156326627983956e-06,6.312965342550263e-05,6.328239524626453e-05
12.23584391825,39.73584391825,2,0,-1.728395672149996,18.2033386696989,-1.137085512342446,-2.009353708663911e-05,5.963340028075647e-05,-9.096684098739566e-06,6.489592160650799e-05,6.457405321772041e-05
10.26415608175001,36.51415608175,2,0,-1.737605557233215,17.66506980071058,-1.593329121553046,-1.969239362371475e-05,5.791830780806041e-05,-1.274663297242437e-05,6.286724112507009e-05,6.571769683231851e-05
10.98584391825,36.51415608175,2,0,-1.629643906283683,18.0969164045087,-1.591722297431127,-1.969239362371475e-05,5.921384761945479e-05,-1.273377837944902e-05,6.483257358470993e-05,6.748261135280673e-05
10.26415608175001,37.23584391825,2,0,-1.733320692908066,17.66614101679173,-1.431386645128817,-1.967953903073919e-05,5.791830780805998e-05,-1.145109316103054e-05,6.285981918165283e-05,6.399469679709036e-05
10.98584391825,37.23584391825,2,0,-1.625359041958544,18.09798762058982,-1.429779821006817,-1.967953903073919e-05,5.921384761945424e-05,-1.143823856805453e-05,6.482590820023975e-05,6.56612097172643e-05
10.26415608175001,35.26415608175,2,0,-1.601586783814017,18.01670915482663,-1.539596530506144,-1.953844503206616e-05,5.893473872249644e-05,-1.231677224404915e-05,6.459888450260744e-05,7.093639090133519e-05
10.98584391825,35.26415608175,2,0,-1.500882398878066,18.41952669457044,-1.554114351587192,-1.953844503206616e-05,6.014319134172786e-05,-1.243291481269754e-05,6.643664990663523e-05,7.300432785708563e-05
10.26415608175001,35.98584391825,2,0,-1.640300973363483,18.0070306074394,-1.388539953102257,-1.965458760071467e-05,5.893473872249687e-05,-1.110831962481806e-05,6.44286174130494e-05,6.75777181615969e-05
10.98584391825,35.98584391825,2,0,-1.53959658842754,18.40984814718318,-1.403057774183305,-1.965458760071467e-05,6.014319134172818e-05,-1.122446219346644e-05,6.626627341246389e-05,6.945019392823695e-05
11.51415608175,35.26415608175,2,0,-1.502542882082548,18.66840697836959,-1.19174967010885,-1.974286280535983e-05,6.094093663644874e-05,-9.533997360870804e-06,6.734002404174406e-05,7.440170595808471e-05
12.23584391825,35.26415608175,2,0,-1.42162387728789,18.99208299754823,-1.217505964435061,-1.974286280535983e-05,6.191196469398463e-05,-9.740047715480491e-06,6.882008624585937e-05,7.615147697181015e-05
11.51415608175,35.98584391825,2,0,-1.571226333619172,18.65123611548544,-1.070371162916741,-1.99489131599697e-05,6.094093663644874e-05,-8.562969303333931e-06,6.706177157589173e-05,7.071863515239338e-05
12.23584391825,35.98584391825,2,0,-1.490307328824513,18.97491213466407,-1.09612745724302,-1.99489131599697e-05,6.191196469398463e-05,-8.76901965794416e-06,6.854121301151951e-05,7.231160525671087e-05
11.51415608175,36.51415608175,2,0,-1.679620870915629,18.35230617642668,-1.270003004388384,-2.005663172807136e-05,6.007107646129788e-05,-1.016002403510707e-05,6.562299005488094e-05,6.868116695087167e-05
12.23584391825,36.51415608175,2,0,-1.592416459387501,18.70112382253919,-1.281033285185213,-2.005663172807136e-05,6.111752939963542e-05,-1.02482662814817e-05,6.721417500659836e-05,7.019076722013213e-05
11.51415608175,37.23584391825,2,0,-1.709034953040628,18.34495265589543,-1.139196387096191,-2.014487397444635e-05,6.007107646129788e-05,-9.113571096769531e-06,6.549492235744718e-05,6.679777111096304e-05
12.23584391825,37.23584391825,2,0,-1.621830541512499,18.69377030200794,-1.150226667893061,-2.014487397444635e-05,6.111752939963542e-05,-9.201813343144485e-06,6.708600708839297e-05,6.823640166442732e-05
10.26415608175,34.01415608175,2,0,-1.401022461934227,18.40364650780475,-1.438161246129061,-1.920618908443332e-05,6.001248679452257e-05,-1.150528996903249e-05,6.665065737098204e-05,8.20033714261033e-05
10.98584391825,34.01415608175,2,0,-1.311276139781413,18.76263179641601,-1.464674737043078,-1.920618908443332e-05,6.108944266035635e-05,-1.171739789634463e-05,6.829267549860013e-05,8.479816923934533e-05
10.26415608175001,34.73584391825,2,0,-1.471725104371489,18.3859708471953,-1.303541762899866,-1.9418297011745e-05,6.001248679452214e-05,-1.042833410319893e-05,6.635970674238832e-05,7.480173304373076e-05
10.98584391825,34.73584391825,2,0,-1.381978782218675,18.74495613580656,-1.330055253813748,-1.9418297011745e-05,6.108944266035592e-05,-1.064044203050998e-05,6.800111424798153e-05,7.711680544702193e-05
10.26415608175,32.76415608175001,2,0.06319685309632384,-0.9432111972165886,18.19777587865795,-1.269268519690596,-1.876220910669794e-05,6.296675236888791e-05,-1.083914821495453e-05,7.171623959457258e-05,0.0001064727534564616
10.98584391825,32.76415608175001,2,0.09873854817240213,-0.7481206829907023,18.14458704178165,-1.251326041653169,-1.876220910669794e-05,6.508785542878751e-05,-1.110732996837446e-05,7.495664712392916e-05,0.000110495409281705
10.26415608175,33.48584391825,2,0,-1.096234255965194,19.40305155128618,-1.089755644381773,-1.903039086011756e-05,6.296675236888791e-05,-8.718045155054182e-06,7.133861922544262e-05,9.048959576890001e-05
10.98584391825,33.48584391825,2,0,-0.919475667640282,20.11008590458582,-1.123278363559263,-1.903039086011756e-05,6.508785542878686e-05,-8.986226908474105e-06,7.45780595037481e-05,9.374193918104867e-05
11.51415608175,32.76415608175001,2,0.120423367509599,-0.5294679055478042,18.1350081557201,-0.8036955376983667,-1.842057101546052e-05,6.645879194997883e-05,-7.309839829853712e-06,7.745510089523323e-05,0.000113102698288957
12.23584391825,32.76415608175,2,0.1449430911982089,-0.3989643479005096,18.09243824695238,-0.8323025777743982,-1.84205710154605e-05,6.808315712008672e-05,-7.787108148773125e-06,7.994412165864024e-05,0.0001162032885018446
11.51415608175,33.48584391825,2,0,-0.7610471156284309,20.57811070546128,-0.7106843324683628,-1.889783933438e-05,6.645879194997883e-05,-5.685474659746902e-06,7.681466649609571e-05,9.589206161041869e-05
12.23584391825,33.48584391825,2,0,-0.6256833514527731,21.11956576216391,-0.7703428723333166,-1.889783933438e-05,6.808315712008672e-05,-6.162742978666532e-06,7.930155168434739e-05,9.851396191805213e-05
11.51415608175,34.01415608175,2,0,-1.248003750808487,19.00579906107482,-1.07372952797241,-1.919825125144702e-05,6.181695999608623e-05,-8.589836223779276e-06,6.936625544033036e-05,8.666721875357575e-05
12.23584391825,34.01415608175,2,0,-1.172115545904098,19.30935188069238,-1.116663565690061,-1.919825125144702e-05,6.27276184549389e-05,-8.933308525520484e-06,7.075816782230473e-05,8.897875917529029e-05
11.51415608175,34.73584391825,2,0,-1.362494518055696,18.97717636926302,-0.959897220615812,-1.954172355318865e-05,6.181695999608623e-05,-7.679177764926496e-06,6.891061328035542e-05,7.867511605430877e-05
12.23584391825,34.73584391825,2,0,-1.286606313151307,19.28072918888058,-1.002831258333544,-1.954172355318865e-05,6.27276184549389e-05,-8.022650066668354e-06,7.030144476224677e-05,8.061742740427974e-05
10.26415608175,31.51415608175001,2,0.3596399731043052,0.6971289466812904,17.15803769481554,-0.8349300666014551,-1.795180374109262e-05,8.487103376756712e-05,-1.043075809274339e-05,0.0001063414399377515,0.0001529237359203296
10.98584391825,31.51415608175001,2,0.3803608186162043,0.869683184243363,17.38328395508994,-0.8482981928281152,-1.795180374109262e-05,8.864959440786201e-05,-1.09521569108483e-05,0.0001121534477676933,0.0001577366794497039
10.26415608175,32.23584391825001,2,0.1957475566131104,0.7357719248895656,21.51448556882773,-0.6687557568779896,-1.847320255919755e-05,8.487103376756712e-05,-6.652197452448709e-06,0.0001056103696136185,0.0001232019308896481
10.98584391825,32.23584391825001,2,0.2250920783258102,0.9529290793832788,21.70550506980074,-0.6948595721180324,-1.847320255919755e-05,8.864959440786136e-05,-7.173596270553407e-06,0.0001114201696612745,0.000127642748255997
10.26415608175,30.26415608175,2,0.5771133913025046,2.267101826306352,17.41959933704891,-0.3899677010412518,-1.579845161339195e-05,0.0001275259970600975,-7.37725324984615e-06,0.000174961263310339,0.0002250482593218967
10.98584391825,30.26415608175,2,0.5846533372243427,2.354656596494335,17.62091907928365,-0.4576034103523784,-1.579845161339195e-05,0.0001312234349309103,-8.813908021686363e-06,0.0001806713836604398,0.0002287941811642737
10.26415608175,30.98584391825,2,0.4624485165672599,2.624396739823727,22.07853321492302,-0.247261276969775,-1.723510638523189e-05,0.0001275259970600975,-3.679815379033745e-06,0.000172971365646066,0.0001802133773749762
10.98584391825,30.98584391825,2,0.4768630511860267,2.715211957935649,22.13124904031065,-0.3345768229282394,-1.723510638523189e-05,0.0001312234349309106,-5.11647015087385e-06,0.000178677189172719,0.000184840124209884
11.51415608175,30.26415608175,2,0.5886617487905644,2.562809340008203,17.7920172201279,-0.1167688645820829,-1.466584707436926e-05,0.0001334284070859679,-2.271004249933067e-06,0.0001856185104019295,0.0002308370211499714
12.23584391825,30.26415608175,2,0.5922025249981273,2.619815931101179,17.95513298151895,-0.1996619716524198,-1.466584707436926e-05,0.0001357550651723027,-3.916884902762144e-06,0.0001892117422516091,0.0002326722419404908
11.51415608175,30.98584391825,2,0.4850886306333323,2.925618963504701,22.20134342995396,0.00358209913901955,-1.631172772719871e-05,0.0001334284070859679,5.56538364017943e-08,0.0001833434680102292,0.0001875886822228722
12.23584391825,30.98584391825,2,0.4934592413625496,2.976271162563637,22.23327832228301,-0.1006893372498367,-1.631172772719871e-05,0.0001357550651723027,-1.590226816427284e-06,0.0001869336471872426,0.0001904711355273179
11.51415608175,31.51415608175,2,0.3924779067549685,1.12930916646648,17.57561022736498,-0.4520399105966437,-1.719558673726419e-05,9.108887727655871e-05,-5.952572466059406e-06,0.0001168912934886125,0.0001606944690134378
12.23584391825,31.51415608175,2,0.4053560821264692,1.248366423492331,17.77502952844544,-0.4996078923967591,-1.719558673726417e-05,9.397456136786119e-05,-6.721439535557695e-06,0.0001213363618151844,0.0001639623568506248
11.51415608175,32.23584391825001,2,0.2427106786747613,1.213623160652681,21.85985393173914,-0.290315226987574,-1.796445380676377e-05,9.108887727655871e-05,-3.066888374757791e-06,0.0001158394309491095,0.0001304664510196481
12.23584391825,32.23584391825,2,0.2622045145113352,1.359802954698807,22.00682796617016,-0.353750381276368,-1.796445380676374e-05,9.397456136786119e-05,-3.835755444256406e-06,0.0001202812961954431,0.0001337401330693948
10.26415608175,29.01415608175,2,0.7129415575476601,3.449522678245233,17.91309714681962,-0.07262570456911782,-1.146806594137191e-05,0.0001900738130573725,-2.023997732271562e-06,0.0002775279544398938,0.0003193864577509703
10.98584391825,29.01415608175,2,0.7128876862748625,3.486288108355375,18.06093111639617,-0.1725943221183607,-1.146806594137191e-05,0.0001915833855124811,-4.80910957468975e-06,0.0002798628590571999,0.0003193332526979165
10.26415608175,29.73584391825,2,0.642541036505921,3.963656964541161,22.22328555452771,-0.02298574079626646,-1.425317778379012e-05,0.0001900738130573725,-5.144252771638151e-07,0.0002736388015053016,0.0002623395738156354
10.98584391825,29.73584391825,2,0.6462535622512242,3.966991390535634,22.17047914666222,-0.145899937783994,-1.425317778379012e-05,0.000191583385512481,-3.299537119581895e-06,0.0002759717992329713,0.0002648315063290557
10.26415608175,27.76415608175,2,0.791691637348052,4.279989857751649,18.54103449490063,0.113233498795005,-5.457582387197545e-06,0.0002683872974936366,4.348687584250326e-06,0.000406944245035407,0.0004225334794310147
10.98584391825,27.76415608175,2,0.7880768110202199,4.29554708232746,18.62792365882833,0.01841021017316067,-5.457582387197545e-06,0.0002650626310070683,6.9497671347017e-07,0.0004018056885684623,0.0004163440510145289
10.26415608175,28.48584391825,2,0.7512107839778061,4.808724942279604,22.06838915236903,0.03184567576030638,-9.111293257977365e-06,0.0002683872974936366,1.024021097681838e-06,0.0004018006978306041,0.0003623102853916628
10.98584391825,28.48584391825,2,0.749330313744153,4.775622205270191,21.95739509903352,-0.08239793879657518,-9.111293257977365e-06,0.000265062631007068,-2.629689773097667e-06,0.0003966654975859036,0.00035993091668831
11.51415608175,27.76415608175,2,0.7852920110556301,4.35201878344664,18.70571216055962,0.2312032630222141,-4.834983674908429e-06,0.0002625736665142929,8.614612401110721e-06,0.0003988471307017699,0.0004116995044701971
12.23584391825,27.76415608175,2,0.7812864505962955,4.369867935265771,18.80131729212332,0.144459003653754,-4.834983674908429e-06,0.0002590983555480728,5.283952605500799e-06,0.0003934722813363797,0.0004051997957489109
11.51415608175,28.48584391825,2,0.7476068196288379,4.835665989337898,21.91885486397801,0.1621405792547727,-8.165643470518297e-06,0.0002625736665142929,5.139301434890862e-06,0.0003941523200582829,0.0003577776956218777
12.23584391825,28.48584391825,2,0.744757481998866,4.816336589832062,21.87062060997151,0.05770528077147416,-8.165643470518297e-06,0.0002590983555480728,1.808641639281048e-06,0.0003887806133320999,0.0003542743549715598
11.51415608175,29.01415608175,2,0.7122769951860908,3.614553124006585,18.18906903647295,0.1082497107820153,-1.037346747538554e-05,0.0001922452410549626,3.009831232703218e-06,0.0002824141200954723,0.0003187313599067828
12.23584391825,29.01415608175,2,0.7106512947388345,3.642177349935465,18.32064612858138,0.01116175913781997,-1.037346747538554e-05,0.0001925438915692614,3.086036725893177e-07,0.0002828738069316563,0.00031714016327368
11.51415608175,29.73584391825,2,0.6479360929804983,4.105841483547514,22.17727620579815,0.1455996262690542,-1.30746950354996e-05,0.0001922452410549626,3.308481747002576e-06,0.0002786380285383758,0.0002659765957275365
12.23584391825,29.73584391825,2,0.6488650640620368,4.103746518052043,22.15371382683137,0.02665352000140191,-1.30746950354996e-05,0.0001925438915692614,6.072541868886762e-07,0.0002790973328441863,0.0002666131056301077
12.76415608175,49.01415608175001,2,0,-1.904649958887931,17.52048016420115,-0.1524712913787473,-2.01112639998023e-05,5.758925649255401e-05,-1.219770331029979e-06,6.170908177806715e-05,6.20884056068264e-05
13.48584391825,49.01415608175001,2,0,-1.81228785340683,17.88992858612555,-0.151335753991564,-2.01112639998023e-05,5.869760175832722e-05,-1.210686031932512e-06,6.339143865923811e-05,6.304897015303446e-05
12.76415608175,49.73584391825,2,0,-1.901621859188834,17.52123718912592,-0.01392813315701479,-2.010217970070501e-05,5.758925649255401e-05,-1.114250652561183e-07,6.171953343264678e-05,6.206723656715657e-05
13.48584391825,49.73584391825,2,0,-1.809259753707734,17.89068561105033,-0.01279259576985855,-2.010217970070501e-05,5.869760175832722e-05,-1.023407661588684e-07,6.340196988620882e-05,6.302565368820833e-05
12.76415608175,47.76415608175001,2,0,-1.911551128926778,17.5426486717193,-0.3169930293139177,-2.015108254994113e-05,5.766571665264319e-05,-2.535944234511342e-06,6.17780943291565e-05,6.218433647732591e-05
13.48584391825,47.76415608175001,2,0,-1.81921299677783,17.91200120031509,-0.3136536454166373,-2.015108254994113e-05,5.877377423843056e-05,-2.509229163333098e-06,6.345978184519978e-05,6.315435958323112e-05
12.76415608175,48.48584391825001,2,0,-1.90264610520047,17.54487492765088,-0.1784858310905648,-2.012436747876221e-05,5.766571665264319e-05,-1.427886648724518e-06,6.180879147545106e-05,6.211978243318906e-05
13.48584391825,48.48584391825001,2,0,-1.810307973051523,17.91422745624667,-0.1751464471932301,-2.012436747876221e-05,5.877377423843056e-05,-1.401171577545841e-06,6.349071364488154e-05,6.308345679366587e-05
14.01415608175,47.76415608175001,2,0,-2.055365297281043,18.09568690261657,-0.2758006948104828,-2.105371847339259e-05,5.955049032619784e-05,-2.206405558483862e-06,6.348469949012017e-05,6.384200237184399e-05
14.73584391825,47.76415608175001,2,0,-1.970867778186025,18.43367697899664,-0.2737772443733161,-2.105371847339259e-05,6.056446055533805e-05,-2.190217954986529e-06,6.502271366437875e-05,6.475065430196733e-05
14.01415608175,48.48584391825001,2,0,-2.049969429448562,18.09703586957469,-0.1490544161679842,-2.103753086989514e-05,5.955049032619784e-05,-1.192435329343874e-06,6.350272572817556e-05,6.376719690501931e-05
14.73584391825,48.48584391825001,2,0,-1.965471910353508,18.4350259459549,-0.147030965730831,-2.103753086989514e-05,6.056446055533848e-05,-1.176247725846648e-06,6.504087950950676e-05,6.467153526801231e-05
14.01415608175,49.01415608175001,2,0,-2.053560773211827,18.07268851338769,-0.1350276204960439,-2.1029545284988e-05,5.947545186141007e-05,-1.080220963968351e-06,6.339892329244634e-05,6.373079726080763e-05
14.73584391825,49.01415608175001,2,0,-1.968829045160635,18.41161542559246,-0.134323942971293,-2.1029545284988e-05,6.049223259802438e-05,-1.074591543770344e-06,6.494129943025038e-05,6.463301901509278e-05
14.01415608175,49.73584391825,2,0,-2.051684299812491,18.07315763173753,-0.007930028419513013,-2.102391586478999e-05,5.947545186141007e-05,-6.344022735610411e-08,6.340521740118575e-05,6.370615705026433e-05
14.73584391825,49.73584391825,2,0,-1.966952571761325,18.41208454394219,-0.007226350894680867,-2.102391586478999e-05,6.049223259802406e-05,-5.781080715744694e-08,6.494764172778857e-05,6.460690968915003e-05
12.76415608175,46.51415608175,2,0,-1.921401382461536,17.58827882519761,-0.4758061683302506,-2.0219107484035e-05,5.781961334660156e-05,-3.806449346642005e-06,6.193098220995185e-05,6.235980104454435e-05
13.48584391825,46.51415608175,2,0,-1.829157849548901,17.95725295684814,-0.4704762400563973,-2.0219107484035e-05,5.892653574155317e-05,-3.763809920451179e-06,6.361059389115511e-05,6.334616916149286e-05
12.76415608175,47.23584391825001,2,0,-1.907188240397882,17.59183211071352,-0.33744086896134,-2.017646805784403e-05,5.781961334660156e-05,-2.69952695169072e-06,6.197983812304586e-05,6.224864927040501e-05
13.48584391825,47.23584391825001,2,0,-1.814944707485247,17.96080624236406,-0.3321109406874867,-2.017646805784403e-05,5.892653574155317e-05,-2.656887525499894e-06,6.365982652671939e-05,6.322475315002985e-05
12.76415608175,45.26415608175001,2,0,-1.932414522247143,17.65834696062015,-0.6248232132906795,-2.031040403968698e-05,5.805264189178219e-05,-4.998585706325435e-06,6.217604896427759e-05,6.262368380330078e-05
13.48584391825,45.26415608175001,2,0,-1.840429494615456,18.0262870711469,-0.6178971486055929,-2.031040403968698e-05,5.915646222336244e-05,-4.943177188844743e-06,6.385054419580766e-05,6.363250790149461e-05
12.76415608175,45.98584391825,2,0,-1.913945016420223,17.66296433707688,-0.4868456718430539,-2.025499552220621e-05,5.805264189178219e-05,-3.894765374744431e-06,6.223920527489174e-05,6.246029124476443e-05
13.48584391825,45.98584391825,2,0,-1.821959988788535,18.03090444760363,-0.4799196071579538,-2.025499552220621e-05,5.915646222336244e-05,-3.83935685726363e-06,6.391419500394912e-05,6.345542671785441e-05
14.01415608175,45.26415608175001,2,0,-2.053493977309828,18.21339293175232,-0.5342671445980878,-2.11418950727933e-05,5.992565256345526e-05,-4.274137156784702e-06,6.395124800115168e-05,6.434376767980891e-05
14.73584391825001,45.26415608175001,2,0,-1.970356747448821,18.54594185119635,-0.530634335753314,-2.11418950727933e-05,6.092329932178735e-05,-4.245074686026512e-06,6.546430187837208e-05,6.527814143343249e-05
14.01415608175,45.98584391825,2,0,-2.043806487057162,18.21581480431562,-0.4095612998065903,-2.111283260203541e-05,5.99256525634557e-05,-3.276490398452722e-06,6.398265182906494e-05,6.415839744065552e-05
14.73584391825,45.98584391825,2,0,-1.960669257196181,18.54836372375954,-0.40592849096183,-2.111283260203541e-05,6.092329932178746e-05,-3.247427927694641e-06,6.549597129221373e-05,6.508381369857323e-05
14.01415608175,46.51415608175,2,0,-2.056016672310364,18.14243683524268,-0.4102966106532389,-2.109320281958731e-05,5.970061121062485e-05,-3.282372885225911e-06,6.36664605946604e-05,6.404380973958551e-05
14.73584391825,46.51415608175,2,0,-1.97202574601559,18.47840054042177,-0.4072257241239877,-2.109320281958731e-05,6.070850232616214e-05,-3.257805792991901e-06,6.519513516276351e-05,6.496343112748879e-05
14.01415608175,47.23584391825001,2,0,-2.047827641565654,18.14448409292886,-0.2843102212112675,-2.106863572735317e-05,5.970061121062485e-05,-2.27448176969014e-06,6.369355474245271e-05,6.391612055747979e-05
14.73584391825,47.23584391825001,2,0,-1.963836715270916,18.48044779810781,-0.2812393346819349,-2.106863572735317e-05,6.070850232616171e-05,-2.249914677455479e-06,6.522244510374929e-05,6.482886756178562e-05
12.76415608175,44.01415608175001,2,0,-1.941739297302116,17.75415273540836,-0.7595817678938526,-2.041688793969345e-05,5.836668019114843e-05,-6.076654143150821e-06,6.252563475473512e-05,6.298996727698525e-05
13.48584391825,44.01415608175001,2,0,-1.850315761398361,18.11984687902338,-0.7516936482086757,-2.041688793969345e-05,5.946376262199349e-05,-6.013549185669405e-06,6.418953950183973e-05,6.402621357390826e-05
12.76415608175,44.73584391825,2,0,-1.920704311475009,17.75941148186513,-0.6224464640382471,-2.035378298221213e-05,5.836668019114843e-05,-4.979571712305977e-06,6.25968841474e-05,6.276561006838005e-05
13.48584391825,44.73584391825,2,0,-1.829280775571254,18.12510562548015,-0.6145583443530837,-2.035378298221213e-05,5.946376262199349e-05,-4.916466754824669e-06,6.426136220882577e-05,6.378544977861978e-05
12.76415608175,42.76415608175,2,0,-1.945178953077495,17.87712360981421,-0.8751795207496326,-2.052627153769935e-05,5.876293871386745e-05,-7.00143616599706e-06,6.299621374558496e-05,6.348010204104256e-05
13.48584391825,42.76415608175,2,0,-1.85480156966162,18.23863314347771,-0.8672838421420548,-2.052627153769935e-05,5.984746731485795e-05,-6.938270737136439e-06,6.464087956172967e-05,6.454724764790211e-05
12.76415608175,43.48584391825001,2,0,-1.924123810123865,17.88238739555262,-0.7396134456259829,-2.046310610883846e-05,5.876293871386745e-05,-5.916907565007862e-06,6.306619352624974e-05,6.318141482405273e-05
13.48584391825,43.48584391825001,2,0,-1.833746426707989,18.24389692921612,-0.7317177670183644,-2.046310610883846e-05,5.984746731485795e-05,-5.853742136146915e-06,6.471145445408974e-05,6.423033669777185e-05
14.01415608175,42.76415608175,2,0,-2.025182218389143,18.42980637858661,-0.7326377125119128,-2.122442820171454e-05,6.059552618618846e-05,-5.861101700095303e-06,6.487372491307609e-05,6.529311447210301e-05
14.73584391825,42.76415608175,2,0,-1.945248364836906,18.74954179279556,-0.7304334760806338,-2.122442820171454e-05,6.155473242881531e-05,-5.843467808645071e-06,6.632875239532139e-05,6.6263714924727e-05
14.01415608175,43.48584391825001,2,0,-2.019304254572551,18.43127586954076,-0.6127369321836111,-2.120679431026477e-05,6.059552618618846e-05,-4.901895457468889e-06,6.488861033204862e-05,6.496551880491431e-05
14.73584391825,43.48584391825001,2,0,-1.939370401020313,18.75101128374971,-0.6105326957524271,-2.120679431026477e-05,6.155473242881531e-05,-4.884261566019416e-06,6.634387579335019e-05,6.592515180080935e-05
14.01415608175,44.01415608175001,2,0,-2.044683929445163,18.30906054670729,-0.6432611527604145,-2.119023701159035e-05,6.022474089301946e-05,-5.146089222083316e-06,6.434924936054005e-05,6.475389704667144e-05
14.73584391825,44.01415608175001,2,0,-1.962854857016261,18.6363768364229,-0.6398109665396409,-2.119023701159035e-05,6.120668976216628e-05,-5.118487732317127e-06,6.583852696749823e-05,6.570571896925015e-05
14.01415608175,44.73584391825,2,0,-2.035483432856069,18.31136067085511,-0.5205175441171561,-2.116263552182351e-05,6.022474089302119e-05,-4.164140352937249e-06,6.437764404062885e-05,6.450333131832896e-05
14.73584391825001,44.73584391825,2,0,-1.953654360427366,18.63867696056992,-0.5170673578963418,-2.116263552182351e-05,6.120668976216563e-05,-4.136538863170735e-06,6.586719859917145e-05,6.544478044847384e-05
12.76415608175,41.51415608175001,2,0,-1.936857678664091,18.02852621123931,-0.9663007390484145,-2.062076554071654e-05,5.924077001889707e-05,-7.730405912387316e-06,6.360834914536723e-05,6.4128802564807e-05
13.48584391825,41.51415608175001,2,0,-1.848227455420234,18.38304710421474,-0.9597695783524082,-2.062076554071654e-05,6.030433269782335e-05,-7.678156626819265e-06,6.52213474690442e-05,6.52286648755299e-05
12.76415608175,42.23584391825,2,0,-1.919441250141534,18.03288031836995,-0.8333554041826431,-2.056851625514887e-05,5.924077001889707e-05,-6.666843233461145e-06,6.366354854567047e-05,6.373395382108892e-05
13.48584391825,42.23584391825,2,0,-1.830811026897678,18.38740121134538,-0.8268242434866638,-2.056851625514887e-05,6.030433269782335e-05,-6.614593947893311e-06,6.527708718731301e-05,6.481474887690528e-05
12.76415608175,40.26415608175,2,0,-1.908896932883629,18.20907831898403,-1.027385427431821,-2.067573284041483e-05,5.979616816705578e-05,-8.219083419454569e-06,6.438634099013858e-05,6.499848996598275e-05
13.48584391825,40.26415608175,2,0,-1.822950694911238,18.55286327087359,-1.024105589648999,-2.067573284041483e-05,6.082752302272447e-05,-8.192844717191993e-06,6.595110916248174e-05,6.613163810352181e-05
12.76415608175,40.98584391825,2,0,-1.900150698796316,18.21126487750585,-0.8984660704733295,-2.064949413815289e-05,5.979616816705578e-05,-7.187728563786636e-06,6.44080644451737e-05,6.446763400362073e-05
13.48584391825,40.98584391825,2,0,-1.814204460823925,18.55504982939542,-0.8951862326905617,-2.064949413815289e-05,6.082752302272447e-05,-7.161489861524494e-06,6.597322531841438e-05,6.558152428031206e-05
14.01415608175,40.26415608175,2,0,-1.928781238932493,18.74567886969751,-0.8337793874271793,-2.116864306034199e-05,6.152919737417804e-05,-6.670235099417434e-06,6.636880459971309e-05,6.691490955051545e-05
14.73584391825,40.26415608175,2,0,-1.854976645353012,19.04089724401544,-0.8388537089949027,-2.116864306034199e-05,6.241485249713181e-05,-6.710829671959222e-06,6.771375396211235e-05,6.792169880237195e-05
14.01415608175,40.98584391825,2,0,-1.942312763113119,18.74229598865236,-0.72307249705789,-2.120923763288386e-05,6.152919737417804e-05,-5.78457997646312e-06,6.630892859866731e-05,6.635410026827034e-05
14.73584391825,40.98584391825,2,0,-1.868508169533592,19.03751436297047,-0.7281468186255864,-2.120923763288386e-05,6.241485249713235e-05,-5.825174549004691e-06,6.76538558018228e-05,6.735092684347847e-05
14.01415608175,41.51415608175001,2,0,-1.989078863119142,18.57559755719804,-0.7976713548138903,-2.122553040773968e-05,6.103317527352903e-05,-6.381370838511122e-06,6.554076800929364e-05,6.599333550571635e-05
14.73584391825,41.51415608175001,2,0,-1.911772840726971,18.88482164676672,-0.7981611193341709,-2.122553040773968e-05,6.196084754223508e-05,-6.385288954673368e-06,6.694851797325509e-05,6.69825922078074e-05
14.01415608175,42.23584391825,2,0,-1.990384901839946,18.57527104751784,-0.681712321225702,-2.12294485239021e-05,6.103317527352903e-05,-5.453698569805616e-06,6.552775191022347e-05,6.556851712704155e-05
14.73584391825,42.23584391825,2,0,-1.91307887944773,18.8844951370867,-0.6822020857459826,-2.12294485239021e-05,6.196084754223562e-05,-5.457616685967861e-06,6.693564114109294e-05,6.654705522781734e-05
12.76415608175,39.01415608175,2,0,-1.85123845046271,18.41848790547169,-1.053001690303325,-2.065875336585802e-05,6.042015205787957e-05,-8.4240135224266e-06,6.535731512737445e-05,6.621568789844513e-05
13.48584391825,39.01415608175,2,0,-1.769143444078026,18.74686793101043,-1.055434249946165,-2.065875336585802e-05,6.140529213449579e-05,-8.443473999569318e-06,6.685320727218601e-05,6.738347241221375e-05
12.76415608175,39.73584391825,2,0,-1.857725276176981,18.41686619904312,-0.929859180726284,-2.067821384300084e-05,6.042015205787957e-05,-7.438873445810273e-06,6.532095099261295e-05,6.546687959541246e-05
13.48584391825,39.73584391825,2,0,-1.775630269792297,18.74524622458186,-0.932291740369151,-2.067821384300084e-05,6.140529213449579e-05,-7.458333922953208e-06,6.681699099631683e-05,6.661446865025261e-05
12.76415608175,37.76415608175,2,0,-1.751982056411086,18.65505168410603,-1.038467954812892,-2.05303839278003e-05,6.109775103426817e-05,-8.307743638503139e-06,6.654921435666939e-05,6.806320617292982e-05
13.48584391825,37.76415608175,2,0,-1.675103590763842,18.96256554669501,-1.049562771270905,-2.05303839278003e-05,6.202029262203509e-05,-8.396502170167244e-06,6.795196761531237e-05,6.92740237073555e-05
12.76415608175,38.48584391825,2,0,-1.781568233632346,18.64765513980072,-0.9231502563420954,-2.061914245946408e-05,6.109775103426817e-05,-7.385202050736762e-06,6.642487873102616e-05,6.691137150815673e-05
13.48584391825,38.48584391825,2,0,-1.704689767985102,18.95516900238969,-0.9342450728000679,-2.061914245946408e-05,6.202029262203509e-05,-7.473960582400543e-06,6.782745748443441e-05,6.809609804196839e-05
14.01415608175,37.76415608175,2,0,-1.696833355508582,19.15010726608807,-0.8037308409123236,-2.074995255049792e-05,6.263780993588869e-05,-6.429846727298589e-06,6.858764162084444e-05,7.010035341638875e-05
14.73584391825,37.76415608175,2,0,-1.633121098149734,19.40495629552347,-0.8254531431428207,-2.074995255049792e-05,6.340235702419488e-05,-6.603625145142566e-06,6.975182079367901e-05,7.11471106309415e-05
14.01415608175,38.48584391825,2,0,-1.754759494789919,19.13562573126774,-0.7081624548740777,-2.092373096834193e-05,6.263780993588869e-05,-5.665299638992621e-06,6.835770475611575e-05,6.89077576016918e-05
14.73584391825,38.48584391825,2,0,-1.691047237431052,19.39047476070321,-0.7298847571045883,-2.092373096834193e-05,6.340235702419509e-05,-5.839078056836706e-06,6.952140071791749e-05,6.994052622358776e-05
14.01415608175,39.01415608175,2,0,-1.834978419874915,18.93822693333055,-0.836875112450336,-2.102251249026416e-05,6.207030892255768e-05,-6.695000899602688e-06,6.737769367956572e-05,6.818572524714462e-05
14.73584391825,39.01415608175,2,0,-1.765668455180548,19.21546679210802,-0.8488873273138553,-2.102251249026416e-05,6.290202849889009e-05,-6.791098618510842e-06,6.864215106537698e-05,6.920973623901651e-05
14.01415608175,39.73584391825,2,0,-1.86701099284419,18.93021879008823,-0.7329101654088939,-2.111861020917199e-05,6.207030892255768e-05,-5.863281323271151e-06,6.724707640642375e-05,6.74056919844262e-05
14.73584391825,39.73584391825,2,0,-1.79770102814986,19.20745864886555,-0.7449223802723725,-2.111861020917199e-05,6.290202849888965e-05,-5.95937904217898e-06,6.851129601875844e-05,6.841976527877425e-05
12.76415608175,36.51415608175,2,0,-1.59869788955831,18.91564357203572,-0.9809378145468118,-2.024834810421516e-05,6.180901774216095e-05,-7.847502516374495e-06,6.798757583690213e-05,7.12140774294462e-05
13.48584391825,36.51415608175,2,0,-1.52847052736127,19.19655302082388,-1.003773036489453,-2.024834810421516e-05,6.265174608852543e-05,-8.03018429191562e-06,6.927145176740274e-05,7.250021264405457e-05
12.76415608175,37.23584391825,2,0,-1.659591814738719,18.90042009074062,-0.8755967712510758,-2.043102987975639e-05,6.180901774216095e-05,-7.004774170008606e-06,6.774346987421841e-05,6.921611274977207e-05
13.48584391825,37.23584391825,2,0,-1.589364452541679,19.18132953952878,-0.8984319931938114,-2.043102987975639e-05,6.265174608852543e-05,-7.187455945550491e-06,6.902682487273663e-05,7.045410265832188e-05
12.76415608175,35.26415608175,2,0,-1.381067314729869,19.1980485542273,-0.8793616395387255,-1.977785425051742e-05,6.253860922531126e-05,-7.034893116309804e-06,6.969719327820377e-05,7.732568084290045e-05
13.48584391825,35.26415608175,2,0,-1.319317594696388,19.44504743436122,-0.9162961359553059,-1.977785425051742e-05,6.327960586571303e-05,-7.330369087642447e-06,7.082881915468364e-05,7.878389446357408e-05
12.76415608175,35.98584391825,2,0,-1.479559305174164,19.17342555661623,-0.7867370594883826,-2.007333022185031e-05,6.253860922531126e-05,-6.293896475907061e-06,6.930806508978757e-05,7.338702965089752e-05
13.48584391825,35.98584391825,2,0,-1.417809585140684,19.42042443675015,-0.8236715559049629,-2.007333022185031e-05,6.327960586571303e-05,-6.589372447239703e-06,7.043888940989725e-05,7.473217363132182e-05
14.01415608175,35.26415608175,2,0,-1.242962422415913,19.61475880833422,-0.6196686676933881,-1.966928679839829e-05,6.376159812460222e-05,-4.957349341547105e-06,7.168460286185588e-05,7.976299268565307e-05
14.73584391825,35.26415608175,2,0,-1.194976530766364,19.80670237493241,-0.6693664897642666,-1.966928679839829e-05,6.433742882439681e-05,-5.354931918114133e-06,7.25654031405355e-05,8.097972515341327e-05
14.01415608175,35.98584391825,2,0,-1.375489947938324,19.58162692695361,-0.5476898302191449,-2.006686937496553e-05,6.376159812460222e-05,-4.381518641753158e-06,7.11649463370438e-05,7.563988293239371e-05
14.73584391825,35.98584391825,2,0,-1.327504056288801,19.77357049355171,-0.5973876522900098,-2.006686937496553e-05,6.433742882439649e-05,-4.779101218320078e-06,7.204488853673562e-05,7.677464688110609e-05
14.01415608175,36.51415608175,2,0,-1.503401541413593,19.37708412371092,-0.7319259639712876,-2.031255223149223e-05,6.32093904290058e-05,-5.855407711770301e-06,7.00162897235809e-05,7.337125094741113e-05
14.73584391825,36.51415608175,2,0,-1.446669514376484,19.60401223185935,-0.766130397726375,-2.031255223149223e-05,6.389017475345112e-05,-6.129043181811e-06,7.105504679806986e-05,7.446483663301262e-05
14.01415608175,37.23584391825,2,0,-1.594613364760538,19.35428116787418,-0.646827923415623,-2.058618770153306e-05,6.32093904290058e-05,-5.174623387324984e-06,6.965780757681482e-05,7.129634285375872e-05
14.73584391825,37.23584391825,2,0,-1.537881337723455,19.58120927602251,-0.6810323571707512,-2.058618770153306e-05,6.389017475345079e-05,-5.448258857366009e-06,7.069585620231356e-05,7.235939595141689e-05
12.76415608175,34.01415608175,2,0,-1.068199829636605,19.50716705156579,-0.7279159216079891,-1.902397309608976e-05,6.327749442871979e-05,-5.823327372863913e-06,7.179250396376148e-05,9.052279009432209e-05
13.48584391825,34.01415608175,2,0,-1.01889727634977,19.70437726471313,-0.7870042666101275,-1.902397309608976e-05,6.386912506816181e-05,-6.296034132881019e-06,7.269916431155659e-05,9.242962059203904e-05
12.76415608175,34.73584391825,2,0,-1.225768749642284,19.46777482156437,-0.6539620916777371,-1.94966798561068e-05,6.327749442871979e-05,-5.231696733421897e-06,7.117273913140073e-05,8.191719401526633e-05
13.48584391825,34.73584391825,2,0,-1.176466196355449,19.66498503471171,-0.7130504366798484,-1.94966798561068e-05,6.386912506816181e-05,-5.704403493438787e-06,7.207838448209861e-05,8.352591108464329e-05
12.76415608175,32.76415608175,2,0.1601536187218001,-0.1785862576457582,18.1486969628775,-0.5095153923030441,-1.79680878922186e-05,6.932065266354896e-05,-4.853415135540285e-06,8.241446658018967e-05,0.0001182137117389183
13.48584391825,32.76415608175,2,0.1775897168173927,-0.05449587813078249,18.25344180208872,-0.5653778080365024,-1.79680878922186e-05,7.107718819246488e-05,-5.499715357143377e-06,8.510978505562884e-05,0.0001206056999546669
12.76415608175,33.48584391825,2,0.002576094260322459,-0.4269722211391409,21.50015573474665,-0.3861127191056445,-1.8614388113822e-05,6.932065266354896e-05,-3.096879606624692e-06,8.155137971038929e-05,0.0001002484127061339
13.48584391825,33.48584391825,2,0.02401926104579843,-0.2749308675970399,21.60938186274722,-0.4566589268490399,-1.8614388113822e-05,7.107718819246488e-05,-3.743179828227892e-06,8.42436482527088e-05,0.0001023651200749692
14.01415608175,32.76415608175,2,0.1884939301421263,0.1290640247397565,18.36348591531622,-0.2854187025865461,-1.759417998633867e-05,7.228523098970008e-05,-2.813718474209653e-06,8.74466238564765e-05,0.000122151490257439
14.73584391825,32.76415608175,2,0.2010591564826073,0.2298559341693318,18.49030998578014,-0.3556791275399675,-1.759417998633867e-05,7.382912976069034e-05,-3.5615065162929e-06,8.981783011624229e-05,0.0001239826796868907
14.01415608175,33.48584391825,2,0.03766666837483856,-0.0868218033168846,21.71657178842467,-0.1527487281953384,-1.834196802842224e-05,7.228523098970008e-05,-1.26981970321972e-06,8.644860938526401e-05,0.0001037595103417844
14.73584391825,33.48584391825,2,0.05374963990907444,0.03637210121409407,21.84060571944487,-0.2386452569393838,-1.834196802842224e-05,7.382912976068969e-05,-2.017607745302859e-06,8.881687006119309e-05,0.00010545234802763
14.01415608175,34.01415608175,2,0,-0.9145241742605279,19.85137603195653,-0.4751702843428716,-1.880757818319891e-05,6.42560226416693e-05,-3.801362274742973e-06,7.355589786117896e-05,9.369806584989946e-05
14.73584391825,34.01415608175,2,0,-0.8757414085312742,20.00650709487354,-0.5407056040103925,-1.880757818319891e-05,6.472141583042034e-05,-4.325644832083139e-06,7.426955822526529e-05,9.525669224342436e-05
14.01415608175,34.73584391825,2,0,-1.089285026707313,19.80768581884483,-0.4169961357489648,-1.933186074053926e-05,6.42560226416693e-05,-3.335969085991718e-06,7.286900590969091e-05,8.460166821502163e-05
14.73584391825,34.73584391825,2,0,-1.050502260978051,19.96281688176188,-0.4825314554164585,-1.933186074053926e-05,6.472141583042045e-05,-3.860251643331668e-06,7.358179615812814e-05,8.59319742825677e-05
12.76415608175,31.51415608175,2,0.4129561074855557,1.460764534953034,17.93264682653243,-0.207361309400732,-1.6475209218088e-05,9.576091146465361e-05,-2.825837209719439e-06,0.0001250512343661877,0.00016595414375409
13.48584391825,31.51415608175,2,0.4210446226585542,1.536875150483636,18.0705143139813,-0.2710614529194403,-1.6475209218088e-05,9.775562659810136e-05,-3.745524626290204e-06,0.0001281258699824445,0.0001681279189352516
12.76415608175,32.23584391825,2,0.2740979463955623,1.583756460823477,22.11876482996362,-0.07541415274515142,-1.739489663465883e-05,9.576091146465361e-05,-8.311220762711492e-07,0.0001237975168833383,0.0001358195093107668
13.48584391825,32.23584391825,2,0.2874193587912401,1.673141724358167,22.18665014453928,-0.1559491188804786,-1.739489663465883e-05,9.775562659810136e-05,-1.750809492842131e-06,0.0001268695472602239,0.0001382267888007415
12.76415608175,30.26415608175,2,0.5939508275871821,2.772726804618429,18.09228749021833,0.04861356484095255,-1.379415252619014e-05,0.0001371192020763403,9.577867537979585e-07,0.0001925207634045771,0.0002335892517836216
13.48584391825,30.26415608175,2,0.5952196944459913,2.811294521379263,18.22467967852936,-0.0383758780179137,-1.379415252619014e-05,0.0001385194353204748,-7.584534621147632e-07,0.0001946819596594643,0.0002342593484756827
12.76415608175,30.98584391825,2,0.4982227289646551,3.139354071094597,22.28586946290178,0.1479001049510928,-1.551039274210269e-05,0.0001371192020763403,2.35801999793131e-06,0.0001901460702644552,0.000192151467293075
13.48584391825,30.98584391825,2,0.502980619338897,3.167581731212225,22.30653416796184,0.03987212372248225,-1.551039274210269e-05,0.0001385194353204748,6.417797820189135e-07,0.0001923054150800012,0.0001938597657464449
14.01415608175,30.26415608175,2,0.5956637018660289,2.921472857222661,18.33518808069492,0.15041619361724,-1.315597275335616e-05,0.0001393281380683256,2.976061151302358e-06,0.0001968178399669045,0.0002344947442047912
14.73584391825,30.26415608175,2,0.5956128503621791,2.949108903229209,18.44656851597,0.0656464562009519,-1.315597275335616e-05,0.0001401373218196361,1.298685307082512e-06,0.0001980651445979535,0.0002344677606045667
14.01415608175,30.98584391825,2,0.5056425540898679,3.295499764241822,22.34821946570786,0.233908000274988,-1.48333485975763e-05,0.0001393281380683256,3.785244902612585e-06,0.0001944937819444043,0.0001948288753931551
14.73584391825,30.98584391825,2,0.5081975451016996,3.311630822930749,22.36536986003586,0.1295818971901948,-1.48333485975763e-05,0.000140137321819636,2.107869058392414e-06,0.0001957400611724689,0.0001957682337328152
14.01415608175,31.51415608175,2,0.4258348853183187,1.705943230847035,18.19450728294816,-0.0357343304418559,-1.584315601042949e-05,9.902668634314106e-05,-4.978962257108513e-07,0.0001309413635590633,0.0001694424113414289
14.73584391825,31.51415608175,2,0.4309177021155512,1.760927808932886,18.31378577092783,-0.1123486212938853,-1.584315601042949e-05,0.0001005045710127433,-1.579365539382109e-06,0.0001332195465511978,0.0001708598962002596
14.01415608175,32.23584391825,2,0.2956173316236473,1.838919214884025,22.25744279336158,0.08628585938580763,-1.692462532410118e-05,9.902668634314106e-05,9.799884438917508e-07,0.0001294661588747527,0.0001397511705362794
14.73584391825,32.23584391825,2,0.3048489969701896,1.900431022398212,22.30818692703368,-0.008818066051945178,-1.692462532410118e-05,0.0001005045710127431,-1.014808697795064e-07,0.000131742170692939,0.0001415085793981012
12.76415608175,29.01415608175,2,0.7091858318412003,3.722118122698158,18.42682337525883,0.2087326586233218,-9.733640989689539e-06,0.0001925220516494825,5.742021716337916e-06,0.0002837419818687085,0.0003157194529566842
13.48584391825,29.01415608175,2,0.7067952647303171,3.743959837605478,18.54327638741198,0.1183589137792028,-9.733640989689539e-06,0.0001921637333647107,3.229386146723421e-06,0.0002831845189727682,0.0003134291968207522
12.76415608175,29.73584391825,2,0.6489903654814939,4.198570895755188,22.16748490713811,0.2362164717337846,-1.224627655930412e-05,0.0001925220516494825,5.383703431566765e-06,0.0002802258006425588,0.0002666991937514958
13.48584391825,29.73584391825,2,0.6484055590386757,4.195067446875104,22.1624232384083,0.1261814374856464,-1.224627655930412e-05,0.0001921637333647107,2.871067861952379e-06,0.0002796686897805114,0.000266297880970495
12.76415608175,27.76415608175,2,0.7783404480562671,4.383755444616583,18.87174326152846,0.2861546737509246,-4.824412830723199e-06,0.0002566213528016024,1.032771820538782e-05,0.0003896706882240177,0.000400550290923496
13.48584391825,27.76415608175,2,0.7743007799757471,4.401731296410919,18.96800795185521,0.2089741302518449,-4.824412830723199e-06,0.0002533293664136896,7.407172438766573e-06,0.0003845782583812952,0.0003943473162311722
12.76415608175,28.48584391825,2,0.7425310984541102,4.841306157395189,21.85783210780156,0.2264352678270792,-7.744958597344338e-06,0.0002566213528016024,7.035731817474529e-06,0.0003855516906500917,0.0003515847463488251
13.48584391825,28.48584391825,2,0.7392881513623908,4.830763128147145,21.84705560450782,0.1341097203507113,-7.744958597344338e-06,0.0002533293664136896,4.115186050853391e-06,0.0003804618871618658,0.0003477399395890442
14.01415608175,27.76415608175,2,0.7713945310479987,4.390457113894275,19.03048551350932,0.3087031823577593,-5.139534289061411e-06,0.0002510228133000753,1.080300252738313e-05,0.0003805791269539325,0.0003900034646651235
14.73584391825,27.76415608175,2,0.7675048711109989,4.406849113401321,19.12104231231125,0.2406248037621717,-5.139534289061411e-06,0.0002480131793909717,8.279736609090056e-06,0.0003759232729985278,0.0003843388161779602
14.01415608175,28.48584391825,2,0.7368823134024792,4.831972405420355,21.84816245095421,0.2563216402054107,-7.66280020735495e-06,0.0002510228133000753,7.793368618278992e-06,0.0003770200739288871,0.0003449419426017607
14.73584391825,28.48584391825,2,0.7335516637083803,4.826311463398348,21.8574213118244,0.1755262620621274,-7.66280020735495e-06,0.0002480131793909715,5.270102699985162e-06,0.00037236633324792,0.0003411424794325338
14.01415608175,29.01415608175,2,0.7049261954148942,3.78897913390547,18.63125995888801,0.2628029699119506,-9.422302811739468e-06,0.0001917786251506978,7.125077613215304e-06,0.0002830330792373781,0.0003116617279505078
14.73584391825,29.01415608175,2,0.7022040596365946,3.806715504222794,18.73426642465457,0.1802146759360558,-9.422302811739468e-06,0.0001910848082283295,4.841293020076414e-06,0.0002819565366637591,0.0003091231693319305
14.01415608175,29.73584391825,2,0.6476775818658229,4.255886739502876,22.17894323473252,0.2832346647813234,-1.170608740487846e-05,0.0001917786251506978,6.431260690847266e-06,0.0002798348760071919,0.000265800012695984
14.73584391825,29.73584391825,2,0.6462677548977179,4.252464658598438,22.18588435825776,0.1833870039437709,-1.170608740487846e-05,0.0001910848082283296,4.147476097707617e-06,0.0002787589760188014,0.0002648411240554863
15.26415608175,49.01415608175001,2,0,-2.17933449325609,18.58051331233621,-0.1174447816765087,-2.183828102828845e-05,6.120111019408073e-05,-9.3955825341207e-07,6.498544584460599e-05,6.5269395565788e-05
15.98584391825,49.01415608175001,2,0,-2.102675420568962,18.88714960308472,-0.1172250729095819,-2.183828102828845e-05,6.212101906632626e-05,-9.378005832766552e-07,6.638017438779813e-05,6.610578688082149e-05
15.26415608175,49.73584391825,2,0,-2.178748603210884,18.58065978484751,-0.00245617264585862,-2.183652335815283e-05,6.120111019408073e-05,-1.964938116686896e-08,6.498703307572537e-05,6.524241213785387e-05
15.98584391825,49.73584391825,2,0,-2.102089530523739,18.88729607559609,-0.002236463878891107,-2.183652335815283e-05,6.212101906632648e-05,-1.789171103112885e-08,6.6381782299963e-05,6.607788447723533e-05
15.26415608175,47.76415608175001,2,0,-2.175790543394164,18.60312909508403,-0.2350211426857876,-2.184503301492855e-05,6.127064553898423e-05,-1.880169141486301e-06,6.508419241914796e-05,6.539084255184936e-05
15.98584391825,47.76415608175001,2,0,-2.099510291243762,18.90825010368564,-0.2344621638133212,-2.184503301492855e-05,6.218600856478906e-05,-1.875697310506569e-06,6.647203665335004e-05,6.623121744688669e-05
15.26415608175,48.48584391825001,2,0,-2.174299933067736,18.60350174766564,-0.1206007644600896,-2.184056118394927e-05,6.127064553898423e-05,-9.648061156807171e-07,6.508797039968804e-05,6.530916737534906e-05
15.98584391825,48.48584391825001,2,0,-2.098019680917271,18.9086227562675,-0.1200417855876232,-2.184056118394927e-05,6.218600856478982e-05,-9.603342847009852e-07,6.647587195924766e-05,6.614687232621136e-05
16.51415608175,47.76415608175001,2,0,-2.274262612219032,19.06259272047955,-0.1963285480870614,-2.252771453548454e-05,6.281970679530976e-05,-1.570628384696491e-06,6.656302608114391e-05,6.681980113387733e-05
17.23584391825001,47.76415608175001,2,0,-2.206268217492922,19.33457029938399,-0.1972823015585927,-2.252771453548454e-05,6.363563953202308e-05,-1.578258412468741e-06,6.779972966740616e-05,6.758746677627306e-05
16.51415608175,48.48584391825001,2,0,-2.276805954809703,19.06195688483188,-0.09433695599789671,-2.253534456325655e-05,6.281970679530976e-05,-7.546956479831737e-07,6.655197244171093e-05,6.673396848581688e-05
17.23584391825001,48.48584391825001,2,0,-2.208811560083629,19.33393446373617,-0.09529070946944157,-2.253534456325655e-05,6.363563953202265e-05,-7.623256757555326e-07,6.778866847077167e-05,6.750024007199362e-05
16.51415608175,49.01415608175001,2,0,-2.283119322651002,19.04122929875747,-0.1004493044126881,-2.253896527148918e-05,6.275842921414469e-05,-8.035944353015044e-07,6.645458493698603e-05,6.669214976799835e-05
17.23584391825001,49.01415608175001,2,0,-2.214658652907236,19.31507197773253,-0.1007320457976126,-2.253896527148918e-05,6.357995725106988e-05,-8.058563663809011e-07,6.769968463738303e-05,6.745773165247293e-05
16.51415608175,49.73584391825,2,0,-2.283873299677469,19.04104080450085,0.002241700203014976,-2.254122720256858e-05,6.275842921414469e-05,1.79336016241198e-08,6.645124860155044e-05,6.666373155426636e-05
17.23584391825001,49.73584391825,2,0,-2.215412629933731,19.31488348347581,0.001958958818131049,-2.254122720256858e-05,6.357995725106956e-05,1.567167054504839e-08,6.769634705298719e-05,6.742882319486745e-05
15.26415608175,46.51415608175,2,0,-2.166957634125153,18.64857626420697,-0.3461531526678343,-2.185312544056607e-05,6.140901015276243e-05,-2.769225221342674e-06,6.52866368987866e-05,6.561007206202517e-05
15.98584391825001,46.51415608175,2,0,-2.091463312631705,18.95055355018077,-0.3455624222647909,-2.185312544056607e-05,6.231494201068381e-05,-2.764499378118328e-06,6.666024260168962e-05,6.645710656160418e-05
15.26415608175,47.23584391825001,2,0,-2.16538235305056,18.64897008447576,-0.2329116704276476,-2.18483995973424e-05,6.140901015276286e-05,-1.863293363421181e-06,6.52895809940078e-05,6.547146971964046e-05
15.98584391825,47.23584391825001,2,0,-2.089888031557121,18.95094737044952,-0.2323209400246855,-2.18483995973424e-05,6.231494201068414e-05,-1.858567520197484e-06,6.666326653672571e-05,6.63143444597221e-05
15.26415608175001,45.26415608175001,2,0,-2.150720502482558,18.71687598859769,-0.4466594105271199,-2.185580639882234e-05,6.161457956549866e-05,-3.573275284216959e-06,6.559854192784684e-05,6.593334742265848e-05
15.98584391825001,45.26415608175001,2,0,-2.076473336662701,19.01386465187712,-0.4465723715544787,-2.185580639882234e-05,6.250554555533693e-05,-3.57257897243583e-06,6.694961143759931e-05,6.678902972109982e-05
15.26415608175001,45.98584391825,2,0,-2.15048839855542,18.71693401457961,-0.3352886617974437,-2.185511008704103e-05,6.161457956549909e-05,-2.682309294379549e-06,6.559537138934308e-05,6.573383181954695e-05
15.98584391825001,45.98584391825,2,0,-2.076241232735645,19.01392267785871,-0.3352016228247889,-2.185511008704103e-05,6.250554555533639e-05,-2.681612982598312e-06,6.694651992920294e-05,6.658429809404534e-05
16.51415608175001,45.26415608175001,2,0,-2.226642681333669,19.16823679742399,-0.3652558561496085,-2.245984601820693e-05,6.31196718968237e-05,-2.922046849196868e-06,6.710822128447766e-05,6.738589818283088e-05
17.23584391825001,45.26415608175001,2,0,-2.161071149879911,19.43052292323902,-0.3687434094681202,-2.245984601820693e-05,6.39065302742688e-05,-2.949947275744961e-06,6.830134665357409e-05,6.816089084734362e-05
16.51415608175001,45.98584391825,2,0,-2.235942823516388,19.16591176187831,-0.2668985589689989,-2.248774644475509e-05,6.31196718968237e-05,-2.135188471751991e-06,6.706989838061871e-05,6.717839095638519e-05
17.23584391825001,45.98584391825,2,0,-2.170371292062639,19.42819788769331,-0.2703861122874563,-2.248774644475509e-05,6.390653027426869e-05,-2.16308889829965e-06,6.826296354181237e-05,6.79510165662823e-05
16.51415608175001,46.51415608175,2,0,-2.256134767314408,19.10503176928676,-0.2859140458544014,-2.250365667083551e-05,6.294100947556915e-05,-2.287312366835211e-06,6.677938348600713e-05,6.704934901232074e-05
17.23584391825001,46.51415608175,2,0,-2.189091745215759,19.37320385768136,-0.2878599357875961,-2.250365667083551e-05,6.374552574075294e-05,-2.302879486300769e-06,6.799896665231122e-05,6.782035097856729e-05
16.51415608175001,47.23584391825001,2,0,-2.2613238071361,19.10373450933147,-0.1853495127065227,-2.25192237903007e-05,6.294100947556959e-05,-1.482796101652181e-06,6.675742856356072e-05,6.690430709125991e-05
17.23584391825001,47.23584391825001,2,0,-2.194280785037577,19.37190659772556,-0.1872954026397038,-2.25192237903007e-05,6.374552574075186e-05,-1.49836322111763e-06,6.797698668902171e-05,6.767324023517519e-05
15.26415608175001,44.01415608175001,2,0,-2.123906779843518,18.80789606679929,-0.5323083209832338,-2.184281854893869e-05,6.188439283763255e-05,-4.25846656786587e-06,6.602801389336417e-05,6.63708497088183e-05
15.98584391825001,44.01415608175001,2,0,-2.051442582714076,19.09775285531707,-0.5335201137551414,-2.184281854893869e-05,6.275396320318586e-05,-4.268160910041131e-06,6.734694508196839e-05,6.723619876049292e-05
15.26415608175001,44.73584391825,2,0,-2.127138227235383,18.80708820495119,-0.4236120252890563,-2.185251289111418e-05,6.188439283763211e-05,-3.38889620231245e-06,6.601085313100397e-05,6.610403585164759e-05
15.98584391825001,44.73584391825,2,0,-2.05467403010594,19.09694499346896,-0.4248238180610316,-2.185251289111418e-05,6.275396320318542e-05,-3.398590544488253e-06,6.732983086373513e-05,6.696370597821433e-05
15.26415608175,42.76415608175,2,0,-2.082166081728514,18.92119230565697,-0.5988875403290693,-2.179988530605682e-05,6.22135482434851e-05,-4.791100322632555e-06,6.658534403987378e-05,6.693919672405048e-05
15.98584391825,42.76415608175,2,0,-2.012106745398511,19.20142965097698,-0.6024915058249234,-2.179988530605682e-05,6.305426027944513e-05,-4.819932046599387e-06,6.786102270029372e-05,6.781404686684471e-05
15.26415608175,43.48584391825001,2,0,-2.091776656384115,18.9187896619928,-0.4937985358340925,-2.18287170300234e-05,6.221354824348423e-05,-3.95038828667274e-06,6.654329793477467e-05,6.659463039012176e-05
15.98584391825001,43.48584391825001,2,0,-2.021717320054013,19.19902700731321,-0.4974025013299195,-2.18287170300234e-05,6.305426027944545e-05,-3.979220010639356e-06,6.781895274643736e-05,6.746404691488551e-05
16.51415608175001,42.76415608175,2,0,-2.120241813568534,19.35412626980089,-0.4778592215718102,-2.226807481926002e-05,6.362939751421767e-05,-3.822873772574482e-06,6.812971754427677e-05,6.842029218476094e-05
17.23584391825001,42.76415608175,2,0,-2.059359137665863,19.59765697341157,-0.487086323228646,-2.226807481926002e-05,6.435998962504971e-05,-3.896690585829168e-06,6.923863782536241e-05,6.920173505243499e-05
16.51415608175001,43.48584391825001,2,0,-2.144847417986697,19.34797486869662,-0.3865352077178858,-2.234189163251472e-05,6.362939751421853e-05,-3.092281661743086e-06,6.803202242469821e-05,6.806780838696208e-05
17.23584391825001,43.48584391825001,2,0,-2.083964742084098,19.59150557230701,-0.3957623093747351,-2.234189163251472e-05,6.435998962504971e-05,-3.16609847499788e-06,6.914074273442451e-05,6.884789887963426e-05
16.51415608175001,44.01415608175001,2,0,-2.182713992647908,19.25160565464779,-0.4304735119672605,-2.238596930019153e-05,6.335130928899124e-05,-3.443788095738084e-06,6.755576524866669e-05,6.783800123691404e-05
17.23584391825001,44.01415608175001,2,0,-2.119179868427914,19.50574215152776,-0.4362992137575109,-2.238596930019153e-05,6.411371877963117e-05,-3.490393710060087e-06,6.871228854104624e-05,6.86168071270126e-05
16.51415608175001,44.73584391825,2,0,-2.198249197422024,19.24772185345439,-0.3351723256371747,-2.243257491451399e-05,6.335130928899167e-05,-2.681378605097397e-06,6.749311017985573e-05,6.756264022481236e-05
17.23584391825001,44.73584391825,2,0,-2.13471507320203,19.50185835033437,-0.3409980274275063,-2.243257491451399e-05,6.41137187796316e-05,-2.727984219420051e-06,6.864951560735927e-05,6.833928889041402e-05
15.26415608175,41.51415608175001,2,0,-2.019856856400203,19.05580356321716,-0.6423553609971507,-2.170818479105438e-05,6.259445688741507e-05,-5.138842887977206e-06,6.728270394573821e-05,6.766787689971969e-05
15.98584391825,41.51415608175001,2,0,-1.95290846852114,19.32359711473341,-0.6497808608609028,-2.170818479105438e-05,6.339783754196382e-05,-5.198246886887223e-06,6.850252410586375e-05,6.855085279366179e-05
15.26415608175,42.23584391825,2,0,-2.039658189370116,19.05085322997468,-0.5419327791785573,-2.176758878996411e-05,6.259445688741507e-05,-4.335462233428459e-06,6.720141170211746e-05,6.722677225956781e-05
15.98584391825,42.23584391825,2,0,-1.972709801491126,19.31864678149064,-0.5493582790423095,-2.176758878996411e-05,6.339783754196295e-05,-4.394866232338476e-06,6.842109758955546e-05,6.810525562438315e-05
15.26415608175,40.26415608175,2,0,-1.929980625624539,19.21001556837659,-0.6590921885400676,-2.154395045669979e-05,6.301603431930472e-05,-5.272737508320541e-06,6.813364737835503e-05,6.861559881356797e-05
15.98584391825,40.26415608175,2,0,-1.866913612301328,19.46228362166944,-0.6721310164852954,-2.154395045669979e-05,6.377283847918325e-05,-5.377048131882363e-06,6.928383831119274e-05,6.950457964775215e-05
15.26415608175,40.98584391825,2,0,-1.964750833478415,19.20132301641312,-0.5644916685551972,-2.164826108026142e-05,6.301603431930472e-05,-4.515933348441577e-06,6.799491208883031e-05,6.804001185327935e-05
15.98584391825,40.98584391825,2,0,-1.901683820155167,19.45359106970611,-0.5775304965004385,-2.164826108026142e-05,6.377283847918368e-05,-4.620243972003509e-06,6.914482266277483e-05,6.892580053566131e-05
16.51415608175,40.26415608175,2,0,-1.917919791246256,19.60967769614377,-0.5062551235522329,-2.182508548890303e-05,6.428530446065707e-05,-4.050040988417864e-06,6.969314770881882e-05,7.011533898033113e-05
17.23584391825,40.26415608175,2,0,-1.864313213019704,19.82410400904998,-0.5266019723293528,-2.182508548890303e-05,6.49285833993757e-05,-4.212815778634822e-06,7.067143579987979e-05,7.08949836740205e-05
16.51415608175,40.98584391825,2,0,-1.972178054651757,19.59611313029267,-0.4258452562124317,-2.198786027911976e-05,6.428530446065794e-05,-3.406762049699454e-06,6.948128049978348e-05,6.953599650681034e-05
17.23584391825,40.98584391825,2,0,-1.918571476425205,19.81053944319888,-0.4461921049894974,-2.198786027911976e-05,6.492858339937656e-05,-3.569536839915979e-06,7.045914514324093e-05,7.031729422025222e-05
16.51415608175,41.51415608175001,2,0,-2.034052198052879,19.47423603678248,-0.5040466505334463,-2.208835586319519e-05,6.394479707614621e-05,-4.03237320426757e-06,6.883896010030389e-05,6.916024339125585e-05
17.23584391825,41.51415608175001,2,0,-1.976473816170675,19.70454956431129,-0.5180196819615701,-2.208835586319519e-05,6.463573765873266e-05,-4.144157455692561e-06,6.988856924625844e-05,6.994215357166626e-05
16.51415608175,42.23584391825,2,0,-2.071313615194661,19.46492068249703,-0.4176790777101402,-2.220014011462053e-05,6.394479707614621e-05,-3.341432621681122e-06,6.869255556045217e-05,6.871300926193584e-05
17.23584391825001,42.23584391825,2,0,-2.013735233312412,19.69523421002602,-0.4316521091382911,-2.220014011462053e-05,6.46357376587332e-05,-3.453216873106329e-06,6.974186038788908e-05,6.949493971346981e-05
15.26415608175,39.01415608175,2,0,-1.804188316179848,19.38111868676363,-0.6462430602874395,-2.127829756118641e-05,6.346293045058748e-05,-5.169944482299516e-06,6.915244058345799e-05,6.991169166569675e-05
15.98584391825,39.01415608175,2,0,-1.745797228360148,19.61468303804243,-0.6670582439563283,-2.127829756118641e-05,6.416362350442387e-05,-5.336465951650627e-06,7.021874286786803e-05,7.080545856424553e-05
15.26415608175,39.73584391825,2,0,-1.859695472630293,19.36724189765102,-0.55865642855789,-2.144481903053775e-05,6.346293045058748e-05,-4.46925142846312e-06,6.893398806799328e-05,6.911711390777923e-05
15.98584391825,39.73584391825,2,0,-1.801304384810548,19.60080624893,-0.5794716122267651,-2.144481903053775e-05,6.416362350442442e-05,-4.635772897814121e-06,6.999984088831116e-05,7.000823249854229e-05
15.26415608175,37.76415608175,2,0,-1.632902946737993,19.56514826268968,-0.6020937505846257,-2.087740803971332e-05,6.391479679799736e-05,-4.816750004677005e-06,7.035302864947569e-05,7.18606429281385e-05
15.98584391825,37.76415608175,2,0,-1.57994757927138,19.77696973255613,-0.6332002761733638,-2.087740803971332e-05,6.45502612075967e-05,-5.06560220938691e-06,7.132169383169187e-05,7.276329220245214e-05
15.26415608175,38.48584391825,2,0,-1.71585368164129,19.54441057896385,-0.5226606993845588,-2.112626024442321e-05,6.391479679799736e-05,-4.181285595076471e-06,7.00285004287071e-05,7.064681805109049e-05
15.98584391825,38.48584391825,2,0,-1.662898314174597,19.75623204883063,-0.5537672249733105,-2.112626024442321e-05,6.455026120759768e-05,-4.430137799786484e-06,7.0996545069054e-05,7.154367458698472e-05
16.51415608175,37.76415608175,2,0,-1.566134464546355,19.91331010768937,-0.4325435216487479,-2.094227837269983e-05,6.497549991624305e-05,-3.460348173189983e-06,7.187599188227163e-05,7.337713376083318e-05
17.23584391825001,37.76415608175,2,0,-1.522275352228431,20.08874655696107,-0.4715893633107073,-2.094227837269983e-05,6.550180926405815e-05,-3.772714906485658e-06,7.267886206804581e-05,7.415153081188513e-05
16.51415608175,38.48584391825,2,0,-1.670256708978133,19.88727954658142,-0.366754853171902,-2.125464510599516e-05,6.497549991624305e-05,-2.934038825375216e-06,7.147056710554043e-05,7.215545095114469e-05
17.23584391825001,38.48584391825,2,0,-1.626397596660218,20.06271599585309,-0.4058006948338207,-2.125464510599516e-05,6.550180926405804e-05,-3.246405558670565e-06,7.227278549252357e-05,7.29299985250763e-05
16.51415608175,39.01415608175,2,0,-1.764649543983671,19.75737079664773,-0.4826134188408958,-2.145277517806593e-05,6.463530618445968e-05,-3.860907350727166e-06,7.070220223223466e-05,7.141646741028206e-05
17.23584391825001,39.01415608175,2,0,-1.715652211223333,19.95336012768908,-0.5112302551074025,-2.145277517806593e-05,6.522327417758374e-05,-4.08984204085922e-06,7.159762703650955e-05,7.219200772305015e-05
16.51415608175,39.73584391825,2,0,-1.840961107361093,19.73829290580338,-0.409117419700308,-2.16817098681982e-05,6.463530618445968e-05,-3.272939357602464e-06,7.040505418122914e-05,7.061920964029092e-05
17.23584391825,39.73584391825,2,0,-1.791963774600818,19.93428223684448,-0.4377342559668961,-2.16817098681982e-05,6.522327417758298e-05,-3.501874047735169e-06,7.129993443299917e-05,7.139731164311929e-05
15.26415608175,36.51415608175,2,0,-1.404712358190125,19.75661217199965,-0.5259778824222127,-2.030036928380811e-05,6.434492883695096e-05,-4.207823059377701e-06,7.175007657017041e-05,7.520593223386829e-05
15.98584391825,36.51415608175,2,0,-1.357910113466898,19.94382115089255,-0.5704456249196312,-2.030036928380811e-05,6.490655577362969e-05,-4.56356499935705e-06,7.26079411854099e-05,7.613705738315634e-05
15.26415608175,37.23584391825,2,0,-1.523293004849822,19.72696701033472,-0.4557745153372901,-2.065611122378721e-05,6.434492883695096e-05,-3.646196122698321e-06,7.128667712545995e-05,7.308225389157706e-05
15.98584391825,37.23584391825,2,0,-1.476490760126576,19.9141759892277,-0.5002422578347901,-2.065611122378721e-05,6.490655577362991e-05,-4.001938062678321e-06,7.214377134672859e-05,7.399408541317504e-05
15.26415608175,35.26415608175,2,0,-1.112971802422041,19.94747274510733,-0.4178405802442918,-1.951948796383639e-05,6.472229022628107e-05,-3.342724641954334e-06,7.333597242220187e-05,8.179783915267957e-05
15.98584391825,35.26415608175,2,0,-1.073335952082773,20.1060161464644,-0.4773810846666465,-1.951948796383639e-05,6.519792043035229e-05,-3.819048677333172e-06,7.406408022698092e-05,8.281623569739337e-05
15.26415608175,35.98584391825,2,0,-1.271746480881683,19.90777907549242,-0.3583868047353218,-1.999581199921532e-05,6.472229022628107e-05,-2.867094437882575e-06,7.27140988388192e-05,7.754126626607262e-05
15.98584391825,35.98584391825,2,0,-1.232110630542361,20.06632247684971,-0.4179273091576901,-1.999581199921532e-05,6.519792043035294e-05,-3.343418473261521e-06,7.344136977182625e-05,7.850094542724507e-05
16.51415608175,35.26415608175,2,0,-0.9920134661805049,20.22719550728891,-0.2597983362118611,-1.935619949760874e-05,6.552063639626892e-05,-2.078386689694889e-06,7.476326642993095e-05,8.350179789277668e-05
17.23584391825,35.26415608175,2,0,-0.9581762819086324,20.3625442443764,-0.3286455676724268,-1.935619949760874e-05,6.592668260753138e-05,-2.629164541379414e-06,7.538503492443197e-05,8.435639209767818e-05
16.51415608175,35.98584391825,2,0,-1.175606083408547,20.1812973529819,-0.2090425598041349,-1.990697734929287e-05,6.552063639626892e-05,-1.672340478433079e-06,7.40437629347895e-05,7.914914012850123e-05
17.23584391825001,35.98584391825,2,0,-1.141768899136657,20.31664609006946,-0.2778897912646193,-1.990697734929287e-05,6.592668260753159e-05,-2.223118330116954e-06,7.466472261750482e-05,7.996036182443286e-05
16.51415608175,36.51415608175,2,0,-1.313400945303736,20.07214174162158,-0.3575453747554035,-2.026059641826922e-05,6.528157432943204e-05,-2.860362998043228e-06,7.3222812850287e-05,7.676736508805104e-05
17.23584391825001,36.51415608175,2,0,-1.274822377670786,20.22645601215338,-0.4094613011710517,-2.026059641826922e-05,6.574451714102744e-05,-3.275690409368414e-06,7.393034293756626e-05,7.755827261301065e-05
16.51415608175,37.23584391825,2,0,-1.451843415745571,20.03753112401112,-0.2996775233058964,-2.067592382959472e-05,6.528157432943204e-05,-2.397420186447171e-06,7.268253384931333e-05,7.461289242934047e-05
17.23584391825001,37.23584391825,2,0,-1.41326484811262,20.19184539454292,-0.3515934497215446,-2.067592382959472e-05,6.574451714102744e-05,-2.812747597772357e-06,7.338932999063203e-05,7.539167311605844e-05
15.26415608175,34.01415608175,2,0,-0.7630834043275474,20.13206856824532,-0.2817754311650858,-1.854752174844441e-05,6.503308614184706e-05,-2.254203449320686e-06,7.507777409226221e-05,9.628845490228962e-05
15.98584391825,34.01415608175,2,0,-0.7309079095513136,20.26077054735025,-0.3547626827031427,-1.854752174844441e-05,6.541919207916187e-05,-2.838101461625142e-06,7.566991566437033e-05,9.754865651425683e-05
15.26415608175,34.73584391825,2,0,-0.9577160750955933,20.08341040055331,-0.2335121890007213,-1.913141976074854e-05,6.503308614184706e-05,-1.86809751200577e-06,7.431198325304817e-05,8.682113320795151e-05
15.98584391825,34.73584391825,2,0,-0.9255405803193772,20.21211237965817,-0.3064994405387782,-1.913141976074854e-05,6.541919207916165e-05,-2.451995524310226e-06,7.490334032419057e-05,8.792005450066066e-05
15.26415608175,32.76415608175,2,0.2089420641337378,0.3859060726471499,18.59814947214133,-0.1173757203396691,-1.724730835334013e-05,7.484325833594053e-05,-1.187025273552281e-06,9.18318115308398e-05,0.0001251598187716907
15.98584391825,32.76415608175,2,0.2180277349354354,0.461414265488699,18.70430303611526,-0.1937719979576867,-1.724730835334013e-05,7.6070010358061e-05,-1.982392538606853e-06,9.371682688204913e-05,0.0001265446331296245
15.26415608175,33.48584391825,2,0.06400787315609902,0.2084576038100696,21.94358332276018,0.004647990485578525,-1.804267561839477e-05,7.484325833594053e-05,3.972674856786429e-08,9.076866343546957e-05,0.0001065612747376446
15.98584391825,33.48584391825,2,0.07609358353520224,0.3002162978536367,22.03804490894941,-0.08726764021538043,-1.804267561839477e-05,7.607001035805992e-05,-7.556405164869245e-07,9.265132770915627e-05,0.000107898081165558
16.51415608175,32.76415608175,2,0.2237397263598828,0.5891785616495762,18.79750255064667,-0.0007762999531610075,-1.694358334423332e-05,7.688228721648878e-05,-8.000408930068821e-09,9.536976012395555e-05,0.0001274310579010289
17.23584391825,32.76415608175,2,0.2303214759000606,0.6478373531543822,18.8927396893098,-0.07822733198730453,-1.694358334423332e-05,7.787471684150187e-05,-8.130909675962018e-07,9.68949178259979e-05,0.0001284680010557629
16.51415608175,33.48584391825,2,0.08383523456538167,0.4495003318056705,22.12388840600473,0.1127374202299731,-1.77486739028997e-05,7.688228721648791e-05,9.84429216083129e-07,9.429128632308759e-05,0.0001087721712490102
17.23584391825,33.48584391825,2,0.09298260167247741,0.5200249130320573,22.20304468609284,0.02033291030870245,-1.77486739028997e-05,7.787471684150176e-05,1.793386574166708e-07,9.581461680354592e-05,0.0001098234233395821
16.51415608175,34.01415608175,2,0,-0.6193032472369913,20.37052556494676,-0.1334078929748287,-1.827819084311578e-05,6.568112440561921e-05,-1.06726314379863e-06,7.641999538121009e-05,9.838223563516358e-05
17.23584391825,34.01415608175,2,0,-0.5918443733419823,20.48036106052679,-0.2136049711665117,-1.827819084311578e-05,6.601063089235932e-05,-1.708839769332094e-06,7.692516429908488e-05,9.939941453373908e-05
16.51415608175,34.73584391825,2,0,-0.8331621224149632,20.317060846152,-0.09221958213224707,-1.891976746864948e-05,6.568112440561834e-05,-7.377566570579766e-07,7.557715004888715e-05,8.865529030157711e-05
17.23584391825,34.73584391825,2,0,-0.8057032485199001,20.42689634173225,-0.1724166603239707,-1.891976746864948e-05,6.601063089235911e-05,-1.379333282591766e-06,7.608160113283076e-05,8.95650705726007e-05
15.26415608175,31.51415608175,2,0.4339103702263934,1.883811027230125,18.41869213643609,0.08120976921656838,-1.538052980319481e-05,0.0001014552519497313,1.147659521677459e-06,0.0001353172779882464,0.0001717056568274271
15.98584391825,31.51415608175,2,0.4370389042169733,1.925916024865903,18.52696398912618,-0.0004080910031257593,-1.538052980319481e-05,0.0001025746759018797,-5.799207173392933e-09,0.0001370422691975458,0.0001725988329731577
15.26415608175,32.23584391825,2,0.3105451773445373,2.029255017989289,22.36631773589336,0.1953814542989204,-1.653398853204561e-05,0.0001014552519497313,2.267083473825315e-06,0.0001337415659543212,0.0001426152033435292
15.98584391825,32.23584391825,2,0.3169538195114464,2.074110810784075,22.41329038695542,0.09508214106905263,-1.653398853204561e-05,0.0001025746759018795,1.113624744974572e-06,0.0001354648721810938,0.0001438811473256177
15.26415608175,30.26415608175,2,0.5952975826556062,3.02302536000242,18.5376303881163,0.2146545327553899,-1.274127096230632e-05,0.0001406020683724944,4.243207325796091e-06,0.000199362687105159,0.0002343006074989685
15.98584391825,30.26415608175,2,0.5944850726061779,3.044657168640694,18.6370981360436,0.1328164841578031,-1.274127096230632e-05,0.0001410625958162901,2.620204094806429e-06,0.0002000708398330708,0.0002338709203220363
15.26415608175,30.98584391825,2,0.5095595018261767,3.398138440984602,22.39858100301994,0.2883627529595001,-1.436427419329547e-05,0.0001406020683724944,4.703734769591524e-06,0.0001971116349351663,0.0001962726868278335
15.98584391825,30.98584391825,2,0.5107385959155013,3.408745320918004,22.4198374842551,0.1884103797729615,-1.436427419329547e-05,0.0001410625958162895,3.080731538601753e-06,0.0001978192196258943,0.0001967115199738577
16.51415608175,30.26415608175,2,0.593734322993631,3.090344557011522,18.71339464046827,0.2508040259346082,-1.250810348386404e-05,0.0001413129152994857,4.938719466191606e-06,0.0002007857150796724,0.0002334752985167362
17.23584391825,30.26415608175,2,0.592493052749631,3.107371536067618,18.8009099775219,0.1724716341400032,-1.250810348386404e-05,0.0001415362734019346,3.385888467497228e-06,0.0002011273115516374,0.0002328241268209606
16.51415608175,30.98584391825,2,0.5112777420947987,3.464600036836577,22.44826470806262,0.3153527756034848,-1.406093448255842e-05,0.0001413129152994857,5.162077568640708e-06,0.000198630435202361,0.0001969128347565098
17.23584391825,30.98584391825,2,0.5115749932309468,3.471583934592933,22.47097576315024,0.2203557850446722,-1.406093448255842e-05,0.0001415362734019345,3.609246569946656e-06,0.0001989717543461074,0.0001970240038250294
16.51415608175,31.51415608175,2,0.4388432300873096,2.013700077166061,18.61584057637255,0.1539112953675634,-1.50560995913516e-05,0.0001032861633152482,2.194200317911306e-06,0.0001385854852277914,0.0001731182033732661
17.23584391825,31.51415608175,2,0.4406587710215247,2.045611591222591,18.70931792620152,0.07188860971879638,-1.50560995913516e-05,0.0001041105591254525,1.028189677347211e-06,0.0001398550911770831,0.000173643973548639
16.51415608175,32.23584391825,2,0.320902987375417,2.172981547083142,22.46240943453334,0.2562399516154708,-1.622211023191567e-05,0.0001032861633152487,3.018596128116086e-06,0.0001369903086977977,0.0001446725252443338
17.23584391825,32.23584391825,2,0.3253230245047728,2.205188339850087,22.50160869367416,0.1562370966984727,-1.622211023191567e-05,0.0001041105591254523,1.852585487551774e-06,0.0001382586979962612,0.0001455686659442574
15.26415608175,29.01415608175,2,0.7001803005924899,3.827312657269943,18.80767294850504,0.2897442286852128,-9.334736380134308e-06,0.000190523516040752,7.731159206891131e-06,0.0002812187770003947,0.0003072627066776499
15.98584391825,29.01415608175,2,0.6973723857781557,3.84198135409102,18.89911166650145,0.2145737679148916,-9.334736380134308e-06,0.0001896838541887045,5.672285220015543e-06,0.000279916887671894,0.0003047183867989321
15.26415608175,29.73584391825,2,0.6450824298424485,4.287081111994399,22.20306508145391,0.3057391869910398,-1.139361036700992e-05,0.000190523516040752,6.891497354843696e-06,0.0002783344659568181,0.0002640402936847154
15.98584391825,29.73584391825,2,0.643249211422769,4.284262219124912,22.21789823046528,0.2155052746774221,-1.139361036700992e-05,0.0001896838541887049,4.832623367968109e-06,0.0002770332859991001,0.0002628112730639301
15.26415608175,27.76415608175,2,0.7647421964067975,4.381993358240697,19.17537243751557,0.3136052545767546,-5.602021201902899e-06,0.000245924242383469,1.066422451580912e-05,0.0003720508910310715,0.0003804153422599227
15.98584391825,27.76415608175,2,0.7610971516394314,4.396184888171049,19.25766307982282,0.2533373876408776,-5.602021201902899e-06,0.0002432267942540234,8.483360977212741e-06,0.0003678780871199083,0.0003753608606603805
15.26415608175,28.48584391825,2,0.7311415361128322,4.812403024672406,21.86523014361655,0.2677419076713105,-7.782884740499356e-06,0.000245924242383469,7.966776386364362e-06,0.0003689753575101072,0.0003384453069615389
15.98584391825,28.48584391825,2,0.7278918871532138,4.809403305105876,21.88484581947517,0.1967992282627429,-7.782884740499356e-06,0.0002432267942540234,5.785912847767333e-06,0.0003648042316306787,0.0003348759579029183
16.51415608175,27.76415608175,2,0.758530796129439,4.364613297623908,19.30440352734526,0.3079898951787209,-6.115729235067661e-06,0.0002413657713496577,1.020386501439971e-05,0.0003642843312578838,0.0003718827548161053
17.23584391825,27.76415608175,2,0.755177406500913,4.376528114280934,19.37769832270805,0.2540863120379481,-6.115729235067661e-06,0.0002389788103501126,8.302707961923314e-06,0.0003605920106455153,0.0003674348745345814
16.51415608175,28.48584391825,2,0.7255749524166645,4.786389640325093,21.89560156246207,0.2681442820288411,-8.016886287543639e-06,0.0002413657713496585,7.816904014854194e-06,0.0003616042469179454,0.0003323770671127811
17.23584391825,28.48584391825,2,0.7225011732986313,4.784802777023208,21.92005678133239,0.2052016051402683,-8.016886287543639e-06,0.0002389788103501124,5.915746962378236e-06,0.0003579132569492774,0.0003291193195698906
16.51415608175,29.01415608175,2,0.6953370471376329,3.845744891768532,18.96074973980917,0.2993504976164456,-9.394697029280928e-06,0.0001890541751559619,7.86050275700383e-06,0.00027886561954327,0.0003029004708756919
17.23584391825,29.01415608175,2,0.6925864982945449,3.857904537498898,19.04168903903695,0.2304606341925705,-9.394697029280928e-06,0.0001881735218980221,5.997410859680035e-06,0.0002775007067636283,0.0003004781520880176
16.51415608175,29.73584391825,2,0.6418404494682927,4.298601659355546,22.23451241483946,0.3124874699204767,-1.12577889266054e-05,0.0001890541751559615,6.979849499064248e-06,0.0002762553285489501,0.0002618746000216709
17.23584391825,29.73584391825,2,0.6398226060989883,4.296387034309573,22.25404948307879,0.230367552277234,-1.12577889266054e-05,0.0001881735218980219,5.116757601739911e-06,0.0002748910975726393,0.0002605445823008152
17.76415608175001,49.01415608175001,2,0,-2.366786690105747,19.45386988511947,-0.08453817350526625,-2.313681331643397e-05,6.41458129844669e-05,-6.7630538804213e-07,6.779707828608253e-05,6.799116886922394e-05
18.48584391825,49.01415608175001,2,0,-2.306418475394606,19.69534274396403,-0.08531513025560013,-2.313681331643397e-05,6.487023156100059e-05,-6.82521042044801e-07,6.889470559932816e-05,6.868296456362323e-05
17.76415608175001,49.73584391825,2,0,-2.368858574773358,19.45335191395257,0.006014148561485962,-2.31430289704368e-05,6.41458129844669e-05,4.81131884918877e-08,6.778886922301138e-05,6.796201853501358e-05
18.48584391825,49.73584391825,2,0,-2.308490360062181,19.69482477279728,0.005237191811138537,-2.31430289704368e-05,6.487023156100103e-05,4.18975344891083e-08,6.888647938768927e-05,6.865364365411263e-05
17.76415608175001,47.76415608175001,2,0,-2.35287095835578,19.47341391552665,-0.1608334347114342,-2.310791819915981e-05,6.41972212963699e-05,-1.286667477691473e-06,6.791247505964095e-05,6.812191283157672e-05
18.48584391825,47.76415608175001,2,0,-2.293009527009966,19.7128596409099,-0.1632693365195636,-2.310791819915981e-05,6.491555847251966e-05,-1.306154692156509e-06,6.900101978375134e-05,6.881438096623745e-05
17.76415608175001,48.48584391825001,2,0,-2.35936669651083,19.47178998098789,-0.07104128769269952,-2.312740541362496e-05,6.41972212963699e-05,-5.683303015415961e-07,6.788679807162857e-05,6.803401241686104e-05
18.48584391825,48.48584391825001,2,0,-2.299505265164989,19.71123570637125,-0.07347718950081539,-2.312740541362496e-05,6.491555847251999e-05,-5.878175160065231e-07,6.897528870771999e-05,6.872603399659928e-05
19.01415608175,47.76415608175001,2,0,-2.414068479711143,19.83617455113173,-0.1291721052249807,-2.359395877598104e-05,6.540701334739043e-05,-1.033376841799846e-06,6.912763072278229e-05,6.929340325320762e-05
19.73584391825,47.76415608175001,2,0,-2.362039937070853,20.04428872169289,-0.1330017579495466,-2.359395877598104e-05,6.60313558590739e-05,-1.064014063596372e-06,7.007360989263109e-05,6.990964834456285e-05
19.01415608175,48.48584391825001,2,0,-2.424280886976748,19.83362144931546,-0.05112929126464176,-2.362459599777796e-05,6.540701334739087e-05,-4.090343301171341e-07,6.908812826480755e-05,6.920497261311244e-05
19.73584391825,48.48584391825001,2,0,-2.372252344336577,20.04173561987615,-0.05495894398930244,-2.362459599777796e-05,6.603135585907293e-05,-4.396715519144195e-07,7.003402379359287e-05,6.982143566745053e-05
19.01415608175,49.01415608175001,2,0,-2.432637168088649,19.81876408491963,-0.07001234083868252,-2.363945020581938e-05,6.536615480621372e-05,-5.600987267094602e-07,6.900749955206184e-05,6.916185703430454e-05
19.73584391825,49.01415608175001,2,0,-2.380098090913394,20.02892039362065,-0.07125549449873318,-2.363945020581938e-05,6.59966237323168e-05,-5.700439559898655e-07,6.996260379267927e-05,6.977841990122441e-05
19.01415608175,49.73584391825,2,0,-2.435952244515304,19.81793531581323,0.008796274924107502,-2.364939543509956e-05,6.536615480621458e-05,7.037019939286002e-08,6.899466967348581e-05,6.913249372249377e-05
19.73584391825,49.73584391825,2,0,-2.383413167340002,20.02809162451444,0.007553121264178807,-2.364939543509956e-05,6.599662373231821e-05,6.042497011343045e-08,6.994974653305497e-05,6.974911131947547e-05
17.76415608175001,46.51415608175,2,0,-2.325986746136835,19.51176259453647,-0.2312180889388538,-2.305256766326705e-05,6.429842969942617e-05,-1.849744711510831e-06,6.813734910941367e-05,6.835634228373153e-05
18.48584391825,46.51415608175,2,0,-2.267149625996384,19.74711107509828,-0.2356303165790692,-2.305256766326705e-05,6.500447514111159e-05,-1.885042532632553e-06,6.920752315943494e-05,6.904969579567108e-05
17.76415608175001,47.23584391825001,2,0,-2.337752686510718,19.508821109443,-0.1429624087281368,-2.30878654843887e-05,6.429842969942617e-05,-1.143699269825094e-06,6.809102605961242e-05,6.82082808590984e-05
18.48584391825,47.23584391825001,2,0,-2.27891556637024,19.74416959000491,-0.1473746363684064,-2.30878654843887e-05,6.500447514111191e-05,-1.178997090947251e-06,6.916110150604234e-05,6.890110588391684e-05
17.76415608175001,45.26415608175001,2,0,-2.284149375540028,19.56837351037933,-0.2920824506791271,-2.296397681003155e-05,6.444611473364588e-05,-2.336659605433017e-06,6.847519630509563e-05,6.869856033428345e-05
18.48584391825001,45.26415608175001,2,0,-2.226873227155818,19.79747810391617,-0.2990068235531073,-2.296397681003155e-05,6.51334285142564e-05,-2.392054588424859e-06,6.95173720959042e-05,6.939250802583227e-05
17.76415608175001,45.98584391825,2,0,-2.302614369870422,19.56375726179673,-0.2061682281028258,-2.301937179302274e-05,6.444611473364588e-05,-1.649345824822606e-06,6.840284143903099e-05,6.848771227316883e-05
18.48584391825,45.98584391825,2,0,-2.245338221486167,19.79286185533375,-0.2130926009767382,-2.301937179302274e-05,6.513342851425694e-05,-1.704740807813906e-06,6.94448626876835e-05,6.918136660275214e-05
19.01415608175001,45.26415608175001,2,0,-2.32621869516054,19.91914167989661,-0.2281724261051171,-2.337921316843101e-05,6.560222833179759e-05,-1.825379408840937e-06,6.96978237597448e-05,6.987113777016954e-05
19.73584391825,45.26415608175001,2,0,-2.27676276686493,20.11696539307905,-0.2382798019517159,-2.337921316843101e-05,6.61956994713449e-05,-1.906238415613727e-06,7.059772981103124e-05,7.048483085821938e-05
19.01415608175,45.98584391825,2,0,-2.35317169741798,19.91240342933252,-0.1539885336616898,-2.346007217520355e-05,6.560222833179846e-05,-1.231908269293518e-06,6.959376447689773e-05,6.9660300343251e-05
19.73584391825,45.98584391825,2,0,-2.303715769122479,20.11022714251453,-0.1640959095082343,-2.346007217520355e-05,6.619569947134446e-05,-1.312767276065874e-06,7.049346031942557e-05,7.027511732622519e-05
19.01415608175,46.51415608175,2,0,-2.379202071066772,19.86986412873427,-0.1829606218692608,-2.350933793040108e-05,6.548692686880308e-05,-1.463684974954086e-06,6.935688005271421e-05,6.95287424763063e-05
19.73584391825,46.51415608175,2,0,-2.328198971847731,20.07387652561044,-0.1896778143074834,-2.350933793040108e-05,6.609896405943157e-05,-1.517422514459867e-06,7.028450234395542e-05,7.014416883511504e-05
19.01415608175,47.23584391825001,2,0,-2.397114584235458,19.86538600044224,-0.106455973040943,-2.356307546990725e-05,6.548692686880351e-05,-8.516477843275444e-07,6.928765559341695e-05,6.938015712658125e-05
19.73584391825,47.23584391825001,2,0,-2.346111485016571,20.06939839731778,-0.1131731654791792,-2.356307546990725e-05,6.609896405943016e-05,-9.053853238334339e-07,7.021513383773334e-05,6.999612443620659e-05
17.76415608175001,44.01415608175001,2,0,-2.224497069204315,19.64232588695372,-0.3399701570261371,-2.283225133101678e-05,6.463504049361536e-05,-2.719761256209097e-06,6.89306149294278e-05,6.91557286048097e-05
18.48584391825,44.01415608175001,2,0,-2.169341409278603,19.86294852665657,-0.3501684948180144,-2.283225133101678e-05,6.52969084127239e-05,-2.801347958544115e-06,6.993475346520718e-05,6.984928357340552e-05
17.76415608175001,44.73584391825,2,0,-2.25169263664916,19.63552699509251,-0.25723666713742,-2.291383803335132e-05,6.463504049361536e-05,-2.05789333709936e-06,6.882452632860059e-05,6.887755477087186e-05
18.48584391825001,44.73584391825,2,0,-2.196536976723458,19.85614963479532,-0.2674350049292973,-2.291383803335132e-05,6.529690841272379e-05,-2.139480039434379e-06,6.982844101280932e-05,6.957147583872433e-05
17.76415608175001,42.76415608175,2,0,-2.143285792652144,19.73224323395052,-0.3716970875818044,-2.264430912364727e-05,6.485780698276336e-05,-2.973576700654435e-06,6.950912384018115e-05,6.974081365412047e-05
18.48584391825,42.76415608175,2,0,-2.090829942369901,19.94206663507948,-0.3861623567917268,-2.264430912364727e-05,6.548727718615026e-05,-3.089298854333815e-06,7.046481825403336e-05,7.043216091558692e-05
17.76415608175001,43.48584391825001,2,0,-2.181859843878732,19.72259972114387,-0.2930133121584015,-2.276003127732703e-05,6.485780698276336e-05,-2.344106497267212e-06,6.935918180713925e-05,6.938703812542796e-05
18.48584391825,43.48584391825001,2,0,-2.129403993596489,19.93242312227284,-0.3074785813683375,-2.276003127732703e-05,6.548727718615026e-05,-2.4598286509467e-06,7.031457048793172e-05,7.007990344468119e-05
19.01415608175,42.76415608175,2,0,-2.154834100951439,20.05953171815742,-0.281195112043756,-2.294309449757054e-05,6.59143687788649e-05,-2.249560896350048e-06,7.072819599415858e-05,7.090669622007167e-05
19.73584391825,42.76415608175,2,0,-2.11005362366435,20.23865362730578,-0.3003883826847034,-2.294309449757054e-05,6.645173450630997e-05,-2.403107061477627e-06,7.154424230987547e-05,7.151180352049787e-05
19.01415608175,43.48584391825001,2,0,-2.206016155994099,20.04673620439676,-0.2140243961132305,-2.309664066269852e-05,6.59143687788649e-05,-1.712195168905844e-06,7.053078320349131e-05,7.055623197641162e-05
19.73584391825,43.48584391825001,2,0,-2.161235678707082,20.22585811354483,-0.2332176667542321,-2.309664066269852e-05,6.645173450630911e-05,-1.865741334033857e-06,7.13464722664751e-05,7.116472040699592e-05
19.01415608175,44.01415608175001,2,0,-2.252535023303839,19.98289209851162,-0.2618075915195267,-2.319442575338158e-05,6.574728273388026e-05,-2.094460732156214e-06,7.015369153806118e-05,7.032659255451189e-05
19.73584391825,44.01415608175001,2,0,-2.205153555906935,20.17241796809924,-0.2760085503760329,-2.319442575338158e-05,6.631586034264311e-05,-2.208068403008264e-06,7.101640928611238e-05,7.093706997326307e-05
19.01415608175001,44.73584391825,2,0,-2.290404246921255,19.97342479260727,-0.1907353904240759,-2.330803342423383e-05,6.574728273388026e-05,-1.525883123392607e-06,7.000759660295294e-05,7.004967023009448e-05
19.73584391825,44.73584391825,2,0,-2.243022779524305,20.16295066219507,-0.2049363492806228,-2.330803342423383e-05,6.631586034264365e-05,-1.639490794244983e-06,7.087003230526296e-05,7.066220053541531e-05
17.76415608175,41.51415608175001,2,0,-2.03591368274646,19.83620955243579,-0.3845172820817812,-2.23838914267373e-05,6.510460151399168e-05,-3.076138256654249e-06,7.021690245420187e-05,7.047963189833791e-05
18.48584391825,41.51415608175001,2,0,-1.98674540842402,20.03288264972555,-0.4044711980451054,-2.23838914267373e-05,6.569462080586097e-05,-3.235769584360843e-06,7.111356375240584e-05,7.1166139814424e-05
17.76415608175001,42.23584391825,2,0,-2.089124125315309,19.82290694179344,-0.3107648705980666,-2.254352275444374e-05,6.510460151399125e-05,-2.486118964784532e-06,7.001052398886875e-05,7.003357327321785e-05
18.48584391825,42.23584391825,2,0,-2.039955850992887,20.01958003908313,-0.3307187865614044,-2.254352275444374e-05,6.569462080586032e-05,-2.645750292491235e-06,7.090678936003562e-05,7.072321707363975e-05
17.76415608175,40.26415608175,2,0,-1.896992375331195,19.95169922424337,-0.376338358570069,-2.203173498045452e-05,6.536303141784373e-05,-3.010706868560552e-06,7.106047349021782e-05,7.142873016277774e-05
18.48584391825,40.26415608175,2,0,-1.851687781911694,20.13291759792137,-0.4032162742639221,-2.203173498045452e-05,6.590668653887774e-05,-3.225730194111377e-06,7.188766738973158e-05,7.210730799479665e-05
17.76415608175,40.98584391825,2,0,-1.968666817181375,19.93378061378083,-0.3083814684408989,-2.224675830600506e-05,6.536303141784373e-05,-2.467051747527191e-06,7.078267452810461e-05,7.085346306019856e-05
18.48584391825,40.98584391825,2,0,-1.923362223761874,20.11499898745883,-0.3352593841347384,-2.224675830600506e-05,6.590668653887774e-05,-2.682075073077907e-06,7.160938198319121e-05,7.15370058589877e-05
19.01415608175,40.26415608175,2,0,-1.870858709191991,20.24255938534946,-0.2691530010262843,-2.218079537769393e-05,6.627287700047184e-05,-2.153224008210274e-06,7.224893455320981e-05,7.257001623239487e-05
19.73584391825,40.26415608175,2,0,-1.832792390414344,20.39482466046004,-0.3017292763834051,-2.218079537769393e-05,6.672967282580361e-05,-2.413834211067241e-06,7.294421817387689e-05,7.315558081462867e-05
19.01415608175,40.98584391825,2,0,-1.957728776811155,20.22084186844467,-0.2120535228596781,-2.244140558055143e-05,6.627287700047184e-05,-1.696428182877425e-06,7.191318443052833e-05,7.2004076505272e-05
19.73584391825,40.98584391825,2,0,-1.919662458033454,20.37310714355547,-0.2446297982168803,-2.244140558055143e-05,6.672967282580426e-05,-1.957038385735042e-06,7.260797174088956e-05,7.259659444290987e-05
19.01415608175,41.51415608175001,2,0,-2.029127322957994,20.14696542265829,-0.2841485625267411,-2.261077977159221e-05,6.609359121087293e-05,-2.273188500213929e-06,7.142529986277089e-05,7.163590854090218e-05
19.73584391825,41.51415608175001,2,0,-1.987461645842329,20.31362813112096,-0.30941464909887,-2.261077977159221e-05,6.659357933626092e-05,-2.47531719279096e-06,7.218537937997519e-05,7.223283265341597e-05
19.01415608175,42.23584391825,2,0,-2.096503553816905,20.13012136494343,-0.2216500468532698,-2.281290846416884e-05,6.60935912108725e-05,-1.773200374826159e-06,7.116527934404802e-05,7.119599468360473e-05
19.73584391825,42.23584391825,2,0,-2.054837876701194,20.29678407340628,-0.2469161334253851,-2.281290846416884e-05,6.659357933626103e-05,-1.975329067403081e-06,7.192492782429845e-05,7.179800333434301e-05
17.76415608175001,39.01415608175,2,0,-1.720470119637627,20.07555150038349,-0.3459754919271689,-2.15659455831472e-05,6.561814089693727e-05,-2.767803935417351e-06,7.204641935950389e-05,7.272048672131296e-05
18.48584391825,39.01415608175,2,0,-1.679567790769719,20.23916081585513,-0.3813962641804945,-2.15659455831472e-05,6.610896884335217e-05,-3.051170113443956e-06,7.279430355186582e-05,7.338877788259343e-05
17.76415608175,39.73584391825,2,0,-1.814925512313076,20.05193765221477,-0.2846219986252121,-2.184931176117365e-05,6.561814089693771e-05,-2.276975989001697e-06,7.168001130711615e-05,7.192899764500757e-05
18.48584391825,39.73584391825,2,0,-1.774023183445196,20.21554696768629,-0.3200427708785242,-2.184931176117365e-05,6.610896884335228e-05,-2.560342167028194e-06,7.242732938793708e-05,7.260348881307291e-05
17.76415608175001,37.76415608175,2,0,-1.499748904105192,20.20402791174049,-0.2934322708975085,-2.096241882252901e-05,6.585268844085373e-05,-2.347458167180068e-06,7.318142829208079e-05,7.467641651087153e-05
18.48584391825,37.76415608175,2,0,-1.463723038226021,20.34813137525718,-0.3391678351404232,-2.096241882252901e-05,6.628499883140377e-05,-2.713342681123386e-06,7.384121108032425e-05,7.533603385767767e-05
17.76415608175001,38.48584391825,2,0,-1.621710408752838,20.17353753557858,-0.2393934720788349,-2.132830333647194e-05,6.585268844085373e-05,-1.915147776630679e-06,7.270720413068778e-05,7.345665538766833e-05
18.48584391825,38.48584391825,2,0,-1.585684542873677,20.31764099909523,-0.2851290363217632,-2.132830333647194e-05,6.628499883140366e-05,-2.281032290574105e-06,7.336636462467412e-05,7.412096112055416e-05
19.01415608175,37.76415608175,2,0,-1.436453793920283,20.44503625292865,-0.1838966143345169,-2.095268114288782e-05,6.657327904450788e-05,-1.471172914676135e-06,7.428969717091059e-05,7.578192383287091e-05
19.73584391825,37.76415608175,2,0,-1.406846644044981,20.56346485242985,-0.2352495945790546,-2.095268114288782e-05,6.692856484301151e-05,-1.881996756632437e-06,7.483204769081633e-05,7.63405005529301e-05
19.01415608175,38.48584391825,2,0,-1.573395074572488,20.41080093276573,-0.1394858895216173,-2.136350498484454e-05,6.657327904450831e-05,-1.115887116172939e-06,7.375722732210274e-05,7.45712558217105e-05
19.73584391825,38.48584391825,2,0,-1.54378792469724,20.52922953226672,-0.1908388697661957,-2.136350498484454e-05,6.692856484301129e-05,-1.526710958129566e-06,7.429901109837613e-05,7.513717809081512e-05
19.01415608175,39.01415608175,2,0,-1.675044111877289,20.34314245952863,-0.2355761228305678,-2.163465512563023e-05,6.643809115999344e-05,-1.884608982644542e-06,7.32027275506092e-05,7.384262997404154e-05
19.73584391825,39.01415608175,2,0,-1.641014866494632,20.47925944105926,-0.2768226377281556,-2.163465512563023e-05,6.684644210458533e-05,-2.214581101825245e-06,7.38251504594329e-05,7.441428578577137e-05
19.01415608175,39.73584391825,2,0,-1.785034818270841,20.31564478293052,-0.184532254756569,-2.19646272448111e-05,6.643809115999431e-05,-1.476258038052552e-06,7.277655546482786e-05,7.306265514957776e-05
19.73584391825,39.73584391825,2,0,-1.751005572888247,20.45176176446089,-0.2257787696541974,-2.19646272448111e-05,6.684644210458543e-05,-1.806230157233579e-06,7.339843385948046e-05,7.364262974202229e-05
17.76415608175001,36.51415608175,2,0,-1.227641741156623,20.33326176697346,-0.2199256716911601,-2.019506298527996e-05,6.604855104724036e-05,-1.759405373529281e-06,7.447428960931254e-05,7.809097055517126e-05
18.48584391825,36.51415608175,2,0,-1.197000635537038,20.4558261894518,-0.2778887967319431,-2.019506298527996e-05,6.641624431467539e-05,-2.223110373855545e-06,7.503640508070892e-05,7.875542087334368e-05
17.76415608175001,37.23584391825,2,0,-1.382210074598706,20.29461968361294,-0.1739640132618087,-2.065876798560621e-05,6.604855104724036e-05,-1.39171210609447e-06,7.387101716882186e-05,7.591817751743658e-05
18.48584391825,37.23584391825,2,0,-1.35156896897913,20.41718410609124,-0.2319271383025511,-2.065876798560621e-05,6.641624431467528e-05,-1.855417106420409e-06,7.443249178871333e-05,7.657783360575353e-05
17.76415608175,35.26415608175,2,0,-0.8894327167275895,20.45979620883234,-0.1277640320181204,-1.921402166059415e-05,6.618289404164554e-05,-1.022112256144963e-06,7.595869927389472e-05,8.493337464888175e-05
18.48584391825,35.26415608175,2,0,-0.8649380130402973,20.55777502358151,-0.2020043712235394,-1.921402166059415e-05,6.647683048589305e-05,-1.616034969788315e-06,7.640881315392934e-05,8.565512608901615e-05
17.76415608175001,35.98584391825,2,0,-1.08740695460857,20.41030264936222,-0.0910219764871682,-1.98079443742372e-05,6.618289404164597e-05,-7.281758118973455e-07,7.518204661322398e-05,8.050658534607417e-05
18.48584391825,35.98584391825,2,0,-1.062912250921322,20.50828146411121,-0.1652623156925465,-1.98079443742372e-05,6.647683048589294e-05,-1.322098525540372e-06,7.563154116947045e-05,8.11876740636193e-05
19.01415608175,35.26415608175,2,0,-0.8123179078759435,20.63273822602246,-0.0392753061874651,-1.910560788602099e-05,6.667461664957262e-05,-3.142024494997208e-07,7.685158401550559e-05,8.614046491148127e-05
19.73584391825,35.26415608175,2,0,-0.7917824575439587,20.7148800273504,-0.1145179221313358,-1.910560788602099e-05,6.692104205355644e-05,-9.161433770506862e-07,7.722871008506644e-05,8.674468379326369e-05
19.01415608175,35.98584391825,2,0,-1.012964883726119,20.58257648206005,-0.008472130689596118,-1.970754881357162e-05,6.667461664957306e-05,-6.777704551676894e-08,7.606354217325527e-05,8.164583073091241e-05
19.73584391825,35.98584391825,2,0,-0.9924294333941335,20.66471828338799,-0.08371474663341258,-1.970754881357162e-05,6.692104205355688e-05,-6.697179730673006e-07,7.644014947990636e-05,8.221644930629172e-05
19.01415608175,36.51415608175,2,0,-1.149216626382578,20.54396384319386,-0.1160421428049354,-2.011266427897934e-05,6.666005759932642e-05,-9.283371424394834e-07,7.551315365509462e-05,7.920279776453837e-05
19.73584391825,36.51415608175,2,0,-1.124348541897678,20.64343618113346,-0.1791490311702437,-2.011266427897934e-05,6.695847461314522e-05,-1.433192249361949e-06,7.596935166979201e-05,7.976060384329403e-05
19.01415608175,37.23584391825,2,0,-1.317501662023447,20.50189258428338,-0.07874001607742313,-2.061751938590173e-05,6.666005759932555e-05,-6.299201286193851e-07,7.485582826356741e-05,7.702294175612389e-05
19.73584391825,37.23584391825,2,0,-1.292633577538421,20.60136492222348,-0.1418469044426772,-2.061751938590173e-05,6.695847461314587e-05,-1.134775235541417e-06,7.531146906657486e-05,7.757934374953351e-05
17.76415608175,34.01415608175,2,0.0007770821967422181,-0.4967886570829174,20.57695466732921,-0.03596536851893026,-1.806532567949259e-05,6.629520268285408e-05,-2.879467064106044e-07,7.763921529991281e-05,0.000100074804148676
18.48584391825,34.01415608175,2,0.009301715564836388,-0.4555678120913633,20.54933769967932,-0.1200861817987661,-1.806532567949259e-05,6.674316078617807e-05,-9.697094155541571e-07,7.832535669985008e-05,0.0001009028239930911
17.76415608175,34.73584391825,2,0,-0.7244292393076428,20.53614352856499,0.02000142461415976,-1.874708838863645e-05,6.629520268285408e-05,1.600113969132781e-07,7.67420390532757e-05,9.017666307419124e-05
18.48584391825,34.73584391825,2,0,-0.6870993973639772,20.68546289633965,-0.06521891402877078,-1.874708838863645e-05,6.674316078617807e-05,-5.217513122301662e-07,7.742716732277882e-05,9.09377845911122e-05
17.76415608175,32.76415608175,2,0.2344570330886018,0.7495701585448451,18.96998276998842,0.0751895752466844,-1.669058728368678e-05,7.851197298516018e-05,7.857385254289627e-07,9.821444264849908e-05,0.000129128239342356
18.48584391825,32.76415608175,2,0.239207610113843,0.7923786124931986,19.04210418517226,-0.003610155802521416,-1.669058728368678e-05,7.92605595221318e-05,-3.79620600890777e-08,9.936480485529505e-05,0.0001298951007317732
17.76415608175,33.48584391825,2,0.09887847350370127,0.6349018053208422,22.26773449652512,0.172826667796505,-1.751428786920476e-05,7.851197298516018e-05,1.534325062400692e-06,9.710864790920321e-05,0.0001105118475533252
18.48584391825,33.48584391825,2,0.1058861060098223,0.6857412504479266,22.31767516079121,0.07942240227378505,-1.751428786920476e-05,7.92605595221318e-05,7.106244768826514e-07,9.825765986921224e-05,0.0001113414053919403
19.01415608175,32.76415608175,2,0.24219456681123,0.8716644336771369,19.1047612824409,0.1277759478420779,-1.648771873488732e-05,7.975385489459013e-05,1.34890505922513e-06,0.0001003974288323688,0.0001303819572944277
19.73584391825,32.76415608175,2,0.2456224971547344,0.9053851099286243,19.16899554826375,0.04593559928019379,-1.648771873488732e-05,8.035297637837226e-05,4.871364706072459e-07,0.000101317866445781,0.0001309452127702372
19.01415608175,33.48584391825,2,0.1104058652350355,0.7677127402038124,22.36335366602703,0.2166191233781191,-1.734948732350531e-05,7.975385489459013e-05,1.948026543006388e-06,9.923852166449672e-05,0.0001118830960158553
19.73584391825,33.48584391825,2,0.115774873534833,0.8072258507574519,22.40496918144517,0.1200620721365971,-1.734948732350531e-05,8.035297637837204e-05,1.086257954388287e-06,0.0001001578646957384,0.0001125334644838229
19.01415608175,34.01415608175,2,0.01486401676369087,-0.3800302333365817,20.55038554817737,0.03859933739883258,-1.792281013552586e-05,6.706206966859869e-05,3.134538829616465e-07,7.900118912856636e-05,0.0001014505378571835
19.73584391825,34.01415608175,2,0.0215706692001475,-0.3429275523347437,20.54854369935525,-0.04783597014157177,-1.792281013552586e-05,6.748538683506783e-05,-3.911245800652073e-07,7.964940426891882e-05,0.0001021189001175425
19.01415608175,34.73584391825,2,0,-0.6206237271344612,20.80174083965334,0.09209638117884744,-1.862738859855295e-05,6.706206966859826e-05,7.367710494307796e-07,7.807250631159423e-05,9.144712019213536e-05
19.73584391825,34.73584391825,2,0,-0.5853472965953577,20.94284656180976,0.004024073300436509,-1.862738859855295e-05,6.74853868350675e-05,3.219258640349207e-08,7.871975711249245e-05,9.20775294153725e-05
17.76415608175,31.51415608175,2,0.4416586515172648,2.110242553034193,18.78283514662207,0.1950204357494927,-1.481798181358239e-05,0.000104625742989496,2.794282548185993e-06,0.0001409785613509042,0.0001739349022460877
18.48584391825,31.51415608175,2,0.4425803993778727,2.133845357659537,18.86017331132945,0.1145601870851794,-1.481798181358239e-05,0.0001052088556711556,1.64415010821034e-06,0.0001418758422324371,0.000174203964053558
17.76415608175,32.23584391825,2,0.3280270447348296,2.282092167797041,22.54104482740733,0.2836897817122969,-1.596811425355811e-05,0.000104625742989496,3.377395229846401e-06,0.0001394031161468816,0.0001461223956282677
18.48584391825,32.23584391825,2,0.3310143967813034,2.304454632532526,22.57086671285715,0.1862508426259845,-1.596811425355811e-05,0.0001052088556711556,2.227262789870205e-06,0.0001402995653873803,0.0001467390725587836
17.76415608175,30.26415608175,2,0.5915050339669479,3.134347593874509,18.86448038425778,0.2659640249033118,-1.23910266414354e-05,0.0001416390995375052,5.208661981539174e-06,0.0002014527235555026,0.0002323084117583886
18.48584391825,30.26415608175,2,0.5900452301886483,3.147515239688453,18.93976155189878,0.191663311840589,-1.23910266414354e-05,0.0001416966676617915,3.740184546286145e-06,0.0002015383260131492,0.0002315506237009287
17.76415608175,30.98584391825,2,0.5115866760718463,3.508479798911542,22.49537726326025,0.3215121188196085,-1.385950407668857e-05,0.0001416390995375052,5.266230105825751e-06,0.000199413540848147,0.0001970283756662905
18.48584391825,30.98584391825,2,0.5113213897800437,3.512729821968945,22.51697327604327,0.2319850621268323,-1.385950407668857e-05,0.0001416966676617915,3.797752670572831e-06,0.0001994990542166534,0.0001969291506902194
19.01415608175,30.26415608175,2,0.5889491377340501,3.162313151348084,18.99247207016509,0.2667343255284185,-1.234537143127303e-05,0.0001417003720229752,5.191266580646973e-06,0.000201610750623986,0.0002309848933842312
19.73584391825,30.26415608175,2,0.5874137485357194,3.172493916731441,19.05688881912972,0.1964411993921756,-1.234537143127303e-05,0.0001416529244016501,3.808972280486809e-06,0.0002015344004279386,0.0002301970774730258
19.01415608175,30.98584391825,2,0.5110035903062067,3.536654678909953,22.53759278582407,0.3144136254029288,-1.37276657314333e-05,0.0001417003720229739,5.14381895932222e-06,0.0001996906976169692,0.0001968104160881727
19.73584391825,30.98584391825,2,0.5103998696428276,3.539085210507083,22.55767450654012,0.2302053704334127,-1.37276657314333e-05,0.0001416529244016504,3.761524659161731e-06,0.0001996143669301845,0.0001965852520988219
19.01415608175,31.51415608175,2,0.4430385171705925,2.181462903788179,18.92055084608306,0.2160130631952873,-1.464330952171484e-05,0.0001055738937021707,3.102736111630904e-06,0.0001426810432821659,0.0001743380010415657
19.73584391825,31.51415608175,2,0.4433700654548356,2.199376856746969,18.98613795273377,0.1380056113923762,-1.464330952171484e-05,0.0001059880834679824,1.983445055000772e-06,0.0001433177357119246,0.0001744351350954414
19.01415608175,32.23584391825,2,0.3328313375829788,2.364195072596743,22.60217172047232,0.2932978416841573,-1.576260057834511e-05,0.0001055738937021707,3.516925877442706e-06,0.0001411463417863027,0.0001471166986589084
19.73584391825,32.23584391825,2,0.3348174370704559,2.380116399722465,22.62672441281276,0.1993581093846172,-1.576260057834511e-05,0.0001059880834679822,2.39763482081214e-06,0.0001417824656003508,0.0001475317154202415
17.76415608175,29.01415608175,2,0.6906238995304997,3.851020602026343,19.09349468373336,0.2965281241557596,-9.540264474286259e-06,0.0001875334468896552,7.667770683146037e-06,0.000276312287467471,0.0002987734541713445
18.48584391825,29.01415608175,2,0.6880163643689633,3.860909930014815,19.16414771452107,0.2329872450954946,-9.540264474286259e-06,0.000186665382704009,5.974345279341096e-06,0.0002749672868757925,0.0002965384516389128
17.76415608175,29.73584391825,2,0.6383322401817267,4.297778984730909,22.26969525480171,0.3074043270465471,-1.12336898780912e-05,0.0001875334468896552,6.799706497499433e-06,0.0002739399206507023,0.0002595709233768104
18.48584391825,29.73584391825,2,0.6362780737906322,4.295877939176579,22.29093590782883,0.2321582993956396,-1.12336898780912e-05,0.000186665382704009,5.106281093694709e-06,0.000272595540212353,0.0002582408554479291
17.76415608175,27.76415608175,2,0.7528329614714497,4.342417007218382,19.41762170178292,0.2952916654529671,-6.628565637558773e-06,0.0002373393159102585,9.557638986522322e-06,0.0003573407822227117,0.0003643884870300212
18.48584391825,27.76415608175,2,0.7497930439384178,4.352200548969024,19.48194373491107,0.2464500820730156,-6.628565637558773e-06,0.000235247094801206,7.879879471052215e-06,0.0003541045595235537,0.0003605134818691898
17.76415608175,28.48584391825,2,0.7203324443143874,4.757005644967271,21.93178464521602,0.2609793962454616,-8.306325153029011e-06,0.0002373393159102585,7.465417877469942e-06,0.0003549768036489505,0.000326859235703946
18.48584391825,28.48584391825,2,0.7174883637441192,4.756125636309051,21.95779443305571,0.2043851042423179,-8.306325153029011e-06,0.000235247094801206,5.787658361999619e-06,0.0003517416400156024,0.0003239423192954467
19.01415608175,27.76415608175,2,0.7476818864368234,4.318204338744147,19.51581764105067,0.2773257425717547,-7.111658388370021e-06,0.000233816162253429,8.792892072802109e-06,0.0003512167355432262,0.000357870937683133
19.73584391825,27.76415608175,2,0.7449643536334987,4.326092507984868,19.57152802420909,0.232509114702601,-7.111658388370021e-06,0.0002319990029395862,7.293384058743588e-06,0.000348406124764287,0.000354526377866105
19.01415608175,28.48584391825,2,0.7154994079124308,4.726775736710147,21.96945537190998,0.2480750125210523,-8.611166402428582e-06,0.0002338161622534294,6.975732758958755e-06,0.0003491051350111297,0.0003219333935051047
19.73584391825,28.48584391825,2,0.7129166161545484,4.726213971167125,21.99500937175033,0.1965166413079999,-8.611166402428582e-06,0.0002319990029395864,5.476224744899692e-06,0.0003462953698379407,0.0003193618225855212
19.01415608175,29.01415608175,2,0.6861779975951282,3.84803574548459,19.20753071929421,0.2846825864978812,-9.726246619084392e-06,0.0001860470880242124,7.257173412095002e-06,0.0002737549285009564,0.0002949828435745903
19.73584391825,29.01415608175,2,0.6837675371242706,3.8559529514916,19.26850545957864,0.2257198389079829,-9.726246619084392e-06,0.0001852259397305346,5.710225619605272e-06,0.0002724829281781213,0.0002929678458384483
19.01415608175,29.73584391825,2,0.634796666092915,4.289748673215738,22.30525492147492,0.2938072287944226,-1.127319441157408e-05,0.000186047088024212,6.436025118416316e-06,0.0002715882326482602,0.0002572901160474011
19.73584391825,29.73584391825,2,0.6328046574985509,4.288020370611084,22.32641208624855,0.2244058029012103,-1.127319441157408e-05,0.0001852259397305347,4.889077325926586e-06,0.0002703167771032075,0.0002560227156291719
20.26415608175,49.01415608175001,2,0,-2.483161491163465,20.13712992466342,-0.05701298643458966,-2.405582071145382e-05,6.64253449518537e-05,-4.561038914767173e-07,7.008335117365113e-05,7.02021149318677e-05
20.98584391825,49.01415608175001,2,0,-2.438093222163046,20.3174030006651,-0.0586807306387333,-2.405582071145382e-05,6.696616417985874e-05,-4.694458451098664e-07,7.090255294685364e-05,7.074310841562896e-05
20.26415608175,49.73584391825,2,0,-2.487608809041258,20.13601809519397,0.01058941706609355,-2.40691626650872e-05,6.64253449518537e-05,8.471533652874841e-08,7.006629323987303e-05,7.017289987471849e-05
20.98584391825,49.73584391825,2,0,-2.442540540040757,20.31629117119597,0.008921672861855051,-2.40691626650872e-05,6.696616417985971e-05,7.137338289484041e-08,7.08854622682913e-05,7.071409414237616e-05
20.26415608175,47.76415608175001,2,0,-2.46044200811288,20.15229469467161,-0.1015996726141282,-2.39952501816985e-05,6.645569662943945e-05,-8.127973809130256e-07,7.020647143920504e-05,7.033287741663722e-05
20.98584391825,47.76415608175001,2,0,-2.415860505385511,20.33062070558109,-0.1066953900543115,-2.39952501816985e-05,6.699067466216788e-05,-8.535631204344921e-07,7.10169869804892e-05,7.087291565347857e-05
20.26415608175,48.48584391825001,2,0,-2.474030587953344,20.1488975497115,-0.03472741852297932,-2.403601592121989e-05,6.645569662943945e-05,-2.778193481838345e-07,7.015435050957515e-05,7.02449807850306e-05
20.98584391825,48.48584391825001,2,0,-2.429449085225893,20.3272235606213,-0.03982313596316263,-2.403601592121989e-05,6.699067466216886e-05,-3.185850877053011e-07,7.096476727579557e-05,7.078566451126822e-05
21.51415608175,47.76415608175001,2,0,-2.49453751322828,20.42369429577199,-0.07807692433613135,-2.432147547894808e-05,6.735145175705299e-05,-6.246153946890508e-07,7.114904469663681e-05,7.12406140910682e-05
22.23584391825,47.76415608175001,2,0,-2.45698056983302,20.57392206935303,-0.08428694789383952,-2.432147547894808e-05,6.780213507779612e-05,-6.742955831507162e-07,7.183182730842618e-05,7.170514666762813e-05
21.51415608175,48.48584391825001,2,0,-2.511097576048711,20.41955428006689,-0.02174150924328126,-2.437115566740938e-05,6.735145175705299e-05,-1.739320739462501e-07,7.108577105936404e-05,7.115392122145371e-05
22.23584391825,48.48584391825001,2,0,-2.473540632653424,20.56978205364804,-0.02795153280094878,-2.437115566740938e-05,6.780213507779644e-05,-2.236122624075902e-07,7.176845124970882e-05,7.161933353771381e-05
21.51415608175,49.01415608175001,2,0,-2.520854462729915,20.41073224543515,-0.0455561999383508,-2.439532007708384e-05,6.733102675557639e-05,-3.644495995068064e-07,7.102425819198568e-05,7.1111634154869e-05
22.23584391825,49.01415608175001,2,0,-2.48285414050678,20.56273353432768,-0.04759847575169839,-2.439532007708384e-05,6.778703062225401e-05,-3.807878060135871e-07,7.171494522145357e-05,7.157747171465124e-05
21.51415608175,49.73584391825,2,0,-2.526300531565635,20.40937072822621,0.01144428339637862,-2.4411658283591e-05,6.733102675557639e-05,9.155426717102899e-08,7.100345520725974e-05,7.108279661006613e-05
22.23584391825,49.73584391825,2,0,-2.488300209342482,20.56137201711883,0.009402007583071692,-2.4411658283591e-05,6.778703062225422e-05,7.521606066457354e-08,7.169410804297482e-05,7.15489162170563e-05
20.26415608175,46.51415608175,2,0,-2.41850892363906,20.18116218891068,-0.1414476385431059,-2.388415830677354e-05,6.651452614342543e-05,-1.131581108344847e-06,7.043705641284555e-05,7.056640270971927e-05
20.98584391825,46.51415608175,2,0,-2.374900628922561,20.35559536777668,-0.1502478572644201,-2.388415830677354e-05,6.703782568002342e-05,-1.201982858115361e-06,7.123016794336766e-05,7.110454074905502e-05
20.26415608175,47.23584391825001,2,0,-2.441976173562682,20.17529537642978,-0.07603519646835669,-2.39545600565444e-05,6.651452614342543e-05,-6.082815717468534e-07,7.034703422431436e-05,7.041900216178452e-05
20.98584391825,47.23584391825001,2,0,-2.398367878846218,20.34972855529563,-0.08483541518973861,-2.39545600565444e-05,6.703782568002299e-05,-6.786833215179089e-07,7.113997961713577e-05,7.095835828387636e-05
20.26415608175,45.26415608175001,2,0,-2.355740611399235,20.22295992915027,-0.1737853817899304,-2.371673789979777e-05,6.659806426240027e-05,-1.390283054319443e-06,7.077691241130724e-05,7.090526817758378e-05
20.98584391825,45.26415608175001,2,0,-2.313589785329203,20.3915632334304,-0.1867474008068407,-2.371673789979777e-05,6.710387417524066e-05,-1.493979206454725e-06,7.154393016183119e-05,7.144023120748437e-05
20.26415608175,45.98584391825,2,0,-2.390305995444334,20.214318583139,-0.1105591426849495,-2.382043405193307e-05,6.659806426240027e-05,-8.844731414795956e-07,7.064427383073071e-05,7.069669729595533e-05
20.98584391825,45.98584391825,2,0,-2.348155169374373,20.38292188741884,-0.123521161701941,-2.382043405193307e-05,6.710387417523979e-05,-9.881692936155283e-07,7.141105679781267e-05,7.12336582097862e-05
21.51415608175,45.26415608175001,2,0,-2.375392661049365,20.48250186123565,-0.1285985230035615,-2.398725800434649e-05,6.744432008479358e-05,-1.028788184028492e-06,7.171489752896525e-05,7.180373761425639e-05
22.23584391825,45.26415608175001,2,0,-2.340033860271865,20.62393706434565,-0.1440451071784132,-2.398725800434649e-05,6.786862569412358e-05,-1.152360857427305e-06,7.23583574406938e-05,7.226189255657598e-05
21.51415608175,45.98584391825,2,0,-2.416583552182274,20.47220413845243,-0.07556032183731083,-2.411083067774522e-05,6.744432008479358e-05,-6.044825746984867e-07,7.155727310271715e-05,7.15987867132768e-05
22.23584391825,45.98584391825,2,0,-2.381224751404738,20.61363934156257,-0.09100690601218957,-2.411083067774522e-05,6.786862569412402e-05,-7.280552480975165e-07,7.2200497336354e-05,7.205937542231625e-05
21.51415608175,46.51415608175,2,0,-2.446520861227462,20.44788498531554,-0.1065354581494609,-2.41871747441803e-05,6.739044864199168e-05,-8.522836651956873e-07,7.137886449727926e-05,7.147063741997617e-05
22.23584391825,46.51415608175,2,0,-2.409847168606063,20.59457975580113,-0.1171608575203773,-2.41871747441803e-05,6.783053295344847e-05,-9.372868601630188e-07,7.204586021527251e-05,7.193269408612133e-05
21.51415608175,47.23584391825001,2,0,-2.474855259549926,20.44080138573492,-0.051524919217295,-2.42721779391477e-05,6.739044864199168e-05,-4.1219935373836e-07,7.127054017360294e-05,7.132547794068951e-05
22.23584391825,47.23584391825001,2,0,-2.4381815669285,20.58749615622063,-0.06215031858819789,-2.42721779391477e-05,6.783053295344879e-05,-4.972025487055831e-07,7.193736593297861e-05,7.178911137351109e-05
20.26415608175,44.01415608175001,2,0,-2.269866700684033,20.27647560779367,-0.1960737711967619,-2.348475392842384e-05,6.670061530548695e-05,-1.568590169574095e-06,7.122814554502073e-05,7.135453681558044e-05
20.98584391825,44.01415608175001,2,0,-2.229650659164617,20.43733977387133,-0.2138286153676383,-2.348475392842384e-05,6.718320780371993e-05,-1.710628922941106e-06,7.196048467883733e-05,7.188460002056414e-05
20.26415608175,44.73584391825,2,0,-2.31721295180646,20.26463904501306,-0.1357497089176795,-2.362679268179112e-05,6.670061530548695e-05,-1.085997671341436e-06,7.104633833731895e-05,7.108153574561113e-05
20.98584391825,44.73584391825,2,0,-2.276996910286972,20.42550321109101,-0.1535045530885152,-2.362679268179112e-05,6.71832078037208e-05,-1.228036424708121e-06,7.177837410482472e-05,7.161465053999654e-05
20.26415608175,42.76415608175,2,0,-2.158023747168331,20.3400375872178,-0.2061278471665601,-2.31777060607129e-05,6.681453927683163e-05,-1.64902277733248e-06,7.179300046730952e-05,7.19246871876962e-05
20.98584391825,42.76415608175,2,0,-2.120204135593799,20.49131603351593,-0.2294672809496933,-2.31777060607129e-05,6.726837461572602e-05,-1.835738247597547e-06,7.248232699193683e-05,7.244759904371915e-05
20.26415608175,43.48584391825001,2,0,-2.22026223725672,20.32447796469571,-0.1493984298047888,-2.336442153097807e-05,6.681453927683163e-05,-1.19518743843831e-06,7.155372297853942e-05,7.158045856357724e-05
20.98584391825,43.48584391825001,2,0,-2.182442625682188,20.47575641099384,-0.1727378635879356,-2.336442153097807e-05,6.726837461572602e-05,-1.381902908703485e-06,7.224268052807197e-05,7.210778789946637e-05
21.51415608175,42.76415608175,2,0,-2.15554429338579,20.57763646948662,-0.1455154196160376,-2.335985091442382e-05,6.757287213706581e-05,-1.164123356928301e-06,7.271031980925953e-05,7.28017500918135e-05
22.23584391825,42.76415608175,2,0,-2.124038680034039,20.70365892289362,-0.1723893701052748,-2.335985091442382e-05,6.795093949728682e-05,-1.379114960842198e-06,7.328464676956577e-05,7.32463968927792e-05
21.51415608175,43.48584391825001,2,0,-2.227208161357201,20.55972050249377,-0.09825699958846508,-2.357484251833806e-05,6.757287213706581e-05,-7.860559967077206e-07,7.243517918448133e-05,7.246531236913287e-05
22.23584391825,43.48584391825001,2,0,-2.195702548005451,20.68574295590077,-0.1251309500777294,-2.357484251833806e-05,6.795093949728682e-05,-1.001047600621835e-06,7.300915340612601e-05,7.291475804936326e-05
21.51415608175,44.01415608175001,2,0,-2.279204221903669,20.52630875744894,-0.1421717566809261,-2.371450051605089e-05,6.750755140135954e-05,-1.137374053447409e-06,7.215835351592316e-05,7.224423697559282e-05
22.23584391825,44.01415608175001,2,0,-2.245576664431575,20.66081898733731,-0.1629918993730514,-2.371450051605089e-05,6.791108209102466e-05,-1.303935194984411e-06,7.27707807277893e-05,7.269672020406861e-05
21.51415608175,44.73584391825,2,0,-2.334724602415947,20.51242866232087,-0.09173042047277243,-2.388106165758772e-05,6.750755140135954e-05,-7.338433637821794e-07,7.194559966300522e-05,7.197668549079305e-05
22.23584391825,44.73584391825,2,0,-2.301097044943817,20.64693889220939,-0.1125505631649113,-2.388106165758772e-05,6.791108209102509e-05,-9.004045053192904e-07,7.255772929045176e-05,7.243266857614139e-05
20.26415608175,41.51415608175001,2,0,-2.016844306484455,20.4115003754514,-0.2022623096763763,-2.278310208111137e-05,6.693027664663202e-05,-1.61809847741101e-06,7.247363610669193e-05,7.263909532704459e-05
20.98584391825,41.51415608175001,2,0,-1.981853803704477,20.55146238657131,-0.2321172974851816,-2.278310208111137e-05,6.735016267999175e-05,-1.856938379881453e-06,7.311209364915968e-05,7.315210148015014e-05
20.26415608175,42.23584391825,2,0,-2.09645760730782,20.39159705024555,-0.1497765555065998,-2.302194198358146e-05,6.693027664663202e-05,-1.198212444052799e-06,7.216700114998431e-05,7.220834805353635e-05
20.98584391825,42.23584391825,2,0,-2.061467104527951,20.53155906136503,-0.1796315433153645,-2.302194198358146e-05,6.735016267999045e-05,-1.437052346522916e-06,7.280503152538181e-05,7.272742202429951e-05
20.26415608175,40.26415608175,2,0,-1.842587699714262,20.48824101074842,-0.1834632963083893,-2.228687344768437e-05,6.703644139416636e-05,-1.467706370467114e-06,7.327182741954038e-05,7.355296523801501e-05
20.98584391825,40.26415608175,2,0,-1.810811742244713,20.61534484062662,-0.2208717479156426,-2.228687344768437e-05,6.741775288380094e-05,-1.766973983325141e-06,7.385235461539619e-05,7.405307509065535e-05
20.26415608175,40.98584391825,2,0,-1.942343570666928,20.46330204301026,-0.135799360104162,-2.258614106054237e-05,6.703644139416636e-05,-1.086394880833296e-06,7.288662836804674e-05,7.299938441574344e-05
20.98584391825,40.98584391825,2,0,-1.910567613197379,20.59040587288845,-0.1732078117113746,-2.258614106054237e-05,6.741775288380094e-05,-1.385662493690997e-06,7.346668313714446e-05,7.350730914871298e-05
21.51415608175,40.26415608175,2,0,-1.814565695722607,20.69408136257565,-0.1171553143382802,-2.236187531637286e-05,6.767271291682015e-05,-9.372425147062416e-07,7.414212911909468e-05,7.43903326360827e-05
22.23584391825,40.26415608175,2,0,-1.788294672847329,20.79916545407676,-0.1585357254094356,-2.236187531637286e-05,6.79879651913235e-05,-1.268285803275484e-06,7.462215040638967e-05,7.481162753282502e-05
21.51415608175,40.98584391825,2,0,-1.924913458579063,20.66649442186154,-0.0777487800252539,-2.269291860494223e-05,6.767271291682015e-05,-6.219902402020312e-07,7.371606750055813e-05,7.385029111277063e-05
22.23584391825,40.98584391825,2,0,-1.898642435703668,20.77157851336312,-0.1191291910964906,-2.269291860494223e-05,6.798796519132491e-05,-9.530335287719245e-07,7.419566089659012e-05,7.427941053172623e-05
21.51415608175,41.51415608175001,2,0,-2.001649565638212,20.63439210359743,-0.1373783484003954,-2.291279229292022e-05,6.763137438402234e-05,-1.099026787203163e-06,7.337154587916758e-05,7.349883531164033e-05
22.23584391825,41.51415608175001,2,0,-1.97261634649074,20.75052498018731,-0.1710861981828914,-2.291279229292022e-05,6.7979773013792e-05,-1.368689585463131e-06,7.39013888211957e-05,7.393312360290931e-05
21.51415608175,42.23584391825,2,0,-2.091537165058071,20.61192020374246,-0.09382851967913372,-2.31824550911798e-05,6.763137438402234e-05,-7.506281574330698e-07,7.302557365131906e-05,7.307868172960879e-05
22.23584391825,42.23584391825,2,0,-2.062503945910672,20.72805308033206,-0.1275363694616433,-2.31824550911798e-05,6.797977301379113e-05,-1.020290955693146e-06,7.355501912999371e-05,7.351926712044305e-05
20.26415608175,39.01415608175,2,0,-1.631332776552432,20.5671621147183,-0.1495978160714277,-2.167399457674242e-05,6.711998498834049e-05,-1.196782528571421e-06,7.418850379416593e-05,7.480099761674749e-05
20.98584391825,39.01415608175,2,0,-1.603084267226631,20.6801561520215,-0.1956565607259602,-2.167399457674242e-05,6.745896710025009e-05,-1.565252485807682e-06,7.470528337661048e-05,7.528585817517726e-05
20.26415608175,39.73584391825,2,0,-1.754156095631278,20.53645628494858,-0.1072250520827139,-2.204246453397895e-05,6.711998498834049e-05,-8.578004166617109e-07,7.37126419995344e-05,7.403570604028226e-05
20.98584391825,39.73584391825,2,0,-1.725907586305414,20.64945032225204,-0.1532837967372735,-2.204246453397895e-05,6.745896710025085e-05,-1.226270373898188e-06,7.422892247238879e-05,7.452963586598078e-05
20.26415608175,37.76415608175,2,0,-1.379226472735354,20.64467402012636,-0.1017083118873106,-2.092926392885422e-05,6.716633804259263e-05,-8.13666495098485e-07,7.522301640874498e-05,7.671712843950499e-05
20.98584391825,37.76415608175,2,0,-1.354699584113719,20.7427815746129,-0.1575144924799156,-2.092926392885422e-05,6.746066070605224e-05,-1.260115939839324e-06,7.567231631286988e-05,7.718751824115946e-05
20.26415608175,38.48584391825,2,0,-1.528042954315523,20.60746989973132,-0.06491797895487274,-2.137571337359472e-05,6.716633804259263e-05,-5.193438316389819e-07,7.464404771244122e-05,7.551948258316358e-05
20.98584391825,38.48584391825,2,0,-1.503516065693825,20.70557745421811,-0.1207241595474777,-2.137571337359472e-05,6.7460660706053e-05,-9.657932763798213e-07,7.509284438495751e-05,7.599803561116114e-05
21.51415608175,37.76415608175,2,0,-1.329693298267702,20.81054961490364,-0.0424872202753931,-2.090345824637956e-05,6.76575134063058e-05,-3.398977622031448e-07,7.600505920046205e-05,7.750313168311933e-05
22.23584391825,37.76415608175,2,0,-1.309402555329235,20.8917125866575,-0.1015968286028875,-2.090345824637956e-05,6.79010023215674e-05,-8.127746288231e-07,7.637671983088675e-05,7.789501384048757e-05
21.51415608175,38.48584391825,2,0,-1.487318920474419,20.77114320935196,-0.01205110586761102,-2.137633511299971e-05,6.76575134063058e-05,-9.640884694088817e-08,7.539137127914152e-05,7.631963030098817e-05
22.23584391825,38.48584391825,2,0,-1.467028177535871,20.85230618110615,-0.07116071419507831,-2.137633511299971e-05,6.790100232156838e-05,-5.692857135606265e-07,7.576259644153028e-05,7.671969030507979e-05
21.51415608175,39.01415608175,2,0,-1.591383101915833,20.75384980415507,-0.08507827059299293,-2.169550576945472e-05,6.768542585482889e-05,-6.806261647439435e-07,7.502103959153411e-05,7.561204666806687e-05
22.23584391825,39.01415608175,2,0,-1.568073542628882,20.84708804130287,-0.1349674684851353,-2.169550576945472e-05,6.796514056627229e-05,-1.079739747881082e-06,7.544748915538538e-05,7.601834964509372e-05
21.51415608175,39.73584391825,2,0,-1.724420962961555,20.72059033889364,-0.05011393166241829,-2.209461935259189e-05,6.768542585482889e-05,-4.009114532993463e-07,7.450540236079918e-05,7.486239361437067e-05
22.23584391825,39.73584391825,2,0,-1.70111140367456,20.81382857604162,-0.1000031295546149,-2.209461935259189e-05,6.796514056627283e-05,-8.000250364369188e-07,7.493141100911095e-05,7.527757486392424e-05
20.26415608175,36.51415608175,2,0,-1.083660739069183,20.71642863699482,-0.04284538392749072,-2.004085727461724e-05,6.715950022963876e-05,-3.427630714199258e-07,7.636865925707498e-05,8.013548118277851e-05
20.98584391825,36.51415608175,2,0,-1.062761140395184,20.80002703169082,-0.1091870139918798,-2.004085727461724e-05,6.741029541372674e-05,-8.734961119350381e-07,7.675195508340872e-05,8.060185904214422e-05
20.26415608175,37.23584391825,2,0,-1.260571752574311,20.67220088361854,-0.01149598591662767,-2.057159031513262e-05,6.715950022963876e-05,-9.196788733302139e-08,7.567698451821746e-05,7.795398153649652e-05
20.98584391825,37.23584391825,2,0,-1.239672153900357,20.75579927831435,-0.07783761598104383,-2.057159031513262e-05,6.74102954137262e-05,-6.227009278483506e-07,7.605979496259179e-05,7.842110901154847e-05
20.26415608175,35.26415608175,2,0,-0.7460261432085842,20.77874321460995,0.02169006091924598,-1.901027822995543e-05,6.708879920131871e-05,1.735204873539679e-07,7.760977480072165e-05,8.714806881955322e-05
20.98584391825,35.26415608175,2,0,-0.728368172620689,20.84937509696153,-0.05483828062056073,-1.901027822995543e-05,6.730069484837346e-05,-4.387062449644858e-07,7.793385319416649e-05,8.76459183246532e-05
20.26415608175,35.98584391825,2,0,-0.9501017206481537,20.72772432025006,0.04817701680111643,-1.962250496227414e-05,6.708879920131871e-05,3.854161344089314e-07,7.680740825678021e-05,8.259902944533814e-05
20.98584391825,35.98584391825,2,0,-0.9324437500602043,20.79835620260186,-0.02835132473867673,-1.962250496227414e-05,6.730069484837411e-05,-2.268105979094139e-07,7.713103845143755e-05,8.30736392478448e-05
21.51415608175,35.26415608175,2,0,-0.6878877409489421,20.90377890630658,0.06335157037451347,-1.892426389608188e-05,6.744240269294021e-05,5.068125629961078e-07,7.826360384728796e-05,8.797587455369198e-05
22.23584391825,35.26415608175,2,0,-0.6732829589364915,20.96219803435639,-0.01483294170070992,-1.892426389608188e-05,6.761766007708963e-05,-1.186635336056794e-07,7.85314788950549e-05,8.837948223063809e-05
21.51415608175,35.98584391825,2,0,-0.8963797731495413,20.85165589825644,0.0852587433932306,-1.954973999268368e-05,6.744240269294021e-05,6.820699471458448e-07,7.744306647065416e-05,8.338988219868206e-05
22.23584391825,35.98584391825,2,0,-0.8817749911370365,20.91007502630645,0.007074231317980104,-1.954973999268368e-05,6.761766007709028e-05,5.659385054384083e-08,7.77105666333039e-05,8.377926420543506e-05
21.51415608175,36.51415608175,2,0,-1.028396718899699,20.8611588292477,0.008020220995143268,-1.99797965638772e-05,6.757842562871239e-05,6.416176796114614e-08,7.708795613771259e-05,8.09135476285397e-05
22.23584391825,36.51415608175,2,0,-1.011017960102842,20.93067386443512,-0.06066231726455942,-1.99797965638772e-05,6.778697073427467e-05,-4.852985381164753e-07,7.740657294171951e-05,8.129871882338198e-05
21.51415608175,37.23584391825,2,0,-1.211550154258935,20.81537047040789,0.03408835919045455,-2.052925686995491e-05,6.757842562871239e-05,2.727068735236364e-07,7.637121759301182e-05,7.87340681210938e-05
22.23584391825,37.23584391825,2,0,-1.194171395462098,20.88488550559524,-0.03459417906922103,-2.052925686995491e-05,6.778697073427445e-05,-2.767534325537682e-07,7.668942153289202e-05,7.912196083404753e-05
20.26415608175,34.01415608175,2,0.02592785645031537,-0.2803798930596528,20.55782091020084,0.09043220027655158,-1.78051210075149e-05,6.776636747514529e-05,7.427145997379722e-07,8.023561371530664e-05,0.0001025578659351286
20.98584391825,34.01415608175,2,0.03114811092030911,-0.2510763794874498,20.55885088632932,0.002970008235581536,-1.78051210075149e-05,6.81107036933444e-05,2.452394029723356e-08,8.076271542716967e-05,0.0001030887805912519
20.26415608175,34.73584391825,2,0,-0.5272399327230977,21.04517985280213,0.1358813522421218,-1.852331166695562e-05,6.776636747514529e-05,1.087050817936974e-06,7.928752174953419e-05,9.249602293869095e-05
20.98584391825,34.73584391825,2,0,-0.498545247873226,21.15995859220162,0.04610751981197524,-1.852331166695562e-05,6.811070369334375e-05,3.688601584958019e-07,7.981384176066374e-05,9.300895928384699e-05
20.26415608175,32.76415608175,2,0.2477740848886195,0.9635769142785078,19.22258295593738,0.1592387957169473,-1.63443188968546e-05,8.074888501891477e-05,1.693520975738988e-06,0.0001021214697101794,0.0001313012437368656
20.98584391825,32.76415608175,2,0.2502340336403024,0.990573954316071,19.28031338250335,0.07653031960234408,-1.63443188968546e-05,8.12314060562988e-05,8.165782181223085e-07,0.0001028625002302348,0.0001317106829509941
20.26415608175,33.48584391825,2,0.1192273844352278,0.8707786649260578,22.44313424812171,0.2395747769346012,-1.722126165447127e-05,8.074888501891477e-05,2.176042013122582e-06,0.0001009405059096541,0.0001129556935097873
20.98584391825,33.48584391825,2,0.1233082513368335,0.9019959538072264,22.48015630778435,0.1423636997496084,-1.722126165447127e-05,8.123140605629858e-05,1.299099255506336e-06,0.0001016806611932225,0.0001134588761932337
21.51415608175,32.76415608175,2,0.2517704532893352,1.033106531972491,19.32571720182449,0.1722871891426288,-1.624452404022443e-05,8.154691309437793e-05,1.842078435956244e-06,0.000103483889688261,0.0001319677076921848
22.23584391825,32.76415608175,2,0.2535132361706559,1.054305380450502,19.3751242477209,0.09025326731194033,-1.624452404022443e-05,8.192637331521084e-05,9.672323388450416e-07,0.0001040664020510251,0.0001322604731298213
21.51415608175,33.48584391825,2,0.1259217874581351,0.9519755198250515,22.51248764115648,0.2427248172772583,-1.711937013733575e-05,8.154691309437793e-05,2.221538656788178e-06,0.0001023044054062698,0.000113783496739801
22.23584391825,33.48584391825,2,0.1289917675986464,0.9761746929794448,22.54358917584944,0.1466225382490254,-1.711937013733575e-05,8.192637331521019e-05,1.346692559676867e-06,0.0001028862438494384,0.000114167193882795
21.51415608175,34.01415608175,2,0.03452444300809943,-0.1996221229756703,20.56863768431625,0.1204567586597736,-1.770495463834776e-05,6.833869362137153e-05,9.981133777022932e-07,8.124525339538322e-05,0.000103435102654174
22.23584391825,34.01415608175,2,0.0385430957327173,-0.1764738991381947,20.57229299942036,0.03282328131517791,-1.770495463834776e-05,6.861723747018358e-05,2.731128658559458e-07,8.167148038344061e-05,0.0001038503574697764
21.51415608175,34.73584391825,2,0,-0.4484272482837737,21.24373494460766,0.1595821533144424,-1.84299551501942e-05,6.833869362137153e-05,1.276657226515539e-06,8.028688018643759e-05,9.33469751866777e-05
22.23584391825,34.73584391825,2,0,-0.4252152608827968,21.33658289421157,0.06895708933355414,-1.84299551501942e-05,6.861723747018326e-05,5.516567146684331e-07,8.071248045450407e-05,9.37575154618607e-05
20.26415608175,31.51415608175,2,0.4434767459406959,2.232130946226717,19.0364285593705,0.2234022492525242,-1.453007356042882e-05,0.0001062504867527119,3.211398591135501e-06,0.0001438802062849636,0.0001744664124637151
20.98584391825,31.51415608175,2,0.4434369032267461,2.246330486666916,19.09395036808697,0.1473678155306038,-1.453007356042882e-05,0.0001065531960928866,2.118254931165759e-06,0.0001443449913664325,0.0001744547297690941
20.26415608175,32.23584391825,2,0.3360145092175566,2.421201948135487,22.65179473465042,0.2916645849291483,-1.562321722039813e-05,0.0001062504867527119,3.514107931309757e-06,0.0001423803243115135,0.0001477829912059154
20.98584391825,32.23584391825,2,0.3373032667007265,2.43321957591848,22.67469707315242,0.2005456392564645,-1.562321722039813e-05,0.0001065531960928867,2.420964271340666e-06,0.0001428447048108127,0.0001480544726577843
20.26415608175,30.26415608175,2,0.5862991571505903,3.178719534718268,19.10063845405284,0.2575760253951631,-1.234855654863481e-05,0.0001415976506640034,4.980913717672511e-06,0.0002014472036668922,0.0002296285461325523
20.98584391825,30.26415608175,2,0.5847897498847585,3.186733875035867,19.15599456654455,0.1908326752580732,-1.234855654863481e-05,0.0001414940876257459,3.676839388336056e-06,0.0002012845033021673,0.000228863105535823
20.26415608175,30.98584391825,2,0.5098936844463337,3.552745032426929,22.57503090122857,0.2988025463938875,-1.36526308779712e-05,0.0001415976506640034,4.87735067941468e-06,0.0001996355816942584,0.0001963968628097021
20.98584391825,30.98584391825,2,0.5091138551123937,3.554161486829024,22.59400512139207,0.2192589815135345,-1.36526308779712e-05,0.0001414940876257456,3.573276350078876e-06,0.0001994729531110887,0.0001961073376895538
21.51415608175,30.26415608175,2,0.5837203883711173,3.186827199323947,19.19229897215789,0.2408257339842667,-1.238588678343992e-05,0.0001414095077131128,4.628153332649214e-06,0.000201103993926203,0.0002283239107147441
22.23584391825,30.26415608175,2,0.5823091859171263,3.193192217475597,19.23960778704404,0.1769879099712726,-1.238588678343992e-05,0.0001412819941327508,3.389835811637583e-06,0.0002009046532057533,0.000227616243665045
21.51415608175,30.98584391825,2,0.5085205864721574,3.559649846063342,22.60861931092259,0.2764964732442043,-1.362420430445159e-05,0.0001414095077131128,4.500639752286033e-06,0.0001993837233738876,0.0001958876491521925
22.23584391825,30.98584391825,2,0.5076793271023878,3.560511391358624,22.62639235401219,0.200763584513745,-1.362420430445159e-05,0.0001412819941327502,3.262322231274619e-06,0.0001991844742527568,0.0001955769740264037
21.51415608175,31.51415608175,2,0.4433279400901484,2.267196560507689,19.13602294772536,0.2189417860493913,-1.446774491584853e-05,0.0001067442044674163,3.146438297404e-06,0.0001447271054368896,0.0001744227875668684
22.23584391825,31.51415608175,2,0.4430699405870892,2.278417583176337,19.1855728771483,0.1448129547261585,-1.446774491584853e-05,0.0001069633397111488,2.080160009733552e-06,0.0001450631223257153,0.0001743472025420992
21.51415608175,32.23584391825,2,0.3380676092794251,2.460629499352144,22.69560939317639,0.2784727675288289,-1.553402320351905e-05,0.0001067442044674163,3.365573541136858e-06,0.0001432633799900111,0.0001482159566983878
22.23584391825,32.23584391825,2,0.3388690497070512,2.469723361673182,22.71642284971181,0.1900169069910124,-1.553402320351905e-05,0.0001069633397111487,2.299295253466085e-06,0.0001435991103009784,0.0001483856578500779
20.26415608175,29.01415608175,2,0.6820865726556529,3.840049303960689,19.30470341856593,0.266294876699695,-9.925988306120062e-06,0.0001846509346478732,6.701066486537754e-06,0.0002713174100502531,0.0002915789751284586
20.98584391825,29.01415608175,2,0.6799091758376847,3.846349692165314,19.3569209905756,0.2111418749095811,-9.925988306120062e-06,0.0001839011398410462,5.277049111598723e-06,0.0002701561567573636,0.0002897995075196031
20.26415608175,29.73584391825,2,0.6313936179898332,4.277397902982366,22.33919727429193,0.2742095902772091,-1.135000568105894e-05,0.0001846509346478732,5.951271679710546e-06,0.0002693234956402257,0.0002551325162614578
20.98584391825,29.73584391825,2,0.6295325136547847,4.27584672618909,22.35939699808863,0.2096500652917823,-1.135000568105894e-05,0.0001839011398410463,4.527254304771515e-06,0.0002681627079426754,0.000253967846778123
20.26415608175,27.76415608175,2,0.7430907281647345,4.293852058934966,19.60006036643514,0.2552602732591996,-7.550220709044728e-06,0.0002307628335168031,7.948651177459311e-06,0.0003458813643451468,0.0003522569305669929
20.98584391825,27.76415608175,2,0.7406982300113593,4.30012727939415,19.64774110965184,0.2136333119663454,-7.550220709044728e-06,0.0002292027151606953,6.591032895015073e-06,0.0003434684377105274,0.000349401245057483
20.26415608175,28.48584391825,2,0.711126252282108,4.697363434820279,22.00600478120473,0.2306849273153271,-8.907838991488643e-06,0.0002307628335168031,6.388532821351676e-06,0.000343970758419487,0.0003176033835061626
20.98584391825,28.48584391825,2,0.7088241742341326,4.696941696512497,22.02995100372011,0.183110086902997,-8.907838991488643e-06,0.0002292027151606953,5.030914538907763e-06,0.0003415585070458433,0.0003153708095187195
21.51415608175,27.76415608175,2,0.7390629656079324,4.270611560163907,19.67156296232376,0.2298913415004691,-7.937904951515279e-06,0.0002281489569696538,7.048178256063072e-06,0.000341296693626443,0.0003474761076597011
22.23584391825,27.76415608175,2,0.7369952047226893,4.275549171349731,19.71183051877896,0.1907571365752657,-7.937904951515279e-06,0.0002268301544088215,5.802392655970628e-06,0.0003392570776618148,0.0003450722199866964
21.51415608175,28.48584391825,2,0.7072440902368078,4.669803060791327,22.03993684618983,0.2096635742540552,-9.183690551607944e-06,0.0002281489569696538,5.729375695230892e-06,0.00033954458296565,0.0003138566344687548
22.23584391825,28.48584391825,2,0.7052350471149753,4.669454943849807,22.06160741634343,0.165200652893644,-9.183690551607944e-06,0.0002268301544088215,4.483590095138122e-06,0.0003375055040967231,0.0003119524052879653
21.51415608175,29.01415608175,2,0.6784079276857544,3.829282669721092,19.38697377499913,0.2429172765252565,-1.012423737146826e-05,0.0001833841534706511,6.042867282820045e-06,0.0002690817684088057,0.000288585290749289
22.23584391825,29.01415608175,2,0.6764882238103428,3.834276823923398,19.43124481395535,0.1908327700307275,-1.012423737146826e-05,0.0001827215152466782,4.719031184048216e-06,0.0002680556426204352,0.0002870474564501029
21.51415608175,29.73584391825,2,0.6282349995524579,4.262653145161566,22.37060387913062,0.2500226073087924,-1.14480734702406e-05,0.0001833841534706511,5.380229058847552e-06,0.000267228786622301,0.0002531621689201827
22.23584391825,29.73584391825,2,0.6265535292216371,4.261311205454658,22.38929811515958,0.1893557043787842,-1.14480734702406e-05,0.0001827215152466785,4.056392960075181e-06,0.0002662030495625801,0.0002521256855609976
22.76415608175001,49.01415608175001,2,0,-2.548075955490715,20.6416046101325,-0.03556390314509437,-2.466712674567629e-05,6.809159551681657e-05,-2.845112251607549e-07,7.183128026911424e-05,7.189129602938088e-05
23.48584391825,49.01415608175001,2,0,-2.516735713865449,20.76696557663357,-0.03792620228328515,-2.466712674567629e-05,6.846767841631976e-05,-3.034096182662812e-07,7.240090135541676e-05,7.228284244212697e-05
22.76415608175001,49.73584391825,2,0,-2.554375419859185,20.64002974404066,0.01144645929283166,-2.468602513878191e-05,6.809159551681744e-05,9.157167434265326e-08,7.18072654468087e-05,7.186295788317072e-05
23.48584391825,49.73584391825,2,0,-2.523035178233991,20.76539071054143,0.009084160154681532,-2.468602513878191e-05,6.846767841631976e-05,7.267328123745226e-08,7.237685387280758e-05,7.22548160637352e-05
22.76415608175001,47.76415608175001,2,0,-2.518732286086117,20.6525211448344,-0.05834656450711849,-2.458196023134309e-05,6.810305349233894e-05,-4.667725160569479e-07,7.195677389336734e-05,7.201797123655013e-05
23.48584391825,47.76415608175001,2,0,-2.48777886302334,20.77633483708551,-0.06550686531024219,-2.458196023134309e-05,6.847449456909229e-05,-5.240549224819376e-07,7.251950271586359e-05,7.240809127617728e-05
22.76415608175001,48.48584391825001,2,0,-2.537826421561241,20.64774761096561,-0.01191642991292367,-2.463924263776846e-05,6.810305349233894e-05,-9.533143930338939e-08,7.188395367266356e-05,7.193283173223364e-05
23.48584391825,48.48584391825001,2,0,-2.506872998498463,20.77156130321672,-0.01907673071604738,-2.463924263776846e-05,6.847449456909229e-05,-1.52613845728379e-07,7.244658511073497e-05,7.232391241151925e-05
24.01415608175001,47.76415608175001,2,0,-2.535146184586428,20.84093896727409,-0.04199714999555797,-2.478521896449584e-05,6.871912164294622e-05,-3.359771999644637e-07,7.263188908876401e-05,7.266690030970205e-05
24.73584391825001,47.76415608175001,2,0,-2.510405141423932,20.93990313992408,-0.04993997894422162,-2.478521896449584e-05,6.901601416089617e-05,-3.99519831553773e-07,7.308168378826745e-05,7.298385969915246e-05
24.01415608175001,48.48584391825001,2,0,-2.556327061782892,20.83564374797497,-0.004885585251732539,-2.484876159608523e-05,6.871912164294622e-05,-3.908468201386031e-08,7.255118145233541e-05,7.258341107665054e-05
24.73584391825001,48.48584391825001,2,0,-2.53158601862036,20.9346079206251,-0.01282841420043685,-2.484876159608523e-05,6.901601416089661e-05,-1.026273136034948e-07,7.300089006806824e-05,7.290129393503003e-05
24.01415608175001,49.01415608175001,2,0,-2.5669517649344,20.83183055040308,-0.02689008594227761,-2.487971008811254e-05,6.871541917323736e-05,-2.151206875382209e-07,7.250634402254595e-05,7.254267571660586e-05
24.73584391825001,49.01415608175001,2,0,-2.541888645306823,20.93208302891339,-0.02951636357363999,-2.487971008811254e-05,6.901617660876828e-05,-2.361309085891199e-07,7.296187568427129e-05,7.286100701126328e-05
24.01415608175001,49.73584391825,2,0,-2.573955171951217,20.83007969864887,0.01070459349899197,-2.490072030916299e-05,6.871541917323736e-05,8.56367479919358e-08,7.247967114798168e-05,7.251487387634596e-05
24.73584391825001,49.73584391825,2,0,-2.548892052323651,20.93033217715914,0.008078315867697354,-2.490072030916299e-05,6.901617660876817e-05,6.462652694157883e-08,7.29351738493085e-05,7.283350685276957e-05
22.76415608175001,46.51415608175,2,0,-2.465628162991819,20.67240460013804,-0.07775150203469358,-2.442793380168425e-05,6.812419725083516e-05,-6.220120162775487e-07,7.218450604179327e-05,7.224364162878933e-05
23.48584391825,46.51415608175,2,0,-2.43544304054166,20.79314508993867,-0.08992730174449751,-2.442793380168425e-05,6.848641872023707e-05,-7.194184139559801e-07,7.273350585651036e-05,7.263110944773796e-05
22.76415608175001,47.23584391825001,2,0,-2.498096962217898,20.66428740033152,-0.03247381835945516,-2.452534019936248e-05,6.812419725083516e-05,-2.597905468756413e-07,7.206057548083192e-05,7.210125249732923e-05
23.48584391825,47.23584391825001,2,0,-2.467911839767739,20.78502789013215,-0.04464961806923198,-2.452534019936248e-05,6.848641872023707e-05,-3.571969445538559e-07,7.260941511113599e-05,7.249040447394675e-05
22.76415608175001,45.26415608175001,2,0,-2.387557389522083,20.7004592360776,-0.09186984117063235,-2.420055103533274e-05,6.815151546706597e-05,-7.349587293650588e-07,7.251516442453823e-05,7.256992286326418e-05
23.48584391825001,45.26415608175001,2,0,-2.358510420912042,20.81664711051776,-0.1094143126884137,-2.420055103533274e-05,6.850007909038646e-05,-8.753145015073099e-07,7.304379239309951e-05,7.295332236912356e-05
22.76415608175001,45.98584391825,2,0,-2.43434264690281,20.68876292173228,-0.04829938825550318,-2.434090680747481e-05,6.815151546706553e-05,-3.863951060440254e-07,7.233635954636689e-05,7.236922147485409e-05
23.48584391825,45.98584391825,2,0,-2.405295678292787,20.80495079617237,-0.06584385977328458,-2.434090680747481e-05,6.850007909038581e-05,-5.267508781862766e-07,7.286476815044759e-05,7.275514792390864e-05
24.01415608175001,45.26415608175001,2,0,-2.39427501148267,20.8793667564583,-0.06257376002008627,-2.436517344191118e-05,6.872939362985268e-05,-5.005900801606901e-07,7.318150575536301e-05,7.320735343794642e-05
24.73584391825001,45.26415608175001,2,0,-2.371113732362502,20.97201187293897,-0.08183077321347552,-2.436517344191118e-05,6.90073289792947e-05,-6.546461857078042e-07,7.360304259504746e-05,7.351797971884167e-05
24.01415608175001,45.98584391825,2,0,-2.445627046665092,20.86652874766269,-0.02783184133988781,-2.451922954745845e-05,6.872939362985268e-05,-2.226547307191025e-07,7.29853509922814e-05,7.301096804850145e-05
24.73584391825001,45.98584391825,2,0,-2.422465767545032,20.95917386414293,-0.04708885453335838,-2.451922954745845e-05,6.90073289792934e-05,-3.767108362668671e-07,7.340669675375417e-05,7.33239551774628e-05
24.01415608175001,46.51415608175,2,0,-2.477926605877322,20.85703964218568,-0.05439486939663057,-2.461499685255597e-05,6.872486813969602e-05,-4.351589551730446e-07,7.28568370871252e-05,7.288802431583328e-05
24.73584391825001,46.51415608175,2,0,-2.45382373424214,20.95345112872641,-0.06784299910850516,-2.461499685255597e-05,6.90141025993182e-05,-5.427439928680413e-07,7.329522893061342e-05,7.320246096977079e-05
24.01415608175001,47.23584391825001,2,0,-2.513788285108751,20.84807422237782,-0.0182405619438583,-2.472258189025026e-05,6.872486813969602e-05,-1.459244955508664e-07,7.27200560763774e-05,7.274852118114235e-05
24.73584391825001,47.23584391825001,2,0,-2.489685413473461,20.94448570891898,-0.03168869165567868,-2.472258189025026e-05,6.90141025993195e-05,-2.535095332454294e-07,7.31583071779713e-05,7.30645571628956e-05
22.76415608175001,44.01415608175001,2,0,-2.282880421450197,20.73547705959146,-0.09902132809063389,-2.389359899631379e-05,6.817983092785281e-05,-7.921706247250712e-07,7.294927102003932e-05,7.300057432136984e-05
23.48584391825001,44.01415608175001,2,0,-2.255321689195732,20.84571198860932,-0.122408362122339,-2.389359899631379e-05,6.851053571490639e-05,-9.792668969787121e-07,7.345121714586623e-05,7.337823597948528e-05
22.76415608175001,44.73584391825,2,0,-2.345245845534857,20.71988570357029,-0.05768322970878736,-2.408069526856778e-05,6.817983092785281e-05,-4.614658376702989e-07,7.271049646320415e-05,7.273909334862189e-05
23.48584391825001,44.73584391825,2,0,-2.317687113280392,20.83012063258815,-0.08107026374054668,-2.408069526856778e-05,6.851053571490639e-05,-6.485621099243735e-07,7.321216985492322e-05,7.312027831042359e-05
22.76415608175001,42.76415608175,2,0,-2.149611766700475,20.77585578495568,-0.09785896060287712,-2.349944228140606e-05,6.820242792521854e-05,-7.82871684823017e-07,7.348704473152391e-05,7.354456778501223e-05
23.48584391825,42.76415608175,2,0,-2.123860783164442,20.87885971909981,-0.1276602664034351,-2.349944228140606e-05,6.851143972765093e-05,-1.021282131227481e-06,7.395651926148117e-05,7.391453901099993e-05
22.76415608175001,43.48584391825001,2,0,-2.229081915501947,20.75598824775531,-0.05923248529881479,-2.373785272781048e-05,6.820242792521854e-05,-4.738598823905184e-07,7.31820755063735e-05,7.321640054611782e-05
23.48584391825001,43.48584391825001,2,0,-2.203330931965923,20.85899218189941,-0.08903379109935927,-2.373785272781048e-05,6.851143972765083e-05,-7.122703287948742e-07,7.365123238201735e-05,7.359105749277787e-05
24.01415608175001,42.76415608175,2,0,-2.14198410546825,20.93775873892749,-0.06134803412046939,-2.360455612864039e-05,6.871441524894254e-05,-4.907842729637551e-07,7.412967516448428e-05,7.415918269546999e-05
24.73584391825001,42.76415608175,2,0,-2.121523469263896,21.0196012837449,-0.09349846215519228,-2.360455612864039e-05,6.895994288339479e-05,-7.479876972415382e-07,7.450272833851068e-05,7.445759044523377e-05
24.01415608175001,43.48584391825001,2,0,-2.227718580227435,20.91632512023782,-0.03065707981393792,-2.386175955291805e-05,6.871441524894297e-05,-2.452566385115033e-07,7.380068062889632e-05,7.383895916827568e-05
24.73584391825001,43.48584391825001,2,0,-2.207257944023117,20.9981676650551,-0.06280750784862016,-2.386175955291805e-05,6.895994288339479e-05,-5.024600627889612e-07,7.417346342423228e-05,7.414158219438593e-05
24.01415608175001,44.01415608175001,2,0,-2.282830458282576,20.90677238828892,-0.06522874944368329,-2.403047537713538e-05,6.872793600915059e-05,-5.218299955494663e-07,7.36059159447628e-05,7.362823506525552e-05
24.73584391825002,44.01415608175001,2,0,-2.260893469747064,20.99452034243097,-0.09069584688672427,-2.403047537713538e-05,6.899117987157674e-05,-7.255667750937942e-07,7.400549797940681e-05,7.393358361133917e-05
24.01415608175001,44.73584391825,2,0,-2.350742718130744,20.88979432332687,-0.03232326664046872,-2.423421215667988e-05,6.872793600915059e-05,-2.585861331237498e-07,7.334598030545631e-05,7.337274963659489e-05
24.73584391825002,44.73584391825,2,0,-2.328805729595258,20.97754227746882,-0.05779036408350971,-2.423421215667988e-05,6.899117987157642e-05,-4.623229126680777e-07,7.3745327321064e-05,7.36813291653768e-05
22.76415608175001,41.51415608175001,2,0,-1.985545934048947,20.81963076230597,-0.08748595921477792,-2.30094515988014e-05,6.821125518661824e-05,-6.998876737182233e-07,7.412820926697474e-05,7.422388565103651e-05
23.48584391825,41.51415608175001,2,0,-1.961877398427065,20.91430490479349,-0.1243379827556887,-2.30094515988014e-05,6.849527761408083e-05,-9.947038620455092e-07,7.456019416193655e-05,7.458397404819764e-05
22.76415608175001,42.23584391825,2,0,-2.083817996824551,20.79506274661207,-0.05198315578192796,-2.330426778712821e-05,6.821125518661824e-05,-4.158652462554237e-07,7.374999350816707e-05,7.381452260525319e-05
23.48584391825,42.23584391825,2,0,-2.060149461202669,20.88973688909959,-0.08883517932275738,-2.330426778712821e-05,6.849527761408083e-05,-7.10681434582059e-07,7.418162709576362e-05,7.418059020016787e-05
22.76415608175001,40.26415608175,2,0,-1.788434402858241,20.86452876322708,-0.06758582173060076,-2.241461309972803e-05,6.819723956461325e-05,-5.406865738448062e-07,7.487173013237942e-05,7.509320146917422e-05
23.48584391825,40.26415608175,2,0,-1.767059740686062,20.95002741191579,-0.1121428522367552,-2.241461309972803e-05,6.845373551067938e-05,-8.971428178940416e-07,7.526231084298254e-05,7.544118087265776e-05
22.76415608175001,40.98584391825,2,0,-1.907253150874642,20.83482407622312,-0.0355238284723068,-2.277106934377735e-05,6.819723956461368e-05,-2.841906277784544e-07,7.441283644994553e-05,7.456650661999225e-05
23.48584391825,40.98584391825,2,0,-1.8858784887025,20.92032272491168,-0.08008085897848834,-2.277106934377735e-05,6.845373551067938e-05,-6.406468718279067e-07,7.480304595110839e-05,7.4921748300867e-05
24.01415608175,40.26415608175,2,0,-1.765247377828576,21.00306549089373,-0.03196596892781202,-2.245124400176642e-05,6.862200747312277e-05,-2.557277514224961e-07,7.547065651666881e-05,7.56706951882053e-05
24.73584391825,40.26415608175,2,0,-1.748311410758932,21.0708093591723,-0.07900106676598953,-2.245124400176642e-05,6.88252390779585e-05,-6.320085341279163e-07,7.578013391723828e-05,7.594976055588868e-05
24.01415608175,40.98584391825,2,0,-1.890674305396989,20.97170875900162,-0.00656201832319658,-2.282752478447166e-05,6.862200747312277e-05,-5.249614658557264e-08,7.498604587578656e-05,7.515623805293863e-05
24.73584391825,40.98584391825,2,0,-1.873738338327209,21.03945262728074,-0.05359711616144186,-2.282752478447166e-05,6.882523907796013e-05,-4.287769292915349e-07,7.529521552009032e-05,7.544163428860502e-05
24.01415608175,41.51415608175001,2,0,-1.970011162910848,20.97052907357621,-0.05030743163505504,-2.308045898017567e-05,6.868170196577253e-05,-4.024594530804403e-07,7.475182564736449e-05,7.482179385699186e-05
24.73584391825,41.51415608175001,2,0,-1.951236298481885,21.04562853129206,-0.08965096800491552,-2.308045898017567e-05,6.890700033892008e-05,-7.172077440393242e-07,7.509451516162908e-05,7.511144126053048e-05
24.01415608175001,42.23584391825,2,0,-2.07492725989716,20.94430004932963,-0.0221451349916111,-2.339520727113461e-05,6.868170196577253e-05,-1.771610799328888e-07,7.434796063521029e-05,7.44225324565966e-05
24.73584391825001,42.23584391825,2,0,-2.056152395468161,21.01939950704562,-0.06148867136144447,-2.339520727113461e-05,6.890700033892051e-05,-4.919093708915558e-07,7.469035502844094e-05,7.471746339877112e-05
22.76415608175001,39.01415608175,2,0,-1.556243760651363,20.90805869345374,-0.03856339906518241,-2.170642698884735e-05,6.815078282757306e-05,-3.085071925214592e-07,7.571543634931865e-05,7.6289384781178e-05
23.48584391825,39.01415608175,2,0,-1.537287979111347,20.98388181961381,-0.09142790552245372,-2.170642698884735e-05,6.837825220605326e-05,-7.314232441796298e-07,7.606222529310136e-05,7.662356356660121e-05
22.76415608175001,39.73584391825,2,0,-1.697215777870714,20.8728156891489,-0.01012972675510336,-2.21293430405054e-05,6.815078282757306e-05,-8.103781404082688e-08,7.51687480184408e-05,7.555484528110679e-05
23.48584391825,39.73584391825,2,0,-1.678259996330697,20.94863881530897,-0.06299423321236113,-2.21293430405054e-05,6.837825220605326e-05,-5.03953865698889e-07,7.551516105500921e-05,7.589718089876401e-05
22.76415608175001,37.76415608175,2,0,-1.287517924031843,20.94770347625491,-0.001646311888843423,-2.087822013790582e-05,6.806266546324118e-05,-1.317049511074739e-08,7.665568564578875e-05,7.815579531209554e-05
23.48584391825,37.76415608175,2,0,-1.271002673905362,21.01376447676084,-0.06326749683486588,-2.087822013790582e-05,6.826084846475896e-05,-5.06139974678927e-07,7.695814128364458e-05,7.847638138486318e-05
22.76415608175001,38.48584391825,2,0,-1.451841083887899,20.90662268629103,0.0231265633009463,-2.13711896174741e-05,6.806266546324161e-05,1.850125064075704e-07,7.601545047312965e-05,7.698630724151345e-05
23.48584391825,38.48584391825,2,0,-1.435325833761454,20.97268368679681,-0.03849462164513037,-2.13711896174741e-05,6.826084846475896e-05,-3.079569731610429e-07,7.631754056798082e-05,7.731465825394793e-05
24.01415608175,37.76415608175,2,0,-1.25235931915353,21.05904245081015,0.02434622803900788,-2.085478378193941e-05,6.839082329791529e-05,1.947698243120631e-07,7.71867801799661e-05,7.868704292205836e-05
24.73584391825,37.76415608175,2,0,-1.239283081954633,21.11134739960573,-0.03920712125123874,-2.085478378193941e-05,6.854773814430205e-05,-3.136569700099099e-07,7.742620946098893e-05,7.894199487213301e-05
24.01415608175,38.48584391825,2,0,-1.421834917260824,21.01667355128332,0.04396058383737993,-2.136321057626129e-05,6.839082329791529e-05,3.516846706990394e-07,7.652602490546008e-05,7.75307101451479e-05
24.73584391825,38.48584391825,2,0,-1.408758680061846,21.06897850007924,-0.01959276545279894,-2.136321057626129e-05,6.854773814430302e-05,-1.567421236223915e-07,7.676515832471719e-05,7.779262387656815e-05
24.01415608175,39.01415608175,2,0,-1.526313709950823,21.03324996882536,-0.006745620571252755,-2.171080384690292e-05,6.85274508682018e-05,-5.396496457002204e-08,7.628352024498667e-05,7.684363161262771e-05
24.73584391825,39.01415608175,2,0,-1.511301297705138,21.0932996178081,-0.06189758075627368,-2.171080384690292e-05,6.870759981515001e-05,-4.951806460501895e-07,7.655814883518678e-05,7.711068991009691e-05
24.01415608175,39.73584391825,2,0,-1.673385603777591,20.99648199536867,0.01577299779730122,-2.215201952838322e-05,6.85274508682018e-05,1.261839823784097e-07,7.571285366868157e-05,7.61228309298234e-05
24.73584391825,39.73584391825,2,0,-1.658373191531862,21.05653164435159,-0.03937896238769261,-2.215201952838322e-05,6.870759981515056e-05,-3.150316991015409e-07,7.598717449255116e-05,7.639698266177615e-05
22.76415608175001,36.51415608175,2,0,-0.9816944607885878,20.98126686365783,0.04121381253395712,-1.992643576544974e-05,6.792540953233592e-05,3.29710500271657e-07,7.768769951254522e-05,8.155398234863548e-05
23.48584391825,36.51415608175,2,0,-0.9675547337474759,21.03782577182228,-0.02936915553561716,-1.992643576544974e-05,6.809508625682927e-05,-2.349532442849373e-07,7.794683903887282e-05,8.186620407413456e-05
22.76415608175001,37.23584391825,2,0,-1.169915708974095,20.93421155161132,0.06242340309562484,-2.049109951000616e-05,6.792540953233549e-05,4.993872247649987e-07,7.695051239819659e-05,7.937970016829854e-05
23.48584391825,37.23584391825,2,0,-1.155775981932947,20.99077045977591,-0.008159564973935895,-2.049109951000616e-05,6.809508625682927e-05,-6.527651979148716e-08,7.72093101295629e-05,7.969596441165748e-05
22.76415608175001,35.26415608175,2,0,-0.6391431055595405,21.00708897329272,0.08765717388681596,-1.885092911642471e-05,6.773399919898435e-05,7.012573910945277e-07,7.880616279630568e-05,8.86447312901617e-05
23.48584391825,35.26415608175,2,0,-0.6272608549107179,21.05461797588801,0.008154134308198911,-1.885092911642471e-05,6.787658620677022e-05,6.523307446559129e-08,7.902396827495249e-05,8.896579752052476e-05
22.76415608175001,35.98584391825,2,0,-0.8511512111025725,20.95408694690697,0.1054805498601312,-1.94869534330538e-05,6.773399919898435e-05,8.438443988810496e-07,7.797106971426325e-05,8.403653995551066e-05
23.48584391825,35.98584391825,2,0,-0.83926896045375,21.00161594950226,0.02597751028144638,-1.94869534330538e-05,6.787658620677022e-05,2.078200822515711e-07,7.81885675567849e-05,8.435004836954953e-05
24.01415608175,35.26415608175,2,0,-0.5996169281052302,21.09075671803596,0.09765351426942898,-1.87913795443655e-05,6.797011504019925e-05,7.812281141554318e-07,7.924579689360832e-05,8.917438393640255e-05
24.73584391825,35.26415608175,2,0,-0.5902053850115401,21.12840289041072,0.01721984237123273,-1.87913795443655e-05,6.808305355732354e-05,1.377587389698618e-07,7.941821641705651e-05,8.942318639201056e-05
24.01415608175,35.98584391825,2,0,-0.814106719833803,21.03713427010382,0.1117708289101005,-1.943484891955122e-05,6.797011504019925e-05,8.941666312808037e-07,7.840031918282407e-05,8.455471301789777e-05
24.73584391825,35.98584391825,2,0,-0.8046951767400765,21.07478044247873,0.03133715701189067,-1.943484891955122e-05,6.808305355732397e-05,2.506972560951254e-07,7.857249373242987e-05,8.480035882168325e-05
24.01415608175,36.51415608175,2,0,-0.9432518467379882,21.07867151592746,0.0597838934384223,-1.988134312230353e-05,6.820635032835825e-05,4.782711475073784e-07,7.817591943287864e-05,8.207058695210853e-05
24.73584391825,36.51415608175,2,0,-0.9320599824050175,21.12343897325934,-0.01226304057038992,-1.988134312230353e-05,6.83406527003539e-05,-9.810432456311934e-08,7.838096034194642e-05,8.231674963345517e-05
24.01415608175,37.23584391825,2,0,-1.135377004094733,21.03064022658827,0.07657168993774376,-2.045771859437376e-05,6.820635032835825e-05,6.125735195019501e-07,7.742289701534719e-05,7.990349924618238e-05
24.73584391825,37.23584391825,2,0,-1.124185139761852,21.0754076839198,0.004524755928931538,-2.045771859437376e-05,6.834065270035282e-05,3.61980474314523e-08,7.762766396348511e-05,8.015423071511e-05
22.76415608175001,34.01415608175,2,0.04112783019863642,-0.1356602156169675,20.58190780634222,0.1334212759824055,-1.762449622304602e-05,6.88002376442471e-05,1.113151722904166e-06,8.20592794562641e-05,0.000104119210786468
23.48584391825,34.01415608175,2,0.04417993044134494,-0.1175917811081826,20.58694188287739,0.04608997050942253,-1.762449622304602e-05,6.902165956878951e-05,3.857627348687444e-07,8.239796461160305e-05,0.0001044384768918817
22.76415608175001,34.73584391825,2,0,-0.3839419333398117,21.40408878049213,0.1668217059307945,-1.83518852110811e-05,6.880023764424667e-05,1.334573647446356e-06,8.109666663474134e-05,9.40258667210093e-05
23.48584391825,34.73584391825,2,0,-0.3654901062945743,21.47789608867308,0.07589808242644808,-1.83518852110811e-05,6.902165956878951e-05,6.071846594115846e-07,8.143485911825009e-05,9.434847572012647e-05
22.76415608175001,32.76415608175,2,0.2545942275996262,1.085535924653535,19.41266804714277,0.1713702992834347,-1.617430388283488e-05,8.217283965200389e-05,1.839216229641838e-06,0.000104541631709306,0.0001324427204886589
23.48584391825,32.76415608175,2,0.2558074687360806,1.101995491220213,19.45397714987926,0.0904663741458222,-1.617430388283488e-05,8.246673798567442e-05,9.725050477695733e-07,0.0001049926067432988,0.0001326478640949333
22.76415608175001,33.48584391825,2,0.1309474504730014,1.014530453949956,22.57004380143987,0.231723581209985,-1.704101506470749e-05,8.217283965200432e-05,2.133114563312478e-06,0.0001033720621701373,0.0001144129757289338
23.48584391825,33.48584391825,2,0.1332267392925118,1.033098217512113,22.59576311180087,0.1372105735377169,-1.704101506470749e-05,8.246673798567442e-05,1.266403381439997e-06,0.0001038225271834207,0.0001147007670771978
24.01415608175,32.76415608175,2,0.2565530918509514,1.12457027234605,19.48431315614561,0.1598520644066636,-1.612600109301358e-05,8.265572861790608e-05,1.720118143254054e-06,0.0001053496449936049,0.0001327742554705046
24.73584391825,32.76415608175,2,0.2573783039313104,1.137087359965316,19.51774729298538,0.08014266450838028,-1.612600109301358e-05,8.287816229366949e-05,8.633484847818656e-07,0.0001056908225532405,0.0001329144195239441
24.01415608175,33.48584391825,2,0.1346670828211983,1.061810045152036,22.61692837581052,0.2101192540401823,-1.698277075148564e-05,8.265572861790608e-05,1.942551819017566e-06,0.000104192687530182,0.0001148833785892513
24.73584391825,33.48584391825,2,0.1363265258424091,1.075782991411674,22.6375927353436,0.1172201563470936,-1.698277075148564e-05,8.287816229366949e-05,1.085782160545595e-06,0.0001045334872538092,0.0001150944911699858
24.01415608175,34.01415608175,2,0.04612636961127314,-0.08620398154986297,20.59572727761958,0.1330757781559444,-1.756253032828698e-05,6.916565084909201e-05,1.116087279626025e-06,8.270153771303604e-05,0.0001046431102522291
24.73584391825,34.01415608175,2,0.04839765966124288,-0.07236149893275812,20.60123520760434,0.04626266140717467,-1.756253032828698e-05,6.933762041820058e-05,3.889243180356687e-07,8.296448244221293e-05,0.0001048829128842319
24.01415608175,34.73584391825,2,0,-0.3327601925350159,21.5310758422075,0.1610071060917438,-1.828969328987805e-05,6.916565084909201e-05,1.28805684873395e-06,8.17383534347258e-05,9.455705375240973e-05
24.73584391825,34.73584391825,2,0,-0.3184293951093107,21.58839903191032,0.07011173589290855,-1.828969328987805e-05,6.933762041820047e-05,5.608938871432684e-07,8.20009198436129e-05,9.480429053485737e-05
22.76415608175001,31.51415608175,2,0.4428415919024051,2.291094397183906,19.22024147148298,0.2045967674409522,-1.443878615000409e-05,0.0001071004158310143,2.937717740124119e-06,0.0001453158157019232,0.0001742803589425631
23.48584391825,31.51415608175,2,0.4424755766667168,2.299817744460783,19.26174088023517,0.1323747760955679,-1.443878615000409e-05,0.0001072557795112724,1.899465143487505e-06,0.0001455536895525015,0.0001741733238572312
22.76415608175001,32.23584391825,2,0.339333293860255,2.488085176259293,22.73379596696271,0.2554369892283135,-1.547703874664087e-05,0.0001071004158310143,3.093081420383042e-06,0.0001438900878291883,0.0001484841374732162
23.48584391825,32.23584391825,2,0.339801017323916,2.494871298165822,22.75189173687658,0.1695744873763429,-1.547703874664087e-05,0.0001072557795112724,2.054828823746212e-06,0.0001441277622382353,0.0001485834876554614
22.76415608175001,30.26415608175,2,0.5813304546631159,3.189431060552717,19.26944938789742,0.2177581096478703,-1.244270134900187e-05,0.000141186990673673,4.160954376992488e-06,0.0002006804542542066,0.0002271280255883979
23.48584391825,30.26415608175,2,0.5800689728015487,3.19442038339984,19.30902698186175,0.1563150117224085,-1.244270134900187e-05,0.0001410549499769284,2.97791783122588e-06,0.000200474491459075,0.0002265018560474669
22.76415608175001,30.98584391825,2,0.507070972949839,3.560756587639892,22.63867850469547,0.2482460625592626,-1.362573789476845e-05,0.0001411869906736726,4.028913680248752e-06,0.0001990371062614202,0.0001953529252520138
23.48584391825,30.98584391825,2,0.5062502757940261,3.561252111534718,22.65463885569489,0.1756438812843374,-1.362573789476845e-05,0.0001410549499769284,2.845877134482252e-06,0.000198831237706561,0.0001950514877427701
24.01415608175,30.26415608175,2,0.5792134492798715,3.188800663580674,19.33304956040877,0.1895583449561644,-1.250581206995105e-05,0.0001409615349181981,3.603886001237572e-06,0.0002002435795795509,0.0002260791629089147
24.73584391825,30.26415608175,2,0.5781389419362419,3.192613292505746,19.36509705974307,0.1300775525841586,-1.250581206995105e-05,0.0001408383609282885,2.466737331597918e-06,0.0002000516889872338,0.000225550513319261
24.01415608175,30.98584391825,2,0.5056787796513575,3.558688162927379,22.66475890416355,0.2150737261402078,-1.364296073959097e-05,0.0001409615349181981,3.480712011327651e-06,0.0001986641579295964,0.0001948421307655519
24.73584391825,30.98584391825,2,0.5049384513221529,3.55893633210299,22.67837691877817,0.1450260121700661,-1.364296073959097e-05,0.0001408383609282878,2.343563341687671e-06,0.0001984723538700698,0.0001945715943760923
24.01415608175,31.51415608175,2,0.442197712576197,2.307130541858635,19.28966065741152,0.1825956641192194,-1.442968408959973e-05,0.0001073520331850734,2.618786881818406e-06,0.0001457157623051814,0.000174092155057869
24.73584391825,31.51415608175,2,0.4418045423860021,2.313762179444839,19.32327885980379,0.1120973272665912,-1.442968408959973e-05,0.0001074596394320641,1.60656738764232e-06,0.0001458802477136508,0.0001739774328593443
24.01415608175,32.23584391825,2,0.3400630240844295,2.506903627059828,22.76596845006037,0.2249059545729545,-1.544190358377585e-05,0.0001073520331850734,2.726393128809658e-06,0.0001443254737730254,0.0001486391993096118
24.73584391825,32.23584391825,2,0.3403114233381386,2.511875583417713,22.78106157883434,0.1413525956478656,-1.544190358377585e-05,0.0001074596394320649,1.714173634633897e-06,0.0001444898229388375,0.0001486920561970855
22.76415608175001,29.01415608175,2,0.6751819974287462,3.817414636575076,19.45593720746452,0.2154886428550469,-1.031045971103991e-05,0.0001822715086170104,5.307307874544945e-06,0.0002671011090793491,0.0002860104566745611
23.48584391825,29.01415608175,2,0.6735369649986995,3.821327822715523,19.492791252768,0.1658184248143845,-1.031045971103991e-05,0.0001817047058649346,4.063392348569545e-06,0.0002662234807451544,0.0002847151548994088
22.76415608175001,29.73584391825,2,0.6254001444221455,4.247150968631438,22.39893799337341,0.2219740667803739,-1.155437523701492e-05,0.0001822715086170104,4.740505122469065e-06,0.0002653606472064269,0.0002514196379201125
23.48584391825,29.73584391825,2,0.6239328713344923,4.24602367700037,22.41562060663654,0.1643690512094181,-1.155437523701492e-05,0.0001817047058649346,3.496589596494425e-06,0.0002644833360155725,0.0002505271632517535
22.76415608175001,27.76415608175,2,0.7355975514567631,4.24936575615676,19.73146361581412,0.2017629684661477,-8.272239856326446e-06,0.0002259479490255571,6.104723146938755e-06,0.0003374251156932013,0.0003434662751591006
23.48584391825,27.76415608175,2,0.7338528975298051,4.253198419633669,19.76483451440935,0.1645437433230594,-8.272239856326446e-06,0.0002248565216564958,4.945948816902448e-06,0.0003357372070124929,0.000341482639968775
22.76415608175001,28.48584391825,2,0.7038726608323135,4.644853365724492,22.07038988372314,0.185571742395459,-9.431014186362173e-06,0.0002259479490255576,5.013295777878211e-06,0.0003357963860880719,0.0003106742787879808
23.48584391825,28.48584391825,2,0.7021645183980934,4.644557317511135,22.08934258528153,0.1435016564703832,-9.431014186362173e-06,0.0002248565216564958,3.854521447842554e-06,0.00033410890032044,0.000309086601432164
24.01415608175,27.76415608175,2,0.7326914399171891,4.230785354215296,19.78068177615994,0.1712992127408722,-8.552035470659088e-06,0.0002241363066778656,5.126636054986178e-06,0.0003342319688747213,0.000340174844135891
24.73584391825,27.76415608175,2,0.7312677760690721,4.233695426425852,19.8075410946614,0.1355251347779737,-8.552035470659088e-06,0.0002232600701328503,4.034503426364163e-06,0.0003328768916282852,0.000338585514664699
24.01415608175,28.48584391825,2,0.7010245502400857,4.623147926364185,22.0968035742601,0.1588456381441133,-9.64416809928077e-06,0.0002241363066778656,4.250399509971026e-06,0.000332697785466431,0.0003080360865237574
24.73584391825,28.48584391825,2,0.6996223160715469,4.622897605991277,22.11270652031339,0.1185841113809646,-9.64416809928077e-06,0.0002232600701328511,3.158266881349552e-06,0.0003313430345831783,0.0003067537037755768
24.01415608175,29.01415608175,2,0.6724363326286296,3.805786441732121,19.51268100824453,0.1847037627801512,-1.047621740405745e-05,0.0001813264289951227,4.510970688840067e-06,0.0002654080525520254,0.0002838550833380054
24.73584391825,29.01415608175,2,0.6710777572011297,3.808779519350629,19.54244423314144,0.1369098683418596,-1.047621740405745e-05,0.0001808597601195014,3.329902342313223e-06,0.0002646855286134466,0.0002828006259091585
24.01415608175,29.73584391825,2,0.6229454120594669,4.232352472226454,22.42370123289547,0.190615319211299,-1.165728575058461e-05,0.0001813264289951227,4.044301813218871e-06,0.0002637561297882634,0.0002499301116658711
24.73584391825,29.73584391825,2,0.6217171020721988,4.231428902809823,22.4379054058688,0.1353890316530053,-1.165728575058461e-05,0.0001808597601195023,2.86323346669181e-06,0.0002630338571026722,0.0002491914110667904
25.26415608175001,49.01415608175001,2,0,-2.579306663181789,20.98337712675596,-0.01934206985153069,-2.504048302358649e-05,6.921025213616448e-05,-1.547365588122455e-07,7.305178933980131e-05,7.306764592927056e-05
25.98584391825,49.01415608175001,2,0,-2.560184432694727,21.05986604870421,-0.02217665501148163,-2.504048302358649e-05,6.943971890200924e-05,-1.77413240091853e-07,7.339934720292608e-05,7.331386265745413e-05
25.26415608175001,49.73584391825,2,0,-2.586865556941722,20.98148740331597,0.009341275879117678,-2.506315970486629e-05,6.921025213616448e-05,7.473020703294142e-08,7.302301286881232e-05,7.304035205291521e-05
25.98584391825,49.73584391825,2,0,-2.567743326454597,21.05797632526448,0.006506690719153187,-2.506315970486629e-05,6.943971890200999e-05,5.20535257532255e-08,7.337054697483071e-05,7.328683067261532e-05
25.26415608175001,47.76415608175001,2,0,-2.545584073124521,20.99096799274809,-0.0285142733715758,-2.493864342819694e-05,6.92075648352935e-05,-2.281141869726064e-07,7.317697407579885e-05,7.318956213792988e-05
25.98584391825,47.76415608175001,2,0,-2.52671460172892,21.0664458783305,-0.03707371832320722,-2.493864342819694e-05,6.943399849204071e-05,-2.965897465856578e-07,7.352003037079701e-05,7.343459226248413e-05
25.26415608175001,48.48584391825001,2,0,-2.568409259662019,20.98526169611372,-0.0002100662780117786,-2.500711898780943e-05,6.92075648352935e-05,-1.680530224094229e-09,7.309003307605033e-05,7.310762665105157e-05
25.98584391825,48.48584391825001,2,0,-2.549539788266309,21.06073958169656,-0.008769511229548329,-2.500711898780943e-05,6.943399849204202e-05,-7.015608983638663e-08,7.34330189064994e-05,7.335345525613059e-05
26.51415608175,47.76415608175001,2,0,-2.551501701157891,21.10436953659575,-0.01731930709595155,-2.504830107298185e-05,6.95751838780327e-05,-1.385544567676124e-07,7.359461838140385e-05,7.358803344266841e-05
27.23584391825,47.76415608175001,2,0,-2.538227368567739,21.15746686695636,-0.02633420466530124,-2.504830107298185e-05,6.973447586911452e-05,-2.106736373224099e-07,7.383595765651083e-05,7.376221241836876e-05
26.51415608175,48.48584391825001,2,0,-2.575541428009478,21.09835960488285,0.00259219178928979,-2.51204202535366e-05,6.95751838780327e-05,2.073753431431832e-08,7.350306097834145e-05,7.35074123541605e-05
27.23584391825,48.48584391825001,2,0,-2.562267095419317,21.15145693524349,-0.006422705780032793,-2.51204202535366e-05,6.973447586911463e-05,-5.138164624026234e-08,7.374434824219245e-05,7.368220236310298e-05
26.51415608175,49.01415608175001,2,0,-2.586622122389298,21.097972761676,-0.01269689491903653,-2.515556900098655e-05,6.958281053527464e-05,-1.015751593522922e-07,7.34700188104708e-05,7.34680705981992e-05
27.23584391825,49.01415608175001,2,0,-2.573166551856741,21.15179504380623,-0.01568551783216201,-2.515556900098655e-05,6.974427738166533e-05,-1.254841426572961e-07,7.371458566925431e-05,7.364315779907963e-05
26.51415608175,49.73584391825,2,0,-2.594591783490903,21.0959803464006,0.007486460879772405,-2.517947798429137e-05,6.958281053527464e-05,5.989168703817924e-08,7.343968267929665e-05,7.344120801055726e-05
27.23584391825,49.73584391825,2,0,-2.581136212958264,21.14980262853116,0.004497837966714689,-2.517947798429137e-05,6.97442773816663e-05,3.598270373371751e-08,7.368423197678109e-05,7.361649612166973e-05
25.26415608175001,46.51415608175,2,0,-2.485175843934475,21.00391060375452,-0.03561623444927427,-2.475569118359393e-05,6.920065460716204e-05,-2.849298755941941e-07,7.339892667392625e-05,7.340644678613222e-05
25.98584391825,46.51415608175,2,0,-2.466806251927697,21.07738897178163,-0.05006403038806213,-2.475569118359393e-05,6.942108971124338e-05,-4.00512243104497e-07,7.373305098121458e-05,7.364930974654121e-05
25.26415608175001,47.23584391825001,2,0,-2.52370329977141,20.99427873979529,-0.008061846439011942,-2.487127355110474e-05,6.920065460716204e-05,-6.449477151209554e-08,7.325201899275994e-05,7.32696307518044e-05
25.98584391825,47.23584391825001,2,0,-2.505333707764559,21.06775710782269,-0.02250964237779981,-2.487127355110474e-05,6.942108971124425e-05,-1.800771390223985e-07,7.358602857888922e-05,7.351386623426432e-05
25.26415608175001,45.26415608175001,2,0,-2.397224170314816,21.0214801516118,-0.0395081432808073,-2.448830146629685e-05,6.918651582140962e-05,-3.160651462464584e-07,7.371770285105329e-05,7.371938423133658e-05
25.98584391825,45.26415608175001,2,0,-2.379589819707683,21.09201755404033,-0.06010472533733908,-2.448830146629685e-05,6.93981280286952e-05,-4.808378026987126e-07,7.403866427884196e-05,7.395900531147456e-05
25.26415608175001,45.98584391825,2,0,-2.452148389132255,21.00774909690744,-0.01305661737006827,-2.465307412274917e-05,6.918651582140962e-05,-1.044529389605461e-07,7.350793543500268e-05,7.352695786776219e-05
25.98584391825,45.98584391825,2,0,-2.434514038525149,21.07828649933586,-0.03365319942660004,-2.465307412274917e-05,6.939812802869488e-05,-2.692255954128003e-07,7.382874204887665e-05,7.376858440279553e-05
26.51415608175,45.26415608175001,2,0,-2.397721531669747,21.12869744451607,-0.0213721360918989,-2.457566685695604e-05,6.95300090477872e-05,-1.709770887351912e-07,7.412721966152067e-05,7.410896324359015e-05
27.23584391825,45.26415608175001,2,0,-2.385330411882899,21.17826192366346,-0.04295247186699954,-2.457566685695604e-05,6.967870248522938e-05,-3.436197749359963e-07,7.435275777828128e-05,7.427903485300735e-05
26.51415608175,45.98584391825,2,0,-2.455269093736737,21.11431055399932,-0.002785456411694403,-2.474830954315701e-05,6.95300090477872e-05,-2.228365129355522e-08,7.390742794499417e-05,7.391983186029685e-05
27.23584391825,45.98584391825,2,0,-2.442877973949916,21.1638750331466,-0.02436579218674084,-2.474830954315701e-05,6.967870248522905e-05,-1.949263374939267e-07,7.413285258150027e-05,7.409142106369035e-05
26.51415608175,46.51415608175,2,0,-2.488779199858053,21.11483873239684,-0.0204773799808856,-2.485596442546324e-05,6.955850730355631e-05,-1.638190398470848e-07,7.381372326596369e-05,7.380135313972329e-05
27.23584391825,46.51415608175,2,0,-2.475862804859197,21.16650431239226,-0.03566187022528906,-2.485596442546324e-05,6.971350404354258e-05,-2.852949618023124e-07,7.404866648252467e-05,7.397388045446055e-05
26.51415608175,47.23584391825001,2,0,-2.529271173842986,21.10471573890061,-0.001102787482588474,-2.497744034741804e-05,6.955850730355631e-05,-8.822299860707788e-09,7.365933273962837e-05,7.366679463878008e-05
27.23584391825,47.23584391825001,2,0,-2.516354778844158,21.15638131889592,-0.01628727772692417,-2.497744034741804e-05,6.971350404354226e-05,-1.302982218153934e-07,7.389419151960701e-05,7.384036732739543e-05
25.26415608175001,44.01415608175001,2,0,-2.280602103675168,21.04260211333119,-0.03921977458263789,-2.413200842242549e-05,6.916080844559993e-05,-3.137581966611031e-07,7.413298189072899e-05,7.413143159099787e-05
25.98584391825,44.01415608175001,2,0,-2.263919601988412,21.10933212007821,-0.06630401336639739,-2.413200842242549e-05,6.936099846584101e-05,-5.304321069311791e-07,7.44368701702622e-05,7.436661377753966e-05
25.26415608175001,44.73584391825,2,0,-2.352826740431967,21.02454595414199,-0.0141960220524347,-2.434868233269588e-05,6.916080844559993e-05,-1.135681764194776e-07,7.3856543005722e-05,7.388135247731839e-05
25.98584391825,44.73584391825,2,0,-2.336144238745165,21.0912759608892,-0.04128026083623487,-2.434868233269588e-05,6.936099846584155e-05,-3.302420866898789e-07,7.416024229907658e-05,7.411924679948235e-05
25.26415608175001,42.76415608175,2,0,-2.134011132344514,21.06589486101129,-0.03402055760301709,-2.368155151231147e-05,6.911807246111172e-05,-2.721644608241367e-07,7.464397315670698e-05,7.465078716407828e-05
25.98584391825,42.76415608175,2,0,-2.118470265172328,21.12805832970003,-0.06798302579700524,-2.368155151231147e-05,6.930456286717796e-05,-5.438642063760419e-07,7.492734037336198e-05,7.488020266607575e-05
25.26415608175001,43.48584391825001,2,0,-2.224577714195061,21.04325321554865,-0.01070925684471067,-2.395325125786311e-05,6.911807246111172e-05,-8.567405475768536e-08,7.429638606280952e-05,7.433760099393726e-05
25.98584391825,43.48584391825001,2,0,-2.209036847022857,21.10541668423746,-0.04467172503864461,-2.395325125786311e-05,6.930456286717817e-05,-3.573738003091569e-07,7.457953772441775e-05,7.457051128746274e-05
26.51415608175,42.76415608175,2,0,-2.126695573472174,21.16229876751534,-0.01386438266429634,-2.373526484912322e-05,6.942071251482681e-05,-1.109150613143707e-07,7.503476866542837e-05,7.50236283678055e-05
27.23584391825,42.76415608175,2,0,-2.115792545755149,21.20591087838343,-0.04914382441084891,-2.373526484912322e-05,6.95515488474311e-05,-3.931505952867913e-07,7.523357771955778e-05,7.518605917006159e-05
26.51415608175,43.48584391825001,2,0,-2.220774084796282,21.13877913968431,0.002490158911212272,-2.401750038309554e-05,6.942071251482681e-05,1.992127128969817e-08,7.467362942476979e-05,7.471616936145714e-05
27.23584391825,43.48584391825001,2,0,-2.209871057079257,21.18239125055241,-0.03278928283528609,-2.401750038309554e-05,6.95515488474311e-05,-2.623142626822887e-07,7.487228219471139e-05,7.488120432663393e-05
26.51415608175,44.01415608175001,2,0,-2.277381675084832,21.14494237535886,-0.01933223799659601,-2.420357526055855e-05,6.948572094121622e-05,-1.546579039727681e-07,7.453457599280518e-05,7.4513725203701e-05
27.23584391825,44.01415608175001,2,0,-2.265668498472889,21.19179508180664,-0.04759854865788414,-2.420357526055855e-05,6.962627906055953e-05,-3.807883892630731e-07,7.474795153260833e-05,7.468045890782299e-05
26.51415608175,44.73584391825,2,0,-2.352758503514893,21.12609816825135,-0.001762473078668458,-2.442970574584873e-05,6.948572094121622e-05,-1.409978462934766e-08,7.4246039897619e-05,7.426809648534055e-05
27.23584391825,44.73584391825,2,0,-2.341045326902914,21.17295087469926,-0.03002878373997014,-2.442970574584873e-05,6.962627906055997e-05,-2.402302699197612e-07,7.445927761412464e-05,7.443686706764914e-05
25.26415608175001,41.51415608175001,2,0,-1.956111506036644,21.08973290956353,-0.02348977188053238,-2.313134314696808e-05,6.905203451543261e-05,-1.879181750442591e-07,7.524930422318662e-05,7.529879769881401e-05
25.98584391825,41.51415608175001,2,0,-1.941866308875608,21.14671369820768,-0.06473711572844543,-2.313134314696808e-05,6.922297688136505e-05,-5.178969258275634e-07,7.550932425712768e-05,7.552101760381285e-05
25.26415608175001,42.23584391825,2,0,-2.066104422964467,21.06223468033144,-0.002121976138964692,-2.346132189775145e-05,6.905203451543218e-05,-1.697580911171753e-08,7.482577368716283e-05,7.490833904490944e-05
25.98584391825,42.23584391825,2,0,-2.051859225803476,21.11921546897541,-0.04336931998689128,-2.346132189775145e-05,6.922297688136407e-05,-3.469545598951303e-07,7.508556059691285e-05,7.513489006593452e-05
25.26415608175,40.26415608175,2,0,-1.745685181662699,21.11233620021734,-0.007580137281884081,-2.24760615414945e-05,6.895602398602563e-05,-6.064109825507265e-08,7.594690340718868e-05,7.613008873584069e-05
25.98584391825,40.26415608175,2,0,-1.732845230922806,21.16369600317691,-0.05649037336790275,-2.24760615414945e-05,6.911010339490434e-05,-4.51922986943222e-07,7.618153047122704e-05,7.634368911784357e-05
25.26415608175,40.98584391825,2,0,-1.876112477892159,21.07972937615997,0.01167978882794102,-2.286734343018288e-05,6.895602398602563e-05,9.343831062352814e-08,7.544276299517401e-05,7.562616454184182e-05
25.98584391825,40.98584391825,2,0,-1.863272527152266,21.13108917911954,-0.03723044725810476,-2.286734343018288e-05,6.911010339490434e-05,-2.978435780648381e-07,7.567714920340901e-05,7.584491433357331e-05
26.51415608175,40.26415608175,2,0,-1.730216443615691,21.19432633249885,0.008158922071307518,-2.249215368556929e-05,6.920601741888886e-05,6.527137657046014e-08,7.630662065764079e-05,7.647704848810084e-05
27.23584391825,40.26415608175,2,0,-1.721219562130969,21.23031385843774,-0.04209761765842002,-2.249215368556929e-05,6.931397999670552e-05,-3.367809412673601e-07,7.647101914894951e-05,7.662779268132174e-05
26.51415608175,40.98584391825,2,0,-1.864233882894923,21.16082197267904,0.02165424429833663,-2.289420600340698e-05,6.920601741888886e-05,1.73233954386693e-07,7.578841358299417e-05,7.598154713764597e-05
27.23584391825,40.98584391825,2,0,-1.855237001410138,21.19680949861818,-0.0286022954313638,-2.289420600340698e-05,6.931397999670628e-05,-2.288183634509104e-07,7.595263963096022e-05,7.613608510863744e-05
26.51415608175,41.51415608175001,2,0,-1.944607026279999,21.17928959888886,-0.004701162006949815,-2.316617416320708e-05,6.932941233746834e-05,-3.760929605559852e-08,7.562620035977185e-05,7.565985820042018e-05
27.23584391825,41.51415608175001,2,0,-1.934619967289723,21.21923783484996,-0.04732347610804963,-2.316617416320708e-05,6.944925704535166e-05,-3.78587808864397e-07,7.580849864476733e-05,7.581695785952188e-05
26.51415608175,42.23584391825,2,0,-2.058266530549544,21.15087472282147,0.01027942647836974,-2.350715267601571e-05,6.932941233746834e-05,8.22354118269579e-08,7.518842396273269e-05,7.527648903010404e-05
27.23584391825,42.23584391825,2,0,-2.048279471559304,21.19082295878243,-0.03234288762266231,-2.350715267601571e-05,6.944925704535122e-05,-2.587431009812985e-07,7.537055427835976e-05,7.543679357350567e-05
25.26415608175,39.01415608175,2,0,-1.501822638853317,21.1318895957814,0.01333897236707683,-2.171134412095573e-05,6.882350481758311e-05,1.067117789366146e-07,7.673390857152392e-05,7.728304614972945e-05
25.98584391825,39.01415608175,2,0,-1.490446854806531,21.17739273196854,-0.04353207003166903,-2.171134412095573e-05,6.896001422614453e-05,-3.482565602533523e-07,7.694199391299397e-05,7.748687385595793e-05
25.26415608175,39.73584391825,2,0,-1.65347875191668,21.09397556751555,0.03040264843730874,-2.216631246014581e-05,6.882350481758311e-05,2.432211874984699e-07,7.614515227415144e-05,7.657404882461434e-05
25.98584391825,39.73584391825,2,0,-1.642102967869894,21.1394787037027,-0.02646839396145068,-2.216631246014581e-05,6.896001422614453e-05,-2.117471516916054e-07,7.635299889809295e-05,7.678365084585742e-05
25.26415608175,37.76415608175,2,0,-1.224110352500011,21.14668435567062,0.0384744415263239,-2.083450061253653e-05,6.864867822014599e-05,3.077955322105912e-07,7.760662955058491e-05,7.910624301194288e-05
25.98584391825,37.76415608175,2,0,-1.214205471721037,21.18630387878651,-0.02652375839782054,-2.083450061253653e-05,6.876753678949367e-05,-2.121900671825643e-07,7.778795713675133e-05,7.930002532489657e-05
25.26415608175,38.48584391825,2,0,-1.397438885631086,21.10335222238785,0.0533317626948116,-2.135448621192975e-05,6.864867822014599e-05,4.266541015584928e-07,7.693046458250282e-05,7.796154553728181e-05
25.98584391825,38.48584391825,2,0,-1.387534004852112,21.14297174550375,-0.01166643722935994,-2.135448621192975e-05,6.876753678949367e-05,-9.333149783487954e-08,7.711156456297539e-05,7.816113436544977e-05
26.51415608175,37.76415608175,2,0,-1.202691657737171,21.21229707450678,0.04351605020095695,-2.081845096436437e-05,6.88415039646114e-05,3.481284016076556e-07,7.79217844230637e-05,7.942074069984862e-05
27.23584391825,37.76415608175,2,0,-1.195756365139357,21.24003824489803,-0.02250576446572957,-2.081845096436437e-05,6.892472747578517e-05,-1.800461157258366e-07,7.804872818709561e-05,7.955675892453267e-05
26.51415608175,38.48584391825,2,0,-1.378749830181646,21.16828253139565,0.05391898909773213,-2.134662548169779e-05,6.88415039646114e-05,4.31351912781857e-07,7.723465990964623e-05,7.828557100039227e-05
27.23584391825,38.48584391825,2,0,-1.371814537583769,21.19602370178716,-0.01210282556894085,-2.134662548169779e-05,6.892472747578593e-05,-9.682260455152678e-08,7.736144262927029e-05,7.842594938122465e-05
26.51415608175,39.01415608175,2,0,-1.482944014607632,21.20581902914097,0.024426441539902,-2.17100760700572e-05,6.904497610493721e-05,1.95411532319216e-07,7.70730603223636e-05,7.761401712098163e-05
27.23584391825,39.01415608175,2,0,-1.474976451189608,21.23768928281307,-0.03367242797852404,-2.17100760700572e-05,6.914058686595349e-05,-2.693794238281923e-07,7.721879140316851e-05,7.775755127465289e-05
26.51415608175,39.73584391825,2,0,-1.637874333323408,21.16708644946203,0.0363777866668291,-2.217486702620452e-05,6.904497610493721e-05,2.910222933346328e-07,7.647133946321257e-05,7.691446750179008e-05
27.23584391825,39.73584391825,2,0,-1.629906769905357,21.19895670313423,-0.02172108285158339,-2.217486702620452e-05,6.914058686595382e-05,-1.737686628126671e-07,7.661690067844505e-05,7.706226323104645e-05
25.26415608175,36.51415608175,2,0,-0.9127812603491137,21.15525547007136,0.06664184726157414,-1.984510440917425e-05,6.842704251250765e-05,5.331347780925932e-07,7.856056988668879e-05,8.247482776644794e-05
25.98584391825,36.51415608175,2,0,-0.904304678342724,21.18916179809692,-0.006477973770425906,-1.984510440917425e-05,6.852876149658431e-05,-5.182379016340725e-08,7.871581582464363e-05,8.266054257602154e-05
25.26415608175,37.23584391825,2,0,-1.107767449767888,21.10650892271667,0.07935672027121164,-2.043006297743057e-05,6.842704251250765e-05,6.348537621696931e-07,7.779587890782661e-05,8.031557334042405e-05
25.98584391825,37.23584391825,2,0,-1.099290867761498,21.14041525074223,0.006236899239198037,-2.043006297743057e-05,6.852876149658431e-05,4.98951939135843e-08,7.795091554534528e-05,8.050563812129973e-05
25.26415608175,35.26415608175,2,0,-0.5688106176471299,21.15647011287506,0.09630121210769937,-1.874537006677086e-05,6.815575285531788e-05,7.70409696861595e-07,7.959039036392485e-05,8.958195523263706e-05
25.98584391825,35.26415608175,2,0,-0.5616706460907102,21.18502999910073,0.01526093241870346,-1.874537006677086e-05,6.824143251399491e-05,1.220874593496277e-07,7.972113230904032e-05,8.976691731629785e-05
25.26415608175,35.98584391825,2,0,-0.7849180301510463,21.10244325974908,0.1070111694423284,-1.939369230428261e-05,6.815575285531788e-05,8.560893555386272e-07,7.873804435277906e-05,8.495774731114753e-05
25.98584391825,35.98584391825,2,0,-0.7777780585946266,21.13100314597476,0.02597088975331893,-1.939369230428261e-05,6.824143251399491e-05,2.077671180265514e-07,7.886859993301514e-05,8.514209485712322e-05
26.51415608175,35.26415608175,2,0,-0.5461189883123181,21.20559336940316,0.08639369990962682,-1.871205545812195e-05,6.829479397273998e-05,6.911495992770146e-07,7.984695971997277e-05,8.988131912535219e-05
27.23584391825,35.26415608175,2,0,-0.5411101084969081,21.2256288886648,0.004984691314105657,-1.871205545812195e-05,6.83549005305249e-05,3.987753051284525e-08,7.993864472699908e-05,9.00089085965189e-05
26.51415608175,35.98584391825,2,0,-0.7632096779003836,21.15132069700615,0.09390701963279567,-1.936332752688614e-05,6.829479397273998e-05,7.512561570623653e-07,7.899036263802219e-05,8.525646319721955e-05
27.23584391825,35.98584391825,2,0,-0.7582007980849195,21.17135621626801,0.0124980110372745,-1.936332752688614e-05,6.835490053052555e-05,9.998408829819602e-08,7.908191675296062e-05,8.538457576717764e-05
26.51415608175,36.51415608175,2,0,-0.889988683875921,21.21252389257273,0.06455610844013167,-1.981798290246113e-05,6.859206740333348e-05,5.164488675210533e-07,7.884824044372693e-05,8.277595470028654e-05
27.23584391825,36.51415608175,2,0,-0.8840523530768598,21.23626921576898,-0.009302581221613468,-1.981798290246113e-05,6.866330337292222e-05,-7.442064977290774e-08,7.895693439949762e-05,8.290555167802773e-05
26.51415608175,37.23584391825,2,0,-1.086945189640471,21.1632847661316,0.07346060463869677,-2.040885241975478e-05,6.859206740333348e-05,5.876848371095741e-07,7.807546858685394e-05,8.062393538590372e-05
27.23584391825,37.23584391825,2,0,-1.081008858841464,21.18703008932762,-0.0003980850230619198,-2.040885241975478e-05,6.866330337292157e-05,-3.184680184495359e-09,7.818401513921155e-05,8.07570647423363e-05
25.26415608175,34.01415608175,2,0.04982514068931565,-0.04907304289161196,20.60875997103657,0.1226063891273667,-1.751681972111642e-05,6.944752294277875e-05,1.032284850948913e-06,8.319419048887801e-05,0.0001050341899518901
25.98584391825,34.01415608175,2,0.05145720725671887,-0.03884806250916739,20.61392412277377,0.03635776360432481,-1.751681972111642e-05,6.957581265471153e-05,3.066409982341398e-07,8.339028371336128e-05,0.000105207683954767
25.26415608175,34.73584391825,2,0,-0.2935276127121158,21.62896901644033,0.1450718203602122,-1.824246357383103e-05,6.944752294277875e-05,1.160574562881697e-06,8.223234469920697e-05,9.496142182494637e-05
25.98584391825,34.73584391825,2,0,-0.2828368033843836,21.67173225375126,0.05436633877087911,-1.824246357383103e-05,6.957581265471153e-05,4.349307101670329e-07,8.242815857443961e-05,9.514347571049891e-05
25.26415608175,32.76415608175,2,0.2578787740988483,1.152976392393197,19.54140252463065,0.140364227317674,-1.609386330318645e-05,8.301892576929176e-05,1.513113733107212e-06,0.0001059516083655793,0.0001329995699070844
25.98584391825,32.76415608175,2,0.2584215454871116,1.162153047537176,19.56719003454708,0.06172463586925393,-1.609386330318645e-05,8.318106506079572e-05,6.658730225359445e-07,0.0001062002145067743,0.0001330920410266781
25.26415608175,33.48584391825,2,0.1373609349598186,1.096594666462996,22.65395132482265,0.1806423378570038,-1.694110401375784e-05,8.301892576929176e-05,1.675253024610839e-06,0.0001048069239461816,0.0001152264810117572
25.98584391825,33.48584391825,2,0.1385296352644372,1.106748853499663,22.6698192311925,0.08916350877265089,-1.694110401375784e-05,8.318106506079572e-05,8.280123140395716e-07,0.0001050552595697301,0.0001153759713848405
26.51415608175,32.76415608175,2,0.2587433201014712,1.17283638664715,19.58458293392681,0.1150831062342183,-1.607350089782876e-05,8.328072846196634e-05,1.242032449542008e-06,0.0001063816358107945,0.0001331469220857791
27.23584391825,32.76415608175,2,0.2590799702293892,1.179104522538094,19.60289154482391,0.0372954777346389,-1.607350089782876e-05,8.339087464612747e-05,4.026936914763727e-07,0.0001065504719973669,0.0001332043888080288
26.51415608175,33.48584391825,2,0.1392394921226018,1.121095359991245,22.68176200478589,0.1454877459358864,-1.691283965589447e-05,8.328072846196634e-05,1.352178633702919e-06,0.0001052472059824252,0.0001154669600296887
27.23584391825,33.48584391825,2,0.1400113203975686,1.127983800151097,22.6929985056048,0.05512956093708615,-1.691283965589447e-05,8.339087464612682e-05,5.128398756371749e-07,0.0001054158609124923,0.0001155660552572533
26.51415608175,34.01415608175,2,0.05245510229947647,-0.02247530725021019,20.61985189330245,0.104719990237364,-1.748497885224111e-05,6.965528120571243e-05,8.841374418583911e-07,8.355481959480772e-05,0.0001053140463343977
27.23584391825,34.01415608175,2,0.05355134597544797,-0.01544381758248914,20.62401810510925,0.01897190002075029,-1.748497885224111e-05,6.974410361272826e-05,1.603628464371667e-07,8.369055098655925e-05,0.0001054311397566982
26.51415608175,34.73584391825,2,0,-0.2649777154114208,21.70103094793228,0.1216199811091565,-1.820875344766237e-05,6.965528120571243e-05,9.729598488732519e-07,8.259495671085419e-05,9.525573232891193e-05
27.23584391825,34.73584391825,2,0,-0.2575758481601556,21.73063841693734,0.03114815668153054,-1.820875344766237e-05,6.974410361272761e-05,2.491852534522443e-07,8.2730496293173e-05,9.538036922836259e-05
25.26415608175,31.51415608175,2,0.4415284876141613,2.31766548490306,19.34500052072717,0.1548232606286878,-1.443130166203318e-05,0.0001075253937696235,2.217814261891633e-06,0.0001459802289864523,0.0001738969740005514
25.98584391825,31.51415608175,2,0.4411675185734611,2.322518273969726,19.37092324339008,0.08576347145415689,-1.443130166203318e-05,0.0001075974317136694,1.227752134023812e-06,0.0001460901603951343,0.0001737918785089257
25.26415608175,32.23584391825,2,0.3404439930375477,2.519500572419026,22.7920686936542,0.1887857221852325,-1.542136378990104e-05,0.0001075253937696235,2.289852205936832e-06,0.0001446201792136961,0.0001487202811224783
25.98584391825,32.23584391825,2,0.3405578763275646,2.523024276734324,22.80396821635922,0.1071420411763183,-1.542136378990104e-05,0.0001075974317136694,1.299790078069553e-06,0.0001447300201882867,0.000148744536165221
25.26415608175,30.26415608175,2,0.5774302085182217,3.186633950872061,19.38378437996585,0.1573800771260374,-1.256549561331114e-05,0.0001407549807254924,2.97948561962596e-06,0.0001998407127110557,0.0002252031778260613
25.98584391825,30.26415608175,2,0.5765696757552488,3.18943151827964,19.40849092541898,0.09944828257113515,-1.256549561331114e-05,0.0001406503557650081,1.878907142487075e-06,0.0001996778472144146,0.0002247828892009812
25.26415608175,30.98584391825,2,0.5044417404072383,3.555245809201768,22.68640310146849,0.1780826181020122,-1.366607409045e-05,0.0001407549807254924,2.874860659141977e-06,0.0001983122801916304,0.0001943905044064316
25.98584391825,30.98584391825,2,0.5038254667888958,3.555341073920756,22.69731171150477,0.1100442041800137,-1.366607409045e-05,0.0001406503557650081,1.774282182002984e-06,0.0001981494869808805,0.0001941662937980161
26.51415608175,30.26415608175,2,0.5760246838252132,3.184145632582084,19.42220732094511,0.1222723605337508,-1.261512080643975e-05,0.0001405830590769266,2.307159985386379e-06,0.0001995054385704729,0.0002245175257140542
27.23584391825,30.26415608175,2,0.5753973117175437,3.186053786005666,19.4397329033005,0.06548867490583275,-1.261512080643975e-05,0.0001405038260663834,1.233881493699221e-06,0.0001993821613059472,0.0002242128278103457
26.51415608175,30.98584391825,2,0.5034310065963161,3.551687457693773,22.70329315674847,0.1382899319093286,-1.368839929812717e-05,0.0001405830590769266,2.22792697484285e-06,0.000198015094253428,0.0001940230546345816
27.23584391825,30.98584391825,2,0.502970026401097,3.551702832773475,22.71124225829314,0.07173686313734072,-1.368839929812717e-05,0.0001405038260663831,1.154648483155368e-06,0.0001978918709612416,0.0001938559285708436
26.51415608175,31.51415608175,2,0.4409305970215265,2.32438130652979,19.3868664631792,0.1228664831243727,-1.443733630681058e-05,0.0001076404240982344,1.758157144280043e-06,0.0001461487045915191,0.0001737229683988945
27.23584391825,31.51415608175,2,0.4406443957040223,2.327688348861225,19.40525961334527,0.05490786172587226,-1.443733630681058e-05,0.0001076858435331655,7.853016764886945e-07,0.0001462179062012496,0.0001736397979687519
26.51415608175,32.23584391825,2,0.3406143759352597,2.527626044799586,22.81207782951477,0.1486565585289411,-1.541019177460181e-05,0.0001076404240982344,1.803576579210899e-06,0.0001448121745271874,0.0001487565724820827
27.23584391825,32.23584391825,2,0.3406548746377457,2.529966391182532,22.82065909908164,0.06846648941878507,-1.541019177460181e-05,0.0001076858435331657,8.307211114199839e-07,0.0001448813193436906,0.0001487652012685434
25.26415608175,29.01415608175,2,0.6701900650471118,3.795438462248703,19.55793141558559,0.1512231443031624,-1.061502908871655e-05,0.0001805555971762379,3.668128295159184e-06,0.0002640220375713332,0.0002821158896186696
25.98584391825,29.01415608175,2,0.6691261648957554,3.7976364567185,19.58084005728245,0.1048533730158316,-1.061502908871655e-05,0.0001801912774370481,2.535186814824368e-06,0.0002634580119895549,0.0002812996127120349
25.26415608175,29.73584391825,2,0.6209112012865342,4.219375686096795,22.4444078073156,0.1565546020827255,-1.17479705690511e-05,0.0001805555971762379,3.303808555969647e-06,0.0002624379503999603,0.0002487091239486581
25.98584391825,29.73584391825,2,0.6199396506860438,4.218650721103161,22.45577513216719,0.1031325623849977,-1.17479705690511e-05,0.0001801912774370481,2.170867075634939e-06,0.0002618741151057549,0.0002481301916371093
25.26415608175,27.76415608175,2,0.7303409270673273,4.215393603519461,19.81990225252826,0.1389029556028379,-8.776497838629094e-06,0.0002226936838141107,4.120846492341643e-06,0.0003316869120611702,0.0003375588327553243
25.98584391825,27.76415608175,2,0.7292361396256737,4.217520165839606,19.8405287075511,0.1041939597535599,-8.776497838629094e-06,0.0002220225241595499,3.078518960677058e-06,0.0003306490018999756,0.0003363432150867739
25.26415608175,28.48584391825,2,0.6987077662636212,4.605211176783623,22.1187644927385,0.1299204816307395,-9.818825370293663e-06,0.0002226936838141107,3.449686837780647e-06,0.000330223422482181,0.0003059230973404152
25.98584391825,28.48584391825,2,0.6976146342629368,4.605007147252752,22.13136496489177,0.09099377803004942,-9.818825370293663e-06,0.0002220225241595499,2.407359306115953e-06,0.0003291857548199716,0.0003049362211065445
26.51415608175,27.76415608175,2,0.7285424256890924,4.203587731080507,19.84962253768508,0.1049981330122552,-8.94510789339531e-06,0.0002216034018886121,3.094351175244735e-06,0.0003297648879561261,0.0003355844089142624
27.23584391825,27.76415608175,2,0.7277546878545644,4.205034541729649,19.8642177801836,0.07103916299410555,-8.94510789339531e-06,0.000221129498204339,2.087504462333026e-06,0.0003290320337413823,0.0003347269295663262
26.51415608175,28.48584391825,2,0.6969274066983525,4.591438244252815,22.13595884070348,0.09927322708747061,-9.951954606307124e-06,0.0002216034018886121,2.620447490972282e-06,0.0003283517835143686,0.0003043190685223208
27.23584391825,28.48584391825,2,0.6961453999474339,4.591285540845103,22.14507614668134,0.06128750238275078,-9.951954606307124e-06,0.0002211294982043395,1.613600778060248e-06,0.0003276190967865318,0.0003036198525399981
26.51415608175,29.01415608175,2,0.6684565042602247,3.787136934923636,19.59221737010257,0.1157019321573802,-1.072238107520183e-05,0.0001799624688858924,2.791837177181563e-06,0.0002629547486685097,0.0002807882474308138
27.23584391825,29.01415608175,2,0.6676929351439976,3.788636937601896,19.60845147961742,0.07035935961763397,-1.072238107520183e-05,0.0001797016720380917,1.693839633487722e-06,0.000262551011913903,0.0002802074484078665
26.51415608175,29.73584391825,2,0.6193264549858032,4.209010772603311,22.46067488074451,0.1204375118449186,-1.182037861889562e-05,0.0001799624688858924,2.531040329380955e-06,0.0002614199371160289,0.0002477661890542118
27.23584391825,29.73584391825,2,0.6186242217643469,4.208486720374162,22.46895450002339,0.06831597595455659,-1.182037861889562e-05,0.0001797016720380922,1.433042785687223e-06,0.0002610163335436047,0.0002473506478151559
27.76415608175,49.01415608175001,2,0,-2.590011740324444,21.17702112979203,-0.006713250475472491,-2.522965447287184e-05,6.983847700759403e-05,-5.370600380377993e-08,7.376323722032251e-05,7.374557688706278e-05
28.48584391825,49.01415608175001,2,0,-2.582020797181832,21.20898490236248,-0.009803337880286644,-2.522965447287184e-05,6.993436832530538e-05,-7.842670304229315e-08,7.390848168323008e-05,7.385030383822911e-05
27.76415608175,49.73584391825,2,0,-2.598251973404034,21.17496107152213,0.005273164238432399,-2.525437517211061e-05,6.983847700759403e-05,4.218531390745919e-08,7.373187096660648e-05,7.37190348173646e-05
28.48584391825,49.73584391825,2,0,-2.590261030261404,21.20692484409265,0.002183076833618246,-2.525437517211061e-05,6.99343683253056e-05,1.746461466894597e-08,7.387710467565603e-05,7.382388763264424e-05
27.76415608175,47.76415608175001,2,0,-2.553987762422945,21.18256594389338,-0.007796813760753678,-2.511881359486812e-05,6.982740123039717e-05,-6.237451008602943e-08,7.388716065583771e-05,7.386409109491022e-05
28.48584391825,47.76415608175001,2,0,-2.546105694317538,21.21409421631501,-0.01711147161805201,-2.511881359486812e-05,6.992198604766206e-05,-1.36891772944416e-07,7.403046625674434e-05,7.396824983974088e-05
27.76415608175,48.48584391825001,2,0,-2.578826850042297,21.17635617198854,0.00402628839730329,-2.519333085772618e-05,6.982740123039717e-05,3.221030717842632e-08,7.379255667834924e-05,7.3784444599487e-05
28.48584391825,48.48584391825001,2,0,-2.570944781936863,21.20788444441028,-0.005288369459900168,-2.519333085772618e-05,6.992198604766238e-05,-4.230695567920134e-08,7.393583045858131e-05,7.388898557503702e-05
29.01415608175,47.76415608175001,2,0,-2.55375596241253,21.22658782664636,0.0006874908176247993,-2.515328934103718e-05,6.996808581519838e-05,5.499926540998394e-09,7.405650920810543e-05,7.401906115231242e-05
29.73584391825,47.76415608175001,2,0,-2.55114245492379,21.23704185660132,-0.008775779019234573,-2.515328934103718e-05,6.999944790506325e-05,-7.020623215387659e-08,7.410402641813468e-05,7.405372149503237e-05
29.01415608175,48.48584391825001,2,0,-2.578991348644252,21.22027898008843,0.004607752050788186,-2.522899549973235e-05,6.996808581519838e-05,3.686201640630549e-08,7.396038800060336e-05,7.393998435693079e-05
29.73584391825,48.48584391825001,2,0,-2.576377841155512,21.23073301004339,-0.004855517786071187,-2.522899549973235e-05,6.999944790506325e-05,-3.88441422885695e-08,7.400789450721525e-05,7.397477464464457e-05
29.01415608175,49.01415608175001,2,0,-2.590208405093333,21.22154344322351,-0.00113966799939033,-2.526590165087747e-05,6.998110574238988e-05,-9.117343995122644e-09,7.393326758076442e-05,7.390139383788019e-05
29.73584391825,49.01415608175001,2,0,-2.587558598394609,21.2321426700184,-0.004280083168038597,-2.526590165087747e-05,7.001290342277457e-05,-3.424066534430878e-08,7.398143120894296e-05,7.393624736152523e-05
29.01415608175,49.73584391825,2,0,-2.598582845543189,21.21944983311104,0.002835042048614667,-2.529102497222704e-05,6.998110574238988e-05,2.268033638891734e-08,7.3901388065264e-05,7.387503937452065e-05
29.73584391825,49.73584391825,2,0,-2.595933038844465,21.23004905990594,-0.0003053731200200471,-2.529102497222704e-05,7.001290342277457e-05,-2.442984960160377e-09,7.394954807462107e-05,7.390993571694892e-05
27.76415608175,46.51415608175,2,0,-2.489776935234355,21.1912787757613,-0.007992112106852299,-2.492030921335897e-05,6.980391363062364e-05,-6.393689685481839e-08,7.410381410912067e-05,7.407477731926077e-05
28.48584391825,46.51415608175,2,0,-2.482109698116068,21.22194772423445,-0.02366066865529129,-2.492030921335897e-05,6.989592047604309e-05,-1.892853492423303e-07,7.424328065192465e-05,7.417790536549383e-05
27.76415608175,47.23584391825001,2,0,-2.531559752696701,21.18083307139571,0.003508743570592842,-2.504565766574601e-05,6.980391363062364e-05,2.806994856474274e-08,7.394449329922983e-05,7.394188551270751e-05
28.48584391825,47.23584391825001,2,0,-2.523892515578386,21.21150201986897,-0.01215981297776484,-2.504565766574601e-05,6.989592047604342e-05,-9.727850382211869e-08,7.408390827497247e-05,7.404566566426874e-05
27.76415608175,45.26415608175001,2,0,-2.396730648190466,21.20251176683855,-0.00681718109717675,-2.463154748768033e-05,6.976542217243574e-05,-5.4537448777414e-08,7.441299239276103e-05,7.437847397914901e-05
28.48584391825,45.26415608175001,2,0,-2.389378218687548,21.23192148485023,-0.02904233583363289,-2.463154748768033e-05,6.985365132647077e-05,-2.323386866690631e-07,7.45468217103957e-05,7.448007511462259e-05
27.76415608175,45.98584391825,2,0,-2.455997727487768,21.18769499701423,0.004211463157160686,-2.480934872557224e-05,6.976542217243574e-05,3.369170525728549e-08,7.418661183135615e-05,7.419176084626487e-05
28.48584391825,45.98584391825,2,0,-2.448645297984858,21.21710471502587,-0.01801369157934966,-2.480934872557224e-05,6.985365132647066e-05,-1.441095326347973e-07,7.43203720203017e-05,7.429430502689697e-05
29.01415608175,45.26415608175001,2,0,-2.394872818536347,21.24398486380711,0.005523522512122661,-2.465878091036199e-05,6.989664981901181e-05,4.418818009698129e-08,7.457729401762938e-05,7.452963269901177e-05
29.73584391825,45.26415608175001,2,0,-2.392435742516254,21.25373316788748,-0.01702053928420504,-2.465878091036199e-05,6.992589473125293e-05,-1.361643142736403e-07,7.462165437745754e-05,7.456342540199553e-05
29.01415608175,45.98584391825,2,0,-2.454990316659818,21.22895548927624,0.009179136542275968,-2.483913340473241e-05,6.989664981901181e-05,7.343309233820774e-08,7.434763992881073e-05,7.434432477495002e-05
29.73584391825,45.98584391825,2,0,-2.452553240639725,21.23870379335661,-0.01336492525401108,-2.483913340473241e-05,6.992589473125293e-05,-1.069194020320886e-07,7.439197708410523e-05,7.43784370873864e-05
29.01415608175,46.51415608175,2,0,-2.488846403274545,21.23427658004885,0.002848181676387541,-2.495172975451762e-05,6.994076217877593e-05,2.278545341110032e-08,7.427126127345569e-05,7.422821130516753e-05
29.73584391825,46.51415608175,2,0,-2.486304489545273,21.24444423496593,-0.01306012507394769,-2.495172975451762e-05,6.997126514352719e-05,-1.044810005915815e-07,7.431749905345049e-05,7.426252164205132e-05
29.01415608175,47.23584391825001,2,0,-2.531268554608818,21.22367104221528,0.006661052270309428,-2.507899620852044e-05,6.994076217877593e-05,5.328841816247543e-08,7.410948748694753e-05,7.409629133032694e-05
29.73584391825,47.23584391825001,2,0,-2.528726640879547,21.23383869713236,-0.009247254480052904,-2.507899620852044e-05,6.997126514352719e-05,-7.397803584042323e-08,7.415570793624585e-05,7.41308230706096e-05
27.76415608175,44.01415608175001,2,0,-2.274022522772442,21.21531931376804,-0.003871696863257763,-2.424912752388624e-05,6.970823982227568e-05,-3.09735749060621e-08,7.481405791085648e-05,7.477791990203294e-05
28.48584391825,44.01415608175001,2,0,-2.267075618947429,21.24310692906809,-0.0329103400163028,-2.424912752388624e-05,6.979160266817582e-05,-2.632827201304224e-07,7.494061087107655e-05,7.487745458586002e-05
27.76415608175,44.73584391825,2,0,-2.351458904513851,21.19596021833269,0.006548658874287044,-2.448143666911047e-05,6.970823982227568e-05,5.238927099429636e-08,7.45175954786787e-05,7.453553482477335e-05
28.48584391825,44.73584391825,2,0,-2.344512000688803,21.22374783363288,-0.02248998427875799,-2.448143666911047e-05,6.979160266817625e-05,-1.799198742300639e-07,7.464406474691108e-05,7.463632956800844e-05
27.76415608175,42.76415608175,2,0,-2.12074351001484,21.22851015783707,0.001131892191709753,-2.376918735831714e-05,6.962782731309049e-05,9.055137533678023e-09,7.530587924382437e-05,7.528097458831966e-05
28.48584391825,42.76415608175,2,0,-2.114280150755888,21.25436359487288,-0.03500480005055699,-2.376918735831714e-05,6.970538762419791e-05,-2.800384004044559e-07,7.542373640737125e-05,7.537785753117733e-05
27.76415608175,43.48584391825001,2,0,-2.217108022660961,21.20441902967554,0.01082693108013814,-2.40582808962555e-05,6.962782731309049e-05,8.661544864110512e-08,7.493589296619028e-05,7.4977659884675e-05
28.48584391825,43.48584391825001,2,0,-2.210644663402008,21.23027246671135,-0.02530976116215571,-2.40582808962555e-05,6.970538762419791e-05,-2.024780892972457e-07,7.505365557084025e-05,7.507614640475004e-05
29.01415608175,42.76415608175,2,0,-2.116597768410637,21.26559508419513,0.01296119613822559,-2.378558892627014e-05,6.974318248415294e-05,1.036895691058047e-07,7.54600867039118e-05,7.542510455599155e-05
29.73584391825,42.76415608175,2,0,-2.114456337864204,21.27416080638087,-0.02359780014686422,-2.378558892627014e-05,6.976887965071013e-05,-1.887824011749138e-07,7.549913532105451e-05,7.545730288543831e-05
29.01415608175,43.48584391825001,2,0,-2.214088425170956,21.24122242000506,0.01617334195801005,-2.40780608965511e-05,6.974318248415294e-05,1.293867356640804e-07,7.508572167041722e-05,7.51241784644965e-05
29.73584391825,43.48584391825001,2,0,-2.211946994624522,21.24978814219079,-0.02038565432709331,-2.40780608965511e-05,6.976887965071013e-05,-1.630852346167465e-07,7.512473864998415e-05,7.515691797204656e-05
29.01415608175,44.01415608175001,2,0,-2.271067904364025,21.25480406591907,0.008860865768756783,-2.427126054670013e-05,6.983222733443224e-05,7.088692615005426e-08,7.497394955733623e-05,7.492599989847719e-05
29.73584391825,44.01415608175001,2,0,-2.26876575383439,21.26401266803761,-0.02055904547542927,-2.427126054670013e-05,6.985985314078786e-05,-1.644723638034341e-07,7.501588875952844e-05,7.495909347519511e-05
29.01415608175,44.73584391825,2,0,-2.349521001015137,21.23519079175629,0.01231409156322296,-2.450661983665347e-05,6.983222733443224e-05,9.851273250578371e-08,7.467355615054037e-05,7.46854920786133e-05
29.73584391825,44.73584391825,2,0,-2.347218850485501,21.24439939387483,-0.01710581968092243,-2.450661983665347e-05,6.985985314078786e-05,-1.368465574473794e-07,7.471546730235303e-05,7.4719011812184e-05
27.76415608175,41.51415608175001,2,0,-1.936021620260002,21.24071840957664,0.008339880072142876,-2.318784391249332e-05,6.951911620685326e-05,6.671904057714301e-08,7.588676619732835e-05,7.590872432404706e-05
28.48584391825,41.51415608175001,2,0,-1.930103781032848,21.26438976648526,-0.03517393979902874,-2.318784391249332e-05,6.959013027757911e-05,-2.813915183922299e-07,7.599478779296682e-05,7.60023353084698e-05
27.76415608175,42.23584391825,2,0,-2.052058473249949,21.21170919632916,0.01721663891269751,-2.353595447146316e-05,6.951911620685326e-05,1.377331113015801e-07,7.543972527259125e-05,7.553045255294297e-05
28.48584391825,42.23584391825,2,0,-2.046140634022904,21.23538055323734,-0.02629718095852832,-2.353595447146316e-05,6.95901302775778e-05,-2.103774476682266e-07,7.554764563324416e-05,7.562602909995999e-05
27.76415608175,40.26415608175,2,0,-1.719161064033519,21.2504923880068,0.0177344863016367,-2.25017093153127e-05,6.937690449284857e-05,1.418758904130936e-07,7.655440580784434e-05,7.671580887682907e-05
28.48584391825,40.26415608175,2,0,-1.713831868809056,21.27180916890465,-0.03339169405119479,-2.25017093153127e-05,6.944085483554213e-05,-2.671335524095583e-07,7.665178334638251e-05,7.680552940163334e-05
27.76415608175,40.98584391825,2,0,-1.855497544974503,21.21640826777156,0.02572827913845284,-2.291071875813565e-05,6.937690449284857e-05,2.058262331076227e-07,7.602708376359989e-05,7.622633959376558e-05
28.48584391825,40.98584391825,2,0,-1.850168349750003,21.23772504866955,-0.02539790121443286,-2.291071875813565e-05,6.944085483554256e-05,-2.031832097154629e-07,7.61243577808573e-05,7.631838146176561e-05
29.01415608175,40.26415608175,2,0,-1.712712249222046,21.28182651589378,0.02355779477618465,-2.250614041022557e-05,6.947201465023773e-05,1.884623582094772e-07,7.669347211445474e-05,7.684927193062134e-05
29.73584391825,40.26415608175,2,0,-1.710947261371151,21.28888646729736,-0.0279949444047554,-2.250614041022557e-05,6.949319450444847e-05,-2.239595552380432e-07,7.672572241300181e-05,7.687905821746891e-05
29.01415608175,40.98584391825,2,0,-1.850186220371195,21.2474580231065,0.0262052765525678,-2.291856232367302e-05,6.947201465023773e-05,2.096422124205424e-07,7.616165670295093e-05,7.636325959634101e-05
29.73584391825,40.98584391825,2,0,-1.8484212325203,21.25451797451008,-0.02534746262834514,-2.291856232367302e-05,6.949319450444847e-05,-2.027797010267611e-07,7.619387249539565e-05,7.639382707215504e-05
29.01415608175,41.51415608175001,2,0,-1.930678804900533,21.27505949227902,0.01786786746823545,-2.319821976950492e-05,6.962473341921328e-05,1.429429397458836e-07,7.603402249101625e-05,7.604798114688852e-05
29.73584391825,41.51415608175001,2,0,-1.928718515706533,21.28290064905502,-0.02608418719590006,-2.319821976950492e-05,6.964825688954128e-05,-2.086734975672005e-07,7.606980478800617e-05,7.607907691218504e-05
29.01415608175,42.23584391825,2,0,-2.047884284004831,21.24575812250295,0.02080830125924821,-2.354983620681781e-05,6.962473341921328e-05,1.664664100739857e-07,7.55824054688723e-05,7.567263673869648e-05
29.73584391825,42.23584391825,2,0,-2.045923994810831,21.25359927927894,-0.02314375340483309,-2.354983620681781e-05,6.964825688954128e-05,-1.851500272386647e-07,7.561815395762779e-05,7.570439462873386e-05
27.76415608175,39.01415608175,2,0,-1.469792613933809,21.2563975513784,0.02911985787790454,-2.17084544056909e-05,6.919630625555791e-05,2.329588630232363e-07,7.730580210281215e-05,7.784131163728636e-05
28.48584391825,39.01415608175,2,0,-1.465074493737444,21.27527003216385,-0.02976878553525523,-2.17084544056909e-05,6.925292369791428e-05,-2.381502842820418e-07,7.739209398827187e-05,7.792661504999986e-05
27.76415608175,39.73584391825,2,0,-1.626828996368988,21.2171384557696,0.03619703817247816,-2.217956355299644e-05,6.919630625555791e-05,2.895763053798253e-07,7.66957137752754e-05,7.714853933167584e-05
28.48584391825,39.73584391825,2,0,-1.622110876172587,21.2360109365552,-0.02269160524070871,-2.217956355299644e-05,6.925292369791471e-05,-1.815328419256697e-07,7.678190407879755e-05,7.72364542928279e-05
27.76415608175,37.76415608175,2,0,-1.18802555806204,21.2571264357893,0.04211766868102986,-2.080738293442997e-05,6.897322504097539e-05,3.369413494482389e-07,7.813721445327697e-05,7.963606769540986e-05
28.48584391825,37.76415608175,2,0,-1.183919366314218,21.27355120278059,-0.02455692915121876,-2.080738293442997e-05,6.902249934194926e-05,-1.964554332097501e-07,7.821236577565467e-05,7.971672506225735e-05
27.76415608175,38.48584391825,2,0,-1.365824485614664,21.21267670390115,0.04827695630288614,-2.134077971708784e-05,6.897322504097539e-05,3.862156504230892e-07,7.74430732614862e-05,7.850784285347766e-05
28.48584391825,38.48584391825,2,0,-1.361718293866832,21.22910147089247,-0.01839764152936248,-2.134077971708784e-05,6.902249934194937e-05,-1.471811322348998e-07,7.751812861718759e-05,7.859120159965831e-05
29.01415608175,37.76415608175,2,0,-1.180039587703284,21.28202354620331,0.03683381901723392,-2.080174551761315e-05,6.90465070180132e-05,2.946705521378714e-07,7.825638386127833e-05,7.975603061899267e-05
29.73584391825,37.76415608175,2,0,-1.178679930219469,21.28746217613856,-0.03015805131003409,-2.080174551761315e-05,6.906282290781898e-05,-2.412644104802728e-07,7.828126677303429e-05,7.97827580301704e-05
29.01415608175,38.48584391825,2,0,-1.358684575242778,21.23736229931843,0.03887330524295594,-2.133768048023163e-05,6.90465070180132e-05,3.109864419436476e-07,7.755881114650841e-05,7.863183071825803e-05
29.73584391825,38.48584391825,2,0,-1.357324917758963,21.24280092925369,-0.02811856508435273,-2.133768048023163e-05,6.906282290781898e-05,-2.249485206748218e-07,7.75836621838196e-05,7.865947278836332e-05
29.01415608175,39.01415608175,2,0,-1.462429291800015,21.28455191917812,0.02993604960242183,-2.170741526910254e-05,6.928050957480999e-05,2.394883968193746e-07,7.743548670901668e-05,7.796819634963228e-05
29.73584391825,39.01415608175,2,0,-1.460866910558777,21.29080144414307,-0.02933885864079568,-2.170741526910254e-05,6.929925814970483e-05,-2.347108691263654e-07,7.746406091159298e-05,7.799649516016419e-05
29.01415608175,39.73584391825,2,0,-1.620495713781907,21.24503531368265,0.03227962146429113,-2.218161453504822e-05,6.928050957480999e-05,2.58236971714329e-07,7.682128390973023e-05,7.727931343755537e-05
29.73584391825,39.73584391825,2,0,-1.61893333254067,21.2512848386476,-0.02699528677891283,-2.218161453504822e-05,6.929925814970483e-05,-2.159622942313026e-07,7.684982431535465e-05,7.730849183737272e-05
27.76415608175,36.51415608175,2,0,-0.8745942652254222,21.25160749284179,0.05616813568948113,-1.979998764299478e-05,6.870481938927404e-05,4.49345085515849e-07,7.904407939756771e-05,8.29810041764666e-05
28.48584391825,36.51415608175,2,0,-0.871078607190567,21.26567012498121,-0.01814952674681811,-1.979998764299478e-05,6.874700728569231e-05,-1.451962139745449e-07,7.910843931208466e-05,8.305754725802721e-05
27.76415608175,37.23584391825,2,0,-1.072774698388938,21.20206238455091,0.06144162274188689,-2.039452894248532e-05,6.870481938927404e-05,4.915329819350951e-07,7.8266258238392e-05,8.083464765948158e-05
28.48584391825,37.23584391825,2,0,-1.069259040354109,21.21612501669022,-0.0128760396944259,-2.039452894248532e-05,6.874700728569199e-05,-1.030083175554072e-07,7.833053056697893e-05,8.091347877449831e-05
27.76415608175,35.26415608175,2,0,-0.5310006430654068,21.23910870497494,0.07052736234364503,-1.869048902178925e-05,6.838994837037211e-05,5.642188987491602e-07,8.002089381251777e-05,9.0082974279747e-05
28.48584391825,35.26415608175,2,0,-0.5280301496174822,21.25099067876663,-0.011085450231252,-1.869048902178925e-05,6.842559429174721e-05,-8.8683601850016e-08,8.007525352282655e-05,9.015773601826539e-05
27.76415608175,35.98584391825,2,0,-0.748634809931688,21.18470016325837,0.07498310251565421,-1.934339152238809e-05,6.838994837037211e-05,5.998648201252336e-07,7.916189697249819e-05,8.545908582562885e-05
28.48584391825,35.98584391825,2,0,-0.7456643164837091,21.19658213705028,-0.006629710059202158,-1.934339152238809e-05,6.842559429174786e-05,-5.303768047361726e-08,7.921617903249381e-05,8.553453852104306e-05
29.01415608175,35.26415608175,2,0,-0.5230569782272463,21.25766259961762,0.05113947034587961,-1.867991241002128e-05,6.844296590135818e-05,4.091157627670369e-07,8.011587692754413e-05,9.019411370614716e-05
29.73584391825,35.26415608175,2,0,-0.5220724616696941,21.26160066584783,-0.03056257490241889,-1.867991241002128e-05,6.845478010004881e-05,-2.445005992193511e-07,8.013389118951586e-05,9.021873765918785e-05
29.01415608175,35.98584391825,2,0,-0.7409290988894455,21.20319456945207,0.05261624518222187,-1.933352877200788e-05,6.844296590135818e-05,4.209299614577749e-07,7.925580115393098e-05,8.557127612515483e-05
29.73584391825,35.98584391825,2,0,-0.7399445823318933,21.20713263568228,-0.02908580006607663,-1.933352877200788e-05,6.845478010004881e-05,-2.326864005286131e-07,7.927378967938152e-05,8.559619243072656e-05
29.01415608175,36.51415608175,2,0,-0.8663789187036333,21.27326876992309,0.0440079906813875,-1.97910275557901e-05,6.876756319871679e-05,3.520639254511e-07,7.915166043400584e-05,8.309482905538112e-05
29.73584391825,36.51415608175,2,0,-0.8652145935068392,21.27792607071027,-0.03052870428868059,-1.97910275557901e-05,6.878153510107832e-05,-2.442296343094447e-07,7.917297334876947e-05,8.312014173839327e-05
29.01415608175,37.23584391825,2,0,-1.065143438623849,21.22357763994304,0.04575447847660584,-2.038732111555075e-05,6.876756319871679e-05,3.660358278128467e-07,7.837140855757914e-05,8.095188741920903e-05
29.73584391825,37.23584391825,2,0,-1.063979113427055,21.22823494073021,-0.02878221649351646,-2.038732111555075e-05,6.878153510107832e-05,-2.302577319481316e-07,7.839269242116824e-05,8.097799067299631e-05
27.76415608175,34.01415608175,2,0.05418302897246141,-0.005056402285793737,20.62810399169432,0.08178743272484046,-1.746496857919991e-05,6.97957214951775e-05,6.917823234741608e-07,8.379654827355112e-05,0.0001054987303349583
28.48584391825,34.01415608175,2,0.05481368686123855,-0.0009414489833661221,20.63079577963939,-0.003593622991680472,-1.746496857919991e-05,6.984792176560064e-05,-3.041620845944601e-08,8.387630224367743e-05,0.0001055662978065851
27.76415608175,34.73584391825,2,0,-0.2460789124463956,21.74964323913137,0.0929978242371213,-1.818716711113356e-05,6.97957214951775e-05,7.439825938969705e-07,8.283844349341602e-05,9.545258084246148e-05
28.48584391825,34.73584391825,2,0,-0.2417288899111885,21.7670433292722,0.002723007745447561,-1.818716711113356e-05,6.984792176559999e-05,2.178406196358049e-08,8.29180853920229e-05,9.552522974163398e-05
27.76415608175,32.76415608175,2,0.2592698052450583,1.185650227016173,19.61432447524639,0.08588804108280858,-1.606169012413677e-05,8.345456763731189e-05,9.276040500681704e-07,0.0001066647906326938,0.0001332368158602108
28.48584391825,32.76415608175,2,0.2594519344520058,1.189300040773436,19.62526710166976,0.008687132120916553,-1.606169012413677e-05,8.351843394116066e-05,9.384543718429089e-08,0.000106762666947655,0.0001332679414920656
27.76415608175,33.48584391825,2,0.1404541377789565,1.136948007250107,22.70080834434304,0.1065267800280173,-1.689544873702092e-05,8.345456763731189e-05,9.914703539169387e-07,0.0001055376265761036,0.0001156229855942769
28.48584391825,33.48584391825,2,0.1408927209809778,1.140940213504186,22.70751459435103,0.01693641308853302,-1.689544873702092e-05,8.351843394116001e-05,1.577117410330592e-07,0.0001056353987638926,0.0001156794269399591
29.01415608175,32.76415608175,2,0.2595396087655577,1.192402033329512,19.63093567181258,0.05447316434388611,-1.605631060288726e-05,8.354946902696531e-05,5.885329180465399e-07,0.0001068178618408554,0.0001332829301048928
29.73584391825,32.76415608175,2,0.2595970626249763,1.193600474461197,19.63457631507412,-0.02242959498923279,-1.605631060288726e-05,8.357039215435656e-05,-2.423501459219296e-07,0.0001068499234737305,0.0001332927541248187
29.01415608175,33.48584391825,2,0.1411051973291283,1.145242768711311,22.71137466504391,0.06543232873532256,-1.688719366685583e-05,8.354946902696531e-05,6.094560454374641e-07,0.0001056944353079053,0.0001157067903958091
29.73584391825,33.48584391825,2,0.1412473720869879,1.146550510026747,22.71360446446752,-0.0237688792567706,-1.688719366685583e-05,8.357039215435656e-05,-2.214270185306802e-07,0.0001057264629865501,0.0001157251074017825
29.01415608175,34.01415608175,2,0.05511966248866673,0.00409301568127951,20.63287865771322,0.05595404877913731,-1.745533759272735e-05,6.987333175545668e-05,4.737450579319832e-07,8.392819407770269e-05,0.0001055991106636636
29.73584391825,34.01415608175,2,0.0553254384688544,0.005447819909960572,20.63380801312463,-0.02923412920519336,-1.745533759272735e-05,6.989055286834255e-05,-2.47569949658093e-07,8.395450286607925e-05,0.0001056211895847205
29.01415608175,34.73584391825,2,0,-0.2361065538177778,21.77638953512577,0.06137077135235292,-1.817665260031751e-05,6.987333175545668e-05,4.909661708188233e-07,8.297108028483847e-05,9.556055579671772e-05
29.73584391825,34.73584391825,2,0,-0.2346714610772898,21.78212990608773,-0.02879360459643373,-1.817665260031751e-05,6.989055286834255e-05,-2.303488367714698e-07,8.299735221053078e-05,9.558441947486905e-05
27.76415608175,31.51415608175,2,0.4404727070880408,2.328445678887323,19.41572679717422,0.08810341542029013,-1.444354076678001e-05,0.0001077115807777596,1.259683544111269e-06,0.000146249395898702,0.0001735899433504732
28.48584391825,31.51415608175,2,0.4402899576657688,2.330367394671855,19.42671309622571,0.02088564650462091,-1.444354076678001e-05,0.0001077364768027083,2.985209472750397e-07,0.0001462872799201775,0.0001735369084304809
27.76415608175,32.23584391825,2,0.3406727744376414,2.532518033146709,22.82599754426671,0.105869785410276,-1.540470336361574e-05,0.0001077115807777596,1.284579569059679e-06,0.0001449288631815896,0.0001487690153781892
28.48584391825,32.23584391825,2,0.340681181973464,2.5338536074092,22.83117794682247,0.02665436198206432,-1.540470336361574e-05,0.0001077364768027077,3.234169722240998e-07,0.0001449667161022325,0.000148770806933067
27.76415608175,30.26415608175,2,0.5750278223338205,3.182169735789149,19.44873833617385,0.08519061471920517,-1.265035170993419e-05,0.0001404567875829565,1.603693026438514e-06,0.0001992608495431881,0.0002240337647391163
28.48584391825,30.26415608175,2,0.5746464696875335,3.183278552159172,19.45920390803026,0.02916491089837285,-1.265035170993419e-05,0.0001404075090668622,5.485302708445501e-07,0.0001991842009259186,0.0002238492532344462
27.76415608175,30.98584391825,2,0.5026969775559287,3.548867493029811,22.71521218194157,0.09662687926564993,-1.370551446552769e-05,0.0001404567875829565,1.554414510344417e-06,0.0001977957931935585,0.0001937570721596368
28.48584391825,30.98584391825,2,0.5024123118346377,3.548855567130136,22.72004134104411,0.03105269080737422,-1.370551446552769e-05,0.0001404075090668621,4.99251754750886e-07,0.0001977191778076186,0.0001936541174852928
29.01415608175,30.26415608175,2,0.5744599211946126,3.181232536632964,19.46366569710796,0.04702412714675142,-1.266857978593915e-05,0.0001403833555916585,8.840366299458623e-07,0.0001991217050034513,0.0002237591057255685
29.73584391825,30.26415608175,2,0.5743319965517217,3.181596126786233,19.46714583715235,-0.008625016360828451,-1.266857978593915e-05,0.0001403666455863144,-1.620984671802132e-07,0.0001990957176548195,0.0002236973296557988
29.01415608175,30.98584391825,2,0.5022728335592945,3.547322090409406,22.72202108325053,0.05396150290515126,-1.371471488306542e-05,0.0001403833555916585,8.673266246009455e-07,0.0001976692589198598,0.0001936037125996556
29.73584391825,30.98584391825,2,0.5021766212348329,3.547314580346463,22.72364044874655,-0.01112687974305759,-1.371471488306542e-05,0.0001403666455863144,-1.788084725254553e-07,0.0001976432827813,0.0001935689585654834
29.01415608175,31.51415608175,2,0.4402000834221464,2.330604710218146,19.43189902650585,0.05177932655346535,-1.444727644467564e-05,0.0001077484853612971,7.399690499419959e-07,0.0001463008179585571,0.0001735108383267785
29.73584391825,31.51415608175,2,0.4401373593141957,2.331234982917493,19.43555285796238,-0.01506669159805595,-1.444727644467564e-05,0.0001077563973285408,-2.152912590073879e-07,0.0001463128489637286,0.0001734926483988943
29.01415608175,32.23584391825,2,0.3406843314650645,2.534977449350654,22.83382706846589,0.06163620910382316,-1.540253675362567e-05,0.0001077484853612971,7.478810171860154e-07,0.0001449883607028366,0.0001487714780667639
29.73584391825,32.23584391825,2,0.3406845286387703,2.53541139811278,22.83555906729534,-0.01709104693753869,-1.540253675362567e-05,0.0001077563973285408,-2.07379291764561e-07,0.0001450003818224653,0.0001487715200832448
27.76415608175,29.01415608175,2,0.667244737530624,3.781415327573823,19.61592610875244,0.07878202319613668,-1.07953569602714e-05,0.0001795488697686554,1.894053247699116e-06,0.0002622131049956348,0.000279867656629283
28.48584391825,29.01415608175,2,0.6667852002593819,3.782287182057844,19.62561461278803,0.03410590307475259,-1.07953569602714e-05,0.0001793922030528251,8.188328513931888e-07,0.0002619705784072138,0.0002795201272491064
27.76415608175,29.73584391825,2,0.6182114167918598,4.20179208018968,22.47223195929675,0.08291429281091366,-1.187057735657767e-05,0.0001795488697686554,1.737386531869365e-06,0.0002607104274712463,0.0002471070263068119
28.48584391825,29.73584391825,2,0.6177868763201803,4.201474373938597,22.47726055993,0.03163607338358707,-1.187057735657767e-05,0.000179392203052826,6.621661355634377e-07,0.000260467979703153,0.0002468569812072268
27.76415608175,27.76415608175,2,0.7272929107944772,4.195652620706463,19.87019845073035,0.07003200512480678,-9.057595024462507e-06,0.0002208527586181732,2.054424190550555e-06,0.0003284466376069074,0.0003342263197095264
28.48584391825,27.76415608175,2,0.7268208395483765,4.196492111135771,19.87890120015992,0.03655132382557163,-9.057595024462507e-06,0.0002205705956925421,1.070398598931031e-06,0.0003280102994078863,0.0003337161074938579
27.76415608175,28.48584391825,2,0.6956866810798088,4.58210336497561,22.14816208117395,0.06741533844017117,-1.00416206160816e-05,0.0002208527586181732,1.772261264919566e-06,0.0003270659583174413,0.0003032112009409839
28.48584391825,28.48584391825,2,0.6952170347132196,4.582008381635638,22.15367716111032,0.03003010073167172,-1.00416206160816e-05,0.0002205705956925421,7.882356733005837e-07,0.0003266297184138652,0.0003027939599921577
29.01415608175,27.76415608175,2,0.7265901644299877,4.191774041592119,19.88186742094388,0.03446794747837318,-9.113852830002672e-06,0.0002204330227846309,1.008535699720194e-06,0.0003277188104408389,0.0003334673655292859
29.73584391825,27.76415608175,2,0.7264329037585514,4.192049129322712,19.88475933513552,0.001220181274178097,-9.113852830002672e-06,0.0002203393295360889,3.568210624573572e-08,0.000327573923418748,0.0003332980020597406
29.01415608175,28.48584391825,2,0.6949875159305904,4.577378193437861,22.15522700163104,0.03487979607074844,-1.008670642347728e-05,0.0002204330227846309,9.148424511781252e-07,0.0003263540228634461,0.0003025904721672475
29.73584391825,28.48584391825,2,0.6948308968573599,4.577345914159685,22.15707259778333,-0.002212901033364769,-1.008670642347728e-05,0.0002203393295360889,-5.801114229654972e-08,0.0003262091682494277,0.0003024517740396734
29.01415608175,29.01415608175,2,0.6665605919636974,3.778612426730215,19.62931943814984,0.04109258275488708,-1.083224027494059e-05,0.0001793157341923595,9.859082463441323e-07,0.000261800960846527,0.0002793505806934777
29.73584391825,29.01415608175,2,0.6664071858928526,3.778898338390899,19.63254024906636,-0.003255637405822911,-1.083224027494059e-05,0.0001792634840961893,-7.807452122819952e-08,0.0002617200767628451,0.0002792349002694086
29.01415608175,29.73584391825,2,0.6175793027149736,4.198050038342881,22.47890254209152,0.0446312751019214,-1.189622304251294e-05,0.0001793157341923595,9.336581501739535e-07,0.000260314152230122,0.0002467349097840911
29.73584391825,29.73584391825,2,0.6174372658654814,4.197943512853893,22.48058856768784,-0.006232167744630202,-1.189622304251294e-05,0.0001792634840961893,-1.303246173985952e-07,0.0002602332942391185,0.0002466514495535028
30.26415608175,49.01415608175001,2,0,-2.587558598394589,21.23214267001837,0.004280083168025045,-2.526590165087738e-05,7.001290342277446e-05,3.424066534420036e-08,7.398143120894292e-05,7.393624736152524e-05
30.98584391825,49.01415608175001,2,0,-2.590208405093232,21.2215434432238,0.001139667999268358,-2.526590165087738e-05,6.998110574239075e-05,9.117343994146862e-09,7.393326758076582e-05,7.390139383788025e-05
30.26415608175,49.73584391825,2,0,-2.595933038844508,21.23004905990589,0.0003053731200742572,-2.529102497222714e-05,7.001290342277446e-05,2.442984960594058e-09,7.394954807462077e-05,7.390993571694895e-05
30.98584391825,49.73584391825,2,0,-2.598582845543087,21.21944983311158,-0.002835042048668877,-2.529102497222714e-05,6.998110574239151e-05,-2.268033638935102e-08,7.390138806526633e-05,7.38750393745207e-05
30.26415608175,47.76415608175001,2,0,-2.551142454923791,21.23704185660129,0.008775779019180363,-2.515328934103716e-05,6.999944790506314e-05,7.020623215344291e-08,7.410402641813455e-05,7.40537214950324e-05
30.98584391825,47.76415608175001,2,0,-2.553755962412602,21.22658782664604,-0.0006874908177332195,-2.515328934103716e-05,6.99680858151974e-05,-5.499926541865756e-09,7.405650920810398e-05,7.40190611523125e-05
30.26415608175,48.48584391825001,2,0,-2.576377841155474,21.23073301004337,0.004855517785962767,-2.52289954997322e-05,6.999944790506314e-05,3.884414228770214e-08,7.400789450721526e-05,7.397477464464458e-05
30.98584391825,48.48584391825001,2,0,-2.57899134864425,21.22027898008826,-0.004607752050842396,-2.52289954997322e-05,6.996808581519783e-05,-3.686201640673917e-08,7.396038800060271e-05,7.393998435693086e-05
31.51415608175,47.76415608175001,2,0,-2.546105694317557,21.21409421631501,0.01711147161793003,-2.511881359486819e-05,6.992198604766206e-05,1.368917729434403e-07,7.403046625674425e-05,7.396824983974096e-05
32.23584391825,47.76415608175001,2,0,-2.553987762422946,21.18256594389345,0.007796813760753678,-2.511881359486819e-05,6.982740123039738e-05,6.237451008602943e-08,7.388716065583796e-05,7.386409109491026e-05
31.51415608175,48.48584391825001,2,0,-2.5709447819369,21.20788444441017,0.005288369459900168,-2.519333085772621e-05,6.992198604766206e-05,4.230695567920134e-08,7.393583045858077e-05,7.388898557503709e-05
32.23584391825,48.48584391825001,2,0,-2.578826850042226,21.17635617198886,-0.0040262883973575,-2.519333085772621e-05,6.982740123039814e-05,-3.221030717886e-08,7.379255667835067e-05,7.378444459948702e-05
31.51415608175,49.01415608175001,2,0,-2.582020797181839,21.20898490236261,0.009803337880367958,-2.522965447287197e-05,6.993436832530581e-05,7.842670304294367e-08,7.390848168323057e-05,7.385030383822916e-05
32.23584391825,49.01415608175001,2,0,-2.59001174032446,21.17702112979212,0.006713250475526701,-2.522965447287197e-05,6.983847700759436e-05,5.370600380421361e-08,7.376323722032283e-05,7.374557688706281e-05
31.51415608175,49.73584391825,2,0,-2.59026103026144,21.20692484409271,-0.002183076833564036,-2.525437517211077e-05,6.993436832530581e-05,-1.746461466851229e-08,7.387710467565616e-05,7.382388763264431e-05
32.23584391825,49.73584391825,2,0,-2.598251973403998,21.17496107152247,-0.005273164238432399,-2.525437517211077e-05,6.983847700759512e-05,-4.218531390745919e-08,7.373187096660793e-05,7.371903481736464e-05
30.26415608175,46.51415608175,2,0,-2.486304489545238,21.24444423496621,0.01306012507383927,-2.495172975451773e-05,6.997126514352806e-05,1.044810005907141e-07,7.431749905345167e-05,7.426252164205133e-05
30.98584391825,46.51415608175,2,0,-2.488846403274501,21.23427658004916,-0.002848181676509513,-2.495172975451773e-05,6.99407621787769e-05,-2.278545341207611e-08,7.427126127345703e-05,7.422821130516756e-05
30.26415608175,47.23584391825001,2,0,-2.528726640879483,21.23383869713265,0.009247254479998693,-2.507899620852046e-05,6.997126514352806e-05,7.397803583998955e-08,7.415570793624712e-05,7.413082307060962e-05
30.98584391825,47.23584391825001,2,0,-2.531268554608674,21.22367104221589,-0.006661052270309428,-2.507899620852046e-05,6.994076217877777e-05,-5.328841816247543e-08,7.410948748695029e-05,7.4096291330327e-05
30.26415608175,45.26415608175001,2,0,-2.392435742516302,21.25373316788744,0.01702053928411017,-2.465878091036211e-05,6.992589473125282e-05,1.361643142728814e-07,7.462165437745723e-05,7.456342540199554e-05
30.98584391825,45.26415608175001,2,0,-2.394872818536403,21.24398486380703,-0.005523522512176872,-2.465878091036211e-05,6.98966498190116e-05,-4.418818009741497e-08,7.457729401762892e-05,7.452963269901181e-05
30.26415608175,45.98584391825,2,0,-2.452553240639773,21.23870379335657,0.01336492525390266,-2.483913340473253e-05,6.992589473125282e-05,1.069194020312213e-07,7.439197708410492e-05,7.437843708738641e-05
30.98584391825,45.98584391825,2,0,-2.454990316659902,21.22895548927605,-0.009179136542384388,-2.483913340473253e-05,6.989664981901127e-05,-7.343309233907511e-08,7.434763992880976e-05,7.434432477495005e-05
31.51415608175,45.26415608175001,2,0,-2.389378218687614,21.23192148485001,0.0290423358337142,-2.463154748768037e-05,6.985365132647012e-05,2.323386866697136e-07,7.454682171039467e-05,7.448007511462264e-05
32.23584391825,45.26415608175001,2,0,-2.396730648190406,21.20251176683884,0.006817181097190303,-2.463154748768037e-05,6.976542217243661e-05,5.453744877752242e-08,7.441299239276231e-05,7.437847397914901e-05
31.51415608175,45.98584391825,2,0,-2.448645297984918,21.21710471502568,0.01801369157951229,-2.480934872557228e-05,6.985365132647012e-05,1.441095326360983e-07,7.432037202030083e-05,7.4294305026897e-05
32.23584391825,45.98584391825,2,0,-2.455997727487773,21.18769499701426,-0.004211463156998056,-2.480934872557228e-05,6.976542217243585e-05,-3.369170525598444e-08,7.418661183135626e-05,7.419176084626488e-05
31.51415608175,46.51415608175,2,0,-2.482109698116037,21.2219477242347,0.0236606686553184,-2.492030921335907e-05,6.989592047604385e-05,1.892853492425472e-07,7.424328065192568e-05,7.417790536549387e-05
32.23584391825,46.51415608175,2,0,-2.489776935234397,21.19127877576126,0.007992112106892955,-2.492030921335907e-05,6.980391363062353e-05,6.393689685514365e-08,7.41038141091204e-05,7.407477731926078e-05
31.51415608175,47.23584391825001,2,0,-2.523892515578353,21.21150201986912,0.01215981297776484,-2.504565766574602e-05,6.989592047604385e-05,9.727850382211869e-08,7.408390827497311e-05,7.404566566426881e-05
32.23584391825,47.23584391825001,2,0,-2.531559752696732,21.1808330713956,-0.003508743570647052,-2.504565766574602e-05,6.980391363062331e-05,-2.806994856517642e-08,7.394449329922931e-05,7.394188551270756e-05
30.26415608175,44.01415608175001,2,0,-2.2687657538344,21.26401266803761,0.02055904547541572,-2.427126054670016e-05,6.985985314078786e-05,1.644723638033257e-07,7.50158887595284e-05,7.495909347519515e-05
30.98584391825,44.01415608175001,2,0,-2.271067904364126,21.25480406591871,-0.008860865768770335,-2.427126054670016e-05,6.983222733443115e-05,-7.088692615016268e-08,7.497394955733455e-05,7.492599989847729e-05
30.26415608175,44.73584391825,2,0,-2.347218850485528,21.24439939387483,0.01710581968097664,-2.450661983665355e-05,6.985985314078786e-05,1.368465574478131e-07,7.471546730235293e-05,7.471901181218402e-05
30.98584391825,44.73584391825,2,0,-2.349521001015136,21.23519079175639,-0.01231409156322296,-2.450661983665355e-05,6.983222733443256e-05,-9.851273250578371e-08,7.467355615054078e-05,7.468549207861335e-05
30.26415608175,42.76415608175,2,0,-2.114456337864194,21.27416080638094,0.02359780014678291,-2.378558892627017e-05,6.976887965071035e-05,1.887824011742633e-07,7.549913532105482e-05,7.545730288543832e-05
30.98584391825,42.76415608175,2,0,-2.116597768410708,21.26559508419488,-0.01296119613832046,-2.378558892627017e-05,6.974318248415218e-05,-1.036895691065636e-07,7.546008670391064e-05,7.542510455599161e-05
30.26415608175,43.48584391825001,2,0,-2.211946994624503,21.24978814219086,0.02038565432714752,-2.407806089655109e-05,6.976887965071035e-05,1.630852346171802e-07,7.512473864998449e-05,7.515691797204659e-05
30.98584391825,43.48584391825001,2,0,-2.214088425170999,21.24122242000487,-0.01617334195801005,-2.407806089655109e-05,6.97431824841524e-05,-1.293867356640804e-07,7.50857216704164e-05,7.512417846449661e-05
31.51415608175,42.76415608175,2,0,-2.114280150755895,21.25436359487294,0.03500480005054344,-2.376918735831721e-05,6.970538762419813e-05,2.800384004043475e-07,7.54237364073715e-05,7.537785753117738e-05
32.23584391825,42.76415608175,2,0,-2.120743510014874,21.22851015783703,-0.00113189219175041,-2.376918735831721e-05,6.962782731309038e-05,-9.055137534003284e-09,7.530587924382411e-05,7.528097458831968e-05
31.51415608175,43.48584391825001,2,0,-2.210644663401992,21.23027246671142,0.0253097611621015,-2.405828089625551e-05,6.970538762419813e-05,2.02478089296812e-07,7.505365557084059e-05,7.507614640475015e-05
32.23584391825,43.48584391825001,2,0,-2.217108022660971,21.2044190296755,-0.01082693108019235,-2.405828089625551e-05,6.962782731309038e-05,-8.661544864153881e-08,7.49358929661901e-05,7.497765988467502e-05
31.51415608175,44.01415608175001,2,0,-2.267075618947408,21.24310692906823,0.0329103400162757,-2.424912752388628e-05,6.979160266817625e-05,2.632827201302056e-07,7.494061087107716e-05,7.487745458586013e-05
32.23584391825,44.01415608175001,2,0,-2.274022522772528,21.21531931376775,0.003871696863257763,-2.424912752388628e-05,6.970823982227481e-05,3.09735749060621e-08,7.481405791085511e-05,7.477791990203296e-05
31.51415608175,44.73584391825,2,0,-2.344512000688796,21.22374783363288,0.02248998427870378,-2.448143666911045e-05,6.979160266817625e-05,1.799198742296303e-07,7.464406474691111e-05,7.463632956800851e-05
32.23584391825,44.73584391825,2,0,-2.351458904513835,21.19596021833273,-0.006548658874341255,-2.448143666911045e-05,6.970823982227578e-05,-5.238927099473004e-08,7.451759547867889e-05,7.453553482477337e-05
30.26415608175,41.51415608175001,2,0,-1.928718515706547,21.28290064905512,0.0260841871958323,-2.319821976950504e-05,6.96482568895416e-05,2.086734975666584e-07,7.606980478800651e-05,7.607907691218506e-05
30.98584391825,41.51415608175001,2,0,-1.930678804900501,21.2750594922793,-0.01786786746823545,-2.319821976950504e-05,6.962473341921415e-05,-1.429429397458836e-07,7.603402249101741e-05,7.604798114688859e-05
30.26415608175,42.23584391825,2,0,-2.045923994810814,21.25359927927905,0.02314375340483309,-2.354983620681784e-05,6.96482568895416e-05,1.851500272386647e-07,7.561815395762826e-05,7.570439462873387e-05
30.98584391825,42.23584391825,2,0,-2.047884284004787,21.24575812250316,-0.02080830125924821,-2.354983620681784e-05,6.962473341921393e-05,-1.664664100739857e-07,7.558240546887326e-05,7.567263673869655e-05
30.26415608175,40.26415608175,2,0,-1.710947261371145,21.28888646729736,0.02799494440476895,-2.250614041022555e-05,6.949319450444847e-05,2.239595552381516e-07,7.672572241300182e-05,7.687905821746893e-05
30.98584391825,40.26415608175,2,0,-1.712712249222022,21.28182651589385,-0.02355779477618465,-2.250614041022555e-05,6.947201465023795e-05,-1.884623582094772e-07,7.669347211445509e-05,7.684927193062142e-05
30.26415608175,40.98584391825,2,0,-1.848421232520329,21.25451797451007,0.02534746262834514,-2.291856232367311e-05,6.949319450444847e-05,2.027797010267611e-07,7.619387249539555e-05,7.639382707215506e-05
30.98584391825,40.98584391825,2,0,-1.850186220371179,21.24745802310667,-0.0262052765525678,-2.291856232367311e-05,6.947201465023827e-05,-2.096422124205424e-07,7.616165670295165e-05,7.636325959634109e-05
31.51415608175,40.26415608175,2,0,-1.713831868809004,21.27180916890483,0.03339169405126256,-2.250170931531268e-05,6.944085483554267e-05,2.671335524101004e-07,7.665178334638335e-05,7.680552940163342e-05
32.23584391825,40.26415608175,2,0,-1.719161064033512,21.2504923880068,-0.0177344863016367,-2.250170931531268e-05,6.937690449284857e-05,-1.418758904130936e-07,7.655440580784437e-05,7.671580887682907e-05
31.51415608175,40.98584391825,2,0,-1.850168349750035,21.23772504866958,0.02539790121454128,-2.291071875813577e-05,6.944085483554267e-05,2.031832097163302e-07,7.61243577808573e-05,7.63183814617657e-05
32.23584391825,40.98584391825,2,0,-1.855497544974489,21.21640826777176,-0.02572827913834442,-2.291071875813577e-05,6.937690449284922e-05,-2.058262331067554e-07,7.602708376360073e-05,7.622633959376557e-05
31.51415608175,41.51415608175001,2,0,-1.93010378103299,21.26438976648495,0.03517393979919137,-2.318784391249353e-05,6.959013027757824e-05,2.81391518393531e-07,7.599478779296524e-05,7.600233530846988e-05
32.23584391825,41.51415608175001,2,0,-1.936021620260063,21.24071840957666,-0.008339880072034456,-2.318784391249353e-05,6.951911620685337e-05,-6.671904057627565e-08,7.588676619732824e-05,7.590872432404705e-05
31.51415608175,42.23584391825,2,0,-2.04614063402289,21.23538055323748,0.02629718095852832,-2.353595447146323e-05,6.959013027757824e-05,2.103774476682266e-07,7.554764563324473e-05,7.562602909996003e-05
32.23584391825,42.23584391825,2,0,-2.052058473249981,21.21170919632912,-0.01721663891269751,-2.353595447146323e-05,6.951911620685315e-05,-1.377331113015801e-07,7.543972527259099e-05,7.553045255294299e-05
30.26415608175,39.01415608175,2,0,-1.460866910558783,21.29080144414307,0.02933885864079568,-2.170741526910256e-05,6.929925814970483e-05,2.347108691263654e-07,7.746406091159295e-05,7.79964951601642e-05
30.98584391825,39.01415608175,2,0,-1.462429291800021,21.28455191917812,-0.02993604960242183,-2.170741526910256e-05,6.928050957480999e-05,-2.394883968193746e-07,7.743548670901666e-05,7.796819634963235e-05
30.26415608175,39.73584391825,2,0,-1.61893333254065,21.2512848386476,0.02699528677891283,-2.218161453504816e-05,6.929925814970483e-05,2.159622942313026e-07,7.684982431535471e-05,7.730849183737275e-05
30.98584391825,39.73584391825,2,0,-1.620495713781861,21.24503531368276,-0.03227962146429113,-2.218161453504816e-05,6.928050957481031e-05,-2.58236971714329e-07,7.68212839097308e-05,7.727931343755545e-05
30.26415608175,37.76415608175,2,0,-1.178679930219491,21.28746217613859,0.03015805130999344,-2.080174551761324e-05,6.906282290781909e-05,2.412644104799475e-07,7.828126677303435e-05,7.978275803017042e-05
30.98584391825,37.76415608175,2,0,-1.180039587703341,21.28202354620319,-0.03683381901732879,-2.080174551761324e-05,6.904650701801288e-05,-2.946705521386303e-07,7.825638386127772e-05,7.975603061899272e-05
30.26415608175,38.48584391825,2,0,-1.357324917758967,21.24280092925373,0.02811856508429852,-2.133768048023167e-05,6.906282290781909e-05,2.249485206743881e-07,7.758366218381971e-05,7.865947278836333e-05
30.98584391825,38.48584391825,2,0,-1.358684575242754,21.23736229931858,-0.03887330524295594,-2.133768048023167e-05,6.904650701801364e-05,-3.109864419436476e-07,7.755881114650902e-05,7.86318307182581e-05
31.51415608175,37.76415608175,2,0,-1.183919366314197,21.2735512027808,0.02455692915104258,-2.080738293443007e-05,6.902249934194991e-05,1.964554332083406e-07,7.821236577565554e-05,7.971672506225739e-05
32.23584391825,37.76415608175,2,0,-1.188025558062092,21.25712643578922,-0.04211766868116538,-2.080738293443007e-05,6.897322504097517e-05,-3.369413494493231e-07,7.813721445327651e-05,7.963606769540983e-05
31.51415608175,38.48584391825,2,0,-1.3617182938668,21.22910147089265,0.01839764152936248,-2.134077971708788e-05,6.902249934194991e-05,1.471811322348998e-07,7.751812861718838e-05,7.859120159965836e-05
32.23584391825,38.48584391825,2,0,-1.36582448561465,21.21267670390125,-0.04827695630283194,-2.134077971708788e-05,6.897322504097571e-05,-3.862156504226555e-07,7.744307326148665e-05,7.850784285347764e-05
31.51415608175,39.01415608175,2,0,-1.465074493737424,21.27527003216399,0.0297687855353501,-2.170845440569095e-05,6.925292369791471e-05,2.381502842828008e-07,7.739209398827248e-05,7.792661504999992e-05
32.23584391825,39.01415608175,2,0,-1.46979261393386,21.25639755137825,-0.02911985787789099,-2.170845440569095e-05,6.919630625555747e-05,-2.329588630231279e-07,7.730580210281142e-05,7.784131163728635e-05
31.51415608175,39.73584391825,2,0,-1.622110876172556,21.23601093655521,0.02269160524070871,-2.217956355299634e-05,6.925292369791471e-05,1.815328419256697e-07,7.678190407879766e-05,7.723645429282797e-05
32.23584391825,39.73584391825,2,0,-1.626828996368947,21.21713845576965,-0.03619703817247816,-2.217956355299634e-05,6.919630625555802e-05,-2.895763053798253e-07,7.669571377527567e-05,7.714853933167584e-05
30.26415608175,36.51415608175,2,0,-0.8652145935068161,21.27792607071031,0.03052870428868059,-1.979102755579005e-05,6.878153510107843e-05,2.442296343094447e-07,7.91729733487697e-05,8.312014173839328e-05
30.98584391825,36.51415608175,2,0,-0.866378918703556,21.27326876992335,-0.0440079906814146,-1.979102755579005e-05,6.876756319871755e-05,-3.520639254513168e-07,7.915166043400704e-05,8.309482905538119e-05
30.26415608175,37.23584391825,2,0,-1.063979113427063,21.22823494073025,0.02878221649351646,-2.03873211155508e-05,6.878153510107843e-05,2.302577319481316e-07,7.839269242116835e-05,8.097799067299632e-05
30.98584391825,37.23584391825,2,0,-1.065143438623839,21.22357763994314,-0.04575447847655163,-2.03873211155508e-05,6.876756319871712e-05,-3.66035827812413e-07,7.837140855757956e-05,8.095188741920909e-05
30.26415608175,35.26415608175,2,0,-0.5220724616697092,21.26160066584779,0.03056257490250021,-1.86799124100213e-05,6.845478010004871e-05,2.445005992200017e-07,8.013389118951566e-05,9.021873765918785e-05
30.98584391825,35.26415608175,2,0,-0.5230569782273156,21.25766259961737,-0.05113947034579829,-1.86799124100213e-05,6.844296590135743e-05,-4.091157627663863e-07,8.011587692754294e-05,9.019411370614721e-05
30.26415608175,35.98584391825,2,0,-0.7399445823318791,21.20713263568225,0.02908580006613084,-1.933352877200781e-05,6.845478010004871e-05,2.326864005290467e-07,7.927378967938145e-05,8.559619243072658e-05
30.98584391825,35.98584391825,2,0,-0.7409290988894401,21.20319456945201,-0.05261624518216766,-1.933352877200781e-05,6.844296590135797e-05,-4.209299614573413e-07,7.925580115393074e-05,8.557127612515488e-05
31.51415608175,35.26415608175,2,0,-0.5280301496175097,21.25099067876666,0.01108545023119779,-1.869048902178936e-05,6.842559429174732e-05,8.868360184958232e-08,8.007525352282657e-05,9.015773601826544e-05
32.23584391825001,35.26415608175,2,0,-0.5310006430655241,21.2391087049746,-0.07052736234367213,-1.869048902178936e-05,6.838994837037114e-05,-5.64218898749377e-07,8.002089381251614e-05,9.008297427974703e-05
31.51415608175001,35.98584391825,2,0,-0.7456643164837411,21.1965821370501,0.006629710059202158,-1.934339152238805e-05,6.842559429174732e-05,5.303768047361726e-08,7.921617903249305e-05,8.553453852104313e-05
32.23584391825,35.98584391825,2,0,-0.7486348099317013,21.18470016325826,-0.0749831025156,-1.934339152238805e-05,6.838994837037179e-05,-5.998648201248e-07,7.916189697249775e-05,8.545908582562887e-05
31.51415608175,36.51415608175,2,0,-0.8710786071905359,21.26567012498128,0.01814952674680456,-1.979998764299474e-05,6.874700728569253e-05,1.451962139744365e-07,7.910843931208504e-05,8.305754725802727e-05
32.23584391825,36.51415608175,2,0,-0.874594265225392,21.25160749284186,-0.05616813568956244,-1.979998764299474e-05,6.870481938927426e-05,-4.493450855164996e-07,7.904407939756809e-05,8.298100417646661e-05
31.51415608175,37.23584391825,2,0,-1.069259040354073,21.2161250166904,0.01287603969448011,-2.039452894248535e-05,6.874700728569253e-05,1.030083175558409e-07,7.833053056697972e-05,8.091347877449835e-05
32.23584391825,37.23584391825,2,0,-1.072774698389002,21.20206238455069,-0.06144162274183268,-2.039452894248535e-05,6.870481938927339e-05,-4.915329819346614e-07,7.826625823839097e-05,8.083464765948155e-05
30.26415608175,34.01415608175,2,0.05532543846885452,0.005447819909968565,20.63380801312466,0.02923412920515494,-1.745533759272735e-05,6.989055286834266e-05,2.475699496577678e-07,8.39545028660794e-05,0.0001056211895847205
30.98584391825,34.01415608175,2,0.0551196624886674,0.004093015681371881,20.63287865771358,-0.05595404877920129,-1.745533759272735e-05,6.987333175545788e-05,-4.737450579325253e-07,8.392819407770452e-05,0.0001055991106636637
30.26415608175,34.73584391825,2,0,-0.234671461077288,21.78212990608776,0.02879360459648794,-1.817665260031753e-05,6.989055286834266e-05,2.303488367719035e-07,8.299735221053091e-05,9.558441947486905e-05
30.98584391825,34.73584391825,2,0,-0.236106553817776,21.77638953512581,-0.06137077135224449,-1.817665260031753e-05,6.987333175545679e-05,-4.909661708179559e-07,8.297108028483861e-05,9.556055579671777e-05
30.26415608175,32.76415608175,2,0.2595970626249765,1.193600474461201,19.63457631507422,0.02242959498923278,-1.605631060288735e-05,8.357039215435699e-05,2.423501459219296e-07,0.000106849923473731,0.0001332927541248187
30.98584391825,32.76415608175,2,0.2595396087655583,1.192402033329495,19.63093567181259,-0.05447316434389611,-1.605631060288735e-05,8.354946902696541e-05,-5.885329180466484e-07,0.0001068178618408554,0.0001332829301048929
30.26415608175,33.48584391825,2,0.141247372086988,1.146550510026778,22.71360446446764,0.0237688792567706,-1.688719366685584e-05,8.357039215435699e-05,2.214270185306802e-07,0.0001057264629865507,0.0001157251074017825
30.98584391825,33.48584391825,2,0.141105197329129,1.145242768711301,22.71137466504387,-0.06543232873536908,-1.688719366685584e-05,8.35494690269652e-05,-6.094560454378978e-07,0.0001056944353079052,0.0001157067903958091
31.51415608175,32.76415608175,2,0.2594519344520063,1.189300040773403,19.62526710166964,-0.008687132120866366,-1.606169012413679e-05,8.351843394116022e-05,-9.384543718374879e-08,0.0001067626669476543,0.0001332679414920657
32.23584391825,32.76415608175,2,0.2592698052450588,1.185650227016153,19.61432447524632,-0.08588804108279846,-1.606169012413679e-05,8.345456763731167e-05,-9.27604050068062e-07,0.0001066647906326934,0.0001332368158602109
31.51415608175,33.48584391825,2,0.1408927209809787,1.140940213504219,22.70751459435106,-0.01693641308848643,-1.689544873702086e-05,8.351843394116022e-05,-1.577117410326255e-07,0.000105635398763893,0.0001156794269399593
32.23584391825,33.48584391825,2,0.140454137778957,1.136948007250086,22.70080834434288,-0.1065267800279706,-1.689544873702086e-05,8.345456763731135e-05,-9.91470353916505e-07,0.0001055376265761028,0.0001156229855942769
31.51415608175001,34.01415608175,2,0.05481368686123955,-0.0009414489833394768,20.63079577963947,0.003593622991808565,-1.746496857919991e-05,6.984792176560096e-05,3.041620846053021e-08,8.387630224367793e-05,0.0001055662978065852
32.23584391825,34.01415608175,2,0.05418302897246186,-0.005056402285818606,20.62810399169421,-0.08178743272478915,-1.746496857919991e-05,6.979572149517718e-05,-6.917823234737271e-07,8.379654827355063e-05,0.0001054987303349583
31.51415608175,34.73584391825,2,0,-0.2417288899111334,21.76704332927252,-0.002723007745393351,-1.818716711113364e-05,6.984792176560096e-05,-2.178406196314681e-08,8.291808539202428e-05,9.552522974163403e-05
32.23584391825001,34.73584391825,2,0,-0.2460789124463849,21.74964323913151,-0.0929978242371213,-1.818716711113364e-05,6.979572149517794e-05,-7.439825938969705e-07,8.283844349341656e-05,9.545258084246152e-05
30.26415608175,31.51415608175,2,0.4401373593141957,2.331234982917469,19.4355528579623,0.01506669159809389,-1.444727644467566e-05,0.0001077563973285404,2.1529125900793e-07,0.0001463128489637279,0.0001734926483988944
30.98584391825,31.51415608175,2,0.4402000834221466,2.330604710218131,19.4318990265058,-0.0517793265534957,-1.444727644467566e-05,0.0001077484853612969,-7.399690499424296e-07,0.0001463008179585568,0.0001735108383267786
30.26415608175,32.23584391825,2,0.3406845286387705,2.535411398112736,22.83555906729523,0.01709104693750294,-1.540253675362575e-05,0.0001077563973285404,2.073792917641273e-07,0.0001450003818224645,0.0001487715200832448
30.98584391825,32.23584391825,2,0.3406843314650649,2.534977449350657,22.83382706846596,-0.06163620910378739,-1.540253675362575e-05,0.0001077484853612976,-7.478810171855817e-07,0.0001449883607028371,0.000148771478066764
30.26415608175,30.26415608175,2,0.5743319965517217,3.181596126786226,19.46714583715233,0.008625016360828451,-1.266857978593917e-05,0.0001403666455863143,1.620984671802132e-07,0.0001990957176548194,0.0002236973296557988
30.98584391825,30.26415608175,2,0.5744599211946129,3.181232536632974,19.46366569710801,-0.04702412714673409,-1.266857978593917e-05,0.000140383355591659,-8.840366299455371e-07,0.000199121705003452,0.0002237591057255687
30.26415608175,30.98584391825,2,0.5021766212348331,3.547314580346458,22.72364044874652,0.0111268797430306,-1.371471488306542e-05,0.0001403666455863143,1.788084725250216e-07,0.0001976432827812998,0.0001935689585654834
30.98584391825,30.98584391825,2,0.5022728335592948,3.547322090409402,22.72202108325051,-0.05396150290515123,-1.371471488306542e-05,0.0001403833555916584,-8.673266246009455e-07,0.0001976692589198597,0.0001936037125996557
31.51415608175,30.26415608175,2,0.5746464696875339,3.183278552159176,19.45920390803027,-0.02916491089834977,-1.26503517099342e-05,0.0001404075090668624,-5.485302708441164e-07,0.000199184200925919,0.0002238492532344463
32.23584391825,30.26415608175,2,0.5750278223338208,3.182169735789138,19.44873833617381,-0.08519061471918785,-1.26503517099342e-05,0.0001404567875829563,-1.603693026438189e-06,0.0001992608495431877,0.0002240337647391164
31.51415608175,30.98584391825,2,0.502412311834638,3.548855567130146,22.72004134104415,-0.03105269080734723,-1.37055144655277e-05,0.0001404075090668624,-4.992517547504523e-07,0.0001977191778076191,0.0001936541174852928
32.23584391825,30.98584391825,2,0.5026969775559289,3.548867493029795,22.71521218194151,-0.09662687926562293,-1.37055144655277e-05,0.0001404567875829562,-1.554414510343983e-06,0.000197795793193558,0.0001937570721596369
31.51415608175,31.51415608175,2,0.4402899576657691,2.33036739467184,19.42671309622568,-0.02088564650458297,-1.444354076678005e-05,0.0001077364768027082,-2.985209472744976e-07,0.0001462872799201773,0.000173536908430481
32.23584391825,31.51415608175,2,0.440472707088041,2.328445678887323,19.41572679717425,-0.08810341542019151,-1.444354076678005e-05,0.0001077115807777598,-1.25968354410986e-06,0.0001462493958987022,0.0001735899433504733
31.51415608175,32.23584391825,2,0.3406811819734644,2.533853607409223,22.83117794682257,-0.02665436198199281,-1.540470336361576e-05,0.0001077364768027082,-3.234169722232325e-07,0.0001449667161022333,0.0001487708069330671
32.23584391825,32.23584391825,2,0.3406727744376418,2.532518033146667,22.82599754426655,-0.1058697854102045,-1.540470336361576e-05,0.0001077115807777589,-1.284579569058811e-06,0.0001449288631815885,0.0001487690153781893
30.26415608175,29.01415608175,2,0.6664071858928526,3.778898338390888,19.63254024906635,0.003255637405782222,-1.083224027494067e-05,0.0001792634840961892,7.807452122722373e-08,0.0002617200767628448,0.0002792349002694087
30.98584391825,29.01415608175,2,0.6665605919636974,3.778612426730209,19.62931943814985,-0.04109258275491871,-1.083224027494067e-05,0.0001793157341923596,-9.859082463448913e-07,0.0002618009608465271,0.0002793505806934778
30.26415608175,29.73584391825,2,0.6174372658654814,4.197943512853884,22.48058856768782,0.006232167744630202,-1.189622304251298e-05,0.0001792634840961892,1.303246173985952e-07,0.0002602332942391183,0.0002466514495535028
30.98584391825,29.73584391825,2,0.6175793027149739,4.198050038342904,22.47890254209163,-0.04463127510192137,-1.189622304251298e-05,0.0001793157341923604,-9.336581501739535e-07,0.0002603141522301235,0.0002467349097840912
30.26415608175,27.76415608175,2,0.7264329037585514,4.192049129322713,19.88475933513556,-0.001220181274211465,-9.113852830002765e-06,0.0002203393295360893,-3.56821062467115e-08,0.0003275739234187485,0.0003332980020597406
30.98584391825,27.76415608175,2,0.7265901644299877,4.19177404159212,19.88186742094391,-0.03446794747841764,-9.113852830002765e-06,0.0002204330227846313,-1.008535699721495e-06,0.0003277188104408394,0.000333467365529286
30.26415608175,28.48584391825,2,0.6948308968573599,4.577345914159688,22.15707259778337,0.002212901033348226,-1.008670642347736e-05,0.0002203393295360893,5.801114229611604e-08,0.0003262091682494283,0.0003024517740396734
30.98584391825,28.48584391825,2,0.6949875159305904,4.577378193437867,22.15522700163109,-0.03487979607076497,-1.008670642347736e-05,0.0002204330227846314,-9.148424511785588e-07,0.0003263540228634469,0.0003025904721672475
31.51415608175,27.76415608175,2,0.7268208395483765,4.196492111135766,19.87890120015995,-0.03655132382557163,-9.057595024462646e-06,0.0002205705956925424,-1.070398598931031e-06,0.0003280102994078866,0.0003337161074938579
32.23584391825,27.76415608175,2,0.7272929107944772,4.19565262070646,19.87019845073038,-0.07003200512478092,-9.057595024462646e-06,0.0002208527586181736,-2.054424190549796e-06,0.000328446637606908,0.0003342263197095265
31.51415608175,28.48584391825,2,0.6952170347132196,4.58200838163564,22.15367716111036,-0.0300301007316552,-1.004162061608167e-05,0.0002205705956925424,-7.8823567330015e-07,0.0003266297184138656,0.0003027939599921578
32.23584391825,28.48584391825,2,0.6956866810798088,4.5821033649756,22.14816208117394,-0.06741533844015468,-1.004162061608167e-05,0.0002208527586181731,-1.772261264919132e-06,0.000327065958317441,0.0003032112009409839
31.51415608175,29.01415608175,2,0.666785200259382,3.782287182057856,19.62561461278811,-0.03410590307471193,-1.079535696027147e-05,0.0001793922030528259,-8.18832851392213e-07,0.000261970578407215,0.0002795201272491065
32.23584391825,29.01415608175,2,0.6672447375306241,3.78141532757382,19.61592610875245,-0.07878202319611861,-1.079535696027147e-05,0.0001795488697686556,-1.894053247698682e-06,0.000262213104995635,0.000279867656629283
31.51415608175,29.73584391825,2,0.6177868763201806,4.20147437393859,22.47726055992997,-0.03163607338356631,-1.187057735657767e-05,0.0001793922030528259,-6.62166135563004e-07,0.0002604679797031529,0.000246856981207227
32.23584391825,29.73584391825,2,0.6182114167918598,4.201792080189708,22.47223195929686,-0.08291429281091366,-1.187057735657767e-05,0.0001795488697686563,-1.737386531869365e-06,0.0002607104274712476,0.0002471070263068119
32.76415608175,49.01415608175001,2,0,-2.573166551856696,21.15179504380628,0.0156855178321078,-2.515556900098645e-05,6.974427738166544e-05,1.254841426568624e-07,7.371458566925461e-05,7.364315779907963e-05
33.48584391825,49.01415608175001,2,0,-2.586622122389271,21.09797276167598,0.01269689491906363,-2.515556900098645e-05,6.958281053527453e-05,1.015751593525091e-07,7.347001881047077e-05,7.346807059819918e-05
32.76415608175,49.73584391825,2,0,-2.581136212958304,21.14980262853088,-0.004497837966660478,-2.517947798429127e-05,6.974427738166544e-05,-3.598270373328383e-08,7.36842319767799e-05,7.361649612166974e-05
33.48584391825,49.73584391825,2,0,-2.594591783490808,21.09598034640086,-0.007486460879772405,-2.517947798429127e-05,6.95828105352754e-05,-5.989168703817924e-08,7.343968267929792e-05,7.344120801055723e-05
32.76415608175,47.76415608175001,2,0,-2.538227368567644,21.15746686695655,0.02633420466538255,-2.50483010729817e-05,6.973447586911506e-05,2.106736373230604e-07,7.383595765651184e-05,7.376221241836876e-05
33.48584391825,47.76415608175001,2,0,-2.55150170115785,21.10436953659572,0.01731930709600576,-2.50483010729817e-05,6.957518387803259e-05,1.385544567680461e-07,7.359461838140388e-05,7.358803344266838e-05
32.76415608175,48.48584391825001,2,0,-2.562267095419277,21.15145693524364,0.006422705780087003,-2.51204202535366e-05,6.973447586911506e-05,5.138164624069602e-08,7.374434824219312e-05,7.368220236310296e-05
33.48584391825,48.48584391825001,2,0,-2.575541428009402,21.09835960488314,-0.00259219178928979,-2.51204202535366e-05,6.957518387803356e-05,-2.073753431431832e-08,7.350306097834275e-05,7.35074123541605e-05
34.01415608175,47.76415608175001,2,0,-2.526714601728874,21.06644587833061,0.03707371832315301,-2.493864342819688e-05,6.943399849204104e-05,2.965897465852241e-07,7.352003037079761e-05,7.343459226248409e-05
34.73584391825,47.76415608175001,2,0,-2.54558407312461,20.99096799274766,0.02851427337161646,-2.493864342819688e-05,6.92075648352922e-05,2.281141869729317e-07,7.317697407579696e-05,7.318956213792988e-05
34.01415608175,48.48584391825001,2,0,-2.54953978826635,21.06073958169624,0.008769511229602539,-2.500711898780931e-05,6.943399849204104e-05,7.015608983682031e-08,7.343301890649808e-05,7.335345525613058e-05
34.73584391825,48.48584391825001,2,0,-2.568409259662023,20.98526169611355,0.0002100662780659887,-2.500711898780931e-05,6.920756483529296e-05,1.68053022452791e-09,7.309003307604966e-05,7.310762665105157e-05
34.01415608175,49.01415608175001,2,0,-2.560184432694684,21.05986604870422,0.02217665501148163,-2.504048302358636e-05,6.943971890200924e-05,1.77413240091853e-07,7.339934720292625e-05,7.331386265745413e-05
34.73584391825,49.01415608175001,2,0,-2.579306663181783,20.98337712675582,0.01934206985153069,-2.504048302358636e-05,6.921025213616405e-05,1.547365588122455e-07,7.305178933980083e-05,7.306764592927056e-05
34.01415608175,49.73584391825,2,0,-2.567743326454672,21.05797632526422,-0.006506690719153187,-2.506315970486632e-05,6.943971890200924e-05,-5.20535257532255e-08,7.337054697482951e-05,7.328683067261528e-05
34.73584391825,49.73584391825,2,0,-2.586865556941753,20.9814874033159,-0.009341275879117678,-2.506315970486632e-05,6.921025213616427e-05,-7.473020703294142e-08,7.302301286881194e-05,7.304035205291521e-05
32.76415608175,46.51415608175,2,0,-2.475862804859227,21.16650431239209,0.03566187022526195,-2.485596442546319e-05,6.971350404354204e-05,2.852949618020956e-07,7.404866648252389e-05,7.397388045446055e-05
33.48584391825,46.51415608175,2,0,-2.488779199858082,21.11483873239666,0.02047737998092625,-2.485596442546319e-05,6.955850730355577e-05,1.6381903984741e-07,7.381372326596293e-05,7.380135313972324e-05
32.76415608175,47.23584391825001,2,0,-2.516354778844161,21.15638131889585,0.01628727772697838,-2.4977440347418e-05,6.971350404354204e-05,1.30298221815827e-07,7.389419151960674e-05,7.384036732739544e-05
33.48584391825,47.23584391825001,2,0,-2.529271173842999,21.1047157389005,0.001102787482642684,-2.4977440347418e-05,6.955850730355599e-05,8.822299861141469e-09,7.365933273962793e-05,7.366679463878004e-05
32.76415608175,45.26415608175001,2,0,-2.385330411882914,21.17826192366332,0.0429524718670673,-2.457566685695598e-05,6.967870248522894e-05,3.436197749365384e-07,7.435275777828071e-05,7.427903485300733e-05
33.48584391825,45.26415608175001,2,0,-2.397721531669717,21.12869744451611,0.02137213609193955,-2.457566685695598e-05,6.953000904778731e-05,1.709770887355164e-07,7.412721966152094e-05,7.41089632435901e-05
32.76415608175,45.98584391825,2,0,-2.44287797394995,21.16387503314656,0.02436579218674084,-2.474830954315709e-05,6.967870248522894e-05,1.949263374939267e-07,7.413285258150003e-05,7.409142106369035e-05
33.48584391825,45.98584391825,2,0,-2.455269093736798,21.11431055399917,0.002785456411640193,-2.474830954315709e-05,6.953000904778676e-05,2.228365129312154e-08,7.390742794499343e-05,7.391983186029681e-05
34.01415608175,45.26415608175001,2,0,-2.379589819707714,21.09201755404022,0.06010472533739329,-2.448830146629686e-05,6.939812802869488e-05,4.808378026991463e-07,7.403866427884145e-05,7.39590053114745e-05
34.73584391825,45.26415608175001,2,0,-2.397224170314909,21.02148015161144,0.03950814328079375,-2.448830146629686e-05,6.918651582140853e-05,3.1606514624635e-07,7.371770285105164e-05,7.37193842313365e-05
34.01415608175,45.98584391825,2,0,-2.434514038525165,21.07828649933586,0.03365319942660004,-2.465307412274921e-05,6.939812802869488e-05,2.692255954128003e-07,7.382874204887659e-05,7.376858440279546e-05
34.73584391825,45.98584391825,2,0,-2.452148389132369,21.00774909690704,0.01305661737006827,-2.465307412274921e-05,6.918651582140843e-05,1.044529389605461e-07,7.350793543500081e-05,7.352695786776213e-05
34.01415608175,46.51415608175,2,0,-2.466806251927672,21.07738897178174,0.05006403038808924,-2.475569118359394e-05,6.942108971124371e-05,4.005122431047139e-07,7.373305098121507e-05,7.364930974654116e-05
34.73584391825,46.51415608175,2,0,-2.485175843934459,21.00391060375459,0.0356162344492065,-2.475569118359394e-05,6.920065460716226e-05,2.84929875593652e-07,7.339892667392658e-05,7.340644678613217e-05
34.01415608175,47.23584391825001,2,0,-2.505333707764612,21.06775710782251,0.02250964237779981,-2.487127355110476e-05,6.942108971124371e-05,1.800771390223985e-07,7.358602857888838e-05,7.351386623426426e-05
34.73584391825,47.23584391825001,2,0,-2.523703299771408,20.99427873979532,0.008061846438957732,-2.487127355110476e-05,6.920065460716215e-05,6.449477151166186e-08,7.325201899276008e-05,7.326963075180439e-05
32.76415608175,44.01415608175001,2,0,-2.265668498472836,21.19179508180692,0.04759854865791124,-2.420357526055861e-05,6.96262790605604e-05,3.8078838926329e-07,7.474795153260956e-05,7.468045890782297e-05
33.48584391825,44.01415608175001,2,0,-2.277381675084851,21.14494237535886,0.01933223799667732,-2.420357526055861e-05,6.948572094121622e-05,1.546579039734186e-07,7.453457599280512e-05,7.451372520370095e-05
32.76415608175,44.73584391825,2,0,-2.341045326902897,21.1729508746994,0.03002878373997014,-2.442970574584879e-05,6.96262790605604e-05,2.402302699197612e-07,7.445927761412524e-05,7.443686706764913e-05
33.48584391825,44.73584391825,2,0,-2.352758503514912,21.12609816825134,0.001762473078668458,-2.442970574584879e-05,6.948572094121622e-05,1.409978462934766e-08,7.424603989761893e-05,7.426809648534051e-05
32.76415608175,42.76415608175,2,0,-2.115792545755068,21.20591087838362,0.04914382441087602,-2.373526484912311e-05,6.955154884743164e-05,3.931505952870082e-07,7.523357771955876e-05,7.518605917006159e-05
33.48584391825,42.76415608175,2,0,-2.126695573472154,21.16229876751528,0.0138643826643099,-2.373526484912311e-05,6.94207125148266e-05,1.109150613144792e-07,7.503476866542818e-05,7.502362836780549e-05
32.76415608175,43.48584391825001,2,0,-2.209871057079263,21.18239125055257,0.0327892828353403,-2.401750038309569e-05,6.955154884743164e-05,2.623142626827224e-07,7.487228219471204e-05,7.48812043266339e-05
33.48584391825,43.48584391825001,2,0,-2.22077408479634,21.13877913968426,-0.002490158911212272,-2.401750038309569e-05,6.94207125148267e-05,-1.992127128969817e-08,7.467362942476945e-05,7.47161693614571e-05
34.01415608175,42.76415608175,2,0,-2.118470265172292,21.12805832970014,0.06798302579700524,-2.368155151231144e-05,6.930456286717828e-05,5.438642063760419e-07,7.492734037336251e-05,7.488020266607572e-05
34.73584391825,42.76415608175,2,0,-2.134011132344541,21.06589486101115,0.03402055760303065,-2.368155151231144e-05,6.911807246111129e-05,2.721644608242452e-07,7.464397315670635e-05,7.465078716407824e-05
34.01415608175,43.48584391825001,2,0,-2.20903684702281,21.10541668423751,0.0446717250385904,-2.3953251257863e-05,6.930456286717828e-05,3.573738003087232e-07,7.457953772441804e-05,7.457051128746268e-05
34.73584391825,43.48584391825001,2,0,-2.22457771419506,21.04325321554851,0.01070925684465646,-2.3953251257863e-05,6.911807246111129e-05,8.567405475725168e-08,7.429638606280901e-05,7.433760099393722e-05
34.01415608175,44.01415608175001,2,0,-2.263919601988336,21.10933212007834,0.06630401336643806,-2.413200842242534e-05,6.936099846584134e-05,5.304321069315044e-07,7.443687017026288e-05,7.43666137775396e-05
34.73584391825,44.01415608175001,2,0,-2.280602103675183,21.04260211333095,0.03921977458265144,-2.413200842242534e-05,6.916080844559917e-05,3.137581966612115e-07,7.413298189072803e-05,7.413143159099782e-05
34.01415608175,44.73584391825,2,0,-2.336144238745188,21.09127596088912,0.04128026083628908,-2.43486823326959e-05,6.936099846584134e-05,3.302420866903126e-07,7.416024229907624e-05,7.411924679948229e-05
34.73584391825,44.73584391825,2,0,-2.352826740432,21.02454595414188,0.0141960220524347,-2.43486823326959e-05,6.91608084455996e-05,1.135681764194776e-07,7.385654300572149e-05,7.388135247731831e-05
32.76415608175,41.51415608175001,2,0,-1.934619967289743,21.21923783484969,0.04732347610794121,-2.316617416320693e-05,6.944925704535079e-05,3.785878088635296e-07,7.58084986447662e-05,7.581695785952184e-05
33.48584391825,41.51415608175001,2,0,-1.944607026279948,21.17928959888887,0.004701162006827842,-2.316617416320693e-05,6.932941233746834e-05,3.760929605462274e-08,7.562620035977205e-05,7.565985820042015e-05
32.76415608175,42.23584391825,2,0,-2.048279471559316,21.1908229587823,0.03234288762271652,-2.350715267601565e-05,6.944925704535079e-05,2.587431009817322e-07,7.537055427835919e-05,7.543679357350567e-05
33.48584391825,42.23584391825,2,0,-2.058266530549547,21.15087472282137,-0.01027942647842395,-2.350715267601565e-05,6.932941233746802e-05,-8.223541182739158e-08,7.518842396273228e-05,7.527648903010403e-05
32.76415608175,40.26415608175,2,0,-1.721219562130914,21.23031385843785,0.04209761765837935,-2.24921536855692e-05,6.931397999670585e-05,3.367809412670349e-07,7.647101914895011e-05,7.662779268132172e-05
33.48584391825,40.26415608175,2,0,-1.730216443615663,21.19432633249885,-0.008158922071348175,-2.24921536855692e-05,6.920601741888886e-05,-6.52713765707854e-08,7.630662065764089e-05,7.647704848810082e-05
32.76415608175,40.98584391825,2,0,-1.855237001410155,21.19680949861804,0.02860229543125538,-2.289420600340693e-05,6.931397999670585e-05,2.288183634500431e-07,7.595263963095963e-05,7.61360851086374e-05
33.48584391825,40.98584391825,2,0,-1.86423388289485,21.16082197267926,-0.02165424429844505,-2.289420600340693e-05,6.920601741888951e-05,-1.732339543875604e-07,7.578841358299524e-05,7.598154713764593e-05
34.01415608175,40.26415608175,2,0,-1.732845230922782,21.16369600317694,0.05649037336794341,-2.247606154149445e-05,6.911010339490445e-05,4.519229869435473e-07,7.618153047122726e-05,7.634368911784353e-05
34.73584391825,40.26415608175,2,0,-1.745685181662727,21.11233620021716,0.007580137281870528,-2.247606154149445e-05,6.895602398602509e-05,6.064109825496423e-08,7.594690340718791e-05,7.613008873584069e-05
34.01415608175,40.98584391825,2,0,-1.863272527152241,21.13108917911958,0.03723044725805055,-2.286734343018283e-05,6.911010339490445e-05,2.978435780644044e-07,7.567714920340924e-05,7.584491433357328e-05
34.73584391825,40.98584391825,2,0,-1.876112477892152,21.07972937615994,-0.01167978882799523,-2.286734343018283e-05,6.895602398602552e-05,-9.343831062396182e-08,7.544276299517392e-05,7.562616454184183e-05
34.01415608175,41.51415608175001,2,0,-1.941866308875661,21.14671369820743,0.06473711572845897,-2.313134314696805e-05,6.922297688136429e-05,5.178969258276718e-07,7.550932425712657e-05,7.552101760381283e-05
34.73584391825,41.51415608175001,2,0,-1.956111506036652,21.08973290956347,0.02348977188055949,-2.313134314696805e-05,6.90520345154324e-05,1.879181750444759e-07,7.524930422318635e-05,7.529879769881401e-05
34.01415608175,42.23584391825,2,0,-2.051859225803452,21.11921546897548,0.04336931998694549,-2.346132189775143e-05,6.922297688136429e-05,3.46954559895564e-07,7.50855605969132e-05,7.513489006593451e-05
34.73584391825,42.23584391825,2,0,-2.066104422964515,21.06223468033123,0.002121976138964692,-2.346132189775143e-05,6.905203451543153e-05,1.697580911171753e-08,7.482577368716185e-05,7.490833904490941e-05
32.76415608175,39.01415608175,2,0,-1.474976451189592,21.23768928281293,0.03367242797848338,-2.171007607005704e-05,6.914058686595306e-05,2.69379423827867e-07,7.721879140316805e-05,7.775755127465286e-05
33.48584391825,39.01415608175,2,0,-1.482944014607543,21.20581902914113,-0.02442644153994266,-2.171007607005704e-05,6.904497610493764e-05,-1.954115323195412e-07,7.707306032236445e-05,7.76140171209816e-05
32.76415608175,39.73584391825,2,0,-1.62990676990542,21.19895670313398,0.02172108285152918,-2.217486702620452e-05,6.914058686595306e-05,1.737686628122334e-07,7.66169006784439e-05,7.706226323104642e-05
33.48584391825,39.73584391825,2,0,-1.637874333323344,21.16708644946228,-0.03637778666693751,-2.217486702620452e-05,6.904497610493796e-05,-2.910222933355001e-07,7.647133946321372e-05,7.691446750179005e-05
32.76415608175,37.76415608175,2,0,-1.195756365139323,21.24003824489814,0.02250576446568892,-2.081845096436434e-05,6.89247274757855e-05,1.800461157255113e-07,7.804872818709612e-05,7.955675892453262e-05
33.48584391825,37.76415608175,2,0,-1.202691657737246,21.21229707450645,-0.0435160502009705,-2.081845096436434e-05,6.884150396461043e-05,-3.48128401607764e-07,7.792178442306223e-05,7.942074069984858e-05
32.76415608175,38.48584391825,2,0,-1.371814537583785,21.19602370178702,0.01210282556888664,-2.134662548169773e-05,6.89247274757855e-05,9.682260455109309e-08,7.736144262926971e-05,7.842594938122459e-05
33.48584391825,38.48584391825,2,0,-1.378749830181681,21.16828253139544,-0.05391898909778634,-2.134662548169773e-05,6.884150396461075e-05,-4.313519127822907e-07,7.723465990964532e-05,7.828557100039226e-05
34.01415608175,37.76415608175,2,0,-1.214205471721056,21.18630387878631,0.02652375839780699,-2.083450061253642e-05,6.876753678949302e-05,2.121900671824559e-07,7.778795713675048e-05,7.930002532489655e-05
34.73584391825,37.76415608175,2,0,-1.22411035250003,21.14668435567041,-0.03847444152626969,-2.083450061253642e-05,6.864867822014534e-05,-3.077955322101575e-07,7.760662955058406e-05,7.910624301194288e-05
34.01415608175,38.48584391825,2,0,-1.387534004852134,21.14297174550354,0.01166643722946836,-2.135448621192966e-05,6.876753678949302e-05,9.33314978357469e-08,7.711156456297454e-05,7.816113436544976e-05
34.73584391825,38.48584391825,2,0,-1.397438885631098,21.10335222238768,-0.05333176269475739,-2.135448621192966e-05,6.864867822014545e-05,-4.266541015580591e-07,7.693046458250213e-05,7.796154553728181e-05
34.01415608175,39.01415608175,2,0,-1.490446854806442,21.17739273196879,0.04353207003166903,-2.171134412095565e-05,6.896001422614529e-05,3.482565602533523e-07,7.694199391299522e-05,7.748687385595791e-05
34.73584391825,39.01415608175,2,0,-1.501822638853345,21.13188959578118,-0.01333897236704972,-2.171134412095565e-05,6.882350481758246e-05,-1.067117789363978e-07,7.673390857152303e-05,7.728304614972946e-05
34.01415608175,39.73584391825,2,0,-1.642102967869812,21.13947870370295,0.02646839396145068,-2.216631246014576e-05,6.896001422614529e-05,2.117471516916054e-07,7.635299889809417e-05,7.678365084585741e-05
34.73584391825,39.73584391825,2,0,-1.65347875191667,21.09397556751552,-0.03040264843730874,-2.216631246014576e-05,6.8823504817583e-05,-2.432211874984699e-07,7.614515227415133e-05,7.657404882461434e-05
32.76415608175,36.51415608175,2,0,-0.884052353076898,21.23626921576887,0.009302581221586363,-1.981798290246117e-05,6.866330337292189e-05,7.44206497726909e-08,7.895693439949709e-05,8.29055516780277e-05
33.48584391825,36.51415608175,2,0,-0.889988683875905,21.21252389257284,-0.06455610844011811,-1.981798290246117e-05,6.859206740333381e-05,-5.164488675209449e-07,7.884824044372739e-05,8.277595470028651e-05
32.76415608175,37.23584391825,2,0,-1.081008858841472,21.18703008932773,0.0003980850230077097,-2.040885241975489e-05,6.866330337292189e-05,3.184680184061678e-09,7.81840151392119e-05,8.075706474233626e-05
33.48584391825,37.23584391825,2,0,-1.086945189640516,21.16328476613155,-0.07346060463864255,-2.040885241975489e-05,6.859206740333337e-05,-5.876848371091405e-07,7.807546858685363e-05,8.062393538590368e-05
32.76415608175001,35.26415608175,2,0,-0.5411101084968966,21.22562888866477,-0.004984691314119209,-1.871205545812189e-05,6.835490053052479e-05,-3.987753051295367e-08,7.993864472699899e-05,9.00089085965189e-05
33.48584391825001,35.26415608175,2,0,-0.5461189883123332,21.20559336940303,-0.08639369990961326,-1.871205545812189e-05,6.829479397273954e-05,-6.911495992769062e-07,7.984695971997218e-05,8.988131912535219e-05
32.76415608175,35.98584391825,2,0,-0.7582007980850074,21.17135621626775,-0.01249801103722029,-1.936332752688622e-05,6.835490053052479e-05,-9.998408829776234e-08,7.908191675295936e-05,8.538457576717765e-05
33.48584391825,35.98584391825,2,0,-0.7632096779004716,21.15132069700589,-0.09390701963274145,-1.936332752688622e-05,6.829479397273922e-05,-7.512561570619317e-07,7.899036263802093e-05,8.525646319721954e-05
34.01415608175001,35.26415608175,2,0,-0.5616706460906666,21.18502999910085,-0.01526093241862214,-1.874537006677081e-05,6.824143251399524e-05,-1.220874593489771e-07,7.972113230904088e-05,8.976691731629787e-05
34.73584391825001,35.26415608175,2,0,-0.5688106176471681,21.15647011287484,-0.09630121210759096,-1.874537006677081e-05,6.815575285531723e-05,-7.704096968607277e-07,7.95903903639239e-05,8.958195523263711e-05
34.01415608175,35.98584391825,2,0,-0.7777780585945617,21.13100314597501,-0.02597088975326471,-1.93936923042826e-05,6.824143251399567e-05,-2.077671180261177e-07,7.886859993301633e-05,8.514209485712322e-05
34.73584391825001,35.98584391825,2,0,-0.7849180301510801,21.10244325974893,-0.1070111694422742,-1.93936923042826e-05,6.815575285531745e-05,-8.560893555381935e-07,7.873804435277841e-05,8.495774731114755e-05
34.01415608175,36.51415608175,2,0,-0.9043046783426991,21.18916179809699,0.006477973770358143,-1.984510440917423e-05,6.852876149658453e-05,5.182379016286515e-08,7.871581582464399e-05,8.266054257602153e-05
34.73584391825001,36.51415608175,2,0,-0.9127812603490968,21.1552554700714,-0.06664184726164191,-1.984510440917423e-05,6.842704251250776e-05,-5.331347780931353e-07,7.856056988668899e-05,8.247482776644797e-05
34.01415608175,37.23584391825,2,0,-1.099290867761436,21.14041525074231,-0.006236899239198037,-2.043006297743044e-05,6.852876149658453e-05,-4.98951939135843e-08,7.795091554534578e-05,8.05056381212997e-05
34.73584391825,37.23584391825,2,0,-1.107767449767888,21.1065089227165,-0.07935672027121164,-2.043006297743044e-05,6.842704251250711e-05,-6.348537621696931e-07,7.779587890782596e-05,8.031557334042404e-05
32.76415608175,34.01415608175,2,0.05355134597544842,-0.01544381758255398,20.62401810510896,-0.0189719000208529,-1.74849788522411e-05,6.974410361272739e-05,-1.603628464380341e-07,8.369055098655794e-05,0.0001054311397566983
33.48584391825001,34.01415608175,2,0.05245510229947714,-0.02247530725022262,20.61985189330236,-0.1047199902374666,-1.74849788522411e-05,6.965528120571221e-05,-8.841374418592585e-07,8.355481959480739e-05,0.0001053140463343978
32.76415608175001,34.73584391825,2,0,-0.2575758481601946,21.73063841693713,-0.03114815668158475,-1.820875344766232e-05,6.974410361272696e-05,-2.49185253452678e-07,8.273049629317206e-05,9.53803692283626e-05
33.48584391825001,34.73584391825,2,0,-0.2649777154114776,21.701030947932,-0.1216199811092107,-1.820875344766232e-05,6.965528120571156e-05,-9.729598488736856e-07,8.259495671085292e-05,9.525573232891194e-05
32.76415608175,32.76415608175,2,0.2590799702293898,1.179104522538061,19.60289154482374,-0.03729547773474932,-1.607350089782873e-05,8.339087464612682e-05,-4.026936914775653e-07,0.000106550471997366,0.0001332043888080289
33.48584391825,32.76415608175,2,0.2587433201014718,1.17283638664723,19.58458293392709,-0.1150831062343488,-1.607350089782873e-05,8.328072846196753e-05,-1.242032449543418e-06,0.0001063816358107964,0.0001331469220857792
32.76415608175,33.48584391825,2,0.1400113203975691,1.127983800151095,22.69299850560478,-0.05512956093713273,-1.691283965589448e-05,8.339087464612682e-05,-5.128398756376086e-07,0.0001054158609124923,0.0001155660552572534
33.48584391825001,33.48584391825,2,0.1392394921226027,1.121095359991273,22.68176200478599,-0.1454877459359329,-1.691283965589448e-05,8.328072846196678e-05,-1.352178633703353e-06,0.0001052472059824258,0.0001154669600296889
34.01415608175,32.76415608175,2,0.2584215454871123,1.162153047537177,19.56719003454704,-0.06172463586922372,-1.609386330318642e-05,8.318106506079561e-05,-6.658730225356192e-07,0.0001062002145067742,0.0001330920410266782
34.73584391825001,32.76415608175,2,0.2578787740988489,1.152976392393225,19.54140252463072,-0.1403642273177041,-1.609386330318642e-05,8.301892576929209e-05,-1.513113733107537e-06,0.0001059516083655798,0.0001329995699070845
34.01415608175001,33.48584391825,2,0.138529635264438,1.106748853499674,22.66981923119246,-0.08916350877269751,-1.694110401375778e-05,8.318106506079561e-05,-8.280123140400053e-07,0.0001050552595697301,0.0001153759713848406
34.73584391825001,33.48584391825,2,0.1373609349598193,1.096594666463014,22.65395132482264,-0.1806423378570504,-1.694110401375778e-05,8.301892576929176e-05,-1.675253024611273e-06,0.0001048069239461817,0.0001152264810117573
34.01415608175001,34.01415608175,2,0.05145720725671954,-0.03884806250915851,20.61392412277373,-0.03635776360437621,-1.751681972111637e-05,6.957581265471142e-05,-3.066409982345735e-07,8.339028371336118e-05,0.0001052076839547671
34.73584391825001,34.01415608175,2,0.04982514068931643,-0.04907304289159509,20.60875997103656,-0.1226063891273795,-1.751681972111637e-05,6.944752294277875e-05,-1.032284850949021e-06,8.319419048887809e-05,0.0001050341899518902
34.01415608175001,34.73584391825,2,0,-0.2828368033843764,21.67173225375123,-0.05436633877087911,-1.824246357383099e-05,6.957581265471142e-05,-4.349307101670329e-07,8.24281585744395e-05,9.514347571049895e-05
34.73584391825001,34.73584391825,2,0,-0.2935276127120732,21.62896901644044,-0.1450718203601579,-1.824246357383099e-05,6.944752294277907e-05,-1.160574562881263e-06,8.223234469920753e-05,9.496142182494642e-05
32.76415608175,31.51415608175,2,0.4406443957040226,2.327688348861205,19.40525961334523,-0.05490786172596319,-1.443733630681065e-05,0.0001076858435331654,-7.853016764899955e-07,0.0001462179062012493,0.000173639797968752
33.48584391825,31.51415608175,2,0.4409305970215265,2.324381306529796,19.38686646317927,-0.1228664831244333,-1.443733630681065e-05,0.0001076404240982348,-1.758157144280911e-06,0.0001461487045915197,0.0001737229683988945
32.76415608175,32.23584391825,2,0.3406548746377459,2.529966391182506,22.82065909908156,-0.06846648941885652,-1.541019177460184e-05,0.0001076858435331654,-8.307211114208513e-07,0.0001448813193436901,0.0001487652012685434
33.48584391825,32.23584391825,2,0.3406143759352599,2.527626044799602,22.81207782951486,-0.1486565585290125,-1.541019177460184e-05,0.0001076404240982348,-1.803576579211767e-06,0.000144812174527188,0.0001487565724820827
32.76415608175,30.26415608175,2,0.5753973117175438,3.186053786005647,19.43973290330043,-0.06548867490587301,-1.261512080643977e-05,0.000140503826066383,-1.23388149369998e-06,0.0001993821613059465,0.0002242128278103457
33.48584391825,30.26415608175,2,0.5760246838252134,3.184145632582101,19.42220732094519,-0.1222723605337967,-1.261512080643977e-05,0.0001405830590769273,-2.307159985387246e-06,0.0001995054385704739,0.0002245175257140544
32.76415608175,30.98584391825,2,0.5029700264010972,3.551702832773447,22.7112422582931,-0.07173686313739457,-1.36883992981273e-05,0.000140503826066383,-1.154648483156235e-06,0.0001978918709612413,0.0001938559285708436
33.48584391825,30.98584391825,2,0.5034310065963161,3.551687457693747,22.70329315674845,-0.1382899319093824,-1.36883992981273e-05,0.0001405830590769265,-2.227926974843718e-06,0.0001980150942534277,0.0001940230546345816
34.01415608175,30.26415608175,2,0.576569675755249,3.189431518279623,19.40849092541897,-0.09944828257114657,-1.256549561331125e-05,0.0001406503557650081,-1.878907142487292e-06,0.0001996778472144145,0.0002247828892009813
34.73584391825,30.26415608175,2,0.5774302085182221,3.186633950872061,19.38378437996591,-0.1573800771260543,-1.256549561331125e-05,0.000140754980725493,-2.979485619626285e-06,0.0001998407127110564,0.0002252031778260615
34.01415608175,30.98584391825,2,0.5038254667888962,3.555341073920708,22.69731171150467,-0.1100442041800406,-1.366607409045017e-05,0.0001406503557650077,-1.774282182003418e-06,0.0001981494869808796,0.0001941662937980162
34.73584391825001,30.98584391825,2,0.5044417404072388,3.555245809201736,22.68640310146847,-0.1780826181020121,-1.366607409045017e-05,0.0001407549807254924,-2.874860659141977e-06,0.0001983122801916302,0.0001943905044064318
34.01415608175,31.51415608175,2,0.4411675185734614,2.322518273969691,19.37092324339002,-0.08576347145410385,-1.443130166203331e-05,0.0001075974317136692,-1.227752134023053e-06,0.0001460901603951338,0.0001737918785089258
34.73584391825001,31.51415608175,2,0.4415284876141619,2.317665484903043,19.34500052072718,-0.1548232606286271,-1.443130166203331e-05,0.0001075253937696237,-2.217814261890765e-06,0.0001459802289864525,0.0001738969740005516
34.01415608175,32.23584391825,2,0.3405578763275652,2.523024276734312,22.80396821635915,-0.1071420411762825,-1.542136378990103e-05,0.0001075974317136692,-1.299790078069119e-06,0.0001447300201882864,0.0001487445361652211
34.73584391825001,32.23584391825,2,0.3404439930375484,2.519500572419013,22.79206869365413,-0.1887857221852323,-1.542136378990103e-05,0.0001075253937696233,-2.289852205936832e-06,0.0001446201792136958,0.0001487202811224785
32.76415608175,29.01415608175,2,0.6676929351439976,3.788636937601913,19.60845147961748,-0.07035935961763397,-1.072238107520181e-05,0.0001797016720380923,-1.693839633487722e-06,0.0002625510119139039,0.0002802074484078665
33.48584391825,29.01415608175,2,0.6684565042602248,3.787136934923627,19.59221737010253,-0.1157019321573847,-1.072238107520181e-05,0.0001799624688858921,-2.791837177181671e-06,0.0002629547486685092,0.0002807882474308139
32.76415608175,29.73584391825,2,0.6186242217643469,4.208486720374159,22.4689545000234,-0.06831597595457727,-1.182037861889567e-05,0.0001797016720380923,-1.433042785687656e-06,0.0002610163335436048,0.000247350647815156
33.48584391825,29.73584391825,2,0.6193264549858033,4.209010772603317,22.46067488074456,-0.1204375118449392,-1.182037861889567e-05,0.0001799624688858929,-2.531040329381389e-06,0.0002614199371160295,0.0002477661890542119
32.76415608175,27.76415608175,2,0.7277546878545644,4.205034541729654,19.86421778018364,-0.07103916299413138,-8.945107893395342e-06,0.0002211294982043394,-2.087504462333785e-06,0.0003290320337413828,0.0003347269295663262
33.48584391825,27.76415608175,2,0.7285424256890924,4.203587731080503,19.84962253768508,-0.104998133012281,-8.945107893395342e-06,0.0002216034018886121,-3.094351175245494e-06,0.000329764887956126,0.0003355844089142624
32.76415608175,28.48584391825,2,0.6961453999474339,4.591285540845097,22.14507614668133,-0.06128750238278372,-9.951954606307163e-06,0.0002211294982043394,-1.613600778061115e-06,0.0003276190967865315,0.0003036198525399981
33.48584391825,28.48584391825,2,0.6969274066983526,4.59143824425281,22.13595884070347,-0.09927322708750344,-9.951954606307163e-06,0.0002216034018886121,-2.620447490973149e-06,0.0003283517835143685,0.0003043190685223208
34.01415608175,27.76415608175,2,0.7292361396256737,4.217520165839597,19.84052870755109,-0.1041939597535562,-8.776497838629152e-06,0.0002220225241595496,-3.078518960676949e-06,0.0003306490018999753,0.000336343215086774
34.73584391825,27.76415608175,2,0.7303409270673276,4.215393603519445,19.81990225252821,-0.1389029556028451,-8.776497838629152e-06,0.0002226936838141104,-4.12084649234186e-06,0.0003316869120611696,0.0003375588327553245
34.01415608175,28.48584391825,2,0.697614634262937,4.605007147252734,22.13136496489172,-0.09099377803004934,-9.818825370293755e-06,0.0002220225241595496,-2.407359306115953e-06,0.0003291857548199711,0.0003049362211065446
34.73584391825,28.48584391825,2,0.6987077662636216,4.6052111767836,22.11876449273843,-0.1299204816307394,-9.818825370293755e-06,0.0002226936838141104,-3.449686837780647e-06,0.0003302234224821804,0.0003059230973404155
34.01415608175,29.01415608175,2,0.6691261648957556,3.79763645671848,19.58084005728241,-0.104853373015854,-1.061502908871666e-05,0.0001801912774370478,-2.53518681482491e-06,0.0002634580119895544,0.000281299612712035
34.73584391825,29.01415608175,2,0.6701900650471122,3.795438462248693,19.55793141558559,-0.1512231443031712,-1.061502908871666e-05,0.0001805555971762381,-3.668128295159401e-06,0.0002640220375713335,0.0002821158896186698
34.01415608175,29.73584391825,2,0.6199396506860442,4.218650721103137,22.45577513216714,-0.1031325623849976,-1.17479705690512e-05,0.0001801912774370478,-2.170867075634939e-06,0.0002618741151057545,0.0002481301916371095
34.73584391825,29.73584391825,2,0.6209112012865345,4.219375686096799,22.44440780731566,-0.1565546020827048,-1.17479705690512e-05,0.0001805555971762386,-3.303808555969213e-06,0.0002624379503999611,0.0002487091239486583
35.26415608175,49.01415608175001,2,0,-2.541888645306813,20.93208302891339,0.02951636357353157,-2.487971008811251e-05,6.901617660876828e-05,2.361309085882526e-07,7.296187568427132e-05,7.286100701126329e-05
35.98584391825,49.01415608175001,2,0,-2.566951764934299,20.83183055040345,0.0268900859422234,-2.487971008811251e-05,6.871541917323845e-05,2.151206875377872e-07,7.250634402254763e-05,7.254267571660596e-05
35.26415608175,49.73584391825,2,0,-2.548892052323644,20.93033217715918,-0.008078315867751564,-2.490072030916301e-05,6.901617660876828e-05,-6.462652694201251e-08,7.293517384930864e-05,7.283350685276961e-05
35.98584391825,49.73584391825,2,0,-2.57395517195114,20.8300796986492,-0.01070459349904618,-2.490072030916301e-05,6.871541917323834e-05,-8.563674799236948e-08,7.247967114798314e-05,7.251487387634605e-05
35.26415608175,47.76415608175001,2,0,-2.510405141423925,20.93990313992424,0.0499399789440861,-2.478521896449595e-05,6.901601416089672e-05,3.995198315526888e-07,7.308168378826813e-05,7.298385969915249e-05
35.98584391825,47.76415608175001,2,0,-2.535146184586402,20.84093896727433,0.04199714999547665,-2.478521896449595e-05,6.871912164294698e-05,3.359771999638132e-07,7.263188908876503e-05,7.266690030970214e-05
35.26415608175,48.48584391825001,2,0,-2.531586018620337,20.93460792062514,0.01282841420027422,-2.484876159608519e-05,6.901601416089672e-05,1.026273136021938e-07,7.300089006806846e-05,7.290129393503006e-05
35.98584391825,48.48584391825001,2,0,-2.556327061782833,20.83564374797516,0.004885585251624119,-2.484876159608519e-05,6.871912164294676e-05,3.908468201299295e-08,7.255118145233627e-05,7.258341107665064e-05
36.51415608175,47.76415608175001,2,0,-2.487778863023347,20.77633483708544,0.06550686531026929,-2.458196023134305e-05,6.847449456909207e-05,5.240549224821544e-07,7.251950271586331e-05,7.240809127617739e-05
37.23584391825,47.76415608175001,2,0,-2.518732286086089,20.65252114483447,0.05834656450709138,-2.458196023134305e-05,6.810305349233916e-05,4.66772516056731e-07,7.195677389336771e-05,7.201797123655026e-05
36.51415608175,48.48584391825001,2,0,-2.506872998498522,20.77156130321664,0.0190767307161558,-2.463924263776858e-05,6.847449456909207e-05,1.526138457292464e-07,7.244658511073448e-05,7.232391241151938e-05
37.23584391825,48.48584391825001,2,0,-2.537826421561237,20.64774761096578,0.01191642991292367,-2.463924263776858e-05,6.810305349233949e-05,9.533143930338939e-08,7.188395367266424e-05,7.193283173223377e-05
36.51415608175,49.01415608175001,2,0,-2.516735713865406,20.76696557663382,0.03792620228328515,-2.466712674567635e-05,6.846767841632052e-05,3.034096182662812e-07,7.240090135541783e-05,7.228284244212708e-05
37.23584391825,49.01415608175001,2,0,-2.548075955490734,20.6416046101325,0.03556390314505371,-2.466712674567635e-05,6.809159551681657e-05,2.845112251604297e-07,7.183128026911416e-05,7.1891296029381e-05
36.51415608175,49.73584391825,2,0,-2.523035178233955,20.76539071054168,-0.009084160154681532,-2.468602513878199e-05,6.846767841632052e-05,-7.267328123745226e-08,7.237685387280864e-05,7.225481606373529e-05
37.23584391825,49.73584391825,2,0,-2.554375419859221,20.64002974404061,-0.01144645929294008,-2.468602513878199e-05,6.809159551681733e-05,-9.157167434352062e-08,7.180726544680845e-05,7.186295788317082e-05
35.26415608175,46.51415608175,2,0,-2.453823734242172,20.95345112872633,0.06784299910845096,-2.461499685255601e-05,6.901410259931798e-05,5.427439928676076e-07,7.329522893061304e-05,7.32024609697708e-05
35.98584391825,46.51415608175,2,0,-2.477926605877381,20.85703964218549,0.05439486939667123,-2.461499685255601e-05,6.872486813969548e-05,4.351589551733698e-07,7.285683708712433e-05,7.288802431583343e-05
35.26415608175,47.23584391825001,2,0,-2.489685413473619,20.94448570891847,0.03168869165567868,-2.472258189025035e-05,6.901410259931798e-05,2.535095332454294e-07,7.315830717796889e-05,7.306455716289563e-05
35.98584391825,47.23584391825001,2,0,-2.513788285108818,20.84807422237767,0.0182405619438583,-2.472258189025035e-05,6.872486813969559e-05,1.459244955508664e-07,7.272005607637662e-05,7.274852118114246e-05
35.26415608175,45.26415608175001,2,0,-2.371113732362552,20.97201187293879,0.08183077321346198,-2.43651734419112e-05,6.900732897929416e-05,6.546461857076958e-07,7.360304259504661e-05,7.351797971884161e-05
35.98584391825,45.26415608175001,2,0,-2.394275011482613,20.87936675645855,0.06257376002005915,-2.43651734419112e-05,6.872939362985344e-05,5.005900801604733e-07,7.318150575536413e-05,7.320735343794652e-05
35.26415608175,45.98584391825,2,0,-2.42246576754496,20.95917386414319,0.04708885453330418,-2.451922954745842e-05,6.900732897929416e-05,3.767108362664334e-07,7.340669675375537e-05,7.33239551774628e-05
35.98584391825,45.98584391825,2,0,-2.445627046665056,20.86652874766281,0.02783184133994202,-2.451922954745842e-05,6.872939362985301e-05,2.226547307195362e-07,7.298535099228194e-05,7.30109680485016e-05
36.51415608175,45.26415608175001,2,0,-2.358510420912054,20.81664711051766,0.1094143126884951,-2.420055103533269e-05,6.850007909038613e-05,8.753145015079605e-07,7.304379239309908e-05,7.29533223691237e-05
37.23584391825,45.26415608175001,2,0,-2.38755738952213,20.70045923607735,0.091869841170673,-2.420055103533269e-05,6.815151546706521e-05,7.34958729365384e-07,7.251516442453714e-05,7.25699228632643e-05
36.51415608175,45.98584391825,2,0,-2.405295678292734,20.80495079617248,0.06584385977328458,-2.434090680747473e-05,6.850007909038613e-05,5.267508781862766e-07,7.286476815044818e-05,7.275514792390882e-05
37.23584391825,45.98584391825,2,0,-2.434342646902847,20.68876292173203,0.04829938825555739,-2.434090680747473e-05,6.815151546706478e-05,3.863951060444591e-07,7.233635954636584e-05,7.236922147485421e-05
36.51415608175,46.51415608175,2,0,-2.435443040541679,20.79314508993846,0.08992730174448395,-2.442793380168414e-05,6.848641872023642e-05,7.194184139558716e-07,7.27335058565095e-05,7.263110944773813e-05
37.23584391825,46.51415608175,2,0,-2.465628162991856,20.67240460013775,0.07775150203468004,-2.442793380168414e-05,6.812419725083429e-05,6.220120162774402e-07,7.218450604179209e-05,7.224364162878945e-05
36.51415608175,47.23584391825001,2,0,-2.467911839767784,20.78502789013194,0.04464961806917778,-2.452534019936246e-05,6.848641872023642e-05,3.571969445534222e-07,7.260941511113504e-05,7.249040447394688e-05
37.23584391825,47.23584391825001,2,0,-2.498096962217962,20.66428740033123,0.03247381835940095,-2.452534019936246e-05,6.812419725083429e-05,2.597905468752076e-07,7.206057548083063e-05,7.210125249732937e-05
35.26415608175,44.01415608175001,2,0,-2.260893469747088,20.994520342431,0.09069584688669717,-2.403047537713547e-05,6.899117987157685e-05,7.255667750935774e-07,7.400549797940685e-05,7.393358361133914e-05
35.98584391825,44.01415608175001,2,0,-2.28283045828261,20.90677238828891,0.06522874944365618,-2.403047537713547e-05,6.872793600915059e-05,5.218299955492495e-07,7.360591594476266e-05,7.36282350652556e-05
35.26415608175,44.73584391825,2,0,-2.328805729595213,20.97754227746897,0.05779036408350971,-2.423421215667985e-05,6.899117987157685e-05,4.623229126680777e-07,7.374532732106471e-05,7.368132916537675e-05
35.98584391825,44.73584391825,2,0,-2.350742718130744,20.88979432332684,0.03232326664052293,-2.423421215667985e-05,6.872793600915048e-05,2.585861331241834e-07,7.334598030545618e-05,7.337274963659497e-05
35.26415608175,42.76415608175,2,0,-2.121523469263895,21.0196012837451,0.09349846215524649,-2.360455612864054e-05,6.895994288339544e-05,7.479876972419719e-07,7.450272833851148e-05,7.445759044523374e-05
35.98584391825,42.76415608175,2,0,-2.141984105468259,20.93775873892765,0.0613480341205507,-2.360455612864054e-05,6.871441524894308e-05,4.907842729644056e-07,7.41296751644849e-05,7.415918269547007e-05
35.26415608175,43.48584391825001,2,0,-2.207257944023098,20.9981676650553,0.06280750784867437,-2.386175955291815e-05,6.895994288339544e-05,5.024600627893949e-07,7.417346342423313e-05,7.414158219438592e-05
35.98584391825,43.48584391825001,2,0,-2.22771858022748,20.91632512023778,0.03065707981393792,-2.386175955291815e-05,6.871441524894286e-05,2.452566385115033e-07,7.380068062889601e-05,7.383895916827576e-05
36.51415608175,42.76415608175,2,0,-2.123860783164441,20.87885971909978,0.1276602664034758,-2.349944228140603e-05,6.851143972765083e-05,1.021282131227806e-06,7.395651926148103e-05,7.391453901100004e-05
37.23584391825,42.76415608175,2,0,-2.149611766700492,20.77585578495557,0.09785896060289068,-2.349944228140603e-05,6.820242792521822e-05,7.828716848231254e-07,7.348704473152347e-05,7.354456778501232e-05
36.51415608175,43.48584391825001,2,0,-2.203330931965946,20.8589921818994,0.08903379109935927,-2.373785272781054e-05,6.851143972765083e-05,7.122703287948742e-07,7.365123238201725e-05,7.359105749277797e-05
37.23584391825,43.48584391825001,2,0,-2.229081915501915,20.75598824775552,0.05923248529881479,-2.373785272781054e-05,6.820242792521919e-05,4.738598823905184e-07,7.318207550637439e-05,7.321640054611795e-05
36.51415608175,44.01415608175001,2,0,-2.25532168919574,20.84571198860931,0.1224083621223797,-2.389359899631382e-05,6.851053571490639e-05,9.792668969790374e-07,7.34512171458662e-05,7.337823597948541e-05
37.23584391825,44.01415608175001,2,0,-2.282880421450187,20.73547705959152,0.09902132809067456,-2.389359899631382e-05,6.817983092785303e-05,7.921706247253964e-07,7.294927102003963e-05,7.300057432136997e-05
36.51415608175,44.73584391825,2,0,-2.317687113280389,20.83012063258815,0.08107026374065511,-2.408069526856776e-05,6.851053571490639e-05,6.485621099252409e-07,7.321216985492323e-05,7.312027831042373e-05
37.23584391825,44.73584391825,2,0,-2.345245845534826,20.7198857035704,0.05768322970889578,-2.408069526856776e-05,6.817983092785313e-05,4.614658376711663e-07,7.271049646320467e-05,7.273909334862203e-05
35.26415608175,41.51415608175001,2,0,-1.95123629848184,21.04562853129213,0.08965096800499683,-2.308045898017559e-05,6.890700033892029e-05,7.172077440399747e-07,7.50945151616295e-05,7.511144126053052e-05
35.98584391825,41.51415608175001,2,0,-1.970011162910829,20.97052907357618,0.05030743163508215,-2.308045898017559e-05,6.868170196577242e-05,4.024594530806572e-07,7.475182564736443e-05,7.482179385699194e-05
35.26415608175,42.23584391825,2,0,-2.056152395468202,21.01939950704554,0.06148867136149868,-2.339520727113468e-05,6.890700033892029e-05,4.919093708919894e-07,7.469035502844052e-05,7.471746339877112e-05
35.98584391825,42.23584391825,2,0,-2.074927259897183,20.94430004932962,0.02214513499155689,-2.339520727113468e-05,6.868170196577253e-05,1.771610799324551e-07,7.434796063521021e-05,7.442253245659666e-05
35.26415608175,40.26415608175,2,0,-1.748311410758913,21.07080935917248,0.07900106676598953,-2.24512440017665e-05,6.882523907795904e-05,6.320085341279163e-07,7.5780133917239e-05,7.594976055588871e-05
35.98584391825,40.26415608175,2,0,-1.765247377828566,21.00306549089386,0.03196596892783912,-2.24512440017665e-05,6.86220074731232e-05,2.55727751422713e-07,7.547065651666935e-05,7.567069518820537e-05
35.26415608175,40.98584391825,2,0,-1.873738338327263,21.03945262728039,0.05359711616144186,-2.282752478447155e-05,6.882523907795904e-05,4.287769292915349e-07,7.52952155200888e-05,7.544163428860508e-05
35.98584391825,40.98584391825,2,0,-1.890674305396916,20.97170875900177,0.006562018323305,-2.282752478447155e-05,6.86220074731232e-05,5.249614658644e-08,7.498604587578736e-05,7.51562380529387e-05
36.51415608175,40.26415608175,2,0,-1.767059740686022,20.9500274119159,0.1121428522368094,-2.241461309972799e-05,6.845373551067971e-05,8.971428178944753e-07,7.526231084298309e-05,7.544118087265786e-05
37.23584391825,40.26415608175,2,0,-1.788434402858281,20.86452876322687,0.06758582173065499,-2.241461309972799e-05,6.81972395646126e-05,5.406865738452398e-07,7.487173013237849e-05,7.509320146917433e-05
36.51415608175,40.98584391825,2,0,-1.885878488702486,20.92032272491179,0.08008085897837991,-2.277106934377739e-05,6.845373551067971e-05,6.406468718270393e-07,7.480304595110883e-05,7.492174830086709e-05
37.23584391825,40.98584391825,2,0,-1.907253150874718,20.83482407622286,0.03552382847225258,-2.277106934377739e-05,6.819723956461292e-05,2.841906277780207e-07,7.441283644994432e-05,7.456650661999238e-05
36.51415608175,41.51415608175001,2,0,-1.961877398427112,20.91430490479328,0.1243379827555938,-2.300945159880138e-05,6.849527761408018e-05,9.947038620447502e-07,7.456019416193557e-05,7.458397404819773e-05
37.23584391825,41.51415608175001,2,0,-1.98554593404894,20.81963076230597,0.08748595921473726,-2.300945159880138e-05,6.821125518661824e-05,6.99887673717898e-07,7.412820926697475e-05,7.422388565103664e-05
36.51415608175,42.23584391825,2,0,-2.060149461202728,20.88973688909937,0.08883517932275738,-2.330426778712823e-05,6.849527761408018e-05,7.10681434582059e-07,7.418162709576262e-05,7.418059020016798e-05
37.23584391825,42.23584391825,2,0,-2.083817996824609,20.79506274661185,0.05198315578187375,-2.330426778712823e-05,6.821125518661759e-05,4.1586524625499e-07,7.374999350816605e-05,7.381452260525327e-05
35.26415608175,39.01415608175,2,0,-1.511301297705102,21.09329961780828,0.06189758075626013,-2.171080384690295e-05,6.870759981515056e-05,4.951806460500811e-07,7.655814883518756e-05,7.711068991009695e-05
35.98584391825,39.01415608175,2,0,-1.526313709950831,21.03324996882536,0.00674562057122565,-2.171080384690295e-05,6.85274508682018e-05,5.39649645698052e-08,7.628352024498665e-05,7.68436316126278e-05
35.26415608175,39.73584391825,2,0,-1.658373191531898,21.05653164435158,0.03937896238774682,-2.215201952838333e-05,6.870759981515056e-05,3.150316991019746e-07,7.598717449255101e-05,7.639698266177617e-05
35.98584391825,39.73584391825,2,0,-1.673385603777601,20.99648199536876,-0.01577299779730122,-2.215201952838333e-05,6.852745086820212e-05,-1.261839823784097e-07,7.571285366868192e-05,7.612283092982347e-05
35.26415608175,37.76415608175,2,0,-1.239283081954612,21.11134739960591,0.03920712125132005,-2.085478378193948e-05,6.854773814430259e-05,3.136569700105604e-07,7.742620946098966e-05,7.894199487213304e-05
35.98584391825,37.76415608175,2,0,-1.252359319153563,21.0590424508101,-0.02434622803892657,-2.085478378193948e-05,6.839082329791518e-05,-1.947698243114125e-07,7.718678017996583e-05,7.868704292205843e-05
35.26415608175,38.48584391825,2,0,-1.408758680061892,21.06897850007909,0.01959276545285315,-2.136321057626132e-05,6.854773814430259e-05,1.567421236228252e-07,7.67651583247165e-05,7.779262387656819e-05
35.98584391825,38.48584391825,2,0,-1.421834917260789,21.0166735512835,-0.04396058383737993,-2.136321057626132e-05,6.839082329791583e-05,-3.516846706990394e-07,7.652602490546088e-05,7.753071014514797e-05
36.51415608175,37.76415608175,2,0,-1.271002673905376,21.01376447676073,0.06326749683482523,-2.087822013790578e-05,6.826084846475863e-05,5.061399746786018e-07,7.695814128364414e-05,7.847638138486325e-05
37.23584391825,37.76415608175,2,0,-1.287517924031884,20.9477034762547,0.001646311888748556,-2.087822013790578e-05,6.806266546324053e-05,1.317049510998845e-08,7.66556856457878e-05,7.815579531209561e-05
36.51415608175,38.48584391825,2,0,-1.435325833761518,20.97268368679669,0.03849462164513037,-2.137118961747421e-05,6.826084846475863e-05,3.079569731610429e-07,7.631754056798018e-05,7.731465825394803e-05
37.23584391825,38.48584391825,2,0,-1.451841083887927,20.90662268629106,-0.0231265633009463,-2.137118961747421e-05,6.806266546324172e-05,-1.850125064075704e-07,7.601545047312966e-05,7.698630724151356e-05
36.51415608175,39.01415608175,2,0,-1.537287979111353,20.98388181961384,0.09142790552241306,-2.17064269888474e-05,6.837825220605337e-05,7.314232441793045e-07,7.606222529310147e-05,7.662356356660131e-05
37.23584391825,39.01415608175,2,0,-1.556243760651379,20.90805869345374,0.03856339906518241,-2.17064269888474e-05,6.815078282757306e-05,3.085071925214592e-07,7.571543634931859e-05,7.628938478117811e-05
36.51415608175,39.73584391825,2,0,-1.678259996330701,20.948638815309,0.06299423321241533,-2.212934304050544e-05,6.837825220605337e-05,5.039538656993227e-07,7.551516105500932e-05,7.58971808987641e-05
37.23584391825,39.73584391825,2,0,-1.697215777870664,20.87281568914915,0.01012972675510336,-2.212934304050544e-05,6.815078282757382e-05,8.103781404082688e-08,7.51687480184419e-05,7.555484528110691e-05
35.26415608175002,36.51415608175,2,0,-0.9320599824049713,21.12343897325949,0.01226304057032215,-1.98813431223035e-05,6.834065270035434e-05,9.810432456257723e-08,7.838096034194711e-05,8.231674963345521e-05
35.98584391825,36.51415608175,2,0,-0.9432518467379341,21.07867151592764,-0.05978389343840875,-1.98813431223035e-05,6.820635032835879e-05,-4.7827114750727e-07,7.817591943287951e-05,8.207058695210861e-05
35.26415608175001,37.23584391825,2,0,-1.124185139761845,21.07540768392,-0.004524755928931538,-2.04577185943739e-05,6.834065270035347e-05,-3.61980474314523e-08,7.762766396348592e-05,8.015423071511003e-05
35.98584391825,37.23584391825,2,0,-1.135377004094745,21.0306402265884,-0.07657168993768955,-2.04577185943739e-05,6.820635032835868e-05,-6.125735195015164e-07,7.742289701534767e-05,7.990349924618246e-05
35.26415608175002,35.26415608175,2,0,-0.5902053850115161,21.12840289041086,-0.01721984237121918,-1.879137954436554e-05,6.808305355732397e-05,-1.377587389697534e-07,7.941821641705712e-05,8.942318639201063e-05
35.98584391825,35.26415608175,2,0,-0.5996169281053332,21.0907567180356,-0.09765351426942898,-1.879137954436554e-05,6.797011504019817e-05,-7.812281141554318e-07,7.924579689360661e-05,8.917438393640263e-05
35.26415608175002,35.98584391825,2,0,-0.8046951767401129,21.07478044247858,-0.03133715701194488,-1.943484891955122e-05,6.808305355732354e-05,-2.506972560955591e-07,7.85724937324292e-05,8.48003588216833e-05
35.98584391825,35.98584391825,2,0,-0.8141067198338483,21.03713427010364,-0.1117708289101005,-1.943484891955122e-05,6.797011504019871e-05,-8.941666312808037e-07,7.840031918282325e-05,8.455471301789785e-05
36.51415608175,35.26415608175,2,0,-0.6272608549107144,21.05461797588791,-0.008154134308226016,-1.885092911642462e-05,6.787658620676989e-05,-6.523307446580813e-08,7.902396827495211e-05,8.896579752052485e-05
37.23584391825,35.26415608175,2,0,-0.6391431055594827,21.00708897329284,-0.08765717388692439,-1.885092911642462e-05,6.773399919898467e-05,-7.012573910953951e-07,7.880616279630629e-05,8.864473129016178e-05
36.51415608175,35.98584391825,2,0,-0.8392689604538131,21.00161594950214,-0.02597751028139217,-1.948695343305391e-05,6.787658620676989e-05,-2.078200822511374e-07,7.818856755678426e-05,8.435004836954962e-05
37.23584391825,35.98584391825,2,0,-0.851151211102545,20.95408694690721,-0.1054805498600228,-1.948695343305391e-05,6.77339991989851e-05,-8.438443988801822e-07,7.797106971426428e-05,8.403653995551076e-05
36.51415608175,36.51415608175,2,0,-0.9675547337475408,21.03782577182209,0.02936915553563072,-1.99264357654498e-05,6.809508625682872e-05,2.349532442850457e-07,7.794683903887192e-05,8.186620407413466e-05
37.23584391825,36.51415608175,2,0,-0.9816944607886704,20.98126686365757,-0.04121381253390291,-1.99264357654498e-05,6.792540953233517e-05,-3.297105002712233e-07,7.768769951254398e-05,8.155398234863557e-05
36.51415608175,37.23584391825,2,0,-1.155775981933001,20.99077045977573,0.008159564973881685,-2.049109951000618e-05,6.809508625682872e-05,6.527651979105348e-08,7.720931012956203e-05,7.969596441165756e-05
37.23584391825,37.23584391825,2,0,-1.169915708974131,20.93421155161121,-0.06242340309567905,-2.049109951000618e-05,6.792540953233517e-05,-4.993872247654324e-07,7.695051239819604e-05,7.937970016829861e-05
35.26415608175002,34.01415608175,2,0.04839765966124354,-0.07236149893276167,20.60123520760438,-0.04626266140704568,-1.756253032828704e-05,6.93376204182008e-05,-3.889243180345845e-07,8.296448244221319e-05,0.000104882912884232
35.98584391825,34.01415608175,2,0.04612636961127425,-0.08620398154984876,20.59572727761969,-0.1330757781559184,-1.756253032828704e-05,6.916565084909244e-05,-1.116087279625809e-06,8.270153771303661e-05,0.0001046431102522293
35.26415608175002,34.73584391825,2,0,-0.3184293951093125,21.58839903191042,-0.07011173589290855,-1.828969328987814e-05,6.93376204182008e-05,-5.608938871432684e-07,8.200091984361329e-05,9.480429053485744e-05
35.98584391825,34.73584391825,2,0,-0.3327601925350363,21.53107584220753,-0.1610071060917438,-1.828969328987814e-05,6.916565084909212e-05,-1.28805684873395e-06,8.173835343472584e-05,9.45570537524098e-05
35.26415608175002,32.76415608175,2,0.2573783039313112,1.137087359965272,19.51774729298527,-0.0801426645084909,-1.612600109301367e-05,8.287816229366916e-05,-8.633484847830582e-07,0.0001056908225532398,0.0001329144195239442
35.98584391825,32.76415608175,2,0.256553091850952,1.124570272346074,19.48431315614578,-0.1598520644067441,-1.612600109301367e-05,8.265572861790684e-05,-1.720118143254921e-06,0.000105349644993606,0.0001327742554705047
35.26415608175002,33.48584391825,2,0.1363265258424097,1.075782991411683,22.63759273534373,-0.1172201563470467,-1.698277075148574e-05,8.287816229367003e-05,-1.085782160545161e-06,0.0001045334872538099,0.0001150944911699859
35.98584391825,33.48584391825,2,0.1346670828211993,1.061810045152037,22.61692837581061,-0.2101192540401351,-1.698277075148574e-05,8.265572861790652e-05,-1.942551819017133e-06,0.0001041926875301825,0.0001148833785892514
36.51415608175,32.76415608175,2,0.2558074687360814,1.101995491220213,19.45397714987927,-0.09046637414582211,-1.61743038828349e-05,8.246673798567453e-05,-9.725050477695733e-07,0.0001049926067432989,0.0001326478640949334
37.23584391825,32.76415608175,2,0.2545942275996271,1.08553592465359,19.41266804714298,-0.1713702992834446,-1.61743038828349e-05,8.217283965200487e-05,-1.839216229641946e-06,0.0001045416317093075,0.0001324427204886591
36.51415608175,33.48584391825,2,0.1332267392925127,1.033098217512109,22.59576311180088,-0.1372105735376697,-1.704101506470753e-05,8.246673798567453e-05,-1.266403381439563e-06,0.0001038225271834208,0.0001147007670771979
37.23584391825,33.48584391825,2,0.1309474504730026,1.014530453949959,22.5700438014399,-0.2317235812099846,-1.704101506470753e-05,8.217283965200454e-05,-2.133114563312478e-06,0.0001033720621701376,0.000114412975728934
36.51415608175,34.01415608175,2,0.04417993044134605,-0.117591781108195,20.58694188287727,-0.04608997050942248,-1.762449622304597e-05,6.902165956878918e-05,-3.857627348687444e-07,8.239796461160262e-05,0.0001044384768918818
37.23584391825,34.01415608175,2,0.04112783019863775,-0.1356602156170412,20.58190780634185,-0.1334212759823793,-1.762449622304597e-05,6.880023764424602e-05,-1.113151722903949e-06,8.205927945626249e-05,0.0001041192107864681
36.51415608175,34.73584391825,2,0,-0.3654901062945832,21.47789608867298,-0.0758980824266107,-1.835188521108105e-05,6.902165956878918e-05,-6.071846594128856e-07,8.143485911824967e-05,9.434847572012657e-05
37.23584391825,34.73584391825,2,0,-0.3839419333399103,21.40408878049167,-0.1668217059310655,-1.835188521108105e-05,6.880023764424526e-05,-1.334573647448524e-06,8.109666663473926e-05,9.402586672100938e-05
35.26415608175002,31.51415608175,2,0.4418045423860028,2.31376217944483,19.32327885980382,-0.1120973272666062,-1.442968408959984e-05,0.0001074596394320644,-1.606567387642537e-06,0.0001458802477136511,0.0001739774328593444
35.98584391825,31.51415608175,2,0.4421977125761974,2.307130541858562,19.2896606574113,-0.1825956641192117,-1.442968408959984e-05,0.0001073520331850723,-2.618786881818298e-06,0.0001457157623051796,0.0001740921550578691
35.26415608175002,32.23584391825,2,0.3403114233381394,2.511875583417685,22.78106157883431,-0.1413525956478655,-1.544190358377597e-05,0.0001074596394320649,-1.714173634633897e-06,0.0001444898229388373,0.0001486920561970856
35.98584391825,32.23584391825,2,0.3400630240844299,2.506903627059777,22.76596845006026,-0.2249059545730259,-1.544190358377597e-05,0.000107352033185073,-2.726393128810525e-06,0.0001443254737730246,0.0001486391993096119
35.26415608175001,30.26415608175,2,0.5781389419362424,3.1926132925057,19.36509705974298,-0.1300775525841413,-1.250581206995124e-05,0.000140838360928288,-2.466737331597592e-06,0.0002000516889872329,0.0002255505133192612
35.98584391825,30.26415608175,2,0.5792134492798717,3.188800663580676,19.33304956040887,-0.1895583449561528,-1.250581206995124e-05,0.0001409615349181989,-3.603886001237355e-06,0.000200243579579552,0.0002260791629089148
35.26415608175002,30.98584391825,2,0.5049384513221533,3.558936332102992,22.67837691877826,-0.1450260121700928,-1.36429607395911e-05,0.0001408383609282885,-2.343563341688105e-06,0.0001984723538700706,0.0001945715943760925
35.98584391825,30.98584391825,2,0.505678779651358,3.558688162927359,22.66475890416354,-0.2150737261402076,-1.36429607395911e-05,0.0001409615349181982,-3.480712011327651e-06,0.0001986641579295964,0.0001948421307655521
36.51415608175,30.26415608175,2,0.5800689728015489,3.194420383399847,19.30902698186176,-0.156315011722471,-1.244270134900184e-05,0.0001410549499769286,-2.977917831227072e-06,0.0002004744914590752,0.0002265018560474671
37.23584391825,30.26415608175,2,0.5813304546631164,3.189431060552699,19.26944938789733,-0.2177581096479098,-1.244270134900184e-05,0.0001411869906736725,-4.160954376993247e-06,0.0002006804542542058,0.0002271280255883981
36.51415608175,30.98584391825,2,0.5062502757940267,3.56125211153473,22.65463885569488,-0.1756438812843907,-1.362573789476839e-05,0.0001410549499769286,-2.845877134483119e-06,0.0001988312377065613,0.0001950514877427702
37.23584391825,30.98584391825,2,0.5070709729498397,3.560756587639871,22.63867850469533,-0.2482460625593157,-1.362573789476839e-05,0.000141186990673672,-4.028913680249619e-06,0.0001990371062614193,0.000195352925252014
36.51415608175,31.51415608175,2,0.4424755766667174,2.299817744460783,19.26174088023509,-0.1323747760956358,-1.443878615000399e-05,0.000107255779511272,-1.899465143488481e-06,0.0001455536895525011,0.0001741733238572314
37.23584391825,31.51415608175,2,0.4428415919024058,2.291094397183911,19.22024147148291,-0.2045967674410426,-1.443878615000399e-05,0.0001071004158310141,-2.93771774012542e-06,0.000145315815701923,0.0001742803589425633
36.51415608175,32.23584391825,2,0.3398010173239167,2.494871298165799,22.75189173687649,-0.1695744873763785,-1.547703874664088e-05,0.000107255779511272,-2.054828823746645e-06,0.0001441277622382348,0.0001485834876554615
37.23584391825,32.23584391825,2,0.3393332938602558,2.488085176259287,22.73379596696268,-0.2554369892283491,-1.547703874664088e-05,0.0001071004158310143,-3.093081420383476e-06,0.0001438900878291883,0.0001484841374732163
35.26415608175,29.01415608175,2,0.6710777572011299,3.808779519350639,19.54244423314152,-0.1369098683417971,-1.047621740405755e-05,0.0001808597601195023,-3.329902342311705e-06,0.0002646855286134478,0.0002828006259091587
35.98584391825,29.01415608175,2,0.6724363326286296,3.805786441732125,19.51268100824459,-0.1847037627800935,-1.047621740405755e-05,0.0001813264289951233,-4.510970688838658e-06,0.0002654080525520261,0.0002838550833380055
35.26415608175,29.73584391825,2,0.6217171020721992,4.231428902809798,22.43790540586877,-0.1353890316529436,-1.165728575058477e-05,0.0001808597601195023,-2.863233466690509e-06,0.000263033857102672,0.0002491914110667906
35.98584391825,29.73584391825,2,0.6229454120594671,4.232352472226465,22.42370123289559,-0.1906153192112376,-1.165728575058477e-05,0.0001813264289951238,-4.04430181321757e-06,0.0002637561297882649,0.0002499301116658712
35.26415608175,27.76415608175,2,0.7312677760690723,4.233695426425851,19.80754109466142,-0.1355251347779263,-8.552035470659164e-06,0.0002232600701328508,-4.034503426362753e-06,0.0003328768916282857,0.0003385855146646992
35.98584391825,27.76415608175,2,0.7326914399171893,4.230785354215301,19.78068177615998,-0.1712992127408322,-8.552035470659164e-06,0.0002241363066778663,-5.126636054984986e-06,0.0003342319688747221,0.0003401748441358912
35.26415608175,28.48584391825,2,0.6996223160715471,4.622897605991257,22.11270652031334,-0.1185841113809157,-9.644168099280844e-06,0.0002232600701328508,-3.158266881348251e-06,0.0003313430345831777,0.000306753703775577
35.98584391825,28.48584391825,2,0.7010245502400858,4.623147926364187,22.09680357426013,-0.1588456381440647,-9.644168099280844e-06,0.000224136306677866,-4.250399509969725e-06,0.0003326977854664316,0.0003080360865237575
36.51415608175,27.76415608175,2,0.7338528975298053,4.253198419633688,19.7648345144094,-0.1645437433231098,-8.272239856326346e-06,0.0002248565216564965,-4.945948816903966e-06,0.000335737207012494,0.0003414826399687752
37.23584391825,27.76415608175,2,0.7355975514567634,4.249365756156764,19.7314636158141,-0.2017629684661761,-8.272239856326346e-06,0.0002259479490255571,-6.104723146939622e-06,0.0003374251156932014,0.000343466275159101
36.51415608175,28.48584391825,2,0.7021645183980935,4.64455731751116,22.0893425852816,-0.1435016564704316,-9.431014186362078e-06,0.0002248565216564965,-3.854521447843855e-06,0.0003341089003204411,0.0003090866014321641
37.23584391825,28.48584391825,2,0.7038726608323138,4.644853365724487,22.07038988372308,-0.1855717423955069,-9.431014186362078e-06,0.0002259479490255572,-5.013295777879512e-06,0.0003357963860880715,0.0003106742787879811
36.51415608175,29.01415608175,2,0.6735369649986997,3.821327822715521,19.49279125276794,-0.1658184248144419,-1.03104597110398e-05,0.0001817047058649342,-4.063392348570955e-06,0.0002662234807451539,0.0002847151548994089
37.23584391825,29.01415608175,2,0.6751819974287465,3.817414636575091,19.45593720746453,-0.2154886428550995,-1.03104597110398e-05,0.0001822715086170106,-5.307307874546246e-06,0.0002671011090793496,0.0002860104566745613
36.51415608175,29.73584391825,2,0.6239328713344925,4.246023677000355,22.41562060663647,-0.1643690512094384,-1.155437523701491e-05,0.0001817047058649342,-3.496589596494858e-06,0.0002644833360155719,0.0002505271632517536
37.23584391825,29.73584391825,2,0.6254001444221461,4.247150968631452,22.39893799337346,-0.2219740667804345,-1.155437523701491e-05,0.000182271508617011,-4.740505122470366e-06,0.0002653606472064279,0.0002514196379201128
37.76415608175,49.01415608175001,2,0,-2.482854140506769,20.56273353432782,0.04759847575171194,-2.439532007708392e-05,6.778703062225444e-05,3.807878060136955e-07,7.171494522145414e-05,7.157747171465136e-05
38.48584391825,49.01415608175001,2,0,-2.520854462729985,20.41073224543496,0.04555619993831014,-2.439532007708392e-05,6.733102675557585e-05,3.644495995064811e-07,7.102425819198476e-05,7.111163415486911e-05
37.76415608175,49.73584391825,2,0,-2.48830020934246,20.5613720171189,-0.009402007583071692,-2.441165828359099e-05,6.778703062225444e-05,-7.521606066457354e-08,7.169410804297517e-05,7.154891621705641e-05
38.48584391825,49.73584391825,2,0,-2.526300531565614,20.40937072822629,-0.01144428339643283,-2.441165828359099e-05,6.733102675557661e-05,-9.155426717146267e-08,7.100345520726009e-05,7.108279661006621e-05
37.76415608175,47.76415608175001,2,0,-2.456980569832987,20.57392206935321,0.08428694789390728,-2.432147547894812e-05,6.780213507779666e-05,6.742955831512583e-07,7.183182730842694e-05,7.170514666762824e-05
38.48584391825,47.76415608175001,2,0,-2.494537513228292,20.42369429577199,0.07807692433618556,-2.432147547894812e-05,6.735145175705299e-05,6.246153946894845e-07,7.114904469663675e-05,7.124061409106828e-05
37.76415608175,48.48584391825001,2,0,-2.473540632653434,20.5697820536481,0.02795153280094878,-2.437115566740946e-05,6.780213507779666e-05,2.236122624075902e-07,7.176845124970903e-05,7.161933353771393e-05
38.48584391825,48.48584391825001,2,0,-2.511097576048677,20.41955428006713,0.02174150924328126,-2.437115566740946e-05,6.735145175705375e-05,1.739320739462501e-07,7.108577105936508e-05,7.115392122145382e-05
39.01415608175,47.76415608175001,2,0,-2.415860505385442,20.33062070558141,0.1066953900543928,-2.399525018169854e-05,6.699067466216886e-05,8.535631204351427e-07,7.101698698049062e-05,7.087291565347864e-05
39.73584391825,47.76415608175001,2,0,-2.460442008112875,20.15229469467168,0.1015996726142231,-2.399525018169854e-05,6.645569662943967e-05,8.127973809137845e-07,7.020647143920531e-05,7.033287741663732e-05
39.01415608175,48.48584391825001,2,0,-2.429449085225893,20.3272235606213,0.03982313596310842,-2.403601592121989e-05,6.699067466216886e-05,3.185850877048674e-07,7.096476727579557e-05,7.078566451126831e-05
39.73584391825,48.48584391825001,2,0,-2.474030587953344,20.1488975497115,0.03472741852297932,-2.403601592121989e-05,6.645569662943945e-05,2.778193481838345e-07,7.015435050957515e-05,7.024498078503068e-05
39.01415608175,49.01415608175001,2,0,-2.438093222163065,20.31740300066513,0.0586807306387333,-2.405582071145391e-05,6.696616417985884e-05,4.694458451098664e-07,7.090255294685369e-05,7.074310841562905e-05
39.73584391825,49.01415608175001,2,0,-2.483161491163403,20.13712992466377,0.05701298643458966,-2.405582071145391e-05,6.642534495185479e-05,4.561038914767173e-07,7.008335117365266e-05,7.020211493186778e-05
39.01415608175,49.73584391825,2,0,-2.442540540040775,20.31629117119597,-0.008921672861855051,-2.406916266508725e-05,6.696616417985971e-05,-7.137338289484041e-08,7.088546226829124e-05,7.071409414237624e-05
39.73584391825,49.73584391825,2,0,-2.487608809041195,20.13601809519429,-0.01058941706603934,-2.406916266508725e-05,6.642534495185468e-05,-8.471533652831473e-08,7.006629323987444e-05,7.01728998747186e-05
37.76415608175,46.51415608175,2,0,-2.409847168606018,20.59457975580138,0.1171608575203096,-2.418717474418036e-05,6.783053295344923e-05,9.372868601624767e-07,7.20458602152736e-05,7.193269408612144e-05
38.48584391825,46.51415608175,2,0,-2.446520861227525,20.44788498531535,0.1065354581494609,-2.418717474418036e-05,6.739044864199114e-05,8.522836651956873e-07,7.137886449727838e-05,7.147063741997625e-05
37.76415608175,47.23584391825001,2,0,-2.438181566928468,20.58749615622077,0.06215031858814368,-2.427217793914771e-05,6.783053295344923e-05,4.972025487051494e-07,7.193736593297926e-05,7.17891113735112e-05
38.48584391825,47.23584391825001,2,0,-2.474855259549993,20.44080138573467,0.0515249192172408,-2.427217793914771e-05,6.739044864199093e-05,4.121993537379263e-07,7.127054017360177e-05,7.132547794068957e-05
37.76415608175,45.26415608175001,2,0,-2.340033860271949,20.6239370643454,0.1440451071783454,-2.398725800434655e-05,6.786862569412282e-05,1.152360857426763e-06,7.235835744069256e-05,7.226189255657608e-05
38.48584391825,45.26415608175001,2,0,-2.375392661049359,20.48250186123576,0.128598523003548,-2.398725800434655e-05,6.74443200847939e-05,1.028788184028384e-06,7.171489752896568e-05,7.180373761425646e-05
37.76415608175,45.98584391825,2,0,-2.381224751404855,20.61363934156217,0.09100690601218957,-2.411083067774527e-05,6.786862569412282e-05,7.280552480975165e-07,7.220049733635213e-05,7.205937542231636e-05
38.48584391825,45.98584391825,2,0,-2.416583552182328,20.47220413845228,0.07556032183736504,-2.411083067774527e-05,6.744432008479314e-05,6.044825746989203e-07,7.155727310271643e-05,7.159878671327688e-05
39.01415608175,45.26415608175001,2,0,-2.3135897853293,20.39156323343011,0.1867474008068135,-2.371673789979785e-05,6.710387417523979e-05,1.493979206454508e-06,7.154393016182979e-05,7.144023120748443e-05
39.73584391825,45.26415608175001,2,0,-2.355740611399224,20.22295992915042,0.1737853817898626,-2.371673789979785e-05,6.65980642624007e-05,1.390283054318901e-06,7.077691241130779e-05,7.09052681775838e-05
39.01415608175,45.98584391825,2,0,-2.348155169374391,20.38292188741897,0.1235211617018868,-2.382043405193323e-05,6.710387417524022e-05,9.881692936150946e-07,7.141105679781313e-05,7.123365820978625e-05
39.73584391825,45.98584391825,2,0,-2.390305995444388,20.21431858313899,0.1105591426849495,-2.382043405193323e-05,6.659806426240027e-05,8.844731414795956e-07,7.064427383073051e-05,7.069669729595533e-05
39.01415608175,46.51415608175,2,0,-2.374900628922746,20.35559536777619,0.1502478572644337,-2.388415830677374e-05,6.703782568002201e-05,1.201982858115469e-06,7.123016794336528e-05,7.110454074905507e-05
39.73584391825,46.51415608175,2,0,-2.418508923639037,20.18116218891103,0.1414476385430924,-2.388415830677374e-05,6.651452614342651e-05,1.131581108344739e-06,7.043705641284694e-05,7.056640270971929e-05
39.01415608175,47.23584391825001,2,0,-2.398367878846264,20.34972855529545,0.08483541518979282,-2.39545600565444e-05,6.703782568002244e-05,6.786833215183426e-07,7.113997961713494e-05,7.095835828387642e-05
39.73584391825,47.23584391825001,2,0,-2.44197617356261,20.17529537643006,0.07603519646851931,-2.39545600565444e-05,6.651452614342629e-05,6.082815717481545e-07,7.034703422431567e-05,7.04190021617846e-05
37.76415608175,44.01415608175001,2,0,-2.24557666443159,20.66081898733738,0.1629918993730108,-2.371450051605099e-05,6.791108209102488e-05,1.303935194984086e-06,7.277078072778949e-05,7.269672020406873e-05
38.48584391825,44.01415608175001,2,0,-2.279204221903727,20.52630875744883,0.1421717566809396,-2.371450051605099e-05,6.750755140135921e-05,1.137374053447517e-06,7.215835351592255e-05,7.224423697559291e-05
37.76415608175,44.73584391825,2,0,-2.301097044943867,20.64693889220931,0.1125505631648571,-2.388106165758782e-05,6.791108209102488e-05,9.004045053188567e-07,7.25577292904513e-05,7.243266857614151e-05
38.48584391825,44.73584391825,2,0,-2.33472460241596,20.51242866232094,0.0917304204727182,-2.388106165758782e-05,6.750755140135976e-05,7.338433637817457e-07,7.194559966300543e-05,7.197668549079312e-05
37.76415608175,42.76415608175,2,0,-2.124038680033983,20.70365892289384,0.1723893701053154,-2.335985091442382e-05,6.795093949728747e-05,1.379114960842523e-06,7.328464676956676e-05,7.32463968927793e-05
38.48584391825,42.76415608175,2,0,-2.155544293385743,20.5776364694868,0.1455154196160105,-2.335985091442382e-05,6.757287213706635e-05,1.164123356928084e-06,7.271031980926037e-05,7.280175009181361e-05
37.76415608175,43.48584391825001,2,0,-2.195702548005423,20.68574295590098,0.1251309500777294,-2.357484251833814e-05,6.795093949728747e-05,1.001047600621835e-06,7.300915340612688e-05,7.291475804936338e-05
38.48584391825,43.48584391825001,2,0,-2.227208161357184,20.55972050249394,0.09825699958846508,-2.357484251833814e-05,6.757287213706635e-05,7.860559967077206e-07,7.243517918448205e-05,7.246531236913297e-05
39.01415608175,42.76415608175,2,0,-2.120204135593742,20.49131603351626,0.2294672809497611,-2.317770606071297e-05,6.7268374615727e-05,1.835738247598089e-06,7.248232699193823e-05,7.244759904371924e-05
39.73584391825,42.76415608175,2,0,-2.158023747168365,20.34003758721776,0.2061278471666414,-2.317770606071297e-05,6.681453927683152e-05,1.649022777333131e-06,7.179300046730928e-05,7.192468718769622e-05
39.01415608175,43.48584391825001,2,0,-2.182442625682188,20.47575641099387,0.1727378635878814,-2.336442153097809e-05,6.726837461572613e-05,1.381902908703051e-06,7.224268052807209e-05,7.210778789946645e-05
39.73584391825,43.48584391825001,2,0,-2.220262237256684,20.32447796469589,0.1493984298047888,-2.336442153097809e-05,6.681453927683218e-05,1.19518743843831e-06,7.155372297854021e-05,7.158045856357729e-05
39.01415608175,44.01415608175001,2,0,-2.229650659164625,20.43733977387139,0.2138286153676789,-2.348475392842391e-05,6.718320780372015e-05,1.710628922941431e-06,7.196048467883755e-05,7.18846000205642e-05
39.73584391825,44.01415608175001,2,0,-2.269866700684031,20.27647560779377,0.196073771196789,-2.348475392842391e-05,6.670061530548727e-05,1.568590169574312e-06,7.122814554502113e-05,7.135453681558049e-05
39.01415608175,44.73584391825,2,0,-2.276996910286946,20.42550321109108,0.1535045530885152,-2.362679268179109e-05,6.718320780372102e-05,1.228036424708121e-06,7.177837410482508e-05,7.161465053999661e-05
39.73584391825,44.73584391825,2,0,-2.31721295180647,20.26463904501299,0.1357497089176252,-2.362679268179109e-05,6.670061530548673e-05,1.085997671341002e-06,7.104633833731865e-05,7.108153574561116e-05
37.76415608175,41.51415608175001,2,0,-1.972616346490753,20.75052498018731,0.1710861981828914,-2.291279229292026e-05,6.7979773013792e-05,1.368689585463131e-06,7.390138882119564e-05,7.393312360290941e-05
38.48584391825,41.51415608175001,2,0,-2.001649565638279,20.63439210359721,0.1373783484004767,-2.291279229292026e-05,6.763137438402169e-05,1.099026787203814e-06,7.337154587916653e-05,7.349883531164039e-05
37.76415608175,42.23584391825,2,0,-2.062503945910604,20.72805308033235,0.1275363694615891,-2.318245509117981e-05,6.7979773013792e-05,1.020290955692713e-06,7.3555019129995e-05,7.351926712044314e-05
38.48584391825,42.23584391825,2,0,-2.091537165058212,20.61192020374192,0.09382851967918793,-2.318245509117981e-05,6.763137438402071e-05,7.506281574335034e-07,7.302557365131658e-05,7.307868172960889e-05
37.76415608175,40.26415608175,2,0,-1.788294672847258,20.79916545407702,0.1585357254093949,-2.236187531637284e-05,6.798796519132426e-05,1.268285803275159e-06,7.462215040639087e-05,7.481162753282513e-05
38.48584391825,40.26415608175,2,0,-1.814565695722563,20.69408136257579,0.1171553143381853,-2.236187531637284e-05,6.767271291682059e-05,9.372425147054827e-07,7.414212911909538e-05,7.439033263608277e-05
37.76415608175,40.98584391825,2,0,-1.898642435703735,20.7715785133629,0.1191291910964906,-2.269291860494227e-05,6.798796519132426e-05,9.530335287719245e-07,7.419566089658909e-05,7.427941053172636e-05
38.48584391825,40.98584391825,2,0,-1.924913458579022,20.66649442186175,0.07774878002530811,-2.269291860494227e-05,6.76727129168208e-05,6.219902402024649e-07,7.371606750055908e-05,7.385029111277068e-05
39.01415608175,40.26415608175,2,0,-1.810811742244702,20.61534484062692,0.220871747915751,-2.228687344768458e-05,6.741775288380191e-05,1.766973983326008e-06,7.38523546153974e-05,7.405307509065539e-05
39.73584391825,40.26415608175,2,0,-1.842587699714286,20.48824101074859,0.1834632963084977,-2.228687344768458e-05,6.70364413941669e-05,1.467706370467982e-06,7.327182741954093e-05,7.355296523801501e-05
39.01415608175,40.98584391825,2,0,-1.910567613197371,20.59040587288862,0.1732078117114288,-2.258614106054248e-05,6.741775288380148e-05,1.385662493691431e-06,7.346668313714515e-05,7.350730914871299e-05
39.73584391825,40.98584391825,2,0,-1.942343570666946,20.46330204301032,0.135799360104162,-2.258614106054248e-05,6.703644139416658e-05,1.086394880833296e-06,7.288662836804693e-05,7.299938441574343e-05
39.01415608175,41.51415608175001,2,0,-1.981853803704581,20.55146238657101,0.232117297485168,-2.278310208111146e-05,6.735016267999088e-05,1.856938379881344e-06,7.311209364915824e-05,7.315210148015016e-05
39.73584391825,41.51415608175001,2,0,-2.01684430648445,20.41150037545153,0.2022623096764169,-2.278310208111146e-05,6.693027664663245e-05,1.618098477411335e-06,7.247363610669248e-05,7.263909532704456e-05
39.01415608175,42.23584391825,2,0,-2.061467104527924,20.53155906136517,0.1796315433154187,-2.302194198358149e-05,6.735016267999088e-05,1.437052346523349e-06,7.280503152538243e-05,7.272742202429959e-05
39.73584391825,42.23584391825,2,0,-2.096457607307784,20.39159705024573,0.149776555506654,-2.302194198358149e-05,6.693027664663256e-05,1.198212444053232e-06,7.21670011499851e-05,7.220834805353635e-05
37.76415608175,39.01415608175,2,0,-1.568073542628802,20.8470880413033,0.1349674684850946,-2.169550576945481e-05,6.796514056627359e-05,1.079739747880757e-06,7.544748915538725e-05,7.601834964509383e-05
38.48584391825,39.01415608175,2,0,-1.591383101915889,20.75384980415495,0.08507827059302003,-2.169550576945481e-05,6.768542585482856e-05,6.806261647441603e-07,7.502103959153351e-05,7.561204666806693e-05
37.76415608175,39.73584391825,2,0,-1.701111403674488,20.81382857604188,0.1000031295545064,-2.209461935259186e-05,6.796514056627359e-05,8.000250364360514e-07,7.493141100911213e-05,7.527757486392434e-05
38.48584391825,39.73584391825,2,0,-1.724420962961529,20.72059033889371,0.05011393166241829,-2.209461935259186e-05,6.76854258548291e-05,4.009114532993463e-07,7.450540236079954e-05,7.486239361437075e-05
37.76415608175,37.76415608175,2,0,-1.309402555329225,20.89171258665765,0.1015968286029146,-2.090345824637963e-05,6.790100232156784e-05,8.127746288233168e-07,7.637671983088731e-05,7.789501384048762e-05
38.48584391825,37.76415608175,2,0,-1.329693298267746,20.81054961490356,0.04248722027535244,-2.090345824637963e-05,6.765751340630558e-05,3.398977622028196e-07,7.600505920046162e-05,7.750313168311937e-05
37.76415608175,38.48584391825,2,0,-1.467028177535952,20.85230618110596,0.07116071419513252,-2.137633511299982e-05,6.790100232156784e-05,5.692857135610602e-07,7.576259644152931e-05,7.671969030507988e-05
38.48584391825,38.48584391825,2,0,-1.487318920474437,20.77114320935202,0.01205110586755681,-2.137633511299982e-05,6.765751340630601e-05,9.640884694045448e-08,7.539137127914171e-05,7.631963030098823e-05
39.01415608175,37.76415608175,2,0,-1.354699584113649,20.74278157461312,0.1575144924799291,-2.092926392885417e-05,6.746066070605289e-05,1.260115939839433e-06,7.567231631287093e-05,7.718751824115949e-05
39.73584391825,37.76415608175,2,0,-1.379226472735284,20.64467402012658,0.1017083118873242,-2.092926392885417e-05,6.716633804259328e-05,8.136664950985934e-07,7.522301640874605e-05,7.671712843950498e-05
39.01415608175,38.48584391825,2,0,-1.503516065693767,20.70557745421822,0.1207241595474777,-2.137571337359463e-05,6.746066070605333e-05,9.657932763798213e-07,7.509284438495813e-05,7.599803561116116e-05
39.73584391825,38.48584391825,2,0,-1.528042954315419,20.60746989973162,0.06491797895492694,-2.137571337359463e-05,6.71663380425935e-05,5.193438316394156e-07,7.464404771244265e-05,7.551948258316355e-05
39.01415608175,39.01415608175,2,0,-1.603084267226571,20.68015615202175,0.1956565607260145,-2.167399457674242e-05,6.745896710025085e-05,1.565252485808116e-06,7.470528337661162e-05,7.528585817517729e-05
39.73584391825,39.01415608175,2,0,-1.631332776552362,20.56716211471859,0.1495978160714819,-2.167399457674242e-05,6.711998498834136e-05,1.196782528571855e-06,7.418850379416726e-05,7.480099761674747e-05
39.01415608175,39.73584391825,2,0,-1.725907586305482,20.64945032225189,0.153283796737382,-2.204246453397905e-05,6.745896710025042e-05,1.226270373899056e-06,7.422892247238802e-05,7.452963586598083e-05
39.73584391825,39.73584391825,2,0,-1.754156095631282,20.53645628494869,0.1072250520828223,-2.204246453397905e-05,6.711998498834082e-05,8.578004166625783e-07,7.371264199953478e-05,7.403570604028227e-05
37.76415608175,36.51415608175,2,0,-1.011017960102903,20.9306738644349,0.06066231726453231,-1.997979656387721e-05,6.778697073427402e-05,4.852985381162585e-07,7.740657294171849e-05,8.129871882338205e-05
38.48584391825,36.51415608175,2,0,-1.028396718899713,20.86115882924766,-0.008020220995197478,-1.997979656387721e-05,6.757842562871228e-05,-6.416176796157982e-08,7.70879561377124e-05,8.091354762853974e-05
37.76415608175,37.23584391825,2,0,-1.194171395462153,20.88488550559509,0.03459417906922103,-2.052925686995496e-05,6.778697073427402e-05,2.767534325537682e-07,7.668942153289129e-05,7.912196083404758e-05
38.48584391825,37.23584391825,2,0,-1.211550154258999,20.81537047040771,-0.03408835919050876,-2.052925686995496e-05,6.757842562871185e-05,-2.727068735240701e-07,7.637121759301093e-05,7.873406812109384e-05
37.76415608175,35.26415608175,2,0,-0.6732829589363103,20.96219803435711,0.01483294170069637,-1.892426389608188e-05,6.761766007709179e-05,1.186635336055709e-07,7.853147889505822e-05,8.837948223063818e-05
38.48584391825,35.26415608175,2,0,-0.6878877409488702,20.90377890630687,-0.06335157037451347,-1.892426389608188e-05,6.744240269294108e-05,-5.068125629961078e-07,7.826360384728929e-05,8.797587455369206e-05
37.76415608175,35.98584391825,2,0,-0.8817749911369139,20.91007502630696,-0.007074231318088525,-1.954973999268369e-05,6.761766007709179e-05,-5.65938505447082e-08,7.771056663330621e-05,8.377926420543513e-05
38.48584391825,35.98584391825,2,0,-0.8963797731494827,20.85165589825668,-0.08525874339333903,-1.954973999268369e-05,6.744240269294097e-05,-6.820699471467122e-07,7.744306647065531e-05,8.338988219868212e-05
39.01415608175,35.26415608175,2,0,-0.7283681726206988,20.84937509696167,0.05483828062056073,-1.901027822995557e-05,6.730069484837389e-05,4.387062449644858e-07,7.793385319416697e-05,8.764591832465326e-05
39.73584391825,35.26415608175,2,0,-0.7460261432086126,20.77874321461001,-0.02169006091925954,-1.901027822995557e-05,6.708879920131893e-05,-1.735204873540763e-07,7.760977480072181e-05,8.714806881955325e-05
39.01415608175,35.98584391825,2,0,-0.9324437500602096,20.79835620260193,0.02835132473862252,-1.962250496227421e-05,6.730069484837432e-05,2.268105979089802e-07,7.713103845143778e-05,8.307363924784484e-05
39.73584391825,35.98584391825,2,0,-0.9501017206481501,20.72772432025016,-0.04817701680122485,-1.962250496227421e-05,6.708879920131903e-05,-3.854161344097988e-07,7.680740825678062e-05,8.259902944533814e-05
39.01415608175,36.51415608175,2,0,-1.062761140395247,20.8000270316907,0.1091870139918933,-2.004085727461735e-05,6.741029541372642e-05,8.734961119351466e-07,7.67519550834081e-05,8.060185904214425e-05
39.73584391825,36.51415608175,2,0,-1.083660739069183,20.71642863699496,0.04284538392750428,-2.004085727461735e-05,6.715950022963919e-05,3.427630714200342e-07,7.63686592570755e-05,8.013548118277851e-05
39.01415608175,37.23584391825,2,0,-1.239672153900348,20.75579927831429,0.07783761598104383,-2.057159031513254e-05,6.741029541372599e-05,6.227009278483506e-07,7.605979496259158e-05,7.84211090115485e-05
39.73584391825,37.23584391825,2,0,-1.260571752574238,20.67220088361872,0.01149598591662767,-2.057159031513254e-05,6.71595002296393e-05,9.196788733302139e-08,7.56769845182184e-05,7.795398153649651e-05
37.76415608175,34.01415608175,2,0.0385430957327183,-0.1764738991382737,20.57229299942009,-0.03282328131528212,-1.770495463834782e-05,6.861723747018282e-05,-2.731128658568132e-07,8.167148038343936e-05,0.0001038503574697765
38.48584391825,34.01415608175,2,0.0345244430081002,-0.1996221229757582,20.56863768431595,-0.1204567586598782,-1.770495463834782e-05,6.833869362137066e-05,-9.981133777031605e-07,8.124525339538182e-05,0.0001034351026541741
37.76415608175,34.73584391825,2,0,-0.4252152608828368,21.33658289421143,-0.06895708933355414,-1.842995515019422e-05,6.861723747018282e-05,-5.516567146684331e-07,8.071248045450339e-05,9.375751546186081e-05
38.48584391825,34.73584391825,2,0,-0.4484272482838954,21.24373494460719,-0.159582153314334,-1.842995515019422e-05,6.833869362137012e-05,-1.276657226514672e-06,8.028688018643541e-05,9.334697518667779e-05
37.76415608175,32.76415608175,2,0.2535132361706567,1.054305380450502,19.37512424772096,-0.0902532673119099,-1.624452404022451e-05,8.192637331521117e-05,-9.672323388447163e-07,0.0001040664020510255,0.0001322604731298214
38.48584391825,32.76415608175,2,0.251770453289336,1.033106531972485,19.32571720182452,-0.1722871891426185,-1.624452404022451e-05,8.154691309437815e-05,-1.842078435956135e-06,0.0001034838896882613,0.0001319677076921849
37.76415608175,33.48584391825,2,0.1289917675986474,0.9761746929794954,22.5435891758497,-0.1466225382490724,-1.711937013733582e-05,8.192637331521117e-05,-1.346692559677301e-06,0.0001028862438494398,0.0001141671938827951
38.48584391825,33.48584391825,2,0.1259217874581359,0.951975519825023,22.51248764115642,-0.2427248172773054,-1.711937013733582e-05,8.154691309437783e-05,-2.221538656788612e-06,0.0001023044054062695,0.0001137834967398011
39.01415608175,32.76415608175,2,0.2502340336403031,0.9905739543160337,19.28031338250327,-0.07653031960233384,-1.634431889685468e-05,8.123140605629858e-05,-8.165782181222001e-07,0.0001028625002302343,0.0001317106829509942
39.73584391825,32.76415608175,2,0.2477740848886203,0.9635769142785255,19.22258295593752,-0.1592387957169573,-1.634431889685468e-05,8.074888501891542e-05,-1.693520975739097e-06,0.0001021214697101803,0.0001313012437368657
39.01415608175,33.48584391825,2,0.1233082513368344,0.9019959538072495,22.48015630778445,-0.1423636997495608,-1.72212616544713e-05,8.123140605629901e-05,-1.299099255505903e-06,0.0001016806611932231,0.0001134588761932338
39.73584391825,33.48584391825,2,0.1192273844352282,0.8707786649261129,22.44313424812195,-0.2395747769345533,-1.72212616544713e-05,8.074888501891564e-05,-2.176042013122149e-06,0.0001009405059096554,0.0001129556935097873
39.01415608175,34.01415608175,2,0.03114811092030967,-0.2510763794874977,20.55885088632924,-0.002970008235489622,-1.780512100751499e-05,6.811070369334418e-05,-2.452394029647462e-08,8.076271542716919e-05,0.0001030887805912519
39.73584391825,34.01415608175,2,0.02592785645031559,-0.2803798930597177,20.55782091020069,-0.09043220027641954,-1.780512100751499e-05,6.776636747514485e-05,-7.42714599736888e-07,8.023561371530584e-05,0.0001025578659351286
39.01415608175,34.73584391825,2,0,-0.4985452478732082,21.15995859220176,-0.04610751981197524,-1.852331166695567e-05,6.811070369334418e-05,-3.688601584958019e-07,7.981384176066432e-05,9.300895928384706e-05
39.73584391825,34.73584391825,2,0,-0.5272399327231527,21.04517985280198,-0.1358813522420676,-1.852331166695567e-05,6.776636747514485e-05,-1.087050817936541e-06,7.928752174953346e-05,9.249602293869098e-05
37.76415608175,31.51415608175,2,0.4430699405870898,2.278417583176341,19.18557287714835,-0.1448129547261055,-1.44677449158486e-05,0.0001069633397111493,-2.080160009732793e-06,0.0001450631223257159,0.0001743472025420994
38.48584391825,31.51415608175,2,0.4433279400901493,2.267196560507677,19.13602294772535,-0.2189417860493306,-1.44677449158486e-05,0.0001067442044674164,-3.146438297403132e-06,0.0001447271054368897,0.0001744227875668686
37.76415608175,32.23584391825,2,0.338869049707052,2.469723361673188,22.7164228497119,-0.1900169069910122,-1.553402320351915e-05,0.0001069633397111493,-2.299295253466085e-06,0.0001435991103009791,0.0001483856578500781
38.48584391825,32.23584391825,2,0.338067609279426,2.460629499352126,22.69560939317638,-0.2784727675287926,-1.553402320351915e-05,0.0001067442044674164,-3.365573541136424e-06,0.0001432633799900111,0.0001482159566983879
37.76415608175,30.26415608175,2,0.582309185917127,3.193192217475567,19.23960778704392,-0.1769879099712893,-1.238588678343993e-05,0.0001412819941327501,-3.389835811637909e-06,0.0002009046532057522,0.0002276162436650453
38.48584391825,30.26415608175,2,0.5837203883711179,3.186827199323977,19.19229897215801,-0.2408257339842889,-1.238588678343993e-05,0.0001414095077131138,-4.628153332649648e-06,0.0002011039939262047,0.0002283239107147444
37.76415608175,30.98584391825,2,0.5076793271023885,3.560511391358607,22.62639235401214,-0.200763584513718,-1.362420430445164e-05,0.0001412819941327501,-3.262322231274185e-06,0.0001991844742527566,0.0001955769740264039
38.48584391825,30.98584391825,2,0.508520586472158,3.559649846063355,22.60861931092266,-0.2764964732442039,-1.362420430445164e-05,0.0001414095077131134,-4.500639752286033e-06,0.0001993837233738885,0.0001958876491521928
39.01415608175,30.26415608175,2,0.5847897498847593,3.186733875035891,19.15599456654463,-0.1908326752580559,-1.23485565486348e-05,0.0001414940876257468,-3.676839388335731e-06,0.0002012845033021686,0.0002288631055358234
39.73584391825,30.26415608175,2,0.5862991571505909,3.178719534718298,19.10063845405295,-0.2575760253951515,-1.23485565486348e-05,0.0001415976506640044,-4.980913717672294e-06,0.0002014472036668937,0.0002296285461325526
39.01415608175,30.98584391825,2,0.5091138551123944,3.554161486829033,22.59400512139209,-0.2192589815134544,-1.36526308779712e-05,0.0001414940876257459,-3.573276350077575e-06,0.0001994729531110892,0.0001961073376895541
39.73584391825,30.98584391825,2,0.5098936844463342,3.55274503242696,22.57503090122868,-0.2988025463938606,-1.36526308779712e-05,0.0001415976506640043,-4.877350679414246e-06,0.0001996355816942597,0.0001963968628097023
39.01415608175,31.51415608175,2,0.4434369032267469,2.246330486666894,19.0939503680869,-0.1473678155305584,-1.453007356042887e-05,0.0001065531960928864,-2.118254931165109e-06,0.0001443449913664321,0.0001744547297690944
39.73584391825,31.51415608175,2,0.4434767459406965,2.232130946226706,19.03642855937048,-0.2234022492524334,-1.453007356042887e-05,0.0001062504867527119,-3.2113985911342e-06,0.0001438802062849635,0.0001744664124637153
39.01415608175,32.23584391825,2,0.3373032667007272,2.433219575918526,22.67469707315261,-0.2005456392564642,-1.562321722039816e-05,0.0001065531960928877,-2.420964271340666e-06,0.0001428447048108142,0.0001480544726577844
39.73584391825,32.23584391825,2,0.3360145092175572,2.42120194813546,22.65179473465032,-0.291664584929148,-1.562321722039816e-05,0.0001062504867527116,-3.514107931309757e-06,0.000142380324311513,0.0001477829912059155
37.76415608175,29.01415608175,2,0.6764882238103433,3.834276823923396,19.43124481395535,-0.1908327700307403,-1.01242373714683e-05,0.0001827215152466785,-4.719031184048541e-06,0.0002680556426204356,0.0002870474564501033
38.48584391825,29.01415608175,2,0.6784079276857549,3.829282669721073,19.38697377499907,-0.2429172765252824,-1.01242373714683e-05,0.0001833841534706508,-6.042867282820695e-06,0.0002690817684088051,0.0002885852907492894
37.76415608175,29.73584391825,2,0.6265535292216375,4.261311205454652,22.38929811515955,-0.1893557043788244,-1.14480734702406e-05,0.0001827215152466785,-4.056392960076049e-06,0.0002662030495625801,0.0002521256855609979
38.48584391825,29.73584391825,2,0.6282349995524585,4.262653145161554,22.37060387913057,-0.2500226073088323,-1.14480734702406e-05,0.000183384153470651,-5.380229058848419e-06,0.0002672287866223008,0.0002531621689201831
37.76415608175,27.76415608175,2,0.7369952047226896,4.275549171349748,19.71183051877901,-0.1907571365752619,-7.937904951515263e-06,0.0002268301544088224,-5.802392655970519e-06,0.0003392570776618164,0.0003450722199866967
38.48584391825,27.76415608175,2,0.7390629656079328,4.270611560163899,19.67156296232372,-0.2298913415004652,-7.937904951515263e-06,0.0002281489569696537,-7.048178256062964e-06,0.0003412966936264428,0.0003474761076597015
37.76415608175,28.48584391825,2,0.7052350471149758,4.669454943849821,22.0616074163435,-0.1652006528936597,-9.183690551607978e-06,0.0002268301544088224,-4.483590095138556e-06,0.0003375055040967246,0.0003119524052879657
38.48584391825,28.48584391825,2,0.7072440902368082,4.669803060791311,22.03993684618977,-0.2096635742540549,-9.183690551607978e-06,0.0002281489569696535,-5.729375695230892e-06,0.0003395445829656496,0.0003138566344687552
39.01415608175,27.76415608175,2,0.7406982300113596,4.300127279394141,19.64774110965182,-0.2136333119663522,-7.550220709044804e-06,0.0002292027151606954,-6.591032895015289e-06,0.0003434684377105275,0.0003494012450574834
39.73584391825,27.76415608175,2,0.7430907281647348,4.293852058934956,19.60006036643512,-0.2552602732591959,-7.550220709044804e-06,0.0002307628335168031,-7.948651177459203e-06,0.0003458813643451467,0.0003522569305669932
39.01415608175,28.48584391825,2,0.708824174234133,4.696941696512481,22.02995100372009,-0.1831100869029967,-8.907838991488765e-06,0.0002292027151606954,-5.030914538907763e-06,0.0003415585070458433,0.0003153708095187199
39.73584391825,28.48584391825,2,0.7111262522821082,4.697363434820257,22.00600478120469,-0.2306849273153269,-8.907838991488765e-06,0.0002307628335168029,-6.388532821351676e-06,0.0003439707584194866,0.0003176033835061629
39.01415608175,29.01415608175,2,0.6799091758376852,3.846349692165291,19.35692099057556,-0.2111418749095678,-9.925988306120201e-06,0.0001839011398410461,-5.277049111598398e-06,0.0002701561567573632,0.0002897995075196035
39.73584391825,29.01415608175,2,0.6820865726556533,3.840049303960686,19.30470341856596,-0.2662948766996774,-9.925988306120201e-06,0.0001846509346478738,-6.70106648653732e-06,0.0002713174100502539,0.0002915789751284589
39.01415608175,29.73584391825,2,0.6295325136547854,4.275846726189075,22.35939699808857,-0.2096500652917418,-1.135000568105894e-05,0.0001839011398410461,-4.527254304770648e-06,0.000268162707942675,0.0002539678467781234
39.73584391825,29.73584391825,2,0.6313936179898338,4.277397902982385,22.339197274292,-0.2742095902771486,-1.135000568105894e-05,0.000184650934647874,-5.951271679709245e-06,0.000269323495640227,0.0002551325162614581
40.26415608175,49.01415608175001,2,0,-2.380098090913338,20.02892039362077,0.07125549449861121,-2.36394502058193e-05,6.599662373231712e-05,5.700439559888897e-07,6.996260379267988e-05,6.977841990122446e-05
40.98584391825,49.01415608175001,2,0,-2.432637168088613,19.81876408491967,0.07001234083864186,-2.36394502058193e-05,6.536615480621382e-05,5.600987267091349e-07,6.90074995520621e-05,6.916185703430457e-05
40.26415608175,49.73584391825,2,0,-2.383413167340048,20.02809162451409,-0.007553121264178807,-2.364939543509942e-05,6.599662373231712e-05,-6.042497011343045e-08,6.994974653305349e-05,6.974911131947556e-05
40.98584391825,49.73584391825,2,0,-2.435952244515196,19.8179353158135,-0.008796274924161712,-2.364939543509942e-05,6.536615480621534e-05,-7.03701993932937e-08,6.899466967348714e-05,6.913249372249381e-05
40.26415608175,47.76415608175001,2,0,-2.362039937070921,20.0442887216927,0.1330017579496143,-2.35939587759811e-05,6.603135585907336e-05,1.064014063596914e-06,7.007360989263016e-05,6.990964834456293e-05
40.98584391825,47.76415608175001,2,0,-2.414068479711291,19.83617455113122,0.1291721052250349,-2.35939587759811e-05,6.540701334738891e-05,1.03337684180028e-06,6.91276307227799e-05,6.929340325320763e-05
40.26415608175,48.48584391825001,2,0,-2.372252344336522,20.0417356198763,0.05495894398913981,-2.362459599777791e-05,6.603135585907336e-05,4.396715519131185e-07,7.00340237935936e-05,6.982143566745058e-05
40.98584391825,48.48584391825001,2,0,-2.424280886976857,19.83362144931496,0.05112929126453335,-2.362459599777791e-05,6.540701334738935e-05,4.090343301162667e-07,6.908812826480531e-05,6.920497261311247e-05
41.51415608175001,47.76415608175001,2,0,-2.293009527010054,19.71285964090958,0.1632693365195365,-2.310791819915983e-05,6.491555847251869e-05,1.306154692156292e-06,6.900101978374982e-05,6.881438096623742e-05
42.23584391825001,47.76415608175001,2,0,-2.352870958355769,19.47341391552672,0.1608334347113393,-2.310791819915983e-05,6.419722129637011e-05,1.286667477690714e-06,6.791247505964125e-05,6.812191283157665e-05
41.51415608175001,48.48584391825001,2,0,-2.299505265165097,19.71123570637082,0.07347718950097802,-2.312740541362496e-05,6.491555847251869e-05,5.878175160078242e-07,6.897528870771802e-05,6.872603399659928e-05
42.23584391825001,48.48584391825001,2,0,-2.359366696510812,19.47178998098796,0.07104128769280793,-2.312740541362496e-05,6.419722129637011e-05,5.683303015424634e-07,6.78867980716289e-05,6.803401241686104e-05
41.51415608175001,49.01415608175001,2,0,-2.306418475394556,19.69534274396422,0.0853151302557492,-2.313681331643395e-05,6.487023156100113e-05,6.825210420459936e-07,6.8894705599329e-05,6.868296456362325e-05
42.23584391825001,49.01415608175001,2,0,-2.366786690105806,19.45386988511922,0.08453817350542887,-2.313681331643395e-05,6.414581298446614e-05,6.76305388043431e-07,6.77970782860814e-05,6.799116886922398e-05
41.51415608175001,49.73584391825,2,0,-2.3084903600621,19.69482477279733,-0.005237191811138537,-2.314302897043658e-05,6.487023156100113e-05,-4.18975344891083e-08,6.888647938768972e-05,6.865364365411266e-05
42.23584391825001,49.73584391825,2,0,-2.368858574773349,19.45335191395234,-0.006014148561431752,-2.314302897043658e-05,6.414581298446614e-05,-4.811318849145402e-08,6.778886922301051e-05,6.796201853501365e-05
40.26415608175,46.51415608175,2,0,-2.328198971847936,20.07387652560978,0.1896778143074834,-2.350933793040121e-05,6.609896405942962e-05,1.517422514459867e-06,7.028450234395229e-05,7.014416883511501e-05
40.98584391825,46.51415608175,2,0,-2.379202071066779,19.86986412873441,0.1829606218693014,-2.350933793040121e-05,6.548692686880351e-05,1.463684974954411e-06,6.935688005271471e-05,6.952874247630622e-05
40.26415608175,47.23584391825001,2,0,-2.346111485016625,20.06939839731761,0.1131731654792335,-2.356307546990728e-05,6.609896405942962e-05,9.053853238338676e-07,7.021513383773247e-05,6.999612443620666e-05
40.98584391825,47.23584391825001,2,0,-2.397114584235431,19.86538600044238,0.1064559730410515,-2.356307546990728e-05,6.548692686880395e-05,8.516477843284118e-07,6.928765559341757e-05,6.938015712658124e-05
40.26415608175,45.26415608175001,2,0,-2.276762766864967,20.11696539307901,0.2382798019515532,-2.33792131684311e-05,6.619569947134479e-05,1.906238415612426e-06,7.059772981103097e-05,7.048483085821937e-05
40.98584391825,45.26415608175001,2,0,-2.326218695160449,19.91914167989708,0.2281724261049816,-2.33792131684311e-05,6.5602228331799e-05,1.825379408839853e-06,6.969782375974682e-05,6.987113777016948e-05
40.26415608175,45.98584391825,2,0,-2.30371576912248,20.11022714251463,0.1640959095082885,-2.346007217520363e-05,6.619569947134479e-05,1.312767276066308e-06,7.049346031942596e-05,7.027511732622515e-05
40.98584391825,45.98584391825,2,0,-2.353171697418062,19.9124034293323,0.1539885336616898,-2.346007217520363e-05,6.56022283317978e-05,1.231908269293518e-06,6.959376447689666e-05,6.96603003432509e-05
41.51415608175001,45.26415608175001,2,0,-2.226873227155787,19.79747810391618,0.2990068235530395,-2.296397681003146e-05,6.51334285142564e-05,2.392054588424316e-06,6.951737209590431e-05,6.939250802583222e-05
42.23584391825001,45.26415608175001,2,0,-2.284149375539988,19.56837351037938,0.2920824506791135,-2.296397681003146e-05,6.444611473364599e-05,2.336659605432908e-06,6.847519630509591e-05,6.869856033428342e-05
41.51415608175001,45.98584391825,2,0,-2.245338221486167,19.79286185533358,0.2130926009767924,-2.30193717930226e-05,6.51334285142564e-05,1.704740807814339e-06,6.944486268768285e-05,6.918136660275205e-05
42.23584391825001,45.98584391825,2,0,-2.302614369870368,19.56375726179678,0.20616822810288,-2.30193717930226e-05,6.444611473364599e-05,1.64934582482304e-06,6.840284143903133e-05,6.848771227316877e-05
41.51415608175001,46.51415608175,2,0,-2.267149625996375,19.74711107509821,0.2356303165790285,-2.305256766326697e-05,6.500447514111137e-05,1.885042532632228e-06,6.920752315943472e-05,6.904969579567098e-05
42.23584391825001,46.51415608175,2,0,-2.32598674613679,19.51176259453655,0.2312180889387996,-2.305256766326697e-05,6.429842969942639e-05,1.849744711510397e-06,6.813734910941411e-05,6.835634228373146e-05
41.51415608175001,47.23584391825001,2,0,-2.278915566370268,19.74416959000474,0.1473746363683521,-2.308786548438864e-05,6.500447514111137e-05,1.178997090946817e-06,6.916110150604159e-05,6.89011058839168e-05
42.23584391825001,47.23584391825001,2,0,-2.337752686510682,19.50882110944308,0.1429624087281368,-2.308786548438864e-05,6.429842969942639e-05,1.143699269825094e-06,6.809102605961282e-05,6.820828085909833e-05
40.26415608175,44.01415608175001,2,0,-2.205153555906874,20.17241796809936,0.2760085503761956,-2.319442575338148e-05,6.631586034264343e-05,2.208068403009565e-06,7.1016409286113e-05,7.093706997326311e-05
40.98584391825,44.01415608175001,2,0,-2.252535023303959,19.98289209851102,0.2618075915196351,-2.319442575338148e-05,6.574728273387842e-05,2.094460732157081e-06,7.015369153805852e-05,7.032659255451188e-05
40.26415608175,44.73584391825,2,0,-2.243022779524314,20.162950662195,0.2049363492805686,-2.33080334242338e-05,6.631586034264343e-05,1.639490794244549e-06,7.087003230526269e-05,7.066220053541532e-05
40.98584391825,44.73584391825,2,0,-2.290404246921327,19.97342479260695,0.1907353904240217,-2.33080334242338e-05,6.574728273387928e-05,1.525883123392174e-06,7.00075966029515e-05,7.004967023009445e-05
40.26415608175,42.76415608175,2,0,-2.11005362366446,20.23865362730531,0.3003883826846899,-2.294309449757052e-05,6.645173450630856e-05,2.403107061477519e-06,7.154424230987334e-05,7.151180352049785e-05
40.98584391825,42.76415608175,2,0,-2.15483410095145,20.05953171815736,0.2811951120437289,-2.294309449757052e-05,6.591436877886468e-05,2.249560896349831e-06,7.072819599415827e-05,7.090669622007161e-05
40.26415608175,43.48584391825001,2,0,-2.161235678707082,20.22585811354466,0.2332176667541779,-2.309664066269839e-05,6.645173450630856e-05,1.865741334033423e-06,7.134647226647443e-05,7.116472040699595e-05
40.98584391825,43.48584391825001,2,0,-2.206016155994054,20.04673620439677,0.2140243961132305,-2.309664066269839e-05,6.59143687788649e-05,1.712195168905844e-06,7.053078320349147e-05,7.05562319764116e-05
41.51415608175001,42.76415608175,2,0,-2.090829942369862,19.94206663507963,0.3861623567917268,-2.264430912364725e-05,6.548727718615069e-05,3.089298854333815e-06,7.046481825403404e-05,7.043216091558686e-05
42.23584391825001,42.76415608175,2,0,-2.143285792652274,19.73224323394998,0.3716970875817908,-2.264430912364725e-05,6.485780698276173e-05,2.973576700654327e-06,6.950912384017869e-05,6.974081365412045e-05
41.51415608175001,43.48584391825001,2,0,-2.129403993596464,19.93242312227298,0.3074785813682833,-2.276003127732706e-05,6.548727718615069e-05,2.459828650946266e-06,7.031457048793234e-05,7.007990344468117e-05
42.23584391825001,43.48584391825001,2,0,-2.181859843878876,19.72259972114333,0.2930133121583473,-2.276003127732706e-05,6.485780698276173e-05,2.344106497266778e-06,6.935918180713674e-05,6.938703812542796e-05
41.51415608175001,44.01415608175001,2,0,-2.169341409278633,19.86294852665653,0.3501684948179872,-2.283225133101684e-05,6.529690841272379e-05,2.801347958543898e-06,6.993475346520693e-05,6.98492835734055e-05
42.23584391825001,44.01415608175001,2,0,-2.224497069204435,19.64232588695332,0.3399701570261642,-2.283225133101684e-05,6.463504049361417e-05,2.719761256209314e-06,6.893061492942593e-05,6.915572860480972e-05
41.51415608175001,44.73584391825,2,0,-2.196536976723412,19.85614963479533,0.2674350049292431,-2.291383803335119e-05,6.529690841272379e-05,2.139480039433945e-06,6.982844101280948e-05,6.957147583872429e-05
42.23584391825001,44.73584391825,2,0,-2.251692636649214,19.63552699509212,0.25723666713742,-2.291383803335119e-05,6.463504049361417e-05,2.05789333709936e-06,6.882452632859895e-05,6.887755477087184e-05
40.26415608175,41.51415608175001,2,0,-1.987461645842355,20.31362813112085,0.3094146490988022,-2.261077977159221e-05,6.65935793362606e-05,2.475317192790418e-06,7.21853793799747e-05,7.223283265341592e-05
40.98584391825,41.51415608175001,2,0,-2.029127322958003,20.14696542265826,0.2841485625267411,-2.261077977159221e-05,6.609359121087283e-05,2.273188500213929e-06,7.142529986277072e-05,7.163590854090211e-05
40.26415608175,42.23584391825,2,0,-2.054837876701212,20.29678407340614,0.2469161334253309,-2.281290846416878e-05,6.65935793362606e-05,1.975329067402647e-06,7.192492782429787e-05,7.179800333434297e-05
40.98584391825,42.23584391825,2,0,-2.096503553816869,20.13012136494351,0.2216500468532698,-2.281290846416878e-05,6.609359121087272e-05,1.773200374826159e-06,7.116527934404841e-05,7.119599468360466e-05
40.26415608175,40.26415608175,2,0,-1.832792390414252,20.3948246604603,0.3017292763833103,-2.218079537769385e-05,6.672967282580437e-05,2.413834211066482e-06,7.294421817387813e-05,7.315558081462864e-05
40.98584391825,40.26415608175,2,0,-1.870858709191981,20.24255938534939,0.2691530010261488,-2.218079537769385e-05,6.627287700047163e-05,2.15322400820919e-06,7.224893455320958e-05,7.257001623239484e-05
40.26415608175,40.98584391825,2,0,-1.919662458033418,20.37310714355552,0.2446297982168261,-2.244140558055135e-05,6.672967282580437e-05,1.957038385734609e-06,7.260797174088983e-05,7.259659444290983e-05
40.98584391825,40.98584391825,2,0,-1.957728776811083,20.22084186844485,0.2120535228596239,-2.244140558055135e-05,6.627287700047238e-05,1.696428182876991e-06,7.191318443052925e-05,7.200407650527195e-05
41.51415608175001,40.26415608175,2,0,-1.851687781911707,20.13291759792144,0.4032162742638137,-2.203173498045461e-05,6.590668653887796e-05,3.225730194110509e-06,7.188766738973177e-05,7.210730799479661e-05
42.23584391825001,40.26415608175,2,0,-1.896992375331199,19.95169922424347,0.3763383585700012,-2.203173498045461e-05,6.536303141784405e-05,3.01070686856001e-06,7.106047349021818e-05,7.142873016277769e-05
41.51415608175001,40.98584391825,2,0,-1.923362223761892,20.11499898745889,0.3352593841345758,-2.224675830600516e-05,6.590668653887796e-05,2.682075073076606e-06,7.16093819831914e-05,7.153700585898763e-05
42.23584391825001,40.98584391825,2,0,-1.968666817181384,19.93378061378092,0.3083814684407362,-2.224675830600516e-05,6.536303141784405e-05,2.46705174752589e-06,7.078267452810498e-05,7.085346306019851e-05
41.51415608175001,41.51415608175001,2,0,-1.986745408424125,20.03288264972525,0.404471198044997,-2.23838914267374e-05,6.56946208058601e-05,3.235769584359976e-06,7.111356375240439e-05,7.116613981442393e-05
42.23584391825001,41.51415608175001,2,0,-2.035913682746465,19.83620955243589,0.3845172820817405,-2.23838914267374e-05,6.510460151399201e-05,3.076138256653924e-06,7.021690245420224e-05,7.047963189833785e-05
41.51415608175001,42.23584391825,2,0,-2.039955850992905,20.01958003908306,0.3307187865614586,-2.254352275444374e-05,6.56946208058601e-05,2.645750292491669e-06,7.090678936003529e-05,7.072321707363968e-05
42.23584391825001,42.23584391825,2,0,-2.089124125315246,19.82290694179369,0.310764870598175,-2.254352275444374e-05,6.510460151399201e-05,2.4861189647854e-06,7.001052398886991e-05,7.003357327321781e-05
40.26415608175,39.01415608175,2,0,-1.641014866494627,20.47925944105926,0.276822637728142,-2.163465512563021e-05,6.684644210458533e-05,2.214581101825136e-06,7.382515045943291e-05,7.441428578577135e-05
40.98584391825,39.01415608175,2,0,-1.675044111877348,20.34314245952838,0.2355761228305136,-2.163465512563021e-05,6.643809115999268e-05,1.884608982644109e-06,7.320272755060807e-05,7.384262997404151e-05
40.26415608175,39.73584391825,2,0,-1.75100557288822,20.45176176446086,0.2257787696541432,-2.196462724481099e-05,6.684644210458533e-05,1.806230157233146e-06,7.339843385948044e-05,7.364262974202227e-05
40.98584391825,39.73584391825,2,0,-1.785034818270859,20.31564478293031,0.184532254756569,-2.196462724481099e-05,6.643809115999366e-05,1.476258038052552e-06,7.2776555464827e-05,7.306265514957775e-05
40.26415608175,37.76415608175,2,0,-1.40684664404499,20.56346485242992,0.2352495945790681,-2.09526811428879e-05,6.692856484301173e-05,1.881996756632545e-06,7.483204769081655e-05,7.634050055293007e-05
40.98584391825,37.76415608175,2,0,-1.436453793920275,20.44503625292878,0.1838966143344627,-2.09526811428879e-05,6.657327904450831e-05,1.471172914675701e-06,7.428969717091115e-05,7.578192383287085e-05
40.26415608175,38.48584391825,2,0,-1.543787924697185,20.52922953226687,0.1908388697661957,-2.136350498484449e-05,6.692856484301173e-05,1.526710958129566e-06,7.429901109837686e-05,7.513717809081509e-05
40.98584391825,38.48584391825,2,0,-1.573395074572415,20.41080093276595,0.1394858895216173,-2.136350498484449e-05,6.657327904450896e-05,1.115887116172939e-06,7.37572273221038e-05,7.457125582171047e-05
41.51415608175001,37.76415608175,2,0,-1.463723038226031,20.34813137525714,0.3391678351404503,-2.096241882252901e-05,6.628499883140366e-05,2.713342681123602e-06,7.384121108032406e-05,7.533603385767762e-05
42.23584391825001,37.76415608175,2,0,-1.499748904105237,20.20402791174031,0.2934322708975762,-2.096241882252901e-05,6.585268844085319e-05,2.34745816718061e-06,7.318142829207996e-05,7.467641651087145e-05
41.51415608175001,38.48584391825,2,0,-1.585684542873641,20.31764099909524,0.2851290363215463,-2.132830333647184e-05,6.628499883140366e-05,2.281032290572371e-06,7.336636462467426e-05,7.412096112055412e-05
42.23584391825001,38.48584391825,2,0,-1.621710408752847,20.17353753557841,0.2393934720786722,-2.132830333647184e-05,6.585268844085319e-05,1.915147776629378e-06,7.270720413068711e-05,7.345665538766827e-05
41.51415608175001,39.01415608175,2,0,-1.679567790769694,20.2391608158552,0.3813962641801693,-2.156594558314718e-05,6.610896884335239e-05,3.051170113441354e-06,7.279430355186616e-05,7.33887778825934e-05
42.23584391825001,39.01415608175,2,0,-1.720470119637556,20.07555150038375,0.3459754919269114,-2.156594558314718e-05,6.561814089693803e-05,2.767803935415291e-06,7.204641935950506e-05,7.272048672131292e-05
41.51415608175001,39.73584391825,2,0,-1.774023183445177,20.21554696768633,0.32004277087847,-2.184931176117363e-05,6.610896884335239e-05,2.56034216702776e-06,7.242732938793728e-05,7.260348881307289e-05
42.23584391825001,39.73584391825,2,0,-1.81492551231304,20.05193765221488,0.2846219986251579,-2.184931176117363e-05,6.561814089693803e-05,2.276975989001263e-06,7.168001130711668e-05,7.192899764500752e-05
40.26415608175,36.51415608175,2,0,-1.12434854189762,20.64343618113368,0.1791490311702165,-2.011266427897932e-05,6.695847461314587e-05,1.433192249361732e-06,7.596935166979299e-05,7.976060384329401e-05
40.98584391825,36.51415608175,2,0,-1.149216626382609,20.54396384319372,0.1160421428049354,-2.011266427897932e-05,6.666005759932599e-05,9.283371424394834e-07,7.551315365509399e-05,7.920279776453833e-05
40.26415608175,37.23584391825,2,0,-1.292633577538421,20.60136492222348,0.1418469044427314,-2.061751938590173e-05,6.695847461314587e-05,1.134775235541851e-06,7.531146906657486e-05,7.757934374953349e-05
40.98584391825,37.23584391825,2,0,-1.317501662023429,20.50189258428345,0.07874001607742313,-2.061751938590173e-05,6.666005759932577e-05,6.299201286193851e-07,7.485582826356773e-05,7.702294175612383e-05
40.26415608175,35.26415608175,2,0,-0.791782457543925,20.71488002735044,0.114517922131268,-1.910560788602091e-05,6.692104205355655e-05,9.161433770501441e-07,7.722871008506671e-05,8.674468379326365e-05
40.98584391825,35.26415608175,2,0,-0.8123179078758644,20.63273822602268,0.03927530618750576,-1.910560788602091e-05,6.667461664957327e-05,3.142024495000461e-07,7.685158401550669e-05,8.614046491148122e-05
40.26415608175,35.98584391825,2,0,-0.9924294333941344,20.66471828338789,0.08371474663335836,-1.970754881357154e-05,6.692104205355655e-05,6.697179730668669e-07,7.644014947990599e-05,8.22164493062917e-05
40.98584391825,35.98584391825,2,0,-1.012964883726038,20.58257648206028,0.008472130689541908,-1.970754881357154e-05,6.667461664957371e-05,6.777704551633526e-08,7.606354217325637e-05,8.164583073091236e-05
41.51415608175001,35.26415608175,2,0,-0.8649380130403141,20.55777502358161,0.2020043712234446,-1.921402166059429e-05,6.647683048589337e-05,1.616034969787556e-06,7.640881315392967e-05,8.565512608901606e-05
42.23584391825001,35.26415608175,2,0,-0.889432716727625,20.45979620883236,0.1277640320180798,-1.921402166059429e-05,6.618289404164565e-05,1.022112256144638e-06,7.595869927389472e-05,8.49333746488817e-05
41.51415608175001,35.98584391825,2,0,-1.062912250921294,20.50828146411136,0.1652623156925465,-1.980794437423723e-05,6.647683048589337e-05,1.322098525540372e-06,7.563154116947107e-05,8.118767406361922e-05
42.23584391825001,35.98584391825,2,0,-1.087406954608605,20.41030264936212,0.09102197648711398,-1.980794437423723e-05,6.618289404164565e-05,7.281758118969119e-07,7.518204661322345e-05,8.050658534607409e-05
41.51415608175001,36.51415608175,2,0,-1.197000635537047,20.4558261894518,0.2778887967319296,-2.019506298527999e-05,6.641624431467539e-05,2.223110373855437e-06,7.50364050807089e-05,7.87554208733436e-05
42.23584391825001,36.51415608175,2,0,-1.227641741156615,20.33326176697353,0.2199256716912008,-2.019506298527999e-05,6.604855104724058e-05,1.759405373529606e-06,7.447428960931286e-05,7.809097055517118e-05
41.51415608175001,37.23584391825,2,0,-1.351568968979104,20.41718410609129,0.2319271383026053,-2.065876798560616e-05,6.641624431467539e-05,1.855417106420842e-06,7.443249178871356e-05,7.657783360575344e-05
42.23584391825001,37.23584391825,2,0,-1.382210074598671,20.29461968361302,0.1739640132618629,-2.065876798560616e-05,6.604855104724058e-05,1.391712106094904e-06,7.387101716882227e-05,7.59181775174365e-05
40.26415608175,34.01415608175,2,0.0215706692001475,-0.3429275523347979,20.54854369935497,0.04783597014155851,-1.79228101355258e-05,6.748538683506696e-05,3.911245800650989e-07,7.964940426891755e-05,0.0001021189001175425
40.98584391825,34.01415608175,2,0.01486401676369076,-0.380030233336635,20.55038554817709,-0.03859933739885928,-1.79228101355258e-05,6.706206966859782e-05,-3.134538829618633e-07,7.900118912856512e-05,0.0001014505378571835
40.26415608175,34.73584391825,2,0,-0.585347296595363,20.94284656180959,-0.004024073300544929,-1.862738859855283e-05,6.748538683506696e-05,-3.219258640435943e-08,7.871975711249178e-05,9.207752941537247e-05
40.98584391825,34.73584391825,2,0,-0.6206237271344666,20.80174083965317,-0.09209638117890165,-1.862738859855283e-05,6.706206966859772e-05,-7.367710494312132e-07,7.807250631159358e-05,9.14471201921353e-05
40.26415608175,32.76415608175,2,0.2456224971547347,0.9053851099286154,19.16899554826376,-0.04593559928016309,-1.648771873488738e-05,8.035297637837236e-05,-4.871364706069206e-07,0.0001013178664457811,0.0001309452127702373
40.98584391825,32.76415608175,2,0.2421945668112306,0.8716644336771484,19.10476128244099,-0.1277759478420675,-1.648771873488738e-05,7.975385489459056e-05,-1.348905059225022e-06,0.0001003974288323694,0.0001303819572944278
40.26415608175,33.48584391825,2,0.115774873534833,0.8072258507574883,22.40496918144527,-0.1200620721365971,-1.734948732350527e-05,8.035297637837236e-05,-1.086257954388287e-06,0.0001001578646957389,0.0001125334644838229
40.98584391825,33.48584391825,2,0.1104058652350358,0.767712740203816,22.36335366602699,-0.2166191233780708,-1.734948732350527e-05,7.975385489459002e-05,-1.948026543005955e-06,9.923852166449659e-05,0.0001118830960158554
41.51415608175001,32.76415608175,2,0.2392076101138436,0.792378612493212,19.0421041851723,0.003610155802418306,-1.669058728368678e-05,7.926055952213202e-05,3.79620600879935e-08,9.936480485529537e-05,0.0001298951007317733
42.23584391825001,32.76415608175,2,0.2344570330886026,0.7495701585448717,18.96998276998852,-0.07518957524680883,-1.669058728368678e-05,7.851197298516062e-05,-7.857385254302638e-07,9.821444264849976e-05,0.0001291282393423561
41.51415608175001,33.48584391825,2,0.1058861060098225,0.6857412504479514,22.31767516079127,-0.07942240227383351,-1.751428786920473e-05,7.926055952213202e-05,-7.106244768830851e-07,9.825765986921261e-05,0.0001113414053919403
42.23584391825001,33.48584391825,2,0.09887847350370182,0.6349018053208821,22.26773449652524,-0.1728266677965538,-1.751428786920473e-05,7.851197298516062e-05,-1.534325062401126e-06,9.710864790920391e-05,0.0001105118475533253
41.51415608175001,34.01415608175,2,0.009301715564836388,-0.4555678120914122,20.54933769967914,0.1200861817987124,-1.80653256794926e-05,6.674316078617753e-05,9.697094155537234e-07,7.832535669984923e-05,0.0001009028239930911
42.23584391825001,34.01415608175,2,0.0007770821967424402,-0.4967886570829663,20.57695466732903,0.03596536851879484,-1.80653256794926e-05,6.629520268285353e-05,2.879467064095202e-07,7.763921529991197e-05,0.0001000748041486761
41.51415608175001,34.73584391825,2,0,-0.687099397364066,20.68546289633946,0.06521891402877078,-1.874708838863658e-05,6.674316078617753e-05,5.217513122301662e-07,7.742716732277781e-05,9.093778459111215e-05
42.23584391825001,34.73584391825,2,0,-0.7244292393077325,20.5361435285648,-0.02000142461421398,-1.874708838863658e-05,6.629520268285353e-05,-1.600113969137118e-07,7.67420390532747e-05,9.01766630741912e-05
40.26415608175,31.51415608175,2,0.4433700654548361,2.199376856746948,18.98613795273361,-0.1380056113923987,-1.464330952171475e-05,0.0001059880834679817,-1.983445055001097e-06,0.0001433177357119236,0.0001744351350954415
40.98584391825,31.51415608175,2,0.4430385171705932,2.181462903788163,18.92055084608293,-0.2160130631953097,-1.464330952171475e-05,0.0001055738937021701,-3.102736111631229e-06,0.000142681043282165,0.0001743380010415659
40.26415608175,32.23584391825,2,0.3348174370704565,2.380116399722429,22.62672441281262,-0.199358109384617,-1.576260057834513e-05,0.0001059880834679817,-2.39763482081214e-06,0.0001417824656003499,0.0001475317154202416
40.98584391825,32.23584391825,2,0.3328313375829794,2.364195072596769,22.60217172047242,-0.2932978416841209,-1.576260057834513e-05,0.0001055738937021713,-3.516925877442272e-06,0.0001411463417863036,0.0001471166986589085
40.26415608175,30.26415608175,2,0.5874137485357198,3.172493916731483,19.05688881912983,-0.1964411993922034,-1.234537143127295e-05,0.0001416529244016511,-3.808972280487351e-06,0.0002015344004279402,0.000230197077473026
40.98584391825,30.26415608175,2,0.5889491377340504,3.162313151348082,18.99247207016504,-0.266734325528435,-1.234537143127295e-05,0.0001417003720229748,-5.191266580647298e-06,0.0002016107506239856,0.0002309848933842314
40.26415608175,30.98584391825,2,0.5103998696428281,3.53908521050713,22.55767450654021,-0.2302053704334656,-1.372766573143316e-05,0.0001416529244016511,-3.761524659162598e-06,0.0001996143669301856,0.0001965852520988221
40.98584391825,30.98584391825,2,0.5110035903062073,3.536654678910008,22.53759278582419,-0.3144136254029548,-1.372766573143316e-05,0.0001417003720229747,-5.143818959322654e-06,0.0001996906976169708,0.0001968104160881729
41.51415608175001,30.26415608175,2,0.5900452301886485,3.147515239688441,18.93976155189877,-0.1916633118405833,-1.239102664143547e-05,0.0001416966676617915,-3.740184546286037e-06,0.0002015383260131491,0.0002315506237009289
42.23584391825001,30.26415608175,2,0.5915050339669483,3.134347593874477,18.86448038425769,-0.2659640249033392,-1.239102664143547e-05,0.0001416390995375047,-5.208661981539716e-06,0.0002014527235555017,0.0002323084117583888
41.51415608175001,30.98584391825,2,0.5113213897800442,3.512729821968946,22.51697327604325,-0.2319850621268586,-1.385950407668854e-05,0.0001416966676617915,-3.797752670573265e-06,0.0001994990542166534,0.0001969291506902196
42.23584391825001,30.98584391825,2,0.5115866760718468,3.508479798911521,22.49537726326013,-0.3215121188196346,-1.385950407668854e-05,0.0001416390995375047,-5.266230105826185e-06,0.0001994135408481461,0.0001970283756662908
41.51415608175001,31.51415608175,2,0.4425803993778735,2.133845357659561,18.86017331132953,-0.114560187085217,-1.481798181358238e-05,0.0001052088556711562,-1.644150108210882e-06,0.0001418758422324379,0.0001742039640535583
42.23584391825001,31.51415608175,2,0.4416586515172656,2.110242553034193,18.78283514662205,-0.1950204357495453,-1.481798181358238e-05,0.000104625742989496,-2.794282548186752e-06,0.0001409785613509042,0.0001739349022460879
41.51415608175001,32.23584391825,2,0.3310143967813042,2.304454632532557,22.57086671285725,-0.1862508426260931,-1.596811425355809e-05,0.0001052088556711562,-2.227262789871506e-06,0.0001402995653873812,0.0001467390725587837
42.23584391825001,32.23584391825,2,0.3280270447348306,2.282092167797041,22.5410448274073,-0.2836897817123694,-1.596811425355809e-05,0.000104625742989496,-3.377395229847268e-06,0.0001394031161468817,0.0001461223956282679
40.26415608175,29.01415608175,2,0.6837675371242711,3.855952951491576,19.26850545957852,-0.2257198389079697,-9.726246619084341e-06,0.0001852259397305336,-5.710225619604947e-06,0.0002724829281781199,0.0002929678458384486
40.98584391825,29.01415608175,2,0.6861779975951284,3.848035745484601,19.20753071929423,-0.284682586497881,-9.726246619084341e-06,0.0001860470880242128,-7.257173412095002e-06,0.000273754928500957,0.0002949828435745906
40.26415608175,29.73584391825,2,0.6328046574985513,4.288020370611058,22.32641208624839,-0.22440580290121,-1.127319441157398e-05,0.0001852259397305336,-4.889077325926586e-06,0.0002703167771032059,0.0002560227156291721
40.98584391825,29.73584391825,2,0.6347966660929154,4.289748673215779,22.30525492147504,-0.293807228794442,-1.127319441157398e-05,0.0001860470880242132,-6.43602511841675e-06,0.0002715882326482622,0.0002572901160474013
40.26415608175,27.76415608175,2,0.7449643536334989,4.326092507984865,19.57152802420908,-0.2325091147026008,-7.111658388370017e-06,0.0002319990029395862,-7.293384058743588e-06,0.000348406124764287,0.0003545263778661053
40.98584391825,27.76415608175,2,0.7476818864368235,4.318204338744155,19.5158176410507,-0.2773257425717511,-7.111658388370017e-06,0.0002338161622534294,-8.792892072802001e-06,0.0003512167355432268,0.0003578709376831333
40.26415608175,28.48584391825,2,0.7129166161545487,4.726213971167124,21.99500937175028,-0.1965166413080152,-8.611166402428474e-06,0.0002319990029395862,-5.476224744900126e-06,0.0003462953698379405,0.0003193618225855214
40.98584391825,28.48584391825,2,0.7154994079124311,4.72677573671016,21.96945537190999,-0.2480750125210521,-8.611166402428474e-06,0.0002338161622534297,-6.975732758958755e-06,0.0003491051350111304,0.000321933393505105
41.51415608175001,27.76415608175,2,0.7497930439384179,4.352200548969034,19.4819437349111,-0.2464500820730189,-6.628565637558742e-06,0.0002352470948012064,-7.879879471052323e-06,0.0003541045595235545,0.0003605134818691899
42.23584391825001,27.76415608175,2,0.75283296147145,4.342417007218402,19.41762170178299,-0.2952916654529836,-6.628565637558742e-06,0.0002373393159102596,-9.557638986522864e-06,0.0003573407822227134,0.0003643884870300215
41.51415608175001,28.48584391825,2,0.7174883637441194,4.756125636309063,21.95779443305574,-0.2043851042423331,-8.306325153028944e-06,0.0002352470948012064,-5.787658362000053e-06,0.0003517416400156032,0.0003239423192954469
42.23584391825001,28.48584391825,2,0.7203324443143875,4.7570056449673,21.93178464521611,-0.2609793962454767,-8.306325153028944e-06,0.0002373393159102596,-7.465417877470376e-06,0.0003549768036489523,0.0003268592357039461
41.51415608175001,29.01415608175,2,0.6880163643689635,3.860909930014828,19.1641477145211,-0.2329872450955071,-9.540264474286225e-06,0.0001866653827040095,-5.974345279341421e-06,0.0002749672868757933,0.0002965384516389131
42.23584391825001,29.01415608175,2,0.6906238995305001,3.851020602026372,19.09349468373346,-0.2965281241557551,-9.540264474286225e-06,0.0001875334468896564,-7.667770683145929e-06,0.0002763122874674728,0.0002987734541713447
41.51415608175001,29.73584391825,2,0.6362780737906324,4.295877939176586,22.29093590782887,-0.2321582993956592,-1.123368987809122e-05,0.0001866653827040095,-5.106281093695143e-06,0.0002725955402123537,0.0002582408554479293
42.23584391825001,29.73584391825,2,0.6383322401817271,4.297778984730938,22.26969525480183,-0.3074043270465665,-1.123368987809122e-05,0.0001875334468896564,-6.799706497499867e-06,0.0002739399206507041,0.0002595709233768107
42.76415608175,49.01415608175001,2,0,-2.214658652907369,19.31507197773196,0.1007320457976533,-2.253896527148914e-05,6.357995725106815e-05,8.058563663812263e-07,6.769968463738046e-05,6.745773165247297e-05
43.48584391825001,49.01415608175001,2,0,-2.283119322651062,19.04122929875718,0.1004493044127016,-2.253896527148914e-05,6.275842921414383e-05,8.035944353016128e-07,6.645458493698475e-05,6.669214976799841e-05
42.76415608175,49.73584391825,2,0,-2.215412629933758,19.31488348347576,-0.001958958818131049,-2.254122720256863e-05,6.357995725106945e-05,-1.567167054504839e-08,6.769634705298695e-05,6.742882319486754e-05
43.48584391825001,49.73584391825,2,0,-2.283873299677569,19.04104080450052,-0.002241700203069186,-2.254122720256863e-05,6.275842921414372e-05,-1.793360162455349e-08,6.645124860154888e-05,6.666373155426645e-05
42.76415608175,47.76415608175001,2,0,-2.206268217492972,19.33457029938384,0.1972823015586469,-2.252771453548458e-05,6.363563953202265e-05,1.578258412469175e-06,6.779972966740544e-05,6.758746677627302e-05
43.48584391825001,47.76415608175001,2,0,-2.274262612219028,19.06259272047961,0.196328548087102,-2.252771453548458e-05,6.281970679530998e-05,1.570628384696816e-06,6.656302608114418e-05,6.681980113387742e-05
42.76415608175,48.48584391825001,2,0,-2.208811560083494,19.33393446373661,0.09529070946944157,-2.253534456325647e-05,6.363563953202395e-05,7.623256757555326e-07,6.778866847077375e-05,6.750024007199362e-05
43.48584391825001,48.48584391825001,2,0,-2.27680595480955,19.06195688483239,0.09433695599789671,-2.253534456325647e-05,6.281970679531128e-05,7.546956479831737e-07,6.655197244171333e-05,6.673396848581693e-05
44.01415608175001,47.76415608175001,2,0,-2.099510291243566,18.90825010368641,0.2344621638132669,-2.184503301492853e-05,6.218600856479134e-05,1.875697310506136e-06,6.647203665335353e-05,6.623121744688677e-05
44.73584391825,47.76415608175001,2,0,-2.175790543394049,18.60312909508447,0.2350211426856657,-2.184503301492853e-05,6.127064553898554e-05,1.880169141485325e-06,6.508419241914997e-05,6.539084255184938e-05
44.01415608175001,48.48584391825001,2,0,-2.098019680917153,18.90862275626801,0.1200417855875689,-2.184056118394929e-05,6.218600856479134e-05,9.603342847005515e-07,6.647587195924992e-05,6.614687232621141e-05
44.73584391825,48.48584391825001,2,0,-2.174299933067655,18.603501747666,0.1206007644599812,-2.184056118394929e-05,6.127064553898532e-05,9.648061156798497e-07,6.508797039968966e-05,6.530916737534908e-05
44.01415608175001,49.01415608175001,2,0,-2.102675420568969,18.88714960308458,0.1172250729095548,-2.183828102828836e-05,6.212101906632583e-05,9.378005832764384e-07,6.638017438779758e-05,6.610578688082155e-05
44.73584391825,49.01415608175001,2,0,-2.17933449325597,18.58051331233658,0.1174447816765359,-2.183828102828836e-05,6.120111019408182e-05,9.395582534122869e-07,6.498544584460775e-05,6.5269395565788e-05
44.01415608175001,49.73584391825,2,0,-2.102089530523793,18.88729607559587,0.002236463878891107,-2.183652335815283e-05,6.212101906632583e-05,1.789171103112885e-08,6.638178229996201e-05,6.607788447723539e-05
44.73584391825,49.73584391825,2,0,-2.178748603210803,18.58065978484784,0.002456172645804409,-2.183652335815283e-05,6.120111019408171e-05,1.964938116643528e-08,6.498703307572684e-05,6.524241213785387e-05
42.76415608175,46.51415608175,2,0,-2.18909174521588,19.37320385768082,0.2878599357876909,-2.250365667083547e-05,6.374552574075132e-05,2.302879486301528e-06,6.79989666523088e-05,6.782035097856725e-05
43.48584391825001,46.51415608175,2,0,-2.256134767314376,19.10503176928684,0.2859140458544827,-2.250365667083547e-05,6.294100947556937e-05,2.287312366835862e-06,6.677938348600749e-05,6.704934901232079e-05
42.76415608175,47.23584391825001,2,0,-2.194280785037604,19.37190659772552,0.187295402639758,-2.251922379030075e-05,6.374552574075175e-05,1.498363221118064e-06,6.797698668902148e-05,6.767324023517515e-05
43.48584391825001,47.23584391825001,2,0,-2.261323807136136,19.1037345093314,0.1853495127065227,-2.251922379030075e-05,6.294100947556937e-05,1.482796101652181e-06,6.675742856356032e-05,6.690430709126e-05
42.76415608175002,45.26415608175001,2,0,-2.161071149879858,19.43052292323917,0.3687434094681202,-2.245984601820688e-05,6.390653027426923e-05,2.949947275744961e-06,6.830134665357479e-05,6.81608908473436e-05
43.48584391825001,45.26415608175001,2,0,-2.226642681333508,19.16823679742458,0.3652558561495679,-2.245984601820688e-05,6.311967189682544e-05,2.922046849196543e-06,6.710822128448035e-05,6.738589818283089e-05
42.76415608175001,45.98584391825,2,0,-2.17037129206264,19.42819788769334,0.2703861122875647,-2.248774644475512e-05,6.39065302742688e-05,2.163088898300518e-06,6.826296354181249e-05,6.795101656628227e-05
43.48584391825001,45.98584391825,2,0,-2.235942823516361,19.16591176187845,0.2668985589690531,-2.248774644475512e-05,6.311967189682414e-05,2.135188471752425e-06,6.706989838061933e-05,6.717839095638523e-05
44.01415608175,45.26415608175001,2,0,-2.076473336662776,19.01386465187687,0.4465723715544923,-2.185580639882237e-05,6.250554555533618e-05,3.572578972435938e-06,6.694961143759812e-05,6.678902972109984e-05
44.73584391825,45.26415608175001,2,0,-2.150720502482478,18.71687598859805,0.446659410527147,-2.185580639882237e-05,6.161457956549974e-05,3.573275284217176e-06,6.559854192784845e-05,6.593334742265851e-05
44.01415608175001,45.98584391825,2,0,-2.076241232735717,19.01392267785863,0.3352016228248973,-2.185511008704119e-05,6.250554555533618e-05,2.681612982599179e-06,6.69465199292024e-05,6.658429809404538e-05
44.73584391825,45.98584391825,2,0,-2.15048839855542,18.71693401457982,0.3352886617974979,-2.185511008704119e-05,6.161457956549974e-05,2.682309294379983e-06,6.559537138934385e-05,6.573383181954699e-05
44.01415608175001,46.51415608175,2,0,-2.091463312631777,18.95055355018061,0.3455624222647774,-2.185312544056617e-05,6.231494201068338e-05,2.764499378118219e-06,6.666024260168881e-05,6.645710656160424e-05
44.73584391825,46.51415608175,2,0,-2.166957634125107,18.64857626420729,0.3461531526677936,-2.185312544056617e-05,6.14090101527634e-05,2.769225221342349e-06,6.528663689878795e-05,6.561007206202521e-05
44.01415608175001,47.23584391825001,2,0,-2.08988803155722,18.95094737044925,0.2323209400246855,-2.18483995973425e-05,6.231494201068338e-05,1.858567520197484e-06,6.666326653672441e-05,6.631434445972218e-05
44.73584391825,47.23584391825001,2,0,-2.165382353050641,18.64897008447557,0.2329116704275934,-2.18483995973425e-05,6.140901015276232e-05,1.863293363420747e-06,6.528958099400684e-05,6.547146971964049e-05
42.76415608175002,44.01415608175001,2,0,-2.119179868427869,19.50574215152788,0.4362992137577141,-2.238596930019148e-05,6.411371877963149e-05,3.490393710061713e-06,6.871228854104681e-05,6.861680712701263e-05
43.48584391825001,44.01415608175001,2,0,-2.182713992647935,19.25160565464761,0.4304735119673418,-2.238596930019148e-05,6.33513092889907e-05,3.443788095738734e-06,6.755576524866595e-05,6.783800123691408e-05
42.76415608175002,44.73584391825,2,0,-2.134715073202112,19.50185835033418,0.3409980274275063,-2.24325749145141e-05,6.411371877963106e-05,2.727984219420051e-06,6.864951560735832e-05,6.833928889041402e-05
43.48584391825001,44.73584391825,2,0,-2.198249197422141,19.24772185345406,0.3351723256371747,-2.24325749145141e-05,6.33513092889907e-05,2.681378605097397e-06,6.749311017985413e-05,6.756264022481236e-05
42.76415608175002,42.76415608175,2,0,-2.059359137665895,19.59765697341146,0.4870863232286324,-2.226807481926003e-05,6.435998962504939e-05,3.896690585829059e-06,6.923863782536192e-05,6.920173505243501e-05
43.48584391825001,42.76415608175,2,0,-2.12024181356843,19.35412626980132,0.4778592215717425,-2.226807481926003e-05,6.362939751421897e-05,3.82287377257394e-06,6.812971754427874e-05,6.8420292184761e-05
42.76415608175002,43.48584391825001,2,0,-2.083964742084181,19.59150557230675,0.3957623093747351,-2.234189163251478e-05,6.435998962504895e-05,3.16609847499788e-06,6.91407427344233e-05,6.884789887963427e-05
43.48584391825001,43.48584391825001,2,0,-2.144847417986679,19.34797486869676,0.3865352077178858,-2.234189163251478e-05,6.362939751421897e-05,3.092281661743086e-06,6.80320224246988e-05,6.806780838696213e-05
44.01415608175001,42.76415608175,2,0,-2.0121067453985,19.20142965097708,0.6024915058249369,-2.179988530605686e-05,6.305426027944545e-05,4.819932046599496e-06,6.786102270029415e-05,6.781404686684479e-05
44.73584391825,42.76415608175,2,0,-2.082166081728539,18.92119230565693,0.5988875403291372,-2.179988530605686e-05,6.221354824348499e-05,4.791100322633097e-06,6.658534403987358e-05,6.693919672405053e-05
44.01415608175001,43.48584391825001,2,0,-2.021717320054041,19.1990270073132,0.4974025013299195,-2.182871703002349e-05,6.305426027944545e-05,3.979220010639356e-06,6.781895274643725e-05,6.746404691488557e-05
44.73584391825,43.48584391825001,2,0,-2.091776656384026,18.91878966199326,0.4937985358340925,-2.182871703002349e-05,6.221354824348564e-05,3.95038828667274e-06,6.654329793477671e-05,6.65946303901218e-05
44.01415608175001,44.01415608175001,2,0,-2.05144258271413,19.09775285531685,0.5335201137551414,-2.184281854893869e-05,6.275396320318521e-05,4.268160910041131e-06,6.734694508196739e-05,6.723619876049296e-05
44.73584391825,44.01415608175001,2,0,-2.123906779843573,18.80789606679908,0.5323083209831796,-2.184281854893869e-05,6.18843928376319e-05,4.258466567865437e-06,6.602801389336317e-05,6.637084970881834e-05
44.01415608175,44.73584391825,2,0,-2.054674030105931,19.0969449934689,0.4248238180611401,-2.185251289111409e-05,6.275396320318521e-05,3.39859054448912e-06,6.732983086373491e-05,6.696370597821434e-05
44.73584391825,44.73584391825,2,0,-2.127138227235373,18.80708820495113,0.4236120252892189,-2.185251289111409e-05,6.18843928376319e-05,3.388896202313751e-06,6.601085313100375e-05,6.610403585164764e-05
42.76415608175001,41.51415608175001,2,0,-1.976473816170655,19.70454956431143,0.5180196819615837,-2.208835586319524e-05,6.463573765873309e-05,4.144157455692669e-06,6.988856924625902e-05,6.994215357166622e-05
43.48584391825001,41.51415608175001,2,0,-2.034052198052832,19.47423603678272,0.5040466505334328,-2.208835586319524e-05,6.394479707614697e-05,4.032373204267462e-06,6.883896010030497e-05,6.916024339125588e-05
42.76415608175002,42.23584391825,2,0,-2.013735233312465,19.69523421002584,0.4316521091383453,-2.220014011462056e-05,6.463573765873266e-05,3.453216873106763e-06,6.974186038788822e-05,6.949493971346981e-05
43.48584391825001,42.23584391825,2,0,-2.071313615194606,19.46492068249728,0.417679077710086,-2.220014011462056e-05,6.394479707614697e-05,3.341432621680688e-06,6.869255556045329e-05,6.871300926193589e-05
42.76415608175,40.26415608175,2,0,-1.864313213019734,19.82410400905001,0.5266019723293663,-2.182508548890316e-05,6.49285833993758e-05,4.212815778634931e-06,7.067143579987979e-05,7.089498367402046e-05
43.48584391825001,40.26415608175,2,0,-1.917919791246242,19.60967769614398,0.5062551235522329,-2.182508548890316e-05,6.428530446065772e-05,4.050040988417864e-06,6.969314770881965e-05,7.011533898033114e-05
42.76415608175,40.98584391825,2,0,-1.918571476425196,19.81053944319891,0.4461921049894974,-2.198786027911976e-05,6.492858339937667e-05,3.569536839915979e-06,7.045914514324109e-05,7.031729422025216e-05
43.48584391825001,40.98584391825,2,0,-1.972178054651785,19.59611313029256,0.4258452562123775,-2.198786027911976e-05,6.428530446065761e-05,3.40676204969902e-06,6.948128049978297e-05,6.953599650681036e-05
44.01415608175001,40.26415608175,2,0,-1.866913612301346,19.46228362166933,0.6721310164852006,-2.154395045669977e-05,6.377283847918292e-05,5.377048131881604e-06,6.928383831119227e-05,6.950457964775216e-05
44.73584391825,40.26415608175,2,0,-1.929980625624466,19.21001556837685,0.6590921885399998,-2.154395045669977e-05,6.301603431930548e-05,5.272737508319999e-06,6.81336473783562e-05,6.861559881356791e-05
44.01415608175001,40.98584391825,2,0,-1.90168382015523,19.45359106970586,0.5775304965004928,-2.164826108026142e-05,6.377283847918292e-05,4.620243972003942e-06,6.914482266277369e-05,6.892580053566134e-05
44.73584391825,40.98584391825,2,0,-1.964750833478342,19.20132301641341,0.5644916685552513,-2.164826108026142e-05,6.301603431930558e-05,4.515933348442011e-06,6.799491208883163e-05,6.804001185327934e-05
44.01415608175001,41.51415608175001,2,0,-1.95290846852108,19.32359711473359,0.6497808608610113,-2.170818479105433e-05,6.339783754196436e-05,5.19824688688809e-06,6.850252410586463e-05,6.855085279366185e-05
44.73584391825,41.51415608175001,2,0,-2.019856856400177,19.0558035632172,0.6423553609972456,-2.170818479105433e-05,6.259445688741518e-05,5.138842887977965e-06,6.728270394573842e-05,6.766787689971971e-05
44.01415608175001,42.23584391825,2,0,-1.972709801491045,19.3186467814911,0.5493582790423095,-2.176758878996422e-05,6.339783754196436e-05,4.394866232338476e-06,6.842109758955743e-05,6.810525562438323e-05
44.73584391825,42.23584391825,2,0,-2.03965818937017,19.0508532299746,0.5419327791786116,-2.176758878996422e-05,6.259445688741485e-05,4.335462233428893e-06,6.7201411702117e-05,6.722677225956787e-05
42.76415608175,39.01415608175,2,0,-1.715652211223369,19.95336012768914,0.5112302551074703,-2.14527751780661e-05,6.522327417758395e-05,4.089842040859762e-06,7.159762703650967e-05,7.219200772305011e-05
43.48584391825001,39.01415608175,2,0,-1.764649543983707,19.75737079664779,0.4826134188409229,-2.14527751780661e-05,6.46353061844599e-05,3.860907350727383e-06,7.070220223223476e-05,7.141646741028208e-05
42.76415608175,39.73584391825,2,0,-1.791963774600737,19.93428223684494,0.4377342559669503,-2.168170986819831e-05,6.522327417758439e-05,3.501874047735602e-06,7.129993443300117e-05,7.139731164311925e-05
43.48584391825001,39.73584391825,2,0,-1.840961107361084,19.73829290580355,0.4091174197003622,-2.168170986819831e-05,6.463530618446023e-05,3.272939357602898e-06,7.040505418122982e-05,7.061920964029092e-05
42.76415608175,37.76415608175,2,0,-1.522275352228568,20.08874655696059,0.4715893633105853,-2.094227837269989e-05,6.550180926405674e-05,3.772714906484682e-06,7.267886206804359e-05,7.415153081188508e-05
43.48584391825001,37.76415608175,2,0,-1.566134464546366,19.9133101076894,0.4325435216486395,-2.094227837269989e-05,6.497549991624316e-05,3.460348173189116e-06,7.187599188227171e-05,7.337713376083319e-05
42.76415608175,38.48584391825,2,0,-1.626397596660327,20.06271599585278,0.4058006948339291,-2.125464510599527e-05,6.550180926405717e-05,3.246405558671433e-06,7.227278549252212e-05,7.292999852507626e-05
43.48584391825001,38.48584391825,2,0,-1.670256708978124,19.8872795465816,0.366754853171902,-2.125464510599527e-05,6.497549991624359e-05,2.934038825375216e-06,7.147056710554111e-05,7.215545095114469e-05
44.01415608175001,37.76415608175,2,0,-1.579947579271362,19.77696973255616,0.6332002761734586,-2.087740803971329e-05,6.455026120759681e-05,5.065602209387669e-06,7.132169383169206e-05,7.276329220245214e-05
44.73584391825,37.76415608175,2,0,-1.632902946738056,19.56514826268939,0.602093750584734,-2.087740803971329e-05,6.391479679799649e-05,4.816750004677873e-06,7.035302864947442e-05,7.186064292813844e-05
44.01415608175001,38.48584391825,2,0,-1.662898314174678,19.75623204883034,0.5537672249733647,-2.112626024442323e-05,6.455026120759681e-05,4.430137799786918e-06,7.099654506905263e-05,7.154367458698472e-05
44.73584391825,38.48584391825,2,0,-1.715853681641343,19.54441057896367,0.522660699384613,-2.112626024442323e-05,6.391479679799682e-05,4.181285595076904e-06,7.002850042870626e-05,7.064681805109042e-05
44.01415608175001,39.01415608175,2,0,-1.745797228359966,19.61468303804311,0.667058243956369,-2.127829756118638e-05,6.416362350442593e-05,5.336465951650952e-06,7.021874286787121e-05,7.080545856424552e-05
44.73584391825,39.01415608175,2,0,-1.80418831617972,19.3811186867641,0.6462430602874667,-2.127829756118638e-05,6.346293045058889e-05,5.169944482299733e-06,6.915244058346017e-05,6.991169166569668e-05
44.01415608175001,39.73584391825,2,0,-1.801304384810448,19.60080624893049,0.5794716122267651,-2.144481903053783e-05,6.416362350442593e-05,4.635772897814121e-06,6.999984088831336e-05,7.000823249854229e-05
44.73584391825,39.73584391825,2,0,-1.859695472630247,19.3672418976513,0.5586564285578357,-2.144481903053783e-05,6.346293045058835e-05,4.469251428462686e-06,6.89339880679945e-05,6.911711390777917e-05
42.76415608175,36.51415608175,2,0,-1.274822377670781,20.22645601215338,0.4094613011711059,-2.02605964182692e-05,6.574451714102744e-05,3.275690409368847e-06,7.393034293756629e-05,7.755827261301058e-05
43.48584391825001,36.51415608175,2,0,-1.313400945303741,20.07214174162154,0.357545374755417,-2.02605964182692e-05,6.528157432943193e-05,2.860362998043336e-06,7.322281285028685e-05,7.676736508805104e-05
42.76415608175,37.23584391825,2,0,-1.413264848112629,20.19184539454292,0.3515934497215988,-2.067592382959475e-05,6.574451714102744e-05,2.81274759777279e-06,7.338932999063199e-05,7.539167311605837e-05
43.48584391825001,37.23584391825,2,0,-1.451843415745625,20.03753112401094,0.2996775233058964,-2.067592382959475e-05,6.528157432943149e-05,2.397420186447171e-06,7.268253384931249e-05,7.461289242934047e-05
42.76415608175,35.26415608175,2,0,-0.9581762819086661,20.36254424437622,0.3286455676725352,-1.935619949760871e-05,6.592668260753084e-05,2.629164541380282e-06,7.538503492443117e-05,8.435639209767814e-05
43.48584391825001,35.26415608175,2,0,-0.9920134661804836,20.22719550728895,0.2597983362119966,-1.935619949760871e-05,6.552063639626903e-05,2.078386689695973e-06,7.476326642993115e-05,8.350179789277668e-05
42.76415608175,35.98584391825,2,0,-1.14176889913663,20.3166460900695,0.2778897912647277,-1.990697734929281e-05,6.59266826075317e-05,2.223118330117822e-06,7.466472261750505e-05,7.996036182443279e-05
43.48584391825001,35.98584391825,2,0,-1.175606083408519,20.18129735298194,0.2090425598041891,-1.990697734929281e-05,6.552063639626903e-05,1.672340478433513e-06,7.404376293478973e-05,7.914914012850123e-05
44.01415608175001,35.26415608175,2,0,-1.073335952082723,20.10601614646461,0.4773810846666059,-1.95194879638364e-05,6.519792043035294e-05,3.819048677332847e-06,7.406408022698189e-05,8.281623569739337e-05
44.73584391825,35.26415608175,2,0,-1.112971802422019,19.94747274510743,0.4178405802442647,-1.95194879638364e-05,6.47222902262814e-05,3.342724641954118e-06,7.333597242220233e-05,8.179783915267956e-05
44.01415608175001,35.98584391825,2,0,-1.232110630542406,20.0663224768497,0.4179273091576901,-1.999581199921545e-05,6.519792043035294e-05,3.343418473261521e-06,7.344136977182608e-05,7.850094542724507e-05
44.73584391825,35.98584391825,2,0,-1.271746480881693,19.90777907549255,0.3583868047353218,-1.999581199921545e-05,6.472229022628151e-05,2.867094437882575e-06,7.271409883881968e-05,7.754126626607258e-05
44.01415608175001,36.51415608175,2,0,-1.357910113466913,19.94382115089259,0.5704456249196177,-2.030036928380819e-05,6.49065557736298e-05,4.563564999356942e-06,7.260794118540997e-05,7.613705738315634e-05
44.73584391825,36.51415608175,2,0,-1.404712358190158,19.75661217199961,0.5259778824222804,-2.030036928380819e-05,6.434492883695085e-05,4.207823059378243e-06,7.175007657017014e-05,7.520593223386825e-05
44.01415608175001,37.23584391825,2,0,-1.476490760126612,19.91417598922766,0.5002422578348443,-2.065611122378729e-05,6.49065557736298e-05,4.001938062678755e-06,7.214377134672831e-05,7.399408541317504e-05
44.73584391825,37.23584391825,2,0,-1.523293004849877,19.7269670103346,0.4557745153374528,-2.065611122378729e-05,6.434492883695064e-05,3.646196122699622e-06,7.128667712545935e-05,7.308225389157702e-05
42.76415608175,34.01415608175,2,0,-0.5918443733419796,20.4803610605269,0.2136049711665524,-1.827819084311585e-05,6.601063089235965e-05,1.708839769332419e-06,7.692516429908528e-05,9.939941453373914e-05
43.48584391825001,34.01415608175,2,0,-0.6193032472369984,20.37052556494682,0.1334078929748287,-1.827819084311585e-05,6.568112440561943e-05,1.06726314379863e-06,7.641999538121033e-05,9.838223563516364e-05
42.76415608175,34.73584391825,2,0,-0.8057032485198734,20.42689634173229,0.1724166603239707,-1.891976746864942e-05,6.601063089235921e-05,1.379333282591766e-06,7.608160113283099e-05,8.956507057260069e-05
43.48584391825001,34.73584391825,2,0,-0.8331621224149188,20.31706084615211,0.09221958213230129,-1.891976746864942e-05,6.568112440561867e-05,7.377566570584103e-07,7.557715004888771e-05,8.865529030157714e-05
42.76415608175,32.76415608175,2,0.2303214759000614,0.6478373531543964,18.89273968930978,0.07822733198734617,-1.694358334423326e-05,7.787471684150187e-05,8.130909675966354e-07,9.689491782599798e-05,0.0001284680010557631
43.48584391825001,32.76415608175,2,0.2237397263598837,0.5891785616496188,18.79750255064676,0.0007762999531820472,-1.694358334423326e-05,7.688228721648921e-05,8.000408930285662e-09,9.536976012395631e-05,0.0001274310579010291
42.76415608175,33.48584391825,2,0.09298260167247807,0.5200249130320076,22.20304468609272,-0.0203329103086041,-1.774867390289979e-05,7.787471684150143e-05,-1.793386574158035e-07,9.581461680354531e-05,0.0001098234233395822
43.48584391825001,33.48584391825,2,0.08383523456538233,0.4495003318057194,22.12388840600501,-0.1127374202299234,-1.774867390289979e-05,7.688228721648889e-05,-9.844292160826953e-07,9.429128632308897e-05,0.0001087721712490103
44.01415608175001,32.76415608175,2,0.2180277349354358,0.4614142654886617,18.7043030361151,0.1937719979576759,-1.724730835334013e-05,7.607001035806046e-05,1.982392538606745e-06,9.37168268820483e-05,0.0001265446331296245
44.73584391825,32.76415608175,2,0.2089420641337379,0.3859060726471695,18.59814947214142,0.1173757203396369,-1.724730835334013e-05,7.484325833594086e-05,1.187025273551956e-06,9.183181153084029e-05,0.0001251598187716908
44.01415608175001,33.48584391825,2,0.07609358353520279,0.3002162978536607,22.03804490894955,0.08726764021538037,-1.804267561839482e-05,7.607001035806046e-05,7.556405164869245e-07,9.265132770915703e-05,0.000107898081165558
44.73584391825,33.48584391825,2,0.06400787315609913,0.2084576038100368,21.94358332276011,-0.004647990485578524,-1.804267561839482e-05,7.484325833594031e-05,-3.972674856786429e-08,9.076866343546918e-05,0.0001065612747376446
44.01415608175001,34.01415608175,2,0,-0.7309079095512931,20.26077054735036,0.3547626827030478,-1.854752174844443e-05,6.541919207916219e-05,2.838101461624383e-06,7.566991566437078e-05,9.754865651425687e-05
44.73584391825,34.01415608175,2,0,-0.7630834043275181,20.13206856824547,0.2817754311650587,-1.854752174844443e-05,6.503308614184749e-05,2.254203449320469e-06,7.507777409226284e-05,9.628845490228964e-05
44.01415608175001,34.73584391825,2,0,-0.9255405803193408,20.21211237965835,0.3064994405387782,-1.913141976074857e-05,6.541919207916219e-05,2.451995524310226e-06,7.490334032419137e-05,8.792005450066068e-05
44.73584391825,34.73584391825,2,0,-0.9577160750956022,20.08341040055331,0.2335121890007755,-1.913141976074857e-05,6.503308614184706e-05,1.868097512006204e-06,7.431198325304814e-05,8.682113320795149e-05
42.76415608175,31.51415608175,2,0.4406587710215255,2.045611591222616,18.70931792620162,-0.07188860971884176,-1.505609959135162e-05,0.0001041105591254531,-1.028189677347861e-06,0.000139855091177084,0.0001736439735486393
43.48584391825001,31.51415608175,2,0.4388432300873101,2.013700077166083,18.61584057637264,-0.1539112953675937,-1.505609959135162e-05,0.0001032861633152488,-2.19420031791174e-06,0.0001385854852277922,0.0001731182033732662
42.76415608175,32.23584391825,2,0.3253230245047737,2.205188339850146,22.5016086936743,-0.1562370966984359,-1.622211023191559e-05,0.0001041105591254531,-1.85258548755134e-06,0.0001382586979962624,0.0001455686659442576
43.48584391825001,32.23584391825,2,0.3209029873754177,2.172981547083201,22.46240943453349,-0.2562399516154338,-1.622211023191559e-05,0.0001032861633152494,-3.018596128115652e-06,0.000136990308697799,0.0001446725252443339
42.76415608175,30.26415608175,2,0.5924930527496314,3.107371536067626,18.80090997752194,-0.1724716341399754,-1.250810348386407e-05,0.000141536273401935,-3.385888467496686e-06,0.000201127311551638,0.0002328241268209608
43.48584391825001,30.26415608175,2,0.5937343229936314,3.090344557011521,18.71339464046828,-0.250804025934597,-1.250810348386407e-05,0.0001413129152994859,-4.938719466191389e-06,0.0002007857150796726,0.0002334752985167364
42.76415608175,30.98584391825,2,0.5115749932309472,3.471583934592896,22.4709757631501,-0.220355785044672,-1.406093448255843e-05,0.0001415362734019337,-3.609246569946656e-06,0.0001989717543461062,0.0001970240038250297
43.48584391825001,30.98584391825,2,0.5112777420947991,3.464600036836558,22.44826470806255,-0.3153527756034846,-1.406093448255843e-05,0.0001413129152994854,-5.162077568640708e-06,0.0001986304352023605,0.0001969128347565099
44.01415608175001,30.26415608175,2,0.5944850726061781,3.04465716864066,18.63709813604345,-0.132816484157814,-1.274127096230629e-05,0.0001410625958162891,-2.620204094806646e-06,0.0002000708398330691,0.0002338709203220364
44.73584391825,30.26415608175,2,0.5952975826556062,3.023025360002412,18.53763038811626,-0.2146545327553734,-1.274127096230629e-05,0.0001406020683724941,-4.243207325795766e-06,0.0001993626871051585,0.0002343006074989684
44.01415608175001,30.98584391825,2,0.5107385959155015,3.408745320917987,22.41983748425503,-0.1884103797729879,-1.436427419329546e-05,0.0001410625958162891,-3.080731538602187e-06,0.0001978192196258936,0.0001967115199738577
44.73584391825,30.98584391825,2,0.5095595018261767,3.398138440984591,22.39858100301988,-0.2883627529594735,-1.436427419329546e-05,0.0001406020683724941,-4.70373476959109e-06,0.0001971116349351659,0.0001962726868278335
44.01415608175001,31.51415608175,2,0.4370389042169737,1.925916024865912,18.52696398912619,0.0004080910031791658,-1.538052980319478e-05,0.0001025746759018798,5.799207174151874e-09,0.000137042269197546,0.0001725988329731578
44.73584391825,31.51415608175,2,0.4339103702263933,1.883811027230136,18.41869213643612,-0.08120976921647632,-1.538052980319478e-05,0.0001014552519497314,-1.147659521676158e-06,0.0001353172779882466,0.0001717056568274271
44.01415608175001,32.23584391825,2,0.3169538195114469,2.074110810784085,22.41329038695548,-0.09508214106905258,-1.653398853204563e-05,0.0001025746759018798,-1.113624744974572e-06,0.0001354648721810942,0.0001438811473256179
44.73584391825,32.23584391825,2,0.3105451773445376,2.02925501798927,22.3663177358933,-0.1953814542989203,-1.653398853204563e-05,0.0001014552519497311,-2.267083473825315e-06,0.0001337415659543208,0.0001426152033435292
42.76415608175,29.01415608175,2,0.6925864982945452,3.857904537498889,19.04168903903692,-0.2304606341925119,-9.394697029280948e-06,0.000188173521898022,-5.997410859678518e-06,0.0002775007067636281,0.0003004781520880179
43.48584391825001,29.01415608175,2,0.6953370471376331,3.845744891768535,18.96074973980919,-0.2993504976164164,-9.394697029280948e-06,0.0001890541751559622,-7.860502757003071e-06,0.0002788656195432705,0.0003029004708756921
42.76415608175,29.73584391825,2,0.6398226060989887,4.296387034309557,22.25404948307873,-0.2303675522771752,-1.125778892660542e-05,0.0001881735218980216,-5.11675760173861e-06,0.0002748910975726388,0.0002605445823008155
43.48584391825001,29.73584391825,2,0.6418404494682929,4.298601659355573,22.23451241483958,-0.3124874699204377,-1.125778892660542e-05,0.0001890541751559626,-6.979849499063381e-06,0.0002762553285489518,0.0002618746000216711
42.76415608175,27.76415608175,2,0.7551774065009131,4.376528114280946,19.3776983227081,-0.2540863120379148,-6.115729235067681e-06,0.0002389788103501133,-8.30270796192223e-06,0.0003605920106455163,0.0003674348745345816
43.48584391825001,27.76415608175,2,0.7585307961294392,4.364613297623924,19.30440352734533,-0.3079898951786847,-6.115729235067681e-06,0.0002413657713496587,-1.020386501439851e-05,0.0003642843312578855,0.0003718827548161055
42.76415608175,28.48584391825,2,0.7225011732986315,4.784802777023214,21.92005678133243,-0.205201605140223,-8.016886287543667e-06,0.0002389788103501129,-5.915746962376935e-06,0.0003579132569492781,0.0003291193195698908
43.48584391825001,28.48584391825,2,0.7255749524166646,4.786389640325096,21.89560156246208,-0.2681442820287964,-8.016886287543667e-06,0.0002413657713496588,-7.816904014852893e-06,0.0003616042469179458,0.0003323770671127813
44.01415608175001,27.76415608175,2,0.7610971516394315,4.396184888171051,19.25766307982283,-0.2533373876408839,-5.602021201902916e-06,0.0002432267942540237,-8.483360977212958e-06,0.0003678780871199087,0.0003753608606603806
44.73584391825,27.76415608175,2,0.7647421964067975,4.381993358240709,19.17537243751562,-0.313605254576761,-5.602021201902916e-06,0.0002459242423834696,-1.066422451580934e-05,0.0003720508910310725,0.0003804153422599228
44.01415608175001,28.48584391825,2,0.727891887153214,4.809403305105876,21.88484581947519,-0.1967992282627281,-7.782884740499424e-06,0.0002432267942540237,-5.785912847766899e-06,0.0003648042316306791,0.0003348759579029184
44.73584391825,28.48584391825,2,0.7311415361128322,4.812403024672405,21.86523014361656,-0.2677419076712814,-7.782884740499424e-06,0.0002459242423834692,-7.966776386363495e-06,0.0003689753575101074,0.0003384453069615389
44.01415608175001,29.01415608175,2,0.697372385778156,3.841981354091009,18.89911166650144,-0.2145737679148873,-9.334736380134383e-06,0.0001896838541887045,-5.672285220015435e-06,0.0002799168876718938,0.0003047183867989322
44.73584391825,29.01415608175,2,0.7001803005924899,3.827312657269955,18.80767294850512,-0.2897442286852006,-9.334736380134383e-06,0.0001905235160407527,-7.731159206890805e-06,0.0002812187770003957,0.0003072627066776499
44.01415608175001,29.73584391825,2,0.6432492114227691,4.284262219124896,22.21789823046523,-0.2155052746774027,-1.139361036700996e-05,0.0001896838541887045,-4.832623367967675e-06,0.0002770332859990996,0.0002628112730639302
44.73584391825,29.73584391825,2,0.6450824298424485,4.287081111994411,22.20306508145397,-0.3057391869910205,-1.139361036700996e-05,0.0001905235160407525,-6.891497354843262e-06,0.0002783344659568189,0.0002640402936847154
45.26415608175001,49.01415608175001,2,0,-1.968829045160689,18.41161542559228,0.1343239429713744,-2.102954528498803e-05,6.049223259802384e-05,1.074591543770995e-06,6.494129943024953e-05,6.463301901509275e-05
45.98584391825,49.01415608175001,2,0,-2.053560773211827,18.07268851338772,0.1350276204961388,-2.102954528498803e-05,5.947545186141018e-05,1.08022096396911e-06,6.339892329244648e-05,6.373079726080752e-05
45.26415608175001,49.73584391825,2,0,-1.966952571761317,18.41208454394212,0.007226350894735077,-2.102391586478991e-05,6.049223259802384e-05,5.781080715788062e-08,6.494764172778833e-05,6.460690968914997e-05
45.98584391825,49.73584391825,2,0,-2.051684299812456,18.07315763173757,0.007930028419458803,-2.102391586478991e-05,5.947545186141018e-05,6.344022735567043e-08,6.340521740118602e-05,6.370615705026422e-05
45.26415608175001,47.76415608175001,2,0,-1.970867778185998,18.43367697899668,0.273777244373438,-2.105371847339253e-05,6.056446055533815e-05,2.190217954987504e-06,6.502271366437898e-05,6.475065430196732e-05
45.98584391825,47.76415608175001,2,0,-2.055365297281051,18.09568690261646,0.2758006948106454,-2.105371847339253e-05,5.955049032619752e-05,2.206405558485163e-06,6.348469949011975e-05,6.384200237184394e-05
45.26415608175001,48.48584391825001,2,0,-1.965471910353553,18.43502594595479,0.147030965730831,-2.10375308698952e-05,6.056446055533815e-05,1.176247725846648e-06,6.50408795095062e-05,6.467153526801228e-05
45.98584391825,48.48584391825001,2,0,-2.049969429448606,18.09703586957458,0.1490544161680384,-2.10375308698952e-05,5.955049032619752e-05,1.192435329344307e-06,6.3502725728175e-05,6.376719690501921e-05
46.51415608175001,47.76415608175001,2,0,-1.81921299677783,17.91200120031496,0.3136536454165152,-2.015108254994102e-05,5.877377423843012e-05,2.509229163332122e-06,6.345978184519926e-05,6.315435958323107e-05
47.23584391825001,47.76415608175001,2,0,-1.911551128926759,17.54264867171924,0.3169930293138771,-2.015108254994102e-05,5.766571665264297e-05,2.535944234511017e-06,6.177809432915632e-05,6.218433647732586e-05
46.51415608175001,48.48584391825001,2,0,-1.810307973051578,17.91422745624652,0.1751464471931217,-2.012436747876226e-05,5.877377423843012e-05,1.401171577544973e-06,6.349071364488082e-05,6.308345679366576e-05
47.23584391825001,48.48584391825001,2,0,-1.902646105200444,17.54487492765106,0.1784858310904564,-2.012436747876226e-05,5.766571665264373e-05,1.427886648723651e-06,6.180879147545182e-05,6.211978243318899e-05
46.51415608175001,49.01415608175001,2,0,-1.812287853406862,17.88992858612551,0.1513357539915234,-2.011126399980236e-05,5.869760175832711e-05,1.210686031932187e-06,6.339143865923787e-05,6.304897015303435e-05
47.23584391825001,49.01415608175001,2,0,-1.904649958887954,17.52048016420114,0.1524712913787067,-2.011126399980236e-05,5.758925649255401e-05,1.219770331029654e-06,6.170908177806707e-05,6.208840560682634e-05
46.51415608175001,49.73584391825,2,0,-1.809259753707788,17.89068561105028,0.01279259576985855,-2.010217970070514e-05,5.869760175832711e-05,1.023407661588684e-07,6.340196988620849e-05,6.302565368820822e-05
47.23584391825001,49.73584391825,2,0,-1.901621859188888,17.52123718912588,0.01392813315701479,-2.010217970070514e-05,5.75892564925539e-05,1.114250652561183e-07,6.171953343264643e-05,6.206723656715653e-05
45.26415608175001,46.51415608175,2,0,-1.972025746015661,18.47840054042145,0.4072257241240148,-2.109320281958727e-05,6.070850232616117e-05,3.257805792992118e-06,6.519513516276207e-05,6.496343112748882e-05
45.98584391825,46.51415608175,2,0,-2.056016672310327,18.14243683524279,0.410296610653266,-2.109320281958727e-05,5.970061121062518e-05,3.282372885226128e-06,6.366646059466095e-05,6.404380973958548e-05
45.26415608175001,47.23584391825001,2,0,-1.963836715270935,18.48044779810763,0.2812393346819891,-2.106863572735309e-05,6.070850232616117e-05,2.249914677455913e-06,6.522244510374857e-05,6.482886756178561e-05
45.98584391825,47.23584391825001,2,0,-2.0478276415656,18.14448409292897,0.2843102212113217,-2.106863572735309e-05,5.970061121062518e-05,2.274481769690574e-06,6.369355474245332e-05,6.391612055747975e-05
45.26415608175,45.26415608175001,2,0,-1.970356747448819,18.54594185119624,0.5306343357531921,-2.114189507279321e-05,6.092329932178703e-05,4.245074686025536e-06,6.54643018783717e-05,6.527814143343251e-05
45.98584391825,45.26415608175001,2,0,-2.053493977309745,18.21339293175254,0.5342671445979522,-2.114189507279321e-05,5.992565256345591e-05,4.274137156783618e-06,6.395124800115276e-05,6.434376767980886e-05
45.26415608175001,45.98584391825,2,0,-1.960669257196172,18.54836372375954,0.4059284909617759,-2.111283260203538e-05,6.092329932178746e-05,3.247427927694207e-06,6.549597129221375e-05,6.508381369857327e-05
45.98584391825,45.98584391825,2,0,-2.043806487057134,18.21581480431569,0.4095612998064819,-2.111283260203538e-05,5.992565256345591e-05,3.276490398451855e-06,6.39826518290653e-05,6.415839744065549e-05
46.51415608175001,45.26415608175001,2,0,-1.840429494615456,18.02628707114714,0.61789714860562,-2.031040403968717e-05,5.91564622233632e-05,4.94317718884496e-06,6.385054419580857e-05,6.363250790149455e-05
47.23584391825001,45.26415608175,2,0,-1.932414522247274,17.65834696061982,0.6248232132906659,-2.031040403968712e-05,5.805264189178122e-05,4.998585706325327e-06,6.217604896427591e-05,6.262368380330073e-05
46.51415608175001,45.98584391825,2,0,-1.821959988788427,18.03090444760389,0.4799196071578996,-2.025499552220608e-05,5.91564622233632e-05,3.839356857263197e-06,6.391419500395044e-05,6.345542671785436e-05
47.23584391825001,45.98584391825,2,0,-1.913945016420249,17.66296433707661,0.4868456718429997,-2.025499552220608e-05,5.805264189178132e-05,3.894765374743998e-06,6.22392052748906e-05,6.246029124476436e-05
46.51415608175001,46.51415608175,2,0,-1.829157849548924,17.95725295684797,0.4704762400562754,-2.021910748403493e-05,5.892653574155263e-05,3.763809920450203e-06,6.361059389115438e-05,6.334616916149282e-05
47.23584391825001,46.51415608175,2,0,-1.921401382461504,17.58827882519765,0.4758061683301829,-2.021910748403493e-05,5.781961334660167e-05,3.806449346641463e-06,6.19309822099521e-05,6.235980104454429e-05
46.51415608175001,47.23584391825001,2,0,-1.814944707485266,17.96080624236388,0.3321109406874325,-2.017646805784395e-05,5.892653574155263e-05,2.65688752549946e-06,6.365982652671867e-05,6.32247531500298e-05
47.23584391825001,47.23584391825001,2,0,-1.907188240397773,17.59183211071385,0.3374408689612316,-2.017646805784395e-05,5.781961334660253e-05,2.699526951689853e-06,6.197983812304744e-05,6.224864927040494e-05
45.26415608175001,44.01415608175001,2,0,-1.96285485701628,18.63637683642296,0.6398109665394918,-2.119023701159047e-05,6.12066897621665e-05,5.118487732315934e-06,6.583852696749839e-05,6.570571896925015e-05
45.98584391825,44.01415608175001,2,0,-2.044683929445138,18.30906054670753,0.6432611527603331,-2.119023701159047e-05,6.022474089302022e-05,5.146089222082665e-06,6.434924936054105e-05,6.475389704667137e-05
45.26415608175,44.73584391825,2,0,-1.953654360427239,18.63867696057036,0.5170673578962335,-2.116263552182345e-05,6.120668976216694e-05,4.136538863169868e-06,6.586719859917348e-05,6.544478044847385e-05
45.98584391825,44.73584391825,2,0,-2.035483432856132,18.31136067085479,0.5205175441171019,-2.116263552182345e-05,6.022474089302022e-05,4.164140352936815e-06,6.437764404062744e-05,6.450333131832889e-05
45.26415608175001,42.76415608175,2,0,-1.94524836483696,18.74954179279538,0.7304334760805254,-2.122442820171457e-05,6.155473242881477e-05,5.843467808644203e-06,6.632875239532052e-05,6.626371492472702e-05
45.98584391825,42.76415608175,2,0,-2.02518221838917,18.42980637858654,0.7326377125117638,-2.122442820171457e-05,6.059552618618825e-05,5.86110170009411e-06,6.487372491307572e-05,6.529311447210293e-05
45.26415608175001,43.48584391825001,2,0,-1.939370401020385,18.75101128374952,0.6105326957523186,-2.120679431026485e-05,6.155473242881477e-05,4.884261566018549e-06,6.634387579334926e-05,6.592515180080937e-05
45.98584391825,43.48584391825001,2,0,-2.019304254572595,18.43127586954068,0.6127369321835027,-2.120679431026485e-05,6.059552618618825e-05,4.901895457468022e-06,6.488861033204819e-05,6.496551880491424e-05
46.51415608175001,42.76415608175,2,0,-1.854801569661589,18.23863314347768,0.8672838421421362,-2.052627153769923e-05,5.984746731485784e-05,6.938270737137089e-06,6.464087956172967e-05,6.454724764790201e-05
47.23584391825001,42.76415608175,2,0,-1.945178953077418,17.87712360981436,0.8751795207497952,-2.052627153769923e-05,5.876293871386789e-05,7.001436165998362e-06,6.299621374558577e-05,6.348010204104251e-05
46.51415608175001,43.48584391825001,2,0,-1.833746426707918,18.2438969292161,0.7317177670184186,-2.046310610883821e-05,5.984746731485784e-05,5.853742136147349e-06,6.47114544540899e-05,6.423033669777175e-05
47.23584391825001,43.48584391825001,2,0,-1.924123810123738,17.88238739555281,0.739613445626037,-2.046310610883821e-05,5.876293871386799e-05,5.916907565008296e-06,6.306619352625087e-05,6.318141482405266e-05
46.51415608175001,44.01415608175001,2,0,-1.85031576139841,18.11984687902306,0.751693648208784,-2.041688793969336e-05,5.946376262199252e-05,6.013549185670273e-06,6.418953950183838e-05,6.402621357390817e-05
47.23584391825001,44.01415608175001,2,0,-1.941739297302067,17.75415273540844,0.7595817678939339,-2.041688793969336e-05,5.836668019114865e-05,6.076654143151471e-06,6.252563475473556e-05,6.298996727698518e-05
46.51415608175001,44.73584391825,2,0,-1.829280775571344,18.12510562547983,0.6145583443531921,-2.035378298221216e-05,5.946376262199252e-05,4.916466754825537e-06,6.426136220882427e-05,6.37854497786197e-05
47.23584391825001,44.73584391825,2,0,-1.92070431147499,17.75941148186524,0.6224464640384639,-2.035378298221216e-05,5.836668019114876e-05,4.979571712307711e-06,6.259688414740047e-05,6.276561006838e-05
45.26415608175001,41.51415608175001,2,0,-1.911772840727023,18.88482164676654,0.7981611193341845,-2.12255304077397e-05,6.196084754223454e-05,6.385288954673476e-06,6.694851797325424e-05,6.698259220780739e-05
45.98584391825,41.51415608175001,2,0,-1.98907886311914,18.57559755719807,0.7976713548138497,-2.12255304077397e-05,6.103317527352914e-05,6.381370838510797e-06,6.554076800929377e-05,6.599333550571628e-05
45.26415608175001,42.23584391825,2,0,-1.913078879447812,18.88449513708634,0.6822020857459284,-2.122944852390207e-05,6.196084754223454e-05,5.457616685967427e-06,6.693564114109132e-05,6.654705522781735e-05
45.98584391825,42.23584391825,2,0,-1.990384901839929,18.57527104751788,0.6817123212256477,-2.122944852390207e-05,6.103317527352914e-05,5.453698569805182e-06,6.552775191022367e-05,6.556851712704149e-05
45.26415608175001,40.26415608175,2,0,-1.854976645353032,19.0408972440154,0.8388537089948757,-2.116864306034202e-05,6.24148524971317e-05,6.710829671959006e-06,6.771375396211212e-05,6.792169880237189e-05
45.98584391825,40.26415608175,2,0,-1.928781238932531,18.7456788696974,0.8337793874271386,-2.116864306034202e-05,6.152919737417771e-05,6.670235099417109e-06,6.636880459971254e-05,6.691490955051539e-05
45.26415608175001,40.98584391825,2,0,-1.868508169533655,19.03751436297025,0.7281468186255864,-2.120923763288389e-05,6.24148524971317e-05,5.825174549004691e-06,6.765385580182178e-05,6.735092684347844e-05
45.98584391825,40.98584391825,2,0,-1.942312763113154,18.74229598865225,0.7230724970578358,-2.120923763288389e-05,6.152919737417771e-05,5.784579976462687e-06,6.630892859866677e-05,6.635410026827027e-05
46.51415608175001,40.26415608175,2,0,-1.822950694911243,18.55286327087356,1.024105589649013,-2.067573284041482e-05,6.082752302272437e-05,8.192844717192101e-06,6.595110916248159e-05,6.613163810352176e-05
47.23584391825001,40.26415608175,2,0,-1.908896932883643,18.20907831898396,1.027385427431794,-2.067573284041482e-05,5.979616816705557e-05,8.219083419454352e-06,6.438634099013827e-05,6.499848996598271e-05
46.51415608175001,40.98584391825,2,0,-1.814204460823916,18.55504982939539,0.8951862326905076,-2.064949413815284e-05,6.082752302272437e-05,7.16148986152406e-06,6.597322531841428e-05,6.5581524280312e-05
47.23584391825001,40.98584391825,2,0,-1.900150698796225,18.21126487750615,0.8984660704732753,-2.064949413815284e-05,5.979616816705665e-05,7.187728563786203e-06,6.440806444517508e-05,6.44676340036207e-05
46.51415608175001,41.51415608175001,2,0,-1.848227455420284,18.38304710421449,0.9597695783525436,-2.06207655407165e-05,6.030433269782259e-05,7.678156626820349e-06,6.522134746904311e-05,6.522866487552981e-05
47.23584391825001,41.51415608175001,2,0,-1.936857678663997,18.02852621123964,0.9663007390485093,-2.06207655407165e-05,5.924077001889805e-05,7.730405912388075e-06,6.360834914536876e-05,6.412880256480698e-05
46.51415608175001,42.23584391825,2,0,-1.830811026897723,18.38740121134513,0.8268242434867723,-2.056851625514882e-05,6.030433269782259e-05,6.614593947894178e-06,6.527708718731194e-05,6.48147488769052e-05
47.23584391825001,42.23584391825,2,0,-1.919441250141499,18.03288031837003,0.8333554041826974,-2.056851625514882e-05,5.924077001889729e-05,6.666843233461579e-06,6.366354854567086e-05,6.373395382108886e-05
45.26415608175001,39.01415608175,2,0,-1.76566845518055,19.21546679210798,0.8488873273139095,-2.102251249026414e-05,6.290202849888998e-05,6.791098618511276e-06,6.864215106537684e-05,6.920973623901642e-05
45.98584391825,39.01415608175,2,0,-1.834978419874908,18.93822693333055,0.8368751124504173,-2.102251249026414e-05,6.207030892255768e-05,6.695000899603338e-06,6.737769367956575e-05,6.818572524714456e-05
45.26415608175001,39.73584391825,2,0,-1.797701028149842,19.20745864886566,0.7449223802723725,-2.111861020917202e-05,6.290202849888998e-05,5.95937904217898e-06,6.851129601875891e-05,6.841976527877417e-05
45.98584391825,39.73584391825,2,0,-1.8670109928442,18.93021879008823,0.7329101654088939,-2.111861020917202e-05,6.207030892255768e-05,5.863281323271151e-06,6.724707640642371e-05,6.740569198442615e-05
45.26415608175001,37.76415608175,2,0,-1.633121098149776,19.40495629552325,0.8254531431428342,-2.074995255049788e-05,6.340235702419423e-05,6.603625145142674e-06,6.975182079367805e-05,7.114711063094143e-05
45.98584391825,37.76415608175,2,0,-1.696833355508571,19.15010726608807,0.8037308409122694,-2.074995255049788e-05,6.263780993588869e-05,6.429846727298155e-06,6.858764162084448e-05,7.010035341638867e-05
45.26415608175001,38.48584391825,2,0,-1.691047237431125,19.39047476070292,0.7298847571045342,-2.092373096834193e-05,6.340235702419423e-05,5.839078056836273e-06,6.952140071791617e-05,6.994052622358767e-05
45.98584391825,38.48584391825,2,0,-1.754759494789919,19.13562573126774,0.7081624548740234,-2.092373096834193e-05,6.263780993588869e-05,5.665299638992188e-06,6.835770475611575e-05,6.890775760169174e-05
46.51415608175001,37.76415608175,2,0,-1.675103590763865,18.96256554669496,1.04956277127077,-2.053038392780034e-05,6.202029262203498e-05,8.39650217016616e-06,6.795196761531214e-05,6.927402370735542e-05
47.23584391825001,37.76415608175,2,0,-1.751982056411099,18.65505168410603,1.038467954812798,-2.053038392780034e-05,6.109775103426817e-05,8.30774363850238e-06,6.654921435666933e-05,6.806320617292976e-05
46.51415608175001,38.48584391825,2,0,-1.704689767985112,18.95516900238965,0.9342450727999052,-2.061914245946408e-05,6.202029262203498e-05,7.473960582399242e-06,6.782745748443422e-05,6.809609804196834e-05
47.23584391825001,38.48584391825,2,0,-1.781568233632282,18.64765513980097,0.9231502563419327,-2.061914245946408e-05,6.109775103426893e-05,7.385202050735461e-06,6.64248787310273e-05,6.691137150815667e-05
46.51415608175001,39.01415608175,2,0,-1.76914344407798,18.74686793101061,1.055434249946124,-2.065875336585802e-05,6.140529213449633e-05,8.443473999568993e-06,6.685320727218683e-05,6.738347241221371e-05
47.23584391825001,39.01415608175,2,0,-1.851238450462701,18.41848790547173,1.05300169030323,-2.065875336585802e-05,6.042015205787968e-05,8.424013522425841e-06,6.53573151273746e-05,6.621568789844508e-05
46.51415608175001,39.73584391825,2,0,-1.77563026979226,18.74524622458204,0.9322917403690426,-2.067821384300086e-05,6.140529213449633e-05,7.458333922952341e-06,6.681699099631762e-05,6.661446865025257e-05
47.23584391825001,39.73584391825,2,0,-1.857725276176945,18.4168661990433,0.9298591807261757,-2.067821384300086e-05,6.042015205788012e-05,7.438873445809405e-06,6.532095099261374e-05,6.54668795954124e-05
45.26415608175001,36.51415608175,2,0,-1.446669514376477,19.60401223185929,0.7661303977263479,-2.031255223149215e-05,6.38901747534509e-05,6.129043181810783e-06,7.105504679806961e-05,7.446483663301257e-05
45.98584391825,36.51415608175,2,0,-1.503401541413551,19.37708412371099,0.7319259639712062,-2.031255223149215e-05,6.320939042900602e-05,5.85540771176965e-06,7.001628972358134e-05,7.337125094741107e-05
45.26415608175001,37.23584391825,2,0,-1.537881337723428,19.58120927602255,0.6810323571707512,-2.058618770153301e-05,6.38901747534509e-05,5.448258857366009e-06,7.069585620231379e-05,7.235939595141683e-05
45.98584391825,37.23584391825,2,0,-1.594613364760503,19.35428116787426,0.6468279234156773,-2.058618770153301e-05,6.320939042900602e-05,5.174623387325418e-06,6.965780757681524e-05,7.129634285375862e-05
45.26415608175001,35.26415608175,2,0,-1.194976530766386,19.80670237493228,0.6693664897643343,-1.966928679839825e-05,6.433742882439638e-05,5.354931918114675e-06,7.256540314053491e-05,8.097972515341323e-05
45.98584391825001,35.26415608175,2,0,-1.242962422415963,19.61475880833397,0.6196686676933881,-1.966928679839825e-05,6.376159812460146e-05,4.957349341547105e-06,7.168460286185478e-05,7.976299268565301e-05
45.26415608175001,35.98584391825,2,0,-1.327504056288783,19.77357049355168,0.5973876522900098,-2.006686937496544e-05,6.433742882439638e-05,4.779101218320078e-06,7.204488853673557e-05,7.677464688110605e-05
45.98584391825,35.98584391825,2,0,-1.37548994793836,19.58162692695337,0.5476898302190364,-2.006686937496544e-05,6.376159812460146e-05,4.381518641752291e-06,7.116494633704274e-05,7.563988293239366e-05
46.51415608175002,35.26415608175,2,0,-1.31931759469642,19.44504743436119,0.9162961359551974,-1.977785425051749e-05,6.327960586571292e-05,7.33036908764158e-06,7.082881915468337e-05,7.878389446357404e-05
47.23584391825002,35.26415608175,2,0,-1.381067314729955,19.19804855422705,0.8793616395386036,-1.977785425051749e-05,6.25386092253105e-05,7.034893116308828e-06,6.969719327820249e-05,7.732568084290042e-05
46.51415608175001,35.98584391825,2,0,-1.417809585140692,19.42042443675012,0.8236715559050171,-2.007333022185031e-05,6.327960586571292e-05,6.589372447240137e-06,7.043888940989707e-05,7.473217363132179e-05
47.23584391825001,35.98584391825,2,0,-1.479559305174191,19.17342555661612,0.7867370594883826,-2.007333022185031e-05,6.253860922531094e-05,6.293896475907061e-06,6.930806508978707e-05,7.338702965089752e-05
46.51415608175001,36.51415608175,2,0,-1.528470527361251,19.19655302082392,1.003773036489426,-2.024834810421514e-05,6.265174608852554e-05,8.030184291915403e-06,6.927145176740294e-05,7.250021264405453e-05
47.23584391825001,36.51415608175,2,0,-1.598697889558336,18.91564357203558,0.9809378145467712,-2.024834810421514e-05,6.180901774216051e-05,7.847502516374169e-06,6.79875758369015e-05,7.12140774294462e-05
46.51415608175001,37.23584391825,2,0,-1.589364452541687,19.18132953952881,0.8984319931937029,-2.043102987975645e-05,6.265174608852554e-05,7.187455945549624e-06,6.902682487273672e-05,7.04541026583218e-05
47.23584391825001,37.23584391825,2,0,-1.659591814738781,18.90042009074044,0.8755967712510215,-2.043102987975645e-05,6.180901774216041e-05,7.004774170008173e-06,6.774346987421752e-05,6.921611274977203e-05
45.26415608175001,34.01415608175,2,0,-0.8757414085311632,20.0065070948738,0.5407056040103111,-1.880757818319877e-05,6.47214158304211e-05,4.325644832082489e-06,7.426955822526662e-05,9.525669224342434e-05
45.98584391825001,34.01415608175,2,0,-0.914524174260416,19.85137603195679,0.4751702843427903,-1.880757818319877e-05,6.425602264167006e-05,3.801362274742323e-06,7.355589786118031e-05,9.369806584989944e-05
45.26415608175001,34.73584391825,2,0,-1.050502260977987,19.9628168817621,0.4825314554166211,-1.933186074053924e-05,6.47214158304211e-05,3.860251643332969e-06,7.358179615812917e-05,8.593197428256766e-05
45.98584391825001,34.73584391825,2,0,-1.08928502670724,19.80768581884509,0.416996135749019,-1.933186074053924e-05,6.425602264167006e-05,3.335969085992152e-06,7.286900590969211e-05,8.460166821502159e-05
45.26415608175001,32.76415608175,2,0.2010591564826073,0.2298559341692892,18.49030998577997,0.3556791275399891,-1.759417998633867e-05,7.382912976068969e-05,3.561506516293117e-06,8.98178301162413e-05,0.0001239826796868907
45.98584391825001,32.76415608175,2,0.1884939301421261,0.1290640247397485,18.36348591531619,0.2854187025865351,-1.759417998633867e-05,7.228523098969997e-05,2.813718474209545e-06,8.744662385647636e-05,0.000122151490257439
45.26415608175001,33.48584391825,2,0.05374963990907422,0.03637210121412959,21.84060571944488,0.2386452569393839,-1.834196802842213e-05,7.382912976068969e-05,2.017607745302859e-06,8.881687006119323e-05,0.00010545234802763
45.98584391825001,33.48584391825,2,0.03766666837483823,-0.08682180331685885,21.71657178842465,0.1527487281953385,-1.834196802842213e-05,7.228523098969997e-05,1.26981970321972e-06,8.644860938526399e-05,0.0001037595103417844
46.51415608175002,32.76415608175,2,0.1775897168173924,-0.0544958781307745,18.25344180208869,0.565377808036536,-1.796808789221854e-05,7.107718819246477e-05,5.499715357143702e-06,8.510978505562874e-05,0.0001206056999546668
47.23584391825002,32.76415608175,2,0.1601536187218001,-0.1785862576457511,18.14869696287747,0.5095153923030896,-1.796808789221854e-05,6.932065266354885e-05,4.853415135540719e-06,8.241446658018959e-05,0.0001182137117389183
46.51415608175002,33.48584391825,2,0.02401926104579821,-0.2749308675969964,21.6093818627472,0.45665892684904,-1.861438811382184e-05,7.107718819246477e-05,3.743179828227892e-06,8.424364825270885e-05,0.0001023651200749691
47.23584391825002,33.48584391825,2,0.002576094260322348,-0.4269722211390956,21.50015573474663,0.3861127191056445,-1.861438811382184e-05,6.932065266354885e-05,3.096879606624692e-06,8.155137971038934e-05,0.0001002484127061339
46.51415608175002,34.01415608175,2,0,-1.018897276349705,19.70437726471328,0.7870042666101139,-1.902397309608967e-05,6.386912506816224e-05,6.296034132880911e-06,7.269916431155738e-05,9.2429620592039e-05
47.23584391825002,34.01415608175,2,0,-1.068199829636558,19.50716705156587,0.7279159216078943,-1.902397309608967e-05,6.327749442872001e-05,5.823327372863154e-06,7.179250396376191e-05,9.052279009432208e-05
46.51415608175002,34.73584391825,2,0,-1.176466196355423,19.66498503471185,0.7130504366797399,-1.949667985610683e-05,6.386912506816224e-05,5.704403493437919e-06,7.207838448209923e-05,8.352591108464326e-05
47.23584391825002,34.73584391825,2,0,-1.225768749642276,19.46777482156443,0.6539620916776288,-1.949667985610683e-05,6.327749442872001e-05,5.23169673342103e-06,7.117273913140101e-05,8.19171940152663e-05
45.26415608175001,31.51415608175,2,0.430917702115551,1.760927808932869,18.31378577092772,0.1123486212939162,-1.584315601042942e-05,0.0001005045710127427,1.579365539382542e-06,0.0001332195465511968,0.0001708598962002595
45.98584391825001,31.51415608175,2,0.4258348853183185,1.705943230847033,18.19450728294811,0.03573433044183257,-1.584315601042942e-05,9.902668634314074e-05,4.978962257105261e-07,0.0001309413635590629,0.0001694424113414288
45.26415608175001,32.23584391825,2,0.3048489969701895,1.900431022398187,22.30818692703358,0.008818066052020549,-1.692462532410118e-05,0.0001005045710127427,1.014808697803737e-07,0.0001317421706929383,0.0001415085793981011
45.98584391825001,32.23584391825,2,0.2956173316236469,1.838919214884008,22.25744279336152,-0.08628585938576949,-1.692462532410118e-05,9.902668634314074e-05,-9.799884438913171e-07,0.0001294661588747522,0.0001397511705362793
45.26415608175001,30.26415608175,2,0.5956128503621791,2.949108903229218,18.44656851596998,-0.06564645620088065,-1.315597275335604e-05,0.0001401373218196359,-1.298685307081103e-06,0.0001980651445979534,0.0002344677606045666
45.98584391825001,30.26415608175,2,0.5956637018660289,2.921472857222677,18.33518808069492,-0.1504161936172016,-1.315597275335604e-05,0.0001393281380683256,-2.976061151301599e-06,0.0001968178399669047,0.0002344947442047912
45.26415608175001,30.98584391825,2,0.5081975451016993,3.31163082293076,22.36536986003585,-0.1295818971901149,-1.483334859757622e-05,0.0001401373218196359,-2.107869058391113e-06,0.0001957400611724688,0.0001957682337328151
45.98584391825001,30.98584391825,2,0.5056425540898679,3.295499764241836,22.34821946570787,-0.2339080002749344,-1.483334859757622e-05,0.0001393281380683256,-3.785244902611718e-06,0.0001944937819444044,0.000194828875393155
46.51415608175002,30.26415608175,2,0.5952196944459914,2.811294521379252,18.22467967852934,0.03837587801791369,-1.379415252619019e-05,0.0001385194353204747,7.584534621147632e-07,0.000194681959659464,0.0002342593484756827
47.23584391825002,30.26415608175,2,0.5939508275871822,2.772726804618407,18.09228749021826,-0.04861356484093052,-1.379415252619019e-05,0.0001371192020763398,-9.577867537975248e-07,0.0001925207634045764,0.0002335892517836217
46.51415608175002,30.98584391825,2,0.502980619338897,3.167581731212207,22.30653416796181,-0.03987212372250919,-1.551039274210277e-05,0.0001385194353204747,-6.417797820193472e-07,0.0001923054150800009,0.0001938597657464448
47.23584391825002,30.98584391825,2,0.4982227289646549,3.139354071094567,22.28586946290171,-0.14790010495112,-1.551039274210277e-05,0.0001371192020763398,-2.358019997931744e-06,0.0001901460702644544,0.0001921514672930749
46.51415608175002,31.51415608175,2,0.4210446226585541,1.536875150483601,18.0705143139812,0.2710614529194404,-1.647520921808805e-05,9.775562659810081e-05,3.745524626290204e-06,0.0001281258699824436,0.0001681279189352516
47.23584391825002,31.51415608175,2,0.4129561074855554,1.460764534952999,17.93264682653233,0.2073613094007241,-1.647520921808805e-05,9.576091146465307e-05,2.825837209719331e-06,0.0001250512343661868,0.00016595414375409
46.51415608175002,32.23584391825,2,0.28741935879124,1.673141724358143,22.18665014453916,0.1559491188804787,-1.73948966346588e-05,9.775562659810081e-05,1.750809492842131e-06,0.0001268695472602231,0.0001382267888007415
47.23584391825002,32.23584391825,2,0.2740979463955621,1.583756460823452,22.1187648299635,0.07541415274515144,-1.73948966346588e-05,9.576091146465307e-05,8.311220762711492e-07,0.0001237975168833375,0.0001358195093107668
45.26415608175001,29.01415608175,2,0.7022040596365947,3.806715504222788,18.73426642465448,-0.180214675936088,-9.422302811739305e-06,0.0001910848082283287,-4.841293020077281e-06,0.000281956536663758,0.0003091231693319305
45.98584391825,29.01415608175,2,0.7049261954148942,3.788979133905499,18.63125995888807,-0.2628029699119825,-9.422302811739305e-06,0.0001917786251506983,-7.125077613216171e-06,0.0002830330792373792,0.0003116617279505079
45.26415608175001,29.73584391825,2,0.6462677548977178,4.252464658598424,22.18588435825765,-0.183387003943771,-1.170608740487835e-05,0.0001910848082283287,-4.147476097707617e-06,0.0002787589760188,0.0002648411240554862
45.98584391825001,29.73584391825,2,0.6476775818658229,4.255886739502904,22.17894323473259,-0.2832346647813043,-1.170608740487835e-05,0.0001917786251506983,-6.431260690846832e-06,0.0002798348760071929,0.000265800012695984
45.26415608175001,27.76415608175,2,0.767504871110999,4.406849113401327,19.12104231231125,-0.2406248037621748,-5.13953428906131e-06,0.0002480131793909717,-8.279736609090164e-06,0.0003759232729985279,0.0003843388161779603
45.98584391825,27.76415608175,2,0.7713945310479988,4.390457113894281,19.03048551350931,-0.3087031823577716,-5.13953428906131e-06,0.0002510228133000753,-1.080300252738356e-05,0.0003805791269539326,0.0003900034646651237
45.26415608175001,28.48584391825,2,0.7335516637083803,4.826311463398365,21.85742131182442,-0.1755262620621708,-7.662800207354815e-06,0.0002480131793909717,-5.270102699986463e-06,0.0003723663332479206,0.0003411424794325339
45.98584391825,28.48584391825,2,0.7368823134024793,4.831972405420364,21.84816245095421,-0.2563216402054391,-7.662800207354815e-06,0.0002510228133000753,-7.79336861827986e-06,0.0003770200739288874,0.0003449419426017609
46.51415608175001,27.76415608175,2,0.7743007799757473,4.40173129641091,18.96800795185517,-0.2089741302518416,-4.82441283072321e-06,0.0002533293664136894,-7.407172438766464e-06,0.0003845782583812949,0.0003943473162311725
47.23584391825001,27.76415608175,2,0.7783404480562675,4.383755444616572,18.87174326152842,-0.2861546737509242,-4.82441283072321e-06,0.0002566213528016022,-1.032771820538782e-05,0.0003896706882240173,0.0004005502909234966
46.51415608175001,28.48584391825,2,0.7392881513623911,4.830763128147128,21.84705560450777,-0.1341097203507111,-7.744958597344419e-06,0.0002533293664136894,-4.115186050853391e-06,0.0003804618871618654,0.0003477399395890444
47.23584391825001,28.48584391825,2,0.7425310984541107,4.84130615739518,21.85783210780155,-0.2264352678270928,-7.744958597344419e-06,0.0002566213528016028,-7.035731817474963e-06,0.0003855516906500922,0.0003515847463488256
46.51415608175001,29.01415608175,2,0.7067952647303173,3.74395983760547,18.54327638741199,-0.1183589137792067,-9.733640989689647e-06,0.0001921637333647109,-3.22938614672353e-06,0.0002831845189727684,0.0003134291968207525
47.23584391825001,29.01415608175,2,0.7091858318412007,3.722118122698175,18.42682337525893,-0.2087326586233294,-9.733640989689647e-06,0.0001925220516494838,-5.742021716338133e-06,0.0002837419818687104,0.0003157194529566845
46.51415608175002,29.73584391825,2,0.6484055590386759,4.195067446875105,22.16242323840831,-0.1261814374855892,-1.224627655930415e-05,0.0001921637333647109,-2.871067861951078e-06,0.0002796686897805117,0.0002662978809704951
47.23584391825002,29.73584391825,2,0.6489903654814941,4.198570895755221,22.16748490713825,-0.2362164717337465,-1.224627655930415e-05,0.0001925220516494838,-5.383703431565898e-06,0.0002802258006425608,0.0002666991937514959
47.76415608175,49.01415608175001,2,0,-1.633378918547037,17.32543984853816,0.1673201499268872,-1.908716441818104e-05,5.674811065015974e-05,1.338561199415098e-06,6.174303465532915e-05,6.136771403753651e-05
48.48584391825001,49.01415608175001,2,0,-1.732521244573639,16.92887054443175,0.1687962571847017,-1.908716441818104e-05,5.555840273784051e-05,1.350370057477614e-06,5.99357358150836e-05,6.035931259977444e-05
47.76415608175,49.73584391825,2,0,-1.629442632525999,17.32642392004342,0.01860666088690293,-1.907535556011793e-05,5.674811065015974e-05,1.488532870952235e-07,6.175682271759412e-05,6.134841091749732e-05
48.48584391825001,49.73584391825,2,0,-1.728584958552537,16.92985461593727,0.02008276814475813,-1.907535556011793e-05,5.555840273784127e-05,1.60662145158065e-07,5.99494123553573e-05,6.034295984181283e-05
47.76415608175,47.76415608175001,2,0,-1.644519402017905,17.34623023205091,0.3519035304358779,-1.913944627209802e-05,5.682355226417721e-05,2.815228243487023e-06,6.17953311783203e-05,6.145540283749839e-05
48.48584391825001,47.76415608175001,2,0,-1.743917594678423,16.94863746140884,0.3562921303608169,-1.913944627209802e-05,5.563077395225101e-05,2.850337042886535e-06,5.998375171365033e-05,6.04339422039642e-05
47.76415608175,48.48584391825001,2,0,-1.632816468884527,17.34915596533425,0.2028062414450617,-1.910433747269788e-05,5.682355226417721e-05,1.622449931560493e-06,6.183629688088374e-05,6.139638243609656e-05
48.48584391825001,48.48584391825001,2,0,-1.73221466154498,16.95156319469244,0.2071948413701497,-1.910433747269788e-05,5.563077395225177e-05,1.657558730961198e-06,6.002438448516979e-05,6.038369125023761e-05
49.01415608175001,47.76415608175001,2,0,-1.4482659619293,16.74175348292152,0.3856952545201785,-1.802785386451098e-05,5.473222391489231e-05,3.085562036161428e-06,6.00463352818411e-05,5.967229528127331e-05
49.73584391825001,47.76415608175001,2,0,-1.553441465544883,16.3210514684592,0.3907396348277781,-1.802785386451098e-05,5.347011787150532e-05,3.125917078622225e-06,5.812776031836207e-05,5.861289782449902e-05
49.01415608175001,48.48584391825001,2,0,-1.434814281109021,16.74511640312659,0.2279319990969265,-1.798749882205014e-05,5.473222391489231e-05,1.823455992775412e-06,6.009336118909873e-05,5.962947116603321e-05
49.73584391825001,48.48584391825001,2,0,-1.539989784724567,16.32441438866441,0.2329763794045939,-1.798749882205014e-05,5.347011787150576e-05,1.863811035236751e-06,5.817436663383638e-05,5.858159476166924e-05
49.01415608175001,49.01415608175001,2,0,-1.433964198611404,16.72388943489149,0.1810830732204663,-1.796779698346968e-05,5.466361755054189e-05,1.448664585763731e-06,6.001339233961897e-05,5.960872308288369e-05
49.73584391825001,49.01415608175001,2,0,-1.538538422056784,16.30559254110997,0.1827669959136733,-1.796779698346968e-05,5.340872686919733e-05,1.462135967309386e-06,5.810525740547698e-05,5.856647582478443e-05
49.01415608175001,49.73584391825,2,0,-1.429473738096118,16.72501205002031,0.02422173805245124,-1.795432560192383e-05,5.466361755054189e-05,1.937739044196099e-07,6.002909908145049e-05,5.959486238079718e-05
49.73584391825001,49.73584391825,2,0,-1.534047961541443,16.30671515623901,0.02590566074568527,-1.795432560192383e-05,5.340872686919798e-05,2.072452859654822e-07,5.812082508954484e-05,5.855647318388671e-05
47.76415608175,46.51415608175,2,0,-1.662228035392492,17.38939335388948,0.5319433587486602,-1.923064439636756e-05,5.697584116076031e-05,4.255546869989281e-06,6.191758876545785e-05,6.161654231270436e-05
48.48584391825001,46.51415608175,2,0,-1.762086875965755,16.98995799159643,0.539112644508009,-1.923064439636756e-05,5.577753507388116e-05,4.312901156064072e-06,6.009824102213472e-05,6.057228981101068e-05
47.76415608175,47.23584391825001,2,0,-1.643109940034193,17.39417287772905,0.3821550978886311,-1.917329011029266e-05,5.697584116076031e-05,3.057240783109049e-06,6.198441433331406e-05,6.151439449863936e-05
48.48584391825001,47.23584391825001,2,0,-1.742968780607473,16.99473751543593,0.3893243836479801,-1.917329011029266e-05,5.577753507388095e-05,3.11459506918384e-06,6.016451837743953e-05,6.048447703601545e-05
47.76415608175,45.26415608175,2,0,-1.685205667577125,17.45605509611084,0.7039307319413162,-1.935750221313547e-05,5.720754084161637e-05,5.631445855530529e-06,6.211735809903957e-05,6.186055905776003e-05
48.48584391825001,45.26415608175001,2,0,-1.785625557168581,17.054375537745,0.7136180235133927,-1.935750221313546e-05,5.600250216651885e-05,5.708944188107141e-06,6.028859850589009e-05,6.078448757853497e-05
47.76415608175,45.98584391825,2,0,-1.659372890051565,17.46251329049223,0.5533008975540311,-1.928000388055879e-05,5.720754084161637e-05,4.426407180432249e-06,6.220743058409794e-05,6.170929682676613e-05
48.48584391825001,45.98584391825,2,0,-1.759792779643017,17.06083373212642,0.5629881891261348,-1.928000388055879e-05,5.600250216651896e-05,4.503905513009079e-06,6.037792181052171e-05,6.065267739359711e-05
49.01415608175001,45.26415608175001,2,0,-1.504501745797827,16.83866935506959,0.7827415961233033,-1.828534107060872e-05,5.508734333286094e-05,6.261932768986426e-06,6.027862773592025e-05,5.99761620559864e-05
49.73584391825001,45.26415608175001,2,0,-1.612436892093961,16.40692876988506,0.7943383819977484,-1.828534107060872e-05,5.379212157730735e-05,6.354707055981988e-06,5.831187873495448e-05,5.884384713846023e-05
49.01415608175001,45.98584391825,2,0,-1.473576983465933,16.84640054565256,0.620838876679063,-1.819256678361304e-05,5.508734333286094e-05,4.966711013432504e-06,6.038641611570477e-05,5.986105598813423e-05
49.73584391825001,45.98584391825,2,0,-1.58151212976213,16.41465996046778,0.6324356625535352,-1.819256678361304e-05,5.379212157730659e-05,5.059485300428282e-06,5.841866934720256e-05,5.875492552112762e-05
49.01415608175001,46.51415608175,2,0,-1.472041863590834,16.77945591034546,0.5871818742630454,-1.813409869176704e-05,5.487189240397814e-05,4.697454994104363e-06,6.013198650702633e-05,5.979125035437673e-05
49.73584391825001,46.51415608175,2,0,-1.578371505332523,16.35413734337871,0.595552313082534,-1.813409869176704e-05,5.359593670307787e-05,4.764418504660272e-06,5.819326664416603e-05,5.870166337773974e-05
49.01415608175001,47.23584391825001,2,0,-1.449720693405464,16.78503620289181,0.4276874116506064,-1.806713518121093e-05,5.487189240397814e-05,3.421499293204851e-06,6.020993103764845e-05,5.971564388414077e-05
49.73584391825001,47.23584391825001,2,0,-1.556050335147035,16.35971763592552,0.4360578504700543,-1.806713518121093e-05,5.359593670307928e-05,3.488462803760434e-06,5.827050511170183e-05,5.864507011321044e-05
47.76415608175,44.01415608175001,2,0,-1.711251258723063,17.54776494368045,0.8638840914258902,-1.951421598285816e-05,5.752184882675589e-05,6.911072731407121e-06,6.240613200512533e-05,6.220225030388448e-05
48.48584391825001,44.01415608175001,2,0,-1.812171240440012,17.14408501681266,0.8756286946828693,-1.951421598285816e-05,5.631080904615251e-05,7.005029557462955e-06,6.056915665623205e-05,6.10864138082205e-05
47.76415608175,44.73584391825,2,0,-1.679932316704416,17.55559467918512,0.7125041188504943,-1.942025915680222e-05,5.752184882675589e-05,5.700032950803954e-06,6.251489042732414e-05,6.199264554385589e-05
48.48584391825001,44.73584391825,2,0,-1.780852298421364,17.15191475231732,0.7242487221074869,-1.942025915680222e-05,5.631080904615251e-05,5.793989776859895e-06,6.067699354855752e-05,6.090070690055766e-05
47.76415608175,42.76415608175,2,0,-1.736911240181432,17.66631843334735,1.007222107259504,-1.969117071525846e-05,5.792174797885664e-05,8.057776858076031e-06,6.279966510655392e-05,6.266414970553163e-05
48.48584391825001,42.76415608175,2,0,-1.838048509015978,17.26176935800916,1.020267632146222,-1.969117071525846e-05,5.670810075284209e-05,8.162141057169777e-06,6.095955726242784e-05,6.150207207512616e-05
47.76415608175,43.48584391825001,2,0,-1.702123173816778,17.67501544993851,0.855516204007617,-1.958680651616449e-05,5.792174797885664e-05,6.844129632060936e-06,6.291964453370853e-05,6.238217930171403e-05
48.48584391825001,43.48584391825001,2,0,-1.803260442651333,17.27046637460029,0.8685617288943623,-1.958680651616449e-05,5.670810075284198e-05,6.948493831154898e-06,6.107849377401561e-05,6.124754912109731e-05
49.01415608175,42.76415608175,2,0,-1.588390360755916,17.03194422187881,1.141701995196342,-1.870840453192198e-05,5.577293379861693e-05,9.133615961570739e-06,6.081171861030812e-05,6.06185582228455e-05
49.73584391825,42.76415608175,2,0,-1.700163394639047,16.58485208634629,1.158809284538355,-1.870840453192198e-05,5.443165739201937e-05,9.270474276306838e-06,5.877817004192761e-05,5.936683111952669e-05
49.01415608175001,43.48584391825001,2,0,-1.542770922510591,17.04334908144014,0.9740424443718506,-1.857154621718601e-05,5.577293379861693e-05,7.792339554974805e-06,6.096960270165142e-05,6.038826873383735e-05
49.73584391825001,43.48584391825001,2,0,-1.654543956393659,16.59625694590788,0.9911497337138087,-1.857154621718601e-05,5.443165739202013e-05,7.929197869710469e-06,5.89345036550778e-05,5.917530123841256e-05
49.01415608175001,44.01415608175001,2,0,-1.54414941886355,16.92181792049072,0.9689809225599298,-1.847873247675593e-05,5.538513688066113e-05,7.751847380479439e-06,6.049917215957486e-05,6.024360498171037e-05
49.73584391825001,44.01415608175001,2,0,-1.653978052761855,16.4825033848975,0.9835701150312618,-1.847873247675593e-05,5.406719327388147e-05,7.868560920250094e-06,5.849941858434145e-05,5.905684494218329e-05
49.01415608175001,44.73584391825,2,0,-1.505244905606724,16.93154404880492,0.8042379717125135,-1.836201893698545e-05,5.538513688066113e-05,6.433903773700109e-06,6.063439309895251e-05,6.007866574987728e-05
49.73584391825001,44.73584391825,2,0,-1.615073539504984,16.49222951321189,0.818827164183859,-1.836201893698545e-05,5.406719327388202e-05,6.550617313470872e-06,5.863335335977992e-05,5.892474620350885e-05
47.76415608175,41.51415608175001,2,0,-1.757022235147272,17.81348916382322,1.128709699398675,-1.987326248352984e-05,5.840878311235212e-05,9.029677595189401e-06,6.331829357531549e-05,6.3282209259937e-05
48.48584391825,41.51415608175001,2,0,-1.857811220237489,17.41033322346235,1.141876714792555,-1.987326248352984e-05,5.719931529126951e-05,9.135013718340442e-06,6.148507277340236e-05,6.206913564830912e-05
47.76415608175,42.23584391825,2,0,-1.721910194096862,17.82226717408582,0.9775262217633085,-1.976792636037861e-05,5.840878311235212e-05,7.820209774106468e-06,6.343786466347538e-05,6.290531200599378e-05
48.48584391825,42.23584391825,2,0,-1.822699179187061,17.41911123372503,0.9906932371572157,-1.976792636037861e-05,5.719931529126973e-05,7.925545897257726e-06,6.160356117924958e-05,6.172221552159799e-05
47.76415608175,40.26415608175,2,0,-1.764184437164241,17.99065981148064,1.222536819459418,-2.003791804811008e-05,5.898145894646942e-05,9.780294555675347e-06,6.398715249936993e-05,6.411981074456014e-05
48.48584391825,40.26415608175,2,0,-1.863723781202942,17.59250243532583,1.234075758195936,-2.003791804811008e-05,5.778698681800502e-05,9.872606065567486e-06,6.217669112289493e-05,6.285236260551563e-05
47.76415608175,40.98584391825,2,0,-1.733413933867001,17.99835243730494,1.073227803401395,-1.994560653821836e-05,5.898145894646942e-05,8.585822427211159e-06,6.408903475910968e-05,6.360763321613434e-05
48.48584391825,40.98584391825,2,0,-1.832953277905711,17.60019506115011,1.084766742137871,-1.994560653821836e-05,5.778698681800491e-05,8.678133937102973e-06,6.22775680772122e-05,6.237195764676381e-05
49.01415608175001,40.26415608175,2,0,-1.671302593666925,17.34691643507068,1.424868463414659,-1.92257014477907e-05,5.68471746671597e-05,1.139894770731727e-05,6.181523841223227e-05,6.187323443445714e-05
49.73584391825001,40.26415608175,2,0,-1.78573112844404,16.88920229596222,1.443832686439731,-1.92257014477907e-05,5.547403224983433e-05,1.155066149151785e-05,5.973594228082641e-05,6.046565466293416e-05
49.01415608175,40.98584391825,2,0,-1.620731332266693,17.35955925042101,1.253225661249069,-1.907398766359022e-05,5.684717466716057e-05,1.002580528999255e-05,6.198700195152499e-05,6.142209451165897e-05
49.73584391825,40.98584391825,2,0,-1.73515986704388,16.90184511131226,1.272189884274127,-1.907398766359022e-05,5.547403224983433e-05,1.017751907419302e-05,5.990586709739024e-05,6.006269573557608e-05
49.01415608175,41.51415608175001,2,0,-1.632979223092325,17.17248421751891,1.295733575219538,-1.896352088791056e-05,5.625833287453436e-05,1.03658686017563e-05,6.1240225593877e-05,6.11398673896164e-05
49.73584391825,41.51415608175001,2,0,-1.7464245523069,16.71870290066061,1.314494457659246,-1.896352088791056e-05,5.489698892395946e-05,1.051595566127397e-05,5.917774626974098e-05,5.981413290452677e-05
49.01415608175,42.23584391825,2,0,-1.582950203253003,17.18499147247901,1.125565581397566,-1.881343382839282e-05,5.625833287453523e-05,9.004524651180529e-06,6.141219654118906e-05,6.081994847568755e-05
49.73584391825,42.23584391825,2,0,-1.696395532467724,16.73121015562013,1.144326463837315,-1.881343382839282e-05,5.489698892395859e-05,9.154611710698521e-06,5.93479638960056e-05,5.953800554855609e-05
47.76415608175002,39.01415608175,2,0,-1.748276515231301,18.19836845892895,1.282623731282449,-2.015317961588332e-05,5.963340028075767e-05,1.026098985025959e-05,6.4836097940394e-05,6.53028892049768e-05
48.48584391825001,39.01415608175,2,0,-1.845301994524699,17.81026654175535,1.290079047437998,-2.015317961588332e-05,5.846909452923688e-05,1.032063237950398e-05,6.307061003050113e-05,6.397686131100156e-05
47.76415608175,39.73584391825,2,0,-1.728395672149905,18.2033386696993,1.137085512342446,-2.009353708663913e-05,5.963340028075767e-05,9.096684098739566e-06,6.489592160650976e-05,6.457405321772037e-05
48.48584391825001,39.73584391825,2,0,-1.825421151443277,17.81523675252581,1.144540828497995,-2.009353708663913e-05,5.846909452923721e-05,9.156326627983956e-06,6.312965342550276e-05,6.32823952462645e-05
47.76415608175002,37.76415608175,2,0,-1.696249789158628,18.43589568217216,1.303351366788649,-2.017671587104534e-05,6.035186601427781e-05,1.042681093430919e-05,6.58992072291833e-05,6.710867645877e-05
48.48584391825001,37.76415608175,2,0,-1.789187637786735,18.06414428765974,1.303507437670317,-2.017671587104534e-05,5.923661183074053e-05,1.042805950136254e-05,6.420636501409653e-05,6.571167031666607e-05
47.76415608175002,38.48584391825,2,0,-1.695833600140718,18.43599972942664,1.163944593846381,-2.017546730399161e-05,6.035186601427781e-05,9.311556750771048e-06,6.588477970914692e-05,6.598203945551207e-05
48.48584391825001,38.48584391825,2,0,-1.788771448768833,18.06424833491418,1.164100664728131,-2.017546730399161e-05,5.923661183074042e-05,9.312805317825048e-06,6.419153729934953e-05,6.462778360428846e-05
49.01415608175001,37.76415608175,2,0,-1.685767230793919,17.80836294266298,1.579810022433372,-1.964114549267093e-05,5.833537520115667e-05,1.263848017946697e-05,6.356339407042909e-05,6.461224072297859e-05
49.73584391825001,37.76415608175,2,0,-1.798014737313143,17.35937291658609,1.591314835397572,-1.964114549267093e-05,5.698840512292599e-05,1.273051868318058e-05,6.152286286099073e-05,6.300554935565581e-05
49.01415608175001,38.48584391825,2,0,-1.655087729556133,17.81603281797243,1.411438762654563,-1.954910698895757e-05,5.833537520115667e-05,1.12915101012365e-05,6.365715350653098e-05,6.356780577044633e-05
49.73584391825001,38.48584391825,2,0,-1.76733523607533,17.36704279189564,1.422943575618682,-1.954910698895757e-05,5.698840512292631e-05,1.138354860494946e-05,6.16152385129146e-05,6.20261483245933e-05
49.01415608175001,39.01415608175,2,0,-1.693538758432957,17.55825650514482,1.522023261133826,-1.946592923110132e-05,5.754125182320978e-05,1.217618608907061e-05,6.257452284669808e-05,6.294309410493906e-05
49.73584391825001,39.01415608175,2,0,-1.807756063673569,17.10138728418237,1.538924180736277,-1.946592923110132e-05,5.617064416032244e-05,1.231139344589022e-05,6.049927825634272e-05,6.144481746863294e-05
49.01415608175001,39.73584391825,2,0,-1.648469639493255,17.56952378487975,1.350697303272963,-1.933072187428221e-05,5.754125182320978e-05,1.08055784261837e-05,6.272376210374894e-05,6.228078504715193e-05
49.73584391825001,39.73584391825,2,0,-1.762686944733777,17.11265456391766,1.367598222875373,-1.933072187428221e-05,5.617064416032352e-05,1.094078578300298e-05,6.06467802042509e-05,6.083599306513672e-05
47.76415608175002,36.51415608175,2,0,-1.5924164593876,18.70112382253894,1.281033285185253,-2.005663172807146e-05,6.111752939963466e-05,1.024826628148203e-05,6.721417500659709e-05,7.019076722013213e-05
48.48584391825001,36.51415608175,2,0,-1.679620870915593,18.35230617642696,1.270003004388371,-2.005663172807146e-05,6.007107646129875e-05,1.016002403510696e-05,6.562299005488213e-05,6.86811669508716e-05
47.76415608175002,37.23584391825,2,0,-1.621830541512553,18.6937703020077,1.150226667893169,-2.014487397444632e-05,6.111752939963466e-05,9.201813343145352e-06,6.708600708839186e-05,6.823640166442728e-05
48.48584391825001,37.23584391825,2,0,-1.709034953040628,18.3449526558954,1.1391963870963,-2.014487397444632e-05,6.007107646129777e-05,9.113571096770398e-06,6.549492235744705e-05,6.679777111096298e-05
47.76415608175002,35.26415608175,2,0,-1.421623877287837,18.99208299754844,1.217505964434993,-1.974286280535983e-05,6.191196469398528e-05,9.740047715479949e-06,6.882008624586034e-05,7.615147697181014e-05
48.48584391825001,35.26415608175,2,0,-1.50254288208255,18.66840697836959,1.191749670108796,-1.974286280535983e-05,6.094093663644874e-05,9.53399736087037e-06,6.734002404174406e-05,7.440170595808468e-05
47.76415608175002,35.98584391825,2,0,-1.490307328824468,18.97491213466429,1.096127457242912,-1.994891315996972e-05,6.191196469398528e-05,8.769019657943293e-06,6.854121301152044e-05,7.231160525671087e-05
48.48584391825001,35.98584391825,2,0,-1.571226333619153,18.65123611548555,1.070371162916687,-1.994891315996972e-05,6.094093663644906e-05,8.562969303333497e-06,6.706177157589219e-05,7.071863515239332e-05
49.01415608175001,35.26415608175,2,0,-1.500882398878019,18.41952669457076,1.554114351587233,-1.953844503206627e-05,6.014319134172883e-05,1.243291481269786e-05,6.64366499066366e-05,7.30043278570856e-05
49.73584391825001,35.26415608175,2,0,-1.601586783814097,18.01670915482645,1.539596530506198,-1.953844503206627e-05,5.89347387224959e-05,1.231677224404959e-05,6.459888450260649e-05,7.093639090133513e-05
49.01415608175001,35.98584391825,2,0,-1.539596588427449,18.4098481471834,1.403057774183305,-1.965458760071456e-05,6.014319134172883e-05,1.122446219346644e-05,6.626627341246502e-05,6.945019392823688e-05
49.73584391825001,35.98584391825,2,0,-1.640300973363455,18.00703060743938,1.388539953102257,-1.965458760071456e-05,5.893473872249676e-05,1.110831962481806e-05,6.442861741304937e-05,6.757771816159681e-05
49.01415608175001,36.51415608175,2,0,-1.629643906283714,18.09691640450846,1.59172229743106,-1.969239362371465e-05,5.921384761945403e-05,1.273377837944848e-05,6.483257358470888e-05,6.748261135280665e-05
49.73584391825001,36.51415608175,2,0,-1.737605557233201,17.66506980071051,1.593329121553046,-1.969239362371465e-05,5.791830780806019e-05,1.274663297242437e-05,6.286724112506988e-05,6.57176968323184e-05
49.01415608175001,37.23584391825,2,0,-1.625359041958544,18.09798762058975,1.429779821006817,-1.967953903073914e-05,5.921384761945403e-05,1.143823856805453e-05,6.482590820023948e-05,6.566120971726425e-05
49.73584391825001,37.23584391825,2,0,-1.733320692908085,17.66614101679159,1.431386645128763,-1.967953903073914e-05,5.791830780805954e-05,1.14510931610301e-05,6.285981918165223e-05,6.399469679709028e-05
47.76415608175002,34.01415608175,2,0,-1.172115545904127,19.30935188069241,1.116663565690033,-1.919825125144713e-05,6.272761845493901e-05,8.933308525520267e-06,7.075816782230475e-05,8.89787591752903e-05
48.48584391825001,34.01415608175,2,0,-1.248003750808543,19.00579906107475,1.073729527972342,-1.919825125144713e-05,6.181695999608601e-05,8.589836223778734e-06,6.936625544032989e-05,8.666721875357582e-05
47.76415608175002,34.73584391825,2,0,-1.286606313151271,19.28072918888062,1.002831258333436,-1.954172355318856e-05,6.272761845493901e-05,8.022650066667487e-06,7.030144476224704e-05,8.061742740427972e-05
48.48584391825001,34.73584391825,2,0,-1.36249451805576,18.97717636926267,0.9598972206157578,-1.954172355318856e-05,6.181695999608514e-05,7.679177764926062e-06,6.891061328035388e-05,7.867511605430877e-05
47.76415608175002,32.76415608175,2,0.1449430911982097,-0.3989643479004741,18.09243824695243,0.8323025777744438,-1.842057101546044e-05,6.808315712008694e-05,7.787108148773559e-06,7.994412165864066e-05,0.0001162032885018447
48.48584391825001,32.76415608175,2,0.1204233675096021,-0.5294679055476985,18.13500815572036,0.803695537698352,-1.842057101546044e-05,6.645879194997991e-05,7.309839829853604e-06,7.745510089523499e-05,0.0001131026982889573
47.76415608175002,33.48584391825,2,0,-0.6256833514528095,21.11956576216383,0.7703428723332623,-1.889783933438005e-05,6.808315712008651e-05,6.162742978666098e-06,7.930155168434697e-05,9.851396191805218e-05
48.48584391825001,33.48584391825,2,0,-0.7610471156283944,20.57811070546149,0.7106843324683628,-1.889783933438005e-05,6.645879194997948e-05,5.685474659746902e-06,7.681466649609662e-05,9.589206161041886e-05
49.01415608175001,32.76415608175,2,0.09873854817240579,-0.7481206829906037,18.14458704178194,1.251326041653054,-1.876220910669792e-05,6.50878554287887e-05,1.110732996837348e-05,7.495664712393098e-05,0.0001104954092817055
49.73584391825001,32.76415608175,2,0.06319685309632717,-0.9432111972165371,18.19777587865806,1.269268519690605,-1.876220910669792e-05,6.296675236888846e-05,1.083914821495464e-05,7.171623959457343e-05,0.000106472753456462
49.01415608175001,33.48584391825,2,0,-0.9194756676401372,20.1100859045863,1.123278363559263,-1.903039086011748e-05,6.508785542878827e-05,8.986226908474105e-06,7.457805950375035e-05,9.374193918104885e-05
49.73584391825001,33.48584391825,2,0,-1.096234255965149,19.40305155128626,1.089755644381827,-1.903039086011748e-05,6.296675236888813e-05,8.718045155054616e-06,7.133861922544307e-05,9.048959576890015e-05
49.01415608175001,34.01415608175,2,0,-1.311276139781458,18.76263179641579,1.464674737042956,-1.92061890844333e-05,6.10894426603557e-05,1.171739789634365e-05,6.829267549859916e-05,8.479816923934538e-05
49.73584391825001,34.01415608175,2,0,-1.401022461934272,18.40364650780453,1.438161246129007,-1.92061890844333e-05,6.001248679452192e-05,1.150528996903205e-05,6.665065737098108e-05,8.200337142610333e-05
49.01415608175001,34.73584391825,2,0,-1.381978782218728,18.74495613580648,1.330055253813856,-1.941829701174511e-05,6.10894426603557e-05,1.064044203051085e-05,6.800111424798107e-05,7.711680544702194e-05
49.73584391825001,34.73584391825,2,0,-1.471725104371579,18.38597084719507,1.30354176289992,-1.941829701174511e-05,6.001248679452149e-05,1.042833410319936e-05,6.635970674238721e-05,7.480173304373076e-05
47.76415608175002,31.51415608175,2,0.4053560821264693,1.248366423492306,17.77502952844543,0.499607892396751,-1.71955867372643e-05,9.397456136786119e-05,6.721439535557587e-06,0.0001213363618151843,0.0001639623568506248
48.48584391825001,31.51415608175,2,0.3924779067549697,1.129309166466462,17.57561022736495,0.4520399105965522,-1.71955867372643e-05,9.108887727655882e-05,5.952572466058213e-06,0.0001168912934886125,0.000160694469013438
47.76415608175002,32.23584391825,2,0.262204514511336,1.359802954698799,22.00682796617004,0.3537503812762876,-1.796445380676366e-05,9.397456136786076e-05,3.835755444255538e-06,0.0001202812961954425,0.0001337401330693949
48.48584391825001,32.23584391825,2,0.2427106786747638,1.213623160652718,21.85985393173913,0.2903152269874088,-1.796445380676366e-05,9.108887727655893e-05,3.066888374756056e-06,0.00011583943094911,0.0001304664510196485
47.76415608175002,30.26415608175,2,0.5922025249981275,2.619815931101179,17.95513298151902,0.1996619716523754,-1.466584707436941e-05,0.0001357550651723033,3.916884902761277e-06,0.0001892117422516099,0.0002326722419404909
48.48584391825001,30.26415608175,2,0.588661748790565,2.562809340008186,17.7920172201279,0.1167688645820215,-1.466584707436941e-05,0.0001334284070859681,2.271004249931874e-06,0.0001856185104019297,0.0002308370211499717
47.76415608175002,30.98584391825,2,0.4934592413625497,2.976271162563613,22.23327832228303,0.1006893372497818,-1.63117277271989e-05,0.0001357550651723029,1.590226816426416e-06,0.0001869336471872427,0.0001904711355273179
48.48584391825001,30.98584391825,2,0.485088630633333,2.925618963504684,22.201343429954,-0.003582099139103286,-1.63117277271989e-05,0.0001334284070859683,-5.565383640309535e-08,0.0001833434680102296,0.0001875886822228725
49.01415608175001,30.26415608175,2,0.5846533372243433,2.354656596494344,17.62091907928365,0.4576034103523664,-1.579845161339192e-05,0.0001312234349309105,8.813908021686146e-06,0.0001806713836604402,0.0002287941811642741
49.73584391825001,30.26415608175,2,0.5771133913025051,2.267101826306366,17.41959933704894,0.3899677010412572,-1.579845161339192e-05,0.0001275259970600979,7.377253249846259e-06,0.0001749612633103395,0.0002250482593218969
49.01415608175001,30.98584391825,2,0.4768630511860276,2.715211957935648,22.13124904031059,0.3345768229282105,-1.723510638523183e-05,0.0001312234349309105,5.116470150873416e-06,0.0001786771891727189,0.0001848401242098843
49.73584391825001,30.98584391825,2,0.4624485165672607,2.624396739823757,22.07853321492309,0.2472612769697455,-1.723510638523183e-05,0.0001275259970600981,3.679815379033311e-06,0.0001729713656460669,0.0001802133773749764
49.01415608175001,31.51415608175,2,0.3803608186162055,0.8696831842433492,17.38328395508982,0.8482981928281976,-1.795180374109257e-05,8.864959440786158e-05,1.095215691084938e-05,0.0001121534477676927,0.0001577366794497043
49.73584391825001,31.51415608175,2,0.3596399731043065,0.6971289466812878,17.15803769481547,0.8349300666015315,-1.795180374109257e-05,8.48710337675669e-05,1.043075809274436e-05,0.0001063414399377512,0.0001529237359203299
49.01415608175001,32.23584391825,2,0.2250920783258135,0.9529290793833027,21.7055050698007,0.6948595721181136,-1.847320255919749e-05,8.864959440786158e-05,7.173596270554274e-06,0.000111420169661275,0.0001276427482559974
49.73584391825001,32.23584391825,2,0.195747556613113,0.7357719248895638,21.5144855688276,0.6687557568780745,-1.847320255919749e-05,8.48710337675669e-05,6.652197452449576e-06,0.0001056103696136182,0.0001232019308896484
47.76415608175002,29.01415608175,2,0.7106512947388348,3.642177349935504,18.32064612858153,-0.01116175913782779,-1.037346747538552e-05,0.0001925438915692632,-3.086036725895346e-07,0.000282873806931659,0.0003171401632736803
48.48584391825001,29.01415608175,2,0.7122769951860912,3.614553124006592,18.18906903647296,-0.1082497107820229,-1.037346747538552e-05,0.0001922452410549631,-3.009831232703435e-06,0.000282414120095473,0.0003187313599067832
47.76415608175002,29.73584391825,2,0.6488650640620371,4.103746518052068,22.1537138268315,-0.02665352000143995,-1.307469503549968e-05,0.0001925438915692627,-6.072541868895436e-07,0.0002790973328441883,0.0002666131056301079
48.48584391825001,29.73584391825,2,0.6479360929804987,4.105841483547522,22.17727620579821,-0.1455996262691113,-1.307469503549968e-05,0.0001922452410549634,-3.308481747003877e-06,0.0002786380285383768,0.0002659765957275369
47.76415608175002,27.76415608175,2,0.781286450596296,4.369867935265761,18.80131729212329,-0.1444590036537537,-4.83498367490847e-06,0.0002590983555480729,-5.283952605500799e-06,0.0003934722813363799,0.0004051997957489115
48.48584391825001,27.76415608175,2,0.7852920110556305,4.352018783446624,18.70571216055956,-0.2312032630222107,-4.83498367490847e-06,0.0002625736665142926,-8.614612401110612e-06,0.0003988471307017695,0.0004116995044701978
47.76415608175002,28.48584391825,2,0.7447574819988665,4.816336589832055,21.87062060997148,-0.05770528077147406,-8.165643470518311e-06,0.0002590983555480729,-1.808641639281048e-06,0.0003887806133321001,0.0003542743549715603
48.48584391825001,28.48584391825,2,0.7476068196288382,4.835665989337898,21.91885486397801,-0.1621405792547725,-8.165643470518311e-06,0.0002625736665142932,-5.139301434890862e-06,0.0003941523200582833,0.0003577776956218781
49.01415608175001,27.76415608175,2,0.7880768110202202,4.295547082327465,18.62792365882834,-0.01841021017315777,-5.457582387197572e-06,0.000265062631007069,-6.949767134700616e-07,0.0004018056885684634,0.0004163440510145295
49.73584391825001,27.76415608175,2,0.7916916373480524,4.279989857751646,18.54103449490063,-0.1132334987949936,-5.457582387197572e-06,0.000268387297493637,-4.348687584249892e-06,0.0004069442450354074,0.0004225334794310153
49.01415608175001,28.48584391825,2,0.7493303137441534,4.775622205270206,21.95739509903357,0.08239793879660226,-9.111293257977351e-06,0.000265062631007069,2.629689773098534e-06,0.0003966654975859051,0.0003599309166883104
49.73584391825001,28.48584391825,2,0.7512107839778064,4.808724942279607,22.06838915236903,-0.03184567576029285,-9.111293257977351e-06,0.0002683872974936371,-1.024021097681405e-06,0.0004018006978306048,0.0003623102853916632
49.01415608175001,29.01415608175,2,0.712887686274863,3.486288108355363,18.06093111639611,0.1725943221183838,-1.14680659413719e-05,0.0001915833855124808,4.8091095746904e-06,0.0002798628590571994,0.0003193332526979169
49.73584391825001,29.01415608175,2,0.7129415575476604,3.449522678245233,17.91309714681961,0.07262570456912551,-1.14680659413719e-05,0.0001900738130573726,2.023997732271778e-06,0.0002775279544398939,0.0003193864577509707
49.01415608175001,29.73584391825,2,0.6462535622512248,3.966991390535632,22.17047914666216,0.1458999377839746,-1.425317778379004e-05,0.0001915833855124808,3.299537119581461e-06,0.0002759717992329711,0.000264831506329056
49.73584391825001,29.73584391825,2,0.6425410365059214,3.963656964541182,22.22328555452775,0.02298574079624705,-1.425317778379004e-05,0.0001900738130573731,5.144252771633814e-07,0.0002736388015053025,0.0002623395738156356
50.26415608175001,49.01415608175001,2,0,-1.217803941577488,16.09388488858215,0.1912012803765336,-1.677208052391368e-05,5.247467479672484e-05,1.529610243012269e-06,5.822538144584871e-05,5.779764133754891e-05
50.98584391825001,49.01415608175001,2,0,-1.325886194717147,15.66155587602351,0.1929220337811,-1.677208052391368e-05,5.117768775904895e-05,1.5433762702488e-06,5.625107668140981e-05,5.673939371382027e-05
50.26415608175001,49.73584391825,2,0,-1.213215265831996,16.09503205751852,0.02907790066700557,-1.67583144966772e-05,5.247467479672484e-05,2.326232053360446e-07,5.824129816790755e-05,5.779081792904521e-05
50.98584391825001,49.73584391825,2,0,-1.321297518971655,15.66270304495988,0.03079865407162614,-1.67583144966772e-05,5.117768775904895e-05,2.463892325730091e-07,5.626683735328603e-05,5.673739806855768e-05
50.26415608175001,47.76415608175001,2,0,-1.233850532115371,16.10686474288807,0.4115970598377613,-1.683381349707964e-05,5.252904760293413e-05,3.292776478702091e-06,5.823538031942145e-05,5.782989946530964e-05
50.98584391825001,47.76415608175001,2,0,-1.342929344111624,15.67054949490306,0.416784944460129,-1.683381349707964e-05,5.122010185897908e-05,3.334279555681032e-06,5.624351819056291e-05,5.675010562244451e-05
50.26415608175001,48.48584391825001,2,0,-1.22001617312225,16.11032333263636,0.2479788418435032,-1.679231042010028e-05,5.252904760293413e-05,1.983830734748025e-06,5.828334091929323e-05,5.78081132036296e-05
50.98584391825001,48.48584391825001,2,0,-1.329094985118504,15.67400808465134,0.2531667264658844,-1.679231042010028e-05,5.122010185897908e-05,2.025333811727075e-06,5.629100301964838e-05,5.674279869262191e-05
51.51415608175002,47.76415608175001,2,0,-1.006953423644028,15.45321387556681,0.4257276757147659,-1.558482205611433e-05,5.025584714072901e-05,3.405821405718127e-06,5.639120195975462e-05,5.596020673319481e-05
52.23584391825001,47.76415608175001,2,0,-1.117407351798502,15.01139816294891,0.4304589580298189,-1.558482205611433e-05,4.893040000287531e-05,3.443671664238551e-06,5.437183101660343e-05,5.488195667769577e-05
51.51415608175002,48.48584391825001,2,0,-0.9943366708039223,15.45636806377684,0.2600467834829316,-1.554697179759402e-05,5.025584714072901e-05,2.080374267863453e-06,5.643413944320687e-05,5.596457974967841e-05
52.23584391825001,48.48584391825001,2,0,-1.104790598958416,15.01455235115886,0.2647780657980253,-1.554697179759402e-05,4.89304000028751e-05,2.118224526384202e-06,5.441428604403619e-05,5.490376056906151e-05
51.51415608175002,49.01415608175001,2,0,-0.990849814006638,15.44729077240116,0.1960898458577869,-1.552855202274216e-05,5.0224010322889e-05,1.568718766862295e-06,5.640792953338723e-05,5.596687216004816e-05
52.23584391825001,49.01415608175001,2,0,-1.09989216167787,15.01112138171623,0.197649033637908,-1.552855202274216e-05,4.891550215083422e-05,1.581192269103264e-06,5.441367927298777e-05,5.491455164883961e-05
51.51415608175002,49.73584391825,2,0,-0.9866919799262703,15.44833023092125,0.03252632435092606,-1.551607852050106e-05,5.0224010322889e-05,2.602105948074085e-07,5.642208769278176e-05,5.596876212516678e-05
52.23584391825001,49.73584391825,2,0,-1.095734327597511,15.01216084023628,0.03408551213111496,-1.551607852050106e-05,4.891550215083411e-05,2.726840970489197e-07,5.442768087182656e-05,5.492222953569746e-05
50.26415608175001,46.51415608175,2,0,-1.261338861335237,16.13504050642539,0.6307071060200983,-1.694431676141307e-05,5.264120070962944e-05,5.045656848160786e-06,5.827538302380661e-05,5.789362180248461e-05
50.98584391825001,46.51415608175,2,0,-1.372374823095856,15.69089665938292,0.6394287670120533,-1.694431676141307e-05,5.130876916850202e-05,5.115430136096426e-06,5.624892625984445e-05,5.677559814080274e-05
50.26415608175001,47.23584391825001,2,0,-1.23808109869006,16.14085494708669,0.4641531633791567,-1.687454347347754e-05,5.264120070962944e-05,3.713225307033254e-06,5.835591983354785e-05,5.785281142531804e-05
50.98584391825001,47.23584391825001,2,0,-1.349117060450679,15.69671110004421,0.4728748243711524,-1.687454347347754e-05,5.130876916850202e-05,3.782998594969219e-06,5.632864557235868e-05,5.675889420809647e-05
50.26415608175001,45.26415608175001,2,0,-1.300045593145971,16.18057081341729,0.8467501901641787,-1.710460254880094e-05,5.28178630774521e-05,6.77400152131343e-06,5.835410409548248e-05,5.800011036837613e-05
50.98584391825001,45.26415608175001,2,0,-1.413920756968314,15.72507015812792,0.8590803956572943,-1.710460254880094e-05,5.145136111158399e-05,6.872643165258354e-06,5.627746992807879e-05,5.68272935617205e-05
50.26415608175001,45.98584391825,2,0,-1.267165045164168,16.18879095041274,0.6759374444306244,-1.700596090485553e-05,5.28178630774521e-05,5.407499555444995e-06,5.846775384418139e-05,5.793309043532175e-05
50.98584391825001,45.98584391825,2,0,-1.38104020898651,15.73329029512337,0.6882676499238077,-1.700596090485553e-05,5.145136111158399e-05,5.506141199390462e-06,5.638992712583597e-05,5.679392569236854e-05
51.51415608175002,45.26415608175001,2,0,-1.076144111424293,15.49200886902643,0.8870121767234765,-1.583726825177888e-05,5.043534367002401e-05,7.096097413787812e-06,5.637037494557786e-05,5.596176677551332e-05
52.23584391825001,45.26415608175001,2,0,-1.193586553588216,15.02223910037074,0.8986281175255928,-1.583726825177888e-05,4.902603436405693e-05,7.189024940204743e-06,5.422644891991543e-05,5.476992042683862e-05
51.51415608175002,45.98584391825,2,0,-1.045168269285108,15.49975282956123,0.7108485134774828,-1.574434072536133e-05,5.043534367002401e-05,5.686788107819862e-06,5.647545691971686e-05,5.595586313807084e-05
52.23584391825001,45.98584391825,2,0,-1.162610711448987,15.02998306090571,0.7224644542796533,-1.574434072536133e-05,4.902603436405747e-05,5.779715634237226e-06,5.433025482137995e-05,5.480539840266444e-05
51.51415608175002,46.51415608175,2,0,-1.035279738295947,15.46729645374623,0.6562041884714578,-1.568673232554401e-05,5.032357244262467e-05,5.249633507771662e-06,5.637580053557002e-05,5.595473856039036e-05
52.23584391825001,46.51415608175,2,0,-1.148544402423682,15.01423779723529,0.6642618820755741,-1.568673232554401e-05,4.896439647309185e-05,5.314095056604593e-06,5.43063125740821e-05,5.48301321424106e-05
51.51415608175002,47.23584391825001,2,0,-1.013792555351637,15.4726682494823,0.4863071922798145,-1.562227077671108e-05,5.032357244262467e-05,3.890457538238516e-06,5.644883729922863e-05,5.595756979447259e-05
52.23584391825001,47.23584391825001,2,0,-1.12705721947939,15.01960959297129,0.4943648858839038,-1.562227077671108e-05,4.896439647309164e-05,3.95491908707123e-06,5.437850239933651e-05,5.48622280002353e-05
50.26415608175001,44.01415608175001,2,0,-1.349299900449579,16.2466947269438,1.057308172879468,-1.731511546299369e-05,5.306886304657981e-05,8.458465383035744e-06,5.848546362443059e-05,5.816716855657573e-05
50.98584391825001,44.01415608175001,2,0,-1.466762008537865,15.77684629459066,1.073267572880202,-1.731511546299369e-05,5.16593177495204e-05,8.586140583041616e-06,5.634552015654283e-05,5.692328750822539e-05
50.26415608175001,44.73584391825,2,0,-1.306741500447649,16.25733432694428,0.8811150107470136,-1.71874402629879e-05,5.306886304657981e-05,7.048920085976108e-06,5.863216925141978e-05,5.806283141192998e-05
50.98584391825001,44.73584391825,2,0,-1.424203608535935,15.78748589459114,0.8970744107477204,-1.71874402629879e-05,5.16593177495204e-05,7.176595285981763e-06,5.649062033008215e-05,5.686195595580969e-05
50.26415608175,42.76415608175,2,0,-1.407587301327109,16.33768691821672,1.259048327370883,-1.757442889882012e-05,5.340666797935519e-05,1.007238661896706e-05,5.868944180398922e-05,5.842160762188508e-05
50.98584391825001,42.76415608175,2,0,-1.529174530172311,15.85133800283591,1.278500845293173,-1.757442889882012e-05,5.194762123321276e-05,1.022800676234539e-05,5.647682135707551e-05,5.709093610502926e-05
50.26415608175,43.48584391825001,2,0,-1.355713920200982,16.35065526349825,1.076667484103011,-1.741880875544174e-05,5.340666797935519e-05,8.613339872824092e-06,5.886757047727863e-05,5.826330235229371e-05
50.98584391825001,43.48584391825001,2,0,-1.477301149046184,15.86430634811745,1.096120002025262,-1.741880875544174e-05,5.194762123321276e-05,8.768960016202094e-06,5.66529023670614e-05,5.698464255428962e-05
51.51415608175002,42.76415608175,2,0,-1.195582796569603,15.58999461377581,1.344414215560959,-1.629786064004337e-05,5.084444900133826e-05,1.075531372448767e-05,5.645283293050059e-05,5.609466030992658e-05
52.23584391825001,42.76415608175,2,0,-1.325155783316744,15.07170266678724,1.3638765767552,-1.629786064004337e-05,4.928957316037257e-05,1.09110126140416e-05,5.409342864386153e-05,5.470345573609504e-05
51.51415608175002,43.48584391825001,2,0,-1.143683166718182,15.60296952123866,1.150054735440248,-1.614216175048911e-05,5.084444900133826e-05,9.200437883521984e-06,5.662763837747799e-05,5.603178262925684e-05
52.23584391825001,43.48584391825001,2,0,-1.273256153465323,15.0846775742501,1.169517096634529,-1.614216175048911e-05,4.928957316037257e-05,9.356136773076233e-06,5.426581508708094e-05,5.470718069946444e-05
51.51415608175002,44.01415608175001,2,0,-1.129700192818896,15.53116390897344,1.117068775367057,-1.603997174419921e-05,5.060348466297011e-05,8.936550202936458e-06,5.638909259574406e-05,5.599929196340428e-05
52.23584391825001,44.01415608175001,2,0,-1.252620554471306,15.03948246236379,1.13250495032556,-1.603997174419921e-05,4.912844032314118e-05,9.060039602604478e-06,5.414773540965338e-05,5.471877023722875e-05
51.51415608175002,44.73584391825,2,0,-1.08853705959634,15.54145469227907,0.932688232888469,-1.591648234453155e-05,5.060348466297011e-05,7.461505863107752e-06,5.652832411310179e-05,5.597340349418929e-05
52.23584391825001,44.73584391825,2,0,-1.211457421248705,15.04977324566961,0.9481244078468902,-1.591648234453155e-05,4.912844032314173e-05,7.584995262775122e-06,5.428517259692909e-05,5.474670847986906e-05
50.26415608175,41.51415608175001,2,0,-1.471946914182314,16.45874158050611,1.447445258120225,-1.787722338978829e-05,5.384553058896541e-05,1.15795620649618e-05,5.899322751720868e-05,5.880457247970608e-05
50.98584391825001,41.51415608175001,2,0,-1.597888051081692,15.9549770329086,1.469940590607811,-1.787722338978829e-05,5.233423694617288e-05,1.175952472486249e-05,5.670403214941606e-05,5.737213659075752e-05
50.26415608175,42.23584391825,2,0,-1.411959360882229,16.47373846883114,1.258533552771213,-1.769726072988804e-05,5.384553058896541e-05,1.00682684221697e-05,5.919806702804855e-05,5.85666405154078e-05
50.98584391825001,42.23584391825,2,0,-1.537900497781634,15.96997392123352,1.281028885258772,-1.769726072988804e-05,5.233423694617255e-05,1.024823108207017e-05,5.690638342213343e-05,5.719476481916948e-05
50.26415608175,40.26415608175,2,0,-1.537110056566287,16.6157357259684,1.616555523474789,-1.821134076178684e-05,5.44000423683519e-05,1.293244418779831e-05,5.94326560896114e-05,5.938357025345614e-05
50.98584391825001,40.26415608175,2,0,-1.667197765384826,16.09538489069424,1.641101778801146,-1.821134076178684e-05,5.283898986252944e-05,1.312881423040917e-05,5.707058581329914e-05,5.78348404400813e-05
50.26415608175,40.98584391825,2,0,-1.471653375696117,16.63209989618594,1.421423960246886,-1.801497071917633e-05,5.44000423683519e-05,1.137139168197509e-05,5.965424108918799e-05,5.90234681432823e-05
50.98584391825001,40.98584391825,2,0,-1.601741084514646,16.11174906091182,1.445970215573176,-1.801497071917633e-05,5.283898986252955e-05,1.15677617245854e-05,5.728930831403841e-05,5.754364433647036e-05
51.51415608175002,40.26415608175,2,0,-1.35636744854288,15.79495391958824,1.776646231644929,-1.697633897100781e-05,5.162894650151666e-05,1.421316985315943e-05,5.684334878213375e-05,5.66524319996172e-05
52.23584391825001,40.26415608175,2,0,-1.501771401539988,15.21333810759981,1.80373030796556,-1.697633897100781e-05,4.988409906555137e-05,1.442984246372448e-05,5.420402394494071e-05,5.497076187820851e-05
51.51415608175002,40.98584391825,2,0,-1.284143245021038,15.8130099704687,1.558540302149132,-1.675966636044228e-05,5.162894650151666e-05,1.246832241719306e-05,5.708295905902256e-05,5.642074215254574e-05
52.23584391825001,40.98584391825,2,0,-1.429547198018164,15.2313941584802,1.585624378469899,-1.675966636044228e-05,4.988409906555116e-05,1.268499502775919e-05,5.443969417530624e-05,5.483274014081517e-05
51.51415608175002,41.51415608175001,2,0,-1.27231416464718,15.67520669733759,1.565863268737218,-1.661157068474105e-05,5.117851276319803e-05,1.252690614989775e-05,5.659089788709112e-05,5.628981345878516e-05
52.23584391825001,41.51415608175001,2,0,-1.409497793377319,15.12647218241704,1.589354806218356,-1.661157068474105e-05,4.953230921843636e-05,1.271483844974685e-05,5.409678531838997e-05,5.476528756085244e-05
51.51415608175002,42.23584391825,2,0,-1.209670064697548,15.690867722325,1.360087825641942,-1.642363838489215e-05,5.117851276319803e-05,1.088070260513553e-05,5.680061068485862e-05,5.616379946231887e-05
52.23584391825001,42.23584391825,2,0,-1.346853693427624,15.1421332074047,1.383579363123052,-1.642363838489215e-05,4.953230921843712e-05,1.106863490498442e-05,5.430334987266551e-05,5.471902542267818e-05
50.26415608175001,39.01415608175,2,0,-1.594343418816255,16.81480950243272,1.758950340426802,-1.855374654215819e-05,5.508286514283771e-05,1.407160272341441e-05,6.005388542044157e-05,6.028099644485574e-05
50.98584391825001,39.01415608175,2,0,-1.727781742184333,16.28105620896041,1.783705494640144,-1.855374654215819e-05,5.348160526242077e-05,1.426964395712116e-05,5.763277708123579e-05,5.859965491315057e-05
50.26415608175001,39.73584391825,2,0,-1.52832967424749,16.83131293857491,1.558792855374752,-1.83557053084519e-05,5.508286514283771e-05,1.247034284299802e-05,6.027402009546776e-05,5.972052394631154e-05
50.98584391825001,39.73584391825,2,0,-1.661767997615568,16.2975596451026,1.583548009588055,-1.83557053084519e-05,5.348160526242077e-05,1.266838407670444e-05,5.784984847380151e-05,5.811779762129268e-05
50.26415608175001,37.76415608175,2,0,-1.630092763709719,17.06167442726705,1.86595722874894,-1.886563638568474e-05,5.590143237822233e-05,1.492765782999152e-05,6.09148463503812e-05,6.174391943689322e-05
50.98584391825001,37.76415608175,2,0,-1.765317320949043,16.52077619830975,1.88786400664778,-1.886563638568474e-05,5.427873769135044e-05,1.510291205318224e-05,5.846171191616237e-05,5.990377376566107e-05
50.26415608175001,38.48584391825,2,0,-1.571674689312826,17.07627894586627,1.66312039288994,-1.869038216249406e-05,5.590143237822233e-05,1.330496314311952e-05,6.11035095624051e-05,6.0823163632509e-05
50.98584391825001,38.48584391825,2,0,-1.70689924655215,16.53538071690898,1.685027170788861,-1.869038216249406e-05,5.427873769135044e-05,1.348021736631089e-05,5.864742842195492e-05,5.907820577872043e-05
51.51415608175002,37.76415608175,2,0,-1.513215069042569,16.17670701733989,2.137881018431545,-1.778365383480813e-05,5.297603451072169e-05,1.710304814745236e-05,5.79248324548207e-05,5.846506373846897e-05
52.23584391825001,37.76415608175,2,0,-1.67457811820401,15.53125482069413,2.167163169978378,-1.778365383480813e-05,5.103967792078441e-05,1.733730535982702e-05,5.500300872998185e-05,5.63745805178864e-05
51.51415608175002,38.48584391825,2,0,-1.435129331584331,16.19622845170445,1.895836444689304,-1.754939662243341e-05,5.297603451072169e-05,1.516669155751443e-05,5.81736132414916e-05,5.772361533327228e-05
52.23584391825001,38.48584391825,2,0,-1.596492380745735,15.55077625505883,1.925118596236191,-1.754939662243341e-05,5.103967792078484e-05,1.540094876988952e-05,5.52466247714251e-05,5.57677632664918e-05
51.51415608175002,39.01415608175,2,0,-1.440779887292739,15.95866888060648,1.970136362417922,-1.737743074382195e-05,5.222036432777494e-05,1.576109089934338e-05,5.726406852170227e-05,5.730113121334961e-05
52.23584391825001,39.01415608175,2,0,-1.594489423440228,15.34383073601653,1.999581650565459,-1.737743074382195e-05,5.037584989400507e-05,1.599665320452367e-05,5.447804384624859e-05,5.54348400222154e-05
51.51415608175002,39.73584391825,2,0,-1.362259118899384,15.97829907270483,1.739572058196662,-1.714186843864189e-05,5.222036432777494e-05,1.39165764655733e-05,5.752085725333739e-05,5.688833153747745e-05
52.23584391825001,39.73584391825,2,0,-1.515968655046899,15.36346092811476,1.769017346344131,-1.714186843864189e-05,5.037584989400475e-05,1.415213877075305e-05,5.473015000834727e-05,5.513209405518756e-05
50.26415608175001,36.51415608175,2,0,-1.624432562708685,17.36062524879794,1.928483286960323,-1.908668439970614e-05,5.685354684632033e-05,1.542786629568258e-05,6.208661296805231e-05,6.43178632043177e-05
50.98584391825001,36.51415608175,2,0,-1.75888599888519,16.82281150409192,1.942840680660979,-1.908668439970614e-05,5.524010561220227e-05,1.554272544528783e-05,5.964561416688875e-05,6.225836113080199e-05
50.26415608175001,37.23584391825,2,0,-1.586146179506993,17.37019684459836,1.726803132695565,-1.897182525010106e-05,5.685354684632033e-05,1.381442506156452e-05,6.21975267827456e-05,6.268032136491961e-05
50.98584391825001,37.23584391825,2,0,-1.720599615683498,16.83238309989234,1.741160526396248,-1.897182525010106e-05,5.524010561220227e-05,1.392928421116999e-05,5.975416361689947e-05,6.075589382403032e-05
50.26415608175001,35.26415608175,2,0,-1.553279183864069,17.71273185091349,1.937656742417697,-1.914067886909581e-05,5.792336527001441e-05,1.550125393934157e-05,6.364133485545959e-05,6.928490909520558e-05
50.98584391825001,35.26415608175,2,0,-1.682835103738627,17.19450817141525,1.938750527235569,-1.914067886909581e-05,5.636869423151971e-05,1.551000421788455e-05,6.128472942890698e-05,6.684091384864268e-05
50.26415608175001,35.98584391825,2,0,-1.550362424349964,17.71346104079201,1.743322862606022,-1.913192859055349e-05,5.792336527001441e-05,1.394658290084817e-05,6.361806040835859e-05,6.608755715293325e-05
50.98584391825001,35.98584391825,2,0,-1.679918344224522,17.19523736129378,1.744416647423785,-1.913192859055349e-05,5.636869423151971e-05,1.395533317939028e-05,6.126015260271605e-05,6.388883733227334e-05
51.51415608175002,35.26415608175,2,0,-1.529983545476541,16.81981959021931,2.360526019527494,-1.835180301770038e-05,5.504740952508302e-05,1.888420815621995e-05,6.03849731512789e-05,6.48908060217847e-05
52.23584391825001,35.26415608175,2,0,-1.701245704718907,16.13477095324984,2.373327959099276,-1.835180301770038e-05,5.299226361417462e-05,1.898662367279421e-05,5.728037706961438e-05,6.200700760490736e-05
51.51415608175002,35.98584391825,2,0,-1.495845039951709,16.82835421660052,2.103632780663903,-1.824938750112588e-05,5.504740952508302e-05,1.682906224531122e-05,6.045812258057863e-05,6.214213777560149e-05
52.23584391825001,35.98584391825,2,0,-1.667107199194048,16.14330557963116,2.116434720235644,-1.824938750112588e-05,5.299226361417495e-05,1.693147776188515e-05,5.734944354126967e-05,5.9568785661673e-05
51.51415608175002,36.51415608175,2,0,-1.553651370741257,16.45979631976491,2.270285487456189,-1.813952144218394e-05,5.391426931984069e-05,1.816228389964951e-05,5.89201845954315e-05,6.062895965747206e-05
52.23584391825001,36.51415608175,2,0,-1.721052277348423,15.79019269333624,2.295003504768095,-1.813952144218394e-05,5.190545844055471e-05,1.836002803814476e-05,5.58894252167902e-05,5.823685411973353e-05
51.51415608175002,37.23584391825,2,0,-1.487736657909561,16.47627499797283,2.019184127545319,-1.794177730368886e-05,5.391426931984069e-05,1.615347302036255e-05,5.911760477133395e-05,5.924354840384842e-05
52.23584391825001,37.23584391825,2,0,-1.655137564516772,15.80667137154399,2.043902144857265,-1.794177730368886e-05,5.190545844055417e-05,1.635121715885812e-05,5.608176611966643e-05,5.7036171418031e-05
50.26415608175001,34.01415608175,2,0,-1.36744608638754,18.12339894563348,1.901352825596844,-1.887454663294691e-05,5.908883349513717e-05,1.521082260477476e-05,6.574688937235264e-05,7.976915101492126e-05
50.98584391825001,34.01415608175,2,0,-1.487988742785268,17.64122832004257,1.876706957038869,-1.887454663294691e-05,5.764232161836443e-05,1.501365565631096e-05,6.354579841593488e-05,7.645994514924691e-05
50.26415608175001,34.73584391825,2,0,-1.433168402542231,18.10696836659481,1.720538841000225,-1.907171358141098e-05,5.908883349513717e-05,1.37643107280018e-05,6.546172241104764e-05,7.295088112158178e-05
50.98584391825001,34.73584391825,2,0,-1.553711058939959,17.6247977410039,1.695892972442264,-1.907171358141098e-05,5.764232161836443e-05,1.356714377953811e-05,6.326098484565459e-05,7.020933203606048e-05
50.26415608175001,32.76415608175,2,0.03157968394819644,-1.084393498534162,18.31387272882225,1.781606177837166,-1.871207891656598e-05,6.141125557291302e-05,1.471762744590635e-05,6.947916617430492e-05,0.0001031329190972748
50.98584391825001,32.76415608175,2,0,-1.297137775937334,18.20154754195814,1.831440443442219,-1.871207891656598e-05,5.928266235501591e-05,1.465152354753775e-05,6.623926259710023e-05,9.803097776396656e-05
50.26415608175001,33.48584391825,2,0,-1.141789640568766,18.90556995639313,1.573629278501208,-1.877818281493455e-05,6.141125557291302e-05,1.258903422800967e-05,6.935279987926792e-05,8.785640371618197e-05
50.98584391825001,33.48584391825,2,0,-1.319172408726859,18.19603888376076,1.565366291205188,-1.877818281493455e-05,5.928266235501591e-05,1.25229303296415e-05,6.611164798598067e-05,8.391473265391213e-05
51.51415608175002,32.76415608175,2,0,-1.22011268438331,17.75448880476688,2.370129799024386,-1.81079516338401e-05,5.779045432276067e-05,1.896103839219509e-05,6.485981552137557e-05,9.390106754444571e-05
52.23584391825001,32.76415608175,2,0,-1.382462262871721,17.10509049081324,2.363135957408245,-1.81079516338401e-05,5.584225938089975e-05,1.890508765926596e-05,6.190271692777861e-05,8.771988432684529e-05
51.51415608175002,33.48584391825,2,0,-1.238762928693045,17.74982624368945,2.126605431291716,-1.81639023667693e-05,5.779045432276067e-05,1.701284345033372e-05,6.473540317322325e-05,8.076949756113716e-05
52.23584391825001,33.48584391825,2,0,-1.401112507181518,17.10042792973556,2.119611589675575,-1.81639023667693e-05,5.584225938089899e-05,1.69568927174046e-05,6.177651054361632e-05,7.611822654783184e-05
51.51415608175002,34.01415608175,2,0,-1.379699409373323,17.26580723709429,2.408718153082569,-1.822768389967006e-05,5.635434268620038e-05,1.926974522466055e-05,6.25356095684216e-05,7.38357877053598e-05
52.23584391825001,34.01415608175,2,0,-1.552392076467305,16.57503656871836,2.393930196139084,-1.822768389967006e-05,5.42820306810726e-05,1.915144156911268e-05,5.939369831217079e-05,6.997566210696968e-05
51.51415608175002,34.73584391825,2,0,-1.419133961222494,17.255948599132,2.149679152441489,-1.834598755521758e-05,5.635434268620038e-05,1.719743321953191e-05,6.232528957325154e-05,6.802411007693818e-05
52.23584391825001,34.73584391825,2,0,-1.591826628316458,16.56517793075614,2.134891195498085,-1.834598755521758e-05,5.428203068107281e-05,1.707912956398468e-05,5.918179940347817e-05,6.47955217440683e-05
50.26415608175001,31.51415608175,2,0.3399288509132014,0.41387644432778,16.92396925551557,1.343550049229874,-1.850523356377954e-05,8.154514939284156e-05,1.628369973253533e-05,0.0001005674542057907,0.0001486106642490328
50.98584391825001,31.51415608175,2,0.3055305271985883,0.1282621853441599,16.57719848775785,1.401959459228316,-1.850523356377954e-05,7.623722494090048e-05,1.614999091116814e-05,9.242905437056654e-05,0.0001416400768352364
50.26415608175001,32.23584391825,2,0.168975613390247,0.4840287587085648,21.29788461317303,1.140142115015303,-1.863894238514664e-05,8.154514939284156e-05,1.097577528059437e-05,0.0001003177109217195,0.0001194119741432955
50.98584391825001,32.23584391825,2,0.1236275590540674,0.1227984311262365,20.9095130179069,1.187711030971404,-1.863894238514664e-05,7.623722494090048e-05,1.08420664592275e-05,9.217502668470098e-05,0.0001134984371196796
50.26415608175001,30.26415608175,2,0.569014195971675,1.996605561369576,17.2080092667084,0.8607142786510187,-1.711719863631339e-05,0.0001240605716119067,1.597666133048691e-05,0.0001678613414980533,0.0002211592564827493
50.98584391825001,30.26415608175,2,0.5539654681904802,1.851842323708479,16.95094639438216,0.8361127164481142,-1.711719863631339e-05,0.0001182902910880184,1.499637641159458e-05,0.000158958909304503,0.0002142802249773441
50.26415608175001,30.98584391825,2,0.4482375788387044,2.375826332487722,21.98519450913442,0.7039371731428715,-1.809748355520533e-05,0.0001240605716119067,1.020638080659851e-05,0.0001664709695814264,0.0001758737663831023
50.98584391825001,30.98584391825,2,0.4229359794432684,2.207287039897796,21.88340643749884,0.6655059983752225,-1.809748355520533e-05,0.0001182902910880184,9.226095887706395e-06,0.0001575719687171599,0.0001686444755026219
51.51415608175002,30.26415608175,2,0.5378574310862753,1.493123917876149,16.66104622495788,1.516210431654942,-1.850260291507347e-05,0.0001127808868766956,2.624662662379404e-05,0.000148731769660211,0.000207377307977313
52.23584391825001,30.26415608175,2,0.5071913550377034,1.211027287129595,16.24191248708438,1.632139507450331,-1.850260291507347e-05,0.0001034991951751751,2.649530642994627e-05,0.0001344649233608632,0.0001953972195174003
51.51415608175002,30.98584391825,2,0.3977361234935055,1.995761679506419,21.72514483431383,1.277170933871118,-1.825392310892147e-05,0.0001127808868766956,1.696493492227367e-05,0.000148937108344689,0.0001620128669751168
52.23584391825001,30.98584391825,2,0.3515532520870261,1.647244018034853,21.38484741793143,1.395264061309269,-1.825392310892147e-05,0.0001034991951751755,1.721361472842515e-05,0.000134653283401326,0.000151124266421776
51.51415608175002,31.51415608175,2,0.272516502579812,-0.04549693710889713,16.32002986735895,2.030056668840523,-1.814696022583519e-05,7.183735893743657e-05,2.232415361766459e-05,8.630289918114557e-05,0.0001355392944896448
52.23584391825001,31.51415608175,2,0.2134443669414199,-0.4891861487633884,15.88524764059729,2.199180235363039,-1.814696022583519e-05,6.512462592090675e-05,2.236770184264132e-05,7.606107742799058e-05,0.0001258422345686571
51.51415608175002,32.23584391825,2,0.08211384640658981,-0.04408064617897711,20.59476642576552,1.791188350963102,-1.810341200085888e-05,7.183735893743657e-05,1.561142060113509e-05,8.621638141265128e-05,0.0001085765904005992
52.23584391825001,32.23584391825,2,0.01073501002094701,-0.6008978631191617,19.98274816204377,1.93586407236067,-1.810341200085888e-05,6.512462592090675e-05,1.565496882611128e-05,7.595514621666042e-05,0.0001010433921200494
50.26415608175001,29.01415608175,2,0.7118180523572242,3.263142376940202,17.75285784117906,0.4900544521287522,-1.304811317118205e-05,0.0001880708754783082,1.360402915275493e-05,0.0002722608216267335,0.0003182805309145254
50.98584391825001,29.01415608175,2,0.7086528049736796,3.20277651054371,17.56302000818719,0.3965205608448036,-1.304811317118205e-05,0.0001841083207027897,1.088791840426627e-05,0.0002661297263841717,0.0003152058775547208
50.26415608175001,29.73584391825,2,0.637941766771929,3.771861721255153,22.22190571073029,0.4363468973420201,-1.57642239196709e-05,0.0001880708754783082,9.641474377237048e-06,0.0002684589167802085,0.0002593170340344856
50.98584391825001,29.73584391825,2,0.6288626091064404,3.743892503949509,22.28893618455866,0.3212826735203488,-1.57642239196709e-05,0.0001841083207027897,6.925363628748279e-06,0.000262332712369935,0.0002535512342975549
50.26415608175001,27.76415608175,2,0.7939303911690325,4.164647934649142,18.45895208500759,0.2250170866532331,-6.989328922879843e-06,0.0002704762174320632,8.735575825266216e-06,0.0004080214818832714,0.000426461034519821
50.98584391825001,27.76415608175,2,0.7964672551615063,4.153785652637471,18.39333923586589,0.127920778028931,-6.989328922879843e-06,0.0002728585863504629,5.028017604948552e-06,0.0004116955801196372,0.0004310018861559346
50.26415608175001,28.48584391825,2,0.7518033320623865,4.709297411501882,22.15585432881533,0.3449296049615591,-1.069688714319719e-05,0.0002704762174320632,1.111794474366627e-05,0.0004028157521060712,0.0003630666308628843
50.98584391825001,28.48584391825,2,0.7515584234411774,4.763267612167484,22.37500983132957,0.2301310138463758,-1.069688714319719e-05,0.0002728585863504629,7.410386523348713e-06,0.0004064872538832884,0.0003627536364150701
51.51415608175002,27.76415608175,2,0.7973630779622223,4.01563721002701,18.28368458828666,0.7244021507976193,-8.768928094020447e-06,0.0002728786065166692,2.859901911311379e-05,0.0004093208842959454,0.0004326288443512194
52.23584391825001,27.76415608175,2,0.7973104530040362,3.977363828404131,18.131167892388,0.6360526960333617,-8.768928094020447e-06,0.0002705509337095233,2.510450905674096e-05,0.0004057026042402632,0.0004325329251666035
51.51415608175002,28.48584391825,2,0.7496930125842682,4.668743741021206,22.51200528756479,0.821987693650265,-1.226343815039277e-05,0.0002728786065166692,2.627134630596743e-05,0.0004043991620253915,0.0003603873838663464
52.23584391825001,28.48584391825,2,0.7447256899636827,4.711878340193483,22.76068925141714,0.7267926448031836,-1.226343815039277e-05,0.0002705509337095236,2.27768362495947e-05,0.0004007828535829262,0.0003542356561272335
51.51415608175002,29.01415608175,2,0.7039078817195453,2.992871174819228,17.3788456963943,1.003994344407086,-1.46099424152739e-05,0.0001797346366315599,2.712654021965193e-05,0.0002573205288655587,0.000310707188569127
52.23584391825001,29.01415608175,2,0.693742222595007,2.89179554000201,17.16019277515394,0.926823371639214,-1.46099424152739e-05,0.0001717480643077163,2.421028140391914e-05,0.0002449658273846404,0.0003014911950523165
51.51415608175002,29.73584391825,2,0.6184026611489171,3.486204336523938,22.3047570334965,0.9129701018419283,-1.752620123100635e-05,0.0001797346366315599,1.913996789580782e-05,0.0002531965043445525,0.0002472198313662817
52.23584391825001,29.73584391825,2,0.5979005882551893,3.405891233833931,22.43265894172177,0.8154429846771449,-1.752620123100635e-05,0.0001717480643077159,1.622370908007514e-05,0.0002408512134072821,0.000235687916611048
52.76415608175,49.01415608175001,2,0,-0.7613939939970931,14.79944151403624,0.194121199804538,-1.427601399201968e-05,4.796732804011362e-05,1.552969598436304e-06,5.459617592559553e-05,5.415592680034019e-05
53.48584391825,49.01415608175001,2,0,-0.86822330007764,14.37212428971405,0.1953125662349328,-1.427601399201968e-05,4.668537636714706e-05,1.562500529879462e-06,5.263990943812894e-05,5.313564568147595e-05
52.76415608175,49.73584391825,2,0,-0.7582170168493421,14.80023575832317,0.03387724068382603,-1.426648306057643e-05,4.796732804011362e-05,2.710179254706083e-07,5.460654400784451e-05,5.416815155443746e-05
53.48584391825,49.73584391825,2,0,-0.8650463229298349,14.3729185340012,0.03506860711424784,-1.426648306057643e-05,4.668537636714771e-05,2.805488569139827e-07,5.265014053200577e-05,5.315450478614794e-05
52.76415608175,47.76415608175001,2,0,-0.7757689919942599,14.79609330010013,0.4240392558177886,-1.431933541446173e-05,4.79681137539158e-05,3.392314046542309e-06,5.454890763461745e-05,5.410292252850145e-05
53.48584391825,47.76415608175001,2,0,-0.8843996408142116,14.36157070482032,0.4276842154304081,-1.431933541446173e-05,4.666454596807638e-05,3.421473723443265e-06,5.25603056920057e-05,5.305281170747995e-05
52.76415608175,48.48584391825001,2,0,-0.7660490996939546,14.7985232731752,0.2610932825880237,-1.429017573756082e-05,4.79681137539158e-05,2.08874626070419e-06,5.458061989413075e-05,5.413844873551811e-05
53.48584391825,48.48584391825001,2,0,-0.87467974851387,14.36400067789554,0.2647382422005891,-1.429017573756082e-05,4.666454596807682e-05,2.117905937604712e-06,5.259159085924436e-05,5.310839710317187e-05
54.01415608175001,47.76415608175001,2,0,-0.5510087318496639,14.15444720257662,0.4027380691305391,-1.308678570398022e-05,4.573503803372491e-05,3.221904553044313e-06,5.274976592747968e-05,5.230593451561024e-05
54.73584391825,47.76415608175001,2,0,-0.6539999915963466,13.74248216358989,0.4047216298444268,-1.308678570398022e-05,4.449914291676472e-05,3.237773038755414e-06,5.086188765253247e-05,5.13155389013426e-05
54.01415608175001,48.48584391825001,2,0,-0.5457192366127925,14.15576957638584,0.2482511795106777,-1.307091721826961e-05,4.573503803372491e-05,1.986009436085422e-06,5.276464837785635e-05,5.237689205773234e-05
54.73584391825,48.48584391825001,2,0,-0.6487104963594752,13.74380453739911,0.2502347402244705,-1.307091721826961e-05,4.449914291676472e-05,2.001877921795764e-06,5.087645853801028e-05,5.140843473985982e-05
54.01415608175001,49.01415608175001,2,0,-0.5399940915549393,14.16907774633135,0.1837960208817056,-1.306324329004088e-05,4.577304406150427e-05,1.470368167053645e-06,5.283116576204327e-05,5.24116245540833e-05
54.73584391825,49.01415608175001,2,0,-0.640876303183751,13.7655488998161,0.1844331553948092,-1.306324329004088e-05,4.456245752195852e-05,1.475465243158474e-06,5.09814505299809e-05,5.145384316707342e-05
54.01415608175001,49.73584391825,2,0,-0.5382950661866857,14.16950250267341,0.03247270343852832,-1.305814621393612e-05,4.577304406150427e-05,2.597816275082265e-07,5.283592573196616e-05,5.243555795666975e-05
54.73584391825,49.73584391825,2,0,-0.6391772778154974,13.76597365615817,0.03310983795159128,-1.305814621393612e-05,4.456245752195852e-05,2.648787036127302e-07,5.09861119760306e-05,5.14850054588008e-05
52.76415608175,46.51415608175,2,0,-0.8018286172210525,14.79137040222377,0.6569634055698947,-1.439894789688638e-05,4.797384818089291e-05,5.255707244559158e-06,5.446813451019455e-05,5.401446874474251e-05
53.48584391825,46.51415608175,2,0,-0.9140829749057988,14.34235297148479,0.6632717893418228,-1.439894789688638e-05,4.662679588867595e-05,5.306174314734582e-06,5.241442349642127e-05,5.291064131832407e-05
52.76415608175,47.23584391825001,2,0,-0.7850062604959378,14.79557599140505,0.4885818690427345,-1.434848082671104e-05,4.797384818089291e-05,3.908654952341876e-06,5.452298081821722e-05,5.406970219009654e-05
53.48584391825,47.23584391825001,2,0,-0.8972606181806388,14.34655856066625,0.4948902528146356,-1.434848082671104e-05,4.662679588867649e-05,3.959122022517084e-06,5.246850243416885e-05,5.299982320463305e-05
52.76415608175,45.26415608175001,2,0,-0.8402987157033763,14.78775545986988,0.8937786543048181,-1.451916025814671e-05,4.799305644414631e-05,7.150229234438544e-06,5.436170430770302e-05,5.390079823786697e-05
53.48584391825,45.26415608175001,2,0,-0.9580352869072173,14.31680917505452,0.9030885224853231,-1.451916025814671e-05,4.658021758970022e-05,7.224708179882585e-06,5.220960291398614e-05,5.271815860818471e-05
52.76415608175,45.98584391825,2,0,-0.8154724005553806,14.79396203865688,0.7171737974991381,-1.444468131270272e-05,4.799305644414631e-05,5.737390379993105e-06,5.444252997636644e-05,5.396921106714558e-05
53.48584391825,45.98584391825,2,0,-0.9332089717592758,14.3230157538413,0.7264836656796025,-1.444468131270272e-05,4.658021758969957e-05,5.811869325436821e-06,5.228923156489799e-05,5.283516951717165e-05
54.01415608175001,45.26415608175001,2,0,-0.6036029269520564,14.08756465593239,0.8574494014017345,-1.320158109099249e-05,4.556308924054528e-05,6.859595211213877e-06,5.237060680408132e-05,5.186902778134828e-05
54.73584391825001,45.26415608175,2,0,-0.7174368830673341,13.63222883147126,0.8629244414141312,-1.320158109099247e-05,4.419708176716189e-05,6.90339553131305e-06,5.028664262417084e-05,5.073179884974182e-05
54.01415608175001,45.98584391825,2,0,-0.5890028202523552,14.09121468260731,0.6866984672287838,-1.315778077089338e-05,4.556308924054528e-05,5.49358773783027e-06,5.241231786404777e-05,5.202365699388582e-05
54.73584391825,45.98584391825,2,0,-0.7028367763676737,13.63587885814604,0.6921735072411804,-1.315778077089338e-05,4.419708176716145e-05,5.537388057929443e-06,5.032741808998938e-05,5.09406050991702e-05
54.01415608175001,46.51415608175,2,0,-0.5719052779757252,14.12658028344179,0.6265620999876395,-1.313136111627575e-05,4.56625811293943e-05,5.012496799901116e-06,5.259422449602335e-05,5.212245827692583e-05
54.73584391825,46.51415608175,2,0,-0.6791745629472752,13.69750314355559,0.6301095398173471,-1.313136111627575e-05,4.437534970973571e-05,5.040876318538777e-06,5.0628919052034e-05,5.107292958848858e-05
54.01415608175001,47.23584391825001,2,0,-0.5624454384297701,14.12894524332828,0.4656581725301519,-1.310298159763789e-05,4.56625811293943e-05,3.725265380241215e-06,5.262103365659553e-05,5.223775918951806e-05
54.73584391825,47.23584391825001,2,0,-0.6697147234013201,13.69986810344208,0.4692056123598866,-1.310298159763789e-05,4.437534970973571e-05,3.753644898879093e-06,5.065515253699171e-05,5.122564056697899e-05
52.76415608175,44.01415608175001,2,0,-0.8920052930371227,14.78918328572665,1.134972841309483,-1.468576356630011e-05,4.803899074875499e-05,9.079782730475865e-06,5.424284367321487e-05,5.377853696681075e-05
53.48584391825,44.01415608175001,2,0,-1.017120897187271,14.28872086912606,1.147723530433775,-1.468576356630011e-05,4.653760349895321e-05,9.181788243470203e-06,5.19585922886636e-05,5.249029362712843e-05
52.76415608175,44.73584391825,2,0,-0.8580034553722848,14.79768374514286,0.9472994350842069,-1.45837580533056e-05,4.803899074875499e-05,7.578395480673655e-06,5.435325242186255e-05,5.384970726666631e-05
53.48584391825,44.73584391825,2,0,-0.9831190595223873,14.29722132854245,0.9600501242084856,-1.45837580533056e-05,4.653760349895375e-05,7.680400993667885e-06,5.206723832898957e-05,5.262574939196154e-05
52.76415608175,42.76415608175,2,0,-0.9575945766110117,14.80125117381433,1.380370227195435,-1.49053035842067e-05,4.813007941749468e-05,1.104296181756348e-05,5.413167291128388e-05,5.367345720650367e-05
53.48584391825,42.76415608175,2,0,-1.092004574591732,14.26361118189145,1.397042996267273,-1.49053035842067e-05,4.651715944172603e-05,1.117634397013818e-05,5.16814495672184e-05,5.225065346565069e-05
52.76415608175,43.48584391825001,2,0,-0.9131338590861695,14.81236635319554,1.17875523022445,-1.477192143163218e-05,4.813007941749468e-05,9.430041841795595e-06,5.427540667272625e-05,5.373131090552571e-05
53.48584391825,43.48584391825001,2,0,-1.047543857066862,14.27472636127277,1.195427999296219,-1.477192143163218e-05,4.651715944172636e-05,9.563423994369755e-06,5.182266537256513e-05,5.238978697659236e-05
54.01415608175001,42.76415608175,2,0,-0.7043084729208129,13.991373969012,1.348357324670451,-1.34468862885562e-05,4.533584347917504e-05,1.07868585973636e-05,5.176802119231372e-05,5.121322584180302e-05
54.73584391825,42.76415608175,2,0,-0.8388497440752065,13.45320888439442,1.359312004298033,-1.34468862885562e-05,4.372134822532231e-05,1.087449603438427e-05,4.93112485491373e-05,4.98017246050082e-05
54.01415608175001,43.48584391825001,2,0,-0.6750959939138479,13.99867708876374,1.146545417938941,-1.33592488515353e-05,4.533584347917504e-05,9.172363343511528e-06,5.185225060425973e-05,5.141649618850253e-05
54.73584391825,43.48584391825001,2,0,-0.8096372650682415,13.46051200414616,1.157500097566551,-1.33592488515353e-05,4.372134822532231e-05,9.260000780532407e-06,4.939326204559324e-05,5.009894023372265e-05
54.01415608175001,44.01415608175001,2,0,-0.6473028535672167,14.04081227433627,1.097458876021646,-1.330401895088411e-05,4.544844156072984e-05,8.779671008173171e-06,5.208955760477017e-05,5.155884584992685e-05
54.73584391825,44.01415608175001,2,0,-0.7701577288358776,13.54939277326163,1.105365558229395,-1.330401895088411e-05,4.39741830575059e-05,8.842924465835163e-06,4.984290001271621e-05,5.030232653758919e-05
54.01415608175001,44.73584391825,2,0,-0.626218367679976,14.04608339580808,0.9131765631186818,-1.324076549322239e-05,4.544844156072984e-05,7.305412504949454e-06,5.215018772111343e-05,5.174448201069537e-05
54.73584391825001,44.73584391825,2,0,-0.7490732429486098,13.55466389473355,0.9210832453263496,-1.324076549322239e-05,4.397418305750623e-05,7.368665962610797e-06,4.990207687502335e-05,5.056077262462541e-05
52.76415608175,41.51415608175001,2,0,-1.037008516624473,14.83146684055406,1.628778163638106,-1.518360072564156e-05,4.829030070307256e-05,1.303022530910484e-05,5.405748187823078e-05,5.362564037751602e-05
53.48584391825,41.51415608175001,2,0,-1.182594085190311,14.24912456629071,1.649776664521688,-1.518360072564156e-05,4.654327388028251e-05,1.31982133161735e-05,5.140837108925766e-05,5.203659226773851e-05
52.76415608175,42.23584391825,2,0,-0.9810125142684987,14.84546584114305,1.41039981078943,-1.501561271857364e-05,4.829030070307256e-05,1.128319848631544e-05,5.423721912265089e-05,5.364514287386058e-05
53.48584391825,42.23584391825,2,0,-1.126598082834409,14.26312356687941,1.431398311672904,-1.501561271857364e-05,4.654327388028164e-05,1.145118649338323e-05,5.158459302787128e-05,5.21560152286453e-05
52.76415608175,40.26415608175,2,0,-1.128554622300345,14.88948944516365,1.877560548177668,-1.552296634749202e-05,4.854920992236394e-05,1.502048438542134e-05,5.406202002996166e-05,5.369975258747163e-05
53.48584391825,40.26415608175,2,0,-1.287066082787971,14.25544360321314,1.90298812651633,-1.552296634749202e-05,4.664707239651243e-05,1.522390501213064e-05,5.11836668905345e-05,5.190896074954746e-05
52.76415608175,40.98584391825,2,0,-1.060747746730666,14.90644116405607,1.639793357446418,-1.531954572078298e-05,4.854920992236394e-05,1.311834685957134e-05,5.427719735143075e-05,5.364027300617654e-05
53.48584391825,40.98584391825,2,0,-1.219259207218193,14.27239532210596,1.665220935785107,-1.531954572078298e-05,4.664707239651362e-05,1.332176748628086e-05,5.139406043350082e-05,5.197039421957981e-05
54.01415608175001,40.26415608175,2,0,-0.8611167361183889,13.91541647929358,1.886620998322089,-1.38879067390137e-05,4.521822612263415e-05,1.509296798657671e-05,5.112030878776895e-05,5.057557668115827e-05
54.73584391825,40.26415608175,2,0,-1.027911993681843,13.24823544903976,1.905464458376533,-1.38879067390137e-05,4.321668303187271e-05,1.524371566701227e-05,4.808734314644483e-05,4.872349549808541e-05
54.01415608175001,40.98584391825,2,0,-0.8108675093063034,13.9279787859966,1.636428111976976,-1.373715905857745e-05,4.521822612263415e-05,1.309142489581581e-05,5.126277534147582e-05,5.073517230284457e-05
54.73584391825,40.98584391825,2,0,-0.9776627668697571,13.26079775574278,1.655271572031556,-1.373715905857745e-05,4.321668303187271e-05,1.324217257625245e-05,4.822483543269689e-05,4.903036205415454e-05
54.01415608175001,41.51415608175001,2,0,-0.77562290553066,13.94635697403916,1.611340112837059,-1.363907887692944e-05,4.524884064134984e-05,1.289072090269647e-05,5.143193482258252e-05,5.086654517415392e-05
54.73584391825,41.51415608175001,2,0,-0.9247421182914861,13.34988012299586,1.625991657718735,-1.363907887692944e-05,4.345941008821992e-05,1.300793326174988e-05,4.871408438410443e-05,4.925896517687413e-05
54.01415608175001,42.23584391825,2,0,-0.7365521191795552,13.95612467062694,1.387661293695793,-1.352186651787612e-05,4.524884064134984e-05,1.110129034956634e-05,5.154418813544853e-05,5.106586691163622e-05
54.73584391825,42.23584391825,2,0,-0.8856713319403813,13.35964781958363,1.402312838577429,-1.352186651787612e-05,4.345941008821992e-05,1.121850270861943e-05,4.882299583025358e-05,4.957665396687036e-05
52.76415608175,39.01415608175,2,0,-1.227341555982361,14.98729874797724,2.122226692769555,-1.591733197752535e-05,4.894122923831306e-05,1.697781354215644e-05,5.420419242459772e-05,5.400692848495716e-05
53.48584391825,39.01415608175,2,0,-1.400253396593243,14.29565138553371,2.15150035343177,-1.591733197752535e-05,4.686628715098247e-05,1.721200282745416e-05,5.107111048928371e-05,5.197209280742216e-05
52.76415608175,39.73584391825,2,0,-1.149278460883099,15.00681452175206,1.862858931853204,-1.568314269222756e-05,4.894122923831306e-05,1.490287145482563e-05,5.444729589925734e-05,5.379799762690828e-05
53.48584391825,39.73584391825,2,0,-1.322190301493963,14.3151671593086,1.892132592515446,-1.568314269222756e-05,4.686628715098269e-05,1.513706074012357e-05,5.130793281113041e-05,5.190941588478807e-05
52.76415608175,37.76415608175,2,0,-1.322813641641962,15.13921117262661,2.356261434267968,-1.634437259135556e-05,4.95037266657187e-05,1.885009147414374e-05,5.456669790445269e-05,5.4754074407998e-05
53.48584391825,37.76415608175,2,0,-1.511141998061206,14.38589774694963,2.387494508812075,-1.634437259135556e-05,4.724378638868776e-05,1.90999560704966e-05,5.116089887670335e-05,5.241725260220143e-05
52.76415608175,38.48584391825,2,0,-1.239525442857602,15.1600332223227,2.073768899639168,-1.609450799500248e-05,4.95037266657187e-05,1.659015119711334e-05,5.481738080418265e-05,5.426310848634432e-05
53.48584391825,38.48584391825,2,0,-1.427853799276747,14.40671979664612,2.105001974183316,-1.609450799500248e-05,4.724378638868896e-05,1.684001579346653e-05,5.140376718911703e-05,5.21081672457357e-05
54.01415608175001,37.76415608175,2,0,-1.057491926942183,13.94995193164001,2.467113823120012,-1.454393571152699e-05,4.548583972280177e-05,1.97369105849601e-05,5.08313556682531e-05,5.063230265464712e-05
54.73584391825,37.76415608175,2,0,-1.269396871223005,13.10233215451672,2.492944429130823,-1.454393571152699e-05,4.294298039143191e-05,1.994355543304658e-05,4.699949824789557e-05,4.809255051455065e-05
54.01415608175001,38.48584391825,2,0,-0.9886103109133497,13.96717233564722,2.149256406698726,-1.433729086344049e-05,4.548583972280177e-05,1.71940512535898e-05,5.100911467451852e-05,5.047463920025192e-05
54.73584391825,38.48584391825,2,0,-1.200515255194172,13.11955255852393,2.175087012709523,-1.433729086344049e-05,4.294298039143191e-05,1.740069610167618e-05,4.716711401747086e-05,4.816669882482038e-05
54.01415608175001,39.01415608175,2,0,-0.9579167892342615,13.91124780326448,2.17292897665731,-1.419433196816122e-05,4.528232640183373e-05,1.738343181325848e-05,5.089131790928687e-05,5.043811151660359e-05
54.73584391825,39.01415608175,2,0,-1.145626718961381,13.160408084356,2.195919741310688,-1.419433196816122e-05,4.302980724510831e-05,1.756735793048551e-05,4.748725128122707e-05,4.828203236958395e-05
54.01415608175001,39.73584391825,2,0,-0.896608083491921,13.92657497970006,1.8913640820667,-1.40104058509342e-05,4.528232640183373e-05,1.51309126565336e-05,5.106004199307035e-05,5.049597948338452e-05
54.73584391825,39.73584391825,2,0,-1.08431801321904,13.17573526079159,1.914354846720091,-1.40104058509342e-05,4.302980724510831e-05,1.531483877376073e-05,4.764873419708521e-05,4.852298116343873e-05
52.76415608175,36.51415608175,2,0,-1.395037240793765,15.36172825617883,2.571713284599991,-1.675350177548311e-05,5.027356021240726e-05,2.057370627679992e-05,5.526590552147601e-05,5.635914277246432e-05
53.48584391825,36.51415608175,2,0,-1.599172073542323,14.5451889251846,2.600782326204451,-1.675350177548311e-05,4.782394221942456e-05,2.080625860963561e-05,5.157881150469919e-05,5.362124550729664e-05
52.76415608175,37.23584391825,2,0,-1.31751979651505,15.38110761724851,2.26551103547722,-1.652094944264696e-05,5.027356021240726e-05,1.812408828381776e-05,5.548200671494163e-05,5.531570510225432e-05
53.48584391825,37.23584391825,2,0,-1.521654629263654,14.56456828625409,2.294580077081708,-1.652094944264696e-05,4.782394221942402e-05,1.835664061665366e-05,5.178596950331161e-05,5.282268070045914e-05
52.76415608175,35.26415608175,2,0,-1.408200377569966,15.6720655204309,2.760336468517647,-1.704389362456861e-05,5.127716996743484e-05,2.208269174814117e-05,5.646558277715121e-05,5.972599256937485e-05
53.48584391825,35.26415608175,2,0,-1.627415133563596,14.79520649645638,2.779120140749801,-1.704389362456861e-05,4.864659289551129e-05,2.223296112599841e-05,5.250522379516066e-05,5.63779420160839e-05
52.76415608175,35.98584391825,2,0,-1.358110584950816,15.68458796858569,2.431514334527284,-1.689362424671116e-05,5.127716996743484e-05,1.945211467621827e-05,5.656561585324588e-05,5.754087573763159e-05
53.48584391825,35.98584391825,2,0,-1.5773253409444,14.80772894461135,2.450298006759493,-1.689362424671116e-05,4.864659289551183e-05,1.960238405407594e-05,5.25964194507161e-05,5.457387490567026e-05
54.01415608175001,35.26415608175,2,0,-1.172859915960988,14.23738806691155,3.059148462050933,-1.51430621846044e-05,4.649792974688576e-05,2.447318769640747e-05,5.178575598773459e-05,5.376528395106107e-05
54.73584391825,35.26415608175,2,0,-1.442833234188099,13.15749479400311,3.075534751928672,-1.51430621846044e-05,4.325824992816043e-05,2.460427801542937e-05,4.692303182008752e-05,4.997541992760158e-05
54.01415608175001,35.98584391825,2,0,-1.129163142953713,14.24831226016337,2.654188484710416,-1.501197186558258e-05,4.649792974688576e-05,2.123350787768333e-05,5.18172030455578e-05,5.226928793572167e-05
54.73584391825,35.98584391825,2,0,-1.399136461180825,13.16841898725493,2.670574774588141,-1.501197186558258e-05,4.325824992816043e-05,2.136459819670512e-05,4.693860440046284e-05,4.894004007505455e-05
54.01415608175001,36.51415608175,2,0,-1.14073065745618,14.05108450450422,2.764338992665362,-1.489120570746315e-05,4.587605494037845e-05,2.21147119413229e-05,5.106850910619052e-05,5.150369070110894e-05
54.73584391825,36.51415608175,2,0,-1.380073075874114,13.09371483083249,2.789195112766441,-1.489120570746315e-05,4.300394591936325e-05,2.231356090213153e-05,4.67514326204316e-05,4.84563206477142e-05
54.01415608175001,37.23584391825,2,0,-1.074447670519719,14.06765525123834,2.405325365038488,-1.469235674665377e-05,4.587605494037845e-05,1.924260292030791e-05,5.12127052610226e-05,5.090803617326322e-05
54.73584391825,37.23584391825,2,0,-1.313790088937653,13.1102855775666,2.430181485139622,-1.469235674665377e-05,4.300394591936325e-05,1.944145188111698e-05,4.688230385859591e-05,4.817015444810306e-05
52.76415608175,34.01415608175,2,0,-1.324463055953975,16.08028880153932,2.90633982284032,-1.710251282028418e-05,5.251649460968899e-05,2.325071858272256e-05,5.830681137207465e-05,6.692492173154908e-05
53.48584391825,34.01415608175,2,0,-1.553731576344795,15.16321471997604,2.906670781730375,-1.710251282028418e-05,4.976527236499916e-05,2.3253366253843e-05,5.415635414396818e-05,6.2450269623234e-05
52.76415608175,34.73584391825,2,0,-1.323580498913854,16.08050944079935,2.562437042254065,-1.709986514916381e-05,5.251649460968899e-05,2.049949633803252e-05,5.821131970736875e-05,6.22404401151033e-05
53.48584391825,34.73584391825,2,0,-1.552849019304674,15.16343535923607,2.562768001144078,-1.709986514916381e-05,4.976527236499916e-05,2.050214400915263e-05,5.405383693092516e-05,5.848841561985819e-05
52.76415608175,32.76415608175,2,0,-1.03493079463437,16.63955541477011,3.05260044535435,-1.662342287464607e-05,5.407452196297185e-05,2.44208035628348e-05,6.1325217025397e-05,8.2879585300908e-05
53.48584391825,32.76415608175,2,0,-1.275043586181209,15.67910424858276,3.008671992486175,-1.662342287464607e-05,5.119316846440979e-05,2.40693759398894e-05,5.695447492119071e-05,7.583682565525941e-05
52.76415608175,33.48584391825,2,0,-1.152073335616041,16.6102697795247,2.692431258034052,-1.697485049759109e-05,5.407452196297185e-05,2.153945006427242e-05,6.076707134950451e-05,7.245516401638202e-05
53.48584391825,33.48584391825,2,0,-1.392186127162907,15.64981861333724,2.64850280516589,-1.697485049759109e-05,5.119316846440946e-05,2.118802244132712e-05,5.639425417451927e-05,6.709876208203908e-05
54.01415608175001,32.76415608175,2,0,-0.7311279754431848,15.00603672431755,3.686107751545999,-1.434443890087223e-05,4.860421989817069e-05,2.948886201236799e-05,5.622805248551378e-05,7.047717848687094e-05
54.73584391825,32.76415608175,2,0,-1.080443435683672,13.6087748833556,3.616191856418191,-1.434443890087223e-05,4.441243437528484e-05,2.892953485134553e-05,4.989410714089519e-05,6.287710975721703e-05
54.01415608175001,33.48584391825,2,0,-0.917570362450701,14.95942612756567,3.162134561185187,-1.490376606189478e-05,4.860421989817069e-05,2.52970764894815e-05,5.530796383884028e-05,6.295712947584279e-05
54.73584391825,33.48584391825,2,0,-1.266885822691188,13.56216428660372,3.092218666057378,-1.490376606189478e-05,4.441243437528484e-05,2.473774932845903e-05,4.896517230284987e-05,5.699838070329251e-05
54.01415608175001,34.01415608175,2,0,-1.090931804327735,14.54369652989653,3.357623605970453,-1.512593899776598e-05,4.741257433913109e-05,2.686098884776362e-05,5.329667132667695e-05,5.895952849168593e-05
54.73584391825,34.01415608175,2,0,-1.39730416242127,13.31820709752239,3.35166603248676,-1.512593899776598e-05,4.373610604200867e-05,2.681332825989408e-05,4.777383909476934e-05,5.389729847213569e-05
54.01415608175001,34.73584391825,2,0,-1.106818666950956,14.53972481424073,2.898065068830137,-1.517359958563564e-05,4.741257433913109e-05,2.31845205506411e-05,5.307022248070562e-05,5.555792850514584e-05
54.73584391825,34.73584391825,2,0,-1.413191025044491,13.31423538186659,2.89210749534639,-1.517359958563564e-05,4.373610604200867e-05,2.313685996277112e-05,4.753108761175108e-05,5.130371331173053e-05
52.76415608175,31.51415608175,2,0.1570501981945647,-0.3634575137065106,15.83392843141945,2.893374468798343,-1.640691623555136e-05,6.045358440367674e-05,2.745951858676562e-05,7.140104251144611e-05,0.0001177978881439201
53.48584391825,31.51415608175,2,0.05435722696706491,-0.8844021804405537,15.85624348562012,3.238257867807624,-1.640691623555136e-05,5.440479467032843e-05,2.739518947453398e-05,6.222493077774141e-05,0.000105517384917907
52.76415608175,32.23584391825,2,0,-0.4526164156213515,18.77859102224365,2.676341106677205,-1.647124534778324e-05,6.045358440367674e-05,2.141072885341764e-05,7.111533246958036e-05,9.502913161313089e-05
53.48584391825,32.23584391825,2,0,-0.956682226733629,16.76232777779454,2.668299967648264,-1.647124534778324e-05,5.440479467032941e-05,2.134639974118611e-05,6.191305022113501e-05,8.613106461812572e-05
52.76415608175,30.26415608175,2,0.4741208645808985,1.078210154913064,15.83575988640166,2.573649482538343,-1.752938040801511e-05,9.472112536439972e-05,3.915195426777696e-05,0.0001226336230324508,0.0001839416877812981
53.48584391825,30.26415608175,2,0.4079037527702014,0.4886354567239497,14.92839227170743,2.959807134969489,-1.752938040801511e-05,8.002068434947529e-05,3.999089200537706e-05,0.0001001918175507361,0.0001646246815091313
52.76415608175,30.98584391825,2,0.3054365802992212,1.618295416755965,20.96389533887763,2.122890832719983,-1.669044267041468e-05,9.472112536439972e-05,2.44515132528521e-05,0.0001233942926205767,0.0001416219357654259
53.48584391825,30.98584391825,2,0.2180605230663282,0.863972334843413,19.76953435374302,2.47195025236141,-1.669044267041468e-05,8.002068434947497e-05,2.529045099045274e-05,0.0001008466780775616,0.0001265496861741953
54.01415608175001,30.26415608175,2,0.3390067745797019,1.175664444962486,14.48048697604148,3.83247759022483,-1.183410518614524e-05,6.868001822332844e-05,4.638447043432757e-05,9.08370334817387e-05,0.0001484148596288037
54.73584391825,30.26415608175,2,0.1974139348320474,0.3384747847263769,13.22625903407047,4.563497597439768,-1.183410518614524e-05,5.239718318862684e-05,4.548793252705967e-05,6.615368651772113e-05,0.0001234458089403911
54.01415608175001,30.98584391825,2,0.1322765255032452,1.284046050905638,18.9445315256161,3.264986957124792,-1.273064309341345e-05,6.868001822332844e-05,3.01016353996264e-05,8.894657494759185e-05,0.000114580613640463
54.73584391825,30.98584391825,2,0,0.122884234581087,16.40484080509116,3.650637186544746,-1.273064309341345e-05,5.239718318862684e-05,2.920509749235797e-05,6.406780166910193e-05,9.695274894866966e-05
54.01415608175001,31.51415608175,2,0,-0.2294845281926747,15.69108984945583,3.976824095290113,-1.328722236978122e-05,5.03950751408128e-05,3.181459276232091e-05,6.04254368946213e-05,9.607503344398847e-05
54.73584391825,31.51415608175,2,0,-0.6383151736807768,14.05576726750342,3.89881597600597,-1.328722236978122e-05,4.548910739495557e-05,3.119052780804776e-05,5.299400115213605e-05,8.255855269923663e-05
54.01415608175001,32.23584391825,2,0,-0.4375061796170252,15.63908443659974,3.363578127057987,-1.391128732405427e-05,5.03950751408128e-05,2.69086250164639e-05,5.937735161562513e-05,7.935109410987086e-05
54.73584391825,32.23584391825,2,0,-0.8463368251051273,14.00376185464734,3.285570007773844,-1.391128732405427e-05,4.548910739495557e-05,2.628456006219075e-05,5.193172583212638e-05,6.97259372017177e-05
52.76415608175,29.01415608175,2,0.6800683452593437,2.39612696470274,16.79488733621505,2.08046413110727,-1.802979947888929e-05,0.0001619931542758339,5.202271423360692e-05,0.0002256448805057406,0.0002899288474503813
53.48584391825,29.01415608175,2,0.6502329154874531,2.075565064611006,16.1850482560402,2.28066736783304,-1.802979947888929e-05,0.0001433288167681814,5.216425372928373e-05,0.0001969380455103648,0.0002675559198625895
52.76415608175,29.73584391825,2,0.574296936934659,3.208386141649094,22.35240340129941,1.775095393890779,-1.78882599832118e-05,0.0001619931542758339,3.335837672595408e-05,0.000225487252884861,0.000223680404997999
53.48584391825,29.73584391825,2,0.5255770676106987,2.837672876728308,21.95894245263515,1.986641061082756,-1.78882599832118e-05,0.0001433288167681821,3.349991622163088e-05,0.0001967277100516735,0.0002024071879525148
52.76415608175,27.76415608175,2,0.7952023905397156,4.179269105392469,18.18606668553163,1.459965443560187,-5.738310199354672e-06,0.0002678351483395829,5.703056583161194e-05,0.0004060980483459959,0.0004287256727608249
53.48584391825,27.76415608175,2,0.7893012850710167,4.210285609097906,18.35246066747651,1.264051273786894,-5.738310199354672e-06,0.0002627431575332847,4.799464578463886e-05,0.0003981191415181194,0.0004184199849351725
52.76415608175,28.48584391825,2,0.7368204218166957,4.577969885485695,23.1722241472071,1.708646533325487,-1.477423024632738e-05,0.0002678351483395829,5.193857502531346e-05,0.0003933504598687894,0.0003448705613575438
53.48584391825,28.48584391825,2,0.7189515284554432,4.769538626467476,24.26849804209199,1.507215700858266,-1.477423024632738e-05,0.0002627431575332848,4.290265497834071e-05,0.0003853807933372113,0.0003254363743670792
54.01415608175001,27.76415608175,2,0.7749603752249058,4.52947386352347,17.85597245084766,4.401144909092173,9.311178100585176e-07,0.0002378049323774755,0.0001564575985581455,0.0003720454824961351,0.000395346837719234
54.73584391825,27.76415608175,2,0.7348517822756233,3.943834393576062,15.4667322895187,4.830154978974549,9.311178100585176e-07,0.0001747644250046143,0.0001457344882927488,0.0002752280731937942,0.0003426155150577459
54.01415608175001,28.48584391825,2,0.6921935205255747,5.095145344824422,24.14812978519501,3.594298245060449,-9.791992455338439e-06,0.0002378049323774755,9.341709118528387e-05,0.0003548422521965607,0.0003001352489502171
54.73584391825,28.48584391825,2,0.6237980483347937,4.250970923235525,21.60859203342872,3.888704626628352,-9.791992455338439e-06,0.0001747644250046143,8.269398091988699e-05,0.0002575637002751536,0.0002504454758102031
54.01415608175001,29.01415608175,2,0.6114861179101654,2.280052062458899,15.55481863187929,4.029685181502026,-1.324968950387383e-05,0.0001234225601260729,8.29763952799042e-05,0.0001741167042754353,0.0002432048279313903
54.73584391825,29.01415608175,2,0.5169321641743112,1.397001388900907,13.58862909810198,5.087483350584111,-1.324968950387383e-05,8.770199309666527e-05,8.425290153111977e-05,0.0001199857207696101,0.0001990493351405369
54.01415608175001,29.73584391825,2,0.4708443895369853,3.330585981286418,21.24194029170293,3.125710830728318,-1.197318325265803e-05,0.0001234225601260729,4.725582825049592e-05,0.0001745460568583794,0.0001828796139740727
54.73584391825,29.73584391825,2,0.3500869066012711,2.156046614035696,18.35109716309883,3.942724955733647,-1.197318325265803e-05,8.770199309666527e-05,4.853233450171149e-05,0.000119769265120572,0.000150802506759625
55.26415608175,49.01415608175001,2,0,-0.3391042051909152,13.57791334681336,0.1639538368273711,-1.194746413406161e-05,4.372060607395548e-05,1.311630694618969e-06,5.11590078330886e-05,5.078861341288963e-05
55.98584391825001,49.01415608175001,2,0,-0.4298870709342553,13.21478188384,0.1639030714346948,-1.194746413406161e-05,4.263121168503539e-05,1.311224571477559e-06,4.94924862770373e-05,4.992895331268558e-05
55.26415608175,49.73584391825,2,0,-0.3392395795714664,13.57787950321822,0.027779538212347,-1.194787025720327e-05,4.372060607395548e-05,2.22236305698776e-07,5.115688020113833e-05,5.082512943537017e-05
55.98584391825001,49.73584391825,2,0,-0.4300224453147434,13.21474804024511,0.02772877281964365,-1.194787025720327e-05,4.263121168503615e-05,2.218301825571492e-07,4.949030984648835e-05,4.997286711045349e-05
55.26415608175,47.76415608175001,2,0,-0.3455833174037268,13.55049226711442,0.3588165131223047,-1.194626042938346e-05,4.363804190868912e-05,2.870532104978438e-06,5.10404799386886e-05,5.062611733613159e-05
55.98584391825001,47.76415608175001,2,0,-0.4386396997082782,13.17826673789621,0.3587199690454945,-1.194626042938346e-05,4.25213653210345e-05,2.869759752363956e-06,4.933251673142145e-05,4.973297820632902e-05
55.26415608175,48.48584391825001,2,0,-0.3458407682750173,13.5504279043966,0.2192319396654777,-1.194703278199733e-05,4.363804190868912e-05,1.753855517323821e-06,5.103453061080091e-05,5.073528828161629e-05
55.98584391825001,48.48584391825001,2,0,-0.4388971505794963,13.17820237517868,0.2191353955887624,-1.194703278199733e-05,4.252136532103537e-05,1.753083164710099e-06,4.932640926093228e-05,4.986467527455425e-05
56.51415608175001,47.76415608175001,2,0,-0.1739012495640417,13.0088672070604,0.290630601839273,-1.096357776425325e-05,4.176749606224451e-05,2.325044814714184e-06,4.947192453432438e-05,4.913185652504946e-05
57.23584391825,47.76415608175001,2,0,-0.2524789603734887,12.69455636382261,0.2882940222086742,-1.096357776425325e-05,4.082456353253115e-05,2.306352177669393e-06,4.802806384870717e-05,4.838270067999522e-05
56.51415608175001,48.48584391825001,2,0,-0.1801321285788724,13.00730948730669,0.1727640356250209,-1.098227040129775e-05,4.176749606224451e-05,1.382112285000167e-06,4.944373797019347e-05,4.927953066879119e-05
57.23584391825,48.48584391825001,2,0,-0.2587098393883287,12.69299864406887,0.1704274559945033,-1.098227040129775e-05,4.082456353253104e-05,1.363419647956027e-06,4.799986886202272e-05,4.855149888306577e-05
56.51415608175001,49.01415608175001,2,0,-0.1723747959509865,13.04977200172511,0.1339963115396648,-1.099141694842325e-05,4.189717024228115e-05,1.071970492317318e-06,4.962949767938672e-05,4.935157470187251e-05
57.23584391825,49.01415608175001,2,0,-0.2487118065869862,12.74442395918111,0.1332092872374904,-1.099141694842325e-05,4.098112611464915e-05,1.065674297899923e-06,4.822673492082305e-05,4.863380710206465e-05
56.51415608175001,49.73584391825,2,0,-0.1744735274233022,13.04924731885703,0.01949079558562434,-1.099771314284019e-05,4.189717024228115e-05,1.559263646849947e-07,4.96200579333744e-05,4.940072851689947e-05
57.23584391825,49.73584391825,2,0,-0.2508105380593109,12.743899276313,0.0187037712835042,-1.099771314284019e-05,4.098112611464904e-05,1.496301702680336e-07,4.82172939263197e-05,4.868987913518913e-05
55.26415608175,46.51415608175,2,0,-0.359173054447925,13.49616377387999,0.5597598253550792,-1.194628479333735e-05,4.347506251997429e-05,4.478078602840633e-06,5.080243194667379e-05,5.033950828794615e-05
55.98584391825001,46.51415608175,2,0,-0.4568729648042686,13.10536413245461,0.559787923718979,-1.194628479333735e-05,4.230266359569817e-05,4.478303389751832e-06,4.90098473364321e-05,4.938529271986303e-05
55.26415608175,47.23584391825001,2,0,-0.3590981254774848,13.4961825061226,0.4132099598205233,-1.194606000642603e-05,4.347506251997429e-05,3.305679678564186e-06,5.079397528742282e-05,5.052006840645058e-05
55.98584391825001,47.23584391825001,2,0,-0.4567980358337924,13.10538286469737,0.4132380581844367,-1.194606000642603e-05,4.23026635956986e-05,3.305904465475493e-06,4.90010845783424e-05,4.960452803793793e-05
55.26415608175002,45.26415608175,2,0,-0.3807234050377835,13.41616031076311,0.7698937911198027,-1.195124314473139e-05,4.323629171847218e-05,6.159150328958422e-06,5.044798694971754e-05,4.993279507726931e-05
55.98584391825001,45.26415608175001,2,0,-0.4856333846338643,12.99652039237882,0.7703399828286274,-1.195124314473142e-05,4.197737196331931e-05,6.162719862629019e-06,4.85241657934513e-05,4.888710510694883e-05
55.26415608175001,45.98584391825,2,0,-0.3795335604808137,13.41645777190235,0.6125288217255455,-1.194767361106048e-05,4.323629171847218e-05,4.900230573804364e-06,5.04392446693651e-05,5.018214887366059e-05
55.98584391825001,45.98584391825,2,0,-0.484443540076922,12.99681785351792,0.6129750134343972,-1.194767361106048e-05,4.197737196331888e-05,4.903800107475178e-06,4.851489288374944e-05,4.919305982487891e-05
56.51415608175001,45.26415608175001,2,0,-0.1892754543457147,12.80253645278908,0.6260033701869323,-1.084771061613755e-05,4.111953701240161e-05,5.008026961495458e-06,4.865263951691049e-05,4.817726593806695e-05
57.23584391825,45.26415608175001,2,0,-0.2796695306255952,12.44096014766956,0.6208573932043986,-1.084771061613755e-05,4.003480809704305e-05,4.966859145635188e-06,4.699226290390034e-05,4.728363923371716e-05
56.51415608175001,45.98584391825,2,0,-0.2029980596325167,12.79910580146738,0.4904122557671388,-1.088887843199795e-05,4.111953701240161e-05,3.92329804613711e-06,4.858848560862561e-05,4.852364954542706e-05
57.23584391825,45.98584391825,2,0,-0.2933921359124154,12.43752949634778,0.4852662787845508,-1.088887843199795e-05,4.003480809704283e-05,3.882130230276407e-06,4.692801778165136e-05,4.768387569955965e-05
56.51415608175001,46.51415608175,2,0,-0.1793520676510241,12.92646985765745,0.4535031728790991,-1.091510250260924e-05,4.150818519862466e-05,3.628025383032793e-06,4.914663647224843e-05,4.874074850323363e-05
57.23584391825,46.51415608175,2,0,-0.262531769495689,12.59375105027879,0.4496934631998631,-1.091510250260924e-05,4.051002877648868e-05,3.597547705598905e-06,4.761840820495708e-05,4.793403652368568e-05
56.51415608175001,47.23584391825001,2,0,-0.1895112934622252,12.92393005120465,0.3287336201119933,-1.094558018004284e-05,4.150818519862466e-05,2.629868960895947e-06,4.910011179798255e-05,4.898749027889651e-05
57.23584391825,47.23584391825001,2,0,-0.2726909953069083,12.59121124382592,0.3249239104328115,-1.094558018004284e-05,4.051002877648847e-05,2.599391283462493e-06,4.757185162513242e-05,4.821725213944787e-05
55.26415608175001,44.01415608175001,2,0,-0.4114238554947356,13.31261276023187,0.992516863346102,-1.196664654576865e-05,4.292949991713778e-05,7.940134906768816e-06,4.998320415861102e-05,4.94134880023832e-05
55.98584391825001,44.01415608175001,2,0,-0.5264129316775228,12.85265645550072,0.9938068156591047,-1.196664654576865e-05,4.154963100294433e-05,7.950454525272837e-06,4.787628145052539e-05,4.824165527670973e-05
55.26415608175002,44.73584391825,2,0,-0.4079839826599581,13.31347272844057,0.8200332490717992,-1.195632692726432e-05,4.292949991713778e-05,6.560265992574393e-06,4.997729164549196e-05,4.972683301756354e-05
55.98584391825001,44.73584391825,2,0,-0.5229730588427453,12.85351642370942,0.8213232013848425,-1.195632692726432e-05,4.154963100294433e-05,6.57058561107874e-06,4.786947730797628e-05,4.863217702659954e-05
55.26415608175,42.76415608175,2,0,-0.4527218906541535,13.18889598240517,1.23108915622292,-1.199982683601742e-05,4.256664465621986e-05,9.848713249783364e-06,4.941875971404995e-05,4.879509143997957e-05
55.98584391825001,42.76415608175,2,0,-0.581073021049801,12.67549146082258,1.233779721826432,-1.199982683601742e-05,4.102643109147209e-05,9.870237774611454e-06,4.706977163200023e-05,4.745641972521534e-05
55.26415608175,43.48584391825001,2,0,-0.4455470490448392,13.1906896928075,1.038562460629368,-1.197830231118948e-05,4.256664465621986e-05,8.308499685034942e-06,4.94195061938938e-05,4.916382859912284e-05
55.98584391825001,43.48584391825001,2,0,-0.5738981794404867,12.67728517122491,1.041253026232798,-1.197830231118948e-05,4.102643109147209e-05,8.330024209862383e-06,4.706903078719733e-05,4.792661205731864e-05
56.51415608175001,42.76415608175,2,0,-0.2260267100763378,12.43099275739905,1.015756462411052,-1.066807967816352e-05,3.995999819173804e-05,8.126051699288415e-06,4.71576453264107e-05,4.653532932279248e-05
57.23584391825,42.76415608175,2,0,-0.3404713184355153,11.97321432396234,1.008651158860936,-1.066807967816352e-05,3.858666289142791e-05,8.069209270887491e-06,4.505779488753311e-05,4.535753525966637e-05
56.51415608175001,43.48584391825001,2,0,-0.2449741862099928,12.42625588836564,0.844089549872245,-1.072492210656449e-05,3.995999819173804e-05,6.752716398977961e-06,4.706149214085329e-05,4.707901467069028e-05
57.23584391825,43.48584391825001,2,0,-0.3594187945691338,11.96847745492908,0.8369842463221296,-1.072492210656449e-05,3.858666289142834e-05,6.695873970577037e-06,4.496114331800439e-05,4.600055208776473e-05
56.51415608175001,44.01415608175001,2,0,-0.2044816344669735,12.63719224444822,0.8119586730335928,-1.076409502585289e-05,4.060260048980788e-05,6.495669384268743e-06,4.79893088598375e-05,4.744125804764964e-05
57.23584391825,44.01415608175001,2,0,-0.3051038481437436,12.23470338974114,0.8056861758611158,-1.076409502585289e-05,3.939513392568663e-05,6.445489406888927e-06,4.614182536635724e-05,4.642636487720061e-05
56.51415608175001,44.73584391825,2,0,-0.221208293593719,12.63301057966653,0.6610253525184779,-1.081427500323313e-05,4.060260048980788e-05,5.288202820147823e-06,4.790854111831895e-05,4.788724001035219e-05
57.23584391825,44.73584391825,2,0,-0.3218305072705161,12.23052172495934,0.6547528553459332,-1.081427500323313e-05,3.939513392568631e-05,5.238022842767465e-06,4.606083460749194e-05,4.694669022440315e-05
55.26415608175,41.51415608175001,2,0,-0.506072609014204,13.05012542527038,1.489101998393549,-1.205953268906175e-05,4.216525944807656e-05,1.191281598714839e-05,4.877270656096607e-05,4.810158568049191e-05
55.98584391825001,41.51415608175001,2,0,-0.6515938380589721,12.4680405090913,1.493844528255211,-1.205953268906175e-05,4.041900469953935e-05,1.195075622604169e-05,4.611384124653796e-05,4.654714608988259e-05
55.26415608175,42.23584391825,2,0,-0.4934258627164301,13.05328711184482,1.270820154826262,-1.202159245016843e-05,4.216525944807656e-05,1.016656123861009e-05,4.878403561025011e-05,4.851046430777559e-05
55.98584391825001,42.23584391825,2,0,-0.6389470917612612,12.4712021956655,1.275562684687924,-1.202159245016843e-05,4.041900469953859e-05,1.020450147750339e-05,4.61226920800387e-05,4.708679293326614e-05
55.26415608175,40.26415608175,2,0,-0.5723075691594572,12.90380445312197,1.769778883039042,-1.215442778380784e-05,4.175002030531788e-05,1.415823106431233e-05,4.807486330484695e-05,4.73756259647355e-05
55.98584391825001,40.26415608175,2,0,-0.7394287354865559,12.23531978781358,1.77719162983561,-1.215442778380784e-05,3.974456630939269e-05,1.421753303868488e-05,4.502808215685594e-05,4.55452591005657e-05
55.26415608175,40.98584391825,2,0,-0.5525402443687173,12.90874628431966,1.519097133548448,-1.209512580943562e-05,4.175002030531788e-05,1.215277706838758e-05,4.809916845654418e-05,4.779750666294392e-05
55.98584391825001,40.98584391825,2,0,-0.7196614106957346,12.24026161901159,1.526509880344935,-1.209512580943562e-05,3.974456630939367e-05,1.221207904275948e-05,4.504827105483354e-05,4.613409334431811e-05
56.51415608175001,40.26415608175,2,0,-0.2926582862479301,11.90309936374931,1.497447211112681,-1.045898600699282e-05,3.832404459299613e-05,1.197957768890145e-05,4.501647547380092e-05,4.426265839569116e-05
57.23584391825,40.26415608175,2,0,-0.4489485784721521,11.27793819485242,1.489810713111998,-1.045898600699282e-05,3.644856108630547e-05,1.191848570489598e-05,4.215649800581797e-05,4.258889496817108e-05
56.51415608175001,40.98584391825,2,0,-0.3130222809163286,11.89800836508221,1.263011772776375,-1.052007799099802e-05,3.832404459299613e-05,1.0104094182211e-05,4.489135992664432e-05,4.497511930123009e-05
57.23584391825,40.98584391825,2,0,-0.4693125731404875,11.27284719618557,1.255375274775692,-1.052007799099802e-05,3.644856108630623e-05,1.004300219820554e-05,4.202922127401009e-05,4.347215664935126e-05
56.51415608175001,41.51415608175001,2,0,-0.2551003548410811,12.18534031461583,1.24240546980202,-1.056459338718412e-05,3.91971692906435e-05,9.939243758416163e-06,4.616250969466084e-05,4.546844601381356e-05
57.23584391825,41.51415608175001,2,0,-0.3877554937738497,11.65471975888475,1.234839677289595,-1.056459338718412e-05,3.760530762345028e-05,9.878717418316759e-06,4.373111043972585e-05,4.407582219034857e-05
56.51415608175001,42.23584391825,2,0,-0.2752758015408143,12.18029645294089,1.043422761402922,-1.062511972728332e-05,3.91971692906435e-05,8.347382091223373e-06,4.605201965209552e-05,4.610377875184092e-05
57.23584391825,42.23584391825,2,0,-0.4079309404735105,11.64967589721011,1.035856968890523,-1.062511972728332e-05,3.760530762345114e-05,8.286855751124186e-06,4.361956475088395e-05,4.484180543802172e-05
55.26415608175,39.01415608175,2,0,-0.6502025237995364,12.76056115666034,2.075546265810618,-1.228909700148679e-05,4.135395772035273e-05,1.660437012648494e-05,4.737367079639584e-05,4.66940371468023e-05
55.98584391825001,39.01415608175,2,0,-0.8440347647114668,11.98523219301262,2.085883114987582,-1.228909700148679e-05,3.902797082940956e-05,1.668706491990066e-05,4.3850048399778e-05,4.451163266282136e-05
55.26415608175,39.73584391825,2,0,-0.6226375926610137,12.76745238944497,1.784797904442776,-1.220640220807122e-05,4.135395772035273e-05,1.427838323554221e-05,4.740807811203801e-05,4.70799521990222e-05
55.98584391825001,39.73584391825,2,0,-0.8164698335729264,11.99212342579732,1.79513475361974,-1.220640220807122e-05,3.902797082940977e-05,1.436107802895792e-05,4.387769519268489e-05,4.511052207122093e-05
55.26415608175,37.76415608175,2,0,-0.7334560547040376,12.63478182213438,2.407309143625378,-1.245488483276042e-05,4.101806667459323e-05,1.925847314900302e-05,4.6746805374585e-05,4.61982345816584e-05
55.98584391825001,37.76415608175,2,0,-0.959797949990695,11.72941424098775,2.419710032707507,-1.245488483276042e-05,3.830196393115335e-05,1.935768026166006e-05,4.264658072665241e-05,4.3562619347286e-05
55.26415608175,38.48584391825,2,0,-0.70038701715167,12.64304908152247,2.067796300695378,-1.235567772010332e-05,4.101806667459323e-05,1.654237040556302e-05,4.677527132076042e-05,4.645778162328473e-05
55.98584391825001,38.48584391825,2,0,-0.9267289124382367,11.7376815003762,2.08019718977748,-1.235567772010332e-05,3.830196393115443e-05,1.664157751821984e-05,4.266423115957322e-05,4.409687337799397e-05
56.51415608175001,37.76415608175,2,0,-0.3885236808847861,11.25256010342433,2.114499099044158,-1.024532386157077e-05,3.631901127566567e-05,1.691599279235326e-05,4.240356903138308e-05,4.167379182182429e-05
57.23584391825,37.76415608175,2,0,-0.6136424026001883,10.35208521656272,2.106520276843455,-1.024532386157077e-05,3.361758661508084e-05,1.685216221474764e-05,3.830790932580942e-05,3.91490342896813e-05
56.51415608175001,38.48584391825,2,0,-0.4098005400868461,11.24724088862381,1.776821016471054,-1.030915443917695e-05,3.631901127566567e-05,1.421456813176843e-05,4.222405944528944e-05,4.241620389960343e-05
57.23584391825,38.48584391825,2,0,-0.6349192618022665,10.34676600176213,1.768842194270243,-1.030915443917695e-05,3.361758661508062e-05,1.415073755416194e-05,3.812004594408897e-05,4.018543773900574e-05
56.51415608175001,39.01415608175,2,0,-0.3384337728611007,11.58941290137015,1.786548185280236,-1.035451839425164e-05,3.735686830267336e-05,1.429238548224189e-05,4.374631335016713e-05,4.296561251109957e-05
57.23584391825,39.01415608175,2,0,-0.5250629492738943,10.84289619571898,1.779034928718363,-1.035451839425164e-05,3.511731818571983e-05,1.42322794297469e-05,4.033931499666742e-05,4.092421139087168e-05
56.51415608175001,39.73584391825,2,0,-0.3584691236927995,11.58440406366223,1.506604420661059,-1.041462444674674e-05,3.735686830267336e-05,1.205283536528847e-05,4.360197472941576e-05,4.37242126741076e-05
57.23584391825,39.73584391825,2,0,-0.5450983001056113,10.83788735801098,1.499091164099185,-1.041462444674674e-05,3.511731818571962e-05,1.199272931279348e-05,4.01906655110503e-05,4.190617509382402e-05
55.26415608175,36.51415608175,2,0,-0.8049365612016044,12.54475955038743,2.763915419580349,-1.261160463615507e-05,4.078717981020104e-05,2.211132335664279e-05,4.631715115577163e-05,4.61563095388114e-05
55.98584391825001,36.51415608175,2,0,-1.070287279365839,11.48335667773049,2.774933468695283,-1.261160463615507e-05,3.760297119223023e-05,2.219946774956226e-05,4.152861002724061e-05,4.291993238444374e-05
55.26415608175,37.23584391825,2,0,-0.775555096895141,12.55210491646404,2.365889342333929,-1.252346024323568e-05,4.078717981020104e-05,1.892711473867143e-05,4.629553166924934e-05,4.611745538008576e-05
55.98584391825001,37.23584391825,2,0,-1.04090581505943,11.49070204380689,2.376907391448877,-1.252346024323568e-05,3.760297119222958e-05,1.901525913159102e-05,4.149053639936801e-05,4.324725895853495e-05
55.26415608175,35.26415608175,2,0,-0.8258057030366213,12.51266105952808,3.144225090673716,-1.265270709733965e-05,4.070115995291916e-05,2.515380072538973e-05,4.628319068711581e-05,4.709259172928421e-05
55.98584391825001,35.26415608175,2,0,-1.138007362491342,11.2638544217092,3.145033949549279,-1.265270709733965e-05,3.69547400394625e-05,2.516027159639423e-05,4.066763564511683e-05,4.300642264511354e-05
55.26415608175,35.98584391825,2,0,-0.8236487460352113,12.51320029877843,2.675922601491621,-1.264623622633542e-05,4.070115995291916e-05,2.140738081193297e-05,4.611094880611503e-05,4.641759653608123e-05
55.98584391825001,35.98584391825,2,0,-1.135850405489842,11.26439366095991,2.676731460367115,-1.264623622633542e-05,3.695474003946359e-05,2.141385168293692e-05,4.047243278573286e-05,4.285540048875639e-05
56.51415608175001,35.26415608175,2,0,-0.426947669980958,10.55755029145707,2.890033278961856,-9.812272777104717e-06,3.412571906864737e-05,2.312026623169485e-05,3.994159615959249e-05,4.002663890741254e-05
57.23584391825,35.26415608175,2,0,-0.7588317628824552,9.230013919851077,2.866842523082126,-9.812272777104717e-06,3.014310995382941e-05,2.293474018465701e-05,3.396245190527378e-05,3.597188742427048e-05
56.51415608175001,35.98584391825,2,0,-0.4887896856601288,10.54208978753727,2.392207139609596,-9.99779882414223e-06,3.412571906864737e-05,1.913765711687677e-05,3.949796691836333e-05,4.026609844781278e-05
57.23584391825,35.98584391825,2,0,-0.8206737785616172,9.21455341593132,2.369016383729934,-9.99779882414223e-06,3.014310995382951e-05,1.895213106983948e-05,3.349258816734423e-05,3.675418976283713e-05
56.51415608175001,36.51415608175,2,0,-0.4297801936456564,10.9042873049142,2.483397275151114,-1.009872646359746e-05,3.523754353064196e-05,1.986717820120891e-05,4.108154299783502e-05,4.05752793015908e-05
57.23584391825,36.51415608175,2,0,-0.7029685215949635,9.811533993116972,2.472120601169472,-1.009872646359746e-05,3.195928359525028e-05,1.977696480935578e-05,3.613389616234477e-05,3.740594510720892e-05
56.51415608175001,37.23584391825,2,0,-0.4598513242635249,10.89676952225973,2.073614783227261,-1.018893985545107e-05,3.523754353064196e-05,1.658891826581809e-05,4.082358248589523e-05,4.118051756247557e-05
57.23584391825,37.23584391825,2,0,-0.7330396522127867,9.804016210462686,2.062338109245565,-1.018893985545107e-05,3.195928359525082e-05,1.649870487396453e-05,3.58604723989797e-05,3.840427148364626e-05
55.26415608175,34.01415608175,2,0,-0.7114914770644547,12.56120992256414,3.554508499849934,-1.232574066465756e-05,4.07650649338568e-05,2.843606799879947e-05,4.697923831328865e-05,5.005802283921875e-05
55.98584391825001,34.01415608175,2,0,-1.081538723903634,11.08102093520742,3.524372261630486,-1.232574066465756e-05,3.632449797178665e-05,2.819497809304389e-05,4.032940662607771e-05,4.46311567649328e-05
55.26415608175,34.73584391825,2,0,-0.7918547789829327,12.54111909708452,2.999437629591097,-1.2566830570413e-05,4.07650649338568e-05,2.399550103672878e-05,4.643110954715409e-05,4.806804101728457e-05
55.98584391825001,34.73584391825,2,0,-1.161902025822157,11.06093010972762,2.969301391371677,-1.2566830570413e-05,3.632449797178611e-05,2.375441113097341e-05,3.975401195208894e-05,4.34822351052547e-05
55.26415608175,32.76415608175,2,0,-0.3532444545242153,12.70050901692027,4.00565659904987,-1.12907894680137e-05,4.092422441776423e-05,3.204525279239896e-05,4.877099633345372e-05,5.721043722016128e-05
55.98584391825001,32.76415608175,2,0,-0.7980928969352314,10.92111524727621,3.919026972330172,-1.12907894680137e-05,3.558604310883204e-05,3.135221577864138e-05,4.075842369514756e-05,4.932886866806545e-05
55.26415608175,33.48584391825,2,0,-0.5842567924434627,12.64275593244046,3.338383935433224,-1.198382648177145e-05,4.092422441776423e-05,2.670707148346579e-05,4.756272575265695e-05,5.250772051858869e-05
55.98584391825001,33.48584391825,2,0,-1.029105234854524,10.86336216279621,3.251754308713541,-1.198382648177145e-05,3.558604310883149e-05,2.601403446970832e-05,3.952199140858395e-05,4.619775750647988e-05
56.51415608175001,32.76415608175,2,0,0.09862121621988384,9.867559682457953,3.769971399808164,-7.578459854062734e-06,3.149729401088954e-05,3.015977119846531e-05,3.935519930671124e-05,4.372910375011384e-05
57.23584391825,32.76415608175,2,0,-0.3874195309901198,7.923396693617939,3.640997761602152,-7.578459854062734e-06,2.56648050443695e-05,2.912798209281722e-05,3.063608698040503e-05,3.631183003527368e-05
56.51415608175001,33.48584391825,2,0,-0.2453084856628043,9.781577256987282,3.040910278993239,-8.610248959710798e-06,3.149729401088954e-05,2.432728223194592e-05,3.761883641799523e-05,4.164971670012316e-05
57.23584391825,33.48584391825,2,0,-0.731349232872772,7.837414268147411,2.911936640787255,-8.610248959710798e-06,2.566480504436993e-05,2.329549312629804e-05,2.885668620077102e-05,3.553420115384063e-05
56.51415608175001,34.01415608175,2,0,-0.3045839083047666,10.21637417976317,3.321601391993433,-9.147767850385785e-06,3.293606450188594e-05,2.657281113594746e-05,3.922237324983117e-05,4.068793040762692e-05
57.23584391825,34.01415608175,2,0,-0.7059843613179266,8.610772367710526,3.267008915272621,-9.147767850385785e-06,2.811925906572802e-05,2.613607132218097e-05,3.202232094916092e-05,3.534170172755046e-05
56.51415608175001,34.73584391825,2,0,-0.4501638462269342,10.17997919528263,2.719500712473693,-9.584507664152288e-06,3.293606450188594e-05,2.175600569978954e-05,3.837069063591451e-05,4.013966844038286e-05
57.23584391825,34.73584391825,2,0,-0.8515642992400849,8.574377383230022,2.664908235752868,-9.584507664152288e-06,2.811925906572813e-05,2.131926588602295e-05,3.113235335530512e-05,3.559341239590858e-05
55.26415608175,31.51415608175,2,0,0.5569957565582269,13.01395589800659,4.61472864306626,-8.628778297418944e-06,4.119906226837449e-05,3.691782914453008e-05,5.2983464274418e-05,7.287397724316637e-05
55.98584391825001,31.51415608175,2,0,-0.01089203571033925,10.74240472893232,4.394350053183989,-8.628778297418944e-06,3.438440876115171e-05,3.515480042547191e-05,4.267015007809135e-05,5.993170579107486e-05
55.26415608175,32.23584391825,2,0,-0.03068048312774785,12.8670368380851,3.762896954663411,-1.039180701647687e-05,4.119906226837449e-05,3.010317563730729e-05,5.023778656418857e-05,6.266755926218694e-05
55.98584391825001,32.23584391825,2,0,-0.5985682753962775,10.59548566901098,3.542518364781154,-1.039180701647687e-05,3.438440876115214e-05,2.834014691824923e-05,3.990447613553303e-05,5.300886901969895e-05
55.26415608175,30.26415608175,2,0.05317467392658248,1.857701651462001,13.10920401241473,5.11016778035566,-4.797841587204373e-06,4.273575115102063e-05,4.317728002944791e-05,6.084732646981821e-05,0.0001053908767893975
55.98584391825001,30.26415608175,2,0,1.119308052930541,10.47453419572763,5.10565522980604,-4.797841587204373e-06,3.262306298398398e-05,4.084524183844832e-05,4.554239760550209e-05,8.103293551198977e-05
55.26415608175,30.98584391825,2,0,1.184686003183588,13.65109373548985,4.133073982801354,-7.129879778204395e-06,4.273575115102063e-05,3.306459186241083e-05,5.706206003033767e-05,8.432165567220459e-05
55.98584391825001,30.98584391825,2,0,0.341961989263786,10.28019767981064,3.841569208926337,-7.129879778204395e-06,3.262306298398301e-05,3.07325536714107e-05,4.166658453215611e-05,6.744073177608658e-05
56.51415608175001,30.26415608175,2,0,2.636551514206643,8.650249260022086,4.682443638867064,1.516765437443589e-06,2.557155642070536e-05,3.745954911093651e-05,4.330996172052092e-05,6.543893825902515e-05
57.23584391825,30.26415608175,2,0,1.87385267799302,5.599453915167592,4.221962695660737,1.516765437443589e-06,1.641917038614187e-05,3.377570156528589e-05,2.949950526069832e-05,4.71932867464328e-05
56.51415608175001,30.98584391825,2,0,1.408602332323068,8.343261964551193,3.538395384546642,-2.167082108207137e-06,2.557155642070536e-05,2.830716307637314e-05,3.753934183254957e-05,5.624942493811351e-05
57.23584391825,30.98584391825,2,0,0.645903496109426,5.292466619696625,3.077914441340234,-2.167082108207137e-06,1.641917038614166e-05,2.462331553072187e-05,2.362558944927537e-05,4.255512994849622e-05
56.51415608175001,31.51415608175,2,0,1.009271806867224,9.404920731149495,4.218918542489607,-4.29426680294448e-06,2.92883288941846e-05,3.375134833991686e-05,4.066157041034102e-05,5.111162690167047e-05
57.23584391825,31.51415608175,2,0,0.4169305060877042,7.035555528031418,3.952952402776834,-4.29426680294448e-06,2.218023328483037e-05,3.162361922221467e-05,2.997026288528083e-05,3.995699470011901e-05
56.51415608175001,32.23584391825,2,0,0.3000287676333566,9.227609971341028,3.330406591320302,-6.42199592064608e-06,2.92883288941846e-05,2.664325273056241e-05,3.73136412414245e-05,4.626441494739534e-05
57.23584391825,32.23584391825,2,0,-0.2923125331461718,6.858244768222915,3.064440451607637,-6.42199592064608e-06,2.218023328483026e-05,2.45155236128611e-05,2.658025985949007e-05,3.749691399425167e-05
55.26415608175,29.01415608175,2,0.4114097612750715,3.379495603766481,12.48999732814599,5.395795590127078,1.397216629547742e-06,6.331126905498871e-05,7.333856710659784e-05,0.0001024551826511622,0.0001655449633167644
55.98584391825001,29.01415608175,2,0.1597897843944963,2.659545772471098,9.170738482934514,7.291799801031951,1.397216629547742e-06,3.239513876631241e-05,6.942833748601414e-05,5.638072618031847e-05,0.0001181648100055007
55.26415608175,29.73584391825,2,0.2219668056111939,3.453119900319741,16.25648900747433,4.125758003900557,-2.513012991035976e-06,6.331126905498871e-05,4.24224368179211e-05,9.522548807596969e-05,0.0001271545964786646
55.98584391825001,29.73584391825,2,0,1.861923900180709,10.58896183951781,4.814025899667135,-2.513012991035976e-06,3.239513876631241e-05,3.851220719733707e-05,4.807285715455288e-05,9.462441130995137e-05
55.26415608175,27.76415608175,2,0.6661020344020971,5.362917279903096,13.74862943105227,6.766379969782045,1.845603263803413e-05,0.000118914412324572,0.0001621185072551288,0.0002163277108965434,0.0002790050778647998
55.98584391825001,27.76415608175,2,0.3812476640315831,5.320959578669815,7.009196680313059,11.65407109028536,1.845603263803413e-05,2.936984744570487e-05,0.0001506783300888286,8.601954786127534e-05,0.0001579494542161016
55.26415608175,28.48584391825,2,0.535083075054695,5.694373559727866,18.70025679918762,4.217606765091156,7.015855471733599e-06,0.000118914412324572,7.257394237626148e-05,0.0001950566960027446,0.0002062331771731903
55.98584391825001,28.48584391825,2,0.2702101564305398,3.492851386829151,7.571280463288597,5.576850118673697,7.015855471733599e-06,2.936984744570531e-05,6.113376520996104e-05,5.872763565963039e-05,0.0001351327041123418
56.51415608175001,27.76415608175,2,0,-3.30050976735835,-1.50352519135669,-1.409916229455342,-9.358811102461367e-06,-2.170872798454727e-06,-1.127932983564274e-05,6.479131447488978e-07,9.9268319765464e-05
57.23584391825,27.76415608175,2,0,-3.019366878954797,-0.3789536377424762,0.6387197152318049,-9.358811102461367e-06,1.202841862387913e-06,5.109757721854439e-06,6.463082365679795e-07,6.000410264242419e-05
56.51415608175001,28.48584391825,2,0,2.162519418474059,-0.1377678948985875,-0.9882018968499851,7.030276455035858e-06,-2.170872798454727e-06,-7.905615174799881e-06,8.265956125440909e-06,9.562432125031817e-05
57.23584391825,28.48584391825,2,0,2.443662306877666,0.9868036587158429,1.060434047837162,7.030276455035858e-06,1.202841862388564e-06,8.483472382697296e-06,1.28698066618031e-05,5.878588500264567e-05
56.51415608175001,29.01415608175,2,0,5.062385520573839,6.648038161009104,4.558711869376359,1.0881203137029e-05,1.722381369877006e-05,3.646969495501088e-05,4.408737858735352e-05,8.890427881989701e-05
57.23584391825,29.01415608175,2,0,4.184660469261192,3.137137955758512,3.825191843673581,1.0881203137029e-05,6.691113083018285e-06,3.060153474938865e-05,2.830344516120269e-05,5.634317427223903e-05
56.51415608175001,29.73584391825,2,0,3.106332118699746,6.159024810540581,3.242124292407293,5.013042931406722e-06,1.722381369877006e-05,2.593699433925834e-05,3.483067336111531e-05,7.418877998533304e-05
57.23584391825,29.73584391825,2,0,2.22860706738708,2.648124605289917,2.508604266704515,5.013042931406722e-06,6.691113083018068e-06,2.006883413363612e-05,1.880594950236287e-05,5.088778208806922e-05
57.76415608175,49.01415608175001,2,0,-0.05363900369429953,12.60929119702238,0.09408243522027387,-1.025907776943966e-05,4.039264303342706e-05,7.52659481762191e-07,4.829429462637192e-05,4.818255310174961e-05
58.48584391825001,49.01415608175001,2,0,-0.1112824661715957,12.3787173471132,0.0926208191226436,-1.025907776943966e-05,3.97009214836995e-05,7.409665529811487e-07,4.723424141129097e-05,4.766747184552569e-05
57.76415608175,49.73584391825,2,0,-0.05753664662126834,12.60831678629064,0.007617241504275039,-1.027077069822057e-05,4.039264303342706e-05,6.093793203420031e-08,4.827820395802251e-05,4.824315625699634e-05
58.48584391825001,49.73584391825,2,0,-0.1151801090985645,12.37774293638146,0.00615562540664475,-1.027077069822057e-05,3.97009214836995e-05,4.9245003253158e-08,4.721817967446076e-05,4.773353603852867e-05
57.76415608175,47.76415608175001,2,0,-0.05078184161813626,12.55528960471913,0.1984188540928489,-1.020673357695334e-05,4.021755220839571e-05,1.587350832742791e-06,4.809739720332033e-05,4.791087291595373e-05
58.48584391825001,47.76415608175001,2,0,-0.1104029456733753,12.31680518849817,0.1940206668981569,-1.020673357695334e-05,3.950209895973284e-05,1.552165335185255e-06,4.700091427323244e-05,4.737097133717016e-05
57.76415608175,48.48584391825001,2,0,-0.06251034080401308,12.55235747992266,0.1089871980099362,-1.024191907451097e-05,4.021755220839571e-05,8.718975840794896e-07,4.804890633166096e-05,4.80935180488617e-05
58.48584391825001,48.48584391825001,2,0,-0.1221314448592521,12.3138730637017,0.1045890108152306,-1.024191907451097e-05,3.950209895973284e-05,8.367120865218451e-07,4.695251227824759e-05,4.757032292659567e-05
59.01415608175,47.76415608175001,2,0,0.009934005329767182,12.21478999401559,0.08463421656796993,-9.740043178157215e-06,3.907938077658607e-05,6.770737325437594e-07,4.697047262599043e-05,4.709213478447299e-05
59.73584391825001,47.76415608175001,2,0,-0.02668552008886271,12.06831189234107,0.07872226849896474,-9.740043178157215e-06,3.863994647156251e-05,6.297781479917179e-07,4.629670187437701e-05,4.687024073424813e-05
59.01415608175,48.48584391825001,2,0,-0.005831189520935975,12.21084869530291,0.02970492843997093,-9.787338762709324e-06,3.907938077658607e-05,2.376394275197674e-07,4.690718238468707e-05,4.730030231213674e-05
59.73584391825001,48.48584391825001,2,0,-0.04245071493950237,12.06437059362865,0.02379298037096574,-9.787338762709324e-06,3.863994647156327e-05,1.903438429677259e-07,4.623351232525971e-05,4.708578739657865e-05
59.01415608175,49.01415608175001,2,0,0.004325688485150803,12.28027362217235,0.04524705384586353,-9.810376694585399e-06,3.92934150401634e-05,3.619764307669082e-07,4.720479506254177e-05,4.740173261771876e-05
59.73584391825001,49.01415608175001,2,0,-0.0308082080539327,12.13973803601602,0.04329140186619168,-9.810376694585399e-06,3.88718082816944e-05,3.463312149295334e-07,4.655842337061399e-05,4.719080080197919e-05
59.01415608175,49.73584391825,2,0,-0.0008893834605596673,12.27896985418633,-0.007453790962870434,-9.826021910422855e-06,3.92934150401647e-05,-5.963032770296348e-08,4.718386544217225e-05,4.747067783834412e-05
59.73584391825001,49.73584391825,2,0,-0.03602327999968846,12.13843426802982,-0.009409442942582939,-9.826021910422855e-06,3.887180828169516e-05,-7.527554354066351e-08,4.653752561377613e-05,4.726215609869098e-05
57.76415608175,46.51415608175,2,0,-0.04901408571307719,12.44552614424729,0.3078641069535076,-1.011326598967968e-05,3.986489493016179e-05,2.462912855628061e-06,4.768459557709686e-05,4.742442312966293e-05
58.48584391825001,46.51415608175,2,0,-0.1127125876951149,12.19073213631914,0.3004897198172364,-1.011326598967968e-05,3.910051290637734e-05,2.403917758537892e-06,4.651304330637249e-05,4.68388454244639e-05
57.76415608175,47.23584391825001,2,0,-0.06867911807653959,12.44060988615643,0.2123163539804237,-1.017226108677007e-05,3.986489493016179e-05,1.698530831843389e-06,4.760303720704946e-05,4.773158947270023e-05
58.48584391825001,47.23584391825001,2,0,-0.1323776200585773,12.18581587822828,0.2049419668441119,-1.017226108677007e-05,3.910051290637734e-05,1.639535734752895e-06,4.643163962177075e-05,4.717497253119852e-05
57.76415608175,45.26415608175001,2,0,-0.0484739519335502,12.27841843646017,0.4252170650060488,-9.977851395355492e-06,3.932971815821936e-05,3.40173652004839e-06,4.704986786304977e-05,4.671681687968518e-05
58.48584391825001,45.26415608175001,2,0,-0.1186083370582871,11.99788089596122,0.4148017306922919,-9.977851395355492e-06,3.848810553672252e-05,3.318413845538335e-06,4.575987036731231e-05,4.606185611388794e-05
57.76415608175,45.98584391825,2,0,-0.07624817677037088,12.27147488025096,0.320015487318998,-1.006117406986595e-05,3.932971815821936e-05,2.560123898551984e-06,4.693409000054335e-05,4.715251563287177e-05
58.48584391825001,45.98584391825,2,0,-0.1463825618951078,11.99093733975201,0.309600153005241,-1.006117406986595e-05,3.848810553672252e-05,2.476801224041928e-06,4.5644321041402e-05,4.654058677937299e-05
59.01415608175,45.26415608175001,2,0,0.02291871369273002,11.87586849150003,0.1726557308972859,-9.427354909383284e-06,3.79844442018459e-05,1.381245847178287e-06,4.570893530790675e-05,4.572224121320836e-05
59.73584391825001,45.26415608175001,2,0,-0.02161593091152669,11.697729913083,0.1583143650881814,-9.427354909383284e-06,3.745002846659482e-05,1.266514920705451e-06,4.488926513614551e-05,4.544935681530208e-05
59.01415608175,45.98584391825,2,0,-0.01532492846481404,11.86630758096078,0.1058537639907924,-9.542085835856026e-06,3.798444420184633e-05,8.468301119263395e-07,4.555513905638114e-05,4.622371418962749e-05
59.73584391825001,45.98584391825,2,0,-0.05985957306914313,11.68816900254346,0.09151239818163369,-9.542085835856026e-06,3.745002846659439e-05,7.320991854530695e-07,4.473577037090227e-05,4.596993102837878e-05
59.01415608175,46.51415608175,2,0,0.01607471969861241,12.08102485881573,0.1266825356451137,-9.61338078401702e-06,3.864641977245143e-05,1.01346028516091e-06,4.647563132882726e-05,4.65358940196018e-05
59.73584391825001,46.51415608175,2,0,-0.02361057109470144,11.92228369564247,0.1166762238657997,-9.61338078401702e-06,3.817019628293166e-05,9.334097909263978e-07,4.574534677461489e-05,4.629379309445796e-05
59.01415608175,47.23584391825001,2,0,-0.0106087783794635,12.07435398429607,0.06715459945511601,-9.693431278251139e-06,3.864641977245099e-05,5.372367956409281e-07,4.636843847885792e-05,4.688731219980697e-05
59.73584391825001,47.23584391825001,2,0,-0.05029406917274093,11.91561282112296,0.05714828767584271,-9.693431278251139e-06,3.817019628293166e-05,4.571863014067416e-07,4.563833971463795e-05,4.665802650059145e-05
57.76415608175,44.01415608175001,2,0,-0.04939422636793012,12.05159515695997,0.5537871880076828,-9.799337649945349e-06,3.860461988336623e-05,4.430297504061462e-06,4.618419960381136e-05,4.577941472646115e-05
58.48584391825001,44.01415608175001,2,0,-0.1287490566750811,11.73417583573136,0.5402428269894239,-9.799337649945349e-06,3.765236191968042e-05,4.321942615915391e-06,4.472459760283847e-05,4.502680721505049e-05
57.76415608175,44.73584391825,2,0,-0.08551252241645324,12.04256558294784,0.4347549425469019,-9.907692538090919e-06,3.860461988336623e-05,3.478039540375216e-06,4.60324875403325e-05,4.634889560069746e-05
58.48584391825001,44.73584391825,2,0,-0.1648673527236042,11.72514626171923,0.4212105815286837,-9.907692538090919e-06,3.765236191968042e-05,3.36968465222947e-06,4.45731935679852e-05,4.565624010212161e-05
57.76415608175,42.76415608175,2,0,-0.05209759330963726,11.76193822551425,0.6976021764641395,-9.576262879002235e-06,3.767988039629329e-05,5.580817411713116e-06,4.507593763413866e-05,4.460237138076191e-05
58.48584391825001,42.76415608175,2,0,-0.14410097230268,11.39392470954208,0.6808186187834376,-9.576262879002235e-06,3.657583984837678e-05,5.446548950267501e-06,4.338385475830935e-05,4.371701935859252e-05
57.76415608175,43.48584391825001,2,0,-0.09685374712474726,11.75074918706047,0.5595971079745753,-9.710531340447566e-06,3.767988039629329e-05,4.476776863796602e-06,4.488585214152313e-05,4.531143497218259e-05
58.48584391825001,43.48584391825001,2,0,-0.18885712611779,11.3827356710883,0.5428135502938869,-9.710531340447566e-06,3.657583984837678e-05,4.342508402351095e-06,4.319414786354313e-05,4.450719458289236e-05
59.01415608175,42.76415608175,2,0,0.03968631103053966,11.22964089384681,0.2831264024226514,-8.856716519779718e-06,3.590310181148535e-05,2.265011219381211e-06,4.328014677015002e-05,4.325534233292956e-05
59.73584391825001,42.76415608175,2,0,-0.02147318473043569,10.98500291080291,0.2588895200151376,-8.856716519779718e-06,3.516918786235365e-05,2.071116160121101e-06,4.215401054307639e-05,4.287936926424686e-05
59.01415608175,43.48584391825001,2,0,-0.02494537538966002,11.21348297224203,0.1913871587812428,-9.050611579040533e-06,3.590310181148621e-05,1.531097270249943e-06,4.301921471786699e-05,4.408854486434315e-05
59.73584391825001,43.48584391825001,2,0,-0.08610487115063492,10.96884498919813,0.1671502763736206,-9.050611579040533e-06,3.516918786235451e-05,1.337202210988965e-06,4.189379654981683e-05,4.374901295193387e-05
59.01415608175,44.01415608175001,2,0,0.03068789351267132,11.59440785767132,0.224126744490259,-9.177325026896507e-06,3.707755482973809e-05,1.793013955922072e-06,4.465234207040957e-05,4.463552130854873e-05
59.73584391825001,44.01415608175001,2,0,-0.02082412404166822,11.38835978745396,0.2050901797029137,-9.177325026896507e-06,3.645941061908601e-05,1.640721437623309e-06,4.370405630413474e-05,4.431911584306547e-05
59.01415608175,44.73584391825,2,0,-0.02007627925351985,11.58171681447977,0.1468587181587227,-9.32961754519508e-06,3.707755482973809e-05,1.174869745269782e-06,4.444786933145185e-05,4.52966862133117e-05
59.73584391825001,44.73584391825,2,0,-0.07158829680777767,11.37566874426274,0.1278221533713639,-9.32961754519508e-06,3.645941061908699e-05,1.022577226970911e-06,4.350005192243282e-05,4.500702221955811e-05
57.76415608175,41.51415608175001,2,0,-0.05695360925751425,11.40570663846591,0.8616235217507148,-9.30681686039677e-06,3.654382413049691e-05,6.892988174005718e-06,4.371170009442713e-05,4.317693643342535e-05
58.48584391825001,41.51415608175001,2,0,-0.1659673731804943,10.96965158277399,0.8414646405373771,-9.30681686039677e-06,3.523565896342115e-05,6.731717124299017e-06,4.170735023077481e-05,4.211375869867169e-05
57.76415608175,42.23584391825,2,0,-0.1107106258263193,11.39226738432371,0.6981028758662857,-9.468087910103186e-06,3.654382413049691e-05,5.584823006930285e-06,4.34797276332642e-05,4.40304342210743e-05
58.48584391825001,42.23584391825,2,0,-0.2197243897492993,10.95621232863179,0.6779439946529345,-9.468087910103186e-06,3.523565896342115e-05,5.423551957223476e-06,4.147577213454531e-05,4.307570014629987e-05
57.76415608175,40.26415608175,2,0,-0.06422355724887607,10.97881969755735,1.05190719648433,-8.988571141242281e-06,3.518360187798261e-05,8.415257571874643e-06,4.207844168722224e-05,4.150023873367038e-05
58.48584391825001,40.26415608175,2,0,-0.1959276672568433,10.45200325752548,1.028187247961241,-8.988571141242281e-06,3.3603152557887e-05,8.225497983689926e-06,3.965838075180506e-05,4.019973801643151e-05
57.76415608175,40.98584391825,2,0,-0.1274767533105434,10.96300639854193,0.8543510314723384,-9.178330729427283e-06,3.518360187798261e-05,6.834808251778707e-06,4.179920098159179e-05,4.24989725959037e-05
58.48584391825001,40.98584391825,2,0,-0.2591808633185106,10.43618995851006,0.8306310829491945,-9.178330729427283e-06,3.3603152557887e-05,6.645048663593556e-06,3.937937004261583e-05,4.134314696853494e-05
59.01415608175,40.26415608175,2,0,0.0633607853535314,10.20944141510993,0.4353505602565421,-7.964798618956644e-06,3.261952390006895e-05,3.482804482052336e-06,3.944074776590815e-05,3.951672005356459e-05
59.73584391825001,40.26415608175,2,0,-0.02887872705936756,9.840483365458336,0.3984236795457707,-7.964798618956644e-06,3.151264975111417e-05,3.187389436366166e-06,3.774157213486192e-05,3.895118099368954e-05
59.01415608175,40.98584391825,2,0,-0.03511089654175947,10.18482349463652,0.2969912916372074,-8.260213664642842e-06,3.261952390007025e-05,2.375930333097659e-06,3.903988646390098e-05,4.073745943617761e-05
59.73584391825001,40.98584391825,2,0,-0.1273504089546855,9.815865444984812,0.2600644109263818,-8.260213664642842e-06,3.151264975111514e-05,2.080515287411055e-06,3.734240873011703e-05,4.023851595156473e-05
59.01415608175,41.51415608175001,2,0,0.0503533530310496,10.77210177869886,0.352339509113937,-8.456550693259726e-06,3.44304430094115e-05,2.818716072911496e-06,4.155779533566215e-05,4.155749936590502e-05
59.73584391825001,41.51415608175001,2,0,-0.02395712450530807,10.47485986855343,0.3222160476232472,-8.456550693259726e-06,3.35387172789752e-05,2.577728380985978e-06,4.01891966084211e-05,4.110094834129117e-05
59.01415608175,42.23584391825,2,0,-0.02997587761064091,10.75201947103843,0.2408737928092514,-8.697538385184797e-06,3.44304430094115e-05,1.926990342474011e-06,4.123239983173858e-05,4.257715073563774e-05
59.73584391825001,42.23584391825,2,0,-0.1042863551470257,10.45477756089289,0.2107503313185616,-8.697538385184797e-06,3.353871727897488e-05,1.686002650548492e-06,3.986490215951546e-05,4.216982249034179e-05
57.76415608175,39.01415608175,2,0,-0.07360229667587781,10.47740785128249,1.275531406977752,-8.617453630388802e-06,3.358658696144467e-05,1.020425125582201e-05,4.016776448086783e-05,3.958477696094845e-05
58.48584391825001,39.01415608175,2,0,-0.2354760767321049,9.829912731057584,1.247927538838064,-8.617453630388802e-06,3.164410160076995e-05,9.983420310704511e-06,3.71967597945997e-05,3.796677516506343e-05
57.76415608175,39.73584391825,2,0,-0.1472126117150911,10.45900527252269,1.032720736893384,-8.838284575506442e-06,3.358658696144467e-05,8.261765895147075e-06,3.98321356889643e-05,4.071938236672212e-05
58.48584391825001,39.73584391825,2,0,-0.3090863917713182,9.81151015229778,1.005116868753764,-8.838284575506442e-06,3.164410160076995e-05,8.040934950030113e-06,3.686069192925795e-05,3.929504191837226e-05
57.76415608175,37.76415608175,2,0,-0.08297659434707905,9.898719263826191,1.539851916030369,-8.184500512971606e-06,3.174228291972147e-05,1.231881532824295e-05,3.79842952366074e-05,3.747633529228449e-05
58.48584391825001,37.76415608175,2,0,-0.2848099539280953,9.091385825502126,1.50763039030003,-8.184500512971606e-06,2.932028260474928e-05,1.206104312240024e-05,3.428751881634243e-05,3.543119417757563e-05
57.76415608175,38.48584391825,2,0,-0.1689006629611027,9.877238246672686,1.237101876658655,-8.442272718813676e-06,3.174228291972147e-05,9.896815013269236e-06,3.757494187871181e-05,3.871580511636381e-05
58.48584391825001,38.48584391825,2,0,-0.370734022542119,9.069904808348621,1.20488035092837,-8.442272718813676e-06,2.932028260474928e-05,9.639042807426963e-06,3.387574134065356e-05,3.693146028327238e-05
59.01415608175,37.76415608175,2,0,0.1015901623052198,8.703395489770546,0.6629735121698588,-6.637627872439734e-06,2.776959343742157e-05,5.30378809735887e-06,3.379521756743062e-05,3.434666691806203e-05
59.73584391825001,37.76415608175,2,0,-0.04962327745230377,8.098541730740452,0.6084095431924954,-6.637627872439734e-06,2.595503216033129e-05,4.867276345539963e-06,3.100906207953979e-05,3.342882445746036e-05
59.01415608175,38.48584391825,2,0,-0.04391375496783967,8.667019510452281,0.4361533525335057,-7.074139624258912e-06,2.776959343742157e-05,3.489226820268046e-06,3.319144786166015e-05,3.598812620154299e-05
59.73584391825001,38.48584391825,2,0,-0.1951271947252731,8.062165751422548,0.3815893835561017,-7.074139624258912e-06,2.595503216033237e-05,3.052715068448814e-06,3.040931660579314e-05,3.519523439472878e-05
59.01415608175,39.01415608175,2,0,0.07980012532068237,9.526097591070043,0.5369003978352122,-7.365517671829849e-06,3.041967219116759e-05,4.295203182681697e-06,3.687414777954129e-05,3.711322978209729e-05
59.73584391825001,39.01415608175,2,0,-0.03709304107784428,9.058524925475936,0.4919569130366896,-7.365517671829849e-06,2.901695419438527e-05,3.935655304293517e-06,3.472044064515161e-05,3.639930222505382e-05
59.01415608175,39.73584391825,2,0,-0.04004916747553544,9.496135267870988,0.361560648237517,-7.725065550218504e-06,3.041967219116759e-05,2.892485185900136e-06,3.638260378696537e-05,3.854561064459907e-05
59.73584391825001,39.73584391825,2,0,-0.1569423338739808,9.028562602277207,0.3166171634388861,-7.725065550218504e-06,2.901695419438625e-05,2.532937307511089e-06,3.42315256047385e-05,3.792246677613248e-05
57.76415608175,36.51415608175,2,0,-0.08515275901313624,9.242170236631456,1.850038896809755,-7.666225018147199e-06,2.964306696443117e-05,1.480031117447804e-05,3.556065328351586e-05,3.528568396870192e-05
58.48584391825001,36.51415608175,2,0,-0.339299557480838,8.225583042760649,1.811247129291098,-7.666225018147199e-06,2.659330538281874e-05,1.448997703432878e-05,3.092233049855191e-05,3.266235700712255e-05
57.76415608175,37.23584391825,2,0,-0.1885974723962431,9.216309058285679,1.468818699108256,-7.976559158296521e-06,2.964306696443117e-05,1.175054959286605e-05,3.504112743719748e-05,3.655723710085618e-05
58.48584391825001,37.23584391825,2,0,-0.4427442708639449,8.199721864414872,1.430026931589572,-7.976559158296521e-06,2.659330538281874e-05,1.144021545271658e-05,3.039517512513733e-05,3.428729140236183e-05
57.76415608175,35.26415608175,2,0,-0.06067260361341242,8.509098235999678,2.202350202034733,-7.001430920362662e-06,2.72776524380897e-05,1.761880161627787e-05,3.29769382007517e-05,3.323959208249447e-05
58.48584391825001,35.26415608175,2,0,-0.3811698040672684,7.227109434184254,2.151911542794575,-7.001430920362662e-06,2.343168603264343e-05,1.72152923423566e-05,2.716216445979977e-05,2.982957387030334e-05
57.76415608175,35.98584391825,2,0,-0.1951756949205605,8.475472463172892,1.721604401354044,-7.404940194284107e-06,2.72776524380897e-05,1.377283521083236e-05,3.226920985037366e-05,3.439672366528643e-05
58.48584391825001,35.98584391825,2,0,-0.5156728953744165,7.193483661357467,1.671165742113845,-7.404940194284107e-06,2.343168603264343e-05,1.336932593691076e-05,2.643452705169031e-05,3.14679151943586e-05
59.01415608175,35.26415608175,2,0,0.1787890973636208,6.560351522866774,1.012042523599493,-4.676156106729832e-06,2.085009359528277e-05,8.096340188795941e-06,2.587966687471403e-05,2.799954154422509e-05
59.73584391825001,35.26415608175,2,0,-0.08846717748291377,5.491326423480635,0.9312204229993873,-4.676156106729832e-06,1.764301829712436e-05,7.449763383995099e-06,2.096496301926975e-05,2.640981846186442e-05
59.01415608175,35.98584391825,2,0,-0.03673650423660146,6.506470122466853,0.6111581113296639,-5.322732911530606e-06,2.085009359528321e-05,4.889264890637311e-06,2.493939994848296e-05,2.990141376066593e-05
59.73584391825001,35.98584391825,2,0,-0.3039927790830816,5.437445023080932,0.5303360107294908,-5.322732911530606e-06,1.764301829712545e-05,4.242688085835927e-06,2.003023943326902e-05,2.855046072443395e-05
59.01415608175,36.51415608175,2,0,0.1322428596240537,7.720833009495659,0.8200734931038101,-5.753489256799554e-06,2.460087134268686e-05,6.560587944830481e-06,3.014214699174555e-05,3.126286218643251e-05
59.73584391825001,36.51415608175,2,0,-0.06722959429166053,6.922943193832802,0.7537895660780574,-5.753489256799554e-06,2.220720189569829e-05,6.030316528624459e-06,2.646812363213175e-05,3.006269819279462e-05
59.01415608175,37.23584391825,2,0,-0.04451427911150851,7.676643724811631,0.5208648122302391,-6.283760673006132e-06,2.460087134268643e-05,4.166918497841912e-06,2.939471694527391e-05,3.308053624122875e-05
59.73584391825001,37.23584391825,2,0,-0.2439867330272043,6.878753909148848,0.4545808852043508,-6.283760673006132e-06,2.220720189569808e-05,3.636647081634806e-06,2.572642312233009e-05,3.205356552707139e-05
57.76415608175,34.01415608175,2,0,0.0402623210707147,7.698656913640516,2.570803602126734,-6.030086103486125e-06,2.460349226679308e-05,2.056642881701387e-05,3.039037259286821e-05,3.174516882513868e-05
58.48584391825001,34.01415608175,2,0,-0.3587750194710253,6.102507551473556,2.495434380433216,-6.030086103486125e-06,1.98150441802922e-05,1.996347504346573e-05,2.321257079382699e-05,2.726548688431523e-05
57.76415608175,34.73584391825,2,0,-0.1607222701119633,7.648410765844846,1.97224759131392,-6.633039877034159e-06,2.460349226679308e-05,1.577798073051136e-05,2.932220493238479e-05,3.252911010441216e-05
58.48584391825001,34.73584391825,2,0,-0.5597596106537033,6.052261403677886,1.896878369620457,-6.633039877034159e-06,1.98150441802922e-05,1.517502695696366e-05,2.210068727495343e-05,2.870353659841258e-05
57.76415608175,32.76415608175,2,0,0.3253978996961371,6.780132507700075,2.876959140331954,-4.38283272713242e-06,2.143610570488333e-05,2.301567312265563e-05,2.798671916578995e-05,3.142324345548288e-05
58.48584391825001,32.76415608175,2,0,-0.1513131402523318,4.873288347906199,2.746420116862716,-4.38283272713242e-06,1.57155732255017e-05,2.197136093490173e-05,1.948382270415308e-05,2.548465025656738e-05
57.76415608175,33.48584391825,2,0,-0.0227061628883849,6.693106492053944,2.161892580409197,-5.427144914885986e-06,2.143610570488333e-05,1.729514064327357e-05,2.621149464195841e-05,3.144885274963079e-05
58.48584391825001,33.48584391825,2,0,-0.4994172028368538,4.786262332260069,2.031353556940013,-5.427144914885986e-06,1.57155732255017e-05,1.62508284555201e-05,1.763681985193245e-05,2.640298888851709e-05
59.01415608175,32.76415608175,2,0,0.3853196100396236,3.708101137338961,1.415559597105185,-1.733458157744374e-06,1.155766795145298e-05,1.132447677684148e-05,1.584433493860833e-05,2.231948699416286e-05
59.73584391825001,32.76415608175,2,0,-0.08460338853191407,1.828409143052811,1.293769021726578,-1.733458157744374e-06,5.918591968594525e-06,1.035015217381262e-05,7.473095461322548e-06,1.96106933455711e-05
59.01415608175,33.48584391825,2,0,0.06054474236340079,3.62690742041977,0.7106750992477294,-2.707782760772934e-06,1.155766795145254e-05,5.685400793981835e-06,1.423331752281354e-05,2.369307421690522e-05
59.73584391825001,33.48584391825,2,0,-0.4093782562081189,1.747215426133692,0.5888845238691222,-2.707782760772934e-06,5.918591968594308e-06,4.711076190952977e-06,5.726193440592092e-06,2.133531351068423e-05
59.01415608175,34.01415608175,2,0,0.2553915698078724,5.215315515697303,1.228811113430499,-3.35499938917265e-06,1.648469639438507e-05,9.830488907443995e-06,2.104976502000011e-05,2.485254799369311e-05
59.73584391825001,34.01415608175,2,0,-0.1037943695133017,3.778571758412607,1.129573099763239,-3.35499938917265e-06,1.217446512253098e-05,9.036584798105909e-06,1.448334920183093e-05,2.273995828949774e-05
59.01415608175,34.73584391825,2,0,-0.009243133304899898,5.149156839918838,0.690032204448657,-4.14890349851075e-06,1.64846963943842e-05,5.520257635589255e-06,1.983485475398206e-05,2.664670203931368e-05
59.73584391825001,34.73584391825,2,0,-0.3684290726260198,3.712413082634359,0.5907941907813555,-4.14890349851075e-06,1.217446512253076e-05,4.726353526250844e-06,1.32572621840527e-05,2.485289902685264e-05
57.76415608175,31.51415608175,2,0,0.9580170736132256,5.639723788926129,2.95407342459377,-1.446124395578581e-06,1.728070246567303e-05,2.363258739675016e-05,2.575919844170274e-05,3.295434997731589e-05
58.48584391825001,31.51415608175,2,0,0.4348777800795281,3.547166614791339,2.720323787295452,-1.446124395578581e-06,1.100303094326866e-05,2.176259029836362e-05,1.642514901285293e-05,2.497740100800179e-05
57.76415608175,32.23584391825,2,0,0.3346847074842336,5.483890697393881,2.169364484293224,-3.316121493965557e-06,1.728070246567303e-05,1.735491587434579e-05,2.27559915203982e-05,3.182664022183584e-05
58.48584391825001,32.23584391825,2,0,-0.1884545860494639,3.391333523259091,1.935614846994824,-3.316121493965557e-06,1.100303094326866e-05,1.54849187759586e-05,1.334351391326909e-05,2.51026651352556e-05
57.76415608175,30.26415608175,2,0,1.979586234371483,3.940409759621343,2.457868144039384,3.182348142291672e-06,1.102564224329111e-05,1.966294515231507e-05,2.250487919839797e-05,3.653174942431696e-05
58.48584391825001,30.26415608175,2,0,1.514335660672781,2.079407464826535,2.096966538182946,3.182348142291672e-06,5.442635358906688e-06,1.677573230546357e-05,1.408843878932117e-05,2.564953928485865e-05
57.76415608175,30.98584391825,2,0,1.017181952087731,3.699808689050406,1.759992283491317,2.951352954404154e-07,1.102564224329111e-05,1.407993826793054e-05,1.801095422769435e-05,3.421508018838172e-05
58.48584391825001,30.98584391825,2,0,0.5519313783890292,1.838806394255597,1.399090677634961,2.951352954404154e-07,5.442635358906688e-06,1.119272542107969e-05,9.499013779979511e-06,2.512393549474482e-05
59.01415608175,30.26415608175,2,0,0.6941776753306199,0.5546090972106872,0.8343702886563715,1.777681283289434e-06,1.219406970809703e-06,6.674962309250972e-06,4.994715623446638e-06,2.035404257652183e-05
59.73584391825001,30.26415608175,2,0,0.1979220383013486,-1.430413450906398,0.7356557313710699,1.777681283289434e-06,-4.735660673541552e-06,5.885245850968559e-06,7.960035956179403e-07,1.676868665687511e-05
59.01415608175,30.98584391825,2,0,0.4309388559031352,0.4887993923536804,0.08998683311228858,9.879648250070883e-07,1.219406970809269e-06,7.198946648983087e-07,3.34524790363615e-06,2.055536925066873e-05
59.73584391825001,30.98584391825,2,0,-0.06531678112607275,-1.496223155763152,-0.008727724172985941,9.879648250070883e-07,-4.735660673541226e-06,-6.982179338388753e-08,3.278254147705549e-07,1.716495884721499e-05
59.01415608175,31.51415608175,2,0,0.6088247124517461,2.109982293657268,1.404216347771487,2.602532449197728e-07,6.26488356974186e-06,1.12337307821719e-05,1.065056159194102e-05,2.088004185868975e-05
59.73584391825001,31.51415608175,2,0,0.05322572608788968,-0.1124136517981574,1.254412778789392,2.602532449197728e-07,-4.023042666244153e-07,1.003530223031514e-05,2.191238471906106e-06,1.766279745475026e-05
59.01415608175,32.23584391825,2,0,0.2093485284993934,2.01011324766918,0.5708178682255942,-9.381753069372849e-07,6.26488356974186e-06,4.566542945804754e-06,8.494066020846695e-06,2.156573724551987e-05
59.73584391825001,32.23584391825,2,0,-0.3462504578643997,-0.2122826977859925,0.4210142992434451,-9.381753069372849e-07,-4.023042666236563e-07,3.368114393947561e-06,2.782869660090151e-07,1.862664563422389e-05
57.76415608175,29.01415608175,2,0,1.314663750217612,1.040205941329742,0.4211593062507013,3.374759247632564e-06,2.276928012081084e-06,3.36927445000561e-06,8.617772912506389e-06,3.954229470591619e-05
58.48584391825001,29.01415608175,2,0,1.187407310836413,0.531180183804948,0.5002557619525361,3.374759247632564e-06,7.498507395067031e-07,4.002046095620288e-06,6.418798561976962e-06,2.620254266458292e-05
57.76415608175,29.73584391825,2,0,1.525587632089207,1.09293691179764,0.2302746471789037,4.00753089324735e-06,2.276928012081084e-06,1.84219717743123e-06,9.533513486974644e-06,3.795917225215325e-05
58.48584391825001,29.73584391825,2,0,1.398331192708009,0.5839111542728469,0.3093711028807249,4.00753089324735e-06,7.498507395067031e-07,2.474968823045799e-06,7.309104167426011e-06,2.593855120495819e-05
57.76415608175,27.76415608175,2,0,-1.869495711036705,0.129968988009597,-1.057277554403411,-6.086361465725132e-06,1.911497330460074e-06,-8.458220435227288e-06,1.011847348274177e-06,4.044059962367461e-05
58.48584391825001,27.76415608175,2,0,-1.989298370780536,-0.3492416509657292,-0.2127187534822864,-6.086361465725132e-06,4.738654135340954e-07,-1.701750027858291e-06,3.35738815897195e-07,2.625633252319108e-05
57.76415608175,28.48584391825,2,0,0.3826610914194698,0.6930081886236407,-1.236981544019185,6.701089416433909e-07,1.911497330460074e-06,-9.895852352153484e-06,4.943747117505984e-06,4.020719116617113e-05
58.48584391825001,28.48584391825,2,0,0.2628584316756383,0.2137975496483144,-0.3924227430981151,6.701089416433909e-07,4.738654135340954e-07,-3.139381944784921e-06,1.986776539947395e-06,2.628769191217048e-05
59.01415608175,27.76415608175,2,0,-0.503112749292734,-0.2570691223479556,-0.5303216553922323,-1.404305499858384e-06,-4.201309920792706e-07,-4.242573243137858e-06,3.398979922416549e-07,1.973055700888549e-05
59.73584391825001,27.76415608175,2,0,-0.58684705638382,-0.5920063507122997,-0.3164901685237461,-1.404305499858384e-06,-1.424942677172303e-06,-2.531921348189969e-06,1.086456765262173e-07,1.608607384473923e-05
59.01415608175,28.48584391825,2,0,0.06710454902325422,-0.1145147977689585,-0.6559231160289426,3.063463950895803e-07,-4.201309920792706e-07,-5.247384928231541e-06,1.126735898801197e-06,1.985080687615182e-05
59.73584391825001,28.48584391825,2,0,-0.01662975806774146,-0.4494520261329412,-0.4420916291603886,3.063463950895803e-07,-1.424942677171219e-06,-3.536733033283109e-06,3.992604607024841e-07,1.6184409168522e-05
59.01415608175,29.01415608175,2,0,0.2971885025685357,-0.2764753508827053,-0.166229315080147,1.172183488925478e-06,-1.122471924879485e-06,-1.329834520641176e-06,6.437365056167041e-07,1.997629356697458e-05
59.73584391825001,29.01415608175,2,0,-0.001828445340226026,-1.472543142517752,-0.08437193550640874,1.172183488925478e-06,-4.710675299784625e-06,-6.7497548405127e-07,3.605371532854329e-07,1.630561673233877e-05
59.01415608175,29.73584391825,2,0,0.5154748480985993,-0.2219037645000539,-0.6147547369434793,1.827042525515561e-06,-1.122471924879052e-06,-4.918037895547834e-06,1.942895661652489e-06,2.019887971472431e-05
59.73584391825001,29.73584391825,2,0,0.2164579001898196,-1.417971556135173,-0.5328973573697545,1.827042525515561e-06,-4.710675299784408e-06,-4.263178858958036e-06,6.647299883408949e-07,1.653842663117914e-05
5.26415608175,26.51415608175,2,0.8515969794863405,2.377584699145801,27.17052314947661,-3.605401513808954,-9.520121243768298e-05,0.0005730584594885709,-0.0001943573116681733,0.0007554274905756113,0.0005614114667349423
5.985843918250001,26.51415608175,2,0.8521758897176497,0.9434176016189086,21.36496356447752,-2.237878032049542,-9.520121243768298e-05,0.0004573891849975552,-0.0001211103129401611,0.0005761640740423796,0.0005632096842689838
5.26415608175,27.23584391825,2,0.7936350075908658,8.3447400050142,39.04218645198764,-7.997329262421365,-2.195421370967053e-05,0.0005730584594885709,-0.0003100265861591895,0.0008600483623741283,0.0004259386011969803
5.985843918250001,27.23584391825,2,0.8142636108632417,5.720252510713921,27.97813051881933,-5.49732319884478,-2.195421370967053e-05,0.0004573891849975557,-0.0002367795874311774,0.0006798907202136908,0.0004658374202099771
6.514156081750001,26.51415608175,2,0.851919844272909,3.769959185428386,20.01941800333278,-1.822326596204447,-2.668598631526449e-05,0.0004122508513215582,-9.845082008492546e-05,0.0006002072425146406,0.0005624129052379045
7.235843918250001,26.51415608175,2,0.8506313178410673,3.707529346235025,19.81268064496806,-1.506661160606261,-2.668598631526449e-05,0.0004045999048355103,-8.069488938802468e-05,0.000588135757678859,0.0005584378469084566
6.514156081750001,27.23584391825,2,0.8215989120084575,5.597789487386782,24.38257249722346,-2.366083824260799,-8.930055618363645e-06,0.0004122508513215582,-0.0001061017665709737,0.0006252138893756644,0.0004819176550051627
7.235843918250001,27.23584391825,2,0.8233614451930068,5.429864499174685,23.69119814516602,-1.950660096501503,-8.930055618363645e-06,0.0004045999048355103,-8.834583587407274e-05,0.0006131274230373905,0.0004859508544521178
6.514156081750001,25.26415608175,2,0.8743015193886854,3.436004892658494,24.11120302549595,-0.6910597309668076,-6.598128094750437e-05,0.0005919486489064417,-4.398205786456278e-05,0.0008223307865053499,0.0006420354208722438
7.235843918250001,25.26415608175,2,0.8704401309633916,2.850358503423987,22.08709166172887,-0.3234720114320235,-6.598128094750437e-05,0.000527928956886075,-1.99735929859962e-05,0.0007234648926171758,0.0006266883717619367
6.514156081750001,25.98584391825,2,0.8647283102044676,4.780246582438952,26.21815352365871,-1.826197400976096,-4.197281606893802e-05,0.0005919486489064417,-0.0001080017498849288,0.0008562502010777079,0.0006053163312945292
7.235843918250001,25.98584391825,2,0.8621495508385567,4.135946470115224,23.77625031505308,-1.447314008084021,-4.197281606893802e-05,0.000527928956886075,-8.399328500636235e-05,0.0007571754090243518,0.0005961483510152101
5.26415608175,25.26415608175,2,0.8779128295722234,1.202762720861072,25.59064148753329,-0.8652612755799619,-0.0001361623209467804,0.0006628693440912559,-5.669793296368198e-05,0.0008358087378384344,0.0006571036756218726
5.985843918250001,25.26415608175,2,0.8762760530577343,0.8604643040025515,24.50003193145423,-0.71665231989085,-0.0001361623209467804,0.000628105816683287,-4.633879455690285e-05,0.0007823164893875057,0.0006501851769788073
5.26415608175,25.98584391825,2,0.8695748736102517,1.735269504245224,27.45094799574619,-1.49110906609543,-0.0001258031825400012,0.0006628693440912559,-9.146146037165024e-05,0.0008501107265919257,0.0006233519617434447
5.985843918250001,25.98584391825,2,0.866722257344022,1.387122387096732,26.50694478322357,-1.351141799454544,-0.0001258031825400012,0.0006281058166832869,-8.110232196487099e-05,0.0007965477456068432,0.0006126055168201434
5.26415608175,24.01415608175001,2,0.8705899386648934,1.715131945396056,27.38287298636057,1.489319741170377,-0.0001268670765969818,0.0006665099074227708,9.206825038518714e-05,0.0008542756589460307,0.0006272697473933103
5.985843918250001,24.01415608175001,2,0.8678300714848943,1.371101003470982,26.44441956981333,1.362803083523019,-0.0001268670765969818,0.000631953597607339,8.248793648199721e-05,0.0008010405001941037,0.0006167335269812483
5.26415608175,24.73584391825,2,0.8781580958458496,1.225733063031123,25.68419459638182,0.8759205438274071,-0.0001364473905001717,0.0006665099074227708,5.751194056975478e-05,0.0008410265670409002,0.0006581534431228396
5.985843918250001,24.73584391825,2,0.8765401311953892,0.8864833776394212,24.60315467291106,0.7397040424807119,-0.0001364473905001717,0.0006319535976073388,4.793162666656497e-05,0.0007878546410402272,0.0006512912739677885
6.514156081750001,24.01415608175001,2,0.8659475247707409,4.730002391930416,26.14752896969896,1.859328216821893,-4.313247861849117e-05,0.0005959464057106456,0.0001109612165619193,0.0008608400847383698,0.0006097521127854946
7.235843918250001,24.01415608175001,2,0.8635845694280537,4.087908043994712,23.70655172894977,1.497188058971512,-4.313247861849117e-05,0.0005321292378222475,8.780168358927029e-05,0.0007620861003510004,0.0006012147549052637
6.514156081750001,24.73584391825,2,0.8745926846529639,3.456835501707477,24.21922101007926,0.7390260723420331,-6.629201159114012e-05,0.0005959464057106456,4.714404867352099e-05,0.0008280867784368423,0.000643223984940512
7.235843918250001,24.73584391825,2,0.8707894957680846,2.874515846550053,22.20509369149921,0.3873814209334968,-6.629201159114012e-05,0.0005321292378222475,2.398451570087209e-05,0.0007295278449474087,0.0006280459105927642
6.514156081750001,22.76415608175,2,0.8250619677579532,5.4884076005892,24.40034866486962,2.389853936838304,-1.118895979864461e-05,0.0004212371015191957,0.0001092891651385065,0.0006359549287800507,0.0004899076905349659
7.235843918250001,22.76415608175,2,0.8273898418403219,5.31940564601425,23.69178273466491,1.98740023169138,-1.118895979864461e-05,0.0004145652897665462,9.211046454648988e-05,0.0006253845312551251,0.0004954316454769355
6.514156081750001,23.48584391825,2,0.8539112210233989,3.746768862083626,20.16732153445274,1.873905482243791,-2.836766039066122e-05,0.0004212371015191957,0.0001026173533858576,0.0006117898968516049,0.0005686711355142748
7.235843918250001,23.48584391825,2,0.8529653251312911,3.689279475280744,19.9709050540315,1.570305566845366,-2.836766039066122e-05,0.0004145652897665462,8.543865279384108e-05,0.0006012312572840561,0.0005656808696637366
5.26415608175,22.76415608175,2,0.7967913261665525,8.170182831969978,38.96521182791078,7.9167764796794,-2.474099311403096e-05,0.0005814344897530203,0.0003116708093343729,0.0008690739856397169,0.0004315890187954733
5.985843918250001,22.76415608175,2,0.817502396256669,5.581165996546605,27.96862893311255,5.462982841590242,-2.474099311403096e-05,0.0004659495688958068,0.000239476364819497,0.0006892445720287735,0.0004728011102735188
5.26415608175,23.48584391825,2,0.8532451055906818,2.368779791219602,27.2573065570675,3.598904918507981,-9.693543762890682e-05,0.0005814344897530203,0.0001961858884771597,0.0007659771810090017,0.0005665619928630597
5.985843918250001,23.48584391825,2,0.8539854718385751,0.9516231416096899,21.49897030082134,2.263069023275828,-9.693543762890682e-05,0.0004659495688958065,0.0001239914439622838,0.0005870241238689793,0.0005689072317639584
7.76415608175,26.51415608175,2,0.8487769832702637,4.449656661060123,19.81615487880838,-0.4504130364074774,-1.067312782510398e-05,0.0003957861149556708,-2.38277503595871e-05,0.0005964622271245207,0.0005528168475084585
8.485843918250001,26.51415608175,2,0.8449019192956865,4.351339060215841,19.47458329184515,-0.4167762329226973,-1.067312782510398e-05,0.0003793573396817376,-2.149742826114062e-05,0.0005710749588515309,0.0005414350498871444
7.76415608175,27.23584391825,2,0.8232711623246241,5.337430219006139,23.19273882480417,-0.8893111230076308,-8.342805726657739e-06,0.0003957861149556708,-4.025652563352045e-05,0.0005998316536784961,0.0004857425950275567
8.485843918250001,27.23584391825,2,0.8212558069163775,5.153584105091875,22.47837151744858,-0.8473860809502537,-8.342805726657739e-06,0.0003793573396817379,-3.792620353507397e-05,0.0005744409713667726,0.0004811404202515218
9.01415608175,26.51415608175,2,0.8417660571186006,4.729431362570204,19.41566183686059,0.02386717432070888,-2.517469400117225e-06,0.0003687361366684141,1.206677853618195e-06,0.0005661215033830643,0.0005325681273484688
9.735843918250001,26.51415608175,2,0.837030683966387,4.699999330766837,19.31283515590817,-0.02186871583613366,-2.517469400117225e-06,0.0003561472456712127,-1.073513290397472e-06,0.0005466723506489087,0.0005197250420863139
9.01415608175,27.23584391825,2,0.8191852720304348,5.26691445829474,22.1520174409011,-0.2572589716561096,-4.797660544132929e-06,0.0003687361366684141,-1.13822131435847e-05,0.0005629145264139721,0.0004765035418632246
9.735843918250001,27.23584391825,2,0.8154843419287712,5.181147452938926,21.83114417738452,-0.315115939745215,-4.797660544132929e-06,0.0003561472456712122,-1.366240428760015e-05,0.0005434713225510139,0.000468437529293375
9.01415608175,25.26415608175,2,0.858982577367698,5.081248520873687,20.56161097376488,0.1861808444108884,-1.342341312744594e-06,0.0004377626193063611,1.05621470559052e-05,0.0006744321321933552,0.0005852703427031533
9.735843918250001,25.26415608175,2,0.8537281944768516,5.00307608044808,20.25773768109665,0.1885602454752287,-1.342341312744594e-06,0.000415816975100682,1.031286896614606e-05,0.000640527274221295,0.0005680900171157889
9.01415608175,25.98584391825,2,0.8516940285746488,5.331551988618752,21.62126628150972,-0.2110300753768575,-1.591619402503808e-06,0.0004377626193063611,-1.13834971497734e-05,0.0006740812332972192,0.0005617121037959375
9.735843918250001,25.98584391825,2,0.8466216946685573,5.233401951852887,21.23875766577239,-0.2230269190676314,-1.591619402503808e-06,0.0004158169751006822,-1.163277523953243e-05,0.0006401773225836263,0.000546426845721251
7.76415608175,25.26415608175,2,0.8673222781070046,4.745996254258451,21.58947912502384,0.02498628625549197,-1.571021311379683e-05,0.0004920911760101332,1.506585183947817e-06,0.0007381053384118085,0.0006148343036874229
8.485843918250001,25.26415608175,2,0.8626188042980955,4.526245333121885,20.80284116036898,0.07847178888623896,-1.571021311379683e-05,0.0004582002298427407,4.569579613006736e-06,0.0006857516297879187,0.0005977954365404018
7.76415608175,25.98584391825,2,0.859614058710402,5.165059678789893,22.87960333984991,-0.568288624965372,-1.264721868473754e-05,0.0004920911760101332,-3.238436098344441e-05,0.0007424853102750312,0.0005874068665923469
8.485843918250001,25.98584391825,2,0.8551674336994884,4.919616551075929,21.96812762764662,-0.5308360956886971,-1.264721868473754e-05,0.0004582002298427411,-2.932136655438506e-05,0.0006901200980245837,0.0005726926672938164
7.76415608175,24.01415608175001,2,0.8612329399333537,5.109155298872082,22.80540831360175,0.6564935366630439,-1.365619256890363e-05,0.0004964433369946861,3.78472260692269e-05,0.0007478142545050868,0.0005929576607248294
8.485843918250001,24.01415608175001,2,0.8570824358026981,4.860865035786555,21.88309736584247,0.6346049313406155,-1.365619256890363e-05,0.0004627648107041782,3.552285178689581e-05,0.0006957809151964952,0.0005789362177802734
7.76415608175,24.73584391825,2,0.8677202163816962,4.767816124640756,21.713646905037,0.06892933808732124,-1.59805668512348e-05,0.0004964433369946861,4.168699778718619e-06,0.0007444495774371774,0.0006163216344925268
8.485843918250001,24.73584391825,2,0.8630927279363166,4.550370382170025,20.93630129572245,0.03156269656348749,-1.59805668512348e-05,0.0004627648107041779,1.844325496387416e-06,0.0006924217803925504,0.0005994683908510989
9.01415608175,24.01415608175001,2,0.8538450980093625,5.276784774614466,21.52907414596582,0.3510152477488296,-2.309522523082963e-06,0.0004424867627877565,1.92133273926763e-05,0.0006803832242436912,0.0005684610516716181
9.735843918250001,24.01415608175001,2,0.8491252789862113,5.174079348623487,21.13187810242545,0.3769632635608369,-2.309522523082963e-06,0.0004207646318899297,1.998814704161795e-05,0.0006468274993751457,0.0005538638085883875
9.01415608175,24.73584391825,2,0.8595173748205689,5.108275474087746,20.70260075713827,-0.04405541280785426,-1.534702874141576e-06,0.0004424867627877565,-2.508803505150026e-06,0.000681450957034565,0.0005870787178361454
9.735843918250001,24.73584391825,2,0.8543542290827336,5.032374771116295,20.4089028135068,-0.03156842693695341,-1.534702874141576e-06,0.0004207646318899303,-1.733983856208815e-06,0.0006478911584815146,0.0005700827453101163
9.01415608175,22.76415608175,2,0.8249760964162837,5.19553378098636,22.12117794609298,0.4079574158955138,-6.120502604409367e-06,0.000380698527677608,1.864693484911938e-05,0.0005795485280674199,0.0004897063133742501
9.735843918250001,22.76415608175,2,0.8221287730726103,5.104767075944906,21.77989493835285,0.4720069495962121,-6.120502604409367e-06,0.0003688727585420949,2.122915359610778e-05,0.0005612889567666677,0.0004831229697108385
9.01415608175,23.48584391825,2,0.8452265517861404,4.72762452375942,19.59503858675326,0.1319669172916315,-3.538283857420837e-06,0.000380698527677608,6.821165713606636e-06,0.0005831652641111816,0.0005423701945317886
9.735843918250001,23.48584391825,2,0.8410421247527483,4.698789799871243,19.49820680448155,0.1868427517486535,-3.538283857420837e-06,0.0003688727585420953,9.403384460595146e-06,0.0005648990555964864,0.0005305630069432945
7.76415608175,22.76415608175,2,0.8277616143503195,5.251149408359352,23.18690845058191,0.9840286465704388,-1.013623442376269e-05,0.000406397141096895,4.570542822303857e-05,0.0006137343321243206,0.0004963255922817752
8.485843918250001,22.76415608175,2,0.8264742495550138,5.064178653143614,22.45533671891161,0.9490004910853453,-1.013623442376269e-05,0.0003907531556793299,4.37514542320893e-05,0.0005895584926592638,0.0004932439454299953
7.76415608175,23.48584391825,2,0.8514008230743518,4.433658382899333,19.98037730570455,0.5583882072613564,-1.209020841471219e-05,0.000406397141096895,3.006144280547378e-05,0.0006108876583382074,0.0005608048181205284
8.485843918250001,23.48584391825,2,0.8479925057856421,4.337183242380739,19.64598582658514,0.5340682379005037,-1.209020841471219e-05,0.00039075315567933,2.810746881452418e-05,0.0005867136000265452,0.0005504734634141307
10.26415608175,26.51415608175,2,0.833470150561489,4.82761181076544,19.30819637594157,0.203042884598422,1.081303863674604e-08,0.0003478303688480089,9.754065606041055e-06,0.0005374046673636422,0.0005104758591916202
10.98584391825,26.51415608175,2,0.8284748047341846,4.827582080367733,19.30800993576645,0.1442940953059059,1.081303863674604e-08,0.0003376971298029619,6.729931195579328e-06,0.0005217447562027779,0.0004980497068559008
10.26415608175,27.23584391825,2,0.8125489531604185,5.245147148392192,21.68665140058462,-0.008884557259434942,-3.013321371825005e-06,0.0003478303688480089,-3.791734390062168e-07,0.0005331230191649907,0.0004622343252755716
10.98584391825,27.23584391825,2,0.8082043354799882,5.20475645978114,21.54145330777647,-0.0815924613193518,-3.013321371825005e-06,0.000337697129802962,-3.403307849467619e-06,0.0005174688886573778,0.0004533528692983467
11.51415608175,26.51415608175,2,0.8248468008128692,4.84583275828705,19.32899776085404,0.2719142140780428,2.481634251446785e-07,0.0003310023847532613,1.241949175190499e-05,0.000511748189017943,0.0004894034188935752
12.23584391825,26.51415608175,2,0.8199508770639917,4.858894063857258,19.37972424662641,0.2158522829705464,2.481634251446785e-07,0.000322845240178027,9.590817414745776e-06,0.0004991398836593971,0.000478207473218346
11.51415608175,27.23584391825,2,0.8049730789953926,5.211774962704601,21.47618622305458,0.1039090557648475,-2.580510912014294e-06,0.0003310023847532613,4.262347176670761e-06,0.0005077376560944255,0.0004469685107229133
12.23584391825,27.23584391825,2,0.8004904917453147,5.19594577148972,21.42732866483616,0.03575392040113903,-2.580510912014294e-06,0.000322845240178027,1.433672839511874e-06,0.0004951337402543459,0.0004384075746975745
11.51415608175,25.26415608175,2,0.8408389326781689,5.143572244317379,20.03229737160235,0.2543265096543852,2.724242126731819e-06,0.0003769043196498179,1.278335281027615e-05,0.0005861665221392943,0.0005300029737814675
12.23584391825,25.26415608175,2,0.8358317839419217,5.147638399166952,20.03151113409802,0.2406845262350738,2.724242126731819e-06,0.0003653735561611989,1.172867840142338e-05,0.0005683502858687463,0.0005165728114181921
11.51415608175,25.98584391825,2,0.8339303522905547,5.308452139612863,20.88722790503241,0.02600213342152824,1.669567717879008e-06,0.0003769043196498179,1.25258932165721e-06,0.0005846598549867893,0.0005116524362133743
12.23584391825,25.98584391825,2,0.8289280627670588,5.303968900128478,20.85885537071498,0.004232210942590653,1.669567717879008e-06,0.0003653735561611989,1.979149128043291e-07,0.0005668453010643286,0.0004991517852731711
10.26415608175,25.26415608175,2,0.8498714946306671,5.158323236914707,20.15653546337528,0.2394171045395131,2.540530104449777e-06,0.0004021505092903024,1.275798244713196e-05,0.0006249094995708989,0.0005561205716825326
10.98584391825,25.26415608175,2,0.8446109847459345,5.139760955202987,20.06558073186975,0.2275752813991014,2.540530104449777e-06,0.0003867586745405316,1.171641539922288e-05,0.0006011283399923607,0.0005405997642064274
10.26415608175,25.98584391825,2,0.8428617961308267,5.344615513702967,21.08403160184806,-0.05173485251165933,1.498963056540655e-06,0.0004021505092903024,-2.633852302638337e-06,0.0006234229387570542,0.0005356326030959719
10.98584391825,25.98584391825,2,0.8376720298700753,5.312920424114717,20.94752715862388,-0.0745779203188305,1.498963056540655e-06,0.0003867586745405312,-3.675419350547635e-06,0.0005996439322597021,0.0005214274418879164
10.26415608175,24.01415608175001,2,0.8456386649104329,5.291819568881301,20.96849020146461,0.2380803076863569,1.030248016164144e-06,0.0004072633406099029,1.23388571392292e-05,0.0006306705835155645,0.0005435620913478687
10.98584391825,24.01415608175001,2,0.8408431261364202,5.255098026979343,20.81542829097132,0.2730246130310655,1.030248016164144e-06,0.0003920992577613394,1.372354741096946e-05,0.0006072463305049627,0.000530014519523597
10.26415608175,24.73584391825,2,0.8505684185218269,5.191789771296394,20.31607402576838,-0.0527722432223208,2.414938287904473e-06,0.0004072633406099029,-2.825225709333955e-06,0.0006326182343615264,0.0005582452716559543
10.98584391825,24.73584391825,2,0.8454101961897664,5.175653889668967,20.23595951349965,-0.02783651133491219,2.414938287904473e-06,0.0003920992577613396,-1.44053543759369e-06,0.000609190088888948,0.0005429006647241798
11.51415608175,24.01415608175001,2,0.8374010510890173,5.257760973727297,20.74551129330037,0.200015284568442,1.404843529536633e-06,0.0003824097743314468,9.840914023518982e-06,0.0005927990758828328,0.0005207067681850388
12.23584391825,24.01415608175001,2,0.8328208259180535,5.248326448881826,20.69973006929943,0.2317391734392069,1.404843529536633e-06,0.0003711016961493196,1.108937998823298e-05,0.0005753312334303142,0.0005088250904470709
11.51415608175,24.73584391825,2,0.8417160325046404,5.184103475429913,20.21144345954077,-0.02902857049893617,2.653309494250699e-06,0.0003824097743314468,-1.467164158608153e-06,0.0005945577931116457,0.0005324290747212028
12.23584391825,24.73584391825,2,0.8368186745133663,5.190729075731363,20.22170310267783,-0.004460932645143221,2.653309494250699e-06,0.0003711016961493196,-2.186981938939389e-07,0.0005770872688212108,0.0005191647657275977
11.51415608175,22.76415608175,2,0.8139337030690017,5.166326102982144,21.38197051295657,0.1351277119504248,-3.081336546591308e-06,0.0003455179461271088,5.80987375700979e-06,0.0005294576526939294,0.000465139748074712
12.23584391825,22.76415608175,2,0.8104576268837387,5.144883268531022,21.30958787588757,0.2075361058183333,-3.081336546591308e-06,0.000338049869981913,8.759460057663625e-06,0.0005179241928977977,0.0004579155091614876
11.51415608175,23.48584391825,2,0.8303641900001614,4.876901535166964,19.53554309027696,-0.03516131315793478,-1.317502459374944e-07,0.0003455179461271088,-1.658202388185289e-06,0.0005336218250912325,0.0005026766474514387
12.23584391825,23.48584391825,2,0.826124486810413,4.890580171689781,19.59095586379067,0.02806750506315446,-1.317502459374944e-07,0.000338049869981913,1.291383912468492e-06,0.0005220839242245073,0.0004924134016136858
10.26415608175,22.76415608175,2,0.8198494457710508,5.186948707779771,21.62566648144935,0.2074973804530546,-3.898391116641712e-06,0.0003611011581554186,9.214398760687729e-06,0.000552384012711508,0.0004779810170256654
10.98584391825,22.76415608175,2,0.816450455144738,5.140931453846754,21.45816070929624,0.2856807878134279,-3.898391116641712e-06,0.0003516945201775038,1.245138637804639e-05,0.0005378581711989227,0.0004705162847024715
10.26415608175,23.48584391825,2,0.8379075070162267,4.841912731372641,19.50166160307429,-0.003895066746191505,-6.614034992830236e-07,0.0003611011581554186,-1.922392172267438e-07,0.0005569481023401995,0.0005220553491392661
10.98584391825,23.48584391825,2,0.8335263251989997,4.842287841426338,19.50678420452021,0.06335880687680549,-6.614034992830236e-07,0.0003516945201775038,3.044748400132021e-06,0.0005424161853909806,0.0005106191833527565
12.76415608175,26.51415608175,2,0.8164577188941777,4.828250142461348,19.41290274653274,0.2963897213229648,-4.354404928845811e-07,0.0003174129052114501,1.291864608142599e-05,0.0004897886079597076,0.0004705319847957975
13.48584391825,26.51415608175,2,0.8118385872594714,4.844950540178412,19.48221853359564,0.2466855678037927,-4.354404928845811e-07,0.0003107286346536339,1.048825321667702e-05,0.0004794561149756927,0.0004607581061268262
12.76415608175,27.23584391825,2,0.7972496246788003,5.169282542328421,21.40344115539894,0.1580027471631306,-2.865833357633491e-06,0.0003174129052114501,6.234375523609097e-06,0.0004863421047898762,0.0004324221074062825
13.48584391825,27.23584391825,2,0.7928921475434669,5.165016154256143,21.40198535727178,0.09847933490730457,-2.865833357633491e-06,0.0003107286346536339,3.803982658860238e-06,0.0004760128066580938,0.0004246304426840745
14.01415608175,26.51415608175,2,0.8085777988686823,4.794948955706711,19.51851744669774,0.3010417704772473,-1.415600162861078e-06,0.0003062512933108066,1.258126878483565e-05,0.0004711590897966322,0.0004541027035750888
14.73584391825,26.51415608175,2,0.8043166240045716,4.8112156223575,19.59112426309041,0.2575992317177772,-1.415600162861078e-06,0.0003007032398366738,1.053126686546108e-05,0.0004625827739937677,0.0004456936843271171
14.01415608175,27.23584391825,2,0.7897891846884819,5.121942158338608,21.39840243241951,0.1848072405905158,-3.465602082235693e-06,0.0003062512933108066,7.033215310702032e-06,0.0004682528806092647,0.0004192530024121833
14.73584391825,27.23584391825,2,0.7856878109493458,5.122790542460972,21.41956313062194,0.1334954213002346,-3.465602082235693e-06,0.0003007032398366737,4.983213391327249e-06,0.0004596788957157405,0.0004123532270962928
14.01415608175,25.26415608175,2,0.8244172533077536,5.043337040791191,20.07774588498269,0.2535519269278694,4.355884845548725e-07,0.0003429386903535134,1.155247570524837e-05,0.0005304517068862377,0.0004883998660659164
14.73584391825,25.26415608175,2,0.8202145538886979,5.056104532935569,20.12652754422147,0.2415104623781147,4.355884845548725e-07,0.0003357335414001887,1.07466079196911e-05,0.0005193186372529784,0.0004787971803860497
14.01415608175,25.98584391825,2,0.8174242261718219,5.195156720605215,20.86513191981214,0.09921456822705181,-3.702793010021581e-07,0.0003429386903535134,4.347326751923727e-06,0.0005293013336072488,0.0004726305498496749
14.73584391825,25.98584391825,2,0.8131530559077085,5.20450366804138,20.90449661698162,0.08271384818673484,-3.702793010021581e-07,0.0003357335414001886,3.541458966366783e-06,0.0005181691599747153,0.0004634972879524847
12.76415608175,25.26415608175,2,0.8322905395276067,5.098074664116167,20.02973946008505,0.2567737653277554,1.729463300917609e-06,0.0003578611866732382,1.224850474645814e-05,0.0005553375169634711,0.0005074849839282227
13.48584391825,25.26415608175,2,0.8276624142660178,5.109603017453278,20.06584765744353,0.2437479689943185,1.729463300917609e-06,0.0003488677750346446,1.131490698125779e-05,0.0005414414682293039,0.0004960867398574252
12.76415608175,25.98584391825,2,0.8253757698578648,5.253928653870861,20.84199285739433,0.07105226600023523,7.958655357172915e-07,0.0003578611866732382,3.255093107864919e-06,0.0005540039925035591,0.0004906450219407826
13.48584391825,25.98584391825,2,0.8207080112312266,5.259997205171967,20.86162342732377,0.05202818961296957,7.958655357172915e-07,0.0003488677750346446,2.321495342664463e-06,0.000540109166464168,0.0004799047632479479
12.76415608175,24.01415608175001,2,0.8295843603928471,5.205363316811447,20.67274937360081,0.1870260131481782,6.980762751013955e-07,0.0003637489345753192,8.779758176154066e-06,0.0005629679124970113,0.0005007563614862396
13.48584391825,24.01415608175001,2,0.8253540274452229,5.206796054761636,20.67478895656842,0.2136126031563227,6.980762751013955e-07,0.0003549688945604827,9.784942648560595e-06,0.0005494050868693257,0.0004905938617497768
12.76415608175,24.73584391825,2,0.8333597060568563,5.14587973880356,20.22872911568106,-5.870710118650504e-06,1.70326074750795e-06,0.0003637489345753192,-2.818386828171843e-10,0.0005643830193880898,0.0005101943091937405
13.48584391825,24.73584391825,2,0.8288455850198928,5.160047989318999,20.27579121127811,0.02149919029837117,1.70326074750795e-06,0.0003549688945604827,1.00490263372382e-06,0.00055081841569695,0.0004989508751687178
14.01415608175,24.01415608175001,2,0.8223934406372417,5.148718157408719,20.66803968561818,0.182703062541437,-3.295691611653311e-07,0.0003491917904978892,8.229563736698224e-06,0.0005390241602160283,0.0004837273247703998
14.73584391825,24.01415608175001,2,0.818564102379989,5.153841074567629,20.6901088940004,0.2042430619783238,-3.295691611653311e-07,0.0003421884886924363,9.005629631511126e-06,0.0005282058238133962,0.0004751300966063566
14.01415608175,24.73584391825,2,0.8256847534440273,5.098398150734165,20.29630361767139,0.02671951886090481,4.464967336475709e-07,0.0003491917904978892,1.226261931245361e-06,0.0005401152634322241,0.0004913732379444221
14.73584391825,24.73584391825,2,0.8215973814040879,5.113828931834773,20.35574549424253,0.04465256593203661,4.464967336475709e-07,0.0003421884886924362,2.00232782605848e-06,0.0005292957584142701,0.0004819141820704635
14.01415608175,22.76415608175,2,0.8023109748928783,5.101605751606175,21.23300478357875,0.1102865280635574,-3.344977908434326e-06,0.0003230545078137792,4.463030884139228e-06,0.0004943796897614286,0.0004418439889916697
14.73584391825,22.76415608175,2,0.7992563109921396,5.097802816707185,21.23056527306487,0.1621636894371328,-3.344977908434326e-06,0.0003181149401809653,6.4625170629711e-06,0.0004867506735145595,0.0004361085181760786
14.01415608175,23.48584391825,2,0.8164225606296724,4.859792634653122,19.74792294663049,-0.01093517451094057,-1.345491729602628e-06,0.0003230545078137792,-4.765367486744918e-07,0.0004972012506234192,0.0004704560025122028
14.73584391825,23.48584391825,2,0.8128469737296417,4.87741019671785,19.82440684814249,0.03562807433883521,-1.345491729602628e-06,0.0003181149401809653,1.522949430157435e-06,0.0004895700942911217,0.0004628565059574667
12.76415608175,22.76415608175,2,0.807966862785755,5.136524056559643,21.27401283104864,0.1133802463953955,-3.0324624817141e-06,0.0003331072060898603,4.723361729758169e-06,0.0005103517899092863,0.0004528773793957677
13.48584391825,22.76415608175,2,0.8046484646475381,5.127030729476258,21.24861817003202,0.1754492984995799,-3.0324624817141e-06,0.000327071673356655,7.184967271765808e-06,0.0005010302576857098,0.0004463371918133352
12.76415608175,23.48584391825,2,0.8231217497079401,4.876294255516805,19.63139224289517,-0.02901181389670369,-5.708569397064743e-07,0.0003331072060898603,-1.312171003446704e-06,0.0005138270180352846,0.0004853983364347194
13.48584391825,23.48584391825,2,0.8191819015565842,4.893966080481048,19.70489090482538,0.02597982094347167,-5.708569397064743e-07,0.000327071673356655,1.149434538560935e-06,0.0005045023887757837,0.000476496067784314
15.26415608175,26.51415608175,2,0.8013298349967223,4.755472411027658,19.62617564760101,0.2956993963045896,-2.433323608425666e-06,0.0002969715364283696,1.190714856655849e-05,0.0004553837340008125,0.0004399851995305477
15.98584391825,26.51415608175,2,0.7974560165914066,4.769760456790614,19.69511064787834,0.2575311698357464,-2.433323608425666e-06,0.000292324386591807,1.017186155823655e-05,0.0004482000887117202,0.0004327983482793943
15.26415608175,27.23584391825,2,0.7827948195057359,5.073498407158269,21.42579840540924,0.1971136668170951,-4.16861061674745e-06,0.0002969715364283696,7.259998729995318e-06,0.000452925030177896,0.0004076228744724848
15.98584391825,27.23584391825,2,0.7790110060289395,5.076300320026853,21.45672261317254,0.1526125606690966,-4.16861061674745e-06,0.0002923243865918063,5.524711721673591e-06,0.0004457431106818775,0.0004015990860818657
16.51415608175,26.51415608175,2,0.7947555723007205,4.714545890434964,19.72704334623854,0.2845069447650622,-3.386634343210424e-06,0.0002891912957684829,1.108948770806744e-05,0.0004420164774742415,0.0004279273986581884
17.23584391825,26.51415608175,2,0.7912726611098477,4.726493958300329,19.78957980101671,0.2505005957235686,-3.386634343210424e-06,0.0002852786822906337,9.601065085408883e-06,0.0004359683765335606,0.0004218065680625332
16.51415608175,27.23584391825,2,0.776360368402478,5.026134255951452,21.46735695363581,0.200629188608486,-4.875056965869565e-06,0.0002891912957684825,7.17687423021883e-06,0.0004399090339418759,0.0003974853889894263
17.23584391825,27.23584391825,2,0.7729193015641139,5.029429755044069,21.50150819608177,0.1614671955079253,-4.875056965869565e-06,0.000285278682290634,5.688451607559729e-06,0.0004338622341387253,0.0003922703479160749
16.51415608175,25.26415608175,2,0.8108972613747595,4.935431072235989,20.21203781125153,0.2373230659017491,-1.989663505570403e-06,0.0003211491096306637,1.003996314921998e-05,0.0004933578295017273,0.0004588165949080786
17.23584391825,25.26415608175,2,0.80754362145993,4.945296216334072,20.25983915633056,0.2265243128420793,-1.989663505570403e-06,0.0003163067329281379,9.416131159089279e-06,0.0004858755195122751,0.0004520324284639978
16.51415608175,25.98584391825,2,0.803626318767463,5.08436216310192,20.97897581662707,0.1275836480077137,-2.613495495701283e-06,0.0003211491096306641,5.197586446694345e-06,0.00049246930917328,0.0004443610457544067
17.23584391825,25.98584391825,2,0.8001761949613618,5.093055039619272,21.02501842648005,0.1142431273528692,-2.613495495701283e-06,0.0003163067329281375,4.573754456563533e-06,0.0004849875275880671,0.0004378197692828545
15.26415608175,25.26415608175,2,0.8172851868409814,4.987960125015845,20.14347592144714,0.2468575136301709,-8.390580624329794e-07,0.0003309461001171896,1.080842913005978e-05,0.0005101205619909175,0.0004723274863689384
15.98584391825,25.26415608175,2,0.8135137146372008,4.999627129521806,20.19409954467077,0.2355861312761782,-8.390580624329794e-07,0.0003250717162465499,1.010631450212472e-05,0.0005010436660102725,0.0004642546392838811
15.26415608175,25.98584391825,2,0.8101674642023411,5.137839876494456,20.91706540587112,0.1170802904170292,-1.54117269036789e-06,0.0003309461001171896,4.934045259420618e-06,0.0005091192740444101,0.0004573227480342321
15.98584391825,25.98584391825,2,0.8063095281749114,5.14743768621171,20.96288882679846,0.102460580092943,-1.54117269036789e-06,0.0003250717162465506,4.231930631485876e-06,0.0005000430550322942,0.0004495868531606771
15.26415608175,24.01415608175001,2,0.8159014141079188,5.093498093171605,20.69255950577482,0.1802107072693769,-1.384332776027511e-06,0.0003375441024863141,7.831052319978889e-06,0.0005195379852925368,0.0004693326397477977
15.98584391825,24.01415608175001,2,0.8124801481023602,5.099311311887084,20.7217325939705,0.1973260188291275,-1.384332776027511e-06,0.0003318587052061296,8.418352161960563e-06,0.0005107553923294587,0.0004620909212188962
15.26415608175,24.73584391825,2,0.8187523738405935,5.050102165890431,20.38098407264506,0.04861186031497209,-7.970329340458164e-07,0.0003375441024863141,2.145655039794813e-06,0.0005203623935803065,0.0004755455271546734
15.98584391825,24.73584391825,2,0.8150950190435875,5.064402177366139,20.44182790882877,0.06316712129619949,-7.970329340458164e-07,0.0003318587052061299,2.732954881776379e-06,0.000511579035830648,0.0004676050942220804
16.51415608175,24.01415608175001,2,0.8101129117979503,5.042084161445514,20.72805913832909,0.1766892504889607,-2.358127655110348e-06,0.0003280692884563609,7.443971137245696e-06,0.0005035239727796079,0.0004572114789624822
17.23584391825,24.01415608175001,2,0.8070859410254243,5.047424274118917,20.75834206838509,0.1900411078960073,-2.358127655110348e-06,0.0003234018066446853,7.880860893442836e-06,0.0004963137411632848,0.0004511223133336957
16.51415608175,24.73584391825,2,0.8125611992355174,5.004371323741262,20.46762845465953,0.06505272869002821,-1.921237898913308e-06,0.0003280692884563613,2.776489325569988e-06,0.0005041362130918194,0.0004622598581084653
17.23584391825,24.73584391825,2,0.8093182516596218,5.016786825106264,20.52507855235329,0.07659159267397196,-1.921237898913308e-06,0.0003234018066446851,3.213379081767236e-06,0.0004969254858803988,0.0004555968343995892
16.51415608175,22.76415608175,2,0.7924696562564963,5.029355999260169,21.23198333269188,0.1159946961839275,-4.296467940240051e-06,0.0003079976677733745,4.471430792878778e-06,0.0004697755099295059,0.0004238900676151418
17.23584391825,22.76415608175,2,0.7900268673769735,5.029217654052788,21.24454915699441,0.1515305260191403,-4.296467940240051e-06,0.0003046065102718091,5.773330106616616e-06,0.0004645379000371841,0.000419660027980653
16.51415608175,23.48584391825,2,0.8049534706860157,4.811462938869266,19.97595202721681,0.02633794452266158,-2.994568626502186e-06,0.000307997667773375,1.080273291313499e-06,0.0004716104942052226,0.0004469303245863647
17.23584391825,23.48584391825,2,0.8021263900598944,4.825283781781933,20.04181775755195,0.0589211366077417,-2.994568626502186e-06,0.0003046065102718089,2.382172605051337e-06,0.0004663718563118483,0.0004414930750754878
15.26415608175,22.76415608175,2,0.7971264941404458,5.065131933014841,21.22480639881758,0.1129884631246371,-3.802482389891843e-06,0.0003148132855456177,4.455523658288116e-06,0.0004810019716213234,0.0004321979626506848
15.98584391825,22.76415608175,2,0.7943748592106459,5.063906959310896,21.23298530820677,0.1559760642394845,-3.802482389891843e-06,0.0003107325649652319,6.068365517590828e-06,0.0004746993731902718,0.0004272495970846265
15.26415608175,23.48584391825,2,0.8103608794614989,4.836662382220131,19.86570140952595,0.008884665758581973,-2.189640530588953e-06,0.0003148132855456177,3.748030779030399e-07,0.0004832765811701223,0.0004577176948454594
15.98584391825,23.48584391825,2,0.8071642138120636,4.852616187210351,19.93826606532277,0.04791113426606914,-2.189640530588953e-06,0.0003107325649652322,1.987644937205806e-06,0.0004769725017977458,0.0004512776983510954
17.76415608175,26.51415608175,2,0.7888567268751105,4.674637123498615,19.81779921008167,0.2692426559403329,-4.240725075527949e-06,0.0002826386410054553,1.020132545851283e-05,0.0004306864239441833,0.0004176638776981064
18.48584391825,26.51415608175,2,0.7857563649765427,4.684359010401701,19.87312148575209,0.2384226134058419,-4.240725075527949e-06,0.0002793385275578096,8.902859153962252e-06,0.0004255852073272531,0.0004124666677376405
17.76415608175,27.23584391825,2,0.7705229398751935,4.981217916843856,21.51376835908674,0.1979587304439673,-5.539191380078359e-06,0.0002826386410054553,6.901212010866891e-06,0.000428849424952955,0.0003887195175205965
18.48584391825,27.23584391825,2,0.7674314647466005,4.984365474245736,21.54776392917429,0.1628777952894134,-5.539191380078359e-06,0.0002793385275578096,5.602745706316525e-06,0.0004237492065626178,0.0003842335095440287
19.01415608175,26.51415608175,2,0.783616957104088,4.637118297264444,19.89759829524252,0.2507193030089498,-4.987914350880876e-06,0.0002771133038174745,9.269462140970249e-06,0.0004210949048203244,0.0004089559571414558
19.73584391825,26.51415608175,2,0.7808862131392684,4.644889737636662,19.94570995299477,0.2223064271463832,-4.987914350880876e-06,0.0002743339929480567,8.116565564637184e-06,0.0004167987979382709,0.0004045617273820673
19.01415608175,27.23584391825,2,0.7652911970016197,4.939643525438582,21.56020207946143,0.190411954528054,-6.140810927213629e-06,0.0002771133038174736,6.490151271552197e-06,0.000419465280830643,0.0003811885633320536
19.73584391825,27.23584391825,2,0.7625474556640074,4.942391658962968,21.5922556095433,0.1584180883936257,-6.140810927213629e-06,0.0002743339929480561,5.337254695219132e-06,0.0004151699506815706,0.0003773556235508376
19.01415608175,25.26415608175,2,0.8002377742908047,4.843671900974265,20.3355767366418,0.2103474616920574,-3.848131464628615e-06,0.0003063587613684527,8.423913417875974e-06,0.0004678814895812714,0.0004379348106302866
19.73584391825,25.26415608175,2,0.7976553921390338,4.85005638972621,20.37353637416449,0.1997761501754243,-3.848131464628615e-06,0.0003030239942330263,7.898452142107715e-06,0.0004627286556615945,0.0004331624288301378
19.01415608175,25.98584391825,2,0.7926244746293201,4.991950393458744,21.10152168920648,0.1319205480013893,-4.37359274039692e-06,0.0003063587613684532,5.08914628244905e-06,0.0004671353920522,0.0004241610682780409
19.73584391825,25.98584391825,2,0.7899422993665568,4.998141343927639,21.14094891890418,0.119829647364833,-4.37359274039692e-06,0.0003030239942330262,4.563685006680682e-06,0.0004619829054611831,0.0004195151157883513
17.76415608175,25.26415608175,2,0.805227189459801,4.88715908791011,20.27693427021333,0.2251303669789458,-2.991374069318878e-06,0.0003130645505665672,9.246890933269406e-06,0.0004794519187955851,0.0004474639761284324
18.48584391825,25.26415608175,2,0.8022704499497271,4.89518427592925,20.32009091466509,0.2145421357491293,-2.991374069318878e-06,0.000309049120329501,8.680225517919068e-06,0.0004732473590873175,0.0004417668986792608
17.76415608175,25.98584391825,2,0.7977877156036386,5.03563173040968,21.04187603684797,0.1322332022636247,-3.558039484669158e-06,0.0003130645505665672,5.231460696203047e-06,0.0004786460196921024,0.0004334044079413897
18.48584391825,25.98584391825,2,0.7947304992173967,5.043077557684004,21.08525646671455,0.1196925248192294,-3.558039484669158e-06,0.000309049120329501,4.664795280853468e-06,0.0004724418841541652,0.0004278826928937717
17.76415608175,24.01415608175001,2,0.8050007731881059,4.995389495325461,20.76596387458628,0.1709125183043775,-3.218088219564526e-06,0.0003202821561065095,7.011823425094837e-06,0.0004902787106310218,0.0004470224549529823
18.48584391825,24.01415608175001,2,0.8023459790944228,4.999893029120416,20.79465721176391,0.1810912870221677,-3.218088219564526e-06,0.0003164265941456667,7.329627242288312e-06,0.0004843226477784237,0.0004419105991813467
17.76415608175,24.73584391825,2,0.8070812079446738,4.962530768237833,20.54952227735422,0.07611276863678858,-2.900284402370987e-06,0.0003202821561065095,3.156261464252194e-06,0.0004907232743073199,0.0004511129208275641
18.48584391825,24.73584391825,2,0.8042298206445171,4.972977858183787,20.60164792977775,0.08501479790515935,-2.900284402370987e-06,0.0003164265941456667,3.474065281445669e-06,0.0004847668965770823,0.000445525664840399
19.01415608175,24.01415608175001,2,0.800525691424754,4.953675440266768,20.80233461921442,0.1624070626397447,-3.960942600384232e-06,0.0003138475870723822,6.5134027053306e-06,0.0004792888516373274,0.0004384735055563086
19.73584391825,24.01415608175001,2,0.7982190260702724,4.957311252903494,20.82829858109557,0.1699193322081727,-3.960942600384232e-06,0.000310657170675634,6.736783112855783e-06,0.0004743602438029331,0.0004341950469135695
19.01415608175,24.73584391825,2,0.8022719841286479,4.925031470956201,20.62390182956206,0.0821309361954364,-3.737562192859081e-06,0.0003138475870723826,3.322986308581513e-06,0.0004796007119280608,0.0004417698166406001
19.73584391825,24.73584391825,2,0.7997879713757183,4.933673559390118,20.67007537348764,0.08875315930966649,-3.737562192859081e-06,0.0003106571706756338,3.546366716106588e-06,0.0004746719107265321,0.0004370959045199621
19.01415608175,22.76415608175,2,0.7847332236866055,4.964561168696779,21.26168960430988,0.1149088252658921,-5.215648986091818e-06,0.0002976109871481725,4.270378447944164e-06,0.0004524327163606414,0.0004107801450340942
19.73584391825,22.76415608175,2,0.7828728743703222,4.964917341334833,21.27524295614366,0.1392065151413802,-5.215648986091818e-06,0.0002952594863524005,5.129032671074164e-06,0.0004488007813829709,0.0004077490614178609
19.01415608175,23.48584391825,2,0.7960064731402205,4.762959998979301,20.16283840617489,0.04892982748488136,-4.356994762961732e-06,0.0002976109871481725,1.91887765217235e-06,0.0004536417631376011,0.000430169848075898
19.73584391825,23.48584391825,2,0.7938572681981358,4.772745491297142,20.21368546879275,0.07157100105520184,-4.356994762961732e-06,0.0002952594863524006,2.777531875302513e-06,0.0004500093316236697,0.0004263315840042033
17.76415608175,22.76415608175,2,0.7883449350902574,4.995604891756778,21.24574955447441,0.1169511700408965,-4.775052231274594e-06,0.0003023311286606833,4.420443993278166e-06,0.0004603462073448366,0.0004167968357850564
18.48584391825,22.76415608175,2,0.7862013131074193,4.995862762848762,21.25957592250754,0.1463202262644045,-4.775052231274594e-06,0.0002995058279937791,5.475065479253216e-06,0.0004559825251393079,0.0004132044888690077
17.76415608175,23.48584391825,2,0.800180327489934,4.786503842173993,20.07528443509862,0.03984262713534063,-3.72043074529946e-06,0.0003023311286606833,1.595143326374275e-06,0.0004618318563983706,0.0004378274876787308
18.48584391825,23.48584391825,2,0.7977033875872441,4.798207687921474,20.13361892229883,0.06700480565359739,-3.72043074529946e-06,0.0002995058279937791,2.64976481234927e-06,0.0004574674594739068,0.0004332501661816578
20.26415608175,26.51415608175,2,0.7790133456894922,4.602788540914426,19.96664114343521,0.2293906290768792,-5.631062145832199e-06,0.0002724645115521718,8.304234653177308e-06,0.0004130048029178876,0.0004016027551802677
20.98584391825,26.51415608175,2,0.7766384270466075,4.608918186588332,20.00787636921756,0.2027867835842032,-5.631062145832199e-06,0.0002701363042640101,7.263085799508314e-06,0.000409406038535251,0.0003979129225458125
20.26415608175,27.23584391825,2,0.7606605329353149,4.901984774156778,21.60409337758186,0.1787874005883516,-6.672210999501413e-06,0.0002724645115521718,5.97602736501562e-06,0.0004115344725036462,0.0003747644943710906
20.98584391825,27.23584391825,2,0.7582590993795725,4.904267358204971,21.63325230300612,0.1491202469731595,-6.672210999501413e-06,0.00027013630426401,4.93487851134641e-06,0.0004079363179666267,0.0003715183375839627
21.51415608175,26.51415608175,2,0.775022141942783,4.572124255523003,20.02553131927667,0.205590187758729,-6.176729789090228e-06,0.000268577545092903,7.310592767984935e-06,0.0004062294937568792,0.0003954406985641072
22.23584391825,26.51415608175,2,0.7729901255756119,4.576901655179905,20.06032993793806,0.1803346668029466,-6.176729789090228e-06,0.0002666471431286552,6.355130313523416e-06,0.000403245661846652,0.0003923762896725664
21.51415608175,27.23584391825,2,0.7566210697176343,4.86856786227995,21.64405309762454,0.1636781353160828,-7.13219224355167e-06,0.000268577545092903,5.380190803737535e-06,0.0004048813916391917,0.0003693364917486194
22.23584391825,27.23584391825,2,0.7545554759757662,4.870404250480254,21.66981391500586,0.1357531679530765,-7.13219224355167e-06,0.0002666471431286553,4.424728349276125e-06,0.0004018980397995288,0.0003666217348590535
21.51415608175,25.26415608175,2,0.7921478364658733,4.771517687826829,20.43158323780458,0.1734121179057466,-5.17872881809614e-06,0.0002961905768212279,6.674440716217017e-06,0.0004502933135847188,0.0004233278606006465
22.23584391825,25.26415608175,2,0.790252518837425,4.775388078183105,20.45933396925705,0.1625508552238516,-5.17872881809614e-06,0.0002939227584396666,6.199868692501097e-06,0.0004467890828661438,0.0004200471911275812
21.51415608175,25.98584391825,2,0.7842005709706596,4.919820082226292,21.20425419614781,0.1188683229708559,-5.653300841811988e-06,0.0002961905768212279,4.406622334656666e-06,0.0004496216280250122,0.0004099076422458086
22.23584391825,25.98584391825,2,0.7822172491185451,4.923878437007923,21.23450300914452,0.1070415916651165,-5.653300841811988e-06,0.0002939227584396673,3.932050310940637e-06,0.0004461176349886095,0.0004066915975345371
20.26415608175,25.26415608175,2,0.7958901035707029,4.805123592762637,20.38714395683525,0.1930598821740414,-4.572633100870036e-06,0.0003007926752289034,7.566899422377263e-06,0.0004582590238824285,0.0004299602327311739
20.98584391825,25.26415608175,2,0.7936607346362061,4.810126499052359,20.41989818972405,0.1823794227478113,-4.572633100870036e-06,0.0002980313654769153,7.071050579782212e-06,0.000453992269855577,0.0004259840520927826
20.26415608175,25.98584391825,2,0.7881054749720758,4.953365562784539,21.15594171866712,0.1272847675857718,-5.068481943465211e-06,0.0003007926752289034,4.805589670388993e-06,0.0004575561217553918,0.0004163924086990313
20.98584391825,25.98584391825,2,0.78578070915266,4.95841677769355,21.19087537027628,0.1154037029832366,-5.068481943465211e-06,0.0002980313654769155,4.309740827794159e-06,0.0004532896550420977,0.0004125069667631807
20.26415608175,24.01415608175001,2,0.7966461582612835,4.916924187517726,20.83544764739605,0.1510796841028245,-4.593966407875625e-06,0.0003085257332008798,5.943519249444718e-06,0.000470173390829445,0.0004313258120359816
20.98584391825,24.01415608175001,2,0.7946646767457634,4.919784525546602,20.85826757391171,0.1563628130068474,-4.593966407875625e-06,0.0003058929541231978,6.091998611003574e-06,0.0004661061791130228,0.0004277653752139689
20.26415608175,24.73584391825,2,0.7980918556022902,4.891961510639087,20.68982109313869,0.08355817558293463,-4.445487046316752e-06,0.0003085257332008798,3.310740171762281e-06,0.0004703801749962027,0.0004339616260954334
20.98584391825,24.73584391825,2,0.79595246072072,4.899028483409408,20.72997729951119,0.08823065420012466,-4.445487046316752e-06,0.0003058929541231982,3.459219533321137e-06,0.0004663128509391854,0.0004300725303148283
21.51415608175,24.01415608175001,2,0.7933230984175936,4.885026537300235,20.86462596425597,0.137051271498549,-5.126919573165422e-06,0.0003041403338955892,5.304947788523095e-06,0.0004626461080164704,0.0004253883443324336
22.23584391825,24.01415608175001,2,0.7916462504221494,4.887235613996304,20.88420860205158,0.1404872551650094,-5.126919573165422e-06,0.000301984865464868,5.394181979432699e-06,0.0004593162213615746,0.0004224546120146556
21.51415608175,24.73584391825,2,0.7945021080339638,4.863271880968601,20.74712968192651,0.08090142110236734,-5.037685382255822e-06,0.0003041403338955892,3.149479357802401e-06,0.0004627699201664519,0.0004274759022228954
22.23584391825,24.73584391825,2,0.7926871502593928,4.868986282273966,20.78141626996093,0.08392836690962785,-5.037685382255822e-06,0.0003019848654648688,3.238713548712113e-06,0.0004594399740827698,0.0004242708781276776
21.51415608175,22.76415608175,2,0.7789338609498188,4.911746908259309,21.2924767218477,0.1012495195429521,-5.954739503319209e-06,0.0002904403553577715,3.664044434049441e-06,0.0004403127261740321,0.0004014781437116379
22.23584391825,22.76415608175,2,0.7775880152272669,4.912030223277039,21.30362768278043,0.1180490657235089,-5.954739503319209e-06,0.0002888422783148132,4.246140453056425e-06,0.0004378444016221831,0.0003993800121433555
21.51415608175,23.48584391825,2,0.7893026237398958,4.722251107586045,20.30400678750112,0.05441173859273565,-5.372643484312339e-06,0.0002904403553577715,2.065967391091375e-06,0.0004411319100871529,0.0004184222659345396
22.23584391825,23.48584391825,2,0.7877450185429076,4.728894254598497,20.34103994731684,0.07025808125094969,-5.372643484312339e-06,0.0002888422783148136,2.648063410098196e-06,0.000438663348524572,0.0004157851245754528
20.26415608175,22.76415608175,2,0.7816062879028349,4.936547835168916,21.27762091362668,0.1096292854760406,-5.609793645596067e-06,0.0002936858760243712,4.015840361823811e-06,0.0004458130610295567,0.0004057111531483971
20.98584391825,22.76415608175,2,0.7800116779550271,4.936886607465605,21.29015779375396,0.129784656584985,-5.609793645596067e-06,0.0002917381934524682,4.719692586534761e-06,0.0004428047923212464,0.0004031745678310536
20.26415608175,23.48584391825,2,0.792393060452943,4.741432997805649,20.23886634620645,0.05367048865823034,-4.905941420885043e-06,0.0002936858760243712,2.068157789920705e-06,0.0004468038032845893,0.0004237561206242615
20.98584391825,23.48584391825,2,0.7905496428771334,4.749538672873877,20.2825936697808,0.07257481093910954,-4.905941420885043e-06,0.0002917381934524684,2.772010014632197e-06,0.0004437951906225032,0.0004205580878886231
22.76415608175001,26.51415608175,2,0.7716213905576104,4.545426420182565,20.07497831285519,0.1796057170160649,-6.632048900718165e-06,0.0002653645611248819,6.291507508679245e-06,0.0004006230972656627,0.000390339059893723
23.48584391825,26.51415608175,2,0.769920919968502,4.549098420571294,20.1037633195366,0.1553406817706683,-6.632048900718165e-06,0.0002637908838897965,5.4012970409792e-06,0.0003981906793057641,0.0003878376535225347
22.76415608175001,27.23584391825,2,0.7531615555575004,4.839587022788198,21.67932659264466,0.1455677357347301,-7.52225936841871e-06,0.0002653645611248815,4.71783027359467e-06,0.0003993681462690486,0.0003648123889209221
23.48584391825,27.23584391825,2,0.7514254477208249,4.841027653308666,21.7014134315253,0.1189311099431315,-7.52225936841871e-06,0.0002637908838897965,3.827619805894193e-06,0.0003969361041370081,0.0003625839207788345
24.01415608175,26.51415608175,2,0.7687919629853721,4.522908787216117,20.11564002912135,0.1517141016059922,-7.003233646687895e-06,0.0002627578255835969,5.249440410979959e-06,0.0003960721218167178,0.0003861947615090342
24.73584391825,26.51415608175,2,0.7674134698102248,4.525672589637359,20.13876262603871,0.1281631686687246,-7.003233646687895e-06,0.0002615091350388437,4.408274840822534e-06,0.0003941420461964687,0.0003842077034277988
24.01415608175,27.23584391825,2,0.7502711429082642,4.815193339243747,21.7094894207176,0.1248878364503324,-7.84439921684531e-06,0.0002627578255835969,4.000749866226502e-06,0.0003948872430519004,0.0003611173979790308
24.73584391825,27.23584391825,2,0.7488588057860195,4.816292443556772,21.72773450823927,0.09918772166682606,-7.84439921684531e-06,0.0002615091350388434,3.159584296069402e-06,0.0003929574566392794,0.0003593392513214264
24.01415608175,25.26415608175,2,0.7863562820610891,4.718956447776224,20.50017334052479,0.1278967432805544,-6.082453778994274e-06,0.000289385478440029,4.789159990826412e-06,0.0004385042307386193,0.0004134620885876263
24.73584391825,25.26415608175,2,0.7850832591282905,4.721161615117435,20.51867288882507,0.116605548773177,-6.082453778994274e-06,0.0002879385928762341,4.340491980297893e-06,0.0004362684845260645,0.0004113555632864052
24.01415608175,25.98584391825,2,0.7781288451252814,4.867501680765574,21.28134114064834,0.09269428587923526,-6.53112178952269e-06,0.000289385478440029,3.342274427032242e-06,0.0004378709163295148,0.0004002204790852278
24.73584391825,25.98584391825,2,0.7767893929398982,4.869973789520383,21.30216473236005,0.08073545560260023,-6.53112178952269e-06,0.0002879385928762348,2.893606416503724e-06,0.000435635325612327,0.0003981454322116265
22.76415608175001,25.26415608175,2,0.7889789547262771,4.742810172042055,20.46914676019826,0.1516078595378093,-5.678698331105528e-06,0.0002924211725657904,5.74759202206219e-06,0.0004437640514634637,0.0004178714878171091
23.48584391825,25.26415608175,2,0.7874014898902368,4.745761931919239,20.49215123337175,0.140533518606815,-5.678698331105528e-06,0.0002905865820478163,5.288222143579784e-06,0.0004409292311092857,0.0004152080253035163
22.76415608175001,25.98584391825,2,0.7808827420624006,4.891224899586503,21.2460954422446,0.1071757699851833,-6.13806820958798e-06,0.0002924211725657902,3.913001504088007e-06,0.0004431148162697227,0.0004045562025936369
23.48584391825,25.98584391825,2,0.77922709046173,4.89443070676477,21.27162179902795,0.0953085378072917,-6.13806820958798e-06,0.0002905865820478163,3.453631625605601e-06,0.0004402801904572162,0.0004019382398318954
22.76415608175001,24.01415608175001,2,0.7905218007001344,4.857870666942199,20.88967089961712,0.1205643366784371,-5.568840048165372e-06,0.0003005594403410619,4.604367884826076e-06,0.0004564903041909812,0.0004205101606185918
23.48584391825,24.01415608175001,2,0.7891318915156135,4.859547194838562,20.90605223861516,0.1224889041728096,-5.568840048165372e-06,0.0002988205749109913,4.647033828043432e-06,0.0004538039768995107,0.0004181315529292493
22.76415608175001,24.73584391825,2,0.7914686790272105,4.838877965086856,20.79598734288547,0.07469337651761523,-5.526174104948026e-06,0.0003005594403410622,2.865502454755435e-06,0.0004565489982881853,0.0004221463379858427
23.48584391825,24.73584391825,2,0.7899609175728347,4.843429100943204,20.82460707669287,0.07635362773173841,-5.526174104948026e-06,0.0002988205749109913,2.9081683979729e-06,0.0004538626448164531,0.0004195470104706015
24.01415608175,24.01415608175001,2,0.788212574619559,4.835370176001263,20.91058693842204,0.1019247408043626,-5.92709876556021e-06,0.0002976833112206664,3.850077146790813e-06,0.0004515414227760676,0.0004165731923871318
24.73584391825,24.01415608175001,2,0.7870948598808409,4.836614316025125,20.92384450557762,0.1026354367781481,-5.92709876556021e-06,0.0002963151144670328,3.856569614832405e-06,0.0004494277087988945,0.0004146942798987176
24.01415608175,24.73584391825,2,0.7889626520935012,4.81870169266057,20.83664308442587,0.06547118199913424,-5.920606297518749e-06,0.0002976833112206664,2.481880393157389e-06,0.0004515496012563442,0.0004178437849107928
24.73584391825,24.73584391825,2,0.7877478058526426,4.822240541277424,20.85978926177347,0.06602032495577481,-5.920606297518749e-06,0.0002963151144670331,2.488372861198873e-06,0.000449435880579144,0.0004157898136596889
24.01415608175,22.76415608175,2,0.7748399485059598,4.872317647956383,21.31710071185991,0.07650506744227133,-6.49433186004671e-06,0.0002856495534301698,2.718246578276213e-06,0.0004321507260999188,0.0003951639664371743
24.73584391825,22.76415608175,2,0.7739476915045576,4.872478522623555,21.32498747686805,0.08849242514176441,-6.49433186004671e-06,0.0002846331344109062,3.131750371610951e-06,0.0004305807626632268,0.0003938143576349819
24.01415608175,23.48584391825,2,0.784560101497456,4.691674906023123,20.40426585097228,0.04583019457282024,-6.080828066711876e-06,0.0002856495534301698,1.701827559012856e-06,0.00043273260848016,0.0004104961533428303
24.73584391825,23.48584391825,2,0.7835247304850739,4.695886575501471,20.42898242027511,0.05723961557660527,-6.080828066711876e-06,0.0002846331344109065,2.115331352347703e-06,0.0004311625360241332,0.000408805974203775
22.76415608175001,22.76415608175,2,0.776687044788941,4.8902968231278,21.30572735685499,0.09008260788853428,-6.249668991017471e-06,0.0002877848713375994,3.227134146458984e-06,0.0004357944839695969,0.00039798777104327
23.48584391825,22.76415608175,2,0.7755746042793289,4.890517064235546,21.31529880248256,0.1041923855802004,-6.249668991017471e-06,0.0002864940587944059,3.714103218866816e-06,0.0004338007189875676,0.0003962822291895715
22.76415608175001,23.48584391825,2,0.7867013738075528,4.705617816007084,20.3589412337768,0.05162684223042597,-5.762699918609683e-06,0.0002877848713375992,1.936321603266062e-06,0.0004364797333711143,0.0004140368921162377
23.48584391825,23.48584391825,2,0.7854121884241076,4.710976037414541,20.38966060503694,0.06500108036313641,-5.762699918609683e-06,0.0002864940587944059,2.42329067567373e-06,0.0004344858064706904,0.0004118977735731047
25.26415608175,26.51415608175,2,0.7665178675472692,4.504739267058868,20.14805603473978,0.122209100327275,-7.295115713183241e-06,0.0002607051223067081,4.187355976012995e-06,0.0003924890225436665,0.0003829277500396287
25.98584391825,26.51415608175,2,0.7654536051892076,4.50674538224984,20.16578539181772,0.09916034664516418,-7.295115713183241e-06,0.0002597572092172419,3.382199815099487e-06,0.0003910238598569718,0.0003814179104329148
25.26415608175,27.23584391825,2,0.7479401982816344,4.79552247881603,21.73428106832623,0.10206666645762,-8.100271874096783e-06,0.0002607051223067081,3.239442886546814e-06,0.0003913556344758169,0.0003581921672588755
25.98584391825,27.23584391825,2,0.7468468077521004,4.796327332561368,21.74857143399982,0.07703093193009132,-8.100271874096783e-06,0.0002597572092172419,2.434286725633197e-06,0.0003898906864626526,0.000356836421976905
26.51415608175,26.51415608175,2,0.7647862795002175,4.49105250669282,20.1726382036848,0.09141572926091762,-7.511222295097582e-06,0.0002591668552196277,3.109197169847994e-06,0.0003898076096488239,0.0003804773125819212
27.23584391825,26.51415608175,2,0.7640302928151701,4.492410989105113,20.18517011338838,0.06870564263986324,-7.511222295097582e-06,0.0002585018911930922,2.329303823258894e-06,0.000388779796891492,0.0003794173910701212
26.51415608175,27.23584391825,2,0.746160691411949,4.780690924187726,21.7535275241375,0.07755530639079801,-8.291115641686501e-06,0.0002591668552196277,2.444233143312265e-06,0.0003887103748637514,0.0003559909489063695
27.23584391825,27.23584391825,2,0.7453824386711203,4.781238879413394,21.76378507438101,0.0529712675330423,-8.291115641686501e-06,0.000258501891193092,1.66433979672349e-06,0.0003876827103689461,0.0003550368188031074
26.51415608175,25.26415608175,2,0.7826647901354606,4.685707251945526,20.54385385960475,0.07592655145886912,-6.629482090620042e-06,0.0002852357268194922,2.794818253561127e-06,0.0004313211416712009,0.0004074128385404681
27.23584391825,25.26415608175,2,0.781971013405121,4.686778757975698,20.55388910923628,0.06427253104574999,-6.629482090620042e-06,0.0002844714508462165,2.358311417194271e-06,0.000430140163862531,0.0004062958731002297
26.51415608175,25.98584391825,2,0.774240196244641,4.834491384734125,21.33198588080408,0.05730185333927482,-7.065988926986708e-06,0.0002852357268194922,2.030542280285434e-06,0.0004307061253298126,0.0003942557663822314
27.23584391825,25.98584391825,2,0.7735076689828806,4.835752733160345,21.34350131140935,0.04512960042713456,-7.065988926986708e-06,0.0002844714508462171,1.594035443918795e-06,0.000429525231647652,0.0003931522132733907
25.26415608175,25.26415608175,2,0.7842574686256273,4.699927034069606,20.52498651114055,0.1025642575936992,-6.397545681405924e-06,0.0002870088471380072,3.803209573571636e-06,0.0004343878070559547,0.0004100006636127975
25.98584391825,25.26415608175,2,0.7832781586316314,4.701517345355014,20.53917923181074,0.09107420188794763,-6.397545681405924e-06,0.0002859156201067341,3.361883650043231e-06,0.0004326985317465783,0.0004084055341664063
25.26415608175,25.98584391825,2,0.7759197417360627,4.848599344070744,21.30996752061755,0.07590669849613647,-6.838871604934611e-06,0.0002870088471380072,2.709982542298869e-06,0.0004337655031813499,0.0003968097947983009
25.98584391825,25.98584391825,2,0.7748872748531532,4.85043135905105,21.32612171609948,0.06383793423422821,-6.838871604934611e-06,0.0002859156201067341,2.268656618770355e-06,0.0004320763468922916,0.0003952358123980516
25.26415608175,24.01415608175001,2,0.7863708527640707,4.817463710229455,20.92745195185573,0.08146939373527713,-6.207381838611319e-06,0.0002954366297593868,3.050871841764303e-06,0.0004476750409113539,0.000413486325692949
25.98584391825,24.01415608175001,2,0.7855134866673056,4.818354340550366,20.93766697156201,0.08123449261377182,-6.207381838611319e-06,0.000294404761657957,3.029915171879076e-06,0.000446080902869894,0.0004120650459178468
25.26415608175,24.73584391825,2,0.7869602342911667,4.80268460661047,20.86934314719859,0.05376601047575222,-6.228338508496348e-06,0.0002954366297593868,2.01900374033402e-06,0.0004476449285479391,0.000414469126598432
25.98584391825,24.73584391825,2,0.7860268745686968,4.805326563848546,20.88717757652806,0.05344104705285133,-6.228338508496348e-06,0.000294404761657957,1.998047070448901e-06,0.0004460507936903191,0.0004129149136971298
26.51415608175,24.01415608175001,2,0.7849770762661626,4.804105590266058,20.9403582049258,0.05955282236158453,-6.41396113093695e-06,0.000293763384325192,2.215682731030149e-06,0.0004447985719294497,0.0004111808385734824
27.23584391825,24.01415608175001,2,0.7843710100485113,4.804701441223304,20.94760071520827,0.0586206840787885,-6.41396113093695e-06,0.0002930429769666115,2.174872092735832e-06,0.0004436856027458116,0.0004101864189592534
26.51415608175,24.73584391825,2,0.7854425519221497,4.790787053716757,20.89429741328105,0.04010280851080177,-6.454771769231289e-06,0.000293763384325192,1.495275372449464e-06,0.0004447407866085087,0.0004119478979658112
27.23584391825,24.73584391825,2,0.784781966326011,4.792616677731068,20.90694582090969,0.03912838001662898,-6.454771769231289e-06,0.0002930429769666114,1.454464734155147e-06,0.0004436278239167623,0.0004108601747573201
26.51415608175,22.76415608175,2,0.7722607632335544,4.847094502762284,21.33371184050625,0.04366737344148062,-6.833548253091324e-06,0.0002827365332458919,1.533942909846949e-06,0.0004271722193268988,0.0003912880373319858
27.23584391825,22.76415608175,2,0.7717788376724175,4.847162498348101,21.33810039982005,0.05283425970937051,-6.833548253091324e-06,0.0002822007855183107,1.852037179042446e-06,0.0004263446834486028,0.0003905723160394163
26.51415608175,23.48584391825,2,0.7815649856906697,4.672228795710037,20.46791928809527,0.0272550973652182,-6.515453983895976e-06,0.0002827365332458919,9.981951822658503e-07,0.0004276199560132819,0.0004056450456010817
27.23584391825,23.48584391825,2,0.7810046330845835,4.674437302092167,20.48131700314843,0.03603266142370431,-6.515453983895976e-06,0.0002822007855183107,1.316289451461184e-06,0.0004267923757236646,0.0004047503035998036
25.26415608175,22.76415608175,2,0.7733704896007556,4.85790022304683,21.32645321881098,0.06090454907421024,-6.68881055529115e-06,0.0002839803607587561,2.149924746055077e-06,0.0004292978378435001,0.0003929462460690261
25.98584391825,22.76415608175,2,0.7726875786608922,4.858009814076798,21.33260141030946,0.07126160160357284,-6.68881055529115e-06,0.0002832133689944245,2.507970349662988e-06,0.0004281131258081623,0.0003919241299662879
25.26415608175,23.48584391825,2,0.7828544614995634,4.680523241858046,20.44046467312337,0.037537215878311,-6.330764951683258e-06,0.0002839803607587561,1.382932981724072e-06,0.0004298017324230309,0.0004077192872364826
25.98584391825,23.48584391825,2,0.7820611135888776,4.683693900048793,20.45942542982069,0.04742836676910795,-6.330764951683258e-06,0.0002832133689944245,1.740978585331983e-06,0.0004286169488994562,0.0004064405823688463
27.76415608175,26.51415608175,2,0.7635874788366251,4.481951562556187,20.18968424785124,0.05969071966347599,-7.654004065422225e-06,0.0002581141981938834,2.019883527987123e-06,0.0003879798642974249,0.0003787993144962415
28.48584391825,26.51415608175,2,0.7631355576858569,4.482737518680945,20.19715183025681,0.0371892717333196,-7.654004065422225e-06,0.0002577199652487986,1.256052495511237e-06,0.000387370512841503,0.0003781706194051623
27.76415608175,27.23584391825,2,0.7449263837624409,4.770787614860224,21.76711000858128,0.051832571614956,-8.417835097898064e-06,0.0002581141981938834,1.625650582902545e-06,0.0003869056363258337,0.0003544800936934194
28.48584391825,27.23584391825,2,0.7444605303171772,4.771105564931347,21.77328365571829,0.02752861385978965,-8.417835097898064e-06,0.0002577199652487983,8.618195504266589e-07,0.0003862963719098411,0.0003539132225110996
29.01415608175,26.51415608175,2,0.7629147687003355,4.477508457466019,20.1993928546741,0.0274153131332613,-7.725016061979441e-06,0.0002575278520483308,9.250787316603332e-07,0.0003869737598249097,0.0003778642320498031
29.73584391825,26.51415608175,2,0.7627644058154825,4.477765649420377,20.2018735671173,0.005013232588333656,-7.725016061979441e-06,0.0002573972219689124,1.690549887529763e-07,0.0003867718498878081,0.000377655861319209
29.01415608175,27.23584391825,2,0.7442329101256262,4.765872149998459,21.77495218749957,0.02539922747981301,-8.48103980488667e-06,0.0002575278520483308,7.944486522418019e-07,0.0003859107321391687,0.0003536369087004433
29.73584391825,27.23584391825,2,0.7440778087952864,4.765976324503844,21.77701316121662,0.001229223374207265,-8.48103980488667e-06,0.0002573972219689124,3.842490933422815e-08,0.0003857088509065111,0.0003534488765131847
29.01415608175,25.26415608175,2,0.7809487148924836,4.671682219456264,20.56449339960199,0.02012630649339213,-6.857807826528937e-06,0.0002833538870712225,7.350354135932536e-07,0.000428091584775014,0.0004046612352949216
29.73584391825,25.26415608175,2,0.7808110940143598,4.671884038919472,20.56648039937369,0.008295502130469364,-6.857807826528937e-06,0.0002832042514548021,3.02770875858574e-07,0.0004278603633354386,0.0004044421970375642
29.01415608175,25.98584391825,2,0.7724274186170843,4.820624431672196,21.35627345969345,0.01665261787296832,-7.290072364263663e-06,0.0002833538870712225,5.853997971732271e-07,0.0004274830553375521,0.00039153615915471
29.73584391825,25.98584391825,2,0.7722818943212542,4.820867482104195,21.35857176473066,0.004358958898989991,-7.290072364263663e-06,0.0002832042514548021,1.531352594383306e-07,0.0004272518505685179,0.0003913194803726727
27.76415608175,25.26415608175,2,0.7815649172069582,4.676292020989594,20.55697700066503,0.04832611699162205,-6.782093400119834e-06,0.000284026228717655,1.769903126318186e-06,0.0004292371774259685,0.0004056449360054264
28.48584391825,25.26415608175,2,0.7811509240500125,4.676909830052257,20.56295791223745,0.03655567775053709,-6.782093400119834e-06,0.0002835741352149929,1.336288127947718e-06,0.000428538589874926,0.0004049835082300557
27.76415608175,25.98584391825,2,0.7730787186767384,4.825167047355192,21.34741543372131,0.03737988104254618,-7.215708398490282e-06,0.000284026228717655,1.31780962365699e-06,0.0004286265702943135,0.0003925088926741829
28.48584391825,25.98584391825,2,0.7726411675684804,4.82590534530588,21.35431517703235,0.02512868220593033,-7.215708398490282e-06,0.0002835741352149936,8.841946252868479e-07,0.000427928032902213,0.0003918548612203574
27.76415608175,24.01415608175001,2,0.7840165110836061,4.79525932300811,20.94938759289828,0.03654415065625533,-6.549946237975103e-06,0.0002926234461530211,1.353590530076172e-06,0.0004428456180752454,0.0004096070169232472
28.48584391825,24.01415608175001,2,0.7836553835404572,4.795600940673024,20.95371077104878,0.03515150564737087,-6.549946237975103e-06,0.0002921976740134838,1.299833801187073e-06,0.0004421878322296487,0.0004090184807370313
27.76415608175,24.73584391825,2,0.784395412898317,4.782983556503504,20.91167004040515,0.02500523762469151,-6.60370296686415e-06,0.0002926234461530211,9.278183905391067e-07,0.0004427697988487625,0.0004102263645899077
28.48584391825,24.73584391825,2,0.7840014799342709,4.784058740197969,20.91922254553728,0.02359950317032567,-6.60370296686415e-06,0.0002921976740134841,8.740616616500618e-07,0.0004421120185146118,0.0004095824862186003
29.01415608175,24.01415608175001,2,0.7834790594098169,4.790897877862101,20.95460199864829,0.01282671325004407,-6.617412550741842e-06,0.0002919902708766048,4.739204703279633e-07,0.0004417722353766468,0.0004087317430992662
29.73584391825,24.01415608175001,2,0.7833590997747654,4.79100911979763,20.95603924438362,0.01120477157338459,-6.617412550741842e-06,0.000291849407108514,4.137638483494243e-07,0.000441554610887488,0.0004085368974906324
29.01415608175,24.73584391825,2,0.7838090951340776,4.779260165486503,20.92157781414006,0.009000478728552766,-6.677569172720517e-06,0.0002919902708766048,3.330567022376708e-07,0.000441687505091047,0.0004092687781261036
29.73584391825,24.73584391825,2,0.783678184970209,4.779614827280216,20.92408916340822,0.007379280085424479,-6.677569172720517e-06,0.000291849407108514,2.729000802589691e-07,0.0004414698827020074,0.0004090555900499277
29.01415608175,22.76415608175,2,0.7710703481333674,4.836330181857957,21.34184712067496,0.005865955543705121,-6.976907978373193e-06,0.0002814176587234119,2.049871825995681e-07,0.0004249326226262724,0.0003895249087559042
29.73584391825,22.76415608175,2,0.7709751217236367,4.836341247791689,21.34272186678214,0.01386387840971316,-6.976907978373193e-06,0.0002813128314284047,4.842750189954013e-07,0.0004247707007008977,0.0003893845617801089
29.01415608175,23.48584391825,2,0.7801803679315136,4.664337718064964,20.49768636643977,0.002752138704833933,-6.697620141977289e-06,0.0002814176587234119,1.001598875928055e-07,0.0004253258249196809,0.0004034413892462203
29.73584391825,23.48584391825,2,0.7800695474649872,4.664767983752006,20.50033522092388,0.01043151370627226,-6.697620141977289e-06,0.0002813128314284047,3.794477239885304e-07,0.0004251638953708506,0.0004032660613516087
27.76415608175,22.76415608175,2,0.7714971636948469,4.839909586952956,21.33884528278962,0.02518520009502583,-6.929303695240521e-06,0.0002818887427259117,8.817466076926016e-07,0.0004257274917241417,0.0003901552177721087
28.48584391825,22.76415608175,2,0.7712103315750862,4.839945509916356,21.34147340822743,0.03357086894694127,-6.929303695240521e-06,0.0002815719736904854,1.173859612737149e-06,0.0004252381949425189,0.0003897314054065964
27.76415608175,23.48584391825,2,0.7806769790286666,4.666827981725976,20.4869228180746,0.01548907349132644,-6.637190690195827e-06,0.0002818887427259117,5.649775722668324e-07,0.0004261387171612461,0.0004042289693424189
28.48584391825,23.48584391825,2,0.7803432729976165,4.668130318538075,20.49490075352618,0.02353321386960162,-6.637190690195827e-06,0.0002815719736904857,8.570905773114344e-07,0.0004256493962724756,0.0004036993996647353
30.26415608175,26.51415608175,2,0.7627644058154825,4.477765649420382,20.20187356711733,-0.005013232588372237,-7.725016061979476e-06,0.0002573972219689128,-1.690549887542773e-07,0.0003867718498878087,0.000377655861319209
30.98584391825,26.51415608175,2,0.7629147687003355,4.477508457466028,20.19939285467415,-0.027415313133287,-7.725016061979476e-06,0.0002575278520483314,-9.250787316612006e-07,0.0003869737598249107,0.0003778642320498031
30.26415608175,27.23584391825,2,0.7440778087952864,4.765976324503847,21.77701316121665,-0.001229223374221139,-8.481039804886745e-06,0.0002573972219689128,-3.842490933466183e-08,0.0003857088509065117,0.0003534488765131847
30.98584391825,27.23584391825,2,0.7442329101256262,4.765872149998454,21.77495218749958,-0.02539922747982688,-8.481039804886745e-06,0.0002575278520483309,-7.944486522422356e-07,0.0003859107321391688,0.0003536369087004433
31.51415608175,26.51415608175,2,0.7631355576858569,4.482737518680947,20.19715183025679,-0.03718927173330033,-7.654004065422151e-06,0.0002577199652487984,-1.256052495510586e-06,0.0003873705128415027,0.0003781706194051623
32.23584391825,26.51415608175,2,0.7635874788366251,4.481951562556207,20.18968424785129,-0.05969071966347279,-7.654004065422151e-06,0.0002581141981938841,-2.019883527987014e-06,0.0003879798642974259,0.0003787993144962415
31.51415608175,27.23584391825,2,0.7444605303171772,4.771105564931343,21.7732836557183,-0.02752861385974809,-8.417835097898142e-06,0.0002577199652487984,-8.618195504253578e-07,0.0003862963719098411,0.0003539132225110996
32.23584391825,27.23584391825,2,0.7449263837624409,4.770787614860214,21.76711000858126,-0.05183257161492835,-8.417835097898142e-06,0.0002581141981938833,-1.625650582901678e-06,0.0003869056363258334,0.0003544800936934194
31.51415608175,25.26415608175,2,0.7811509240500124,4.676909830052272,20.56295791223751,-0.03655567775053118,-6.78209340011985e-06,0.0002835741352149937,-1.336288127947501e-06,0.0004285385898749272,0.0004049835082300556
32.23584391825,25.26415608175,2,0.7815649172069582,4.676292020989587,20.556977000665,-0.04832611699161613,-6.78209340011985e-06,0.0002840262287176547,-1.769903126317969e-06,0.000429237177425968,0.0004056449360054264
31.51415608175,25.98584391825,2,0.7726411675684804,4.82590534530589,21.35431517703235,-0.02512868220591801,-7.215708398490172e-06,0.0002835741352149937,-8.841946252864143e-07,0.0004279280329022132,0.0003918548612203574
32.23584391825,25.98584391825,2,0.7730787186767384,4.825167047355206,21.34741543372134,-0.03737988104253388,-7.215708398490172e-06,0.0002840262287176553,-1.317809623656557e-06,0.0004286265702943143,0.0003925088926741829
30.26415608175,25.26415608175,2,0.7808110940143598,4.671884038919469,20.56648039937367,-0.0082955021304961,-6.85780782652894e-06,0.0002832042514548019,-3.027708758595498e-07,0.0004278603633354382,0.0004044421970375642
30.98584391825,25.26415608175,2,0.7809487148924836,4.671682219456255,20.56449339960195,-0.02012630649341884,-6.85780782652894e-06,0.000283353887071222,-7.350354135942294e-07,0.0004280915847750131,0.0004046612352949215
30.26415608175,25.98584391825,2,0.7722818943212542,4.820867482104191,21.35857176473064,-0.004358958899014681,-7.290072364263672e-06,0.0002832042514548019,-1.53135259439198e-07,0.0004272518505685175,0.0003913194803726726
30.98584391825,25.98584391825,2,0.7724274186170843,4.820624431672195,21.35627345969345,-0.01665261787298066,-7.290072364263672e-06,0.0002833538870712225,-5.853997971736608e-07,0.0004274830553375521,0.00039153615915471
30.26415608175,24.01415608175001,2,0.7833590997747653,4.791009119797631,20.95603924438362,-0.01120477157339634,-6.617412550741819e-06,0.0002918494071085138,-4.13763848349858e-07,0.0004415546108874878,0.0004085368974906323
30.98584391825,24.01415608175001,2,0.7834790594098169,4.790897877862094,20.95460199864825,-0.01282671325006461,-6.617412550741819e-06,0.0002919902708766044,-4.739204703287222e-07,0.0004417722353766461,0.0004087317430992661
30.26415608175,24.73584391825,2,0.783678184970209,4.779614827280215,20.92408916340821,-0.007379280085442069,-6.677569172720506e-06,0.0002918494071085138,-2.729000802596197e-07,0.0004414698827020072,0.0004090555900499277
30.98584391825,24.73584391825,2,0.7838090951340776,4.779260165486506,20.92157781414007,-0.009000478728564486,-6.677569172720506e-06,0.0002919902708766049,-3.330567022381044e-07,0.0004416875050910471,0.0004092687781261035
31.51415608175,24.01415608175001,2,0.7836553835404572,4.795600940673023,20.9537107710488,-0.03515150564738406,-6.549946237975166e-06,0.000292197674013484,-1.299833801187561e-06,0.000442187832229649,0.0004090184807370312
32.23584391825,24.01415608175001,2,0.784016511083606,4.795259323008111,20.9493875928983,-0.03654415065626266,-6.549946237975166e-06,0.0002926234461530212,-1.353590530076443e-06,0.0004428456180752455,0.0004096070169232471
31.51415608175,24.73584391825,2,0.7840014799342709,4.784058740197965,20.91922254553727,-0.02359950317032567,-6.603702966864195e-06,0.000292197674013484,-8.740616616500618e-07,0.0004421120185146116,0.0004095824862186003
32.23584391825,24.73584391825,2,0.7843954128983169,4.782983556503511,20.91167004040519,-0.02500523762468568,-6.603702966864195e-06,0.0002926234461530215,-9.278183905388898e-07,0.000442769798848763,0.0004102263645899076
31.51415608175,22.76415608175,2,0.7712103315750861,4.839945509916364,21.34147340822748,-0.03357086894694283,-6.929303695240569e-06,0.0002815719736904859,-1.173859612737204e-06,0.0004252381949425196,0.0003897314054065961
32.23584391825,22.76415608175,2,0.7714971636948467,4.839909586952943,21.33884528278958,-0.0251852000950274,-6.929303695240569e-06,0.0002818887427259109,-8.817466076926558e-07,0.0004257274917241404,0.0003901552177721085
31.51415608175,23.48584391825,2,0.7803432729976165,4.668130318538075,20.4949007535262,-0.02353321386960758,-6.637190690195873e-06,0.0002815719736904859,-8.570905773116512e-07,0.0004256493962724758,0.0004036993996647353
32.23584391825,23.48584391825,2,0.7806769790286665,4.666827981725965,20.48692281807457,-0.01548907349133239,-6.637190690195873e-06,0.0002818887427259112,-5.649775722670492e-07,0.0004261387171612453,0.0004042289693424187
30.26415608175,22.76415608175,2,0.7709751217236366,4.836341247791696,21.34272186678217,-0.01386387840973335,-6.976907978373213e-06,0.000281312831428405,-4.842750189961061e-07,0.0004247707007008982,0.0003893845617801088
30.98584391825,22.76415608175,2,0.7710703481333674,4.836330181857944,21.34184712067491,-0.005865955543719083,-6.976907978373213e-06,0.0002814176587234113,-2.04987182600056e-07,0.0004249326226262714,0.0003895249087559041
30.26415608175,23.48584391825,2,0.7800695474649871,4.664767983752017,20.50033522092392,-0.01043151370628419,-6.697620141977268e-06,0.000281312831428405,-3.79447723988964e-07,0.0004251638953708511,0.0004032660613516086
30.98584391825,23.48584391825,2,0.7801803679315136,4.664337718064965,20.49768636643977,-0.002752138704839892,-6.697620141977268e-06,0.0002814176587234119,-1.001598875930224e-07,0.0004253258249196808,0.0004034413892462203
32.76415608175,26.51415608175,2,0.7640302928151701,4.492410989105115,20.18517011338836,-0.06870564263990801,-7.511222295097504e-06,0.0002585018911930919,-2.329303823260412e-06,0.0003887797968914918,0.0003794173910701213
33.48584391825,26.51415608175,2,0.7647862795002176,4.491052506692825,20.1726382036848,-0.09141572926094944,-7.511222295097504e-06,0.0002591668552196278,-3.109197169849079e-06,0.0003898076096488242,0.0003804773125819213
32.76415608175,27.23584391825,2,0.7453824386711203,4.781238879413388,21.763785074381,-0.05297126753306991,-8.291115641686545e-06,0.0002585018911930919,-1.664339796724357e-06,0.0003876827103689458,0.0003550368188031075
33.48584391825,27.23584391825,2,0.7461606914119492,4.780690924187721,21.75352752413749,-0.07755530639083923,-8.291115641686545e-06,0.0002591668552196278,-2.444233143313566e-06,0.0003887103748637515,0.0003559909489063696
34.01415608175,26.51415608175,2,0.7654536051892078,4.506745382249822,20.1657853918177,-0.09916034664518315,-7.295115713183379e-06,0.0002597572092172418,-3.382199815100137e-06,0.0003910238598569714,0.000381417910432915
34.73584391825,26.51415608175,2,0.7665178675472694,4.504739267058866,20.14805603473981,-0.1222091003272971,-7.295115713183379e-06,0.0002607051223067087,-4.187355976013754e-06,0.0003924890225436672,0.000382927750039629
34.01415608175,27.23584391825,2,0.7468468077521004,4.79632733256136,21.74857143399981,-0.07703093193010505,-8.100271874096858e-06,0.0002597572092172418,-2.43428672563363e-06,0.0003898906864626523,0.0003568364219769052
34.73584391825,27.23584391825,2,0.7479401982816345,4.795522478816017,21.7342810683262,-0.1020666664576199,-8.100271874096858e-06,0.0002607051223067079,-3.239442886546814e-06,0.0003913556344758164,0.0003581921672588757
34.01415608175,25.26415608175,2,0.7832781586316314,4.70151734535502,20.53917923181076,-0.09107420188795644,-6.397545681405902e-06,0.0002859156201067343,-3.361883650043556e-06,0.0004326985317465787,0.0004084055341664063
34.73584391825,25.26415608175,2,0.7842574686256273,4.699927034069598,20.52498651114051,-0.1025642575937225,-6.397545681405902e-06,0.0002870088471380066,-3.803209573572503e-06,0.0004343878070559538,0.0004100006636127975
34.01415608175,25.98584391825,2,0.7748872748531533,4.850431359051044,21.32612171609948,-0.06383793423425259,-6.838871604934726e-06,0.0002859156201067343,-2.268656618771223e-06,0.0004320763468922917,0.0003952358123980518
34.73584391825,25.98584391825,2,0.7759197417360627,4.848599344070729,21.30996752061752,-0.07590669849616077,-6.838871604934726e-06,0.0002870088471380068,-2.709982542299736e-06,0.0004337655031813493,0.000396809794798301
32.76415608175,25.26415608175,2,0.781971013405121,4.686778757975704,20.5538891092363,-0.06427253104576772,-6.629482090620044e-06,0.0002844714508462168,-2.358311417194922e-06,0.0004301401638625315,0.0004062958731002297
33.48584391825,25.26415608175,2,0.7826647901354606,4.685707251945527,20.54385385960475,-0.075926551458875,-6.629482090620044e-06,0.0002852357268194923,-2.794818253561344e-06,0.0004313211416712011,0.0004074128385404682
32.76415608175,25.98584391825,2,0.7735076689828806,4.835752733160343,21.34350131140933,-0.04512960042713456,-7.065988926986654e-06,0.0002844714508462168,-1.594035443918795e-06,0.0004295252316476515,0.0003931522132733908
33.48584391825,25.98584391825,2,0.7742401962446412,4.834491384734131,21.33198588080408,-0.05730185333928701,-7.065988926986654e-06,0.0002852357268194925,-2.030542280285867e-06,0.0004307061253298131,0.0003942557663822315
32.76415608175,24.01415608175001,2,0.7843710100485112,4.804701441223306,20.94760071520829,-0.05862068407879583,-6.413961130936985e-06,0.0002930429769666116,-2.174872092736103e-06,0.0004436856027458117,0.0004101864189592533
33.48584391825,24.01415608175001,2,0.7849770762661626,4.80410559026606,20.94035820492581,-0.05955282236159473,-6.413961130936985e-06,0.0002937633843251922,-2.215682731030529e-06,0.0004447985719294499,0.0004111808385734824
32.76415608175,24.73584391825,2,0.784781966326011,4.792616677731069,20.90694582090971,-0.03912838001664648,-6.454771769231343e-06,0.0002930429769666116,-1.454464734155798e-06,0.0004436278239167625,0.0004108601747573201
33.48584391825,24.73584391825,2,0.7854425519221497,4.790787053716763,20.89429741328109,-0.04010280851081922,-6.454771769231343e-06,0.0002937633843251925,-1.495275372450115e-06,0.0004447407866085096,0.0004119478979658112
34.01415608175,24.01415608175001,2,0.7855134866673056,4.818354340550364,20.937666971562,-0.08123449261378489,-6.207381838611311e-06,0.0002944047616579568,-3.029915171879564e-06,0.0004460809028698938,0.0004120650459178467
34.73584391825,24.01415608175001,2,0.7863708527640707,4.817463710229452,20.92745195185572,-0.08146939373528148,-6.207381838611311e-06,0.0002954366297593866,-3.050871841764466e-06,0.0004476750409113536,0.0004134863256929489
34.01415608175,24.73584391825,2,0.7860268745686968,4.805326563848546,20.88717757652805,-0.05344104705286873,-6.228338508496297e-06,0.0002944047616579568,-1.998047070449552e-06,0.0004460507936903189,0.0004129149136971298
34.73584391825,24.73584391825,2,0.7869602342911667,4.802684606610476,20.8693431471986,-0.05376601047576376,-6.228338508496297e-06,0.0002954366297593869,-2.019003740334454e-06,0.0004476449285479394,0.000414469126598432
34.01415608175,22.76415608175,2,0.772687578660892,4.858009814076796,21.33260141030946,-0.071261601603596,-6.688810555291177e-06,0.0002832133689944242,-2.507970349663801e-06,0.0004281131258081619,0.0003919241299662877
34.73584391825,22.76415608175,2,0.7733704896007554,4.857900223046817,21.32645321881094,-0.0609045490742364,-6.688810555291177e-06,0.0002839803607587553,-2.149924746055998e-06,0.0004292978378434988,0.0003929462460690259
34.01415608175,23.48584391825,2,0.7820611135888775,4.683693900048791,20.45942542982068,-0.04742836676911978,-6.33076495168327e-06,0.0002832133689944242,-1.740978585332417e-06,0.0004286169488994559,0.0004064405823688462
34.73584391825,23.48584391825,2,0.7828544614995634,4.680523241858034,20.44046467312333,-0.03753721587832277,-6.33076495168327e-06,0.0002839803607587555,-1.382932981724505e-06,0.0004298017324230299,0.0004077192872364825
32.76415608175,22.76415608175,2,0.7717788376724174,4.847162498348106,21.33810039982005,-0.05283425970937981,-6.833548253091236e-06,0.0002822007855183106,-1.852037179042771e-06,0.0004263446834486027,0.0003905723160394161
33.48584391825,22.76415608175,2,0.7722607632335542,4.84709450276228,21.33371184050622,-0.04366737344148992,-6.833548253091236e-06,0.0002827365332458911,-1.533942909847275e-06,0.0004271722193268977,0.0003912880373319855
32.76415608175,23.48584391825,2,0.7810046330845832,4.674437302092166,20.48131700314844,-0.03603266142372215,-6.515453983896001e-06,0.0002822007855183106,-1.316289451461835e-06,0.0004267923757236643,0.0004047503035998034
33.48584391825,23.48584391825,2,0.7815649856906697,4.672228795710029,20.46791928809525,-0.02725509736523596,-6.515453983896001e-06,0.0002827365332458916,-9.981951822665008e-07,0.0004276199560132814,0.0004056450456010816
35.26415608175,26.51415608175,2,0.7674134698102251,4.52567258963735,20.13876262603871,-0.1281631686686835,-7.003233646688016e-06,0.0002615091350388439,-4.408274840821125e-06,0.0003941420461964688,0.000384207703427799
35.98584391825,26.51415608175,2,0.7687919629853722,4.522908787216114,20.11564002912137,-0.1517141016059389,-7.003233646688016e-06,0.0002627578255835973,-5.249440410978116e-06,0.0003960721218167183,0.0003861947615090343
35.26415608175,27.23584391825,2,0.7488588057860196,4.816292443556771,21.72773450823929,-0.09918772166678518,-7.844399216845398e-06,0.0002615091350388439,-3.159584296068101e-06,0.00039295745663928,0.0003593392513214266
35.98584391825,27.23584391825,2,0.7502711429082645,4.81519333924374,21.70948942071759,-0.1248878364503052,-7.844399216845398e-06,0.0002627578255835971,-4.000749866225634e-06,0.0003948872430519007,0.0003611173979790309
36.51415608175,26.51415608175,2,0.7699209199685022,4.549098420571294,20.1037633195366,-0.1553406817706963,-6.632048900718158e-06,0.0002637908838897967,-5.401297040980176e-06,0.0003981906793057644,0.000387837653522535
37.23584391825,26.51415608175,2,0.7716213905576105,4.545426420182569,20.0749783128552,-0.179605717016105,-6.632048900718158e-06,0.0002653645611248823,-6.291507508680654e-06,0.0004006230972656632,0.0003903390598937231
36.51415608175,27.23584391825,2,0.751425447720825,4.841027653308672,21.70141343152531,-0.1189311099431584,-7.52225936841867e-06,0.0002637908838897967,-3.82761980589506e-06,0.0003969361041370086,0.0003625839207788346
37.23584391825,27.23584391825,2,0.7531615555575005,4.839587022788204,21.67932659264467,-0.1455677357347702,-7.52225936841867e-06,0.0002653645611248817,-4.717830273595972e-06,0.0003993681462690489,0.0003648123889209223
36.51415608175,25.26415608175,2,0.7874014898902369,4.745761931919239,20.49215123337175,-0.1405335186068524,-5.678698331105525e-06,0.0002905865820478164,-5.288222143581193e-06,0.000440929231109286,0.0004152080253035164
37.23584391825,25.26415608175,2,0.7889789547262771,4.742810172042043,20.46914676019822,-0.1516078595378493,-5.678698331105525e-06,0.0002924211725657897,-5.747592022063708e-06,0.0004437640514634628,0.0004178714878171092
36.51415608175,25.98584391825,2,0.77922709046173,4.89443070676477,21.27162179902796,-0.09530853780732761,-6.138068209588003e-06,0.0002905865820478164,-3.453631625606902e-06,0.0004402801904572164,0.0004019382398318956
37.23584391825,25.98584391825,2,0.7808827420624007,4.891224899586502,21.2460954422446,-0.1071757699852307,-6.138068209588003e-06,0.0002924211725657903,-3.913001504089741e-06,0.0004431148162697228,0.000404556202593637
35.26415608175,25.26415608175,2,0.7850832591282906,4.721161615117445,20.51867288882513,-0.116605548773142,-6.082453778994337e-06,0.000287938592876235,-4.340491980296592e-06,0.0004362684845260659,0.0004113555632864053
35.98584391825,25.26415608175,2,0.7863562820610892,4.718956447776218,20.50017334052479,-0.1278967432805138,-6.082453778994337e-06,0.0002893854784400291,-4.789159990824894e-06,0.0004385042307386193,0.0004134620885876265
35.26415608175,25.98584391825,2,0.7767893929398982,4.869973789520379,21.30216473236007,-0.08073545560255183,-6.531121789522805e-06,0.000287938592876235,-2.893606416501989e-06,0.0004356353256123272,0.0003981454322116266
35.98584391825,25.98584391825,2,0.7781288451252815,4.867501680765568,21.28134114064835,-0.09269428587918711,-6.531121789522805e-06,0.0002893854784400293,-3.342274427030507e-06,0.0004378709163295151,0.0004002204790852279
35.26415608175,24.01415608175001,2,0.7870948598808409,4.836614316025131,20.92384450557764,-0.102635436778099,-5.927098765560239e-06,0.0002963151144670332,-3.856569614830562e-06,0.0004494277087988952,0.0004146942798987175
35.98584391825,24.01415608175001,2,0.7882125746195591,4.835370176001256,20.91058693842201,-0.1019247408043152,-5.927098765560239e-06,0.0002976833112206663,-3.850077146789024e-06,0.0004515414227760674,0.0004165731923871318
35.26415608175,24.73584391825,2,0.7877478058526427,4.82224054127742,20.85978926177346,-0.06602032495573451,-5.92060629751879e-06,0.0002963151144670332,-2.488372861197356e-06,0.0004494358805791441,0.000415789813659689
35.98584391825,24.73584391825,2,0.7889626520935014,4.818701692660571,20.83664308442589,-0.06547118199909416,-5.92060629751879e-06,0.0002976833112206668,-2.481880393155871e-06,0.0004515496012563447,0.0004178437849107929
36.51415608175,24.01415608175001,2,0.7891318915156136,4.85954719483857,20.90605223861518,-0.1224889041728495,-5.568840048165308e-06,0.0002988205749109916,-4.64703382804495e-06,0.0004538039768995114,0.0004181315529292495
37.23584391825,24.01415608175001,2,0.7905218007001346,4.857870666942201,20.88967089961711,-0.1205643366784754,-5.568840048165308e-06,0.0003005594403410619,-4.60436788482754e-06,0.0004564903041909813,0.0004205101606185919
36.51415608175,24.73584391825,2,0.7899609175728348,4.843429100943208,20.82460707669289,-0.07635362773177252,-5.526174104948016e-06,0.0002988205749109916,-2.908168397974201e-06,0.0004538626448164537,0.0004195470104706016
37.23584391825,24.73584391825,2,0.7914686790272106,4.838877965086852,20.79598734288545,-0.07469337651764911,-5.526174104948016e-06,0.0003005594403410621,-2.865502454756736e-06,0.0004565489982881852,0.0004221463379858429
36.51415608175,22.76415608175,2,0.7755746042793289,4.890517064235555,21.31529880248258,-0.104192385580246,-6.249668991017424e-06,0.0002864940587944062,-3.714103218868442e-06,0.0004338007189875682,0.0003962822291895715
37.23584391825,22.76415608175,2,0.776687044788941,4.890296823127787,21.30572735685492,-0.09008260788858119,-6.249668991017424e-06,0.0002877848713375986,-3.227134146460665e-06,0.0004357944839695956,0.00039798777104327
36.51415608175,23.48584391825,2,0.7854121884241076,4.710976037414551,20.38966060503697,-0.06500108036318294,-5.762699918609629e-06,0.0002864940587944062,-2.423290675675465e-06,0.0004344858064706911,0.0004118977735731047
37.23584391825,23.48584391825,2,0.7867013738075529,4.705617816007075,20.35894123377675,-0.0516268422304722,-5.762699918609629e-06,0.0002877848713375987,-1.936321603267796e-06,0.0004364797333711135,0.0004140368921162377
35.26415608175,22.76415608175,2,0.7739476915045573,4.872478522623569,21.32498747686811,-0.08849242514172161,-6.494331860046733e-06,0.0002846331344109067,-3.131750371609433e-06,0.0004305807626632277,0.0003938143576349818
35.98584391825,22.76415608175,2,0.7748399485059598,4.872317647956379,21.3171007118599,-0.07650506744222098,-6.494331860046733e-06,0.0002856495534301697,-2.718246578274424e-06,0.0004321507260999186,0.0003951639664371743
35.26415608175,23.48584391825,2,0.7835247304850738,4.695886575501477,20.42898242027514,-0.05723961557656423,-6.080828066711899e-06,0.0002846331344109067,-2.115331352346185e-06,0.0004311625360241336,0.0004088059742037748
35.98584391825,23.48584391825,2,0.7845601014974561,4.691674906023113,20.40426585097224,-0.04583019457277934,-6.080828066711899e-06,0.0002856495534301694,-1.701827559011338e-06,0.0004327326084801594,0.0004104961533428304
37.76415608175,26.51415608175,2,0.7729901255756121,4.576901655179901,20.06032993793804,-0.1803346668029341,-6.176729789090246e-06,0.0002666471431286553,-6.355130313522982e-06,0.0004032456618466522,0.0003923762896725666
38.48584391825,26.51415608175,2,0.7750221419427832,4.572124255523006,20.02553131927668,-0.2055901877587197,-6.176729789090246e-06,0.0002685775450929034,-7.310592767984609e-06,0.0004062294937568798,0.0003954406985641077
37.76415608175,27.23584391825,2,0.7545554759757664,4.870404250480252,21.66981391500584,-0.1357531679530365,-7.13219224355165e-06,0.0002666471431286553,-4.424728349274824e-06,0.0004018980397995288,0.0003666217348590538
38.48584391825,27.23584391825,2,0.7566210697176347,4.868567862279939,21.64405309762448,-0.163678135316043,-7.13219224355165e-06,0.0002685775450929027,-5.380190803736234e-06,0.0004048813916391913,0.0003693364917486197
39.01415608175,26.51415608175,2,0.7766384270466077,4.608918186588328,20.00787636921754,-0.202786783584206,-5.631062145832192e-06,0.0002701363042640101,-7.263085799508423e-06,0.000409406038535251,0.0003979129225458129
39.73584391825,26.51415608175,2,0.7790133456894923,4.602788540914421,19.96664114343519,-0.2293906290769,-5.631062145832192e-06,0.0002724645115521715,-8.304234653178067e-06,0.0004130048029178873,0.0004016027551802681
39.01415608175,27.23584391825,2,0.7582590993795728,4.904267358204963,21.6332523030061,-0.1491202469731986,-6.67221099950144e-06,0.0002701363042640101,-4.934878511347711e-06,0.0004079363179666268,0.0003715183375839631
39.73584391825,27.23584391825,2,0.7606605329353151,4.901984774156765,21.60409337758182,-0.1787874005883904,-6.67221099950144e-06,0.0002724645115521714,-5.976027365016921e-06,0.0004115344725036457,0.0003747644943710909
39.01415608175,25.26415608175,2,0.7936607346362062,4.810126499052354,20.41989818972405,-0.1823794227478224,-4.572633100870107e-06,0.0002980313654769155,-7.071050579782645e-06,0.0004539922698555772,0.0004259840520927829
39.73584391825,25.26415608175,2,0.795890103570703,4.805123592762643,20.38714395683529,-0.1930598821740468,-4.572633100870107e-06,0.0003007926752289042,-7.56689942237748e-06,0.0004582590238824296,0.0004299602327311741
39.01415608175,25.98584391825,2,0.7857807091526602,4.958416777693555,21.19087537027629,-0.1154037029832249,-5.068481943465191e-06,0.0002980313654769159,-4.309740827793725e-06,0.0004532896550420983,0.000412506966763181
39.73584391825,25.98584391825,2,0.7881054749720759,4.953365562784549,21.15594171866715,-0.1272847675857717,-5.068481943465191e-06,0.0003007926752289041,-4.805589670388993e-06,0.0004575561217553928,0.0004163924086990316
37.76415608175,25.26415608175,2,0.7902525188374251,4.775388078183108,20.45933396925708,-0.1625508552238401,-5.178728818096215e-06,0.0002939227584396673,-6.199868692500663e-06,0.0004467890828661447,0.0004200471911275813
38.48584391825,25.26415608175,2,0.7921478364658734,4.771517687826812,20.43158323780454,-0.1734121179057325,-5.178728818096215e-06,0.0002961905768212274,-6.674440716216475e-06,0.0004502933135847179,0.0004233278606006467
37.76415608175,25.98584391825,2,0.7822172491185453,4.923878437007916,21.2345030091445,-0.1070415916651046,-5.653300841812021e-06,0.0002939227584396673,-3.932050310940204e-06,0.0004461176349886095,0.0004066915975345373
38.48584391825,25.98584391825,2,0.7842005709706599,4.919820082226278,21.20425419614777,-0.1188683229708324,-5.653300841812021e-06,0.0002961905768212276,-4.406622334655799e-06,0.0004496216280250117,0.0004099076422458089
37.76415608175,24.01415608175001,2,0.7916462504221494,4.887235613996316,20.88420860205163,-0.1404872551649952,-5.126919573165439e-06,0.0003019848654648688,-5.394181979432157e-06,0.0004593162213615756,0.0004224546120146557
38.48584391825,24.01415608175001,2,0.7933230984175936,4.885026537300233,20.86462596425596,-0.1370512714985406,-5.126919573165439e-06,0.0003041403338955891,-5.30494778852277e-06,0.0004626461080164703,0.0004253883443324337
37.76415608175,24.73584391825,2,0.7926871502593928,4.868986282273962,20.78141626996093,-0.08392836690961099,-5.037685382255886e-06,0.0003019848654648688,-3.238713548711462e-06,0.0004594399740827697,0.0004242708781276777
38.48584391825,24.73584391825,2,0.7945021080339638,4.863271880968605,20.74712968192654,-0.08090142110235619,-5.037685382255886e-06,0.0003041403338955896,-3.149479357801967e-06,0.0004627699201664524,0.0004274759022228955
39.01415608175,24.01415608175001,2,0.7946646767457635,4.919784525546596,20.85826757391172,-0.1563628130068557,-4.593966407875747e-06,0.0003058929541231981,-6.091998611003899e-06,0.0004661061791130231,0.000427765375213969
39.73584391825,24.01415608175001,2,0.7966461582612836,4.916924187517719,20.83544764739606,-0.1510796841028286,-4.593966407875747e-06,0.00030852573320088,-5.943519249444881e-06,0.000470173390829445,0.0004313258120359817
39.01415608175,24.73584391825,2,0.7959524607207201,4.899028483409401,20.72997729951118,-0.0882306542001412,-4.44548704631684e-06,0.0003058929541231983,-3.459219533321787e-06,0.0004663128509391853,0.0004300725303148284
39.73584391825,24.73584391825,2,0.7980918556022905,4.891961510639079,20.68982109313868,-0.08355817558294548,-4.44548704631684e-06,0.00030852573320088,-3.310740171762715e-06,0.0004703801749962029,0.0004339616260954336
39.01415608175,22.76415608175,2,0.7800116779550271,4.9368866074656,21.29015779375397,-0.129784656584982,-5.609793645596189e-06,0.0002917381934524684,-4.719692586534652e-06,0.0004428047923212465,0.0004031745678310536
39.73584391825,22.76415608175,2,0.7816062879028349,4.936547835168906,21.27762091362667,-0.1096292854760302,-5.609793645596189e-06,0.0002936858760243711,-4.015840361823431e-06,0.0004458130610295564,0.0004057111531483971
39.01415608175,23.48584391825,2,0.7905496428771334,4.749538672873872,20.28259366978081,-0.07257481093909819,-4.905941420885158e-06,0.0002917381934524686,-2.772010014631763e-06,0.0004437951906225033,0.0004205580878886232
39.73584391825,23.48584391825,2,0.792393060452943,4.741432997805635,20.23886634620643,-0.05367048865823597,-4.905941420885158e-06,0.0002936858760243709,-2.068157789920921e-06,0.0004468038032845887,0.0004237561206242616
37.76415608175,22.76415608175,2,0.7775880152272669,4.912030223277045,21.30362768278046,-0.1180490657234999,-5.954739503319231e-06,0.0002888422783148136,-4.2461404530561e-06,0.0004378444016221836,0.0003993800121433555
38.48584391825,22.76415608175,2,0.7789338609498188,4.911746908259303,21.29247672184768,-0.1012495195429461,-5.954739503319231e-06,0.0002904403553577714,-3.664044434049224e-06,0.0004403127261740318,0.0004014781437116379
37.76415608175,23.48584391825,2,0.7877450185429076,4.728894254598496,20.34103994731684,-0.07025808125094393,-5.372643484312356e-06,0.0002888422783148136,-2.648063410097979e-06,0.0004386633485245719,0.0004157851245754528
38.48584391825,23.48584391825,2,0.7893026237398958,4.722251107586043,20.30400678750112,-0.05441173859272994,-5.372643484312356e-06,0.0002904403553577715,-2.065967391091158e-06,0.0004411319100871528,0.0004184222659345396
40.26415608175,26.51415608175,2,0.7808862131392686,4.644889737636637,19.94570995299468,-0.2223064271463829,-4.987914350880913e-06,0.0002743339929480557,-8.116565564637184e-06,0.0004167987979382693,0.0004045617273820675
40.98584391825,26.51415608175,2,0.783616957104088,4.637118297264432,19.89759829524248,-0.2507193030089351,-4.987914350880913e-06,0.0002771133038174739,-9.269462140969707e-06,0.0004210949048203235,0.000408955957141456
40.26415608175,27.23584391825,2,0.7625474556640076,4.942391658962954,21.59225560954325,-0.1584180883936513,-6.140810927213643e-06,0.0002743339929480557,-5.337254695219999e-06,0.0004151699506815699,0.0003773556235508378
40.98584391825,27.23584391825,2,0.7652911970016201,4.939643525438576,21.56020207946141,-0.1904119545280537,-6.140810927213643e-06,0.0002771133038174737,-6.490151271552197e-06,0.0004194652808306432,0.0003811885633320538
41.51415608175001,26.51415608175,2,0.7857563649765428,4.684359010401701,19.87312148575208,-0.2384226134058504,-4.24072507552791e-06,0.0002793385275578096,-8.902859153962577e-06,0.0004255852073272532,0.0004124666677376406
42.23584391825001,26.51415608175,2,0.7888567268751105,4.674637123498621,19.81779921008168,-0.2692426559403444,-4.24072507552791e-06,0.0002826386410054555,-1.020132545851327e-05,0.0004306864239441836,0.0004176638776981066
41.51415608175001,27.23584391825,2,0.7674314647466007,4.984365474245733,21.54776392917427,-0.1628777952894385,-5.539191380078332e-06,0.0002793385275578096,-5.602745706317393e-06,0.0004237492065626178,0.0003842335095440288
42.23584391825001,27.23584391825,2,0.7705229398751936,4.98121791684386,21.51376835908674,-0.1979587304439921,-5.539191380078332e-06,0.0002826386410054555,-6.901212010867758e-06,0.0004288494249529554,0.0003887195175205967
41.51415608175001,25.26415608175,2,0.8022704499497272,4.895184275929253,20.32009091466509,-0.2145421357491346,-2.99137406931882e-06,0.0003090491203295012,-8.680225517919285e-06,0.000473247359087318,0.000441766898679261
42.23584391825001,25.26415608175,2,0.8052271894598011,4.887159087910115,20.27693427021334,-0.2251303669789562,-2.99137406931882e-06,0.0003130645505665675,-9.24689093326984e-06,0.0004794519187955857,0.0004474639761284325
41.51415608175001,25.98584391825,2,0.7947304992173969,5.043077557684007,21.08525646671455,-0.1196925248192404,-3.558039484669104e-06,0.0003090491203295012,-4.664795280853902e-06,0.0004724418841541656,0.0004278826928937719
42.23584391825001,25.98584391825,2,0.7977877156036386,5.035631730409689,21.041876036848,-0.1322332022636466,-3.558039484669104e-06,0.0003130645505665675,-5.231460696203914e-06,0.000478646019692103,0.0004334044079413898
40.26415608175,25.26415608175,2,0.7976553921390339,4.850056389726212,20.37353637416449,-0.1997761501754159,-3.848131464628591e-06,0.0003030239942330266,-7.898452142107389e-06,0.0004627286556615948,0.0004331624288301379
40.98584391825,25.26415608175,2,0.8002377742908049,4.843671900974263,20.33557673664179,-0.2103474616920518,-3.848131464628591e-06,0.0003063587613684528,-8.423913417875757e-06,0.0004678814895812716,0.0004379348106302868
40.26415608175,25.98584391825,2,0.7899422993665568,4.998141343927643,21.1409489189042,-0.119829647364833,-4.373592740396933e-06,0.0003030239942330266,-4.563685006680682e-06,0.0004619829054611837,0.0004195151157883515
40.98584391825,25.98584391825,2,0.7926244746293201,4.991950393458743,21.10152168920648,-0.1319205480013893,-4.373592740396933e-06,0.0003063587613684532,-5.08914628244905e-06,0.0004671353920522,0.000424161068278041
40.26415608175,24.01415608175001,2,0.7982190260702725,4.95731125290348,20.82829858109552,-0.1699193322081713,-3.960942600384242e-06,0.0003106571706756333,-6.736783112855729e-06,0.000474360243802932,0.0004341950469135695
40.98584391825,24.01415608175001,2,0.800525691424754,4.953675440266768,20.80233461921442,-0.1624070626397407,-3.960942600384242e-06,0.0003138475870723822,-6.513402705330437e-06,0.0004792888516373274,0.0004384735055563086
40.26415608175,24.73584391825,2,0.7997879713757184,4.933673559390111,20.6700753734876,-0.08875315930967187,-3.737562192859033e-06,0.0003106571706756333,-3.546366716106805e-06,0.0004746719107265315,0.0004370959045199622
40.98584391825,24.73584391825,2,0.8022719841286479,4.925031470956204,20.62390182956206,-0.0821309361954364,-3.737562192859033e-06,0.0003138475870723826,-3.322986308581513e-06,0.0004796007119280608,0.0004417698166406003
41.51415608175001,24.01415608175001,2,0.802345979094423,4.999893029120422,20.79465721176392,-0.1810912870221797,-3.218088219564487e-06,0.000316426594145667,-7.3296272422888e-06,0.0004843226477784242,0.0004419105991813469
42.23584391825001,24.01415608175001,2,0.805000773188106,4.995389495325462,20.76596387458627,-0.1709125183043827,-3.218088219564487e-06,0.0003202821561065096,-7.011823425095054e-06,0.0004902787106310219,0.0004470224549529824
41.51415608175001,24.73584391825,2,0.8042298206445172,4.972977858183794,20.60164792977776,-0.08501479790516461,-2.900284402370926e-06,0.000316426594145667,-3.474065281445886e-06,0.0004847668965770828,0.0004455256648403993
42.23584391825001,24.73584391825,2,0.8070812079446739,4.962530768237835,20.54952227735422,-0.07611276863679377,-2.900284402370926e-06,0.0003202821561065096,-3.156261464252411e-06,0.0004907232743073201,0.0004511129208275643
41.51415608175001,22.76415608175,2,0.7862013131074194,4.995862762848774,21.25957592250758,-0.1463202262644131,-4.775052231274536e-06,0.0002995058279937797,-5.475065479253541e-06,0.0004559825251393088,0.0004132044888690079
42.23584391825001,22.76415608175,2,0.7883449350902575,4.995604891756772,21.24574955447437,-0.1169511700409008,-4.775052231274536e-06,0.0003023311286606828,-4.420443993278329e-06,0.0004603462073448359,0.0004167968357850565
41.51415608175001,23.48584391825,2,0.7977033875872441,4.798207687921487,20.13361892229887,-0.06700480565360287,-3.720430745299419e-06,0.0002995058279937797,-2.649764812349487e-06,0.0004574674594739077,0.0004332501661816579
42.23584391825001,23.48584391825,2,0.8001803274899341,4.786503842173985,20.07528443509858,-0.03984262713534602,-3.720430745299419e-06,0.0003023311286606828,-1.595143326374492e-06,0.00046183185639837,0.000437827487678731
40.26415608175,22.76415608175,2,0.7828728743703222,4.964917341334836,21.27524295614368,-0.139206515141392,-5.215648986091845e-06,0.0002952594863524008,-5.129032671074597e-06,0.0004488007813829713,0.0004077490614178609
40.98584391825,22.76415608175,2,0.7847332236866055,4.964561168696767,21.26168960430984,-0.1149088252659009,-5.215648986091845e-06,0.0002976109871481719,-4.270378447944489e-06,0.0004524327163606405,0.0004107801450340942
40.26415608175,23.48584391825,2,0.793857268198136,4.772745491297142,20.21368546879276,-0.07157100105521297,-4.356994762961752e-06,0.0002952594863524008,-2.777531875302946e-06,0.0004500093316236701,0.0004263315840042033
40.98584391825,23.48584391825,2,0.7960064731402205,4.762959998979293,20.16283840617487,-0.04892982748489242,-4.356994762961752e-06,0.0002976109871481721,-1.918877652172784e-06,0.0004536417631376005,0.0004301698480758981
42.76415608175,26.51415608175,2,0.7912726611098477,4.72649395830032,19.7895798010167,-0.2505005957235346,-3.386634343210529e-06,0.0002852786822906336,-9.601065085407582e-06,0.0004359683765335604,0.0004218065680625334
43.48584391825001,26.51415608175,2,0.7947555723007206,4.714545890434966,19.72704334623857,-0.2845069447650425,-3.386634343210529e-06,0.0002891912957684835,-1.108948770806668e-05,0.0004420164774742424,0.0004279273986581886
42.76415608175,27.23584391825,2,0.772919301564114,5.029429755044061,21.50150819608174,-0.161467195507876,-4.875056965869586e-06,0.0002852786822906336,-5.688451607557994e-06,0.0004338622341387247,0.0003922703479160751
43.48584391825001,27.23584391825,2,0.776360368402478,5.026134255951461,21.46735695363585,-0.2006291886084375,-4.875056965869586e-06,0.000289191295768483,-7.176874230217095e-06,0.0004399090339418766,0.0003974853889894265
44.01415608175001,26.51415608175,2,0.7974560165914066,4.769760456790611,19.69511064787833,-0.25753116983573,-2.433323608425655e-06,0.0002923243865918068,-1.017186155823589e-05,0.0004482000887117199,0.0004327983482793944
44.73584391825,26.51415608175,2,0.8013298349967224,4.755472411027666,19.62617564760104,-0.295699396304576,-2.433323608425655e-06,0.0002969715364283702,-1.190714856655795e-05,0.0004553837340008134,0.0004399851995305478
44.01415608175001,27.23584391825,2,0.7790110060289397,5.076300320026856,21.45672261317256,-0.1526125606690844,-4.168610616747464e-06,0.0002923243865918068,-5.524711721673157e-06,0.0004457431106818783,0.0004015990860818659
44.73584391825,27.23584391825,2,0.782794819505736,5.073498407158264,21.42579840540923,-0.1971136668170833,-4.168610616747464e-06,0.0002969715364283696,-7.259998729994884e-06,0.000452925030177896,0.0004076228744724849
44.01415608175001,25.26415608175,2,0.8135137146372009,4.999627129521816,20.19409954467082,-0.2355861312761579,-8.390580624330285e-07,0.0003250717162465509,-1.010631450212385e-05,0.000501043666010274,0.0004642546392838814
44.73584391825,25.26415608175,2,0.8172851868409815,4.987960125015841,20.14347592144713,-0.2468575136301485,-8.390580624330285e-07,0.0003309461001171898,-1.080842913005881e-05,0.0005101205619909178,0.0004723274863689387
44.01415608175001,25.98584391825,2,0.8063095281749115,5.147437686211711,20.96288882679847,-0.102460580092922,-1.54117269036789e-06,0.0003250717162465509,-4.231930631485008e-06,0.0005000430550322946,0.0004495868531606773
44.73584391825,25.98584391825,2,0.8101674642023411,5.137839876494449,20.91706540587109,-0.1170802904170189,-1.54117269036789e-06,0.0003309461001171892,-4.934045259420185e-06,0.0005091192740444095,0.0004573227480342322
42.76415608175,25.26415608175,2,0.8075436214599301,4.945296216334073,20.25983915633056,-0.2265243128420583,-1.989663505570371e-06,0.000316306732928138,-9.416131159088411e-06,0.0004858755195122753,0.0004520324284639981
43.48584391825001,25.26415608175,2,0.8108972613747596,4.93543107223599,20.21203781125153,-0.2373230659017285,-1.989663505570371e-06,0.0003211491096306638,-1.003996314921912e-05,0.0004933578295017275,0.0004588165949080789
42.76415608175,25.98584391825,2,0.8001761949613619,5.093055039619271,21.02501842648007,-0.1142431273528367,-2.613495495701371e-06,0.000316306732928138,-4.573754456562232e-06,0.0004849875275880678,0.0004378197692828546
43.48584391825001,25.98584391825,2,0.8036263187674633,5.084362163101906,20.97897581662703,-0.1275836480076923,-2.613495495701371e-06,0.0003211491096306639,-5.197586446693478e-06,0.0004924693091732796,0.000444361045754407
42.76415608175,24.01415608175001,2,0.8070859410254243,5.047424274118917,20.75834206838509,-0.1900411078959864,-2.358127655110366e-06,0.0003234018066446854,-7.880860893441969e-06,0.0004963137411632848,0.0004511223133336958
43.48584391825001,24.01415608175001,2,0.8101129117979504,5.042084161445517,20.72805913832912,-0.1766892504889452,-2.358127655110366e-06,0.0003280692884563614,-7.443971137245046e-06,0.0005035239727796087,0.0004572114789624823
42.76415608175,24.73584391825,2,0.8093182516596219,5.016786825106275,20.52507855235332,-0.07659159267394092,-1.92123789891326e-06,0.0003234018066446858,-3.213379081765935e-06,0.0004969254858803999,0.0004555968343995894
43.48584391825001,24.73584391825,2,0.8125611992355175,5.004371323741272,20.46762845465956,-0.06505272869000275,-1.92123789891326e-06,0.0003280692884563619,-2.776489325568903e-06,0.0005041362130918206,0.0004622598581084656
44.01415608175001,24.01415608175001,2,0.8124801481023605,5.099311311887085,20.72173259397051,-0.197326018829107,-1.384332776027556e-06,0.0003318587052061302,-8.418352161959695e-06,0.0005107553923294598,0.0004620909212188964
44.73584391825,24.01415608175001,2,0.8159014141079189,5.09349809317161,20.69255950577486,-0.1802107072693568,-1.384332776027556e-06,0.0003375441024863149,-7.831052319978021e-06,0.0005195379852925379,0.0004693326397477981
44.01415608175001,24.73584391825,2,0.8150950190435875,5.064402177366139,20.44182790882879,-0.06316712129617442,-7.970329340458842e-07,0.0003318587052061302,-2.732954881775294e-06,0.0005115790358306484,0.0004676050942220807
44.73584391825,24.73584391825,2,0.8187523738405936,5.050102165890432,20.38098407264508,-0.04861186031494259,-7.970329340458842e-07,0.0003375441024863147,-2.145655039793512e-06,0.0005203623935803073,0.0004755455271546737
44.01415608175001,22.76415608175,2,0.7943748592106459,5.063906959310907,21.23298530820681,-0.1559760642394692,-3.802482389891855e-06,0.0003107325649652326,-6.068365517590232e-06,0.0004746993731902728,0.0004272495970846267
44.73584391825,22.76415608175,2,0.7971264941404459,5.065131933014837,21.22480639881757,-0.1129884631246191,-3.802482389891855e-06,0.0003148132855456176,-4.455523658287411e-06,0.0004810019716213233,0.0004321979626506851
44.01415608175001,23.48584391825,2,0.8071642138120638,4.852616187210349,19.93826606532276,-0.04791113426604818,-2.189640530588987e-06,0.0003107325649652326,-1.987644937204939e-06,0.0004769725017977464,0.0004512776983510956
44.73584391825,23.48584391825,2,0.810360879461499,4.836662382220128,19.86570140952595,-0.008884665758561406,-2.189640530588987e-06,0.0003148132855456178,-3.748030779021725e-07,0.0004832765811701224,0.0004577176948454598
42.76415608175,22.76415608175,2,0.7900268673769736,5.029217654052784,21.24454915699442,-0.1515305260191132,-4.296467940240141e-06,0.0003046065102718094,-5.773330106615586e-06,0.0004645379000371844,0.0004196600279806532
43.48584391825001,22.76415608175,2,0.7924696562564966,5.029355999260154,21.23198333269184,-0.1159946961838964,-4.296467940240141e-06,0.0003079976677733744,-4.471430792877585e-06,0.0004697755099295056,0.0004238900676151421
42.76415608175,23.48584391825,2,0.8021263900598945,4.825283781781936,20.04181775755197,-0.05892113660772021,-2.99456862650224e-06,0.0003046065102718094,-2.38217260505047e-06,0.000466371856311849,0.0004414930750754879
43.48584391825001,23.48584391825,2,0.8049534706860159,4.81146293886925,19.97595202721676,-0.02633794452264042,-2.99456862650224e-06,0.0003079976677733744,-1.080273291312632e-06,0.0004716104942052216,0.0004469303245863649
45.26415608175001,26.51415608175,2,0.8043166240045717,4.811215622357494,19.59112426309038,-0.2575992317177956,-1.415600162861007e-06,0.0003007032398366733,-1.053126686546184e-05,0.0004625827739937672,0.0004456936843271173
45.98584391825,26.51415608175,2,0.8085777988686824,4.794948955706727,19.51851744669779,-0.3010417704772653,-1.415600162861007e-06,0.0003062512933108075,-1.258126878483641e-05,0.0004711590897966336,0.0004541027035750891
45.26415608175001,27.23584391825,2,0.7856878109493458,5.122790542460974,21.41956313062192,-0.1334954213002462,-3.465602082235598e-06,0.0003007032398366733,-4.983213391327682e-06,0.0004596788957157402,0.0004123532270962929
45.98584391825,27.23584391825,2,0.7897891846884821,5.121942158338624,21.39840243241954,-0.184807240590527,-3.465602082235598e-06,0.0003062512933108075,-7.033215310702466e-06,0.0004682528806092662,0.0004192530024121835
46.51415608175001,26.51415608175,2,0.8118385872594716,4.844950540178397,19.48221853359558,-0.2466855678037976,-4.354404928845845e-07,0.0003107286346536332,-1.048825321667724e-05,0.0004794561149756915,0.0004607581061268266
47.23584391825001,26.51415608175,2,0.816457718894178,4.828250142461362,19.4129027465328,-0.2963897213229744,-4.354404928845845e-07,0.0003174129052114514,-1.291864608142642e-05,0.0004897886079597096,0.0004705319847957981
46.51415608175001,27.23584391825,2,0.7928921475434672,5.165016154256126,21.40198535727171,-0.0984793349073157,-2.865833357633478e-06,0.0003107286346536332,-3.803982658860672e-06,0.0004760128066580927,0.0004246304426840749
47.23584391825001,27.23584391825,2,0.7972496246788008,5.169282542328431,21.40344115539897,-0.1580027471631413,-2.865833357633478e-06,0.0003174129052114513,-6.234375523609531e-06,0.000486342104789878,0.0004324221074062831
46.51415608175001,25.26415608175,2,0.8276624142660179,5.109603017453279,20.06584765744352,-0.2437479689943347,1.729463300917668e-06,0.0003488677750346446,-1.131490698125855e-05,0.000541441468229304,0.0004960867398574256
47.23584391825001,25.26415608175,2,0.8322905395276069,5.098074664116155,20.02973946008499,-0.2567737653277778,1.729463300917668e-06,0.0003578611866732376,-1.224850474645922e-05,0.0005553375169634703,0.0005074849839282233
46.51415608175001,25.98584391825,2,0.8207080112312267,5.259997205171962,20.86162342732375,-0.05202818961298897,7.958655357173051e-07,0.0003488677750346446,-2.32149534266533e-06,0.000540109166464168,0.0004799047632479483
47.23584391825001,25.98584391825,2,0.825375769857865,5.253928653870854,20.8419928573943,-0.07105226600025408,7.958655357173051e-07,0.0003578611866732381,-3.255093107865786e-06,0.0005540039925035589,0.0004906450219407831
45.26415608175001,25.26415608175,2,0.8202145538886981,5.056104532935562,20.12652754422145,-0.2415104623781314,4.355884845548572e-07,0.0003357335414001887,-1.074660791969186e-05,0.0005193186372529784,0.0004787971803860501
45.98584391825,25.26415608175,2,0.8244172533077538,5.043337040791183,20.07774588498266,-0.2535519269278763,4.355884845548572e-07,0.0003429386903535133,-1.15524757052487e-05,0.0005304517068862376,0.0004883998660659168
45.26415608175001,25.98584391825,2,0.8131530559077086,5.20450366804138,20.90449661698162,-0.08271384818675505,-3.702793010021242e-07,0.0003357335414001887,-3.54145896636765e-06,0.0005181691599747154,0.0004634972879524849
45.98584391825,25.98584391825,2,0.8174242261718221,5.195156720605209,20.86513191981211,-0.0992145682270715,-3.702793010021242e-07,0.0003429386903535133,-4.347326751924594e-06,0.0005293013336072487,0.0004726305498496753
45.26415608175001,24.01415608175001,2,0.8185641023799891,5.153841074567633,20.6901088940004,-0.2042430619783236,-3.295691611652786e-07,0.0003421884886924366,-9.005629631511126e-06,0.0005282058238133966,0.000475130096606357
45.98584391825,24.01415608175001,2,0.822393440637242,5.148718157408712,20.66803968561814,-0.1827030625414319,-3.295691611652786e-07,0.0003491917904978889,-8.229563736698007e-06,0.0005390241602160279,0.0004837273247704002
45.26415608175001,24.73584391825,2,0.821597381404088,5.113828931834774,20.35574549424254,-0.04465256593204142,4.464967336475641e-07,0.0003421884886924366,-2.002327826058697e-06,0.0005292957584142708,0.0004819141820704639
45.98584391825,24.73584391825,2,0.8256847534440275,5.098398150734154,20.29630361767136,-0.02671951886091422,4.464967336475641e-07,0.0003491917904978889,-1.226261931245795e-06,0.0005401152634322237,0.0004913732379444224
46.51415608175001,24.01415608175001,2,0.8253540274452231,5.206796054761629,20.67478895656838,-0.2136126031563402,6.980762751014311e-07,0.0003549688945604825,-9.784942648561408e-06,0.0005494050868693255,0.0004905938617497772
47.23584391825001,24.01415608175001,2,0.8295843603928473,5.205363316811447,20.67274937360081,-0.1870260131481976,6.980762751014311e-07,0.0003637489345753195,-8.779758176154988e-06,0.0005629679124970118,0.00050075636148624
46.51415608175001,24.73584391825,2,0.828845585019893,5.160047989318995,20.27579121127809,-0.0214991902983897,1.703260747508024e-06,0.0003549688945604825,-1.004902633724688e-06,0.00055081841569695,0.0004989508751687183
47.23584391825001,24.73584391825,2,0.8333597060568564,5.145879738803575,20.22872911568111,5.870710100583325e-06,1.703260747508024e-06,0.0003637489345753201,2.818386819498225e-10,0.0005643830193880915,0.000510194309193741
46.51415608175001,22.76415608175,2,0.8046484646475384,5.127030729476266,21.24861817003203,-0.1754492984996076,-3.032462481714035e-06,0.0003270716733566555,-7.184967271766946e-06,0.0005010302576857107,0.0004463371918133355
47.23584391825001,22.76415608175,2,0.8079668627857552,5.136524056559631,21.27401283104857,-0.113380246395424,-3.032462481714035e-06,0.0003331072060898597,-4.723361729759362e-06,0.0005103517899092856,0.0004528773793957681
46.51415608175001,23.48584391825,2,0.8191819015565844,4.893966080481053,19.70489090482539,-0.02597982094350594,-5.708569397064268e-07,0.0003270716733566555,-1.149434538562453e-06,0.0005045023887757846,0.0004764960677843144
47.23584391825001,23.48584391825,2,0.8231217497079403,4.876294255516796,19.63139224289512,0.02901181389667489,-5.708569397064268e-07,0.0003331072060898599,1.312171003445403e-06,0.0005138270180352841,0.0004853983364347198
45.26415608175001,22.76415608175,2,0.7992563109921397,5.09780281670719,21.23056527306488,-0.1621636894371476,-3.344977908434279e-06,0.0003181149401809656,-6.462517062971697e-06,0.0004867506735145602,0.000436108518176079
45.98584391825,22.76415608175,2,0.8023109748928784,5.101605751606175,21.23300478357874,-0.1102865280635708,-3.344977908434279e-06,0.0003230545078137793,-4.46303088413977e-06,0.0004943796897614287,0.00044184398899167
45.26415608175001,23.48584391825,2,0.8128469737296418,4.877410196717856,19.82440684814249,-0.03562807433883519,-1.345491729602567e-06,0.0003181149401809656,-1.522949430157435e-06,0.0004895700942911224,0.000462856505957467
45.98584391825,23.48584391825,2,0.8164225606296727,4.85979263465312,19.74792294663047,0.01093517451093558,-1.345491729602567e-06,0.0003230545078137793,4.76536748674275e-07,0.0004972012506234194,0.0004704560025122032
47.76415608175002,26.51415608175,2,0.8199508770639921,4.858894063857241,19.37972424662633,-0.2158522829705485,2.481634251447192e-07,0.0003228452401780263,-9.590817414745884e-06,0.0004991398836593961,0.0004782074732183467
48.48584391825001,26.51415608175,2,0.8248468008128695,4.845832758287049,19.32899776085403,-0.2719142140780376,2.481634251447192e-07,0.0003310023847532617,-1.241949175190477e-05,0.0005117481890179438,0.000489403418893576
47.76415608175002,27.23584391825,2,0.8004904917453152,5.195945771489696,21.42732866483606,-0.03575392040116058,-2.580510912014321e-06,0.0003228452401780263,-1.433672839512741e-06,0.0004951337402543448,0.0004384075746975753
48.48584391825001,27.23584391825,2,0.8049730789953929,5.211774962704593,21.47618622305455,-0.1039090557648684,-2.580510912014321e-06,0.0003310023847532615,-4.262347176671628e-06,0.0005077376560944258,0.000446968510722914
49.01415608175001,26.51415608175,2,0.8284748047341849,4.827582080367727,19.30800993576642,-0.1442940953058916,1.08130386367867e-08,0.0003376971298029619,-6.729931195578677e-06,0.0005217447562027779,0.0004980497068559015
49.73584391825001,26.51415608175,2,0.8334701505614892,4.827611810765445,19.30819637594158,-0.2030428845984104,1.08130386367867e-08,0.0003478303688480096,-9.754065606040513e-06,0.0005374046673636433,0.0005104758591916208
49.01415608175001,27.23584391825,2,0.8082043354799886,5.204756459781123,21.54145330777641,0.08159246131937241,-3.013321371825032e-06,0.0003376971298029619,3.403307849468486e-06,0.0005174688886573776,0.0004533528692983474
49.73584391825001,27.23584391825,2,0.8125489531604188,5.245147148392186,21.6866514005846,0.008884557259434931,-3.013321371825032e-06,0.000347830368848009,3.791734390062168e-07,0.0005331230191649909,0.0004622343252755722
49.01415608175001,25.26415608175,2,0.8446109847459348,5.139760955202991,20.06558073186976,-0.2275752813990927,2.540530104449799e-06,0.0003867586745405324,-1.171641539922245e-05,0.000601128339992362,0.0005405997642064281
49.73584391825001,25.26415608175,2,0.8498714946306674,5.1583232369147,20.15653546337525,-0.2394171045395026,2.540530104449799e-06,0.0004021505092903024,-1.275798244713142e-05,0.0006249094995708989,0.0005561205716825332
49.01415608175001,25.98584391825,2,0.8376720298700756,5.312920424114726,20.9475271586239,0.07457792031883913,1.498963056540709e-06,0.0003867586745405324,3.675419350548069e-06,0.0005996439322597041,0.0005214274418879172
49.73584391825001,25.98584391825,2,0.8428617961308268,5.344615513702959,21.08403160184802,0.05173485251167632,1.498963056540709e-06,0.0004021505092903019,2.633852302639204e-06,0.0006234229387570534,0.0005356326030959724
47.76415608175002,25.26415608175,2,0.835831783941922,5.147638399166951,20.03151113409801,-0.2406845262350978,2.724242126731879e-06,0.0003653735561611993,-1.172867840142458e-05,0.0005683502858687471,0.0005165728114181927
48.48584391825001,25.26415608175,2,0.8408389326781691,5.143572244317376,20.03229737160233,-0.2543265096544108,2.724242126731879e-06,0.000376904319649818,-1.278335281027746e-05,0.0005861665221392946,0.0005300029737814681
47.76415608175002,25.98584391825,2,0.828928062767059,5.30396890012848,20.85885537071498,-0.004232210942609195,1.669567717879062e-06,0.0003653735561611993,-1.979149128051964e-07,0.0005668453010643293,0.0004991517852731718
48.48584391825001,25.98584391825,2,0.833930352290555,5.308452139612863,20.8872279050324,-0.02600213342154619,1.669567717879062e-06,0.0003769043196498185,-1.252589321658077e-06,0.0005846598549867905,0.000511652436213375
47.76415608175002,24.01415608175001,2,0.8328208259180537,5.248326448881833,20.69973006929944,-0.231739173439219,1.404843529536699e-06,0.0003711016961493202,-1.108937998823358e-05,0.0005753312334303153,0.0005088250904470713
48.48584391825001,24.01415608175001,2,0.8374010510890175,5.25776097372729,20.74551129330033,-0.2000152845684483,1.404843529536699e-06,0.0003824097743314466,-9.840914023519307e-06,0.0005927990758828325,0.0005207067681850392
47.76415608175002,24.73584391825,2,0.8368186745133666,5.190729075731367,20.22170310267784,0.004460932645121099,2.653309494250754e-06,0.0003711016961493202,2.186981938928547e-07,0.0005770872688212119,0.0005191647657275982
48.48584391825001,24.73584391825,2,0.8417160325046407,5.184103475429913,20.21144345954076,0.02902857049891468,2.653309494250754e-06,0.0003824097743314472,1.467164158607068e-06,0.0005945577931116464,0.0005324290747212034
49.01415608175001,24.01415608175001,2,0.8408431261364204,5.25509802697934,20.81542829097132,-0.2730246130310554,1.030248016164125e-06,0.0003920992577613398,-1.372354741096897e-05,0.0006072463305049631,0.0005300145195235975
49.73584391825001,24.01415608175001,2,0.845638664910433,5.2918195688813,20.96849020146461,-0.2380803076863421,1.030248016164125e-06,0.0004072633406099031,-1.233885713922844e-05,0.0006306705835155649,0.0005435620913478691
49.01415608175001,24.73584391825,2,0.8454101961897665,5.175653889668965,20.23595951349964,0.02783651133492893,2.41493828790448e-06,0.0003920992577613398,1.440535437594558e-06,0.000609190088888948,0.0005429006647241803
49.73584391825001,24.73584391825,2,0.850568418521827,5.191789771296397,20.31607402576839,0.05277224322234102,2.41493828790448e-06,0.0004072633406099035,2.825225709335039e-06,0.0006326182343615275,0.0005582452716559549
49.01415608175001,22.76415608175,2,0.8164504551447381,5.140931453846767,21.4581607092963,-0.2856807878134091,-3.898391116641731e-06,0.0003516945201775049,-1.245138637804557e-05,0.0005378581711989242,0.0004705162847024717
49.73584391825001,22.76415608175,2,0.8198494457710508,5.186948707779759,21.62566648144931,-0.2074973804530388,-3.898391116641731e-06,0.0003611011581554179,-9.214398760687024e-06,0.0005523840127115069,0.0004779810170256656
49.01415608175001,23.48584391825,2,0.8335263251989999,4.842287841426346,19.50678420452024,-0.0633588068768009,-6.614034992830439e-07,0.0003516945201775049,-3.044748400131804e-06,0.0005424161853909822,0.0005106191833527568
49.73584391825001,23.48584391825,2,0.8379075070162268,4.841912731372633,19.50166160307426,0.003895066746191502,-6.614034992830439e-07,0.0003611011581554184,1.922392172267438e-07,0.0005569481023401991,0.0005220553491392664
47.76415608175002,22.76415608175,2,0.8104576268837389,5.144883268531024,21.30958787588757,-0.2075361058183626,-3.081336546591305e-06,0.0003380498699819135,-8.759460057664872e-06,0.0005179241928977984,0.0004579155091614879
48.48584391825001,22.76415608175,2,0.8139337030690018,5.166326102982139,21.38197051295655,-0.1351277119504537,-3.081336546591305e-06,0.0003455179461271087,-5.809873757011037e-06,0.0005294576526939292,0.0004651397480747122
47.76415608175002,23.48584391825,2,0.8261244868104132,4.890580171689785,19.59095586379068,-0.02806750506316386,-1.317502459374469e-07,0.0003380498699819135,-1.291383912468925e-06,0.0005220839242245081,0.0004924134016136862
48.48584391825001,23.48584391825,2,0.8303641900001616,4.876901535166962,19.53554309027695,0.03516131315793014,-1.317502459374469e-07,0.0003455179461271089,1.658202388185072e-06,0.0005336218250912327,0.0005026766474514391
50.26415608175001,26.51415608175,2,0.8370306839663872,4.699999330766829,19.31283515590813,0.0218687158361248,-2.517469400117191e-06,0.0003561472456712123,1.073513290397038e-06,0.0005466723506489082,0.0005197250420863144
50.98584391825001,26.51415608175,2,0.8417660571186009,4.729431362570203,19.41566183686058,-0.02386717432071528,-2.517469400117191e-06,0.0003687361366684145,-1.20667785361852e-06,0.0005661215033830648,0.0005325681273484692
50.26415608175001,27.23584391825,2,0.8154843419287714,5.181147452938918,21.83114417738451,0.3151159397451745,-4.797660544132983e-06,0.0003561472456712123,1.366240428759841e-05,0.0005434713225510141,0.0004684375292933754
50.98584391825001,27.23584391825,2,0.819185272030435,5.266914458294735,22.15201744090109,0.2572589716560701,-4.797660544132983e-06,0.0003687361366684145,1.138221314358296e-05,0.0005629145264139725,0.0004765035418632249
51.51415608175002,26.51415608175,2,0.8449019192956866,4.351339060215844,19.47458329184514,0.4167762329227097,-1.067312782510385e-05,0.0003793573396817375,2.149742826114127e-05,0.0005710749588515309,0.0005414350498871447
52.23584391825001,26.51415608175,2,0.8487769832702639,4.449656661060136,19.81615487880841,0.4504130364074874,-1.067312782510385e-05,0.0003957861149556716,2.382775035958764e-05,0.0005964622271245222,0.0005528168475084588
51.51415608175002,27.23584391825,2,0.8212558069163777,5.153584105091868,22.47837151744853,0.8473860809502913,-8.342805726657644e-06,0.0003793573396817375,3.79262035350757e-05,0.000574440971366772,0.0004811404202515221
52.23584391825001,27.23584391825,2,0.8232711623246242,5.337430219006143,23.19273882480417,0.889311123007659,-8.342805726657644e-06,0.0003957861149556709,4.025652563352175e-05,0.0005998316536784964,0.0004857425950275571
51.51415608175002,25.26415608175,2,0.8626188042980956,4.526245333121898,20.802841160369,-0.07847178888622773,-1.571021311379666e-05,0.0004582002298427416,-4.569579613006086e-06,0.0006857516297879205,0.0005977954365404023
52.23584391825001,25.26415608175,2,0.8673222781070047,4.74599625425845,21.5894791250238,-0.02498628625547577,-1.571021311379666e-05,0.0004920911760101327,-1.506585183946841e-06,0.0007381053384118081,0.0006148343036874234
51.51415608175002,25.98584391825,2,0.8551674336994886,4.919616551075941,21.96812762764663,0.5308360956887044,-1.264721868473738e-05,0.0004582002298427416,2.932136655438549e-05,0.0006901200980245848,0.0005726926672938169
52.23584391825001,25.98584391825,2,0.8596140587104022,5.165059678789884,22.87960333984984,0.5682886249653787,-1.264721868473738e-05,0.0004920911760101324,3.238436098344484e-05,0.0007424853102750303,0.0005874068665923473
50.26415608175001,25.26415608175,2,0.8537281944768518,5.003076080448084,20.25773768109666,-0.1885602454752462,-1.342341312744562e-06,0.0004158169751006828,-1.031286896614704e-05,0.0006405272742212962,0.0005680900171157894
50.98584391825001,25.26415608175,2,0.8589825773676982,5.081248520873676,20.56161097376483,-0.1861808444109053,-1.342341312744562e-06,0.0004377626193063608,-1.056214705590617e-05,0.0006744321321933547,0.0005852703427031539
50.26415608175001,25.98584391825,2,0.8466216946685574,5.233401951852893,21.23875766577241,0.2230269190676146,-1.59161940250376e-06,0.0004158169751006828,1.163277523953156e-05,0.0006401773225836271,0.0005464268457212515
50.98584391825001,25.98584391825,2,0.851694028574649,5.331551988618743,21.62126628150967,0.2110300753768331,-1.59161940250376e-06,0.0004377626193063608,1.13834971497721e-05,0.0006740812332972188,0.0005617121037959379
50.26415608175001,24.01415608175001,2,0.8491252789862114,5.174079348623498,21.1318781024255,-0.3769632635608396,-2.309522523082978e-06,0.0004207646318899309,-1.998814704161811e-05,0.0006468274993751476,0.0005538638085883878
50.98584391825001,24.01415608175001,2,0.8538450980093626,5.276784774614466,21.52907414596582,-0.3510152477488332,-2.309522523082978e-06,0.0004424867627877569,-1.921332739267652e-05,0.0006803832242436919,0.0005684610516716185
50.26415608175001,24.73584391825,2,0.8543542290827338,5.032374771116294,20.4089028135068,0.03156842693693757,-1.534702874141569e-06,0.0004207646318899309,1.733983856207948e-06,0.0006478911584815155,0.0005700827453101169
50.98584391825001,24.73584391825,2,0.859517374820569,5.108275474087747,20.70260075713827,0.04405541280784281,-1.534702874141569e-06,0.0004424867627877569,2.508803505149376e-06,0.0006814509570345656,0.0005870787178361459
51.51415608175002,24.01415608175001,2,0.8570824358026982,4.860865035786556,21.88309736584246,-0.6346049313405917,-1.365619256890354e-05,0.0004627648107041781,-3.552285178689451e-05,0.0006957809151964953,0.0005789362177802738
52.23584391825001,24.01415608175001,2,0.8612329399333538,5.10915529887209,22.80540831360177,-0.6564935366630237,-1.365619256890354e-05,0.0004964433369946868,-3.784722606922576e-05,0.0007478142545050879,0.00059295766072483
51.51415608175002,24.73584391825,2,0.8630927279363168,4.55037038217003,20.93630129572244,-0.03156269656346519,-1.598056685123463e-05,0.0004627648107041781,-1.844325496386115e-06,0.0006924217803925509,0.0005994683908510993
52.23584391825001,24.73584391825,2,0.8677202163816964,4.76781612464076,21.71364690503698,-0.06892933808729604,-1.598056685123463e-05,0.0004964433369946866,-4.168699778717101e-06,0.0007444495774371783,0.0006163216344925273
51.51415608175002,22.76415608175,2,0.8264742495550139,5.064178653143619,22.45533671891163,-0.9490004910853224,-1.013623442376267e-05,0.0003907531556793305,-4.375145423208827e-05,0.0005895584926592647,0.0004932439454299956
52.23584391825001,22.76415608175,2,0.8277616143503197,5.251149408359345,23.18690845058188,-0.9840286465704188,-1.013623442376267e-05,0.0004063971410968949,-4.57054282230377e-05,0.0006137343321243205,0.0004963255922817756
51.51415608175002,23.48584391825,2,0.8479925057856422,4.337183242380747,19.64598582658515,-0.5340682379004869,-1.20902084147121e-05,0.0003907531556793305,-2.810746881452332e-05,0.000586713600026546,0.000550473463414131
52.23584391825001,23.48584391825,2,0.8514008230743519,4.433658382899338,19.98037730570456,-0.5583882072613358,-1.20902084147121e-05,0.0004063971410968953,-3.006144280547269e-05,0.000610887658338208,0.0005608048181205288
50.26415608175001,22.76415608175,2,0.8221287730726103,5.104767075944921,21.7798949383529,-0.4720069495962217,-6.120502604409334e-06,0.0003688727585420958,-2.122915359610821e-05,0.0005612889567666691,0.0004831229697108388
50.98584391825001,22.76415608175,2,0.8249760964162838,5.195533780986356,22.12117794609295,-0.4079574158955147,-6.120502604409334e-06,0.0003806985276776079,-1.864693484911943e-05,0.0005795485280674197,0.0004897063133742502
50.26415608175001,23.48584391825,2,0.8410421247527484,4.698789799871245,19.49820680448157,-0.1868427517486577,-3.538283857420857e-06,0.0003688727585420958,-9.403384460595363e-06,0.0005648990555964873,0.0005305630069432949
50.98584391825001,23.48584391825,2,0.8452265517861404,4.727624523759418,19.59503858675325,-0.1319669172916398,-3.538283857420857e-06,0.0003806985276776079,-6.82116571360707e-06,0.0005831652641111813,0.0005423701945317888
52.76415608175,26.51415608175,2,0.8506313178410674,3.707529346235044,19.81268064496809,1.506661160606275,-2.668598631526423e-05,0.000404599904835511,8.069488938802544e-05,0.0005881357576788607,0.0005584378469084569
53.48584391825,26.51415608175,2,0.851919844272909,3.769959185428404,20.0194180033328,1.822326596204449,-2.668598631526423e-05,0.0004122508513215586,9.845082008492557e-05,0.0006002072425146414,0.0005624129052379048
52.76415608175,27.23584391825,2,0.8233614451930069,5.429864499174702,23.69119814516606,1.950660096501492,-8.930055618363496e-06,0.000404599904835511,8.834583587407231e-05,0.0006131274230373918,0.0004859508544521181
53.48584391825,27.23584391825,2,0.8215989120084575,5.597789487386783,24.38257249722342,2.366083824260789,-8.930055618363496e-06,0.0004122508513215577,0.0001061017665709733,0.0006252138893756637,0.000481917655005163
54.01415608175001,26.51415608175,2,0.8521758897176498,0.9434176016189113,21.36496356447749,2.237878032049558,-9.520121243768283e-05,0.0004573891849975549,0.0001211103129401621,0.0005761640740423793,0.0005632096842689841
54.73584391825,26.51415608175,2,0.8515969794863406,2.377584699145801,27.17052314947657,3.605401513808974,-9.520121243768283e-05,0.0005730584594885704,0.0001943573116681745,0.0007554274905756108,0.0005614114667349425
54.01415608175001,27.23584391825,2,0.8142636108632417,5.720252510713912,27.97813051881929,5.49732319884476,-2.195421370967048e-05,0.0004573891849975549,0.0002367795874311765,0.0006798907202136895,0.0004658374202099774
54.73584391825,27.23584391825,2,0.7936350075908659,8.344740005014192,39.04218645198759,7.99732926242135,-2.195421370967048e-05,0.0005730584594885704,0.000310026586159189,0.0008600483623741276,0.0004259386011969804
54.01415608175001,25.26415608175,2,0.8762760530577344,0.8604643040025621,24.50003193145424,0.716652319890851,-0.0001361623209467803,0.0006281058166832877,4.633879455690295e-05,0.000782316489387507,0.000650185176978808
54.73584391825,25.26415608175,2,0.8779128295722235,1.202762720861082,25.59064148753329,0.8652612755799661,-0.0001361623209467803,0.0006628693440912565,5.669793296368231e-05,0.0008358087378384357,0.0006571036756218731
54.01415608175001,25.98584391825,2,0.8667222573440221,1.387122387096755,26.50694478322358,1.351141799454564,-0.0001258031825400009,0.0006281058166832877,8.110232196487229e-05,0.0007965477456068449,0.000612605516820144
54.73584391825,25.98584391825,2,0.8695748736102518,1.735269504245244,27.4509479957462,1.49110906609545,-0.0001258031825400009,0.0006628693440912565,9.146146037165154e-05,0.0008501107265919272,0.0006233519617434452
52.76415608175,25.26415608175,2,0.8704401309633918,2.850358503424001,22.08709166172886,0.3234720114320352,-6.598128094750409e-05,0.0005279289568860756,1.997359298599696e-05,0.0007234648926171771,0.0006266883717619371
53.48584391825,25.26415608175,2,0.8743015193886855,3.436004892658492,24.11120302549589,0.6910597309668207,-6.598128094750409e-05,0.0005919486489064406,4.398205786456365e-05,0.0008223307865053486,0.0006420354208722445
52.76415608175,25.98584391825,2,0.8621495508385568,4.135946470115243,23.77625031505309,1.447314008084035,-4.197281606893764e-05,0.0005279289568860756,8.399328500636322e-05,0.0007571754090243534,0.0005961483510152105
53.48584391825,25.98584391825,2,0.8647283102044677,4.780246582438958,26.21815352365866,1.826197400976102,-4.197281606893764e-05,0.0005919486489064411,0.0001080017498849293,0.0008562502010777075,0.0006053163312945296
52.76415608175,24.01415608175001,2,0.8635845694280538,4.087908043994722,23.70655172894977,-1.497188058971492,-4.313247861849096e-05,0.0005321292378222479,-8.780168358926921e-05,0.0007620861003510013,0.0006012147549052643
53.48584391825,24.01415608175001,2,0.865947524770741,4.730002391930421,26.14752896969894,-1.859328216821869,-4.313247861849096e-05,0.0005959464057106456,-0.0001109612165619179,0.0008608400847383703,0.0006097521127854951
52.76415608175,24.73584391825,2,0.8707894957680846,2.874515846550075,22.20509369149923,-0.3873814209334758,-6.629201159113973e-05,0.0005321292378222479,-2.398451570087079e-05,0.00072952784494741,0.0006280459105927646
53.48584391825,24.73584391825,2,0.874592684652964,3.456835501707496,24.21922101007927,-0.7390260723420087,-6.629201159113973e-05,0.0005959464057106462,-4.714404867351947e-05,0.0008280867784368438,0.0006432239849405127
54.01415608175001,24.01415608175001,2,0.8678300714848945,1.371101003470986,26.4444195698133,-1.362803083523011,-0.0001268670765969817,0.0006319535976073393,-8.248793648199689e-05,0.0008010405001941043,0.000616733526981249
54.73584391825,24.01415608175001,2,0.8705899386648935,1.715131945396067,27.38287298636058,-1.489319741170373,-0.0001268670765969817,0.0006665099074227716,-9.206825038518698e-05,0.0008542756589460319,0.0006272697473933109
54.01415608175001,24.73584391825,2,0.8765401311953893,0.8864833776394336,24.60315467291106,-0.7397040424807079,-0.0001364473905001715,0.0006319535976073393,-4.793162666656475e-05,0.0007878546410402282,0.0006512912739677891
54.73584391825,24.73584391825,2,0.8781580958458497,1.225733063031138,25.68419459638183,-0.8759205438274097,-0.0001364473905001715,0.0006665099074227716,-5.7511940569755e-05,0.0008410265670409016,0.0006581534431228404
54.01415608175001,22.76415608175,2,0.8175023962566692,5.581165996546605,27.96862893311255,-5.462982841590232,-2.474099311403101e-05,0.0004659495688958074,-0.0002394763648194968,0.0006892445720287745,0.0004728011102735194
54.73584391825,22.76415608175,2,0.7967913261665527,8.170182831969964,38.96521182791072,-7.916776479679386,-2.474099311403101e-05,0.0005814344897530201,-0.0003116708093343727,0.0008690739856397165,0.0004315890187954738
54.01415608175001,23.48584391825,2,0.8539854718385752,0.9516231416097103,21.49897030082137,-2.263069023275822,-9.693543762890663e-05,0.0004659495688958074,-0.0001239914439622835,0.0005870241238689811,0.0005689072317639589
54.73584391825,23.48584391825,2,0.853245105590682,2.368779791219604,27.25730655706745,-3.598904918507975,-9.693543762890663e-05,0.0005814344897530201,-0.0001961858884771597,0.0007659771810090016,0.0005665619928630603
52.76415608175,22.76415608175,2,0.827389841840322,5.319405646014267,23.69178273466495,-1.987400231691363,-1.118895979864453e-05,0.0004145652897665472,-9.211046454648918e-05,0.0006253845312551268,0.000495431645476936
53.48584391825,22.76415608175,2,0.8250619677579533,5.488407600589196,24.40034866486959,-2.389853936838279,-1.118895979864453e-05,0.0004212371015191954,-0.0001092891651385055,0.0006359549287800503,0.0004899076905349664
52.76415608175,23.48584391825,2,0.8529653251312912,3.689279475280764,19.97090505403154,-1.570305566845349,-2.8367660390661e-05,0.0004145652897665472,-8.543865279384021e-05,0.000601231257284058,0.0005656808696637371
53.48584391825,23.48584391825,2,0.853911221023399,3.746768862083629,20.16732153445271,-1.873905482243769,-2.8367660390661e-05,0.0004212371015191953,-0.0001026173533858565,0.0006117898968516045,0.0005686711355142753
0.26415608175,21.51415608175,2,0,-0.03144901393848575,-0.4757128278452956,-0.4680400017791189,2.799334176730821e-07,-1.497121837954157e-06,-3.744320014232951e-06,4.114120190553842e-07,1.641382940912062e-05
0.9858439182500001,21.51415608175,2,0,0.05414230051099553,-0.1333475700473705,-0.6875088790419073,2.799334176730821e-07,-4.70026064560382e-07,-5.500071032335258e-06,1.132507566731049e-06,2.013801893628403e-05
0.26415608175,22.23584391825,2,0,-0.616699353305925,-0.6220254126871554,-0.3396530301048969,-1.475817600429235e-06,-1.497121837954157e-06,-2.717224240839176e-06,1.175494820237286e-07,1.632364487797166e-05
0.9858439182500001,22.23584391825,2,0,-0.5311080388564436,-0.2796601548892303,-0.5591219073676836,-1.475817600429235e-06,-4.70026064560382e-07,-4.47297525894147e-06,3.545323137283964e-07,2.00333113560297e-05
0.26415608175,20.26415608175,2,0,0.2228598638555748,-1.531298147273365,-0.5920802188110152,1.938190082156531e-06,-5.078441962359228e-06,-4.736641750488122e-06,7.190430806605864e-07,1.673154024711662e-05
0.9858439182500001,20.26415608175,2,0,0.5291346940596011,-0.30619882645726,-0.6850147266871881,1.938190082156531e-06,-1.403143999910913e-06,-5.480117813497505e-06,1.921696415670402e-06,2.044849187111986e-05
0.26415608175,20.98584391825,2,0,-0.02496549048089308,-1.593254485857482,-0.1326679735049775,1.194714019147128e-06,-5.078441962359228e-06,-1.06134378803982e-06,3.818270541015728e-07,1.6523124643876e-05
0.9858439182500001,20.98584391825,2,0,0.2813093397231332,-0.368155165041377,-0.2256024813811691,1.194714019147128e-06,-1.403143999910913e-06,-1.804819851049353e-06,5.828348041898585e-07,2.024926622001212e-05
1.51415608175,20.26415608175,2,0,1.415165616291916,0.5219328209656157,0.1990125868541809,4.110983715361637e-06,5.380525340564378e-07,1.592100694833447e-06,7.137772524350197e-06,2.632011044987711e-05
2.23584391825,20.26415608175,2,0,1.550844749296328,1.064649352983264,0.09979821261665879,4.110983715361637e-06,2.166202130109382e-06,7.983857009332703e-07,9.51189791385963e-06,3.864471910638607e-05
1.51415608175,20.98584391825,2,0,1.150593951658519,0.4557899048072666,0.4025312863607989,3.317268721461447e-06,5.380525340564378e-07,3.220250290886391e-06,5.983605922225549e-06,2.659647905860312e-05
2.23584391825,20.98584391825,2,0,1.286273084662931,0.9985064368249146,0.3033169121232667,3.317268721461447e-06,2.166202130109382e-06,2.426535296986133e-06,8.3329363053434e-06,4.021124544468836e-05
1.51415608175,21.51415608175,2,0,0.1950040991436552,0.1916747982851911,-0.4606109297638946,4.706732786315438e-07,4.573560751976874e-07,-3.684887438111157e-06,1.79448540232324e-06,2.669351019941442e-05
2.23584391825,21.51415608175,2,0,0.3205507116907335,0.6938612484735043,-1.333526977868387,4.706732786315438e-07,1.963915425762626e-06,-1.066821582294709e-05,4.905031669954286e-06,4.087925587245857e-05
1.51415608175,22.23584391825,2,0,-2.132772029134947,-0.3902692337844765,-0.2722910109433026,-6.51265510620425e-06,4.573560751976332e-07,-2.178328087546421e-06,3.614834310165031e-07,2.668223559731255e-05
2.23584391825,22.23584391825,2,0,-2.007225416587864,0.1119172164038591,-1.145207059047774,-6.51265510620425e-06,1.96391542576264e-06,-9.161656472382194e-06,1.073081411651513e-06,4.113776796288791e-05
0.26415608175,19.01415608175,2,0,-0.05941703713917057,-1.725102853888614,-0.07040891236255586,1.189947764265545e-06,-5.472795502732227e-06,-5.632712989004469e-07,3.885453085172045e-07,1.728706529123938e-05
0.9858439182500001,19.01415608175,2,0,0.4575567497926559,0.3427922938386922,0.02296173810553474,1.189947764265545e-06,7.308899404496902e-07,1.836939048442779e-07,2.907665945200193e-06,2.075126320591517e-05
0.26415608175,19.73584391825,2,0,0.1895713641090236,-1.662855753576565,0.7050517680351788,1.936912968010128e-06,-5.472795502732227e-06,5.64041414428143e-06,7.782916589625456e-07,1.693623752663658e-05
0.9858439182500001,19.73584391825,2,0,0.7065451510408501,0.4050393941507408,0.7984224185032609,1.936912968010128e-06,7.308899404496902e-07,6.387379348026087e-06,4.51633875351219e-06,2.058300155809125e-05
0.26415608175,17.76415608175,2,0,-0.3505228347580673,-0.5216837948109866,0.3716885582965466,-7.043260353770261e-07,-1.388969875588703e-06,2.973508466372373e-06,1.695142387946533e-07,1.865140736928341e-05
0.9858439182500001,17.76415608175,2,0,0.2379611537949332,1.832252159401015,0.5200080510077315,-7.043260353770261e-07,5.672837987047303e-06,4.160064408061852e-06,7.889800961681432e-06,2.171615222521458e-05
0.26415608175,18.48584391825,2,0,0.04499581247173642,-0.4228041330035356,1.254414541126047,4.82229906312385e-07,-1.388969875588703e-06,1.003531632900838e-05,1.749830276801342e-06,1.774664366544451e-05
0.9858439182500001,18.48584391825,2,0,0.6334798010247369,1.931131821208466,1.402734033837217,4.82229906312385e-07,5.672837987047303e-06,1.122187227069774e-05,1.008714664596742e-05,2.10548900120642e-05
1.514156081750001,17.76415608175,2,0,-0.1580049710990609,3.292374805565841,1.884378838295762,-3.139515751969667e-06,1.066200335468994e-05,1.507503070636609e-05,1.302904855251192e-05,2.543647781309266e-05
2.235843918250003,17.76415608175,2,0,0.3893988130430985,5.481989942134479,2.120886957291797,-3.139515751969667e-06,1.723084876439585e-05,1.696709565833438e-05,2.288705365736576e-05,3.253585148437506e-05
1.51415608175,18.48584391825,2,0,0.4726833462237007,3.450046884896515,2.705484514509021,-1.247450800001369e-06,1.066200335468989e-05,2.164387611607217e-05,1.618131059515126e-05,2.531591491391465e-05
2.235843918250001,18.48584391825,2,0,1.020087130365861,5.639662021465157,2.941992633505047,-1.247450800001369e-06,1.723084876439581e-05,2.353594106804037e-05,2.59436134093864e-05,3.364900509196152e-05
1.51415608175,19.01415608175,2,0,0.5906621499232521,1.74701631744514,1.308106019854337,4.925058257982949e-07,5.117922495885845e-06,1.04648481588347e-05,9.214855583857343e-06,2.547194570296201e-05
2.23584391825,19.01415608175,2,0,1.072488016026413,3.674319781857784,1.665804138964916,4.925058257982949e-07,1.089983288912378e-05,1.332643311171933e-05,1.803891487767119e-05,3.490489221716766e-05
1.51415608175,19.73584391825,2,0,1.544523800884771,1.985481730185502,2.03084481900908,3.354090778682865e-06,5.11792249588579e-06,1.624675855207264e-05,1.380581934568623e-05,2.60187926453806e-05
2.23584391825,19.73584391825,2,0,2.026349666987938,3.91278519459817,2.388542938119666,3.354090778682865e-06,1.089983288912379e-05,1.910834350495733e-05,2.251396843640933e-05,3.722288604436187e-05
0.26415608175,16.51415608175,2,0,-0.4223821902080606,1.403305287196276,0.5527997059548697,-2.474267238422814e-06,4.828482671194532e-06,4.422397647638957e-06,4.413311532900939e-06,2.13123912299537e-05
0.9858439182500001,16.51415608175,2,0,0.08853736012137337,3.446983488514012,0.6750184785440914,-2.474267238422814e-06,1.095951727514774e-05,5.400147828352731e-06,1.362120439960161e-05,2.386845055593051e-05
0.26415608175,17.23584391825,2,0,-0.09646546330348726,1.48478446892242,1.319179031449007,-1.496517057709095e-06,4.828482671194532e-06,1.055343225159206e-05,6.283427081135051e-06,1.960684654957715e-05
0.9858439182500001,17.23584391825,2,0,0.4144540870259467,3.528462670240155,1.441397804038234,-1.496517057709095e-06,1.095951727514774e-05,1.153118243230587e-05,1.527845127288159e-05,2.247004350077617e-05
0.26415608175,15.26415608175,2,0,-0.3872919978360977,3.37201303410872,0.5661400748733967,-3.936944820362488e-06,1.110027530741678e-05,4.529120598987174e-06,1.189936998900505e-05,2.497134929471649e-05
0.9858439182500001,15.26415608175,2,0,0.01907243449891771,4.997470763448782,0.6672359415947078,-3.936944820362488e-06,1.597664849543697e-05,5.337887532757662e-06,1.933469770111332e-05,2.700207273406793e-05
0.26415608175,15.98584391825,2,0,-0.1177030199125789,3.4394102785896,1.17568672337592,-3.128177886591932e-06,1.110027530741678e-05,9.405493787007359e-06,1.319048731175454e-05,2.27498054082636e-05
0.9858439182500001,15.98584391825,2,0,0.2886614124224365,5.064868007929662,1.276782590097231,-3.128177886591932e-06,1.597664849543697e-05,1.021426072077785e-05,2.059854168218145e-05,2.508280412902749e-05
1.51415608175,15.26415608175,2,0,-0.5416749115552026,6.011244120413829,1.930354809895872,-6.542355013307711e-06,1.966932111456841e-05,1.544283847916698e-05,2.20158996090825e-05,2.931373861779472e-05
2.23584391825,15.26415608175,2,0,-0.1073252429223666,7.748642794945173,2.008704597174924,-6.542355013307711e-06,2.488151713816245e-05,1.606963677739939e-05,2.987585164724048e-05,3.359860382317697e-05
1.51415608175,15.98584391825,2,0,-0.3327421454777226,6.063477311933199,2.581879312845127,-5.915556715075271e-06,1.966932111456841e-05,2.065503450276101e-05,2.319957180390534e-05,2.773549827395457e-05
2.23584391825,15.98584391825,2,0,0.1016075231551148,7.800875986464549,2.660229100124192,-5.915556715075271e-06,2.488151713816246e-05,2.128183280099353e-05,3.100450178863722e-05,3.264979473438008e-05
1.51415608175,16.51415608175,2,0,-0.4786887298433526,4.703146183691292,2.021669219553318,-5.294320882451761e-06,1.543301877168681e-05,1.617335375642655e-05,1.7381859449684e-05,2.680338491355151e-05
2.235843918250001,16.51415608175,2,0,0.0288778345605345,6.73341244130684,2.155475414559532,-5.294320882451761e-06,2.152381754453346e-05,1.724380331647626e-05,2.651366301071053e-05,3.22657153698157e-05
1.514156081750001,17.23584391825,2,0,-0.1218722098268366,4.792350313695404,2.783019066159144,-4.223871322402199e-06,1.543301877168676e-05,2.226415252927315e-05,1.930635580790012e-05,2.583504419824848e-05
2.235843918250003,17.23584391825,2,0,0.3856943545770484,6.822616571310943,2.916825261165344,-4.223871322402199e-06,2.152381754453338e-05,2.333460208932275e-05,2.835136917473333e-05,3.216520012043935e-05
0.26415608175,14.01415608175,2,0,-0.3271397617264602,5.134354291113857,0.5174242389205135,-5.154330670415757e-06,1.669164554094551e-05,4.139393911364107e-06,1.879864280387092e-05,2.900131208704951e-05
0.9858439182500001,14.01415608175,2,0,-0.006848129985697948,6.415520818076906,0.6017342199083228,-5.154330670415757e-06,2.053514512183465e-05,4.813873759266582e-06,2.467931818458843e-05,3.061718495260697e-05
0.26415608175,14.73584391825,2,0,-0.102313145758955,5.190560945105733,0.997861686531655,-4.479850822513242e-06,1.669164554094551e-05,7.98289349225324e-06,1.979549234429356e-05,2.664643546072282e-05
0.9858439182500001,14.73584391825,2,0,0.2179784859818072,6.471727472068782,1.082171667519454,-4.479850822513242e-06,2.053514512183465e-05,8.657373340155634e-06,2.567845573805526e-05,2.848500560630619e-05
0.26415608175,12.76415608175,2,0,-0.2711140050717835,6.65000188374972,0.4562647903384716,-6.187566323229482e-06,2.149689723205653e-05,3.650118322707772e-06,2.476799796462119e-05,3.303414349988126e-05
0.9858439182500001,12.76415608175,2,0,-0.01220583343890214,7.685634570281246,0.5282216232771022,-6.187566323229482e-06,2.460379529165111e-05,4.225772986216818e-06,2.952762179701005e-05,3.435518894853316e-05
0.26415608175,13.48584391825,2,0,-0.079229117235462,6.6979731057088,0.8446270477877922,-5.611911659720518e-06,2.149689723205653e-05,6.757016382302338e-06,2.558749847134267e-05,3.071289329757454e-05
0.9858439182500001,13.48584391825,2,0,0.1796790543974194,7.733605792240326,0.9165838807264178,-5.611911659720518e-06,2.460379529165111e-05,7.332671045811342e-06,3.035302312688262e-05,3.219009583853036e-05
1.51415608175,12.76415608175,2,0,-0.4124939956789442,8.347595506612016,1.573941838305798,-7.998057191462233e-06,2.70423008177016e-05,1.259153470644639e-05,3.109131973737392e-05,3.587085310467121e-05
2.23584391825,12.76415608175,2,0,-0.1162254179792717,9.532669817410707,1.617586055659077,-7.998057191462233e-06,3.059752375009767e-05,1.294068844527261e-05,3.650625878979618e-05,3.869067913797552e-05
1.51415608175,13.48584391825,2,0,-0.2961094160701832,8.376691651514189,2.018344704855297,-7.648903452635937e-06,2.704230081770155e-05,1.614675763884237e-05,3.170164874723945e-05,3.388228795692479e-05
2.23584391825,13.48584391825,2,0,0.0001591616294951415,9.561765962312903,2.061988922208594,-7.648903452635937e-06,3.059752375009769e-05,1.649591137766875e-05,3.710462913890727e-05,3.70282402597867e-05
1.51415608175,14.01415608175,2,0,-0.4941333711494369,7.226908099380468,1.7539267003796,-7.362753267182572e-06,2.352141261493704e-05,1.40314136030368e-05,2.665641174912413e-05,3.246486788653802e-05
2.23584391825,14.01415608175,2,0,-0.1345387931823541,8.6652864112488,1.808004588687191,-7.362753267182572e-06,2.783654755054204e-05,1.446403670949753e-05,3.320168167852031e-05,3.589695867297274e-05
1.51415608175,14.73584391825,2,0,-0.3499256689958792,7.262960024918858,2.293318567330223,-6.930130160721898e-06,2.352141261493704e-05,1.834654853864179e-05,2.745835564079043e-05,3.05809693861553e-05
2.23584391825,14.73584391825,2,0,0.009668908971204981,8.701338336787193,2.347396455637813,-6.930130160721898e-06,2.783654755054205e-05,1.87791716451025e-05,3.397645876361382e-05,3.446867877818726e-05
0.26415608175,11.51415608175,2,0,-0.2263933338003663,7.954297661269008,0.4031160509056196,-7.087896797176377e-06,2.563486718310112e-05,3.224928407244957e-06,2.990330177217637e-05,3.693962858293079e-05
0.9858439182500001,11.51415608175,2,0,-0.008729854807734139,8.824951577239537,0.4662212319478192,-7.087896797176377e-06,2.82468289310127e-05,3.729769855582554e-06,3.390686687264171e-05,3.805700585380386e-05
0.26415608175,12.23584391825,2,0,-0.05811285102118102,7.996367781963804,0.7296112693945639,-6.583055348838822e-06,2.563486718310112e-05,5.836890155156511e-06,3.060787328980208e-05,3.470259219102291e-05
0.9858439182500001,12.23584391825,2,0,0.1595506279714511,8.867021697934334,0.7927164504367669,-6.583055348838822e-06,2.82468289310127e-05,6.341731603494135e-06,3.461678539846655e-05,3.592722274914284e-05
0.26415608175,10.26415608175,2,0,-0.1925846165275726,9.102713008957229,0.3657324952734794,-7.898441180054015e-06,2.928274932188519e-05,2.925859962187835e-06,3.441246682010182e-05,4.072427438716337e-05
0.9858439182500001,10.26415608175,2,0,-0.001747340490092952,9.866062113107148,0.42299347173336,-7.898441180054015e-06,3.157279663433494e-05,3.38394777386688e-06,3.792355230681717e-05,4.170184000565958e-05
0.26415608175,10.98584391825,2,0,-0.03988867930119033,9.140886993263825,0.6519884093296751,-7.440353368374868e-06,2.928274932188519e-05,5.2159072746374e-06,3.504466275770942e-05,3.855313346441328e-05
0.9858439182500001,10.98584391825,2,0,0.1509485967362894,9.904236097413744,0.7092493857895624,-7.440353368374868e-06,3.157279663433494e-05,5.673995086316499e-06,3.85601780017296e-05,3.960430988423819e-05
1.51415608175,10.26415608175,2,0,-0.2449876353747547,10.35166064379593,1.332462525785247,-9.065288948235959e-06,3.332130416844678e-05,1.065970020628197e-05,3.918384215513918e-05,4.281362830450575e-05
2.23584391825,10.26415608175,2,0,-0.03774062634444153,11.18064867991718,1.369066510912442,-9.065288948235959e-06,3.580826827681054e-05,1.095253208729954e-05,4.298832205291114e-05,4.487352480584696e-05
1.51415608175,10.98584391825,2,0,-0.1473770083689381,10.37606330054735,1.643333039330716,-8.772457067218482e-06,3.332130416844667e-05,1.314666431464573e-05,3.964225676230389e-05,4.080592604429337e-05
2.23584391825,10.98584391825,2,0,0.05987000066138437,11.20505133666864,1.679937024457905,-8.772457067218482e-06,3.580826827681054e-05,1.343949619566324e-05,4.344497631839845e-05,4.303762602507462e-05
1.51415608175,11.51415608175,2,0,-0.3267361291428048,9.382156696841475,1.427976203659379,-8.551280970730155e-06,3.028429033320696e-05,1.142380962927503e-05,3.525317654396739e-05,3.933726474888523e-05
2.23584391825,11.51415608175,2,0,-0.08052893567780695,10.36698547070147,1.466905260163642,-8.551280970730155e-06,3.323877665478693e-05,1.173524208130914e-05,3.976513326279901e-05,4.171761982636517e-05
1.51415608175,12.23584391825,2,0,-0.2229253117981203,9.408109401177596,1.797286993856878,-8.239848518696062e-06,3.02842903332068e-05,1.437829595085503e-05,3.576490449137462e-05,3.733250973076204e-05
2.23584391825,12.23584391825,2,0,0.02328188166689094,10.39293817503764,1.836216050361135,-8.239848518696062e-06,3.323877665478693e-05,1.468972840288908e-05,4.027197751440656e-05,3.994719460580412e-05
0.26415608175,9.01415608175,2,0,-0.1673271155694613,10.15349264482823,0.3477751364191084,-8.658240885684857e-06,3.262503815590589e-05,2.782201091352867e-06,3.852373656115908e-05,4.447731544113227e-05
0.9858439182500001,9.01415608175,2,0,0.00653727559828976,10.84895020949923,0.4019586025323476,-8.658240885684857e-06,3.471141084991891e-05,3.215668820258781e-06,4.172309986623878e-05,4.535702885406538e-05
0.26415608175,9.735843918250001,2,0,-0.02283787260084358,10.18961495557038,0.6085717231707504,-8.224773156779004e-06,3.262503815590589e-05,4.868573785366003e-06,3.911799778926291e-05,4.231165416359084e-05
0.9858439182500001,9.735843918250001,2,0,0.1510265185669075,10.88507252024139,0.6627551892839795,-8.224773156779004e-06,3.471141084991891e-05,5.302041514271836e-06,4.232112193368489e-05,4.324327640786001e-05
0.26415608175,7.76415608175,2,0,-0.14768933568556,11.16570817270596,0.3530826559437552,-9.405172412358562e-06,3.584841762120753e-05,2.824661247550041e-06,4.247183369603435e-05,4.834710402072984e-05
0.9858439182500001,7.76415608175,2,0,0.01562320366374959,11.81895833010318,0.4069132183693561,-9.405172412358542e-06,3.780816809339916e-05,3.255305746954849e-06,4.54775100609256e-05,4.915257493535951e-05
0.26415608175,8.485843918250001,2,0,-0.004141169217324769,11.20159521432302,0.5980514649677076,-8.974527912953856e-06,3.584841762120753e-05,4.784411719741661e-06,4.305984368496886e-05,4.609450935626087e-05
0.9858439182500001,8.485843918250001,2,0,0.1591713701319781,11.85484537172023,0.6518820273933068,-8.974527912953856e-06,3.780816809339916e-05,5.215056219146454e-06,4.606888853947588e-05,4.694042062229402e-05
1.51415608175,7.76415608175,2,0,-0.07953587146924779,12.22210385887997,1.332066204412683,-1.003219787580557e-05,3.917436104559129e-05,1.065652963530146e-05,4.684623214301772e-05,5.003511898745498e-05
2.23584391825,7.764156081749999,2,0,0.06819396905563746,12.81302322097952,1.36606569224535,-1.003219787580557e-05,4.094711913188994e-05,1.09285255379628e-05,4.956369341814851e-05,5.164080326317035e-05
1.51415608175,8.485843918250001,2,0,0.01112942941785011,12.24477018410172,1.553660965200009,-9.760201973144252e-06,3.917436104559121e-05,1.242928772160007e-05,4.724905567867994e-05,4.788076217902632e-05
2.23584391825,8.485843918250001,2,0,0.1588592699427442,12.83568954620129,1.587660453032681,-9.760201973144252e-06,4.094711913188994e-05,1.270128362426145e-05,4.996665426358333e-05,4.960391182256347e-05
1.51415608175,9.01415608175,2,0,-0.1652238729248419,11.28595668668326,1.296824246682606,-9.557481742706101e-06,3.62472404957263e-05,1.037459397346085e-05,4.299429901460979e-05,4.634333786368307e-05
2.23584391825,9.01415608175,2,0,0.01057545459863007,11.98915399677715,1.332055005012755,-9.557481742706101e-06,3.835683242600796e-05,1.065644004010204e-05,4.622523033910371e-05,4.815827077710299e-05
1.51415608175,9.735843918250001,2,0,-0.07127518404441302,11.30944385890337,1.560523237967797,-9.275635676064814e-06,3.62472404957263e-05,1.248418590374238e-05,4.342099839335127e-05,4.429737332962359e-05
2.23584391825,9.735843918250001,2,0,0.1045241434790602,12.01264116899726,1.595753996297955,-9.275635676064814e-06,3.835683242600798e-05,1.276603197038364e-05,4.665151815363656e-05,4.624559743183693e-05
0.26415608175,6.514156081750002,2,0,-0.1305378302440636,12.20436851145167,0.3886909057189452,-1.018121586594234e-05,3.915840950084059e-05,3.109527245751561e-06,4.651580881752689e-05,5.25403226903705e-05
0.9858439182500001,6.514156081750002,2,0,0.02574998568150422,12.82951977515393,0.4452799546032125,-1.018121586594233e-05,4.103386329194735e-05,3.5622396368257e-06,4.939281869818584e-05,5.327589632661498e-05
0.26415608175,7.235843918250001,2,0,0.02036630011399643,12.24209454404119,0.6231226296072784,-9.728503474868159e-06,3.915840950084059e-05,4.984981036858227e-06,4.713235515855645e-05,5.007425449811252e-05
0.9858439182500001,7.235843918250001,2,0,0.1766541160395687,12.86724580774344,0.6797116784915542,-9.728503474868132e-06,4.103386329194735e-05,5.437693427932434e-06,5.0012568805112e-05,5.085016053394648e-05
0.26415608175,5.264156081750004,2,0,-0.1072009462061918,13.3529284102091,0.4702691133056303,-1.102538575602709e-05,4.281513166963407e-05,3.762152906445042e-06,5.100328171049696e-05,5.733729439902527e-05
0.9858439182500001,5.264156081750004,2,0,0.04216767321680992,13.95040288790111,0.5323530295782346,-1.102538575602709e-05,4.46075551027101e-05,4.258824236625877e-06,5.375392781295976e-05,5.797966839062901e-05
0.26415608175,5.985843918250002,2,0,0.05835616385408215,13.39431768772417,0.69432204244014,-1.052871442584627e-05,4.281513166963407e-05,5.554576339521119e-06,5.167877939502991e-05,5.448644836635452e-05
0.9858439182500001,5.985843918250002,2,0,0.2077247832770839,13.99179216541618,0.7564059587127425,-1.052871442584627e-05,4.46075551027101e-05,6.05124766970194e-06,5.443254650928785e-05,5.518624219918495e-05
1.514156081750001,5.264156081750005,2,0,0.185752961656787,14.29774363003931,1.713116789912319,-1.084378542672973e-05,4.560417724680036e-05,1.370493431929855e-05,5.567398329056434e-05,5.861340227121308e-05
2.235843918250003,5.264156081750005,2,0,0.2632862033769845,14.6078765969201,1.738302616500917,-1.084378542672973e-05,4.653457614744273e-05,1.390642093200733e-05,5.710277007082704e-05,5.97024214399164e-05
1.51415608175,5.985843918250003,2,0,0.2529151658930289,14.31453418109836,1.829416652492621,-1.0642298814021e-05,4.560417724680033e-05,1.463533321994096e-05,5.596556917142949e-05,5.590810394715962e-05
2.235843918250001,5.985843918250003,2,0,0.3304484076132361,14.62466714797916,1.854602479081208,-1.064229881402097e-05,4.653457614744271e-05,1.483681983264966e-05,5.739455348848542e-05,5.718047308592032e-05
1.51415608175,6.514156081750001,2,0,0.02772010898753852,13.20618555672447,1.458011930130969,-1.047624409661945e-05,4.223761769432826e-05,1.166409544104775e-05,5.096452080824806e-05,5.405268391231791e-05
2.23584391825,6.514156081750001,2,0,0.1454921420019075,13.67727368878193,1.489534844141972,-1.047624409661944e-05,4.365088209050066e-05,1.191627875313578e-05,5.313266958089753e-05,5.543933342699284e-05
1.51415608175,7.235843918250001,2,0,0.1117812130168696,13.22720083273177,1.634669979652518,-1.022406078453144e-05,4.223761769432818e-05,1.307735983722014e-05,5.13329549304776e-05,5.168888043158709e-05
2.23584391825,7.23584391825,2,0,0.2295532460312399,13.69828896478926,1.666192893663526,-1.022406078453144e-05,4.365088209050062e-05,1.332954314930821e-05,5.350138392111507e-05,5.320439976952366e-05
0.26415608175,4.014156081750001,2,0,-0.07404724234599147,14.73883811898993,0.6321887941755817,-1.202802167069912e-05,4.722351977464457e-05,5.057510353404654e-06,5.643780382252897e-05,6.311745260833227e-05
0.9858439182500001,4.014156081750002,2,0,0.06094104708716941,15.27879127672254,0.7073010128280914,-1.202802167069909e-05,4.884337924784239e-05,5.658408102624732e-06,5.892576107163562e-05,6.357991400918904e-05
0.26415608175,4.735843918250004,2,0,0.1262520073940272,14.78891293142494,0.8346712283253115,-1.142712392147906e-05,4.722351977464457e-05,6.677369826602492e-06,5.725303323444803e-05,5.964996501546082e-05
0.9858439182500001,4.735843918250005,2,0,0.2612402968271881,15.32886608915755,0.9097834469778086,-1.142712392147903e-05,4.884337924784239e-05,7.278267575822468e-06,5.974415700914024e-05,6.022874597358149e-05
0.26415608175,2.76415608175,2,0,0.1200976757919037,16.62988605607278,0.9995430415011268,-1.291959628232413e-05,5.311955723879938e-05,7.996344332009014e-06,6.431945338751006e-05,7.03170790774805e-05
0.9858439182500001,2.76415608175,2,0,0.2076998205891032,16.98029463526157,1.061001522479033,-1.291959628232412e-05,5.417078297636574e-05,8.488012179832261e-06,6.593716898515434e-05,7.03884254603964e-05
0.26415608175,3.485843918250001,2,0,0.2839869583996508,16.67085837672472,1.130946258696919,-1.242792843450089e-05,5.311955723879938e-05,9.04757006957535e-06,6.498869686394206e-05,6.597569720673216e-05
0.9858439182500001,3.485843918250001,2,0,0.3715891031968521,17.02126695591351,1.192404739674831,-1.242792843450088e-05,5.417078297636574e-05,9.53923791739865e-06,6.660784323135962e-05,6.630219192295541e-05
1.514156081750001,2.764156081750001,2,0,1.049633786547491,17.14576151445725,3.004067033748011,-1.035778109461382e-05,5.402672981702519e-05,2.403253626998408e-05,6.951813533241205e-05,7.028191653759951e-05
2.235843918250004,2.764156081750001,2,0,0.929234929223135,16.66416608515982,2.9516248477816,-1.035778109461382e-05,5.258194352913291e-05,2.36129987822528e-05,6.729379411397619e-05,6.991958236613071e-05
1.514156081750001,3.485843918250002,2,0,0.9097879573037178,17.11080005714631,2.823468747761479,-1.077731858234515e-05,5.402672981702521e-05,2.258774998209183e-05,6.890539703477609e-05,6.651429157143064e-05
2.235843918250004,3.485843918250003,2,0,0.7893890999793589,16.62920462784888,2.771026561795065,-1.077731858234515e-05,5.258194352913291e-05,2.216821249436052e-05,6.668137956026944e-05,6.676726387113384e-05
1.514156081750001,4.014156081750004,2,0,0.4805836786629607,15.58240941934238,2.179965420949908,-1.092805976375243e-05,4.947924319896523e-05,1.743972336759927e-05,6.158880531136309e-05,6.396627311293911e-05
2.235843918250004,4.014156081750004,2,0,0.4903631076667212,15.62152713535742,2.180928536114431,-1.092805976375243e-05,4.959659634701036e-05,1.744742828891545e-05,6.176862345498308e-05,6.455936441353922e-05
1.514156081750001,4.735843918250005,2,0,0.4831519857683539,15.58305149611871,2.194634564455543,-1.092035484243623e-05,4.947924319896518e-05,1.755707651564435e-05,6.160238616089391e-05,6.077258219158987e-05
2.235843918250004,4.735843918250005,2,0,0.4929314147721153,15.62216921213377,2.195597679620068,-1.092035484243625e-05,4.959659634701037e-05,1.756478143696055e-05,6.178219844776411e-05,6.167958941212737e-05
0.26415608175,1.51415608175,2,0,0.2912261917935961,19.65825108231261,1.894219903699147,-1.479467705211058e-05,6.267342250996546e-05,1.515375922959317e-05,7.657587453717443e-05,7.936198529264257e-05
0.9858439182500001,1.51415608175,2,0,0.1600957860290055,19.13372945925425,2.049333952327919,-1.479467705211058e-05,6.109985764079038e-05,1.639467161862335e-05,7.419180061750912e-05,7.799216272682414e-05
0.26415608175,2.23584391825,2,0,0.7048636548036606,19.76166044806513,1.697524295052261,-1.355376466308038e-05,6.267342250996546e-05,1.358019436041809e-05,7.820757229905966e-05,7.390392415963893e-05
0.9858439182500001,2.23584391825,2,0,0.5737332490390701,19.23713882500676,1.852638343681035,-1.355376466308038e-05,6.109985764079038e-05,1.482110674944828e-05,7.581631917390758e-05,7.352074369673894e-05
0.26415608175,0.26415608175,2,0,5.751367261145092,27.03355409957977,6.163226909737931,-3.222468043999524e-06,8.190627930973919e-05,4.930581527790345e-05,0.0001229977648354658,8.666683136314887e-05
0.9858439182500001,0.26415608175,2,0,4.343134589964597,21.40062341485779,5.062733606944418,-3.222468043999524e-06,6.500748725557326e-05,4.050186885555534e-05,9.675166808802556e-05,8.341712379596521e-05
0.26415608175,0.9858439182500001,2,0,2.816718453695725,26.29989189771743,4.050877902967187,-1.202641446634763e-05,8.190627930973919e-05,3.24070232237375e-05,0.0001102530330724587,8.278179597078999e-05
0.9858439182500001,0.9858439182500001,2,0,1.40848578251523,20.66696121299545,2.950384600173676,-1.202641446634763e-05,6.500748725557326e-05,2.360307680138941e-05,8.407269395097861e-05,8.064388978232072e-05
1.51415608175,0.26415608175,2,0,4.420739168168401,19.00134830167542,5.106962231659061,-1.054713303201451e-06,5.726772323082661e-05,4.085569785327249e-05,8.794628163566507e-05,8.107774261341374e-05
2.23584391825,0.26415608175,2,0,4.066852793090511,17.58580280136386,4.746770940173104,-1.054713303201451e-06,5.302108672989194e-05,3.797416752138482e-05,8.132247439018728e-05,7.793614193132449e-05
1.51415608175,0.9858439182500001,2,0,3.460229057539179,18.76122077401811,4.576132669042229,-3.936243635089118e-06,5.726772323082661e-05,3.660906135233783e-05,8.374988585503501e-05,7.89825252134415e-05
2.23584391825,0.9858439182500001,2,0,3.10634268246129,17.34567527370656,4.21594137755627,-3.936243635089118e-06,5.302108672989194e-05,3.372753102045016e-05,7.712847931801194e-05,7.658149898964496e-05
1.51415608175,1.51415608175,2,0,2.868229520871421,19.08872932491327,4.562847910062946,-6.092648993142073e-06,5.878935022302534e-05,3.650278328050357e-05,8.3098849801112e-05,7.683045989651964e-05
2.235843918250001,1.51415608175,2,0,2.473324621897075,17.50910972901589,4.186613076528293,-6.092648993142073e-06,5.405049143533318e-05,3.349290461222634e-05,7.572360805646771e-05,7.502645130651468e-05
1.514156081750001,2.23584391825,2,0,1.864936631445678,18.83790610255684,3.970490561601426,-9.102527661419301e-06,5.878935022302533e-05,3.176392449281141e-05,7.878824045005116e-05,7.30461255092046e-05
2.235843918250003,2.23584391825,2,0,1.470031732471332,17.25828650665946,3.594255728066771,-9.102527661419301e-06,5.405049143533318e-05,2.875404582453417e-05,7.142427779407076e-05,7.213262496950939e-05
2.76415608175,21.51415608175,2,0,2.313046163244918,1.00472816890553,0.9921047519940289,6.597965187259311e-06,1.364693209901762e-06,7.936838015952231e-06,1.241193467338064e-05,5.982979378318537e-05
3.48584391825,21.51415608175,2,0,2.051074089129058,-0.04316012755790677,-1.139341573951153,6.597965187259311e-06,-1.778971679488548e-06,-9.114732591609224e-06,8.245427664762476e-06,9.741788051520816e-05
2.76415608175,22.23584391825,2,0,-3.37081070594221,-0.4162360483912687,0.5991466408202605,-1.045360542030206e-05,1.364693209901708e-06,4.793173126562084e-06,6.914858117647712e-07,6.104693226597252e-05
3.48584391825,22.23584391825,2,0.01013244039410266,-3.595973825074404,-1.449289192200893,-1.516773749899496,-1.045360542030206e-05,-1.778971679488548e-06,-1.225839748099941e-05,7.509833320365395e-07,0.0001009842483149734
2.76415608175,20.26415608175,2,0,2.279209232278655,2.664696273056896,2.397970153590171,5.161712524846179e-06,6.703660687959142e-06,1.918376122872137e-05,1.894534749973879e-05,5.195069120482289e-05
3.48584391825,20.26415608175,2,0,3.176577375758483,6.254168846976206,3.100515715495242,5.161712524846179e-06,1.747207840971707e-05,2.480412572396194e-05,3.53327267725079e-05,7.597867436688269e-05
2.76415608175,20.98584391825,2,0,4.152664064025536,3.13305998099365,3.744022368809913,1.078207702008679e-05,6.703660687959251e-06,2.99521789504793e-05,2.811048801693906e-05,5.739246333676736e-05
3.48584391825,20.98584391825,2,0,5.050032207505359,6.722532554912942,4.44656793071498,1.078207702008679e-05,1.747207840971713e-05,3.557254344571984e-05,4.423708740815333e-05,9.071765716974906e-05
4.01415608175,20.26415608175,2,0,1.984715096859124,10.89561099118892,4.827222248665495,-2.36540048300194e-06,3.327818309431724e-05,3.861777798932396e-05,4.960352472567836e-05,9.717948272025388e-05
4.735843918250001,20.26415608175,2,0.2463972148466202,3.531335206310764,16.35355631523482,3.983754531559952,-2.36540048300194e-06,6.569284644247547e-05,4.229023151233863e-05,9.906935123404434e-05,0.0001310731851435973
4.01415608175,20.98584391825,2,0.1789304943719451,2.634702242918555,9.197332229933036,7.290321436565067,1.307053040012791e-06,3.327818309431714e-05,7.103244133748246e-05,5.771354181727791e-05,0.0001207936545493824
4.735843918250001,20.98584391825,2,0.4265398958949409,3.3891998041205,12.61987075098629,5.355034597982278,1.307053040012791e-06,6.569284644247561e-05,7.470489486049721e-05,0.0001060134809160044,0.0001696376136493608
4.01415608175,21.51415608175,2,0.2849951018921718,3.292631563032289,7.639302097795123,5.608221938359401,6.188739874618182e-06,3.050561124859482e-05,6.274890651183918e-05,5.940559419906073e-05,0.000137782367140552
4.735843918250001,21.51415608175,2,0.5452102735340686,5.556293296744885,18.70695404354653,4.116612745347992,6.188739874618182e-06,0.0001218523970024295,7.241346944817357e-05,0.0001983853689716256,0.0002104721086950914
4.01415608175,22.23584391825,2,0.3920262286212315,4.758348392846707,6.985403197906275,11.71076739749796,1.585330281095253e-05,3.050561124859472e-05,0.0001540956922656735,8.471058931301272e-05,0.0001605822212676573
4.735843918250001,22.23584391825,2,0.6719408441545746,5.064839920704223,13.75833326091315,6.715381385325267,1.585330281095253e-05,0.0001218523970024296,0.0001637602552020078,0.0002171993452539419,0.0002834695953604268
2.76415608175,19.01415608175,2,0,0.735734568891521,5.323323653077357,3.010850190845981,-1.904308302009018e-06,1.644604803473432e-05,2.408680152676785e-05,2.395907546429284e-05,4.359973373166482e-05
3.48584391825,19.01415608175,2,0,1.516620500134999,8.44686737805127,3.469189456475407,-1.904308302009018e-06,2.581667920965606e-05,2.775351565180326e-05,3.822485111302814e-05,5.792153599983446e-05
2.76415608175,19.73584391825,2,0,1.957972610569968,5.628883163496935,4.182179087711181,1.762405823026349e-06,1.644604803473422e-05,3.345743270168945e-05,2.983608080963396e-05,4.825494044582984e-05
3.48584391825,19.73584391825,2,0,2.738858541813451,8.752426888470865,4.640518353340607,1.762405823026349e-06,2.5816679209656e-05,3.712414682672486e-05,4.398590013451618e-05,6.719098018480432e-05
2.764156081750003,17.76415608175,2,0,-0.2093272088416507,6.926701597486209,3.052076736271994,-6.211208346282249e-06,2.233290687902919e-05,2.441661389017595e-05,2.706452241111042e-05,3.854272707146531e-05
3.485843918250001,17.76415608175,2,0,0.4048591730944748,9.383447125230711,3.323373807136505,-6.211208346282249e-06,2.97031434622627e-05,2.658699045709204e-05,3.821032562485575e-05,4.785444269955628e-05
2.764156081750001,18.48584391825,2,0,0.5141316467970674,7.107566311395907,3.973356309176192,-4.040831779366109e-06,2.233290687902924e-05,3.178685047340954e-05,3.053795373640109e-05,4.099735400136609e-05
3.485843918250001,18.48584391825,2,0,1.128318028733182,9.564311839140364,4.24465338004072,-4.040831779366109e-06,2.970314346226261e-05,3.395722704032576e-05,4.16349667038856e-05,5.274032639640936e-05
4.01415608175,17.76415608175,2,0,-0.4374582547762778,10.80727622954642,3.584916661875936,-1.004568739892123e-05,3.493325053836958e-05,2.867933329500749e-05,4.119056328787215e-05,5.506429002471522e-05
4.735843918250001,17.76415608175,2,0,0.1390985517506786,13.11350345565425,3.8027333060554,-1.004568739892123e-05,4.185193221669306e-05,3.04218664484432e-05,5.169516933971657e-05,6.545024360461049e-05
4.01415608175,18.48584391825,2,0,0.1433861297022703,10.95248732566606,4.449751871666392,-8.303154245485584e-06,3.493325053836958e-05,3.559801497333114e-05,4.394300713872225e-05,6.210314917248976e-05
4.735843918250001,18.48584391825,2,0,0.71994293622922,13.25871455177386,4.667568515845838,-8.303154245485584e-06,4.185193221669298e-05,3.73405481267667e-05,5.442393703958789e-05,7.593988430504872e-05
4.01415608175,19.01415608175,2,0,0.4896449858330594,10.49532807687855,3.811466255345471,-6.829398506837052e-06,3.319333385734492e-05,3.049173004276377e-05,4.290064172803372e-05,6.972103170245055e-05
4.735843918250001,19.01415608175,2,0,1.388208661942272,14.08958278131541,4.096946555679184,-6.829398506837052e-06,4.397609797065547e-05,3.277557244543347e-05,5.933265099242711e-05,8.763605119888927e-05
4.01415608175,19.73584391825,2,0,1.25092578672293,10.68564827710105,5.15931176950928,-4.545556104167467e-06,3.319333385734503e-05,4.127449415607424e-05,4.676027259030653e-05,8.34946146735051e-05
4.735843918250001,19.73584391825,2,0.08671488147406314,1.963096738832883,13.04162288703263,4.972647570855627,-4.545556104167467e-06,4.397609797065528e-05,4.355833655874384e-05,6.308399291974067e-05,0.000109100932707587
2.764156081750001,16.51415608175,2,0,-0.6502099901950191,7.95719260010649,2.961087222598186,-8.446426048709252e-06,2.598318431249678e-05,2.368869778078548e-05,2.956281878349606e-05,3.668862475080353e-05
3.485843918250001,16.51415608175,2,0,-0.1425085062507065,9.98799853588374,3.092930007074957,-8.446426048709252e-06,3.207560211982853e-05,2.474344005659966e-05,3.872591782276205e-05,4.330990744118482e-05
2.764156081750003,17.23584391825,2,0,-0.2986292315903287,8.045087789757646,3.722639448514642,-7.391683772895168e-06,2.598318431249673e-05,2.978111558811714e-05,3.139740702282268e-05,3.738820654840864e-05
3.485843918250001,17.23584391825,2,0,0.2090722523539772,10.07589372553487,3.854482232991407,-7.391683772895168e-06,3.20756021198284e-05,3.083585786393126e-05,4.051202964663886e-05,4.532756955629535e-05
2.76415608175,15.26415608175,2,0,-0.7633649580866528,8.764748973198955,2.784818482934232,-9.454567044436452e-06,2.865788868070598e-05,2.227854786347386e-05,3.216029722731828e-05,3.701665487111431e-05
3.48584391825,15.26415608175,2,0,-0.3379447164757896,10.46642993964241,2.841742619066147,-9.454567044436452e-06,3.376293158003633e-05,2.273394095252918e-05,3.983766420595957e-05,4.207007879195795e-05
2.76415608175,15.98584391825,2,0,-0.6115672617349022,8.802698397286893,3.422948845350525,-8.9991739553812e-06,2.865788868070598e-05,2.73835907628042e-05,3.310184854104343e-05,3.658906777892918e-05
3.48584391825,15.98584391825,2,0,-0.1861470201240403,10.50437936373034,3.479872981482437,-8.9991739553812e-06,3.376293158003632e-05,2.783898385185949e-05,4.073589232046829e-05,4.243706542155594e-05
4.01415608175,15.26415608175,2,0,-0.9742421606648333,11.41721771503752,3.189996281634969,-1.225134908615748e-05,3.731449041665194e-05,2.551997025307975e-05,4.173476433187532e-05,4.577936326400205e-05
4.735843918250001,15.26415608175,2,0,-0.5910758032659675,12.94988314463299,3.218296692231535,-1.225134908615748e-05,4.191248670543832e-05,2.574637353785228e-05,4.865563115606556e-05,5.085989298094005e-05
4.01415608175,15.98584391825,2,0,-0.8987743990739592,11.43608465543526,3.764745817733242,-1.202494580138488e-05,3.731449041665199e-05,3.011796654186594e-05,4.231010312230013e-05,4.675530558879698e-05
4.735843918250001,15.98584391825,2,0,-0.5156080416751054,12.96875008503067,3.793046228329822,-1.202494580138488e-05,4.191248670543824e-05,3.034436982663857e-05,4.920095030219653e-05,5.270495948285906e-05
4.01415608175,16.51415608175,2,0,-0.8653408608851731,11.13377117604856,3.378010773640136,-1.16761076956714e-05,3.632034045206352e-05,2.702408618912108e-05,4.107060294504324e-05,4.824847323845322e-05
4.735843918250001,16.51415608175,2,0,-0.4066389457465993,12.96857883660285,3.468840791601786,-1.16761076956714e-05,4.18247634337264e-05,2.775072633281428e-05,4.937436406694885e-05,5.51196032233047e-05
4.01415608175,17.23584391825,2,0,-0.623127479654086,11.19432452135635,4.066063646347989,-1.094946755197815e-05,3.632034045206357e-05,3.252850917078392e-05,4.236768210678845e-05,5.135194079691076e-05
4.735843918250001,17.23584391825,2,0,-0.1644255645155237,13.0291321819106,4.156893664309639,-1.094946755197815e-05,4.182476343372632e-05,3.325514931447712e-05,5.064158668525216e-05,5.987146610274181e-05
2.76415608175,14.01415608175,2,0,-0.7124624502932404,9.504262689296386,2.573598953068522,-9.883289992375477e-06,3.098361056598302e-05,2.058879162454818e-05,3.498852154821491e-05,3.863312666318844e-05
3.48584391825,14.01415608175,2,0,-0.3555623571627438,10.93186306181837,2.597577049295817,-9.883289992375477e-06,3.526641168354898e-05,2.078061639436654e-05,4.144872886337548e-05,4.267638584438442e-05
2.76415608175,14.73584391825,2,0,-0.6485208603537784,9.520248086781235,3.108949092764278,-9.691465222557078e-06,3.098361056598297e-05,2.487159274211422e-05,3.549531294199206e-05,3.756435879841619e-05
3.48584391825,14.73584391825,2,0,-0.2916207672232809,10.94784845930323,3.132927188991562,-9.691465222557078e-06,3.526641168354894e-05,2.50634175119325e-05,4.192465632483456e-05,4.213420450598512e-05
2.76415608175,12.76415608175,2,0,-0.5926921032275043,10.22928906370087,2.372686663492875,-1.008004598128871e-05,3.320787868642478e-05,1.8981493307943e-05,3.799843624510296e-05,4.09456502848742e-05
3.48584391825,12.76415608175,2,0,-0.2946588215824324,11.42142219028116,2.384266174545393,-1.008004598128871e-05,3.678427806616564e-05,1.907412939636315e-05,4.341294020698542e-05,4.428651999476086e-05
2.76415608175,13.48584391825,2,0,-0.5618134070874823,10.23700873773586,2.819736585960487,-9.987409892868627e-06,3.320787868642472e-05,2.25578926876839e-05,3.830406442780712e-05,3.953914098633089e-05
3.48584391825,13.48584391825,2,0,-0.2637801254424073,11.42914186431616,2.831316097012992,-9.987409892868627e-06,3.678427806616563e-05,2.265052877610394e-05,4.369937831751873e-05,4.325309704144092e-05
4.01415608175,12.76415608175,2,0,-0.7451894468253673,12.09480020661342,2.856736235066669,-1.206044639513191e-05,3.929951221862322e-05,2.285388988053335e-05,4.481843582580577e-05,4.673916505388423e-05
4.735843918250001,12.76415608175,2,0,-0.4705771036588549,13.19324957927947,2.838777713424117,-1.206044639513191e-05,4.259486033662137e-05,2.271022170739294e-05,4.979097614550753e-05,5.009904625874029e-05
4.01415608175,13.48584391825,2,0,-0.7930788378721565,12.08282785885172,3.26865474981642,-1.220411456827228e-05,3.929951221862322e-05,2.614923799853136e-05,4.480590682663963e-05,4.597392294113002e-05
4.735843918250001,13.48584391825,2,0,-0.518466494705649,13.18127723151775,3.250696228173873,-1.220411456827228e-05,4.259486033662131e-05,2.600556982539098e-05,4.975944199074114e-05,4.96934014828359e-05
4.01415608175,14.01415608175,2,0,-0.9030850755771684,11.72901242349736,3.012829024706461,-1.227308218064483e-05,3.825530781565329e-05,2.410263219765169e-05,4.303839490768849e-05,4.56364118721283e-05
4.735843918250001,14.01415608175,2,0,-0.5795004943908402,13.02335074824268,3.007234668713215,-1.227308218064483e-05,4.213832278988923e-05,2.405787734970572e-05,4.88855584278075e-05,4.96800941907987e-05
4.01415608175,14.73584391825,2,0,-0.9180033582258682,11.72528285283517,3.49820589648597,-1.231783702859091e-05,3.825530781565323e-05,2.798564717188776e-05,4.320402913111605e-05,4.547955659621375e-05
4.735843918250001,14.73584391825,2,0,-0.5944187770395399,13.01962117758048,3.492611540492704,-1.231783702859091e-05,4.213832278988917e-05,2.794089232394163e-05,4.902549608305654e-05,5.004938276874477e-05
2.76415608175,11.51415608175,2,0,-0.4497042117491308,10.95347338249479,2.213692784075616,-1.020183218359305e-05,3.541087819338264e-05,1.770954227260493e-05,4.111479368023828e-05,4.362357505879072e-05
3.48584391825,11.51415608175,2,0,-0.201387091639615,11.94674186293286,2.221734274409024,-1.020183218359305e-05,3.839068363469683e-05,1.77738741952722e-05,4.564061786182465e-05,4.645038651347051e-05
2.76415608175,12.23584391825,2,0,-0.4282602375267039,10.9588343760504,2.586168464239892,-1.013750026092577e-05,3.541087819338264e-05,2.068934771391913e-05,4.133209502160827e-05,4.204007109609391e-05
3.48584391825,12.23584391825,2,0,-0.1799431174171935,11.95210285648844,2.594209954573295,-1.013750026092577e-05,3.839068363469676e-05,2.075367963658636e-05,4.584672255642745e-05,4.514323112673305e-05
2.76415608175,10.26415608175,2,0,-0.2983409782867845,11.68236693706628,2.116501533765875,-1.030058468017073e-05,3.762224698124152e-05,1.693201227012701e-05,4.431137213964277e-05,4.651787191589229e-05
3.48584391825,10.26415608175,2,0,-0.09259782193677069,12.50533956246633,2.123383303533902,-1.030058468017073e-05,4.009116485744168e-05,1.698706642827121e-05,4.807038244353086e-05,4.895041526466491e-05
2.76415608175,10.98584391825,2,0,-0.2799895922387088,11.68695478357828,2.425116268290898,-1.024553052202649e-05,3.762224698124146e-05,1.940093014632719e-05,4.448127326219619e-05,4.482339817228578e-05
3.48584391825,10.98584391825,2,0,-0.07424643588869673,12.50992740897833,2.431998038058919,-1.024553052202649e-05,4.00911648574416e-05,1.945598430447135e-05,4.8233843868562e-05,4.747051842863419e-05
4.01415608175,10.26415608175,2,0,-0.3242910851518332,12.99274618633019,2.678068926575595,-1.143192842155001e-05,4.183622066437806e-05,2.142455141260476e-05,4.940642126625637e-05,5.074133467397843e-05
4.735843918250001,10.26415608175,2,0,-0.1327358142688433,13.75896726986215,2.653669865405817,-1.143192842155001e-05,4.413488391497394e-05,2.122935892324653e-05,5.288991726158437e-05,5.32016741439196e-05
4.01415608175,10.98584391825,2,0,-0.3893552482712153,12.97648014555034,2.96540183290008,-1.162712091090816e-05,4.183622066437806e-05,2.372321466320064e-05,4.925306811153189e-05,4.942025125064457e-05
4.735843918250001,10.98584391825,2,0,-0.1977999773882289,13.74270122908229,2.941002771730312,-1.162712091090816e-05,4.41348839149739e-05,2.35280221738425e-05,5.272781923072911e-05,5.209990012543964e-05
4.01415608175,11.51415608175,2,0,-0.5465547399013606,12.51869079890184,2.73915857388496,-1.176392780680583e-05,4.049705434840698e-05,2.191326859107968e-05,4.69661973630957e-05,4.853149881937303e-05
4.735843918250001,11.51415608175,2,0,-0.3153125425378671,13.44365958835582,2.716837211250471,-1.176392780680583e-05,4.32719607167689e-05,2.173469769000377e-05,5.116326125090018e-05,5.139039192091745e-05
4.01415608175,12.23584391825,2,0,-0.6060783735933462,12.50380989047886,3.086021869930208,-1.19424987078818e-05,4.049705434840703e-05,2.468817495944166e-05,4.686720384481578e-05,4.742446544501944e-05
4.735843918250001,12.23584391825,2,0,-0.3748361762298602,13.42877867993281,3.063700507295712,-1.19424987078818e-05,4.327196071676886e-05,2.45096040583657e-05,5.105116029402929e-05,5.055375347617343e-05
2.76415608175,9.01415608175,2,0,-0.1366791820221533,12.42366622496573,2.09598959805767,-1.037630636244347e-05,3.986507526550806e-05,1.676791678446136e-05,4.761861052940988e-05,4.959455635011588e-05
3.48584391825,9.01415608175,2,0,0.03090449610779666,13.09400093748553,2.101074648238226,-1.037630636244347e-05,4.187607940306746e-05,1.680859718590581e-05,5.06854853349165e-05,5.170362859651217e-05
2.76415608175,9.735843918250001,2,0,-0.1231190482072897,12.42705625841943,2.347365115252597,-1.033562596099887e-05,3.9865075265508e-05,1.877892092202077e-05,4.774506138283376e-05,4.779629989656322e-05
3.48584391825,9.735843918250001,2,0,0.04446462992266254,13.09739097093924,2.352450165433163,-1.033562596099887e-05,4.187607940306743e-05,1.88196013234653e-05,5.080817634518912e-05,5.008467371558449e-05
2.76415608175,7.764156081749999,2,0,0.04887932214451141,13.18972508329272,2.168190343289194,-1.039536623577174e-05,4.216801680882108e-05,1.734552274631355e-05,5.112314403798537e-05,5.289180110995114e-05
3.48584391825,7.764156081749999,2,0,0.1791123553163412,13.71065721598004,2.168571907657671,-1.039536623577174e-05,4.373081320688303e-05,1.734857526126137e-05,5.350833185482711e-05,5.470390651194547e-05
2.76415608175,8.485843918250001,2,0,0.04989682712709387,13.18997945953837,2.36353989304694,-1.0392313720824e-05,4.216801680882111e-05,1.890831914437552e-05,5.118118977414764e-05,5.095989178523249e-05
3.48584391825,8.485843918250001,2,0,0.1801298602989223,13.71091159222568,2.363921457415407,-1.0392313720824e-05,4.373081320688305e-05,1.891137165932325e-05,5.356410629584499e-05,5.294134829390993e-05
4.01415608175,7.764156081749999,2,0,0.2105091398446302,14.05578584780865,2.790464010766508,-1.057099943074411e-05,4.481010740111198e-05,2.232371208613207e-05,5.509839127995118e-05,5.602170400862882e-05
4.735843918250001,7.764156081749999,2,0,0.3259999879288782,14.51774924014565,2.753905307574536,-1.057099943074411e-05,4.619599757812296e-05,2.203124246059628e-05,5.719898879140618e-05,5.780988832181359e-05
4.01415608175,8.485843918250001,2,0,0.1130192646660246,14.03141337901399,2.963700282892897,-1.086346905627991e-05,4.481010740111193e-05,2.370960226314318e-05,5.476751780780386e-05,5.439012524120171e-05
4.735843918250001,8.485843918250001,2,0,0.2285101127502824,14.49337677135102,2.927141579700919,-1.086346905627991e-05,4.619599757812303e-05,2.341713263760736e-05,5.686427258597665e-05,5.636680096152824e-05
4.01415608175,9.01415608175,2,0,-0.07703403088166372,13.50802534153553,2.689945325319704,-1.105292917204975e-05,4.328730831761903e-05,2.151956260255764e-05,5.211184506461391e-05,5.32502350038483e-05
4.735843918250001,9.01415608175,2,0,0.07667804897412012,14.12287366095867,2.661802195722542,-1.105292917204975e-05,4.513185327588843e-05,2.129441756578034e-05,5.49099521075624e-05,5.536657004178554e-05
4.01415608175,9.735843918250001,2,0,-0.1520823764741128,13.4892632551374,2.920513445103389,-1.127807420882708e-05,4.328730831761897e-05,2.336410756082711e-05,5.189286075329947e-05,5.176757572764175e-05
4.735843918250001,9.735843918250001,2,0,0.001629703381675895,14.10411157456056,2.892370315506225,-1.127807420882708e-05,4.513185327588843e-05,2.31389625240498e-05,5.468516877600184e-05,5.407697570991629e-05
2.76415608175,6.514156081750001,2,0,0.2849602654542718,13.99581747170643,2.355638782976566,-1.028478112791147e-05,4.455864769709714e-05,1.884511026381253e-05,5.496828305696798e-05,5.649271506297282e-05
3.48584391825,6.514156081750001,2,0,0.3738600456641343,14.35141659254585,2.34541730342278,-1.028478112791145e-05,4.562544505961541e-05,1.876333842738224e-05,5.659491638176469e-05,5.798395769767757e-05
2.76415608175,7.23584391825,2,0,0.257702986644194,13.98900315200391,2.488988453291345,-1.03665529643417e-05,4.455864769709714e-05,1.991190762633076e-05,5.489626544139551e-05,5.437431663903965e-05
3.48584391825,7.23584391825,2,0,0.3466027668540472,14.34460227284332,2.478766973737557,-1.03665529643417e-05,4.562544505961538e-05,1.983013578990046e-05,5.652151074387285e-05,5.605506962938854e-05
2.764156081750003,5.264156081750005,2,0,0.6231832265767712,14.85487871429391,2.692773391843912,-9.889716646389455e-06,4.703706530447907e-05,2.15421871347513e-05,5.937433811455784e-05,6.049627921767914e-05
3.485843918250001,5.264156081750005,2,0,0.6600521438010771,15.00235438319111,2.659361319942801,-9.889716646389441e-06,4.747949231117069e-05,2.127489055954241e-05,6.004091821853961e-05,6.157611983189955e-05
2.764156081750001,5.985843918250003,2,0,0.5340843681738252,14.83260399969318,2.748076767680359,-1.01570132215983e-05,4.70370653044791e-05,2.198461414144287e-05,5.903262526069766e-05,5.813308999196178e-05
3.485843918250001,5.985843918250003,2,0,0.5709532853981236,14.98007966859037,2.714664695779248,-1.01570132215983e-05,4.747949231117068e-05,2.171731756623398e-05,5.969853383120508e-05,5.946331864076604e-05
4.014156081749999,5.264156081750004,2,0,1.038289820100435,15.18666910265815,3.315053760150388,-8.826807857805127e-06,4.776670927242573e-05,2.65204300812031e-05,6.210933724409369e-05,6.234455062756028e-05
4.735843918249998,5.264156081750002,2,0,1.066811847124263,15.30075721075347,3.232667949241514,-8.826807857805134e-06,4.810897359671169e-05,2.586134359393211e-05,6.260450221325553e-05,6.336410198927484e-05
4.01415608175,5.985843918250001,2,0,0.8185943243434419,15.13174522871889,3.357836800686132,-9.4858943450761e-06,4.776670927242571e-05,2.686269440548906e-05,6.123825890721123e-05,6.04148817422917e-05
4.73584391825,5.985843918250001,2,0,0.8471163513672737,15.24583333681422,3.275450989777267,-9.4858943450761e-06,4.810897359671168e-05,2.620360791821813e-05,6.173217376264935e-05,6.168437183357387e-05
4.01415608175,6.51415608175,2,0,0.5676006349181191,14.62395667392497,2.995210212375641,-9.882843307401996e-06,4.634258084862541e-05,2.396168169900513e-05,5.841526464297056e-05,5.905564968074491e-05
4.735843918250001,6.51415608175,2,0,0.6419718056736512,14.9214413569471,2.942035431642981,-9.882843307401996e-06,4.72350348976918e-05,2.353628345314385e-05,5.975980949978971e-05,6.049232399396882e-05
4.01415608175,7.23584391825,2,0,0.4258012196310208,14.58850682010319,3.10676696850894,-1.030824155326328e-05,4.634258084862538e-05,2.485413574807152e-05,5.788448612429779e-05,5.727182751443319e-05
4.735843918250001,7.23584391825,2,0,0.5001723903865525,14.88599150312531,3.053592187776273,-1.030824155326328e-05,4.723503489769176e-05,2.442873750221018e-05,5.922658328523998e-05,5.891531888667763e-05
2.764156081750003,4.014156081750004,2,0,1.149533672991874,15.75372718472708,3.220768274330033,-8.924473994207665e-06,4.949230005273314e-05,2.576614619464026e-05,6.458169928118794e-05,6.495400637624831e-05
3.485843918250001,4.014156081750004,2,0,1.116009012736563,15.61962854370584,3.141395179133402,-8.924473994207671e-06,4.909000412966945e-05,2.513116143306721e-05,6.394225926641047e-05,6.5439096968614e-05
2.764156081750003,4.735843918250005,2,0,0.9378720858008531,15.70081178792932,3.170481283947065,-9.559458755780726e-06,4.949230005273314e-05,2.536385027157652e-05,6.371046252514299e-05,6.232393825443205e-05
3.485843918250001,4.735843918250005,2,0,0.9043474255455415,15.56671314690808,3.09110818875043,-9.559458755780726e-06,4.90900041296694e-05,2.472886551000344e-05,6.307146317745689e-05,6.317732480894398e-05
2.764156081750003,2.764156081750001,2,0,2.072577160777814,16.61099638149335,3.969238872954596,-6.656550190705673e-06,5.149712669215647e-05,3.175391098363677e-05,7.097437299516361e-05,6.966317027785234e-05
3.485843918250001,2.764156081750001,2,0,1.94599479179786,16.10466690557353,3.782977398227979,-6.656550190705673e-06,4.997813826439702e-05,3.026381918582383e-05,6.858858482600592e-05,6.932497359644006e-05
2.764156081750003,3.485843918250003,2,0,1.575879894840162,16.48682206500894,3.779365319484663,-8.146641988518634e-06,5.149712669215648e-05,3.023492255587731e-05,6.888052375202973e-05,6.692054766992722e-05
3.485843918250001,3.485843918250002,2,0,1.449297525860204,15.98049258908913,3.593103844758046,-8.146641988518647e-06,4.997813826439704e-05,2.874483075806437e-05,6.649745456494108e-05,6.708635449652248e-05
4.01415608175,2.76415608175,2,0,2.504819825951432,15.99377854168486,4.172553068665621,-4.779599390303307e-06,4.917623547263041e-05,3.338042454932497e-05,7.007524770665766e-05,6.916970547519649e-05
4.735843918250001,2.764156081749999,2,0,2.44883226410382,15.76982829429442,3.990031341405226,-4.779599390303307e-06,4.850438473045907e-05,3.192025073124181e-05,6.898136675594855e-05,6.908370176055752e-05
4.01415608175,3.485843918250001,2,0,2.018095219923725,15.87209739017794,4.088571725894204,-6.239773208386429e-06,4.917623547263041e-05,3.270857380715363e-05,6.80445688583292e-05,6.724446076817563e-05
4.735843918250001,3.485843918250001,2,0,1.962107658076109,15.64814714278749,3.906049998633815,-6.239773208386443e-06,4.850438473045908e-05,3.124839998907052e-05,6.695116696247471e-05,6.751060830875043e-05
4.01415608175,4.014156081750002,2,0,1.685333225721737,15.68759954501891,3.740774937536595,-7.157013313705572e-06,4.885205196348313e-05,2.992619950029276e-05,6.617267675331729e-05,6.580247805004313e-05
4.73584391825,4.014156081750001,2,0,1.664683101992089,15.60499905010033,3.610053343474713,-7.157013313705576e-06,4.860425047872736e-05,2.88804267477977e-05,6.574830702453947e-05,6.631016303469338e-05
4.014156081749999,4.735843918250004,2,0,1.336742308223376,15.60045181564433,3.709799751942122,-8.202786066200657e-06,4.885205196348314e-05,2.967839801553697e-05,6.474425201004406e-05,6.378815270732226e-05
4.735843918249998,4.735843918250002,2,0,1.316092184493722,15.51785132072573,3.579078157880237,-8.20278606620067e-06,4.860425047872734e-05,2.86326252630419e-05,6.431978347974524e-05,6.460357900593123e-05
2.764156081750001,1.51415608175,2,0,3.244006901908466,16.94016640986101,4.577418944853282,-3.171311041781714e-06,5.161332699002845e-05,3.661935155882626e-05,7.616722688575644e-05,7.389342569673918e-05
3.485843918250001,1.51415608175,2,0,3.084040376611486,16.30030030867309,4.308406039889568,-3.171311041781714e-06,4.969372868646468e-05,3.446724831911654e-05,7.313378412945715e-05,7.260195075442914e-05
2.764156081750003,2.23584391825,2,0,2.52663915533856,16.76082447321853,4.337469156907811,-5.323414281491433e-06,5.161332699002845e-05,3.469975325526249e-05,7.311090434711908e-05,7.153154731399918e-05
3.485843918250001,2.23584391825,2,0,2.36667263004158,16.12095837203061,4.068456251944097,-5.323414281491433e-06,4.969372868646468e-05,3.254765001555278e-05,7.008009570182229e-05,7.080287315947627e-05
2.76415608175,0.26415608175,2,0,4.061616225535524,16.87610379481935,4.657206152121458,-5.037111141418046e-07,5.075423916299351e-05,3.725764921697166e-05,7.859461288938178e-05,7.611100332924621e-05
3.48584391825,0.26415608175,2,0,3.899407373443103,16.22726838644967,4.485185607592578,-5.037111141418046e-07,4.880773293788445e-05,3.588148486074062e-05,7.555590022600071e-05,7.426623261939035e-05
2.76415608175,0.9858439182500001,2,0,3.60289477345851,16.7614234318001,4.413892873982825,-1.879875470372849e-06,5.075423916299351e-05,3.53111429918626e-05,7.65850701994528e-05,7.512048723776028e-05
3.48584391825,0.9858439182500001,2,0,3.440685921366089,16.11258802343042,4.241872329453943,-1.879875470372849e-06,4.880773293788445e-05,3.393497863563155e-05,7.354662088364623e-05,7.352995512478293e-05
4.01415608175,0.26415608175,2,0,3.872665128776531,15.90866938420668,4.433773136730299,-3.344070952804405e-07,4.780960992644013e-05,3.54701850938424e-05,7.42483065041402e-05,7.325289773075819e-05
4.735843918250001,0.26415608175,2,0,3.807630415903494,15.64853053271453,4.319570989885733,-3.344070952804405e-07,4.702919337196368e-05,3.455656791908586e-05,7.301276538436255e-05,7.232918603967114e-05
4.01415608175,0.9858439182500001,2,0,3.568126070524353,15.83253461964363,4.336221067420745,-1.248024270036971e-06,4.780960992644012e-05,3.468976853936596e-05,7.293634808200829e-05,7.265703810884744e-05
4.735843918250001,0.9858439182500001,2,0,3.503091357651317,15.57239576815148,4.222018920576178,-1.248024270036971e-06,4.702919337196368e-05,3.377615136460943e-05,7.170096524591544e-05,7.186271658339619e-05
4.01415608175,1.51415608175,2,0,3.341870829688197,16.04889285622021,4.441378678854378,-2.145127629973939e-06,4.868296047615411e-05,3.553102943083503e-05,7.306300590050083e-05,7.189698634922158e-05
4.735843918250001,1.51415608175,2,0,3.271714846205068,15.7682689222877,4.249214330812351,-2.145127629973942e-06,4.784108867435659e-05,3.399371464649881e-05,7.170383581923887e-05,7.126246271889506e-05
4.01415608175,2.23584391825,2,0,2.829432568242793,15.92078329085886,4.336144703629688,-3.682442414310153e-06,4.868296047615411e-05,3.46891576290375e-05,7.089525496333491e-05,7.041634594736408e-05
4.735843918250001,2.235843918249999,2,0,2.759276584759662,15.64015935692635,4.143980355587658,-3.682442414310159e-06,4.784108867435657e-05,3.315184284470127e-05,6.95364132312686e-05,7.008900811984364e-05
5.26415608175,21.51415608175,2,0.6327675620577811,4.062739698126965,21.61667329910631,3.958830525719268,-1.168897723014915e-05,0.0001795134524826782,8.624141261382053e-05,0.0002623355605053212,0.0002559992329079991
5.985843918249998,21.51415608175,2,0.7006493598161307,4.962826771908174,24.22518560880747,3.593372042095004,-1.168897723014915e-05,0.0002456995999256282,9.603111695068655e-05,0.0003644115682393223,0.0003076919078309109
5.26415608175,22.23584391825,2,0.7398279092351561,3.727319921210001,15.52695193431306,4.957174623769221,-1.899272893283061e-06,0.000179513452482678,0.0001524275600567704,0.0002788711767695158,0.0003483739780689242
5.985843918250001,22.23584391825,2,0.7797799857206171,4.369578149111958,18.00113497604688,4.465436035141132,-1.899272893283061e-06,0.000245699599925628,0.0001622172643936365,0.0003804096038139896,0.000402808675177203
5.264156081749999,20.26415608175,2,0.3727182821696851,2.181084763142537,18.46377197365505,4.028056062814779,-1.242112772522346e-05,9.140901268972241e-05,5.13715729098217e-05,0.0001249429258253537,0.0001559265842294786
5.985843918249997,20.26415608175,2,0.4919176559696519,3.368912434932869,21.36434435239633,3.130066741668295,-1.242112772522346e-05,0.0001292522221079176,4.928440089988775e-05,0.0001829476004787282,0.0001899336308524354
5.264156081749999,20.98584391825,2,0.5306551044038824,1.305397318291954,13.7333348037611,5.234062837171683,-1.450829973515739e-05,9.140901268972241e-05,8.921478232801693e-05,0.0001242186503538267,0.0002044331091448503
5.985843918249997,20.98584391825,2,0.6241390894151858,2.230703908218158,15.73919406973973,4.093482868904195,-1.450829973515739e-05,0.0001292522221079177,8.712761031808307e-05,0.0001814851345930075,0.0002506522116171252
6.514156081749996,20.26415608175,2,0.5463492487457814,2.819491809654161,22.0683818714627,2.124792540029802,-1.902858461583242e-05,0.0001506957243032265,3.747010287813416e-05,0.0002065746543754803,0.0002109598102412388
7.235843918249994,20.26415608175,2,0.5954801113949466,3.213334543166416,22.47513933405112,1.852134377558113,-1.902858461583242e-05,0.0001714372523773213,3.662879239772391e-05,0.0002385183512589889,0.0002343973539999929
6.514156081749997,20.98584391825,2,0.6628188974940633,2.001061493548256,16.37893739322849,2.453482737892652,-1.986989509624256e-05,0.0001506957243032264,5.821163095222879e-05,0.0002058983114804638,0.0002765562598152615
7.235843918249996,20.98584391825,2,0.6933063567594298,2.350236120604626,17.01840762976172,2.199389074922641,-1.986989509624256e-05,0.0001714372523773214,5.737032047181863e-05,0.0002377664797019464,0.0003011083331450172
6.514156081749998,21.51415608175,2,0.7275330017350907,4.644308205893315,24.34995225999484,1.598376718556533,-1.69494859140599e-05,0.0002723427099054496,4.693050472123577e-05,0.0003972035088701818,0.0003344864124329996
7.235843918249998,21.51415608175,2,0.7461661712293473,4.466395512652485,23.24352318218503,1.768921039978407,-1.69494859140599e-05,0.0002789468926021118,5.575052146659888e-05,0.000407508162912779,0.0003559976854497445
6.51415608175,22.23584391825,2,0.7943233631759974,4.110530427146658,18.53217405581412,1.376354307692184,-8.129469168696856e-06,0.0002723427099054496,5.353468741789782e-05,0.0004096445469392982,0.000427158083107585
7.23584391825,22.23584391825,2,0.8009379606005839,4.087888539807034,18.37439004917248,1.551556822110745,-8.129469168696856e-06,0.0002789468926021119,6.235470416326083e-05,0.0004199611832681994,0.0004392472056021586
5.264156081749999,19.01415608175,2,0.01245467128051236,0.3938598633653072,16.94447410274892,3.727541736319286,-1.245029201380852e-05,5.458709354435784e-05,3.019642038023832e-05,6.78117936929995e-05,0.0001012125633405504
5.985843918249997,19.01415608175,2,0.1760405808628128,1.578770818245886,19.13825249271608,3.169877576318504,-1.245029201380852e-05,7.279410845852389e-05,3.077702617575856e-05,9.564933162841489e-05,0.0001203892648062825
5.264156081749999,19.73584391825,2,0.2290648722518368,0.4566729742428262,13.2651394732546,4.664488571517679,-1.186968621828821e-05,5.458709354435784e-05,4.840343529440418e-05,6.959031382266329e-05,0.0001282687223397775
5.985843918249997,19.73584391825,2,0.3688655817149743,1.331449772510583,14.69000847329873,3.864439284817413,-1.186968621828821e-05,7.279410845852376e-05,4.89840410899245e-05,9.717754920926893e-05,0.0001550297794518581
5.26415608175,17.76415608175,2,0,-0.5978422031195847,14.3292100041904,3.386140224841861,-1.337646305333499e-05,4.633174577590494e-05,2.708912179873489e-05,5.393394041517426e-05,7.314635299297698e-05
5.985843918250001,17.76415608175,2,0,-0.1544758219196378,16.10267552899019,3.451444150268669,-1.337646305333499e-05,5.16521423503043e-05,2.761155320214935e-05,6.201544994087713e-05,8.378656128360079e-05
5.26415608175,18.48584391825,2,0,-0.4236984019814853,14.37274595447489,4.051189796641801,-1.285403164992066e-05,4.633174577590483e-05,3.240951837313441e-05,5.489147579235375e-05,8.644256898964483e-05
5.985843918249998,18.48584391825,2,0.01333821155963966,0.01940564355071039,15.93084989467749,4.061587057919692,-1.285403164992066e-05,5.165214235030438e-05,3.293194977654857e-05,6.295223473762307e-05,0.0001012997020324978
6.51415608175,17.76415608175,2,0,-0.5935358761594456,17.50383897226451,2.874195124676077,-1.590238598152183e-05,5.6487113412174e-05,2.299356099740862e-05,6.587255931531899e-05,9.144768998401362e-05
7.23584391825,17.76415608175,2,0.01776010001400041,0.06274544440850249,19.77592929766997,2.805029410683543,-1.590238598152183e-05,6.437610343248975e-05,2.284598221451623e-05,7.789257328901823e-05,0.0001017380745471317
6.514156081749998,18.48584391825,2,0.1103068722013146,-0.5718313997704447,15.56210359130622,3.434499176170185,-1.604996476441424e-05,5.64871134121741e-05,3.088255101772416e-05,6.599138479566775e-05,0.0001118711752514104
7.235843918249998,18.48584391825,2,0.2137959909977957,0.01154700283813082,15.81937131401077,3.020494798449529,-1.604996476441424e-05,6.437610343248967e-05,3.073497223483185e-05,7.796166792888305e-05,0.000125895844154708
6.514156081749997,19.01415608175,2,0.2615812216798347,1.157524526221237,20.00485203713153,2.631191873937893,-1.665694793647879e-05,8.543865452794515e-05,2.850622926923514e-05,0.000109279417618338,0.0001336329170294605
7.235843918249996,19.01415608175,2,0.3493372812615883,1.905866480814459,21.17103471104967,2.195620611809749,-1.665694793647879e-05,0.0001017771819155526,2.699549918663727e-05,0.0001343375138568181,0.0001506385463167614
6.514156081749996,19.73584391825,2,0.4372645583027626,0.5987478112573212,15.17448663837713,3.154466743136696,-1.816767801907662e-05,8.543865452794526e-05,4.484475665684281e-05,0.0001077936131997927,0.0001726636159634188
7.235843918249994,19.73584391825,2,0.5035854064141507,1.204073032997346,16.0896677572875,2.688955398786521,-1.816767801907662e-05,0.0001017771819155526,4.333402657424488e-05,0.0001327119156384891,0.0001940790961353334
5.26415608175,16.51415608175,2,0,-1.001674845271624,13.93241369537766,3.300129588189161,-1.435129046117132e-05,4.538506370142581e-05,2.640103670551328e-05,5.121494302508391e-05,6.005081240722019e-05
5.985843918250001,16.51415608175,2,0,-0.6497999919127437,15.33991310881318,3.37183435300339,-1.435129046117132e-05,4.960756194173236e-05,2.697467482402712e-05,5.761477031507993e-05,6.665199645614887e-05
5.26415608175,17.23584391825,2,0,-0.8104621391003359,13.98021687192048,3.827941868227456,-1.377765234265746e-05,4.538506370142581e-05,3.062353494581965e-05,5.21739097375811e-05,6.607470313009763e-05
5.985843918250001,17.23584391825,2,0,-0.4585872857414692,15.38771628535595,3.899646633041706,-1.377765234265746e-05,4.96075619417322e-05,3.119717306433365e-05,5.856411911725034e-05,7.450273655511573e-05
5.26415608175,15.26415608175,2,0,-1.097752803140537,13.76938076026859,3.215788852900118,-1.452831357826459e-05,4.49402206753719e-05,2.572631082320095e-05,5.028565209290807e-05,5.445029700651953e-05
5.985843918250001,15.26415608175,2,0,-0.7915922407050271,14.99402301001063,3.212774358553783,-1.452831357826459e-05,4.861414742459802e-05,2.570219486843026e-05,5.582609038809709e-05,5.917893350758149e-05
5.26415608175,15.98584391825,2,0,-1.105791454730789,13.76737109737102,3.67502969655337,-1.455242953303534e-05,4.49402206753719e-05,2.940023757242696e-05,5.044618663403453e-05,5.693606217401298e-05
5.985843918250001,15.98584391825,2,0,-0.7996308922952897,14.99201334711302,3.672015202207021,-1.455242953303534e-05,4.861414742459789e-05,2.937612161765617e-05,5.596858970889145e-05,6.254599580471628e-05
6.514156081750001,15.26415608175,2,0,-1.094880331218497,15.64675310506282,2.990590560490992,-1.602101954394945e-05,5.094551420117583e-05,2.392472448392794e-05,5.734864890817949e-05,6.246011192597567e-05
7.235843918250001,15.26415608175,2,0,-0.8702565199073717,16.54524835030733,2.982749784564086,-1.602101954394945e-05,5.364099993690932e-05,2.386199827651269e-05,6.142739588235943e-05,6.669582157304622e-05
6.514156081750001,15.98584391825,2,0,-1.1157890670236,15.64152592111155,3.327526277457693,-1.608374575136476e-05,5.094551420117583e-05,2.662021021966154e-05,5.738167269265111e-05,6.646257386654568e-05
7.235843918250001,15.98584391825,2,0,-0.8911652557124752,16.54002116635605,3.319685501530783,-1.608374575136476e-05,5.364099993690932e-05,2.655748401224627e-05,6.145252646963103e-05,7.155293049302483e-05
6.514156081750001,16.51415608175,2,0,-1.005168196890377,16.04446741268679,2.950594973340757,-1.605211216019863e-05,5.214643027811e-05,2.360475978672606e-05,5.911300840801e-05,7.131819932331855e-05
7.235843918250001,16.51415608175,2,0,-0.7790166094986741,16.9490737622536,2.969238821554595,-1.605211216019863e-05,5.486024932681045e-05,2.375391057243676e-05,6.323244303966047e-05,7.746531858646299e-05
6.514156081750001,17.23584391825,2,0,-0.9554512683201946,16.05689664482933,3.28982235442833,-1.590296137448809e-05,5.214643027811e-05,2.631857883542664e-05,5.941552513723238e-05,8.058155283374084e-05
7.235843918250001,17.23584391825,2,0,-0.7292996809284915,16.96150299439614,3.308466202642154,-1.590296137448809e-05,5.486024932681045e-05,2.646772962113723e-05,6.35302205015429e-05,8.876115433250945e-05
5.26415608175,14.01415608175,2,0,-1.012350202048961,13.7298398222037,3.135657028560889,-1.422339250431963e-05,4.474536759269099e-05,2.508525622848711e-05,5.035199540112172e-05,5.253018644439217e-05
5.985843918250001,14.01415608175,2,0,-0.7423865449714935,14.80969445051357,3.108562545082981,-1.422339250431963e-05,4.79849314776206e-05,2.486850036066385e-05,5.523299722819866e-05,5.627310096912865e-05
5.26415608175,14.73584391825,2,0,-1.084602157990084,13.71177683321842,3.54060251417707,-1.4440148372143e-05,4.474536759269099e-05,2.832482011341656e-05,5.023855404440121e-05,5.326974616285248e-05
5.985843918250001,14.73584391825,2,0,-0.81463850091263,14.79163146152823,3.513508030699152,-1.4440148372143e-05,4.798493147762044e-05,2.810806424559322e-05,5.510194117472949e-05,5.749811640223273e-05
5.26415608175,12.76415608175,2,0,-0.8290670303229852,13.80396443099886,3.066935437030418,-1.369618604183264e-05,4.483593980345474e-05,2.453548349624335e-05,5.114106478616943e-05,5.247465841570923e-05
5.985843918250001,12.76415608175,2,0,-0.5934507928688002,14.7464293808156,3.025952642419504,-1.369618604183264e-05,4.766333465290496e-05,2.420762113935603e-05,5.540262766573968e-05,5.560507032304652e-05
5.26415608175,13.48584391825,2,0,-0.9383544826187604,13.77664256792492,3.420359793211687,-1.402404839871997e-05,4.483593980345474e-05,2.73628783456935e-05,5.085680112249631e-05,5.231714332463988e-05
5.985843918250001,13.48584391825,2,0,-0.7027382451645798,14.71910751774164,3.379376998600784,-1.402404839871997e-05,4.766333465290491e-05,2.703501598880627e-05,5.510312418977118e-05,5.576586080099159e-05
6.514156081750001,12.76415608175,2,0,-0.8270303339510168,15.27281333195405,3.066181927585754,-1.486474773420649e-05,4.953462692941377e-05,2.452945542068603e-05,5.673249045460226e-05,5.777461610799033e-05
7.235843918250001,12.76415608175,2,0,-0.636607773450943,16.03450357395435,3.0114097191785,-1.486474773420649e-05,5.181969765541465e-05,2.4091277753428e-05,6.017747898340502e-05,6.057151351471841e-05
6.514156081750001,13.48584391825,2,0,-0.9730895563703594,15.23629852634922,3.351815768335853,-1.530292540146452e-05,4.953462692941377e-05,2.681452614668682e-05,5.626611761795523e-05,5.81502859334616e-05
7.235843918250001,13.48584391825,2,0,-0.7826669958702857,15.99798876834951,3.297043559928592,-1.530292540146452e-05,5.181969765541465e-05,2.637634847942874e-05,5.970051945619141e-05,6.121593906613907e-05
6.514156081750001,14.01415608175,2,0,-1.017728253556233,15.39948155766108,3.034202340078817,-1.557631565750881e-05,5.009252358736043e-05,2.427361872063053e-05,5.664625966397093e-05,5.885991436015073e-05
7.235843918250001,14.01415608175,2,0,-0.8078545168265467,16.23897650457982,2.995610039756196,-1.557631565750881e-05,5.261100842811667e-05,2.396488031804957e-05,6.044704478674125e-05,6.218430544968657e-05
6.514156081750001,14.73584391825,2,0,-1.120641054416539,15.373753357446,3.34901294517334,-1.588505406008973e-05,5.009252358736043e-05,2.679210356138672e-05,5.63579551941126e-05,6.042298545097175e-05
7.235843918250001,14.73584391825,2,0,-0.9107673176868527,16.21324830436475,3.310420644850725,-1.588505406008973e-05,5.261100842811667e-05,2.64833651588058e-05,6.014824107546353e-05,6.418550605857186e-05
5.26415608175,11.51415608175,2,0,-0.5885538073664933,13.97063046342753,3.021516514517035,-1.30598765543148e-05,4.517686052886129e-05,2.417213211613628e-05,5.246382528698316e-05,5.342009887339402e-05
5.985843918250001,11.51415608175,2,0,-0.3861057488811559,14.78042269736888,2.974271461960448,-1.30598765543148e-05,4.760623723068534e-05,2.379417169568359e-05,5.61291638767755e-05,5.610646829072714e-05
5.26415608175,12.23584391825,2,0,-0.7145406141840511,13.93913376172314,3.325188602245034,-1.343783697476747e-05,4.517686052886129e-05,2.660150881796027e-05,5.208733833537804e-05,5.277019446427613e-05
5.985843918250001,12.23584391825,2,0,-0.5120925556987173,14.74892599566448,3.27794354968845,-1.343783697476747e-05,4.76062372306853e-05,2.62235483975076e-05,5.574069250818238e-05,5.569633582485431e-05
5.26415608175,10.26415608175,2,0,-0.309044030604376,14.21105527659406,3.016131471128886,-1.235778511920925e-05,4.572261210958448e-05,2.412905176903109e-05,5.420457061385005e-05,5.495301873106043e-05
5.985843918250001,10.26415608175,2,0,-0.1391197934482062,14.89075222521874,2.964544919549649,-1.235778511920925e-05,4.776170295545851e-05,2.371635935639719e-05,5.728344682585781e-05,5.727744165495221e-05
5.26415608175,10.98584391825,2,0,-0.4466081681490355,14.17666424220789,3.27101782686313,-1.277047753184323e-05,4.572261210958448e-05,2.616814261490504e-05,5.375726471970299e-05,5.400498487287974e-05
5.985843918250001,10.98584391825,2,0,-0.2766839309928701,14.85636119083255,3.219431275283882,-1.277047753184323e-05,4.776170295545846e-05,2.575545020227105e-05,5.682716836545963e-05,5.653012432103683e-05
6.514156081750001,10.26415608175,2,0,-0.2495844385631392,15.29573239910938,3.157809568672625,-1.303525612268955e-05,4.914601122800054e-05,2.5262476549381e-05,5.855929752947671e-05,5.890413265884392e-05
7.235843918250001,10.26415608175,2,0,-0.1043419645456591,15.8767022951793,3.086382793210674,-1.303525612268955e-05,5.088892091621029e-05,2.469106234568539e-05,6.118454354878449e-05,6.102391220598845e-05
6.514156081750001,10.98584391825,2,0,-0.4400558397949901,15.24811454880142,3.375673279698832,-1.36066703263851e-05,4.914601122800054e-05,2.700538623759066e-05,5.788710822478393e-05,5.829267949135159e-05
7.235843918250001,10.98584391825,2,0,-0.2948133657775101,15.82908444487134,3.304246504236891,-1.36066703263851e-05,5.088892091621029e-05,2.643397203389513e-05,6.050447697707885e-05,6.058293031984236e-05
6.514156081750001,11.51415608175,2,0,-0.5648207149300974,15.24520873640209,3.102706511843112,-1.400359327689798e-05,4.923652452843075e-05,2.48216520947449e-05,5.741187289353257e-05,5.797763032905149e-05
7.235843918250001,11.51415608175,2,0,-0.3960997960350898,15.92009241198212,3.03858157886288,-1.400359327689798e-05,5.126117555517085e-05,2.430865263090304e-05,6.046315542670039e-05,6.0403370669832e-05
6.514156081750001,12.23584391825,2,0,-0.7358205362107402,15.20245878108193,3.355787890185641,-1.451659274073991e-05,4.923652452843075e-05,2.684630312148513e-05,5.683341876493525e-05,5.772835317822137e-05
7.235843918250001,12.23584391825,2,0,-0.5670996173157326,15.87734245666196,3.291662957205395,-1.451659274073991e-05,5.126117555517085e-05,2.633330365764316e-05,5.98752537059465e-05,6.035378646913966e-05
5.26415608175,9.01415608175,2,0,0.008932990961942,14.50549484768699,3.065976185462304,-1.157581030707138e-05,4.641043711982882e-05,2.452780948369843e-05,5.629373906714698e-05,5.68735804988317e-05
5.985843918250001,9.01415608175,2,0,0.1463172464003457,15.05503186944061,3.008243098706529,-1.157581030707138e-05,4.805904818508966e-05,2.406594478965223e-05,5.878220555791916e-05,5.887447459725716e-05
5.26415608175,9.735843918250001,2,0,-0.1450219070534802,14.46700612318314,3.272052568619906,-1.203767500111764e-05,4.641043711982882e-05,2.617642054895925e-05,5.575813065234419e-05,5.572165661242179e-05
5.985843918250001,9.735843918250001,2,0,-0.007637651615077345,15.01654314493675,3.214319481864121,-1.203767500111764e-05,4.805904818508965e-05,2.571455585491297e-05,5.82400440784484e-05,5.790560841822158e-05
5.26415608175,7.764156081749999,2,0,0.3775146197217643,14.83216726275219,3.183152506649932,-1.065768702709211e-05,4.71609235450296e-05,2.546522005319946e-05,5.869112789926008e-05,5.908179487978412e-05
5.985843918250001,7.76415608175,2,0,0.4817093355744615,15.24894612616295,3.114607929551684,-1.065768702709208e-05,4.841126013526186e-05,2.491686343641348e-05,6.057287165794724e-05,6.076852390560263e-05
5.26415608175,8.485843918250001,2,0,0.1947290807931168,14.78647087802003,3.339444580428966,-1.120604364387805e-05,4.71609235450296e-05,2.671555664343172e-05,5.801812798496574e-05,5.777392683400032e-05
5.985843918250001,8.485843918250001,2,0,0.2989237966458043,15.20324974143078,3.270900003330719,-1.120604364387805e-05,4.841126013526185e-05,2.616720002664575e-05,5.989516776313323e-05,5.964159049007559e-05
6.51415608175,7.76415608175,2,0,0.5340311935469617,15.53538079829523,3.370805204822769,-1.07194048192859e-05,4.928599359970716e-05,2.696644163858215e-05,6.190804367010887e-05,6.195917893741798e-05
7.235843918249998,7.76415608175,2,0,0.6289878333648748,15.91520735756688,3.279289213946806,-1.07194048192859e-05,5.042547327752212e-05,2.623431371157445e-05,6.361391745006488e-05,6.352537995294484e-05
6.514156081750001,8.485843918250001,2,0,0.2899885512110649,15.47437013771127,3.51324016454963,-1.145153274629361e-05,4.928599359970722e-05,2.810592131639704e-05,6.098447802960825e-05,6.095621636451729e-05
7.23584391825,8.485843918250001,2,0,0.3849451910289745,15.85419669698291,3.421724173673664,-1.145153274629361e-05,5.042547327752213e-05,2.737379338938931e-05,6.268542095553051e-05,6.268017739051412e-05
6.514156081750001,9.01415608175,2,0,0.1148386655431284,15.40105586346205,3.244433385447814,-1.195336096103163e-05,4.919150783064404e-05,2.595546708358251e-05,6.008284965367847e-05,6.028032576301029e-05
7.235843918250001,9.01415608175,2,0,0.2352825175470259,15.88283127147764,3.164571853899511,-1.195336096103163e-05,5.063683405469081e-05,2.531657483119608e-05,6.22561391278596e-05,6.212028847746558e-05
6.514156081750001,9.735843918250001,2,0,-0.09812541858568036,15.34781484242984,3.425099163453662,-1.259225321341805e-05,4.919150783064404e-05,2.740079330762929e-05,5.930297725599376e-05,5.943672087215703e-05
7.235843918250001,9.735843918250001,2,0,0.02231843341821715,15.82959025044543,3.345237631905353,-1.259225321341805e-05,5.063683405469081e-05,2.676190105524283e-05,6.146995537728789e-05,6.143584608278818e-05
5.26415608175,6.514156081750001,2,0,0.8180323288483478,15.16382678306137,3.373534141838563,-9.51335797413438e-06,4.786981984271769e-05,2.698827313470851e-05,6.136399303373772e-05,6.151522864112285e-05
5.985843918250001,6.514156081750001,2,0,0.8881832182398437,15.44443034062733,3.287187229998032,-9.513357974134366e-06,4.871163051541559e-05,2.629749783998426e-05,6.26184290127949e-05,6.287318179534082e-05
5.26415608175,7.23584391825,2,0,0.5877738972735962,15.10626217516768,3.478760475925789,-1.020413326885864e-05,4.786981984271769e-05,2.783008380740631e-05,6.04773247125747e-05,6.00842736776125e-05
5.985843918250001,7.235843918250001,2,0,0.6579247866650739,15.38686573273363,3.392413564085258,-1.020413326885866e-05,4.871163051541554e-05,2.713930851268206e-05,6.172848721306245e-05,6.163442618608893e-05
5.264156081749999,5.264156081750002,2,0,1.356330205302975,15.46229406652284,3.629957992573063,-8.029578596248753e-06,4.839427684863072e-05,2.90396639405845e-05,6.425163306576885e-05,6.410222409682778e-05
5.985843918250001,5.264156081750002,2,0,1.392763426599201,15.60802695170774,3.517319341387985,-8.029578596248746e-06,4.88314755041854e-05,2.813855473110388e-05,6.487947515099261e-05,6.50992598352234e-05
5.26415608175,5.985843918250002,2,0,1.055960468809444,15.38720163239946,3.684607824517396,-8.930687805729347e-06,4.839427684863072e-05,2.947686259613917e-05,6.305619207031354e-05,6.259183521114636e-05
5.985843918250001,5.985843918250002,2,0,1.092393690105667,15.53293451758435,3.571969173332327,-8.930687805729347e-06,4.883147550418538e-05,2.857575338665862e-05,6.368188377621984e-05,6.380158117350568e-05
6.514156081750001,5.264156081750003,2,0,1.572838644614174,15.76792050529736,3.728232973972303,-7.581252741472534e-06,4.919907470126022e-05,2.982586379177842e-05,6.612175736582495e-05,6.582940207220714e-05
7.235843918250001,5.264156081750004,2,0,1.620097063590659,15.95695418120331,3.601811581163695,-7.581252741472534e-06,4.976617572897804e-05,2.881449264930956e-05,6.694358517895165e-05,6.682715202208791e-05
6.514156081750001,5.985843918250002,2,0,1.235714930457893,15.68363957675829,3.799120602437033,-8.592623883941377e-06,4.919907470126022e-05,3.039296481949626e-05,6.477959286850919e-05,6.467111589383204e-05
7.235843918250001,5.985843918250002,2,0,1.282973349434392,15.87267325266424,3.67269920962843,-8.592623883941337e-06,4.976617572897804e-05,2.938159367702744e-05,6.559850688965291e-05,6.583698296645053e-05
6.514156081750001,6.514156081750002,2,0,1.018087783999358,15.66909237008977,3.536699626785064,-9.277392987273866e-06,4.932662535708776e-05,2.829359701428051e-05,6.395794675380456e-05,6.384122718811061e-05
7.23584391825,6.514156081750002,2,0,1.087953324100615,15.94855453049479,3.429268021864008,-9.277392987273866e-06,5.016501183830283e-05,2.743414417491206e-05,6.520037965527045e-05,6.512802323108514e-05
6.51415608175,7.235843918250001,2,0,0.7316035042098803,15.59747130014241,3.641497936936954,-1.013684582664231e-05,4.932662535708782e-05,2.913198349549563e-05,6.284287460140887e-05,6.27322152577308e-05
7.235843918249998,7.235843918250001,2,0,0.8014690443111312,15.87693346054742,3.53406633201589,-1.013684582664231e-05,5.016501183830282e-05,2.827253065612712e-05,6.408151701145199e-05,6.418127826910131e-05
5.26415608175,4.01415608175,2,0,2.001044823195727,15.67156163792249,3.915630636931368,-6.133905876111666e-06,4.854816138279538e-05,3.132504509545094e-05,6.716599077684198e-05,6.671619294246797e-05
5.985843918250001,4.01415608175,2,0,2.008925091938417,15.70308271289327,3.772345979342191,-6.133905876111679e-06,4.864272460770772e-05,3.017876783473753e-05,6.725845664101233e-05,6.73178022952976e-05
5.264156081749999,4.735843918250002,2,0,1.618952402957928,15.57603853286303,3.927451040045419,-7.280183136825052e-06,4.854816138279535e-05,3.141960832036335e-05,6.56104974169107e-05,6.520734242019807e-05
5.985843918250001,4.735843918250002,2,0,1.626832671700629,15.60755960783383,3.784166382456243,-7.280183136825052e-06,4.864272460770775e-05,3.027333105964995e-05,6.570158311010459e-05,6.604142844518748e-05
5.26415608175,2.764156081749999,2,0,2.710643764429328,15.74439986542001,4.159608109884807,-3.921459846162154e-06,4.821356455780055e-05,3.327686487907845e-05,6.978146411056786e-05,6.91268157584163e-05
5.985843918250001,2.764156081749999,2,0,2.700420035643369,15.70350495027617,3.995548255304206,-3.921459846162154e-06,4.809087981236904e-05,3.196438604243365e-05,6.953296518998798e-05,6.933060910572789e-05
5.26415608175,3.48584391825,2,0,2.273150818881064,15.63502662903294,4.144272516705868,-5.233938682806948e-06,4.821356455780055e-05,3.315418013364695e-05,6.797240831572732e-05,6.776641265816618e-05
5.985843918250001,3.48584391825,2,0,2.262927090095107,15.59413171388911,3.980212662125266,-5.233938682806948e-06,4.809087981236907e-05,3.184170129700213e-05,6.77229065188928e-05,6.819913559702203e-05
6.51415608175,2.764156081749999,2,0,2.813052525241115,15.7449117202713,4.054607319702285,-3.594161295445468e-06,4.813327548467525e-05,3.243685855761828e-05,7.007109932643709e-05,6.956747532820742e-05
7.235843918249998,2.764156081749999,2,0,2.832928514924277,15.82441567900395,3.905543638091111,-3.594161295445475e-06,4.837178736087322e-05,3.124434910472889e-05,7.038182388288122e-05,7.001081253533437e-05
6.514156081750001,3.48584391825,2,0,2.415549374277981,15.64553593253051,4.08442130422703,-4.786670748334863e-06,4.813327548467523e-05,3.267537043381624e-05,6.844027516468463e-05,6.85742165776625e-05
7.23584391825,3.485843918250001,2,0,2.435425363961148,15.72503989126317,3.935357622615856,-4.786670748334863e-06,4.837178736087322e-05,3.148286098092685e-05,6.874911859846115e-05,6.91662339349127e-05
6.514156081750001,4.014156081750001,2,0,2.186292842728937,15.79923813163408,3.914806376460355,-5.643253408574669e-06,4.880852774704592e-05,3.131845101168284e-05,6.823389778618972e-05,6.779703366594837e-05
7.235843918250001,4.014156081750002,2,0,2.216161124048377,15.91871125691184,3.771341639476884,-5.643253408574665e-06,4.916694712287918e-05,3.017073311581508e-05,6.873039048515354e-05,6.850470876637321e-05
6.514156081750001,4.735843918250003,2,0,1.803720210773017,15.7035949736451,3.959608798439508,-6.790971304442429e-06,4.880852774704592e-05,3.167687038751606e-05,6.668416930713874e-05,6.666698921482574e-05
7.235843918250001,4.735843918250004,2,0,1.833588492092455,15.82306809892286,3.816144061456041,-6.790971304442429e-06,4.916694712287918e-05,3.052915249164833e-05,6.717835456729283e-05,6.754196699578261e-05
5.26415608175,1.514156081749999,2,0,3.363104507345269,15.67384169522462,4.282020280754188,-1.777138932674837e-06,4.746580981884257e-05,3.42561622460335e-05,7.165433221564127e-05,7.098632568761814e-05
5.985843918250001,1.514156081749999,2,0,3.347820415802215,15.61270532905241,4.129761004245172,-1.777138932674837e-06,4.728240072032593e-05,3.303808803396137e-05,7.131688522800478e-05,7.086642891861281e-05
5.26415608175,2.235843918249999,2,0,2.957079769987889,15.57233551088528,4.259094143439603,-2.995213144746977e-06,4.746580981884257e-05,3.407275314751683e-05,6.995679553629719e-05,6.998958885432955e-05
5.985843918250001,2.235843918249999,2,0,2.941795678444834,15.51119914471306,4.106834866930587,-2.995213144746977e-06,4.728240072032591e-05,3.28546789354447e-05,6.961860231242483e-05,7.004530819720282e-05
5.26415608175,0.26415608175,2,0,3.795850600808843,15.53507150017813,4.269810632891346,-2.81335277554207e-07,4.667554831992294e-05,3.415848506313077e-05,7.252787586644103e-05,7.189143949823471e-05
5.985843918250001,0.26415608175,2,0,3.780370626176733,15.47315160164969,4.173732848857314,-2.81335277554207e-07,4.648978862433762e-05,3.338986279085851e-05,7.220809735079695e-05,7.161920539722907e-05
5.26415608175,0.9858439182500001,2,0,3.539643176718089,15.47101964415544,4.246590670943181,-1.049957549826468e-06,4.667554831992294e-05,3.397272536754545e-05,7.144604698888265e-05,7.149592503176128e-05
5.985843918250001,0.9858439182500001,2,0,3.52416320208598,15.409099745627,4.150512886909149,-1.049957549826468e-06,4.648978862433762e-05,3.320410309527319e-05,7.112604159511637e-05,7.128815340231632e-05
6.514156081750001,0.26415608175,2,0,3.781238541644232,15.47090747903423,4.119984359219524,-2.767626499658454e-07,4.648191309959416e-05,3.295987487375619e-05,7.218266403428883e-05,7.157991219834095e-05
7.235843918250001,0.26415608175,2,0,3.794925488464981,15.52565526631723,4.025468156547494,-2.767626499658454e-07,4.664615646144315e-05,3.220374525237995e-05,7.23996805660929e-05,7.174479528358781e-05
6.514156081750001,0.9858439182500001,2,0,3.529195334518819,15.40789667725288,4.140514779450648,-1.032892271342085e-06,4.648191309959416e-05,3.312411823560519e-05,7.113407480064997e-05,7.128476957618022e-05
7.235843918250001,0.9858439182500001,2,0,3.542882281339568,15.46264446453588,4.04599857677862,-1.032892271342085e-06,4.664615646144315e-05,3.236798861422896e-05,7.135036888619668e-05,7.1483296420697e-05
6.514156081750001,1.514156081749999,2,0,3.373745499993804,15.62021574515272,4.11818637186869,-1.700186996142004e-06,4.728569398449366e-05,3.294549097494952e-05,7.142469095420775e-05,7.091349109592578e-05
7.23584391825,1.514156081749999,2,0,3.389779371955978,15.68435123300142,3.984817188059024,-1.700186996142004e-06,4.747810044803975e-05,3.187853750447219e-05,7.167057085864656e-05,7.116196412447042e-05
6.51415608175,2.235843918249999,2,0,3.01809434316802,15.53130295594628,4.142237179811953,-2.767140466619357e-06,4.728569398449366e-05,3.313789743849562e-05,6.995265217144148e-05,7.019428204623127e-05
7.235843918249998,2.235843918249999,2,0,3.034128215130194,15.59543844379497,4.008867996002283,-2.767140466619357e-06,4.747810044803975e-05,3.207094396801826e-05,7.019714658599395e-05,7.054556682792014e-05
7.764156081749997,21.51415608175,2,0.7547602686194718,4.627477417017535,22.82654674754195,0.8564204303401241,-1.408136293469957e-05,0.0002827558457521046,2.793741211569841e-05,0.0004171159803209326,0.0003668890884671455
8.485843918249998,21.51415608175,2,0.7609309920986047,4.586787246462486,22.55517081922258,0.9368221610772514,-1.408136293469957e-05,0.0002865579165853159,3.134901238101582e-05,0.0004230115597963469,0.0003751336818609141
7.76415608175,22.23584391825,2,0.8036289079619103,3.928678535149929,18.33375532456702,0.7790896159252031,-1.066976266938228e-05,0.0002827558457521051,3.173948294890919e-05,0.000421927867316268,0.0004443660291230765
8.48584391825,22.23584391825,2,0.8046096333081636,3.970965086509302,18.48982139664405,0.8585228798553715,-1.066976266938228e-05,0.0002865579165853157,3.51510832142265e-05,0.0004278264466938112,0.0004462617925632238
7.764156081749995,20.26415608175,2,0.6197654679589349,3.418321126777908,22.54987563462824,0.9989488076511533,-1.867603361508037e-05,0.0001825845347520677,2.101752941352034e-05,0.0002560150058172994,0.0002480266848468852
8.485843918249998,20.26415608175,2,0.6417658181467798,3.510510313428066,22.40503328166421,1.050831891155931,-1.867603361508037e-05,0.0001922979484933921,2.346692625968317e-05,0.0002710233919828461,0.0002618251654365901
7.764156081749996,20.98584391825,2,0.7076875532783982,2.866561708580203,17.39530670430199,1.122879647956884,-1.622663676891737e-05,0.0001825845347520676,3.073094315484456e-05,0.0002595106766947839,0.0003142801197275213
8.485843918249998,20.98584391825,2,0.7192219598029732,2.980725669001741,17.61800676471401,1.164538854819235,-1.622663676891737e-05,0.000192297948493392,3.318034000100744e-05,0.0002745259834795134,0.0003257140365691507
9.014156081749999,20.26415608175,2,0.6534882384102499,3.783238903305183,22.37728732148314,0.5416846916610419,-1.672516205516691e-05,0.0001979174617088396,1.250600416391904e-05,0.0002823351395472369,0.0002698268916400915
9.73584391825,20.26415608175,2,0.6646136364211845,3.819385368690681,22.28928057719875,0.6249800416752224,-1.672516205516691e-05,0.000203556843586576,1.490770310411509e-05,0.0002910528072830516,0.0002778895335875374
9.014156081749999,20.98584391825,2,0.7250628843556389,3.221887459867316,17.81011438305484,0.6236050125682681,-1.432346311497078e-05,0.0001979174617088396,1.814538604165525e-05,0.0002857109246240512,0.0003318298471878982
9.73584391825,20.98584391825,2,0.7299290797840963,3.291781717259718,18.00256544921226,0.6936462686003768,-1.432346311497078e-05,0.0002035568435865764,2.054708498185152e-05,0.0002944337533700301,0.0003371046356868667
9.014156081749999,21.51415608175,2,0.763744475369792,4.708850394358374,22.40770268818499,0.409384340786374,-1.209639813957511e-05,0.0002875597021193155,1.386242599582467e-05,0.0004272480968141391,0.0003790182163081198
9.73584391825,21.51415608175,2,0.7654312809354649,4.654409629363587,22.1644342885728,0.5144438502393299,-1.209639813957511e-05,0.000286494560263396,1.754518172042522e-05,0.0004256165413130607,0.0003813863683883197
9.01415608175,22.23584391825,2,0.8044418398792724,4.13776837908111,18.6077690545571,0.312826667617741,-8.413642414974504e-06,0.0002875597021193155,1.279728413990469e-05,0.0004324185709584785,0.0004459362827285539
9.735843918250001,22.23584391825,2,0.8029959817825367,4.150874509579564,18.67539974281183,0.4058292592114454,-8.413642414974504e-06,0.000286494560263396,1.64800398645055e-05,0.000430785804444161,0.0004431512098816876
7.764156081749997,19.01415608175,2,0.3962072979902168,1.899589918804722,21.56399074114285,1.610759165831584,-1.85038752796289e-05,0.000111768655387822,2.134188320554407e-05,0.0001470942326486999,0.0001616273134585478
8.485843918249998,19.01415608175,2,0.4440802166544352,2.256656297319636,21.88496310990936,1.428681922992473,-1.85038752796289e-05,0.0001227273411700911,2.055954065019328e-05,0.0001639560139911523,0.000174643554316427
7.764156081749995,19.73584391825,2,0.5372446089360685,1.33519522726673,16.49678250452962,1.868407804192876,-1.928621783497961e-05,0.0001117686553878221,3.230056898781322e-05,0.0001462282874091443,0.0002071234886860422
8.485843918249998,19.73584391825,2,0.5694095323620264,1.635614750022319,16.9230359457539,1.696430982334198,-1.928621783497961e-05,0.000122727341170091,3.151822643246253e-05,0.0001630601433563783,0.0002213459517180524
7.76415608175,17.76415608175,2,0.08476925825631221,0.02639806355401042,20.1328267876922,2.167176097911185,-1.750573587187029e-05,7.036906031704111e-05,1.894321070362916e-05,8.482846223942806e-05,0.0001088785886806147
8.485843918250001,17.76415608175,2,0.1592806841674779,0.6186425733536218,20.87133315009403,1.93598216802145,-1.750573587187029e-05,7.885313299358539e-05,1.842215000000892e-05,9.781387641156519e-05,0.0001180964515231653
7.764156081749999,18.48584391825,2,0.2711759710151238,-0.1055656652677595,16.00069047622861,2.498707897155969,-1.802679657549044e-05,7.036906031704121e-05,2.742728338017318e-05,8.436553178903538e-05,0.0001353026718424364
8.48584391825,18.48584391825,2,0.3321647614545753,0.3754317431679288,16.55038946167485,2.246115454944013,-1.802679657549044e-05,7.885313299358534e-05,2.690622267655302e-05,9.731061222303978e-05,0.000146977934121151
9.01415608175,17.76415608175,2,0.2033125547879925,0.8520923518505708,21.22731051909559,1.517685686939529,-1.789303066720373e-05,8.440665179772048e-05,1.52399608761065e-05,0.000105764612337034,0.0001243169063920815
9.73584391825,17.76415608175,2,0.2525210686452044,1.216082940658693,21.58266106490981,1.379386402440708,-1.789303066720373e-05,9.109507465550801e-05,1.476307994330316e-05,0.000116034444150823,0.0001320936422983217
9.01415608175,18.48584391825,2,0.3668719344996898,0.5765161490960464,16.84419783978934,1.735434396623588,-1.836991160000697e-05,8.440665179772048e-05,2.192838373389389e-05,0.0001052401661158352,0.0001545697575331126
9.735843918250001,18.48584391825,2,0.404092133036515,0.8747643564476237,17.18252597312541,1.597889909669899,-1.836991160000697e-05,9.109507465550806e-05,2.145150280109072e-05,0.0001154940311629664,0.00016363574253885
9.01415608175,19.01415608175,2,0.4707951803500157,2.474199899077205,22.03263753936162,0.9220915634496972,-1.834577085080884e-05,0.0001294868785435814,1.393927688050261e-05,0.0001745206850087909,0.0001828637564575062
9.735843918250001,19.01415608175,2,0.4986552836088896,2.657649602737049,22.12754251616703,0.9075662645158785,-1.834577085080884e-05,0.0001369955923021326,1.448211156665092e-05,0.0001861002518927475,0.0001923055254984968
9.014156081749999,19.73584391825,2,0.5868546667301018,2.006341634186749,17.2193665304113,1.107642155067693,-1.780293616466063e-05,0.0001294868785435814,2.144799063905382e-05,0.0001753416900490517,0.0002299115479305039
9.73584391825,19.73584391825,2,0.6041568520228082,2.170007111437586,17.48899131407067,1.088114690418064,-1.780293616466063e-05,0.0001369955923021325,2.1990825325202e-05,0.0001869202494434269,0.000239090728949026
7.76415608175,16.51415608175,2,0,-0.9068379161598346,17.52401070962355,2.499193313609675,-1.692108989941031e-05,5.680230460372322e-05,1.99935465088774e-05,6.492774034538618e-05,8.179044657059103e-05
8.485843918250001,16.51415608175,2,0,-0.6908400295633399,18.38800225600952,2.463146718416181,-1.692108989941031e-05,5.939427924288115e-05,1.970517374732945e-05,6.886319869558194e-05,8.745979670982473e-05
7.76415608175,17.23584391825,2,0,-1.002962170009114,17.49997964616123,2.823190143504413,-1.720946266095815e-05,5.680230460372322e-05,2.25855211480353e-05,6.46353822182564e-05,9.454003113427764e-05
8.485843918250001,17.23584391825,2,0.02186679931846058,-0.7697558933564359,17.9624099197898,2.726197639668275,-1.720946266095815e-05,5.93942792428812e-05,2.229714838648746e-05,6.85632065708767e-05,0.0001021486146692922
7.76415608175,15.26415608175,2,0,-0.9842952361747415,17.03778464805806,2.663285219736007,-1.677997247420562e-05,5.530834706272557e-05,2.130628175788806e-05,6.288268256169704e-05,6.962385366482751e-05
8.485843918250003,15.26415608175,2,0,-0.8293126256711156,17.65771509007256,2.660030735172154,-1.677997247420562e-05,5.716813838876908e-05,2.128024588137723e-05,6.570678198212365e-05,7.338767645903575e-05
7.76415608175,15.98584391825,2,0,-0.9929738616783492,17.03561499168214,2.895759135491466,-1.680600835071643e-05,5.530834706272552e-05,2.316607308393173e-05,6.291226348065787e-05,7.511417693938911e-05
8.485843918250001,15.98584391825,2,0,-0.837991251174719,17.65554543369666,2.892504650927612,-1.680600835071643e-05,5.716813838876908e-05,2.31400372074209e-05,6.573359200654501e-05,7.975332654306495e-05
9.014156081750006,15.26415608175,2,0,-0.814884761876832,18.02851451715429,2.329296974354129,-1.703044285172929e-05,5.834315426439518e-05,1.863437579483303e-05,6.709069834286293e-05,7.599969626552743e-05
9.735843918250008,15.26415608175,2,0,-0.702350449709864,18.47865176582216,2.315804422089189,-1.703044285172929e-05,5.96935660103988e-05,1.852643537671351e-05,6.914436550869006e-05,7.937204429333403e-05
9.014156081750002,15.98584391825,2,0,-0.8508649012499783,18.01951948231104,2.498098442604602,-1.713838326984876e-05,5.834315426439529e-05,1.998478754083681e-05,6.698757312353969e-05,8.301687481210246e-05
9.735843918250003,15.98584391825,2,0,-0.7383305890830121,18.4696567309789,2.484605890339662,-1.713838326984876e-05,5.969356601039888e-05,1.987684712271729e-05,6.903958510333917e-05,8.729390489276966e-05
9.01415608175,16.51415608175,2,0,-0.6364467927726709,19.06937767356651,2.054019391678829,-1.729213187572576e-05,6.153116598963098e-05,1.643215513343063e-05,7.15525411840319e-05,9.143021720873736e-05
9.735843918250001,16.51415608175,2,0,-0.3659377491700448,20.15141384797702,2.015005818585431,-1.729213187572576e-05,6.477727451286249e-05,1.612004654868345e-05,7.650190089175573e-05,9.660825760040713e-05
9.01415608175,17.23584391825,2,0.07161420379191996,-0.6874538881036383,17.67959294325381,2.283627559110373,-1.760424046047296e-05,6.153116598963098e-05,1.967826365666234e-05,7.122344096535964e-05,0.0001073987175522194
9.73584391825,17.23584391825,2,0.1287244595414493,-0.4094768021347761,17.53477294341198,2.109157153360866,-1.760424046047296e-05,6.477727451286247e-05,1.93661550719151e-05,7.616425595251427e-05,0.0001141336818389357
7.764156081750002,14.01415608175,2,0,-0.9239907297155705,16.70991640862898,2.803094383231679,-1.6324703461993e-05,5.421092509138518e-05,2.242475506585343e-05,6.184571932024798e-05,6.446192158916237e-05
8.485843918250005,14.01415608175,2,0,-0.7696099987692984,17.32743933241407,2.762306413735424,-1.6324703461993e-05,5.606349386274044e-05,2.209845130988339e-05,6.464740649973247e-05,6.736009351307787e-05
7.764156081750001,14.73584391825,2,0,-1.032758648372241,16.68272442896483,3.034665479651093,-1.665100721796303e-05,5.421092509138523e-05,2.427732383720874e-05,6.149064326266768e-05,6.676959044625298e-05
8.485843918250005,14.73584391825,2,0,-0.8783779174259827,17.30024735274986,2.993877510154834,-1.665100721796303e-05,5.606349386274033e-05,2.395102008123868e-05,6.428672477479231e-05,7.006691967714335e-05
7.764156081750001,12.76415608175,2,0,-0.742432955910183,16.47135773113295,2.92524478397019,-1.555287164381895e-05,5.330229110435359e-05,2.340195827176152e-05,6.150495026365214e-05,6.24901919354633e-05
8.485843918250001,12.76415608175,2,0,-0.5953121306067324,17.05984103234676,2.865546374231276,-1.555287164381895e-05,5.5067741007995e-05,2.292437099385021e-05,6.416928065173722e-05,6.493522145781912e-05
7.764156081750002,13.48584391825,2,0,-0.9016287152139881,16.431558791307,3.145926021925378,-1.603045892173036e-05,5.330229110435359e-05,2.516740817540302e-05,6.095228426940831e-05,6.331526021414102e-05
8.485843918250005,13.48584391825,2,0,-0.7545078899105375,17.02004209252081,3.086227612186434,-1.603045892173036e-05,5.5067741007995e-05,2.468982089749147e-05,6.360996642457969e-05,6.598505911945251e-05
9.014156081750002,12.76415608175,2,0,-0.5932605321840532,17.41514860900516,2.70700736629074,-1.58305525901931e-05,5.620308397456374e-05,2.165605893032592e-05,6.549048742985846e-05,6.660667174051837e-05
9.735843918250003,12.76415608175,2,0,-0.4818968017530274,17.86060353072926,2.649322258680706,-1.58305525901931e-05,5.753944873973605e-05,2.119457806944565e-05,6.75103451966814e-05,6.872812931301643e-05
9.014156081750007,13.48584391825,2,0,-0.7470874858107992,17.37669187059849,2.874052961937272,-1.629203345107334e-05,5.62030839745638e-05,2.299242369549817e-05,6.493212805631513e-05,6.780940219069777e-05
9.735843918250008,13.48584391825,2,0,-0.6357237553797734,17.82214679232259,2.816367854327234,-1.629203345107334e-05,5.75394487397361e-05,2.253094283461788e-05,6.694805341901899e-05,7.012380124667642e-05
9.014156081750009,14.01415608175,2,0,-0.7551864449258208,17.69543740467468,2.520770815317993,-1.657294654750237e-05,5.722954885089963e-05,2.016616652254395e-05,6.603620471623691e-05,6.934463270872904e-05
9.735843918250012,14.01415608175,2,0,-0.6440903865216292,18.13982163829145,2.482522316429482,-1.657294654750237e-05,5.856270155174992e-05,1.986017853143585e-05,6.805666120319391e-05,7.186832269717491e-05
9.014156081750007,14.73584391825,2,0,-0.8571824419618155,17.66993840541568,2.68741490292431,-1.687893453861035e-05,5.722954885089963e-05,2.149931922339448e-05,6.567814878130239e-05,7.233623003531974e-05
9.73584391825001,14.73584391825,2,0,-0.7460863835576195,18.11432263903247,2.649166404035795,-1.687893453861035e-05,5.856270155174997e-05,2.119333123228636e-05,6.769571432181965e-05,7.523877200137316e-05
7.76415608175,11.51415608175,2,0,-0.4785253225033204,16.31722347955039,3.035882420408527,-1.458505981565094e-05,5.25979353925639e-05,2.428705936326821e-05,6.173152010067562e-05,6.207582338143717e-05
8.485843918250001,11.51415608175,2,0,-0.3429049252791101,16.85970506844723,2.963317632287844,-1.458505981565094e-05,5.422538015925442e-05,2.370654105830275e-05,6.418381883162851e-05,6.421930882221261e-05
7.76415608175,12.23584391825,2,0,-0.67203142415846,16.26884695413661,3.239313016244822,-1.516557812061636e-05,5.25979353925639e-05,2.591450412995857e-05,6.103835857664922e-05,6.215808583708125e-05
8.485843918250001,12.23584391825,2,0,-0.5364110269342524,16.81132854303344,3.166748228124149,-1.516557812061636e-05,5.422538015925439e-05,2.533398582499319e-05,6.348392108379986e-05,6.44620900916534e-05
7.76415608175,10.26415608175,2,0,-0.1497804607691782,16.23051444451644,3.145382611226287,-1.346370903007452e-05,5.205747059106795e-05,2.51630608898103e-05,6.241569664773318e-05,6.24941578976406e-05
8.485843918250001,10.26415608175,2,0,-0.02897817786874679,16.71372357611817,3.062215569081729,-1.346370903007452e-05,5.350709798587313e-05,2.449772455265383e-05,6.459624486646783e-05,6.439116427986975e-05
7.76415608175,10.98584391825,2,0,-0.3715592398213126,16.17506974975341,3.326586035576927,-1.412904536723093e-05,5.205747059106795e-05,2.661268828461541e-05,6.160075802536628e-05,6.216587361865992e-05
8.485843918250001,10.98584391825,2,0,-0.250756956920883,16.65827888135513,3.243418993432373,-1.412904536723093e-05,5.350709798587311e-05,2.594735194745898e-05,6.37750615223891e-05,6.420030430822325e-05
9.01415608175,10.26415608175,2,0,-0.01729232696692673,17.01786015461788,3.024114466803075,-1.366962356998847e-05,5.447098635635075e-05,2.41929157344246e-05,6.578115101322056e-05,6.570108102396747e-05
9.735843918250001,10.26415608175,2,0,0.08135472355611029,17.41244835671003,2.936185049492773,-1.366962356998847e-05,5.565475096262719e-05,2.348948039594219e-05,6.756094186697058e-05,6.738283374045059e-05
9.01415608175,10.98584391825,2,0,-0.2517707731277046,16.95924054307768,3.172085042587633,-1.43730589084708e-05,5.447098635635075e-05,2.537668034070106e-05,6.489754721506741e-05,6.559976337457864e-05
9.735843918250001,10.98584391825,2,0,-0.1531237226046658,17.35382874516984,3.08415562527734,-1.43730589084708e-05,5.565475096262721e-05,2.467324500221872e-05,6.667270996964927e-05,6.738872595757366e-05
9.01415608175,11.51415608175,2,0,-0.3419906985685195,17.19257743919767,2.872783443767514,-1.48484321867774e-05,5.528984036428736e-05,2.298226755014011e-05,6.543229361374622e-05,6.569026873933019e-05
9.735843918250001,11.51415608175,2,0,-0.235264482216988,17.6194823046038,2.798369867459129,-1.48484321867774e-05,5.657055496050573e-05,2.238695893967303e-05,6.736305327132935e-05,6.756552052818813e-05
9.01415608175,12.23584391825,2,0,-0.5404269020575461,17.14296838832541,3.03287276829481,-1.544374079724448e-05,5.528984036428736e-05,2.426298214635848e-05,6.469694662332331e-05,6.603885164358833e-05
9.735843918250001,12.23584391825,2,0,-0.4337006857060102,17.56987325373156,2.958459191986424,-1.544374079724448e-05,5.657055496050578e-05,2.36676735358914e-05,6.662318329707801e-05,6.804264006050671e-05
7.76415608175,9.01415608175,2,0,0.2360207504958947,16.19100571084029,3.263906740053488,-1.219753816708537e-05,5.162240167429222e-05,2.61112539204279e-05,6.346461717194247e-05,6.3404720815243e-05
8.485843918250001,9.01415608175,2,0,0.3399619660886719,16.6067705732114,3.170328606484563,-1.219753816708537e-05,5.286969626140554e-05,2.53626288518765e-05,6.533562034889035e-05,6.507389250662926e-05
7.76415608175,9.735843918250001,2,0,-0.01352093902121965,16.12862028846101,3.419818563442651,-1.294616323563671e-05,5.162240167429222e-05,2.73585485075412e-05,6.252602113105228e-05,6.282610600350026e-05
8.485843918250001,9.735843918250001,2,0,0.09042027657155582,16.54438515083212,3.326240429873725,-1.294616323563671e-05,5.286969626140552e-05,2.66099234389898e-05,6.439154897369955e-05,6.462524153214271e-05
7.764156081749999,7.76415608175,2,0,0.6773791327457692,16.17610976003432,3.396863843240945,-1.077327458324099e-05,5.12216479259132e-05,2.717491074592756e-05,6.47939910776777e-05,6.462784802190475e-05
8.48584391825,7.76415608175,2,0,0.7636882921941357,16.52134639782778,3.291608865214663,-1.077327458324099e-05,5.225735783929359e-05,2.63328709217173e-05,6.63400057401871e-05,6.607364578462672e-05
7.76415608175,8.485843918250001,2,0,0.3966991913423392,16.10593977468345,3.526327582413499,-1.161531440745128e-05,5.122164792591317e-05,2.821062065930799e-05,6.371516381734414e-05,6.388749613402867e-05
8.485843918250001,8.485843918250001,2,0,0.483008350790703,16.45117641247691,3.421072604387211,-1.161531440745128e-05,5.225735783929354e-05,2.736858083509768e-05,6.52565310075458e-05,6.546199125638408e-05
9.01415608175,7.76415608175,2,0,0.8115308170213469,16.75826424943824,3.306881995194148,-1.080971278508228e-05,5.297722094458528e-05,2.645505596155318e-05,6.739460322133538e-05,6.708978045183725e-05
9.735843918250001,7.76415608175,2,0,0.8891135390925271,17.06859513772296,3.195436426435748,-1.080971278508228e-05,5.390821360943944e-05,2.556349141148598e-05,6.878296969695227e-05,6.842011422738458e-05
9.01415608175,8.485843918250001,2,0,0.5143426336656232,16.68396720359931,3.42325607830093,-1.170127733514945e-05,5.297722094458528e-05,2.738604862640744e-05,6.623948333910786e-05,6.656185446674058e-05
9.735843918250001,8.485843918250001,2,0,0.5919253557368105,16.99429809188405,3.311810509542534,-1.170127733514945e-05,5.390821360943952e-05,2.649448407634027e-05,6.762380204879256e-05,6.799224151658272e-05
9.01415608175,9.01415608175,2,0,0.3695267500206052,16.87835630256154,3.167755947840882,-1.232019944198329e-05,5.371511876818043e-05,2.534204758272705e-05,6.646064918447585e-05,6.623538947746161e-05
9.735843918250001,9.01415608175,2,0,0.4580636379669585,17.23250385434695,3.067835686365576,-1.232019944198329e-05,5.477756142353667e-05,2.454268549092461e-05,6.805259115425033e-05,6.773948652336159e-05
9.01415608175,9.735843918250001,2,0,0.1030727194198144,16.81174279491134,3.300561279760421,-1.311956153378566e-05,5.371511876818043e-05,2.640449023808336e-05,6.544059781425774e-05,6.587139652491781e-05
9.735843918250001,9.735843918250001,2,0,0.1916096073661713,17.16589034669677,3.200641018285113,-1.311956153378566e-05,5.477756142353671e-05,2.560512814628091e-05,6.702812209686813e-05,6.747681975078723e-05
7.76415608175,6.514156081750002,2,0,1.174261053533675,16.16123165293253,3.541995692587723,-9.171349951038265e-06,5.077653244655716e-05,2.833596554070179e-05,6.63141428814764e-05,6.604642584253637e-05
8.485843918250001,6.514156081750002,2,0,1.243620961073852,16.43867128309324,3.423612401363111,-9.171349951038265e-06,5.160885133703929e-05,2.738889921090489e-05,6.754613862700832e-05,6.726875239595724e-05
7.764156081749999,7.235843918250001,2,0,0.8585722769347139,16.08230945878279,3.64603555389799,-1.011841628083515e-05,5.077653244655716e-05,2.916828443118392e-05,6.507692696631668e-05,6.520633149379694e-05
8.48584391825,7.235843918250001,2,0,0.9279321844748907,16.3597490889435,3.527652262673383,-1.011841628083515e-05,5.160885133703927e-05,2.822121810138706e-05,6.630503386121434e-05,6.655776597287621e-05
7.76415608175,5.264156081750005,2,0,1.721274692364814,16.12229931920143,3.687734086851024,-7.389760439793739e-06,5.021433806755272e-05,2.95018726948082e-05,6.791774792714195e-05,6.755882454891698e-05
8.485843918250001,5.264156081750005,2,0,1.776049796644742,16.34139973632114,3.556428039071307,-7.389760439793739e-06,5.087163931891186e-05,2.845142431257046e-05,6.887822599008534e-05,6.856004111692054e-05
7.76415608175,5.985843918250002,2,0,1.371125231618891,16.03476195401495,3.769896743270915,-8.440208822031506e-06,5.021433806755272e-05,3.015917394616732e-05,6.652241117770276e-05,6.667677445683601e-05
8.485843918250001,5.985843918250002,2,0,1.425900335898818,16.25386237113466,3.638590695491193,-8.440208822031506e-06,5.087163931891184e-05,2.910872556392954e-05,6.747962588118864e-05,6.780526040381214e-05
9.01415608175,5.264156081750005,2,0,1.830703198132081,16.51004923499491,3.558712680575123,-7.349789153973268e-06,5.136759499347804e-05,2.846970144460099e-05,6.969176833966379e-05,6.92906498581504e-05
9.735843918250001,5.264156081750005,2,0,1.888842768958372,16.74260751830008,3.427193903572952,-7.349789153973268e-06,5.206526984339353e-05,2.741755122858361e-05,7.071770159355301e-05,7.028549349172563e-05
9.01415608175,5.985843918250002,2,0,1.479986459459625,16.4223700503268,3.645922036814564,-8.401939369990637e-06,5.136759499347804e-05,2.916737629451652e-05,6.829119064567001e-05,6.86167886778787e-05
9.735843918250001,5.985843918250002,2,0,1.538126030285911,16.65492833363194,3.514403259812391,-8.401939369990637e-06,5.206526984339348e-05,2.811522607849913e-05,6.931388930336797e-05,6.970543920752531e-05
9.01415608175,6.514156081750002,2,0,1.302158182326626,16.64054349195331,3.439583489036937,-9.145528610117445e-06,5.220801262838929e-05,2.75166679122955e-05,6.850148138656646e-05,6.814040212019631e-05
9.735843918250001,6.514156081750002,2,0,1.369209865616978,16.90875022511472,3.317161818029813,-9.145528610117445e-06,5.30126328278735e-05,2.653729454423851e-05,6.969369418967629e-05,6.92994668999012e-05
9.01415608175,7.235843918250001,2,0,0.9757003929743071,16.55892904461523,3.54016101397246,-1.01249019781744e-05,5.220801262838929e-05,2.832128811177968e-05,6.721439274615269e-05,6.75127510207816e-05
9.735843918250001,7.235843918250001,2,0,1.042752076264652,16.82713577777661,3.417739342965337,-1.01249019781744e-05,5.301263282787344e-05,2.73419147437227e-05,6.840297336320331e-05,6.877038421315932e-05
7.76415608175,4.014156081750002,2,0,2.299742528456287,16.04113135147247,3.814507658288378,-5.473728990117857e-06,4.949182630194687e-05,3.051606126630703e-05,6.947441568525947e-05,6.905397047157508e-05
8.485843918250001,4.014156081750003,2,0,2.343839782434498,16.21752036738531,3.674361961491366,-5.473728990117854e-06,5.002099334968538e-05,2.939489569193093e-05,7.023591063433127e-05,6.984690625647746e-05
7.76415608175,4.735843918250005,2,0,1.926020670330907,15.94770088694113,3.880653539255702,-6.594894564493998e-06,4.949182630194687e-05,3.104522831404562e-05,6.796472787060927e-05,6.819579230129698e-05
8.485843918250001,4.735843918250005,2,0,1.970117924309117,16.12408990285397,3.740507842458683,-6.594894564493998e-06,5.00209933496854e-05,2.992406273966946e-05,6.872345255282098e-05,6.910709847435556e-05
7.764156081749999,2.764156081749999,2,0,2.872976842187263,15.91354571958639,3.902376605429043,-3.537310680669867e-06,4.862496482892663e-05,3.121901284343235e-05,7.084647090380891e-05,7.039882154181067e-05
8.48584391825,2.764156081749999,2,0,2.910741994677684,16.06460632954807,3.762733958302499,-3.537310680669867e-06,4.907814665881168e-05,3.010187166641999e-05,7.149187929592368e-05,7.101554465421635e-05
7.76415608175,3.485843918250001,2,0,2.500596449849796,15.82045062150202,3.959024334164677,-4.654451857682266e-06,4.862496482892662e-05,3.167219467331741e-05,6.932625243941869e-05,6.96442703774545e-05
8.485843918250001,3.485843918250001,2,0,2.538361602340218,15.9715112314637,3.819381687038126,-4.654451857682266e-06,4.907814665881168e-05,3.055505349630501e-05,6.996933935502734e-05,7.035827286915352e-05
9.01415608175,2.764156081749999,2,0,2.918310175197961,16.18345824541213,3.71971903183191,-3.608174035696231e-06,4.945241824516046e-05,2.975775225465528e-05,7.195246183460953e-05,7.150806924021738e-05
9.735843918250001,2.764156081749999,2,0,2.965755771855684,16.37324063204302,3.585444391548751,-3.608174035696231e-06,5.002176540505312e-05,2.868355513239e-05,7.27812747007905e-05,7.223694832080059e-05
9.01415608175,3.485843918250001,2,0,2.560244467776206,16.0939418185567,3.790887426818495,-4.682371157961496e-06,4.945241824516046e-05,3.032709941454796e-05,7.049348745080584e-05,7.090992590163197e-05
9.735843918250001,3.485843918250001,2,0,2.607690064433926,16.28372420518758,3.656612786535335,-4.682371157961496e-06,5.00217654050531e-05,2.925290229228268e-05,7.131983144441813e-05,7.17030675228776e-05
9.01415608175,4.014156081750003,2,0,2.378528475918348,16.35757990785211,3.65437695947983,-5.474772803342968e-06,5.044143292439206e-05,2.923501567583864e-05,7.087120905187204e-05,7.044718684461782e-05
9.735843918250001,4.014156081750003,2,0,2.430153078578469,16.56407831849259,3.51804140535357,-5.474772803342968e-06,5.10609281563135e-05,2.814433124282856e-05,7.177603024610473e-05,7.129424812538189e-05
9.01415608175,4.735843918250005,2,0,2.014966998248314,16.2666895384346,3.731813863470014,-6.565457236353071e-06,5.044143292439206e-05,2.985451090776011e-05,6.940320691585863e-05,6.97811035687403e-05
9.735843918250001,4.735843918250005,2,0,2.066591600908434,16.47318794907508,3.595478309343754,-6.565457236353071e-06,5.10609281563135e-05,2.876382647475003e-05,7.030516707995154e-05,7.071121355817942e-05
7.76415608175,1.514156081749999,2,0,3.390672885700351,15.75380326170883,3.944976598531656,-1.75288937512594e-06,4.769963212890797e-05,3.155981278825325e-05,7.192199755558541e-05,7.143473779090451e-05
8.485843918250001,1.514156081749999,2,0,3.425075331041825,15.89141304307473,3.819107850834317,-1.75288937512594e-06,4.811246147300566e-05,3.055286280667454e-05,7.25105266337458e-05,7.193149627805632e-05
7.764156081749999,2.235843918249999,2,0,3.055022891840778,15.66989076324393,3.996580266543869,-2.759839356704656e-06,4.769963212890795e-05,3.197264213235095e-05,7.054144517573818e-05,7.087857583930391e-05
8.48584391825,2.235843918249999,2,0,3.089425337182254,15.80750054460984,3.870711518846529,-2.759839356704656e-06,4.811246147300566e-05,3.096569215077223e-05,7.112817884948511e-05,7.143708859613247e-05
7.76415608175,0.26415608175,2,0,3.806019889498334,15.58975613190484,3.963806763333035,-2.925412591292005e-07,4.68424037104968e-05,3.171045410666428e-05,7.265604475602926e-05,7.196998746293115e-05
8.485843918250001,0.26415608175,2,0,3.837012730617833,15.71372749638283,3.863902065422394,-2.925412591292005e-07,4.721431780393079e-05,3.091121652337915e-05,7.319090377349454e-05,7.242034085314364e-05
7.76415608175,0.9858439182500001,2,0,3.539607361736624,15.52315299996441,4.010296025012285,-1.091778842414329e-06,4.68424037104968e-05,3.208236820009828e-05,7.155541437637203e-05,7.172718065405626e-05
8.485843918250001,0.9858439182500001,2,0,3.570600202856124,15.64712436444241,3.910391327101643,-1.091778842414329e-06,4.721431780393079e-05,3.128313061681315e-05,7.208909750980158e-05,7.219495792627035e-05
9.01415608175,0.26415608175,2,0,3.855558986172836,15.8170520539477,3.793295493021926,-3.158528874050864e-07,4.753011938369436e-05,3.034636394417541e-05,7.361822802816547e-05,7.281504452975177e-05
9.735843918250001,0.26415608175,2,0,3.896464975141775,15.98067600982346,3.685429726003837,-3.158528874050864e-07,4.802099125132164e-05,2.94834378080307e-05,7.433534315718492e-05,7.344304163801272e-05
9.01415608175,0.9858439182500001,2,0,3.567916940791265,15.74514154260231,3.854654476475338,-1.178779023549798e-06,4.753011938369436e-05,3.08372358118027e-05,7.243180681034238e-05,7.259924682473611e-05
9.735843918250001,0.9858439182500001,2,0,3.608822929760205,15.90876549847807,3.746788709457248,-1.178779023549798e-06,4.802099125132165e-05,2.997430967565798e-05,7.314741070056744e-05,7.323600736411354e-05
9.01415608175,1.514156081749999,2,0,3.418848353510573,15.99812651331568,3.758879063194594,-1.858186479418714e-06,4.845892615980173e-05,3.007103250555675e-05,7.287425897310875e-05,7.235262498527225e-05
9.735843918250001,1.514156081749999,2,0,3.463325835452058,16.17603644108162,3.634722869143444,-1.858186479418714e-06,4.899265594309954e-05,2.907778295314755e-05,7.36518940455582e-05,7.300641152280909e-05
9.01415608175,2.235843918249999,2,0,3.087765169374179,15.91535571728159,3.825595286106822,-2.851436031827896e-06,4.845892615980173e-05,3.060476228885458e-05,7.151572894188095e-05,7.189463929458789e-05
9.735843918250001,2.235843918249999,2,0,3.132242651315664,16.09326564504753,3.701439092055673,-2.851436031827896e-06,4.899265594309955e-05,2.961151273644538e-05,7.229135086899484e-05,7.258617829303131e-05
10.26415608175,21.51415608175,2,0.7659405043573568,4.779603132079567,22.06533848025292,0.193590149235036,-1.007239956266148e-05,0.0002853351471504158,6.616784290797758e-06,0.0004266361714116456,0.0003821071657833695
10.98584391825,21.51415608175,2,0.7656589347130709,4.744295702141773,21.92765386295421,0.3008096805088953,-1.007239956266148e-05,0.0002832327134745774,1.026912394174129e-05,0.0004233957434112078,0.0003817082688084925
10.26415608175,22.23584391825,2,0.8015928942257288,4.293114891488691,18.76469144843149,0.1119599049955477,-6.420059911717944e-06,0.0002853351471504158,4.514350614959325e-06,0.0004317711233564651,0.0004404820143144172
10.98584391825,22.23584391825,2,0.7991840736076177,4.310053218863374,18.85177572378629,0.2050001839133707,-6.420059911717944e-06,0.0002832327134745773,8.166690265903019e-06,0.0004285285807856083,0.0004359747092558535
10.26415608175,20.26415608175,2,0.6707881687979852,4.034978858075689,22.27709261923729,0.2900523135282712,-1.491362485856363e-05,0.0002067322825142811,7.048405580546366e-06,0.0002984503652588716,0.000282576879930412
10.98584391825,20.26415608175,2,0.6768303352245595,4.042687196694704,22.19528771943967,0.3883605405808144,-1.491362485856363e-05,0.0002097683611237356,9.613787008150602e-06,0.000303145800230176,0.0002873203063449164
10.26415608175,20.98584391825,2,0.7323538510100338,3.509271673542128,18.16828644552712,0.3373841697504947,-1.234824343095923e-05,0.0002067322825142811,1.008448419000097e-05,0.0003020418927627074,0.0003397966125457642
10.98584391825,20.98584391825,2,0.7342008791871852,3.552303080908972,18.31190263305036,0.42029039494497,-1.234824343095923e-05,0.0002097683611237357,1.264986561760537e-05,0.0003067403764033915,0.0003418764415984158
11.51415608175,20.26415608175,2,0.6802604248044745,4.218138327262074,22.18724809811579,0.1642785248892872,-1.329755889196382e-05,0.0002114992590792283,4.110308204139659e-06,0.000308062941165749,0.0002900850846382173
12.23584391825,20.26415608175,2,0.6836799780841049,4.217648954336914,22.12845096751504,0.2610879387405103,-1.329755889196382e-05,0.0002131920816270968,6.603134057949194e-06,0.000310681682206071,0.0002928951729929958
11.51415608175,20.98584391825,2,0.7350154337307427,3.71597412019142,18.44275585297866,0.1922175106655908,-1.080473303815413e-05,0.0002114992590792283,5.803130752008367e-06,0.0003115535167300888,0.0003428018415945007
12.23584391825,20.98584391825,2,0.7354085407114364,3.747786971610491,18.56469798867766,0.2743799080659965,-1.080473303815413e-05,0.0002131920816270968,8.295956605817957e-06,0.0003141738594958202,0.0003432502523485843
11.51415608175,21.51415608175,2,0.7651358234355907,4.831922946682432,21.87629743183148,0.1038497662447144,-8.681121769638013e-06,0.0002816036672428708,3.537355684083549e-06,0.0004228236640963783,0.0003809694108528204
12.23584391825,21.51415608175,2,0.7639818747781426,4.809478557936044,21.79904183785995,0.2019826509304921,-8.681121769638013e-06,0.0002792554638456182,6.84634371163242e-06,0.0004192002433621539,0.0003793497103531388
11.51415608175,22.23584391825,2,0.7973079655228428,4.393605446584676,18.93553268342301,0.0301289620401148,-5.372133742089196e-06,0.0002816036672428708,1.189152286830896e-06,0.000427480455120391,0.0004325283923161036
12.23584391825,22.23584391825,2,0.7945831650936122,4.412472222792252,19.02929727866123,0.1154992182930854,-5.372133742089196e-06,0.0002792554638456182,4.498140314379605e-06,0.0004238549510186534,0.0004276201843958851
10.26415608175,19.01415608175,2,0.514886035538952,2.936322141461604,22.20952264072707,0.5722859443352878,-1.725653737716037e-05,0.0001416603515289556,9.437550534684543e-06,0.0001947627242795136,0.0001982708663907678
10.98584391825,19.01415608175,2,0.5323705227064826,3.034519672640725,22.22516063253484,0.6117347413412025,-1.725653737716037e-05,0.0001468959969837025,1.046528965422314e-05,0.000202844602707573,0.0002051267117526227
10.26415608175,19.73584391825,2,0.6140108903122971,2.468566283472119,17.70443937233947,0.7079617320292343,-1.622879825762184e-05,0.0001416603515289556,1.467319598943159e-05,0.0001962138088737186,0.0002446551705411489
10.98584391825,19.73584391825,2,0.6241821298309888,2.567487594703384,17.89379087454104,0.7375864990393733,-1.622879825762184e-05,0.0001468959969837026,1.570093510897008e-05,0.0002042984484399786,0.0002506783266687023
10.26415608175,17.76415608175,2,0.2823375837455647,1.52453701227913,21.78595718274427,1.059525912675531,-1.748767529502718e-05,9.544241390324452e-05,1.18108557859872e-05,0.0001232370582431982,0.0001372984599321176
10.98584391825,17.76415608175,2,0.3162526773322574,1.748139148388588,21.93899554687643,1.000380333495476,-1.748767529502718e-05,0.0001006311427485167,1.170467861832166e-05,0.0001312219355542505,0.0001437415502461427
10.26415608175,18.48584391825,2,0.4260601107677121,1.198912794105176,17.41791834342954,1.219592465032481,-1.759385246269271e-05,9.544241390324463e-05,1.699958463125927e-05,0.0001231531261809352,0.0001695047224819114
10.98584391825,18.48584391825,2,0.4502418763215681,1.386111245698376,17.63489913049989,1.160910998715062,-1.759385246269271e-05,0.0001006311427485166,1.689340746359371e-05,0.0001311336196516117,0.0001764730888699021
11.51415608175,17.76415608175,2,0.3372692930347648,2.030458584096362,22.0547630533029,0.742004488374418,-1.681881170796371e-05,0.0001040405615412493,8.9569350636815e-06,0.0001373630786508099,0.0001480473031606627
12.23584391825,17.76415608175,2,0.36160610367291,2.175395894542715,22.12286700046915,0.7396372943835344,-1.681881170796371e-05,0.0001081665380623986,9.268726391513881e-06,0.0001437217691014698,0.0001533677485744441
11.51415608175,18.48584391825,2,0.4649697050805129,1.694819033009106,17.81897110981592,0.8749692554547084,-1.650702038013123e-05,0.0001040405615412493,1.308291158483093e-05,0.0001378218137135483,0.0001810057956768216
12.23584391825,18.48584391825,2,0.4816238740684515,1.820297487909283,17.97724654579406,0.8679367754838114,-1.650702038013123e-05,0.0001081665380623986,1.339470291266342e-05,0.0001441806614630369,0.0001864210145816749
11.51415608175,19.01415608175,2,0.5429090332950011,3.29316364464032,22.27539018410654,0.3703011504199916,-1.593159571043556e-05,0.0001501817420901526,6.481005793474446e-06,0.0002097301076285265,0.0002094936036562195
12.23584391825,19.01415608175,2,0.5546151576185944,3.347680844377965,22.26033743298264,0.4309824271240307,-1.593159571043556e-05,0.000153922919207329,7.741303899246011e-06,0.0002155080252003131,0.0002145683288466596
11.51415608175,19.73584391825,2,0.6301694755605072,2.819851474089544,18.06177300553419,0.4725594083453141,-1.467129760466413e-05,0.0001501817420901526,1.022218291065109e-05,0.0002114915451568073,0.0002543652499393506
12.23584391825,19.73584391825,2,0.6365481637454922,2.884527284079319,18.2034967046317,0.5216661012720352,-1.467129760466413e-05,0.000153922919207329,1.148248101642249e-05,0.00021727219447466,0.0002584149555112447
10.26415608175,16.51415608175,2,0.002230300457332191,-0.139659672042689,20.96177617182527,1.630075048460946,-1.725481531047496e-05,6.733959902597924e-05,1.306974985677034e-05,8.04144097493028e-05,0.0001002149960731547
10.98584391825,16.51415608175,2,0.0484716987396665,0.1645057646087809,21.18107943460641,1.537638168284499,-1.725481531047496e-05,7.109389125835929e-05,1.292773460335623e-05,8.616201670425748e-05,0.0001048907484390637
10.26415608175,17.23584391825,2,0.1639937606163573,-0.1565925536944981,17.55345340636119,1.758125519772871,-1.73968305638891e-05,6.733959902597935e-05,1.682404208915066e-05,8.02946020437698e-05,0.0001187323336976956
10.98584391825,17.23584391825,2,0.2049514180458046,0.09981629577454854,17.68842202099499,1.657877722484256,-1.73968305638891e-05,7.109389125835929e-05,1.668202683573639e-05,8.603630555815067e-05,0.0001245611199359668
10.26415608175001,15.26415608175,2,0,-0.5890542653183779,18.76248159457837,1.99654340683391,-1.689495892468151e-05,6.051118451490549e-05,1.597234725467128e-05,7.050729844421144e-05,8.1719439660373e-05
10.98584391825,15.26415608175,2,0,-0.5154406361840111,19.05693611111584,1.968370871162948,-1.689495892468151e-05,6.139454806451788e-05,1.574696696930359e-05,7.185063563742979e-05,8.476029504104129e-05
10.26415608175,15.98584391825,2,0,-0.6641810271076487,18.74369990413112,2.106963850535433,-1.712033921004937e-05,6.05111845149057e-05,1.685571080428346e-05,7.023174257384267e-05,9.029742100662406e-05
10.98584391825,15.98584391825,2,0,-0.5905673979733113,19.03815442066847,2.078791314864454,-1.712033921004937e-05,6.139454806451775e-05,1.663033051891563e-05,7.157396101232662e-05,9.42261495507078e-05
11.51415608175,15.26415608175,2,0,-0.3261859229616046,19.31471872558873,1.673991651133623,-1.649556993394812e-05,6.206804866025321e-05,1.339193320906899e-05,7.335970782391369e-05,8.689136851036162e-05
12.23584391825,15.26415608175,2,0,-0.2464630648829669,19.63361015790328,1.644692370380775,-1.649556993394812e-05,6.302472295719686e-05,1.31575389630462e-05,7.481859813251491e-05,8.967271412278606e-05
11.51415608175,15.98584391825,2,0,-0.4043173383025458,19.29518587175349,1.793575938251573,-1.672996417997094e-05,6.206804866025321e-05,1.434860750601258e-05,7.306821287981363e-05,9.69782405309042e-05
12.23584391825,15.98584391825,2,0.005875297332764928,-0.3226873911400183,19.49883876799881,1.753911007558652,-1.672996417997094e-05,6.302472295719686e-05,1.411421325998971e-05,7.452599153664212e-05,0.0001005683643720887
11.51415608175,16.51415608175,2,0.07818549531250563,0.4921509678656708,21.37339930273614,1.231886935052847,-1.684052080551881e-05,7.376880776845259e-05,1.069097462700889e-05,9.078774128054175e-05,0.00010813288418727
12.23584391825,16.51415608175,2,0.1139767644838546,0.7354317822919674,21.59309304402129,1.17656382775399,-1.684052080551881e-05,7.732252334796265e-05,1.062332255490878e-05,9.624236634258934e-05,0.0001123148114108726
11.51415608175,17.23584391825,2,0.2306554289457969,0.3933989775359823,17.83385967244654,1.369884384591771,-1.690817287761898e-05,7.376880776845259e-05,1.424469020651874e-05,9.074521850315134e-05,0.0001285210653775403
12.23584391825,17.23584391825,2,0.2608715465856586,0.5968358683238852,18.00898305966658,1.309831533786117,-1.690817287761898e-05,7.732252334796265e-05,1.417703813441857e-05,9.619665366448351e-05,0.0001335110512813089
10.26415608175001,14.01415608175,2,0,-0.5418003102713307,18.4314036937883,2.232883655948996,-1.64788839478989e-05,5.941393206833963e-05,1.786306924759197e-05,6.94240483317376e-05,7.360341173420174e-05
10.98584391825,14.01415608175,2,0,-0.4590959503109593,18.76222113362979,2.202358961284735,-1.64788839478989e-05,6.040638438786409e-05,1.761887169027788e-05,7.093204399884757e-05,7.582007315077045e-05
10.26415608175001,14.73584391825,2,0,-0.6231994960426848,18.4110538973455,2.356940195889556,-1.672308150521299e-05,5.941393206833974e-05,1.885552156711645e-05,6.912933535039381e-05,7.724629335752898e-05
10.98584391825,14.73584391825,2,0,-0.5404951360823,18.74187133718704,2.326415501225309,-1.672308150521299e-05,6.040638438786436e-05,1.861132400980247e-05,7.063586999999932e-05,7.982840173400603e-05
10.26415608175,12.76415608175,2,0,-0.4028754233978153,18.14898353656712,2.455235341156484,-1.58083881841267e-05,5.839904765573303e-05,1.964188272925187e-05,6.880426887716256e-05,7.017927231283115e-05
10.98584391825,12.76415608175,2,0,-0.3185334944342477,18.48635125242139,2.402059787772401,-1.58083881841267e-05,5.941115080329584e-05,1.921647830217921e-05,7.033655915031164e-05,7.202241114504342e-05
10.26415608175001,13.48584391825,2,0,-0.5446768990886746,18.11353316764446,2.581748234601822,-1.623379261119932e-05,5.83990476557332e-05,2.065398587681457e-05,6.8274566031933e-05,7.170980915244013e-05
10.98584391825,13.48584391825,2,0,-0.460334970125114,18.4509008834987,2.528572681217756,-1.623379261119932e-05,5.941115080329592e-05,2.022858144974204e-05,6.98045372791611e-05,7.372846427639807e-05
11.51415608175,12.76415608175,2,0,-0.1883568117112686,18.71984917633451,2.19313264553076,-1.557862113854367e-05,6.005420281363945e-05,1.754506116424608e-05,7.157944439158898e-05,7.328524705144929e-05
12.23584391825,12.76415608175,2,0,-0.1262945103212667,18.96809838189452,2.144020048895136,-1.557862113854367e-05,6.079895043031947e-05,1.715216039116109e-05,7.270829760943221e-05,7.489224007730682e-05
11.51415608175,13.48584391825,2,0,-0.3193237360729464,18.68710744524409,2.286226097615773,-1.59715219116287e-05,6.005420281363945e-05,1.828980878092618e-05,7.107906873159813e-05,7.511583834141947e-05
12.23584391825,13.48584391825,2,0,-0.2572614346829445,18.9353566508041,2.237113500980145,-1.59715219116287e-05,6.079895043031947e-05,1.789690800784116e-05,7.220656487215009e-05,7.688755965236449e-05
11.51415608175,14.01415608175,2,0,-0.3065004580439048,18.99594381148937,1.953683225161505,-1.617755651493199e-05,6.103222056320109e-05,1.562946580129204e-05,7.223969014793285e-05,7.735252459036809e-05
12.23584391825,14.01415608175,2,0,-0.2467201323119701,19.23506511441711,1.932433696251398,-1.617755651493199e-05,6.174958447198431e-05,1.545946957001119e-05,7.333250204879205e-05,7.932259836709021e-05
11.51415608175,14.73584391825,2,0,-0.363165868470837,18.98177745888264,2.04335371375938,-1.634755274621279e-05,6.103222056320109e-05,1.634682971007504e-05,7.203098046558115e-05,8.163267377337603e-05
12.23584391825,14.73584391825,2,0,-0.3033855427389023,19.22089876181037,2.02210418484928,-1.634755274621279e-05,6.174958447198431e-05,1.617683347879424e-05,7.312313568574691e-05,8.397992827934329e-05
10.26415608175,11.51415608175,2,0,-0.1704460187274668,17.89605304483166,2.654678130188857,-1.486226969579322e-05,5.740372655844327e-05,2.123742504151086e-05,6.857911799231368e-05,6.885060405049711e-05
10.98584391825,11.51415608175,2,0,-0.08748330698857565,18.22790389178722,2.582350626343736,-1.486226969579322e-05,5.839927909930997e-05,2.065880501074989e-05,7.008116421271148e-05,7.048626573670612e-05
10.26415608175,12.23584391825,2,0,-0.3633193623144901,17.8478347089349,2.779122197797218,-1.544088972655429e-05,5.740372655844327e-05,2.223297758237775e-05,6.784773965782463e-05,6.941315061479442e-05
10.98584391825,12.23584391825,2,0,-0.2803566505755892,18.1796855558905,2.706794693952087,-1.544088972655429e-05,5.839927909931008e-05,2.16543575516167e-05,6.934684033743191e-05,7.115366666465863e-05
10.26415608175,10.26415608175,2,0,0.1388806922928154,17.6715541891432,2.833925248686707,-1.369282513597755e-05,5.643786885142397e-05,2.267140198949365e-05,6.869785852630376e-05,6.854196016613073e-05
10.98584391825,10.26415608175,2,0,0.2185267968197655,17.990138607251,2.74629374062824,-1.369282513597755e-05,5.739362210574737e-05,2.197034992502592e-05,7.013507016537189e-05,7.002699973713606e-05
10.26415608175,10.98584391825,2,0,-0.09480332919643875,17.61313318377088,2.953394405477126,-1.439387720044531e-05,5.643786885142397e-05,2.362715524381701e-05,6.780151671307524e-05,6.861716927333124e-05
10.98584391825,10.98584391825,2,0,-0.0151572246694851,17.9317176018787,2.865762897418653,-1.439387720044531e-05,5.739362210574741e-05,2.292610317934922e-05,6.923544124704335e-05,7.018437624334699e-05
11.51415608175,10.26415608175,2,0,0.309999523326038,18.21001596347676,2.605936919801109,-1.357601429613809e-05,5.80240514644648e-05,2.084749535840887e-05,7.122055802661758e-05,7.105002270784101e-05
12.23584391825,10.26415608175,2,0,0.3738838386884433,18.46555322492638,2.521766681102829,-1.357601429613809e-05,5.879066324881366e-05,2.017413344882263e-05,7.237401921820301e-05,7.235993387023046e-05
11.51415608175,10.98584391825,2,0,0.0855455534639864,18.15390247101125,2.701763392844706,-1.424937620572424e-05,5.80240514644648e-05,2.161410714275765e-05,7.034809216028751e-05,7.126042037557824e-05
12.23584391825,10.98584391825,2,0,0.1494298688263918,18.40943973246087,2.617593154146445,-1.424937620572424e-05,5.879066324881366e-05,2.094074523317156e-05,7.149927582668282e-05,7.263302064612962e-05
11.51415608175,11.51415608175,2,0,0.02227768677342201,18.45694896152976,2.410846597043101,-1.469427057154885e-05,5.904441452747648e-05,1.928677277634481e-05,7.125107318330009e-05,7.160745644631943e-05
12.23584391825,11.51415608175,2,0,0.08619353900020421,18.71261237043689,2.343082584305669,-1.469427057154885e-05,5.981140475419786e-05,1.874466067444535e-05,7.240936957985007e-05,7.303494474387843e-05
11.51415608175,12.23584391825,2,0,-0.1584263471930809,18.41177295303813,2.506720375383273,-1.523638267344836e-05,5.904441452747648e-05,2.005376300306618e-05,7.055432509578229e-05,7.234517895594651e-05
12.23584391825,12.23584391825,2,0,-0.09451049496629871,18.66743636194526,2.438956362645841,-1.523638267344836e-05,5.981140475419786e-05,1.951165090116673e-05,7.171074267215154e-05,7.385993502386201e-05
10.26415608175,9.01415608175,2,0,0.5128700154423997,17.47017185078726,2.995298339082642,-1.233495343121413e-05,5.549425391016531e-05,2.396238671266113e-05,6.91071323505609e-05,6.878440308526326e-05
10.98584391825,9.01415608175,2,0,0.5875031514089919,17.76870439465363,2.894525246140415,-1.233495343121413e-05,5.638985154176441e-05,2.315620196912332e-05,7.044891297409063e-05,7.013507117627018e-05
10.26415608175,9.735843918250001,2,0,0.2441417675964477,17.40298978882577,3.107248043032541,-1.314113817475198e-05,5.549425391016531e-05,2.485798434426033e-05,6.806480660237423e-05,6.858677033098369e-05
10.98584391825,9.735843918250001,2,0,0.3187749035630363,17.70152233269213,3.006474950090302,-1.314113817475198e-05,5.638985154176437e-05,2.405179960072242e-05,6.940319558790283e-05,7.001378848423049e-05
10.26415608175,7.76415608175,2,0,0.9416516900916196,17.2826052313762,3.140169450412051,-1.081279877680778e-05,5.455101538833054e-05,2.512135560329641e-05,6.974532073696619e-05,6.935372175445954e-05
10.98584391825,7.76415608175,2,0,1.010416227953826,17.55766338282503,3.027884701281921,-1.081279877680778e-05,5.537618984267701e-05,2.422307761025537e-05,7.097627210545452e-05,7.057405117731821e-05
10.26415608175,8.485843918250001,2,0,0.6422256924112686,17.20774873195611,3.243316257205356,-1.171107676984883e-05,5.455101538833054e-05,2.594653005764285e-05,6.857090063639972e-05,6.89899070998111e-05
10.98584391825,8.485843918250001,2,0,0.7109902302734756,17.48280688340494,3.13103150807523,-1.171107676984883e-05,5.537618984267703e-05,2.504825206460184e-05,6.979852302393908e-05,7.028519311242766e-05
11.51415608175,7.76415608175,2,0,1.071196954986597,17.74978220202007,2.927212457189366,-1.077199550565895e-05,5.594234548247495e-05,2.341769965751493e-05,7.187121801930133e-05,7.142895836926267e-05
12.23584391825,7.76415608175,2,0,1.131329581539829,17.990312708233,2.817492003020094,-1.077199550565895e-05,5.666393700111374e-05,2.253993602416075e-05,7.294876221068704e-05,7.25442788306516e-05
11.51415608175,8.485843918250001,2,0,0.7786090772018897,17.6766352325739,3.017411397019222,-1.164975913901307e-05,5.594234548247495e-05,2.413929117615378e-05,7.07147085174523e-05,7.118748308410181e-05
12.23584391825,8.485843918250001,2,0,0.8387417037551224,17.91716573878683,2.907690942849956,-1.164975913901307e-05,5.666393700111374e-05,2.326152754279965e-05,7.178962128875451e-05,7.235729911736373e-05
11.51415608175,9.01415608175,2,0,0.6632779599692524,17.9757725409337,2.777951121280227,-1.225812856084536e-05,5.699184976301245e-05,2.222360897024182e-05,7.1443008149535e-05,7.107245206191278e-05
12.23584391825,9.01415608175,2,0,0.7257023012180994,18.2254699059291,2.679909554163519,-1.225812856084536e-05,5.774094185799862e-05,2.143927643330815e-05,7.256590734878673e-05,7.22827561766342e-05
11.51415608175,9.735843918250001,2,0,0.4018337809913648,17.91041149618923,2.871587633153509,-1.304246109777902e-05,5.699184976301245e-05,2.297270106522807e-05,7.04183873000875e-05,7.099965674999329e-05
12.23584391825,9.735843918250001,2,0,0.4642581222402118,18.16010886118462,2.773546066036798,-1.304246109777902e-05,5.774094185799862e-05,2.218836852829439e-05,7.15387651832832e-05,7.226608078849477e-05
10.26415608175,6.514156081750002,2,0,1.415307749116666,17.09872479893382,3.267525965478398,-9.149995041973723e-06,5.358367315729489e-05,2.614020772382718e-05,7.054643168885995e-05,7.012387699375186e-05
10.98584391825,6.514156081750002,2,0,1.478265331927695,17.35055513017793,3.145455471213254,-9.149995041973723e-06,5.433916415102723e-05,2.516364376970603e-05,7.166799287670463e-05,7.121714247681535e-05
10.26415608175,7.235843918250001,2,0,1.089786431076278,17.01734446942372,3.361962339694946,-1.012655899609489e-05,5.358367315729489e-05,2.689569871755957e-05,6.92556764524285e-05,6.965756807177271e-05
10.98584391825,7.235843918250001,2,0,1.152744013887303,17.26917480066782,3.239891845429793,-1.012655899609489e-05,5.433916415102719e-05,2.591913476343834e-05,7.037406776961144e-05,7.082376625688482e-05
10.26415608175,5.264156081750005,2,0,1.921451001704973,16.9101544202474,3.374140741443162,-7.379480330742007e-06,5.257533334342769e-05,2.699312593154529e-05,7.144194626016329e-05,7.1006141316336e-05
10.98584391825,5.264156081750005,2,0,1.979438047315276,17.14210260268861,3.244836091277085,-7.379480330742007e-06,5.327117789075133e-05,2.595868873021668e-05,7.247008833010089e-05,7.198014415404397e-05
10.26415608175,5.985843918250002,2,0,1.576638601262126,16.82395132013669,3.461121309858615,-8.413917532070547e-06,5.257533334342769e-05,2.768897047886892e-05,7.00606076028069e-05,7.048522610555557e-05
10.98584391825,5.985843918250002,2,0,1.634625646872427,17.05589950257789,3.33181665969254,-8.413917532070547e-06,5.32711778907513e-05,2.665453327754032e-05,7.108578945362071e-05,7.15269930004947e-05
11.51415608175,5.264156081750005,2,0,2.00571980418724,17.30423404835858,3.156067392768074,-7.425083865287694e-06,5.376897311139766e-05,2.524853914214459e-05,7.314596193106108e-05,7.268021876008398e-05
12.23584391825,5.264156081750005,2,0,2.061066244795973,17.52561981079351,3.030237903622308,-7.425083865287694e-06,5.443313039870245e-05,2.424190322897846e-05,7.413090411826371e-05,7.361885531524741e-05
11.51415608175,5.985843918250002,2,0,1.670174499798534,17.2203477222614,3.239087053681169,-8.431719778453814e-06,5.376897311139766e-05,2.591269642944935e-05,7.179667155354067e-05,7.226947403241613e-05
12.23584391825,5.985843918250002,2,0,1.725520940407267,17.44173348469634,3.113257564535403,-8.431719778453814e-06,5.443313039870245e-05,2.490606051628322e-05,7.2779044503937e-05,7.325620304042875e-05
11.51415608175,6.514156081750002,2,0,1.522738509434583,17.52717120760688,3.053447680944417,-9.148973735894835e-06,5.486875705679433e-05,2.442758144755533e-05,7.245546520085299e-05,7.199195856180286e-05
12.23584391825,6.514156081750002,2,0,1.580353820452319,17.75763245167782,2.934330388372433,-9.148973735894835e-06,5.556014078900716e-05,2.347464310697947e-05,7.348406495549356e-05,7.301552998953683e-05
11.51415608175,7.235843918250001,2,0,1.205092395909282,17.44775967922555,3.139870647471021,-1.010191207647074e-05,5.486875705679433e-05,2.511896517976817e-05,7.118897365893876e-05,7.16445169238366e-05
12.23584391825,7.235843918250001,2,0,1.262707706927019,17.6782209232965,3.020753354899034,-1.010191207647074e-05,5.556014078900716e-05,2.416602683919227e-05,7.221493473226286e-05,7.272065126127812e-05
10.26415608175,4.014156081750003,2,0,2.443703488880361,16.71278413822552,3.456683614126367,-5.550376146163258e-06,5.152594645121736e-05,2.765346891301093e-05,7.236552997800472e-05,7.192276785751566e-05
10.98584391825,4.014156081750003,2,0,2.497950020235265,16.92977026364514,3.323956041281906,-5.550376146163258e-06,5.217690482747621e-05,2.659164833025525e-05,7.332394133190334e-05,7.27928544185736e-05
10.26415608175,4.735843918250005,2,0,2.089763294628474,16.62429908966255,3.538053411158728,-6.612196728918919e-06,5.152594645121736e-05,2.830442728926982e-05,7.093439167718803e-05,7.139132946784773e-05
10.98584391825,4.735843918250005,2,0,2.144009825983379,16.84128521508217,3.405325838314269,-6.612196728918919e-06,5.217690482747623e-05,2.724260670651415e-05,7.189008985908318e-05,7.231933069873737e-05
10.26415608175,2.764156081749999,2,0,2.962422106789884,16.50828750953536,3.515515731716143,-3.726879265900663e-06,5.045658234508126e-05,2.812412585372915e-05,7.326153185330527e-05,7.279307277430016e-05
10.98584391825,2.764156081749999,2,0,3.013971674482084,16.71448578030417,3.384218432195707,-3.726879265900663e-06,5.107517715738767e-05,2.707374745756566e-05,7.417084809961413e-05,7.358355395607381e-05
10.26415608175,3.485843918250001,2,0,2.612295974735384,16.42075597652174,3.59284008325444,-4.777257662064162e-06,5.045658234508126e-05,2.874272066603552e-05,7.183426536955712e-05,7.229836384446362e-05
10.98584391825,3.485843918250001,2,0,2.663845542427583,16.62695424729053,3.461542783734003,-4.777257662064162e-06,5.107517715738764e-05,2.769234226987202e-05,7.274116273265244e-05,7.3131602019419e-05
11.51415608175,2.764156081749999,2,0,3.011153461794411,16.85584463711862,3.295900553513755,-3.848984631952779e-06,5.152978006934404e-05,2.636720442811004e-05,7.4673722151337e-05,7.417028178934262e-05
12.23584391825,2.764156081749999,2,0,3.063103748501081,17.0636457839453,3.166394125544996,-3.848984631952782e-06,5.215318350982409e-05,2.533115300435997e-05,7.559508259136555e-05,7.498277085834235e-05
11.51415608175,3.485843918250001,2,0,2.665802987211043,16.76950701847278,3.373825983573755,-4.885036055702882e-06,5.152978006934404e-05,2.699060786859004e-05,7.326317119753624e-05,7.37444443060401e-05
12.23584391825,3.485843918250001,2,0,2.717753273917718,16.97730816529946,3.244319555605005,-4.885036055702869e-06,5.215318350982409e-05,2.595455644484004e-05,7.418228475982591e-05,7.458552239523145e-05
11.51415608175,4.014156081750003,2,0,2.506509303357016,17.07982476656091,3.23559081881219,-5.64303004250628e-06,5.265023181030932e-05,2.588472655049752e-05,7.389720773172257e-05,7.342838950823342e-05
12.23584391825,4.014156081750002,2,0,2.560025552481137,17.29388976305739,3.106237486297625,-5.643030042506274e-06,5.329242679979873e-05,2.4849899890381e-05,7.484746029886929e-05,7.429461710219278e-05
11.51415608175,4.735843918250005,2,0,2.161567083318158,16.9935892115512,3.315865192498362,-6.677856702622855e-06,5.265023181030932e-05,2.652692153998689e-05,7.249886623041077e-05,7.29907492259155e-05
12.23584391825,4.735843918250005,2,0,2.215083332442277,17.20765420804767,3.18651185998379,-6.677856702622855e-06,5.329242679979873e-05,2.549209487987032e-05,7.344668223423693e-05,7.389709752449755e-05
10.26415608175,1.514156081749999,2,0,3.458549050010597,16.30331905516791,3.558992348276333,-1.975298284100421e-06,4.940378173652885e-05,2.847193878621066e-05,7.409522854970619e-05,7.35176254130866e-05
10.98584391825,1.514156081749999,2,0,3.507672947735665,16.49981464606819,3.433892569617157,-1.975298284100421e-06,4.999326850922967e-05,2.747114055693725e-05,7.496178707114913e-05,7.426050119738222e-05
10.26415608175,2.235843918249999,2,0,3.124949640252794,16.21991920272847,3.632678194863937,-2.976096513373831e-06,4.940378173652885e-05,2.90614255589115e-05,7.272585788560238e-05,7.311977292696481e-05
10.98584391825,2.235843918249999,2,0,3.174073537977862,16.41641479362874,3.50757841620476,-2.976096513373831e-06,4.999326850922966e-05,2.806062732963808e-05,7.359034328463859e-05,7.388604157913578e-05
10.26415608175,0.26415608175,2,0,3.920180104134163,16.10574245601011,3.60618308331951,-3.400176315787643e-07,4.840223177592501e-05,2.884946466655608e-05,7.486103447857039e-05,7.393960717598494e-05
10.98584391825,0.26415608175,2,0,3.966071488762292,16.28930799452263,3.490064902696771,-3.400176315787643e-07,4.895292839146257e-05,2.792051922157417e-05,7.567054682658113e-05,7.466825234680956e-05
10.26415608175,0.9858439182500001,2,0,3.610531622473524,16.02833033559495,3.675020160261706,-1.268963076560682e-06,4.840223177592501e-05,2.940016128209365e-05,7.358226692298888e-05,7.373729933803208e-05
10.98584391825,0.9858439182500001,2,0,3.656423007101653,16.21189587410747,3.558901979638966,-1.268963076560682e-06,4.895292839146257e-05,2.847121583711173e-05,7.439007434896302e-05,7.447009394088481e-05
11.51415608175,0.26415608175,2,0,3.993082697973285,16.42428212598404,3.403263859239728,-3.615610672727213e-07,4.93632366447703e-05,2.722611087391782e-05,7.624467007503013e-05,7.521829704352161e-05
12.23584391825,0.26415608175,2,0,4.040606562915922,16.61437758575459,3.27978845850599,-3.615610672727213e-07,4.993352302408194e-05,2.623830766804792e-05,7.708569910989718e-05,7.5992401930612e-05
11.51415608175,0.9858439182500001,2,0,3.663814962683319,16.34196519216155,3.474549656653683,-1.349364273142619e-06,4.93632366447703e-05,2.779639725322946e-05,7.488149828684357e-05,7.502231827011411e-05
12.23584391825,0.9858439182500001,2,0,3.711338827625956,16.5320606519321,3.351074255919946,-1.349364273142619e-06,4.993352302408194e-05,2.680859404735957e-05,7.572075965490255e-05,7.579822859195558e-05
11.51415608175,1.514156081749999,2,0,3.508240830945185,16.63622779365664,3.346450088672778,-2.082611575900719e-06,5.042933627494509e-05,2.677160070938222e-05,7.545598233129822e-05,7.481862622067236e-05
12.23584391825,1.514156081749999,2,0,3.558396874180802,16.83685196659911,3.219516878689872,-2.082611575900719e-06,5.103120879377249e-05,2.575613502951898e-05,7.634490492299498e-05,7.560057635704576e-05
11.51415608175,2.235843918249999,2,0,3.169752270990773,16.55160565366804,3.421684153526201,-3.098077255763957e-06,5.042933627494509e-05,2.737347322820961e-05,7.406383418417867e-05,7.44581079658835e-05
12.23584391825,2.235843918249999,2,0,3.219908314226389,16.7522298266105,3.2947509435433,-3.098077255763957e-06,5.103120879377249e-05,2.63580075483464e-05,7.49507434510343e-05,7.525475374767603e-05
12.76415608175,21.51415608175,2,0.7630128062777055,4.863085817551796,21.77258681743873,0.07156826783510144,-7.832468955940099e-06,0.0002775753749750996,2.415937054184162e-06,0.0004177934762965931,0.0003780002162163125
13.48584391825,21.51415608175,2,0.7615147403919469,4.849272110316354,21.73199893167715,0.1571081404017083,-7.832468955940099e-06,0.0002753334902166696,5.27020045297267e-06,0.0004143327833423742,0.0003759330301695116
12.76415608175,22.23584391825,2,0.7925896846181335,4.453489277270589,19.10462108988805,0.004512530194404262,-4.978205557151486e-06,0.0002775753749750996,1.740522957538026e-07,0.0004218121394381345,0.0004241001398155206
13.48584391825,22.23584391825,2,0.7898700585249071,4.472627501321746,19.19809755825602,0.07954247495779083,-4.978205557151486e-06,0.0002753334902166696,3.028315694542528e-06,0.0004183497345496351,0.0004193914070968669
12.76415608175,20.26415608175,2,0.685648996094693,4.350708773914223,22.12584897425446,0.1035851365771437,-1.201972017247395e-05,0.0002141623499276706,2.636164931309637e-06,0.0003139614080699486,0.000294538245629066
13.48584391825,20.26415608175,2,0.6876382115814207,4.348114332663233,22.08558394235898,0.1927525244949677,-1.201972017247395e-05,0.0002151203496740556,4.936647993234572e-06,0.0003154438483639881,0.0002962171151967479
12.76415608175,20.98584391825,2,0.735438269233522,3.864484099591182,18.6721091379855,0.1188598034738225,-9.719237110548961e-06,0.0002141623499276706,3.594164677694434e-06,0.0003171850659467519,0.0003432842113002859
13.48584391825,20.98584391825,2,0.7351266445607234,3.890181754859452,18.77868570166411,0.1951668907406966,-9.719237110548961e-06,0.0002151203496740556,5.894647739619532e-06,0.0003186683161545359,0.0003429285781276265
14.01415608175,20.26415608175,2,0.6887937330115419,4.444237840137181,22.08563091846428,0.0764253569998329,-1.107607401254641e-05,0.0002156724840938541,1.96462256983192e-06,0.0003176145851597798,0.0002972012312272564
14.73584391825,20.26415608175,2,0.6899714177283012,4.441641214733118,22.05893926299019,0.1562423274946254,-1.107607401254641e-05,0.000216222943635031,4.031688339178993e-06,0.0003184667868491828,0.0002982110166555811
14.01415608175,20.98584391825,2,0.7347809303542528,3.970251036732509,18.86770512779537,0.08338096719555108,-9.009008243199615e-06,0.0002156724840938541,2.515082111008773e-06,0.0003205130533849634,0.0003425349094237878
14.73584391825,20.98584391825,2,0.7341466571095754,3.991941045387734,18.96160787852845,0.1522724164513468,-9.009008243199615e-06,0.000216222943635031,4.582147880355467e-06,0.0003213656615674409,0.0003418150196961643
14.01415608175,21.51415608175,2,0.7603892700492647,4.877890855134609,21.71897969629397,0.06434906084656727,-7.370008100085949e-06,0.0002737708046610444,2.148453397217984e-06,0.0004125665348306606,0.0003743949460033376
14.73584391825,21.51415608175,2,0.7588114971678448,4.869260633924648,21.69899406009932,0.1374539094100422,-7.370008100085949e-06,0.0002717433530850715,4.559219292660807e-06,0.000409436409064394,0.0003722600079616554
14.01415608175,22.23584391825,2,0.7879347219214435,4.487545792624023,19.2647870169793,0.003207535608781147,-4.959242204643167e-06,0.0002737708046610444,1.210018212446061e-07,0.0004159611495113243,0.00041610450647684
14.73584391825,22.23584391825,2,0.785373097309682,4.505490585252974,19.35244583360398,0.06792318292049374,-4.959242204643167e-06,0.0002717433530850713,2.531767716687375e-06,0.0004128297047834855,0.0004118332597017687
12.76415608175,19.01415608175,2,0.5618618763901602,3.558551923887086,22.2925853266651,0.2477769921401718,-1.47138579308706e-05,0.0001563192696904143,4.524180458869472e-06,0.0002208865276000401,0.0002178353742884486
13.48584391825,19.01415608175,2,0.5701286927112266,3.591919103705428,22.2740080948275,0.3159561417460944,-1.47138579308706e-05,0.0001591250438460471,5.880013602002897e-06,0.0002252209156876582,0.0002216863832359921
12.76415608175,19.73584391825,2,0.6404008524504701,3.083178234981252,18.33713084819471,0.3294806788689706,-1.335802478773713e-05,0.0001563192696904143,7.329954614502285e-06,0.0002227781314569374,0.0002609243310613668
13.48584391825,19.73584391825,2,0.6446217594220082,3.130081060604261,18.45426342574608,0.3858424964178013,-1.335802478773713e-05,0.0001591250438460471,8.685787757635628e-06,0.0002271146860574627,0.0002637303669879687
12.76415608175,17.76415608175,2,0.3769580622014628,2.444145595630748,22.20384861431056,0.5304982641249257,-1.595689211637752e-05,0.0001109026453876238,6.811718209523985e-06,0.0001491059849920919,0.000156925581231933
13.48584391825,17.76415608175,2,0.3950046792363745,2.542204687771064,22.23612508150724,0.5564737880241817,-1.595689211637752e-05,0.0001142518530942697,7.358387993107782e-06,0.000154271984739343,0.0001613253154036526
12.76415608175,18.48584391825,2,0.4920193455954417,2.085334923222719,18.12645822430625,0.645194224531504,-1.541022233279374e-05,0.0001109026453876238,1.016092591616953e-05,0.0001498753772270913,0.0001899689932586728
13.48584391825,18.48584391825,2,0.5040475521815635,2.174378021699491,18.25093394601721,0.6638072871928582,-1.541022233279374e-05,0.0001142518530942697,1.07075956997534e-05,0.0001550427095474247,0.0001942470323639612
14.01415608175,17.76415608175,2,0.4065891593721657,2.77990084182865,22.29647118234906,0.3932138092419443,-1.506796580016533e-05,0.0001164872334265403,5.301066745945124e-06,0.0001589332706285141,0.0001642822550681906
14.73584391825,17.76415608175,2,0.4204310731065303,2.848259381239809,22.30919348654589,0.4308946432362828,-1.506796580016533e-05,0.0001192451983621582,5.947794966109152e-06,0.0001631894259473175,0.0001679610302952481
14.01415608175,18.48584391825,2,0.5117014006648094,2.392756039886055,18.37336179828747,0.491901735263143,-1.442123758000119e-05,0.0001164872334265403,8.059031681563011e-06,0.0001598359251716927,0.0001970713171478155
14.73584391825,18.48584391825,2,0.5207267492039884,2.458681683247638,18.47436850232653,0.5215547310937871,-1.442123758000119e-05,0.0001192451983621582,8.705759901727066e-06,0.000164093492339383,0.0002005093675673888
14.01415608175,19.01415608175,2,0.5753503898326723,3.757877700558831,22.29700822927296,0.1770193258489305,-1.368751507705331e-05,0.000160942392355656,3.334877915544128e-06,0.0002294479451023993,0.0002241900724602777
14.73584391825,19.01415608175,2,0.5814333820826219,3.779365180060913,22.27888183711281,0.2455268277073734,-1.368751507705331e-05,0.0001631017066635448,4.692716852175508e-06,0.0002327841528614216,0.0002271792696801358
14.01415608175,19.73584391825,2,0.6472241139865806,3.281512113466868,18.56306398473731,0.2422773161937072,-1.232967614042195e-05,0.000160942392355656,5.494192223433119e-06,0.0002313426386597471,0.0002654908277354779
14.73584391825,19.73584391825,2,0.6501440437561226,3.317305083720354,18.66123363023722,0.2996529892146489,-1.232967614042195e-05,0.0001631017066635447,6.852031160064446e-06,0.0002346804563251988,0.0002674944600160062
12.76415608175,16.51415608175,2,0.1371836826808379,1.068617819945959,21.75219071780816,0.9731169158150701,-1.620527483052613e-05,7.9683374851611e-05,9.0227029441318e-06,0.0001007090844799151,0.0001152038422412418
13.48584391825,16.51415608175,2,0.1653375513961727,1.235197913986071,21.84820961887542,0.9450519810243816,-1.620527483052613e-05,8.257962552946752e-05,9.0580519835793e-06,0.0001051625352362463,0.0001189148940311764
12.76415608175,17.23584391825,2,0.2800926215533911,0.9001044959562741,18.15147909123961,1.07256783197904,-1.616992579107861e-05,7.9683374851611e-05,1.191895362198832e-05,0.0001007865035206896,0.000136892319395445
13.48584391825,17.23584391825,2,0.3029326069623856,1.039787684887747,18.24856076054955,1.041619323973713,-1.616992579107861e-05,8.257962552946752e-05,1.195430266143585e-05,0.0001052389301996254,0.0001411401297739015
12.76415608175,15.26415608175,2,0,-0.02173268014138507,19.95926452609397,1.383816154031317,-1.603695619732761e-05,6.388703262761382e-05,1.107052923225054e-05,7.671345209343434e-05,9.163126551889854e-05
13.48584391825,15.26415608175,2,0,0.09486728107475884,20.42566437095855,1.367229961789305,-1.603695619732761e-05,6.528623216220755e-05,1.093783969431444e-05,7.885513090676767e-05,9.420078183011585e-05
12.76415608175,15.98584391825,2,0.03102483245356091,-0.06391604979900833,19.32931728267116,1.510357190138973,-1.616964573526375e-05,6.388703262761382e-05,1.246972876684448e-05,7.655839347474959e-05,0.0001030761794068171
13.48584391825,15.98584391825,2,0.06195537859633249,0.04750017363352299,19.14981220949273,1.446586661590432,-1.616964573526375e-05,6.528623216220755e-05,1.233703922890828e-05,7.86989497980976e-05,0.000106337533656787
14.01415608175,15.26415608175,2,0,0.3605934491929954,20.79099087331813,1.165056641009642,-1.547889366123691e-05,6.62426960352636e-05,9.320453128077133e-06,8.104543579751493e-05,9.600208104070028e-05
14.73584391825,15.26415608175,2,0,0.4617524793854928,21.19562699408812,1.159784674596075,-1.547889366123691e-05,6.745660439757357e-05,9.278277396768602e-06,8.290744654406522e-05,9.835380569264257e-05
14.01415608175,15.98584391825,2,0.08237203242067748,0.3179900903714366,19.07516956315967,1.208328090521247,-1.552106939254548e-05,6.62426960352636e-05,1.05343614903873e-05,8.100370925102741e-05,0.0001086058801174727
14.73584391825,15.98584391825,2,0.1075629761972995,0.3995386137277315,18.91262567355902,1.170451879002155,-1.552106939254548e-05,6.745660439757352e-05,1.049218575907866e-05,8.286526270494288e-05,0.0001115417636475289
14.01415608175,16.51415608175,2,0.1837479172421503,1.540687856404626,21.96489895980113,0.7360454773328069,-1.548751702370407e-05,8.46002452489005e-05,7.213903575924234e-06,0.0001092297545651873,0.0001214738431764914
14.73584391825,16.51415608175,2,0.2062410561088636,1.671812588124789,22.05394429778833,0.7290423964148903,-1.548751702370407e-05,8.722443030754484e-05,7.347746083625893e-06,0.0001132699474973546,0.0001247539704658396
14.01415608175,17.23584391825,2,0.3176797840404789,1.318330630194509,18.36847566019183,0.8390908452209714,-1.535367451600251e-05,8.46002452489005e-05,9.838088634568621e-06,0.000109431746666618,0.0001440259729683719
14.73584391825,17.23584391825,2,0.3354406810593902,1.429341506816917,18.4716503767557,0.8283674710537152,-1.535367451600251e-05,8.722443030754489e-05,9.971931142270171e-06,0.0001134718241246765,0.0001476624328202208
12.76415608175,14.01415608175,2,0,-0.06415099299795379,19.41436501929813,1.69735799935779,-1.573677519303196e-05,6.217728885615239e-05,1.357886399486232e-05,7.453406630482783e-05,8.069165738759014e-05
13.48584391825,14.01415608175,2,0,-0.02655547637847455,19.56474708577605,1.674333787847661,-1.573677519303196e-05,6.262843505558613e-05,1.339467030278129e-05,7.522135498935566e-05,8.246192241359335e-05
12.76415608175,14.73584391825,2,0,-0.125548890358294,19.39901554495805,1.753751274287011,-1.592096888511298e-05,6.217728885615239e-05,1.403001019429609e-05,7.429813700230676e-05,8.563335092107666e-05
13.48584391825,14.73584391825,2,0,-0.08795337373881473,19.54939761143596,1.730727062776885,-1.592096888511298e-05,6.262843505558613e-05,1.384581650221508e-05,7.498507364304309e-05,8.78033310789018e-05
12.76415608175,12.76415608175,2,0,0.03665857417863005,19.15651995853281,1.937769367375711,-1.520790852945463e-05,6.127153700796208e-05,1.550215493900569e-05,7.388654581775436e-05,7.59966067751532e-05
13.48584391825,12.76415608175,2,0,0.08219048455108702,19.33864760002264,1.89554402773447,-1.520790852945463e-05,6.181791993243156e-05,1.516435222187576e-05,7.47159467769102e-05,7.740679967812734e-05
12.76415608175,13.48584391825,2,0,-0.07594233153136187,19.12836973210531,2.00606723293439,-1.554571124658461e-05,6.127153700796208e-05,1.604853786347512e-05,7.344993695241578e-05,7.810949957610497e-05
13.48584391825,13.48584391825,2,0,-0.03041042115890491,19.31049737359514,1.963841893293159,-1.554571124658461e-05,6.181791993243156e-05,1.571073514634527e-05,7.42785766268133e-05,7.967618022075772e-05
14.01415608175,12.76415608175,2,0,0.2574204381305307,19.49410476191949,1.702028964069094,-1.477153840751789e-05,6.217519888763795e-05,1.361623171255275e-05,7.581493848905419e-05,7.838010032678557e-05
14.73584391825,12.76415608175,2,0,0.2932305492697758,19.63734520647647,1.663887478407133,-1.477153840751789e-05,6.260492022130889e-05,1.331109982725706e-05,7.646815507260946e-05,7.962901424709848e-05
14.01415608175,13.48584391825,2,0,0.1557098096986316,19.46867710481152,1.755744130777965,-1.507667029281359e-05,6.217519888763795e-05,1.404595304622372e-05,7.541620542812919e-05,8.07649443557516e-05
14.73584391825,13.48584391825,2,0,0.1915199208378855,19.61191754936853,1.717602645116004,-1.507667029281359e-05,6.2604920221309e-05,1.374082116092803e-05,7.606893186062219e-05,8.217282264548739e-05
14.01415608175,14.01415608175,2,0,0.1641580487536256,19.71474691487743,1.474266144445539,-1.524649177589034e-05,6.295586368860486e-05,1.179412915556431e-05,7.634851439875594e-05,8.369846813446953e-05
14.73584391825,14.01415608175,2,0,0.201108503908956,19.86254873549875,1.454412515107231,-1.524649177589034e-05,6.339926915046882e-05,1.163530012085785e-05,7.702565337227892e-05,8.530650884392557e-05
14.01415608175,14.73584391825,2,0,0.1112150371848086,19.70151116198522,1.529691827178544,-1.540532081059679e-05,6.295586368860486e-05,1.223753461742836e-05,7.614397148996414e-05,8.932816011451302e-05
14.73584391825,14.73584391825,2,0,0.1481654923401452,19.84931298260657,1.509838197840226,-1.540532081059679e-05,6.33992691504689e-05,1.207870558272181e-05,7.682083117042537e-05,9.132409035501111e-05
12.76415608175,11.51415608175,2,0,0.2242727867489132,18.90249808156086,2.161761408912902,-1.440432554765217e-05,6.030857563159563e-05,1.729409127130322e-05,7.352030488194452e-05,7.401476214339612e-05
13.48584391825,11.51415608175,2,0,0.2735482759514509,19.09960003837102,2.099542708221593,-1.440432554765217e-05,6.089988150202609e-05,1.679634166577275e-05,7.441419611122675e-05,7.52641847635733e-05
12.76415608175,12.23584391825,2,0,0.05835625157204838,18.86101894776665,2.235674642716727,-1.490207515318276e-05,6.030857563159563e-05,1.788539714173381e-05,7.287251519117031e-05,7.489942518687552e-05
13.48584391825,12.23584391825,2,0,0.1076317407745861,19.0581209045768,2.173455942025387,-1.490207515318276e-05,6.089988150202609e-05,1.73876475362031e-05,7.376520852839588e-05,7.62246090584018e-05
12.76415608175,10.26415608175,2,0,0.4882739858990428,18.65206381514168,2.362415375351187,-1.335917429723641e-05,5.929598501973413e-05,1.88993230028095e-05,7.340333975367066e-05,7.326237754229353e-05
13.48584391825,10.26415608175,2,0,0.5394367332353216,18.8567148044868,2.283448848841622,-1.335917429723641e-05,5.990993798776949e-05,1.826759079073298e-05,7.432790612381713e-05,7.441798834305429e-05
12.76415608175,10.98584391825,2,0,0.2776965818735473,18.59941946413531,2.439159496355591,-1.399090650931289e-05,5.929598501973413e-05,1.951327597084473e-05,7.257629960942264e-05,7.357611654907276e-05
13.48584391825,10.98584391825,2,0,0.3288593292098261,18.80407045348042,2.360192969846033,-1.399090650931289e-05,5.990993798776949e-05,1.888154375876826e-05,7.349930529245723e-05,7.478010220188165e-05
14.01415608175,10.26415608175,2,0,0.6670784115424002,19.01526499199119,2.117979623210596,-1.307756107665727e-05,6.031518524513788e-05,1.694383698568477e-05,7.529550039698617e-05,7.521413989729911e-05
14.73584391825,10.26415608175,2,0,0.7081786722732435,19.17966603491456,2.044808894016538,-1.307756107665727e-05,6.0808388373908e-05,1.63584711521323e-05,7.603899667941423e-05,7.623365559335266e-05
14.01415608175,10.98584391825,2,0,0.4719564670248966,18.96648450586181,2.179630014306865,-1.366292691020978e-05,6.031518524513788e-05,1.743704011445492e-05,7.452281594216831e-05,7.56080123539128e-05
14.73584391825,10.98584391825,2,0,0.5130567277557425,19.1308855487852,2.1064592851128,-1.366292691020978e-05,6.080838837390803e-05,1.68516742809024e-05,7.526524084931394e-05,7.666591930065124e-05
14.01415608175,11.51415608175,2,0,0.4262060259294209,19.25805236993875,1.919699837490015,-1.404258261297685e-05,6.128480276306044e-05,1.535759869992012e-05,7.545626825660026e-05,7.612305632847573e-05
14.73584391825,11.51415608175,2,0,0.4645659069022248,19.41149189382996,1.863215733010709,-1.404258261297685e-05,6.174512133473409e-05,1.490572586408567e-05,7.61529160435016e-05,7.7220114460888e-05
14.01415608175,12.23584391825,2,0,0.2755817473179372,19.22039630028588,1.977239658949219,-1.44944554488113e-05,6.128480276306044e-05,1.581791727159375e-05,7.486252131571917e-05,7.713631017856e-05
14.73584391825,12.23584391825,2,0,0.3139416282907455,19.37383582417711,1.920755554469916,-1.44944554488113e-05,6.174512133473414e-05,1.536604443575933e-05,7.555839492882559e-05,7.830194008872936e-05
12.76415608175,9.01415608175,2,0,0.8175238281139849,18.40540934268154,2.538686849662128,-1.210825122418048e-05,5.824329083408975e-05,2.030949479729702e-05,7.350454953826749e-05,7.312195205314392e-05
13.48584391825,9.01415608175,2,0,0.8694697306875767,18.61319295297591,2.445378460937852,-1.210825122418048e-05,5.886664166497285e-05,1.956302768750282e-05,7.44398425336712e-05,7.420437371064682e-05
12.76415608175,9.735843918250001,2,0,0.5687014581825851,18.34320375019869,2.616605703522518,-1.285471833397468e-05,5.824329083408975e-05,2.093284562818015e-05,7.252112574192602e-05,7.314068453238231e-05
13.48584391825,9.735843918250001,2,0,0.6206473607561769,18.55098736049306,2.523297314798238,-1.285471833397468e-05,5.886664166497285e-05,2.018637851838591e-05,7.345457835341588e-05,7.426372235877312e-05
12.76415608175,7.76415608175,2,0,1.201449637341477,18.16171998249999,2.690090469203177,-1.068473714650726e-05,5.715634423412676e-05,2.152072375362541e-05,7.379092850287036e-05,7.332395678565075e-05
13.48584391825,7.76415608175,2,0,1.253423809010184,18.36961666917479,2.584831797838349,-1.068473714650724e-05,5.778003429415118e-05,2.067865438270679e-05,7.472354331257842e-05,7.433875611095146e-05
12.76415608175,8.485843918250001,2,0,0.9207598470352476,18.09154753492343,2.768051726706243,-1.152680651742595e-05,5.715634423412676e-05,2.214441381364994e-05,7.267396742715016e-05,7.317105970540071e-05
13.48584391825,8.485843918250001,2,0,0.9727340187039495,18.29944422159824,2.662793055341411,-1.152680651742595e-05,5.778003429415118e-05,2.130234444273129e-05,7.360455486641891e-05,7.422447894394745e-05
14.01415608175,7.76415608175,2,0,1.33200793414876,18.52163821793013,2.443873347578279,-1.055488518506807e-05,5.82036359500574e-05,1.955098678062623e-05,7.55192937355235e-05,7.50463391434879e-05
14.73584391825,7.76415608175,2,0,1.376475532993,18.69950861330709,2.34390089452089,-1.055488518506807e-05,5.873724713618828e-05,1.875120715616712e-05,7.631834728928648e-05,7.596469261373258e-05
14.01415608175,8.485843918250001,2,0,1.065414725995726,18.45498991589187,2.510574745844635,-1.135466480952717e-05,5.82036359500574e-05,2.008459796675708e-05,7.445217711383319e-05,7.495597909841487e-05
14.73584391825,8.485843918250001,2,0,1.109882324839964,18.63286031126882,2.410602292787237,-1.135466480952717e-05,5.873724713618825e-05,1.92848183422979e-05,7.524969227371658e-05,7.59010554477026e-05
14.01415608175,9.01415608175,2,0,0.9722167956777619,18.76930957922177,2.293018024586672,-1.190435391720857e-05,5.928401721696743e-05,1.834414419669338e-05,7.532378063542915e-05,7.495398405577472e-05
14.73584391825,9.01415608175,2,0,1.015295160932062,18.94162304023897,2.205268156316986,-1.190435391720857e-05,5.980095760001903e-05,1.764214525053589e-05,7.610028387603439e-05,7.591953594712762e-05
14.01415608175,9.735843918250001,2,0,0.7382171469585908,18.71080966704197,2.35763557246812,-1.260635286336608e-05,5.928401721696743e-05,1.886108457974496e-05,7.439242108224283e-05,7.503889354299137e-05
14.73584391825,9.735843918250001,2,0,0.7812955122128935,18.88312312805918,2.269885704198428,-1.260635286336608e-05,5.980095760001906e-05,1.815908563358742e-05,7.516759128702777e-05,7.60336627765382e-05
12.76415608175,6.514156081750002,2,0,1.629250558916013,17.91979582656744,2.816765157205709,-9.122234872722706e-06,5.603994619788298e-05,2.253412125764567e-05,7.422714717259657e-05,7.373796648844146e-05
13.48584391825,6.514156081750002,2,0,1.680872977469185,18.12628550078014,2.701990251772749,-9.122234872722716e-06,5.665941522052108e-05,2.161592201418199e-05,7.515067072997076e-05,7.46881282810411e-05
12.76415608175,7.235843918250001,2,0,1.32318414442815,17.84327922294547,2.894198785035453,-1.00404341161863e-05,5.603994619788298e-05,2.315359028028362e-05,7.300043481528222e-05,7.347585900034553e-05
13.48584391825,7.235843918250001,2,0,1.374806562981334,18.04976889715817,2.779423879602515,-1.004043411618627e-05,5.665941522052108e-05,2.223539103682012e-05,7.392183063123452e-05,7.446299057639307e-05
12.76415608175,5.264156081750005,2,0,2.089841165957799,17.6789963164783,2.919544541049681,-7.455705322117683e-06,5.490091527996432e-05,2.335635632839745e-05,7.477865104490772e-05,7.42884833286912e-05
13.48584391825,5.264156081750005,2,0,2.140995730571924,17.8836145749348,2.797800346349379,-7.455705322117683e-06,5.551477005533382e-05,2.238240277079503e-05,7.569161208811334e-05,7.517930452850539e-05
12.76415608175,5.985843918250002,2,0,1.765189980090324,17.59783352001143,2.996276387970866,-8.429658879720108e-06,5.490091527996432e-05,2.397021110376693e-05,7.346790496774121e-05,7.395570852096479e-05
13.48584391825,5.985843918250002,2,0,1.81634454470445,17.80245177846793,2.874532193270559,-8.429658879720108e-06,5.551477005533382e-05,2.299625754616447e-05,7.437871422333108e-05,7.488006402603078e-05
14.01415608175,5.264156081750005,2,0,2.17627774587785,18.0259747376734,2.674855609418761,-7.4566910033296e-06,5.59420969638526e-05,2.139884487535009e-05,7.63184451865657e-05,7.581039427576592e-05
14.73584391825,5.264156081750005,2,0,2.222413083394074,18.2105160877383,2.557416711457693,-7.4566910033296e-06,5.649572101404729e-05,2.045933369166154e-05,7.714367543603e-05,7.664374232967666e-05
14.01415608175,5.985843918250002,2,0,1.863107351315013,17.94768213903269,2.744058615693089,-8.39620218701811e-06,5.59420969638526e-05,2.195246892554471e-05,7.5048981081067e-05,7.553182126657083e-05
14.73584391825,5.985843918250002,2,0,1.909242688831234,18.13222348909758,2.626619717732024,-8.39620218701811e-06,5.649572101404724e-05,2.101295774185619e-05,7.587245199606386e-05,7.638809965693688e-05
14.01415608175,6.514156081750002,2,0,1.736570460375044,18.27345175297145,2.57070278929715,-9.061735929177017e-06,5.708578924120859e-05,2.05656223143772e-05,7.585847632743652e-05,7.535579909514516e-05
14.73584391825,6.514156081750002,2,0,1.782020999121495,18.45525390795725,2.460857687532355,-9.061735929177017e-06,5.763119570616601e-05,1.968686150025884e-05,7.667309204379671e-05,7.622974788948619e-05
14.01415608175,7.235843918250001,2,0,1.443650189002263,18.20022168512825,2.638878597416809,-9.940496743295358e-06,5.708578924120859e-05,2.111102877933447e-05,7.467874929085043e-05,7.515347058872625e-05
14.73584391825,7.235843918250001,2,0,1.489100727748714,18.38202384011405,2.529033495652021,-9.940496743295358e-06,5.7631195706166e-05,2.023226796521617e-05,7.549168445521273e-05,7.605276548806398e-05
12.76415608175,4.014156081750002,2,0,2.572164188871517,17.43989895083124,3.000834049549424,-5.720993756276141e-06,5.374994529156276e-05,2.400667239639539e-05,7.541509871103857e-05,7.491946166431095e-05
13.48584391825,4.014156081750003,2,0,2.622811586826972,17.64248854265306,2.874718182865552,-5.720993756276131e-06,5.435771406702819e-05,2.299774546292441e-05,7.63174719837177e-05,7.576034116096414e-05
12.76415608175,4.735843918250005,2,0,2.235855211047866,17.35582170637533,3.076805146482609,-6.729920689747094e-06,5.374994529156276e-05,2.461444117186088e-05,7.404741023511976e-05,7.454672020514573e-05
13.48584391825,4.735843918250005,2,0,2.286502609003318,17.55841129819714,2.950689279798739,-6.729920689747094e-06,5.435771406702819e-05,2.360551423838991e-05,7.494767453398508e-05,7.541517407591903e-05
12.76415608175,2.764156081749999,2,0,3.066320774757124,17.20433895691034,3.06583220048773,-3.951244686305471e-06,5.260082804230737e-05,2.452665760390184e-05,7.611429252682509e-05,7.55746534594786e-05
13.48584391825,2.76415608175,2,0,3.116286121927677,17.40420034559255,2.937681565632244,-3.951244686305473e-06,5.320041220835402e-05,2.350145252505795e-05,7.700345440657955e-05,7.637921772896789e-05
12.76415608175,3.485843918250001,2,0,2.724585748475821,17.11890520034001,3.140780221243565,-4.976449765149381e-06,5.260082804230737e-05,2.512624176994852e-05,7.471468771442619e-05,7.519489554967397e-05
13.48584391825,3.485843918250002,2,0,2.774551095646375,17.31876658902222,3.012629586388079,-4.976449765149381e-06,5.320041220835402e-05,2.410103669110463e-05,7.560183964025927e-05,7.601865587925889e-05
14.01415608175,2.76415608175,2,0,3.127547400218058,17.53945935251689,2.829467446860502,-4.023415801315727e-06,5.36242320078796e-05,2.263573957488402e-05,7.752891850750915e-05,7.695728011384672e-05
14.73584391825,2.76415608175,2,0,3.174073488514731,17.72556370570359,2.702653933316669,-4.023415801315727e-06,5.418254506743967e-05,2.162123146653335e-05,7.835875524366627e-05,7.773201164985795e-05
14.01415608175,3.485843918250002,2,0,2.789378030767835,17.45491701015434,2.899256579305512,-5.037923909666396e-06,5.36242320078796e-05,2.319405263444409e-05,7.613972845107662e-05,7.660848912838307e-05
14.73584391825,3.485843918250002,2,0,2.835904119064506,17.64102136334102,2.772443065761678,-5.037923909666396e-06,5.418254506743966e-05,2.217954452609342e-05,7.696781645648617e-05,7.739618320346739e-05
14.01415608175,4.014156081750003,2,0,2.642290844063469,17.78074007865857,2.75935640773099,-5.769261361923754e-06,5.478453557645663e-05,2.207485126184792e-05,7.687970674060608e-05,7.636069225365553e-05
14.73584391825,4.014156081750003,2,0,2.68881828357228,17.96684983669381,2.636413536633569,-5.769261361923754e-06,5.534286485056237e-05,2.109130829306856e-05,7.771067682851485e-05,7.716000244468447e-05
14.01415608175,4.735843918250005,2,0,2.314443187803675,17.69877816459362,2.829147566994211,-6.752804330703135e-06,5.478453557645663e-05,2.263318053595368e-05,7.554190555406049e-05,7.603248958737794e-05
14.73584391825,4.735843918250005,2,0,2.36097062731249,17.88488792262888,2.70620469589679,-6.752804330703135e-06,5.534286485056241e-05,2.164963756717432e-05,7.637109669729221e-05,7.685057305828252e-05
12.76415608175,1.51415608175,2,0,3.565642749412735,16.97450967003817,3.123535383480433,-2.169550937909779e-06,5.146591674459194e-05,2.498828306784347e-05,7.686580337729022e-05,7.617399525943258e-05
13.48584391825,1.51415608175,2,0,3.614457056855732,17.16976689981016,2.994836949177382,-2.169550937909784e-06,5.205168843390792e-05,2.395869559341906e-05,7.773339751493936e-05,7.695865469846698e-05
12.76415608175,2.235843918249999,2,0,3.222446924604606,16.88871071383613,3.196756844644927,-3.199138412334167e-06,5.146591674459194e-05,2.557405475715941e-05,7.545052226275113e-05,7.583700243600981e-05
13.48584391825,2.23584391825,2,0,3.271261232047605,17.08396794360813,3.068058410341883,-3.199138412334167e-06,5.205168843390792e-05,2.454446728273506e-05,7.63162437452195e-05,7.663108965345307e-05
12.76415608175,0.26415608175,2,0,4.069400122088978,16.75115197790163,3.186883751520982,-3.788411916365763e-07,5.034816623161404e-05,2.549507001216786e-05,7.767342077912109e-05,7.656131148630268e-05
13.48584391825,0.26415608175,2,0,4.116278449649606,16.93866528814414,3.057507078571598,-3.788411916365763e-07,5.091070616234157e-05,2.446005662857279e-05,7.850470856341808e-05,7.734149641033678e-05
12.76415608175,0.9858439182500001,2,0,3.724395660890624,16.66490086260205,3.257201242861925,-1.413854575231639e-06,5.034816623161404e-05,2.60576099428954e-05,7.624096252958584e-05,7.636807328452306e-05
13.48584391825,0.9858439182500001,2,0,3.771273988451252,16.85241417284456,3.12782456991254,-1.413854575231639e-06,5.091070616234157e-05,2.502259655930032e-05,7.707052360103913e-05,7.714900761526565e-05
14.01415608175,0.26415608175,2,0,4.145641936893343,17.07173329957627,2.960050253945046,-3.913324416023177e-07,5.131303300912937e-05,2.368040203156037e-05,7.908180958859183e-05,7.790471713254113e-05
14.73584391825,0.26415608175,2,0,4.190361724892712,17.25061245157374,2.826407739800924,-3.913324416023177e-07,5.184967046512181e-05,2.261126191840739e-05,7.987597074396102e-05,7.866327983751043e-05
14.01415608175,0.9858439182500001,2,0,3.789261899175687,16.98263829014685,3.0271299359441,-1.460472554755285e-06,5.131303300912937e-05,2.42170394875528e-05,7.759784055924571e-05,7.771265301209637e-05
14.73584391825,0.9858439182500001,2,0,3.833981687175057,17.16151744214433,2.893487421799981,-1.460472554755285e-06,5.184967046512181e-05,2.314789937439984e-05,7.839038795561925e-05,7.84716265430131e-05
14.01415608175,1.51415608175,2,0,3.628250877492406,17.30331336265193,2.893004015086866,-2.232247882145845e-06,5.246800205849224e-05,2.314403212069493e-05,7.826123358417283e-05,7.752455887684344e-05
14.73584391825,1.51415608175,2,0,3.674219067907398,17.4871861243119,2.763080353412393,-2.232247882145845e-06,5.301962034347215e-05,2.210464282729914e-05,7.907977011962888e-05,7.828597840541479e-05
14.01415608175,2.23584391825,2,0,3.281787779693807,17.21669758820228,2.961956300709354,-3.271637175541641e-06,5.246800205849224e-05,2.369565040567483e-05,7.682835806800448e-05,7.720274026314962e-05
14.73584391825,2.23584391825,2,0,3.327755970108798,17.40057034986225,2.83203263903488,-3.271637175541641e-06,5.301962034347214e-05,2.265626111227904e-05,7.764520929862329e-05,7.797043155564143e-05
15.26415608175,21.51415608175,2,0.7576749218527694,4.88136572768571,21.69279754212913,0.06695309835154092,-7.155131108863521e-06,0.0002703470068123172,2.210356397726592e-06,0.0004075796772840138,0.0003707372374202278
15.98584391825,21.51415608175,2,0.756148543630818,4.87579046339806,21.68414828035325,0.1290128417764115,-7.155131108863521e-06,0.0002685595694260057,4.232505926266548e-06,0.000404819964242185,0.0003687118889742835
15.26415608175,22.23584391825,2,0.7835774032575057,4.505469035441877,19.41049264507375,0.01144115383277719,-5.132981580323456e-06,0.0002703470068123172,4.229190114150676e-07,0.0004104268614291506,0.0004088916193270297
15.98584391825,22.23584391825,2,0.7812403235521541,4.521537246309047,19.48976072239158,0.06686030033666951,-5.132981580323456e-06,0.0002685595694260057,2.44506853995497e-06,0.0004076661601410957,0.0004051261551403763
15.26415608175,20.26415608175,2,0.6906583909923807,4.510386469152366,22.06012817955074,0.06680230996358034,-1.039260723013125e-05,0.0002165376368673074,1.727599728413773e-06,0.0003199084455481662,0.0002988032451345108
15.98584391825,20.26415608175,2,0.6913610593442876,4.508096268984646,22.04183918363685,0.137180881293362,-1.039260723013125e-05,0.0002168469352255453,3.555763404369317e-06,0.0003203877218966671,0.00029941145800038
15.26415608175,20.98584391825,2,0.7336373300985386,4.046045907073896,19.03574369243383,0.06781920158470739,-8.564443554175669e-06,0.0002165376368673074,2.036898086651452e-06,0.0003224731386169489,0.0003412391464602051
15.98584391825,20.98584391825,2,0.7328793289614794,4.064444934420207,19.1174546242595,0.1290547364541063,-8.564443554175669e-06,0.0002168469352255451,3.865061762606779e-06,0.0003229526111286621,0.0003403857212484023
16.51415608175,20.26415608175,2,0.691771268535187,4.557752670566401,22.04316590288217,0.06504253990184337,-9.894353981862343e-06,0.0002170204199812117,1.688162932579011e-06,0.0003213526961412808,0.0002997676785456696
17.23584391825,20.26415608175,2,0.6921905710764181,4.555776414319149,22.03007496818262,0.1265302825118298,-9.894353981862343e-06,0.0002171850907898144,3.288535583963355e-06,0.000321608307904514,0.0003001326783082727
16.51415608175,20.98584391825,2,0.732317629896147,4.100994171745521,19.17916741215646,0.06199636590599443,-8.293981330478151e-06,0.0002170204199812114,1.852833741181883e-06,0.0003235985596945659,0.0003397560810933215
17.23584391825,20.98584391825,2,0.7315409342122241,4.116577388158434,19.24955265218551,0.1158805702650754,-8.293981330478151e-06,0.0002171850907898145,3.453206392565848e-06,0.0003238542592811845,0.000338889297410885
16.51415608175,21.51415608175,2,0.7550722799987339,4.877832295066967,21.68136484489627,0.07219865428801674,-7.087921823196454e-06,0.0002673364275275825,2.35820279673182e-06,0.0004030234261987099,0.0003672971718790681
17.23584391825,21.51415608175,2,0.7536601018925386,4.874050263331942,21.6787484779776,0.1247972087227292,-7.087921823196454e-06,0.0002657821791023939,4.052845996332715e-06,0.0004006237023765998,0.0003654574413423834
16.51415608175,22.23584391825,2,0.7796174705651953,4.51349504737788,19.53971067077982,0.0221471872438553,-5.393278623595489e-06,0.000267336427527583,8.039543715431235e-07,0.0004054090886329321,0.0004025524286571415
17.23584391825,22.23584391825,2,0.7775275966792933,4.527481459670508,19.60974541014388,0.06948362582297032,-5.393278623595489e-06,0.0002657821791023936,2.498597571144344e-06,0.0004030086343105374,0.0003992863413265132
15.26415608175,19.01415608175,2,0.5853346208021198,3.911454811546247,22.29550303117197,0.13821929673672,-1.282901176432908e-05,0.0001645096245615434,2.666618505824402e-06,0.0002361501012525235,0.0002291388253376086
15.98584391825,19.01415608175,2,0.5899536193470665,3.925536873325941,22.27775979495007,0.2029901512619881,-1.282901176432908e-05,0.0001661968134840356,3.960335432079827e-06,0.0002387571172558879,0.0002315032337344529
15.26415608175,19.73584391825,2,0.6519744645203438,3.432936793986922,18.74996862961809,0.1894045202019085,-1.153529483807372e-05,0.0001645096245615434,4.353807428316824e-06,0.0002379564534879822,0.0002687660546193763
15.98584391825,19.73584391825,2,0.654069513442083,3.460908660767702,18.83164733797565,0.2442063559781034,-1.153529483807372e-05,0.0001661968134840358,5.647524354572141e-06,0.0002405646255246684,0.0002702364834020334
15.26415608175,17.76415608175,2,0.4294097703445084,3.043826559361773,22.35111623785298,0.3064784580397147,-1.426706518483473e-05,0.000121082533704361,4.297002536825896e-06,0.0001671234586157545,0.0001704368940008876
15.98584391825,17.76415608175,2,0.4402396143179605,3.091556681727278,22.34889911492647,0.3500657697230701,-1.426706518483473e-05,0.0001233442622743966,5.003080299032349e-06,0.0001706149961881078,0.0001735223042105403
15.26415608175,18.48584391825,2,0.5265484474258023,2.63706928110145,18.57386531150891,0.3881551781825398,-1.356098742262819e-05,0.000121082533704361,6.558731106861616e-06,0.0001681064010389433,0.0002027916061582744
15.98584391825,18.48584391825,2,0.5335067867855647,2.686235570948156,18.65257803022058,0.4236230040900364,-1.356098742262819e-05,0.0001233442622743966,7.264808869068069e-06,0.0001715991942449314,0.00020558874752426
16.51415608175,17.76415608175,2,0.4473352413571275,3.259351417121684,22.37843006094542,0.248118063180977,-1.35214330154093e-05,0.0001248559709701293,3.591588706184306e-06,0.0001739751406457033,0.0001756052804312659
17.23584391825,17.76415608175,2,0.4559764361427443,3.293091384091618,22.36733825824163,0.2921242287500878,-1.35214330154093e-05,0.0001267243073632544,4.295758465737887e-06,0.0001768600161777325,0.0001782106670878352
16.51415608175,18.48584391825,2,0.5380439761878253,2.832826668271093,18.73257163537066,0.3152806611486463,-1.281726325585579e-05,0.0001248559709701293,5.459925099309199e-06,0.0001749551103780379,0.0002074546953532607
17.23584391825,18.48584391825,2,0.5435268773776017,2.870274630564167,18.79451874959894,0.351717953545719,-1.281726325585579e-05,0.0001267243073632543,6.164094858862753e-06,0.0001778409870617142,0.000209755418260595
16.51415608175,19.01415608175,2,0.5929506242769678,4.030596048704249,22.28922945587975,0.1160335253882715,-1.212009280222329e-05,0.0001673041686868712,2.28048059638296e-06,0.0002414531661688539,0.0002330637445387949
17.23584391825,19.01415608175,2,0.5965437733691219,4.04000755468584,22.2724388542447,0.1755546943868475,-1.212009280222329e-05,0.0001686423304406799,3.481015937770366e-06,0.0002435210304489472,0.0002349627309453545
16.51415608175,19.73584391825,2,0.6554011668321618,3.550112856229842,18.90403487456092,0.1558724914409656,-1.091955746083598e-05,0.0001673041686868714,3.618642350191529e-06,0.0002431305268995379,0.0002711795531281843
17.23584391825,19.73584391825,2,0.6569511898219184,3.572398835407512,18.97202183489377,0.2066516466416111,-1.091955746083598e-05,0.0001686423304406797,4.819177691578881e-06,0.0002451992160357293,0.000272285638752561
15.26415608175,16.51415608175,2,0.2211032106543929,1.94139345685937,22.14320224497306,0.5958552467493067,-1.476717184017667e-05,8.897858274220548e-05,6.119991813035116e-06,0.0001169449915193309,0.0001270203658346867
15.98584391825,16.51415608175,2,0.2394356766683315,2.033124317342102,22.17172734205145,0.5986499072518804,-1.476717184017667e-05,9.114683125947842e-05,6.296902327781892e-06,0.0001202859663342253,0.000129932145843331
15.26415608175,17.23584391825,2,0.3470204487404912,1.666052154880002,18.57313648581763,0.6765064314519458,-1.459026132542977e-05,8.897858274220548e-05,8.28824033030813e-06,0.0001171996093753079,0.0001501340513473096
15.98584391825,17.23584391825,2,0.3610866047501538,1.745606485183901,18.63481769200168,0.6760622834645169,-1.459026132542977e-05,9.11468312594785e-05,8.465150845054907e-06,0.0001205407954270626,0.0001532501788886832
15.26415608175,15.26415608175,2,8.029575276058409e-05,0.7417962761231296,21.58090119589139,0.9543306566312479,-1.489216865101116e-05,6.84709447320034e-05,7.635258331865262e-06,8.523501695096048e-05,0.0001000077243131764
15.98584391825,15.26415608175,2,0.02212551746626124,0.8523472691766241,21.61272871847238,0.938681189986218,-1.489216865101116e-05,7.002826569963967e-05,7.679359318623648e-06,8.762781566073945e-05,0.0001021745893643088
15.26415608175,15.98584391825,2,0.1243581392232926,0.6624722550343094,18.90187601821813,1.006175905394138,-1.484806766425272e-05,6.84709447320034e-05,9.192579299501695e-06,8.530939891615967e-05,0.0001135890569867704
15.98584391825,15.98584391825,2,0.1452754288377746,0.7575705251412126,18.89404243420999,0.9868521995795403,-1.484806766425272e-05,7.002826569963978e-05,9.23668028626019e-06,8.770196514775133e-05,0.0001162464828777573
16.51415608175,15.26415608175,2,0.03702092047677363,1.108874729756617,21.6965285860303,0.7688114597433426,-1.433969234351369e-05,7.117682320308236e-05,6.386942155578153e-06,9.012769283771549e-05,0.0001036926762847291
17.23584391825,15.26415608175,2,0.05581078434939346,1.211603297022283,21.77064177120563,0.7609041370339505,-1.433969234351369e-05,7.275741969039939e-05,6.447047896090524e-06,9.25587538843943e-05,0.000105673301830667
16.51415608175,15.98584391825,2,0.159253234748627,0.9849682405382723,18.94676826915346,0.8373352926286995,-1.427958660300143e-05,7.117682320308247e-05,7.967538642895369e-06,9.02212786506313e-05,0.000118092768053162
17.23584391825,15.98584391825,2,0.1766870245078533,1.072987662897835,18.98766182023497,0.8261579729370057,-1.427958660300143e-05,7.275741969039941e-05,8.027644383407496e-06,9.265223042432714e-05,0.0001204794870668564
16.51415608175,16.51415608175,2,0.2516049912089767,2.245539074971726,22.22546117849182,0.4735015956603354,-1.415648658587234e-05,9.263162326962322e-05,5.061515270394357e-06,0.0001234029918185209,0.0001319399796019781
17.23584391825,16.51415608175,2,0.2666721246280777,2.315724496985679,22.23958077637882,0.4892878195475404,-1.415648658587234e-05,9.451990196291066e-05,5.33772503110577e-06,0.000126314423381915,0.0001345137034353429
16.51415608175,17.23584391825,2,0.3703374724403345,1.947258440339249,18.71389649755538,0.54700310414885,-1.388027682516098e-05,9.263162326962344e-05,6.949793963681818e-06,0.0001237903459776504,0.0001553711733296737
17.23584391825,17.23584391825,2,0.381664702585461,2.009527608025103,18.76644180570297,0.5585116452551485,-1.388027682516098e-05,9.451990196291063e-05,7.226003724393124e-06,0.0001267022758420346,0.0001580497103639036
15.26415608175,14.01415608175,2,0,0.3936618469653199,19.9882443870874,1.255671656470785,-1.473087759938089e-05,6.364745256110741e-05,1.004537325176628e-05,7.807251120940927e-05,8.642731731456626e-05
15.98584391825,14.01415608175,2,0,0.413215532434033,20.06645912896225,1.239435397922288,-1.473087759938089e-05,6.388209678673197e-05,9.915483183378307e-06,7.843084915646595e-05,8.78813822925843e-05
15.26415608175,14.73584391825,2,0,0.3503651575026909,19.97742021472174,1.285002184673895,-1.486076766776878e-05,6.364745256110741e-05,1.028001747739116e-05,7.790194624199601e-05,9.272975810321139e-05
15.98584391825,14.73584391825,2,0,0.3699188429714244,20.05563495659667,1.268765926125409,-1.486076766776878e-05,6.388209678673222e-05,1.015012740900327e-05,7.826017973589297e-05,9.457418356952066e-05
15.26415608175,12.76415608175,2,0,0.4714092217528059,19.76660563710593,1.481554984769351,-1.430477500007577e-05,6.287601066133673e-05,1.185243987815481e-05,7.74840157579057e-05,8.049096351026225e-05
15.98584391825,12.76415608175,2,0,0.4973185152497228,19.8702428110936,1.446914383143874,-1.430477500007577e-05,6.318692218329974e-05,1.157531506515099e-05,7.795685654627942e-05,8.159693877055944e-05
15.26415608175,13.48584391825,2,0,0.3790342840848799,19.74351190268895,1.520418925014726,-1.458189981307954e-05,6.287601066133673e-05,1.216335140011781e-05,7.711821902859484e-05,8.314794218715721e-05
15.98584391825,13.48584391825,2,0,0.4049435775818013,19.84714907667664,1.485778323389249,-1.458189981307954e-05,6.318692218329979e-05,1.1886226587114e-05,7.759076550866491e-05,8.440414002882988e-05
16.51415608175,12.76415608175,2,0,0.6731244873171125,19.97768962478884,1.280608881740415,-1.382815334041631e-05,6.33901072094706e-05,1.024487105392332e-05,7.88894237425368e-05,8.23616598469071e-05
17.23584391825,12.76415608175,2,0,0.6934745117251495,20.05908972242099,1.253436259895908,-1.382815334041631e-05,6.363430750236704e-05,1.002749007916726e-05,7.926161550215989e-05,8.334494142089931e-05
16.51415608175,13.48584391825,2,0,0.6006641623984148,19.95957454355919,1.311133918352483,-1.404553431517242e-05,6.339010720947066e-05,1.048907134681986e-05,7.860092307023734e-05,8.527800685550316e-05
17.23584391825,13.48584391825,2,0,0.6210141868064474,20.04097464119132,1.283961296507979,-1.404553431517242e-05,6.363430750236704e-05,1.027169037206383e-05,7.897294577020766e-05,8.640925758345234e-05
16.51415608175,14.01415608175,2,0,0.6110546365161138,20.16309216890189,1.069569235010056,-1.417509889826994e-05,6.403305123127315e-05,8.556553880080449e-06,7.939123023800837e-05,8.88975102846523e-05
17.23584391825,14.01415608175,2,0,0.6258688853917223,20.22234916440432,1.052494728867193,-1.417509889826994e-05,6.421082221778044e-05,8.419957830937546e-06,7.966274817480662e-05,9.021955860807498e-05
16.51415608175,14.73584391825,2,0,0.5655226201351944,20.15170916480673,1.091790608323445,-1.431169494741276e-05,6.403305123127336e-05,8.734324866587558e-06,7.920997324999589e-05,9.586983054308193e-05
17.23584391825,14.73584391825,2,0,0.5803368690107886,20.21096616030911,1.074716102180588,-1.431169494741276e-05,6.42108222177805e-05,8.597728817444708e-06,7.948141533897604e-05,9.756517843736531e-05
15.26415608175,11.51415608175,2,0,0.621451806736073,19.54466407656283,1.690603828008816,-1.364708547969483e-05,6.204576359961219e-05,1.352483062407053e-05,7.711838890844919e-05,7.797463801958115e-05
15.98584391825,11.51415608175,2,0,0.6515394209786418,19.6650145335331,1.63970298117316,-1.364708547969483e-05,6.240681497052302e-05,1.311762384938528e-05,7.766543426460367e-05,7.893897658511388e-05
15.26415608175,12.23584391825,2,0,0.4857162151743237,19.51073017867239,1.735735249372693,-1.405429225438008e-05,6.204576359961219e-05,1.388588199498155e-05,7.657927396960534e-05,7.910478083640284e-05
15.98584391825,12.23584391825,2,0,0.5158038294168996,19.6310806356427,1.684834402537027,-1.405429225438008e-05,6.24068149705231e-05,1.347867522029622e-05,7.712581301405513e-05,8.013255263935722e-05
15.26415608175,10.26415608175,2,0,0.8413130621819871,19.31476718955761,1.880966170686576,-1.275961195266373e-05,6.113420455683877e-05,1.504772936549261e-05,7.693952596579714e-05,7.69355398384347e-05
15.98584391825,10.26415608175,2,0,0.8743916652622152,19.44708160187853,1.813395547469017,-1.275961195266373e-05,6.153114779380151e-05,1.450716437975214e-05,7.753853558382988e-05,7.783360756105897e-05
15.26415608175,10.98584391825,2,0,0.6611247336018149,19.26972010741257,1.930584075306929,-1.330017693840425e-05,6.113420455683877e-05,1.544467260245543e-05,7.622115167354135e-05,7.739339164600519e-05
15.98584391825,10.98584391825,2,0,0.6942033366820475,19.4020345197335,1.863013452089363,-1.330017693840425e-05,6.153114779380156e-05,1.49041076167149e-05,7.681942001763075e-05,7.832297610795953e-05
16.51415608175,10.26415608175,2,0,1.007618879901681,19.56200674696404,1.65545341703525,-1.242522498188585e-05,6.179232648636357e-05,1.3243627336282e-05,7.836793460612196e-05,7.845067651452808e-05
17.23584391825,10.26415608175,2,0,1.034003064985139,19.66754348729787,1.592825757347604,-1.242522498188585e-05,6.210893670736507e-05,1.274260605878083e-05,7.884608398155604e-05,7.923847252462653e-05
16.51415608175,10.98584391825,2,0,0.8406117874012962,19.52025497383898,1.695029694660417,-1.292624625938703e-05,6.179232648636368e-05,1.356023755728333e-05,7.769832135564765e-05,7.896128540426598e-05
17.23584391825,10.98584391825,2,0,0.8669959724847409,19.62579171417276,1.632402034972771,-1.292624625938703e-05,6.210893670736502e-05,1.305921627978217e-05,7.817595592598156e-05,7.977559437083849e-05
16.51415608175,11.51415608175,2,0,0.8053649189273742,19.77728412531977,1.476677054575691,-1.324465955968822e-05,6.264301726588135e-05,1.181341643660553e-05,7.854806852538913e-05,7.960168893948166e-05
17.23584391825,11.51415608175,2,0,0.8290536940023587,19.87203922561971,1.430564549980147,-1.324465955968822e-05,6.292728256678117e-05,1.144451639984118e-05,7.897920999239196e-05,8.044791419696226e-05
16.51415608175,12.23584391825,2,0,0.682398240005937,19.74654245558943,1.512210217188175,-1.361355959645254e-05,6.264301726588141e-05,1.20976817375054e-05,7.805664746340537e-05,8.084069504537417e-05
17.23584391825,12.23584391825,2,0,0.7060870150809242,19.84129755588938,1.466097712592638,-1.361355959645254e-05,6.292728256678126e-05,1.17287817007411e-05,7.848745147602368e-05,8.174760427473439e-05
15.26415608175,9.01415608175,2,0,1.124243220981376,19.07679530443387,2.050562618656644,-1.166385793640669e-05,6.014635039740328e-05,1.640450094925315e-05,7.692775140678493e-05,7.658696130522871e-05
15.98584391825,9.01415608175,2,0,1.159800744982238,19.21902540043732,1.968399661015923,-1.166385793640669e-05,6.057304068541362e-05,1.574719728812739e-05,7.756939237120331e-05,7.744484940254537e-05
15.26415608175,9.735843918250001,2,0,0.9051420006061308,19.02201999934006,2.103898904657954,-1.232116159753243e-05,6.014635039740328e-05,1.683119123726363e-05,7.605049866104521e-05,7.671945747987841e-05
15.98584391825,9.735843918250001,2,0,0.9406995246070009,19.16425009534354,2.021735947017242,-1.232116159753243e-05,6.057304068541371e-05,1.617388757613794e-05,7.669117576339021e-05,7.759831421949836e-05
15.26415608175,7.76415608175,2,0,1.461504127962972,18.83350251325345,2.198252139993419,-1.038998880112125e-05,5.909800474004066e-05,1.758601711994735e-05,7.706867775962201e-05,7.660304657717323e-05
15.98584391825,7.76415608175,2,0,1.499170537700692,18.98416815220433,2.103700521986141,-1.038998880112125e-05,5.95500016568933e-05,1.682960417588913e-05,7.774640409490283e-05,7.742870856833548e-05
15.26415608175,8.485843918250001,2,0,1.209366479943573,18.7704681012486,2.254751754599992,-1.114640174517945e-05,5.909800474004066e-05,1.803801403679994e-05,7.605422102333486e-05,7.655576909785966e-05
15.98584391825,8.485843918250001,2,0,1.247032889681299,18.9211337401995,2.160200136592723,-1.114640174517945e-05,5.955000165689337e-05,1.728160109274178e-05,7.673078998885944e-05,7.739940370528594e-05
16.51415608175,7.76415608175,2,0,1.588158222361284,19.10143117426679,1.959115861718443,-1.019903862785733e-05,5.985405317976471e-05,1.567292689374754e-05,7.844938275984076e-05,7.800052548178238e-05
17.23584391825,7.76415608175,2,0,1.619715496676776,19.22766027152876,1.869742089992145,-1.019903862785733e-05,6.023274047155061e-05,1.495793671993716e-05,7.901780262583021e-05,7.873709635085069e-05
16.51415608175,8.485843918250001,2,0,1.349828164424506,19.04184865978262,2.006451773191679,-1.091402880166767e-05,5.985405317976476e-05,1.605161418553343e-05,7.74861670621193e-05,7.798203336027885e-05
17.23584391825,8.485843918250001,2,0,1.381385438739991,19.16807775704456,1.917078001465389,-1.091402880166767e-05,6.023274047155059e-05,1.533662401172312e-05,7.805372077025603e-05,7.873017257235724e-05
16.51415608175,9.01415608175,2,0,1.271069665622346,19.33556351875774,1.816826454260692,-1.140102788501469e-05,6.08569475275269e-05,1.453461163408554e-05,7.833777676368337e-05,7.803623536103825e-05
17.23584391825,9.01415608175,2,0,1.300149468063368,19.45188272852183,1.739886946111985,-1.140102788501469e-05,6.120590515681916e-05,1.391909556889588e-05,7.886299353784696e-05,7.87940437492756e-05
16.51415608175,9.735843918250001,2,0,1.065897643892448,19.28427051332529,1.860446157922238,-1.201654395020439e-05,6.085694752752695e-05,1.48835692633779e-05,7.75121214220265e-05,7.820281010249456e-05
17.23584391825,9.735843918250001,2,0,1.094977446333468,19.40058972308936,1.783506649773533,-1.201654395020439e-05,6.120590515681919e-05,1.426805319818827e-05,7.803664237502552e-05,7.897546682825667e-05
15.26415608175,6.514156081750002,2,0,1.844493347373586,18.58735835529273,2.323933455386237,-8.967507972638705e-06,5.800395205903786e-05,1.85914676430899e-05,7.73473440763864e-05,7.684102242732683e-05
15.98584391825,6.514156081750002,2,0,1.88390858320492,18.74501929861806,2.21910245516684,-8.967507972638705e-06,5.847693488901386e-05,1.775281964133472e-05,7.805489024131794e-05,7.763710672781059e-05
15.26415608175,7.235843918250001,2,0,1.564944013455182,18.51747102181313,2.383056309133247,-9.806155974393917e-06,5.800395205903786e-05,1.906445047306597e-05,7.621648560279543e-05,7.667947997643986e-05
15.98584391825,7.235843918250001,2,0,1.604359249286523,18.67513196513849,2.278225308913847,-9.806155974393917e-06,5.847693488901394e-05,1.822580247131078e-05,7.692272187722956e-05,7.749240090125742e-05
15.26415608175,5.264156081750005,2,0,2.265141824027326,18.34052379012758,2.428914496695202,-7.423965195214619e-06,5.687756266918638e-05,1.943131597356162e-05,7.774924425840265e-05,7.723024710641391e-05
15.98584391825,5.264156081750005,2,0,2.305940720038658,18.50371937417291,2.315759911451958,-7.423965195214619e-06,5.736714942132237e-05,1.852607929161566e-05,7.848028669429711e-05,7.799925990149937e-05
15.26415608175,5.985843918250002,2,0,1.963396263378666,18.26508739996541,2.490112840712206,-8.329201877160599e-06,5.687756266918638e-05,1.992090272569765e-05,7.652143385970541e-05,7.698860003501639e-05
15.98584391825,5.985843918250002,2,0,2.004195159389997,18.42828298401074,2.376958255468958,-8.329201877160599e-06,5.736714942132236e-05,1.901566604375167e-05,7.725106110460079e-05,7.777291918759763e-05
16.51415608175,5.264156081750005,2,0,2.355237029807733,18.62075144438878,2.186226273775346,-7.359842660126276e-06,5.77022149981979e-05,1.748981019020277e-05,7.906029301595044e-05,7.85370690352269e-05
17.23584391825,5.264156081750005,2,0,2.390722815457257,18.76269458698687,2.077188461628673,-7.359842660126276e-06,5.812804442599219e-05,1.661750769302938e-05,7.9696969703243e-05,7.923737811832215e-05
16.51415608175,5.985843918250002,2,0,2.064469530749933,18.54805956962434,2.239454952249634,-8.232145157299685e-06,5.770221499819793e-05,1.791563961799707e-05,7.78730130010891e-05,7.831995178383768e-05
17.23584391825,5.985843918250002,2,0,2.099955316399452,18.69000271222242,2.130417140102959,-8.232145157299685e-06,5.812804442599216e-05,1.704333712082367e-05,7.850856402301541e-05,7.903015347764404e-05
16.51415608175,6.514156081750002,2,0,1.951742418450453,18.86235219078036,2.081898647378148,-8.844306013582836e-06,5.879813307573678e-05,1.665518917902518e-05,7.869319992471192e-05,7.819120308236131e-05
17.23584391825,6.514156081750002,2,0,1.985454663074393,18.99720116927612,1.98187963929464,-8.844306013582836e-06,5.920268001122405e-05,1.585503711435712e-05,7.929912410624659e-05,7.890893817486321e-05
16.51415608175,7.235843918250001,2,0,1.685025063561076,18.79567285205801,2.132467014314054,-9.644458078250968e-06,5.879813307573678e-05,1.705973611451243e-05,7.760997411377636e-05,7.805657233989367e-05
17.23584391825,7.235843918250001,2,0,1.718737308185012,18.93052183055376,2.03244800623054,-9.644458078250968e-06,5.920268001122401e-05,1.625958404984432e-05,7.82148859738125e-05,7.878499644967514e-05
15.26415608175,4.014156081750003,2,0,2.716452049356283,18.09496803567129,2.516119536237792,-5.783327870596926e-06,5.573073607466309e-05,2.012895628990233e-05,7.826241926269171e-05,7.772567831757155e-05
15.98584391825,4.014156081750004,2,0,2.758231600770982,18.26208624133008,2.3963104811692,-5.783327870596923e-06,5.623209069163947e-05,1.91704838493536e-05,7.900989614687142e-05,7.847182335195171e-05
15.26415608175,4.735843918250005,2,0,2.396961235840019,18.01509533229222,2.578788863359853,-6.741800311145719e-06,5.573073607466309e-05,2.063031090687883e-05,7.695437307033993e-05,7.742774663697694e-05
15.98584391825,4.735843918250005,2,0,2.438740787254723,18.18221353795104,2.45897980829125,-6.741800311145719e-06,5.623209069163954e-05,1.967183846633e-05,7.770037689808227e-05,7.818653070791896e-05
15.26415608175,2.764156081750001,2,0,3.193322210075478,17.85227561604374,2.590232874744848,-4.063189420593461e-06,5.457262420327958e-05,2.072186299795879e-05,7.887939905099493e-05,7.828257908617912e-05
15.98584391825,2.764156081750001,2,0,3.235605789956519,18.02140993556791,2.464932021611712,-4.063189420593461e-06,5.508002716185208e-05,1.971945617289369e-05,7.963475758050368e-05,7.901202575925426e-05
15.26415608175,3.485843918250002,2,0,2.859186601720446,17.76874171395498,2.653658244566408,-5.065596245658559e-06,5.457262420327958e-05,2.122926595653126e-05,7.750264861216141e-05,7.795472998199207e-05
15.98584391825,3.485843918250003,2,0,2.901470181601486,17.93787603347914,2.528357391433271,-5.065596245658559e-06,5.508002716185206e-05,2.022685913146617e-05,7.825651748982716e-05,7.869301408430601e-05
16.51415608175,2.76415608175,2,0,3.261633221674328,18.13768079811418,2.350847607929407,-4.072918329133488e-06,5.543127197662589e-05,1.880678086343526e-05,8.013998501820925e-05,7.952564276045681e-05
17.23584391825,2.764156081749999,2,0,3.299317865118117,18.28841937188933,2.227291005822761,-4.072918329133494e-06,5.588348769795137e-05,1.781832804658208e-05,8.081394276182606e-05,8.019942383035785e-05
16.51415608175,3.485843918250003,2,0,2.932148949389937,18.05530973004307,2.407374573095098,-5.061371145986656e-06,5.543127197662586e-05,1.925899658476078e-05,7.877856091199019e-05,7.92121061512819e-05
17.23584391825,3.485843918250002,2,0,2.969833592833732,18.20604830381825,2.283817970988447,-5.061371145986656e-06,5.588348769795141e-05,1.827054376790757e-05,7.945127050557583e-05,7.989200794981236e-05
16.51415608175,4.014156081750004,2,0,2.793124562608634,18.37870355831802,2.274593880978117,-5.764964246306783e-06,5.657735173653074e-05,1.819675104782494e-05,7.954376816415734e-05,7.899573787858039e-05
17.23584391825,4.014156081750003,2,0,2.829950904240365,18.52600892484494,2.157868970833362,-5.764964246306786e-06,5.701926783611152e-05,1.726295176666689e-05,8.020346114160338e-05,7.968095394983409e-05
16.51415608175,4.735843918250005,2,0,2.481858135555957,18.30088695155485,2.329833393425719,-6.698763527464821e-06,5.657735173653075e-05,1.863866714740575e-05,7.826541872253131e-05,7.871814537356376e-05
17.23584391825,4.735843918250005,2,0,2.518684477187686,18.44819231808177,2.213108483280963,-6.698763527464821e-06,5.701926783611151e-05,1.77048678662477e-05,7.892390846517456e-05,7.941175957927383e-05
15.26415608175,1.51415608175,2,0,3.693618763457561,17.61309909013286,2.657627968281815,-2.270899229042094e-06,5.34070220776591e-05,2.126102374625452e-05,7.95987364712816e-05,7.882828051689975e-05
15.98584391825,1.51415608175,2,0,3.735850674774572,17.7820267354009,2.527196295421488,-2.270899229042094e-06,5.391380501346324e-05,2.021757036337191e-05,8.035173122367391e-05,7.954845791002018e-05
15.26415608175,2.23584391825,2,0,3.345800969163356,17.52614464155931,2.720975835257336,-3.314352611924708e-06,5.34070220776591e-05,2.176780668205869e-05,7.815620771883854e-05,7.851664624654813e-05
15.98584391825,2.23584391825,2,0,3.388032880480367,17.69507228682735,2.590544162397008,-3.314352611924708e-06,5.391380501346324e-05,2.072435329917606e-05,7.890772447571284e-05,7.924124124151743e-05
15.26415608175,0.26415608175,2,0,4.219339235993713,17.37633953630848,2.725880272774281,-3.991860738669002e-07,5.222881512739216e-05,2.180704218219425e-05,8.042594979751447e-05,7.920372128046245e-05
15.98584391825,0.26415608175,2,0,4.26093965472644,17.54274121123938,2.589555693333696,-3.991860738669002e-07,5.272802015218487e-05,2.071644554666957e-05,8.116556251623749e-05,7.992167205621668e-05
15.26415608175,0.9858439182500001,2,0,3.855807024152154,17.28545648334809,2.788280900873371,-1.489782709391579e-06,5.222881512739216e-05,2.230624720698697e-05,7.890811299263078e-05,7.901238171737095e-05
15.98584391825,0.9858439182500001,2,0,3.897407442884881,17.45185815827899,2.651956321432786,-1.489782709391579e-06,5.272802015218488e-05,2.121565057146229e-05,7.964626789402591e-05,7.973077879731842e-05
16.51415608175,0.26415608175,2,0,4.288793307876539,17.65885074835739,2.487267701756599,-4.029420134809875e-07,5.30772877484424e-05,1.989814161405279e-05,8.167759468953347e-05,8.042781193688976e-05
17.23584391825,0.26415608175,2,0,4.326710957348279,17.81052134624435,2.349660445083979,-4.029420134809875e-07,5.353229954210329e-05,1.879728356067183e-05,8.235238578541639e-05,8.109266103093001e-05
16.51415608175,0.9858439182500001,2,0,3.921840623416219,17.56711257724231,2.54414417596421,-1.503800066861949e-06,5.307728774844241e-05,2.035315340771368e-05,8.014175369857069e-05,8.023731883878747e-05
17.23584391825,0.9858439182500001,2,0,3.959758272887957,17.71878317512926,2.406536919291589,-1.503800066861949e-06,5.353229954210328e-05,1.925229535433271e-05,8.081526279135406e-05,8.090281488826027e-05
16.51415608175,1.51415608175,2,0,3.759512952809151,17.89811667760107,2.419919039797643,-2.288051893091573e-06,5.42663630060761e-05,1.935935231838114e-05,8.084949592790776e-05,8.005618550771261e-05
17.23584391825,1.51415608175,2,0,3.79754823719829,18.05025781515763,2.289699317060378,-2.288051893091573e-06,5.472278641874576e-05,1.831759453648302e-05,8.152832179998527e-05,8.072314570795172e-05
16.51415608175,2.23584391825,2,0,3.412260358843112,17.81130352910956,2.476971966381347,-3.329809674989688e-06,5.42663630060761e-05,1.981577573105078e-05,7.940555470330929e-05,7.975181314235315e-05
17.23584391825,2.235843918249999,2,0,3.450295643232248,17.96344466666611,2.346752243644082,-3.329809674989694e-06,5.472278641874574e-05,1.877401794915266e-05,8.00831110255095e-05,8.042212652144338e-05
17.76415608175,21.51415608175,2,0.7526775494919329,4.870222918711067,21.67761393151946,0.07650120924099049,-7.105613751319458e-06,0.0002647239913376074,2.474541525327324e-06,0.0003989627583144452,0.0003641883443372022
18.48584391825,21.51415608175,2,0.7514073516906197,4.867542704162312,21.67817499202932,0.1211281970698111,-7.105613751319458e-06,0.0002633872170253286,3.898045992705747e-06,0.0003968987892024654,0.0003625608373758513
17.76415608175,22.23584391825,2,0.776086553382854,4.515504883946761,19.65239537806518,0.03184517226521619,-5.682109283940984e-06,0.0002647239913376074,1.137767213048747e-06,0.0004009663326677144,0.0003970652867959882
18.48584391825,22.23584391825,2,0.7742452094165142,4.527489371337157,19.71341172468435,0.07227741898028106,-5.682109283940984e-06,0.0002633872170253286,2.56127168042717e-06,0.0003989018285082947,0.0003942633403025833
17.76415608175,20.26415608175,2,0.6924351684178514,4.591472267296883,22.03106319094855,0.06533536948720231,-9.533402379997598e-06,0.0002172752458512116,1.699423673405304e-06,0.0003222525715980852,0.0003003460118860968
18.48584391825,20.26415608175,2,0.6926845701906071,4.589839783205513,22.02156119526562,0.1189026994844994,-9.533402379997598e-06,0.0002173568832509169,3.095261427211689e-06,0.0003223797234534399,0.0003005638502970942
17.76415608175,20.98584391825,2,0.730985792818291,4.141137168137963,19.30094929293281,0.05989134156562833,-8.137564626191268e-06,0.0002172752458512116,1.781061073110506e-06,0.0003242118309580327,0.0003382724927333796
18.48584391825,20.98584391825,2,0.7302460902666437,4.154359130824975,19.36136136532859,0.1071226099235181,-8.137564626191268e-06,0.0002173568832509169,3.176898826916892e-06,0.0003243390182266367,0.0003374541346984538
19.01415608175,20.26415608175,2,0.6928300102839605,4.615001217187861,22.02216248812514,0.06480760918416595,-9.27735843639335e-06,0.0002174005313799806,1.687863042716556e-06,0.0003228053026896309,0.0003006910308938717
19.73584391825,20.26415608175,2,0.6929781188758226,4.613738291762799,22.01539321580713,0.1115577468130137,-9.27735843639335e-06,0.000217438142886538,2.906835080406357e-06,0.0003228642763765591,0.0003008206563350221
19.01415608175,20.98584391825,2,0.7297285120125345,4.170446397859232,19.40422569488138,0.05829332173960398,-8.058386398703557e-06,0.0002174005313799806,1.725474549274172e-06,0.0003245165450941216,0.0003368838895364661
19.73584391825,20.98584391825,2,0.7290546012937666,4.181694454619461,19.45600621313487,0.0997230318092629,-8.058386398703557e-06,0.0002174381428865381,2.944446586963757e-06,0.0003245755311061388,0.0003361443088160052
19.01415608175,21.51415608175,2,0.7505323322538919,4.860318088916658,21.67780472893096,0.07819743944818755,-7.172175515876542e-06,0.0002624817927431291,2.507657690623759e-06,0.0003954052453283771,0.0003614481853730231
19.73584391825,21.51415608175,2,0.749413789924632,4.858369614254554,21.68003880766678,0.1162049324248092,-7.172175515876542e-06,0.0002613449019139282,3.709858811140761e-06,0.0003936498759154312,0.0003600358705313749
19.01415608175,22.23584391825,2,0.7729834028359787,4.513882526374478,19.74963419598648,0.03889835354816316,-5.969974395359514e-06,0.0002624817927431293,1.37076686142234e-06,0.0003970970184070576,0.0003923662310109079
19.73584391825,22.23584391825,2,0.7713821584440109,4.524061394631451,19.80229890404032,0.07352829830296141,-5.969974395359514e-06,0.0002613449019139278,2.57296798193956e-06,0.0003953412599389915,0.0003899851785317244
17.76415608175,19.01415608175,2,0.5988971799166506,4.123318162643431,22.2802539654902,0.1011252285804861,-1.154214036932264e-05,0.0001695279981958836,2.016943756405845e-06,0.0002456936200613635,0.0002362234409499669
18.48584391825,19.01415608175,2,0.6017477280908083,4.129908061615724,22.26548677743482,0.1549912429512348,-1.154214036932264e-05,0.0001706095257480203,3.113428424816628e-06,0.000247364991727628,0.0002377687783297653
17.76415608175,19.73584391825,2,0.6579484028632412,3.641292473312435,19.03136141279672,0.1324796324711651,-1.044565570091185e-05,0.0001695279981958836,3.098471308542313e-06,0.0002472264916892779,0.0002730020508732205
18.48584391825,19.73584391825,2,0.6591264005728458,3.659474175808421,19.08870702466693,0.1787437179128024,-1.044565570091185e-05,0.0001706095257480203,4.194955976952988e-06,0.0002488984570049401,0.0002738532395617268
17.76415608175,17.76415608175,2,0.4616771144603952,3.427396659115697,22.38726312160882,0.2016505843856689,-1.28958685848144e-05,0.0001279851303234011,2.99672319052218e-06,0.0001796698893633302,0.0001799723106693618
18.48584391825,17.76415608175,2,0.4686646217160431,3.452703717653756,22.37585388663072,0.2453387206917979,-1.28958685848144e-05,0.0001295614263168929,3.693918842508298e-06,0.000182104180760311,0.0001821798237825557
17.76415608175,18.48584391825,2,0.5471317708852463,2.988569474001636,18.85976715680654,0.258871887446526,-1.219867293282823e-05,0.0001279851303234011,4.573019184013981e-06,0.00018064029586259,0.0002112961971910417
18.48584391825,18.48584391825,2,0.5515251326880446,3.018487548040659,18.91244797332774,0.2954448624100774,-1.219867293282823e-05,0.0001295614263168929,5.270214836000046e-06,0.0001830753967720566,0.0002132049606050984
19.01415608175,17.76415608175,2,0.4732894441028005,3.560879292879625,22.39051529240108,0.1662264031809992,-1.237415583138253e-05,0.0001306238212450178,2.524747625729261e-06,0.0001844659141510577,0.0001836710125345309
19.73584391825,17.76415608175,2,0.4789732205132927,3.580036606646767,22.37922962870194,0.2083852181531985,-1.237415583138253e-05,0.0001319500421729912,3.199608563052986e-06,0.0001865142137741193,0.0001855375028555818
19.01415608175,18.48584391825,2,0.5544278559210147,3.112568038275028,18.96637204079775,0.2144855394067361,-1.169929489405882e-05,0.000130623821245018,3.850968553702314e-06,0.0001854055385455512,0.0002144851904555961
19.73584391825,18.48584391825,2,0.5579824214872238,3.136588510704095,19.01047154203984,0.2500620240481345,-1.169929489405882e-05,0.000131950042172991,4.52582949102612e-06,0.0001874544782321831,0.0002160740800386142
19.01415608175,19.01415608175,2,0.6036263955702311,4.194378483696206,22.27073271466713,0.0889974753860012,-1.108695174147121e-05,0.0001713303841149457,1.796234146600852e-06,0.0002491126480032229,0.0002387983876828219
19.73584391825,19.01415608175,2,0.6059171010319512,4.199297167886161,22.25866127529194,0.137649502174611,-1.108695174147121e-05,0.0001722182782463946,2.79432581388458e-06,0.0002504848202866147,0.0002400659953676418
19.01415608175,19.73584391825,2,0.6598917146959054,3.712138629983887,19.13768564556665,0.1141117832729702,-1.008886007418759e-05,0.0001713303841149459,2.684128278049834e-06,0.0002505086033274765,0.0002744090998838043
19.73584391825,19.73584391825,2,0.6608065579009961,3.727250824090254,19.18659726563464,0.1561231072279052,-1.008886007418759e-05,0.0001722182782463948,3.6822199453334e-06,0.0002518812104690069,0.00027507654983719
17.76415608175,16.51415608175,2,0.2766794031664037,2.491765678527492,22.28039687206714,0.378861856306656,-1.36186738902334e-05,9.581347157979045e-05,4.19025099481651e-06,0.0001290417340346329,0.0001362794168384678
18.48584391825,16.51415608175,2,0.2890628331005349,2.546612196815289,22.28897557782397,0.4027963985129711,-1.36186738902334e-05,9.745929080309644e-05,4.532568190459299e-06,0.0001315804250526773,0.0001385297117342508
17.76415608175,17.23584391825,2,0.3891520867629676,2.174010003782148,18.83333349298013,0.4456189142806233,-1.327635669459069e-05,9.581347157979045e-05,5.836070218122606e-06,0.0001295181733403466,0.0001598716249557324
18.48584391825,17.23584391825,2,0.3983596807712243,2.223756075905873,18.87951365353429,0.4646458719920976,-1.327635669459069e-05,9.745929080309644e-05,6.17838741376526e-06,0.000132057446583462,0.0001621706511536417
17.76415608175,15.26415608175,2,0.06849375874861285,1.443882883149647,21.85690744371177,0.635938472876367,-1.381107303329234e-05,7.384491318163295e-05,5.461592802831217e-06,9.494129660927577e-05,0.0001070535738074374
18.48584391825,15.26415608175,2,0.08446518524622859,1.525213254261942,21.90650075590541,0.6306564450078905,-1.381107303329234e-05,7.52354041653925e-05,5.510715134759807e-06,9.708152767642542e-05,0.00010884392143046
17.76415608175,15.98584391825,2,0.1883223702162585,1.271432833076617,19.04856574041103,0.6952103908724467,-1.376195070136378e-05,7.384491318163295e-05,6.852083786590738e-06,9.501683644692527e-05,0.0001221268626879369
18.48584391825,15.98584391825,2,0.2028008908237364,1.341128151712301,19.07828115641778,0.6877044212406708,-1.376195070136378e-05,7.52354041653925e-05,6.9012061185193e-06,9.71570115140838e-05,0.0001242408575703762
19.01415608175,15.26415608175,2,0.09523342429592507,1.722999674205214,21.96696170728394,0.5350919309155731,-1.332937216318539e-05,7.616978740656417e-05,4.731314752640353e-06,9.917054913605985e-05,0.0001100852223588044
19.73584391825,15.26415608175,2,0.10876784666573,1.783547915648776,21.9836479820821,0.5347972703914469,-1.332937216318539e-05,7.733207891153575e-05,4.800520433565311e-06,0.0001009606475941506,0.0001116861719396454
19.01415608175,15.98584391825,2,0.2124507859128622,1.517943453512397,19.12556592876065,0.580188122040162,-1.326016648226048e-05,7.616978740656438e-05,5.893606257611908e-06,9.927089870236317e-05,0.0001256909972051662
19.73584391825,15.98584391825,2,0.2244289494216278,1.569976390572158,19.13515712415223,0.5780730399465293,-1.326016648226048e-05,7.73320789115358e-05,5.962811938536785e-06,0.0001010610377438858,0.000127538857483211
19.01415608175,16.51415608175,2,0.2972835833012046,2.702493678254099,22.32148251102528,0.3126195568821178,-1.310515311662975e-05,9.856998847141969e-05,3.558983959426872e-06,0.0001339961110771628,0.0001400651303377105
19.73584391825,16.51415608175,2,0.3074393367612811,2.743581332291598,22.31946724703897,0.3387732051092337,-1.310515311662975e-05,9.99586517099505e-05,3.913282669275276e-06,0.0001361387656115189,0.0001420096770776442
19.01415608175,17.23584391825,2,0.4044582566599731,2.360656543776498,18.93470875321778,0.3683163047128672,-1.275085440678135e-05,9.85699884714198e-05,4.947647197957382e-06,0.0001344881545972682,0.0001637302175258884
19.73584391825,17.23584391825,2,0.4119663352903506,2.398943808703532,18.96818979106266,0.3897153352824247,-1.275085440678135e-05,9.995865170995053e-05,5.301945907805841e-06,0.0001366313156846403,0.0001656920058949143
17.76415608175,14.01415608175,2,0,0.8115533994410766,20.32358770263228,0.9000423263897668,-1.366189928389438e-05,6.438623792887044e-05,7.200338611118134e-06,8.061000155978648e-05,9.114669438863405e-05
18.48584391825,14.01415608175,2,0,0.8366762034957924,20.42407891885115,0.8847466947789725,-1.366189928389438e-05,6.468771157752703e-05,7.07797355823178e-06,8.107216258893232e-05,9.235762812332145e-05
17.76415608175,14.73584391825,2,0,0.7707650484789852,20.31339061489176,0.9377265324718469,-1.378426433678066e-05,6.438623792887044e-05,7.501812259774776e-06,8.044812576315285e-05,9.875246273051727e-05
18.48584391825,14.73584391825,2,0.003118101942918949,0.7934061930743699,20.35022926651052,0.9195546672768727,-1.378426433678066e-05,6.468771157752703e-05,7.379447206888449e-06,8.091017345966167e-05,0.0001003008358482913
17.76415608175,12.76415608175,2,0,0.8564561430312256,20.14870883228804,1.099664396763786,-1.337830740813051e-05,6.379070334889674e-05,8.797315174110284e-06,8.009236152213195e-05,8.402509399821173e-05
18.48584391825,12.76415608175,2,0,0.8717129018590084,20.20973586759917,1.077812391192088,-1.337830740813051e-05,6.397378445483013e-05,8.622499129536706e-06,8.037178363084005e-05,8.490002382241499e-05
17.76415608175,13.48584391825,2,0,0.7981841281733493,20.13414082857357,1.122549535005453,-1.355312345270414e-05,6.379070334889674e-05,8.980396280043623e-06,7.985911814984169e-05,8.720050783030024e-05
18.48584391825,13.48584391825,2,0,0.813440887001132,20.1951678638847,1.100697529433735,-1.355312345270414e-05,6.397378445483013e-05,8.805580235469882e-06,8.013844469011418e-05,8.823099297833279e-05
19.01415608175,12.76415608175,2,0,1.020427443999421,20.27869830171263,0.9369835515125013,-1.295759082057196e-05,6.407549261028088e-05,7.495868412100011e-06,8.108415158633169e-05,8.550357316194321e-05
19.73584391825,12.76415608175,2,0,1.028326672525618,20.31029521581742,0.9142171455730495,-1.295759082057196e-05,6.417028335259524e-05,7.313737164584396e-06,8.122823368506444e-05,8.627757079827587e-05
19.01415608175,13.48584391825,2,0,0.9597170281608696,20.26352069775301,0.9488323943017798,-1.313972206808762e-05,6.407549261028093e-05,7.590659154414238e-06,8.083933188803613e-05,8.895147452095512e-05
19.73584391825,13.48584391825,2,0,0.9676162566870508,20.29511761185774,0.9260659883623279,-1.313972206808762e-05,6.417028335259511e-05,7.408527906898623e-06,8.098336453835615e-05,8.988938155336604e-05
19.01415608175,14.01415608175,2,0,1.003103425242607,20.55957581265105,0.74562628962133,-1.32377296893445e-05,6.498815986028927e-05,5.965010316970641e-06,8.209676024785566e-05,9.320577344183496e-05
19.73584391825,14.01415608175,2,0,1.046383952320264,20.73269792096168,0.7349224704590215,-1.32377296893445e-05,6.550752618522115e-05,5.879379763672172e-06,8.289467346298793e-05,9.431201580962667e-05
19.01415608175,14.73584391825,2,0.01415946909175547,0.9607606565884623,20.2614282952151,0.7990701639077887,-1.332336024264303e-05,6.498815986028938e-05,6.484376641902631e-06,8.198514913581766e-05,0.0001013808328857464
19.73584391825,14.73584391825,2,0.0281487482094066,0.9891895004444748,20.14216341411497,0.777328674512495,-1.332336024264303e-05,6.55075261852212e-05,6.398746088603999e-06,8.278291489399265e-05,0.0001027830665464488
17.76415608175,11.51415608175,2,0,0.9763728705925656,19.96543680152448,1.277667632566458,-1.284795625532337e-05,6.310829946840426e-05,1.022134106053166e-05,7.977517829191517e-05,8.102781904369709e-05
18.48584391825,11.51415608175,2,0,0.9938963765412065,20.03553082531904,1.234992361098218,-1.284795625532337e-05,6.331858153978796e-05,9.879938888785746e-06,8.00940742327254e-05,8.176592329111883e-05
17.76415608175,12.23584391825,2,0,0.8625721466772553,19.93698662054565,1.303952891489419,-1.31893584270693e-05,6.310829946840426e-05,1.043162313191535e-05,7.931785381404029e-05,8.237112702276424e-05
18.48584391825,12.23584391825,2,0,0.8800956526258963,20.00708064434021,1.261277620021183,-1.31893584270693e-05,6.331858153978796e-05,1.009022096016947e-05,7.963653123208479e-05,8.316771362076899e-05
17.76415608175,10.26415608175,2,0,1.16405160852243,19.76447375264634,1.443534076954926,-1.208661385484529e-05,6.231507472165032e-05,1.154827261563941e-05,7.960215017769815e-05,7.977808769573375e-05
18.48584391825,10.26415608175,2,0,1.184599050807527,19.84666352178672,1.385301216592165,-1.208661385484529e-05,6.256164402907149e-05,1.108240973273732e-05,7.997462466798523e-05,8.046454774969791e-05
17.76415608175,10.98584391825,2,0,1.008763980888414,19.72565184573783,1.474355240382567,-1.255247673774734e-05,6.231507472165032e-05,1.179484192306054e-05,7.897651402782861e-05,8.033301625009874e-05
18.48584391825,10.98584391825,2,0,1.029311423173511,19.80784161487822,1.416122380019816,-1.255247673774734e-05,6.256164402907149e-05,1.132897904015853e-05,7.934863482341329e-05,8.104161217898051e-05
19.01415608175,10.26415608175,2,0,1.308727281837507,19.92759150766518,1.24713934936843,-1.175414590425212e-05,6.272131099905855e-05,9.977114794947436e-06,8.065590115796049e-05,8.093319633294103e-05
19.73584391825,10.26415608175,2,0,1.324531362411919,19.99080782996283,1.192909802602117,-1.175414590425212e-05,6.29109599659515e-05,9.543278420816933e-06,8.094239544023782e-05,8.152710801934662e-05
19.01415608175,10.98584391825,2,0,1.164115157127342,19.89143847648765,1.27084547023004,-1.218798227838263e-05,6.27213109990586e-05,1.016676376184032e-05,8.007095969954277e-05,8.15252393383913e-05
19.73584391825,10.98584391825,2,0,1.179919237701756,19.95465479878531,1.216615923463731,-1.218798227838263e-05,6.291095996595157e-05,9.732927387709847e-06,8.035721139868212e-05,8.213793738099623e-05
19.01415608175,11.51415608175,2,0,1.133517532366946,20.1112820952665,1.095377256833312,-1.246176957263897e-05,6.344928867895925e-05,8.763018054666497e-06,8.080368162226588e-05,8.227017219420686e-05
19.73584391825,11.51415608175,2,0,1.145752238513566,20.16022091985299,1.056106703798749,-1.246176957263897e-05,6.359610515271869e-05,8.448853630389991e-06,8.102611883276033e-05,8.290970156974105e-05
19.01415608175,12.23584391825,2,0,1.028796057608106,20.08510172657681,1.113729316053243,-1.277593399691551e-05,6.34492886789593e-05,8.909834528425943e-06,8.038092133625472e-05,8.371332359915855e-05
19.73584391825,12.23584391825,2,0,1.041030763754726,20.13404055116329,1.074458763018686,-1.277593399691551e-05,6.359610515271875e-05,8.595670104149492e-06,8.060322378721727e-05,8.44073711832941e-05
17.76415608175,9.01415608175,2,0,1.410622383528116,19.55164335965124,1.594932777515423,-1.112732306043102e-05,6.143676084406147e-05,1.275946222012339e-05,7.956962819190776e-05,7.931460954979904e-05
18.48584391825,9.01415608175,2,0,1.434101703319488,19.64556063881673,1.522755025328054,-1.112732306043102e-05,6.171851268155794e-05,1.218204020262443e-05,7.999394707955003e-05,7.997901337733493e-05
17.76415608175,9.735843918250001,2,0,1.218148377695114,19.50352485819299,1.630151757202484,-1.170474507793003e-05,6.143676084406147e-05,1.304121405761987e-05,7.879172014828721e-05,7.95052064428305e-05
18.48584391825,9.735843918250001,2,0,1.241627697486486,19.59744213735848,1.557974005015109,-1.170474507793003e-05,6.171851268155794e-05,1.246379204012087e-05,7.921553827448929e-05,8.017982525892757e-05
17.76415608175,7.76415608175,2,0,1.710037780936981,19.32943532586803,1.729865043964125,-9.991427361696083e-06,6.048616281802811e-05,1.3838920351713e-05,7.967012351436917e-05,7.924504956735749e-05
18.48584391825,7.76415608175,2,0,1.736177400486423,19.4339938040658,1.645263343925824,-9.991427361696083e-06,6.079983825262141e-05,1.316210675140659e-05,8.014134611691392e-05,7.989623269371278e-05
17.76415608175,8.485843918250001,2,0,1.484433247501511,19.27303419250916,1.769074473288284,-1.066824096200249e-05,6.048616281802811e-05,1.415259578630627e-05,7.875479178210287e-05,7.924490072511281e-05
18.48584391825,8.485843918250001,2,0,1.510572867050953,19.37759267070693,1.684472773249978,-1.066824096200249e-05,6.079983825262141e-05,1.347578218599982e-05,7.922536826549549e-05,7.990302497850852e-05
19.01415608175,7.76415608175,2,0,1.82512223344722,19.52154801227464,1.512263974482442,-9.776847262788604e-06,6.100885585252105e-05,1.209811179585954e-05,8.07391045709594e-05,8.034313145037127e-05
19.73584391825,7.76415608175,2,0,1.846569839116635,19.60733843495229,1.431942635767584,-9.776847262788604e-06,6.126622712055403e-05,1.145554108614067e-05,8.112598153367989e-05,8.091289843309825e-05
19.01415608175,8.485843918250001,2,0,1.610931996874269,19.4680004531314,1.544435382986544,-1.041941797250746e-05,6.100885585252105e-05,1.235548306389235e-05,7.986720228590023e-05,8.035385231758521e-05
19.73584391825,8.485843918250001,2,0,1.632379602543681,19.55379087580905,1.464114044271692,-1.041941797250746e-05,6.126622712055401e-05,1.171291235417353e-05,8.025359725206686e-05,8.092741126004046e-05
19.01415608175,9.01415608175,2,0,1.540880941497439,19.73029376450988,1.386671812699816,-1.08534159988161e-05,6.190423529323368e-05,1.109337450159853e-05,8.06360828688091e-05,8.043358227559607e-05
19.73584391825,9.01415608175,2,0,1.559685255975598,19.80551102242252,1.318780069125885,-1.08534159988161e-05,6.212988706697158e-05,1.055024055300708e-05,8.097605761153603e-05,8.101108377370304e-05
19.01415608175,9.735843918250001,2,0,1.35983629196695,19.68503260212731,1.414878284417034,-1.139654994740761e-05,6.190423529323384e-05,1.131902627533627e-05,7.990171748212319e-05,8.064068770456241e-05
19.73584391825,9.735843918250001,2,0,1.378640606445096,19.7602498600399,1.346986540843101,-1.139654994740761e-05,6.21298870669716e-05,1.077589232674481e-05,8.024133115447706e-05,8.122516850529371e-05
17.76415608175,6.514156081750002,2,0,2.056509838447361,19.10031185061037,1.847818122216385,-8.699417997456739e-06,5.947579005119528e-05,1.478254497773108e-05,7.989711972656769e-05,7.940589988426399e-05
18.48584391825,6.514156081750002,2,0,2.084976802597632,19.21417970721145,1.752260017108152,-8.699417997456739e-06,5.981739362099853e-05,1.401808013686522e-05,8.040925184091797e-05,8.004588943131905e-05
17.76415608175,7.235843918250001,2,0,1.801688224825397,19.03660644720488,1.890518568441792,-9.46388283832263e-06,5.947579005119528e-05,1.512414854753434e-05,7.88585931560532e-05,7.928818916203279e-05
18.48584391825,7.235843918250001,2,0,1.830155188975668,19.15047430380596,1.794960463333557,-9.46388283832263e-06,5.981739362099853e-05,1.435968370666846e-05,7.936994713429529e-05,7.993451310846928e-05
17.76415608175,5.264156081750005,2,0,2.444725129448235,18.86665050751397,1.949574517720178,-7.270199991776825e-06,5.841750152048612e-05,1.559659614176142e-05,8.024541810469269e-05,7.972405575787473e-05
18.48584391825,5.264156081750005,2,0,2.475140301198903,18.98831119451664,1.844396710405645,-7.270199991776825e-06,5.878248358149413e-05,1.475517368324516e-05,8.079164759289381e-05,8.035337471300137e-05
17.76415608175,5.985843918250002,2,0,2.164250976609483,18.79653196930429,1.995197275346189,-8.111622450293081e-06,5.841750152048612e-05,1.596157820276951e-05,7.909657929805536e-05,7.952268998662391e-05
18.48584391825,5.985843918250002,2,0,2.194666148360151,18.91819265630696,1.890019468031649,-8.111622450293081e-06,5.878248358149413e-05,1.512015574425319e-05,7.964192047555968e-05,8.015812305999034e-05
19.01415608175,5.264156081750004,2,0,2.531536723383879,19.07945877313598,1.720498758972702,-7.162649503680367e-06,5.902903869532802e-05,1.376399007178162e-05,8.130216710475836e-05,8.078784490597561e-05
19.73584391825,5.264156081750003,2,0,2.557254976457277,19.18233178542956,1.618863110191159,-7.162649503680362e-06,5.933765773220877e-05,1.295090488152927e-05,8.176436347533586e-05,8.134552059247927e-05
19.01415608175,5.985843918250002,2,0,2.260508326633092,19.0117016739483,1.759076138582789,-7.975734693932743e-06,5.902903869532808e-05,1.407260910866231e-05,8.01889674561625e-05,8.059613169955531e-05
19.73584391825,5.985843918250002,2,0,2.286226579706483,19.11457468624186,1.657440489801245,-7.975734693932743e-06,5.933765773220876e-05,1.325952391840996e-05,8.06504669399499e-05,8.115736048368541e-05
19.01415608175,6.514156081750002,2,0,2.156775475858213,19.30381318402582,1.623371750416122,-8.541369024474376e-06,6.004678180819605e-05,1.298697400332897e-05,8.096183886498648e-05,8.048649435832045e-05
19.73584391825,6.514156081750002,2,0,2.180533526883493,19.39884538812695,1.531839682996338,-8.541369024474381e-06,6.033187842049944e-05,1.22547174639707e-05,8.138955272256307e-05,8.105025985794958e-05
19.01415608175,7.235843918250001,2,0,1.912689962738776,19.24279180574598,1.659008826954039,-9.2736255638327e-06,6.00467818081961e-05,1.327207061563231e-05,7.996405932983171e-05,8.037867277806759e-05
19.73584391825,7.235843918250001,2,0,1.936448013764057,19.3378240098471,1.56747675953425,-9.2736255638327e-06,6.033187842049948e-05,1.2539814076274e-05,8.039117683434144e-05,8.094581561569828e-05
17.76415608175,4.014156081750003,2,0,2.87030396168614,18.63049106327349,2.037101290283324,-5.71942017322314e-06,5.732132823312624e-05,1.629681032226659e-05,8.071155093796923e-05,8.015853801959379e-05
18.48584391825,4.014156081750003,2,0,2.902247982690533,18.75826714729106,1.92337739649572,-5.71942017322314e-06,5.770465648517895e-05,1.538701917196576e-05,8.128430259575557e-05,8.077810589186462e-05
17.76415608175,4.735843918250005,2,0,2.567040244919191,18.55467513408175,2.085017321789915,-6.629211323523988e-06,5.732132823312624e-05,1.668013857431932e-05,7.946255045177275e-05,7.989443072481262e-05
18.48584391825,4.735843918250005,2,0,2.598984265923584,18.68245121809932,1.971293428002306,-6.629211323523988e-06,5.770465648517895e-05,1.577034742401845e-05,8.003432953574873e-05,8.051949861211807e-05
17.76415608175,2.764156081749999,2,0,3.330347095966148,18.39323514489202,2.113361938935885,-4.057477408821939e-06,5.619407478688153e-05,1.690689551148708e-05,8.129436684807553e-05,8.066991530169377e-05
18.48584391825,2.76415608175,2,0,3.363374094786369,18.5253431401729,1.991755846582077,-4.057477408821934e-06,5.659039877272416e-05,1.593404677265662e-05,8.188550035017001e-05,8.128154083606492e-05
17.76415608175,3.485843918250001,2,0,3.006064183022647,18.31216441665614,2.162902437166211,-5.030326147652442e-06,5.619407478688153e-05,1.730321949732969e-05,7.995100057191199e-05,8.036632848570542e-05
18.48584391825,3.485843918250002,2,0,3.039091181842867,18.44427241193702,2.041296344812397,-5.030326147652442e-06,5.659039877272416e-05,1.633037075849918e-05,8.054110225516129e-05,8.098229449036323e-05
19.01415608175,2.76415608175,2,0,3.39742890496547,18.61830747445001,1.879215178407041,-4.0228734836705e-06,5.686064079426763e-05,1.503372142725633e-05,8.23332384456738e-05,8.170521752993041e-05
19.73584391825,2.76415608175,2,0,3.425928150580946,18.73230445691191,1.759695919470902,-4.022873483670502e-06,5.720263174165335e-05,1.407756735576721e-05,8.284362363685058e-05,8.225109824923178e-05
19.01415608175,3.485843918250002,2,0,3.078710881135763,18.53862796849258,1.921964046830257,-4.979027555159625e-06,5.686064079426764e-05,1.537571237464206e-05,8.100993446368026e-05,8.140872254471443e-05
19.73584391825,3.485843918250001,2,0,3.107210126751239,18.65262495095449,1.802444787894115,-4.979027555159625e-06,5.720263174165336e-05,1.441955830315292e-05,8.151947658285298e-05,8.195777965036634e-05
19.01415608175,4.014156081750003,2,0,2.945871398553465,18.85049398977627,1.805067475092573,-5.653606716449928e-06,5.796488364844129e-05,1.444053980074058e-05,8.175913138605643e-05,8.120675399964006e-05
19.73584391825,4.014156081750002,2,0,2.973173530180113,18.95970251628288,1.694213666222378,-5.653606716449939e-06,5.829250922796112e-05,1.355370932977903e-05,8.224896530680618e-05,8.17582745364298e-05
19.01415608175,4.735843918250004,2,0,2.650261241566281,18.77659145052949,1.846020672532549,-6.540437187411492e-06,5.796488364844133e-05,1.476816538026039e-05,8.053861471588565e-05,8.095146065815865e-05
19.73584391825,4.735843918250003,2,0,2.677563373192926,18.88579997703608,1.735166863662352,-6.540437187411498e-06,5.82925092279611e-05,1.388133490929882e-05,8.102766932387774e-05,8.150653502762763e-05
17.76415608175,1.51415608175,2,0,3.823990472313644,18.155293897559,2.181981905055406,-2.287465606643538e-06,5.503774809433787e-05,1.745585524044325e-05,8.199553303042168e-05,8.11891837035537e-05
18.48584391825,1.51415608175,2,0,3.857662796273776,18.28998319339953,2.052598838144562,-2.287465606643539e-06,5.544181598185946e-05,1.64207907051565e-05,8.259693631022065e-05,8.179546298561083e-05
17.76415608175,2.235843918249999,2,0,3.478968960551392,18.06903851961843,2.232490390995603,-3.322530141930294e-06,5.503774809433787e-05,1.785992312796482e-05,8.055751122527886e-05,8.089039869279709e-05
18.48584391825,2.23584391825,2,0,3.512641284511527,18.20372781545897,2.103107324084761,-3.322530141930287e-06,5.544181598185946e-05,1.682485859267809e-05,8.11578426375006e-05,8.149942867767017e-05
17.76415608175,0.26415608175,2,0,4.352886122298243,17.9157142904472,2.246698905585996,-4.0333584100338e-07,5.384797683159244e-05,1.797359124468797e-05,8.281980821418713e-05,8.155711402416829e-05
18.48584391825,0.26415608175,2,0,4.386839005636223,18.05152582379912,2.108957154313295,-4.0333584100338e-07,5.425541143164819e-05,1.687165723450636e-05,8.342455844265583e-05,8.216117410543642e-05
17.76415608175,0.9858439182500001,2,0,3.985574785571042,17.8238864562654,2.297628230592965,-1.505269851184983e-06,5.384797683159244e-05,1.838102584474372e-05,8.127917745973349e-05,8.13678295381705e-05
18.48584391825,0.9858439182500001,2,0,4.019527668909022,17.95969798961732,2.159886479320264,-1.505269851184983e-06,5.425541143164819e-05,1.727909183456211e-05,8.188282483372552e-05,8.197277713857026e-05
19.01415608175,0.26415608175,2,0,4.41093213829495,18.14519248631215,2.006168279115271,-4.011711465058801e-07,5.45358702455629e-05,1.604934623292217e-05,8.384371292218491e-05,8.257958612226518e-05
19.73584391825,0.26415608175,2,0,4.440831565713475,18.26479019598625,1.869165784761356,-4.011711465058801e-07,5.489466337458521e-05,1.495332627809085e-05,8.437667510512193e-05,8.311864892951914e-05
19.01415608175,0.9858439182500001,2,0,4.045592153351176,18.05385749007621,2.051017420243061,-1.497191101337201e-06,5.453587024556291e-05,1.640813936194449e-05,8.230851033943199e-05,8.239191524010022e-05
19.73584391825,0.9858439182500001,2,0,4.075491580769701,18.17345519975031,1.914014925889146,-1.497191101337201e-06,5.489466337458522e-05,1.531211940711317e-05,8.284054152010038e-05,8.293207422851694e-05
19.01415608175,1.51415608175,2,0,3.88542554605944,18.38340908921728,1.945454057350685,-2.273365523983615e-06,5.571856864864774e-05,1.556363245880548e-05,8.302673414255517e-05,8.221555698867984e-05
19.73584391825,1.51415608175,2,0,3.914761751001634,18.50075390898606,1.81738805691765,-2.273365523983615e-06,5.607060310795406e-05,1.45391044553412e-05,8.355099585144335e-05,8.275699586701104e-05
19.01415608175,2.23584391825,2,0,3.543916211571344,18.29803175559526,1.989458364763975,-3.297893527447909e-06,5.571856864864775e-05,1.59156669181118e-05,8.160042642152749e-05,8.192140816760984e-05
19.73584391825,2.23584391825,2,0,3.573252416513537,18.41537657536403,1.86139236433094,-3.297893527447909e-06,5.607060310795407e-05,1.489113891464752e-05,8.212379669535797e-05,8.246524758905293e-05
20.26415608175,21.51415608175,2,0.7486499843413521,4.849308837995507,21.68001411574705,0.07675755848645154,-7.265657040945499e-06,0.0002605792481387525,2.443049252583108e-06,0.0003923345251297877,0.000359077841169717
20.98584391825,21.51415608175,2,0.7476833620945634,4.84787953620815,21.68307584076426,0.1093360139839024,-7.265657040945499e-06,0.0002596243339530788,3.466628753190013e-06,0.0003908601089824343,0.0003578727711200614
20.26415608175,22.23584391825,2,0.7702919398951336,4.510144291856337,19.83289657094454,0.0427295774242318,-6.242077540338705e-06,0.0002605792481387525,1.488135066909707e-06,0.0003937747007774232,0.0003883806604012568
20.98584391825,22.23584391825,2,0.7689184213224661,4.518723701998711,19.87793122330615,0.07255137093113252,-6.242077540338705e-06,0.0002596243339530788,2.511714567516449e-06,0.0003923000034576136,0.0003863780878261511
20.26415608175,20.26415608175,2,0.6930645637818142,4.630832719021026,22.01568933865802,0.06237186463571105,-9.102522681913762e-06,0.0002174579140514835,1.625667349569213e-06,0.0003231392375654592,0.0003008963653796172
20.98584391825,20.26415608175,2,0.6931526836990477,4.629922694233185,22.01104659757497,0.1034105766650711,-9.102522681913762e-06,0.0002174743183720856,2.696079024882777e-06,0.000323165299549523,0.0003009735808949021
20.26415608175,20.98584391825,2,0.7285901447309759,4.191687053049383,19.49174081945516,0.05570930429280718,-8.032111006600227e-06,0.0002174579140514835,1.642071670170933e-06,0.0003246420506347503,0.0003356364949689921
20.98584391825,20.98584391825,2,0.7279956009300583,4.201241097624231,19.53592630001362,0.09222592529695957,-8.032111006600227e-06,0.0002174743183720851,2.71248334548428e-06,0.0003246681159056065,0.0003349887024585672
21.51415608175,20.26415608175,2,0.6932042695908117,4.641070346488263,22.01114921318911,0.05784452997053804,-8.988046405049526e-06,0.0002174828871184846,1.508352932901328e-06,0.0003233384088449653,0.0003010188017997999
22.23584391825,20.26415608175,2,0.6932571048476639,4.640450162987152,22.00807487200916,0.09417146630539135,-8.988046405049526e-06,0.0002174898930484046,2.456036447295667e-06,0.0003233498170559437,0.0003010651320942654
21.51415608175,20.98584391825,2,0.7275910683614675,4.206934522457657,19.56557142111753,0.05159966110877377,-8.040362890655335e-06,0.0002174828871184846,1.515358862821514e-06,0.0003246689756002467,0.0003345493778208481
22.23584391825,20.98584391825,2,0.7270808333458347,4.214973650634602,19.60285602718182,0.08402643412794446,-8.040362890655335e-06,0.0002174898930484047,2.463042377215527e-06,0.0003246803840248691,0.0003339969130999569
21.51415608175,21.51415608175,2,0.7470292346290949,4.838091536032029,21.68319811966431,0.072244515411235,-7.371071426751598e-06,0.0002589855023683908,2.284675553092003e-06,0.0003897240289551546,0.0003570619013946418
22.23584391825,21.51415608175,2,0.7462100480684337,4.837042133588275,21.68654836320239,0.1004224735713899,-7.371071426751598e-06,0.0002581950962071432,3.165530323232608e-06,0.0003885035982545395,0.0003560516341560375
21.51415608175,22.23584391825,2,0.7679903102909489,4.505331119421149,19.90356591849062,0.04333562224295142,-6.490216656610947e-06,0.0002589855023683908,1.494269391844657e-06,0.0003909632292602217,0.0003850366835864047
22.23584391825,22.23584391825,2,0.7668311314551273,4.512482712393495,19.94157644261531,0.0692256266879521,-6.490216656610947e-06,0.0002581950962071434,2.375124161984937e-06,0.0003897425965349062,0.0003833744716248791
20.26415608175,19.01415608175,2,0.6074316785719123,4.24885889394551,22.2623329310631,0.078097676733885,-1.07332091109565e-05,0.0001728116471992832,1.591522748443496e-06,0.0002518944924097241,0.0002409115648681433
20.98584391825,19.01415608175,2,0.6092844192541744,4.252679620605802,22.2527585212404,0.1220230214653392,-1.07332091109565e-05,0.0001735448671948286,2.498452121769252e-06,0.0002530276397413048,0.0002419540960201225
20.26415608175,19.73584391825,2,0.6614049557342001,3.767054070180187,19.22712830913477,0.09839329653843405,-9.826279737630755e-06,0.0001728116471992832,2.324742743988763e-06,0.000253163379933495,0.0002755148968567901
20.98584391825,19.73584391825,2,0.6621261045924708,3.779675554819132,19.26875648467325,0.1364872058696238,-9.826279737630755e-06,0.0001735448671948287,3.231672117314627e-06,0.0002542968485547295,0.0002760450332323493
20.26415608175,17.76415608175,2,0.4827409832616024,3.66844676841137,22.39034344804908,0.1374679624406635,-1.193453356975502e-05,0.0001328431973062734,2.126098654518961e-06,0.0001885021405195441,0.0001867958996296583
20.98584391825,17.76415608175,2,0.4873753788868939,3.683164641560571,22.38007825293893,0.1770168558002156,-1.193453356975502e-05,0.0001339571215815729,2.762518201577499e-06,0.0001902226580555435,0.0001883674132316111
20.26415608175,18.48584391825,2,0.5603364177339232,3.211403239256513,19.0548245621127,0.1780650109935156,-1.129811402269646e-05,0.0001328431973062734,3.240022929818257e-06,0.0001893885766046655,0.0002171393812085742
20.98584391825,18.48584391825,2,0.5632246699084946,3.230851339183385,19.09182720882693,0.2116418053023273,-1.129811402269646e-05,0.000133957121581573,3.87644247687685e-06,0.0001911095882552781,0.000218460948547373
21.51415608175,17.76415608175,2,0.4904444699815594,3.753038788129534,22.38849109223227,0.1119157462678609,-1.158081583680929e-05,0.0001347070857265656,1.757072423707158e-06,0.0001918710951127588,0.0001894228095802515
22.23584391825,17.76415608175,2,0.4942119502193346,3.764700084016653,22.38059815727763,0.1488210616244282,-1.158081583680929e-05,0.0001356421015993282,2.353888142497069e-06,0.0001933153234038498,0.0001907346924250297
21.51415608175,18.48584391825,2,0.5651363446851979,3.289420494221527,19.12836002851123,0.1463364196291287,-1.098400011801932e-05,0.0001347070857265656,2.692088296469739e-06,0.0001927026277584249,0.0002193445812021213
22.23584391825,18.48584391825,2,0.5674787587212966,3.305403057699077,19.16012893736023,0.1778151058908313,-1.098400011801932e-05,0.0001356421015993283,3.288904015259731e-06,0.0001941472369697176,0.0002204371431714245
21.51415608175,19.01415608175,2,0.6105095198486167,4.290298419816454,22.25535095722188,0.06741339105107035,-1.046322318527758e-05,0.0001740347653706732,1.384647779321718e-06,0.0002541608584158342,0.0002426484472453863
22.23584391825,19.01415608175,2,0.6120075040557136,4.2933658618894,22.24802854665507,0.1072130497842588,-1.046322318527758e-05,0.0001746399720821263,2.210621100252495e-06,0.0002550961667295557,0.0002435029189192065
21.51415608175,19.73584391825,2,0.6625993182539642,3.80941581550221,19.30218160499322,0.0839222827203801,-9.637249864346793e-06,0.0001740347653706732,1.98985449077543e-06,0.0002553167637716893,0.0002763940216692026
22.23584391825,19.73584391825,2,0.6631717092124243,3.819940808400812,19.33738623322915,0.1185563086211356,-9.637249864346793e-06,0.0001746399720821266,2.815827811706098e-06,0.000256252310777799,0.0002768173394344213
20.26415608175,16.51415608175,2,0.3141892237727595,2.876692202161285,22.34394466723721,0.2545851441307466,-1.264159296908011e-05,0.0001009014025036276,2.969742126611213e-06,0.0001382290389009651,0.0001433322872219459
20.98584391825,16.51415608175,2,0.3225303593008734,2.908716492648518,22.34023527887821,0.2808803888350652,-1.264159296908011e-05,0.0001020883823324079,3.316817427215848e-06,0.0001400608544048017,0.0001450011785950039
20.26415608175,17.23584391825,2,0.4169460461268517,2.513124427567853,19.01295663223135,0.3029491464052981,-1.229451766847555e-05,0.0001009014025036276,4.15672195539158e-06,0.0001387106863066223,0.0001670193484008688
20.98584391825,17.23584391825,2,0.4230799535355098,2.543751621706317,19.04119861751953,0.3247913652744915,-1.229451766847555e-05,0.000102088382332408,4.503797255996133e-06,0.0001405429181632767,0.0001686839271973103
20.26415608175,15.26415608175,2,0.1178375692230393,1.945446812201382,22.02686603439032,0.4312211885395061,-1.291832731805502e-05,7.813709976243089e-05,3.910583117077066e-06,0.0001027570048667482,0.0001127853435630639
20.98584391825,15.26415608175,2,0.1291527593483511,1.995753775363547,22.04537722490798,0.4376190451845569,-1.291832731805502e-05,7.91741661233501e-05,4.020168174221597e-06,0.0001043550418829294,0.0001141873867037677
20.26415608175,15.98584391825,2,0.2324083986569718,1.720820799831225,19.17313692837789,0.4747217732124263,-1.280874226091048e-05,7.813709976243089e-05,4.947649477996603e-06,0.0001029109768267286,0.0001288003294238027
20.98584391825,15.98584391825,2,0.2422979560544054,1.764132227791153,19.18804165049485,0.4789846179985858,-1.280874226091048e-05,7.917416612335032e-05,5.057234535141134e-06,0.0001045091421017801,0.0001303988745799236
21.51415608175,15.26415608175,2,0.1366887510815882,2.134416772342015,22.08405744284636,0.3462806339015377,-1.255296081958827e-05,7.988017124256424e-05,3.208860158700547e-06,0.0001059392330261203,0.0001151406763912911
22.23584391825,15.26415608175,2,0.1460176698140563,2.174815696920166,22.09927120198672,0.3551908830954482,-1.255296081958827e-05,8.077194673782341e-05,3.327383909857806e-06,0.0001073138411079062,0.0001163430691113435
21.51415608175,15.98584391825,2,0.2488628707466291,1.886757754796307,19.22199022351388,0.3850174616536575,-1.243443706843095e-05,7.988017124256424e-05,4.100635653959636e-06,0.0001061043813682475,0.0001314821487730012
22.23584391825,15.98584391825,2,0.2569590053921437,1.921640141135182,19.23568117293539,0.3918760500983937,-1.243443706843095e-05,8.077194673782341e-05,4.219159405116895e-06,0.0001074791223067576,0.0001328431637510222
21.51415608175,16.51415608175,2,0.3280609754353796,3.014225552745139,22.35940283104607,0.2026442430962135,-1.226599467324103e-05,0.0001028943194093384,2.412650382704185e-06,0.0001418205428701668,0.0001461293707689515
22.23584391825,16.51415608175,2,0.3348701282054719,3.039932952546171,22.35783114074115,0.2289975480438035,-1.226599467324103e-05,0.0001039092006225292,2.754319813373776e-06,0.0001433869696663883,0.0001475427577359512
21.51415608175,17.23584391825,2,0.4271426211460219,2.635001608629212,19.07867856334405,0.2454358457454645,-1.192432524257136e-05,0.0001028943194093384,3.427531595895199e-06,0.0001422944488311197,0.0001698048530716195
22.23584391825,17.23584391825,2,0.4321342645026701,2.660067644976965,19.10454023513557,0.2675500141484459,-1.192432524257136e-05,0.0001039092006225293,3.769201026564899e-06,0.0001438612202121808,0.0001712027007154395
20.26415608175,14.01415608175,2,0,1.198633936280491,20.88210449081685,0.6255015651566646,-1.28700549965559e-05,6.58638272215895e-05,5.004012521253316e-06,8.393379025697139e-05,9.507641046998716e-05
20.98584391825,14.01415608175,2,0,1.236472787051902,21.03345989390249,0.6174139377191076,-1.28700549965559e-05,6.631789343084643e-05,4.93931150175286e-06,8.463188807211893e-05,9.605853315142349e-05
20.26415608175,14.73584391825,2,0.03756562421164245,1.132849675824223,20.09246599365691,0.6566303245003314,-1.293475601605647e-05,6.58638272215895e-05,5.458078730510569e-06,8.3849089959986e-05,0.0001037490467140576
20.98584391825,14.73584391825,2,0.0493701024609281,1.154925757685523,19.98991026353792,0.640888262600863,-1.293475601605647e-05,6.631789343084673e-05,5.393377711009951e-06,8.454709563038346e-05,0.0001049859199504784
20.26415608175,12.76415608175,2,0,1.161096700643252,20.36549313524014,0.7968243785920598,-1.257688506613371e-05,6.424070067225385e-05,6.374595028736478e-06,8.18430606525234e-05,8.681007107055399e-05
20.98584391825,12.76415608175,2,0,1.169229446704454,20.39802411948495,0.7721645412922146,-1.257688506613371e-05,6.433829362498828e-05,6.177316330337716e-06,8.199166560950096e-05,8.74908912331913e-05
20.26415608175,13.48584391825,2,0,1.095337134510307,20.34905324370691,0.8090234976838726,-1.277416376453254e-05,6.424070067225385e-05,6.472187981470981e-06,8.15771592431528e-05,9.053762562584119e-05
20.98584391825,13.48584391825,2,0,1.103469880571515,20.38158422795174,0.7843636603840172,-1.277416376453254e-05,6.433829362498836e-05,6.274909283072137e-06,8.172571147372547e-05,9.1370754335213e-05
21.51415608175,12.76415608175,2,0,1.284511812346825,20.44718851880793,0.6675376895687951,-1.22473130155365e-05,6.440339381030792e-05,5.340301516550361e-06,8.253210543128905e-05,8.795526921113637e-05
22.23584391825,12.76415608175,2,0,1.291200484109202,20.47394320585745,0.6440237511935906,-1.22473130155365e-05,6.448365787145645e-05,5.152190009548725e-06,8.265441536227632e-05,8.854315327821501e-05
21.51415608175,13.48584391825,2,0,1.221807976679607,20.43151255989113,0.6775706972123952,-1.243542452253816e-05,6.440339381030792e-05,5.420565577699162e-06,8.227790789504057e-05,9.193972457588931e-05
22.23584391825,13.48584391825,2,0,1.228496648441995,20.45826724694068,0.6540567588371704,-1.243542452253816e-05,6.448365787145658e-05,5.232454070697363e-06,8.240017794570213e-05,9.266105147210594e-05
21.51415608175,14.01415608175,2,0,1.377464712676727,21.16452612989344,0.5188460674493911,-1.252373382334922e-05,6.662451184551762e-05,4.150768539595129e-06,8.55685345251205e-05,9.672885849650139e-05
22.23584391825,14.01415608175,2,0,1.409433952526387,21.29240308929208,0.5122018187487123,-1.252373382334922e-05,6.700814272371354e-05,4.097614549989698e-06,8.615865354678964e-05,9.757809871549687e-05
21.51415608175,14.73584391825,2,0.0572539439987112,1.281895853803197,19.94859764325483,0.5343483959321118,-1.257688781295461e-05,6.662451184551762e-05,4.534399417790882e-06,8.549841611193897e-05,0.0001058285603276684
22.23584391825,14.73584391825,2,0.06704262736563738,1.298411661754928,19.86077190938379,0.5226013701012187,-1.257688781295461e-05,6.700814272371356e-05,4.48124542818556e-06,8.608847601761311e-05,0.0001068938234143376
20.26415608175,11.51415608175,2,0,1.273075923211663,20.22237910690255,0.9330184336440928,-1.210406033124471e-05,6.369315240351882e-05,7.464147469152742e-06,8.164990243476834e-05,8.334610453692299e-05
20.98584391825,11.51415608175,2,0,1.282936052059373,20.26181962229339,0.8963595510066262,-1.210406033124471e-05,6.381147394969133e-05,7.17087640805301e-06,8.182931761462342e-05,8.389885024035433e-05
20.26415608175,12.23584391825,2,0,1.17531890284506,20.1979398518109,0.9478086269156674,-1.239733139234452e-05,6.369315240351882e-05,7.582469015325339e-06,8.125402835180897e-05,8.488310880248694e-05
20.98584391825,12.23584391825,2,0,1.18517903169277,20.23738036720174,0.9111497442781941,-1.239733139234452e-05,6.381147394969133e-05,7.289197954225553e-06,8.143334626936665e-05,8.548880056511342e-05
20.26415608175,10.26415608175,2,0,1.439210722933764,20.05834446264469,1.067206960405851,-1.14412012567277e-05,6.303533370211598e-05,8.537655683246809e-06,8.154716282500588e-05,8.193123084945003e-05
20.98584391825,10.26415608175,2,0,1.451722922887938,20.10839326246138,1.016373863302423,-1.14412012567277e-05,6.318548010156607e-05,8.130990906419383e-06,8.177408536052877e-05,8.244140326743239e-05
20.26415608175,10.98584391825,2,0,1.303655797324622,20.0244557312424,1.085975260337116,-1.184786603355513e-05,6.303533370211598e-05,8.687802082696925e-06,8.099714826898311e-05,8.255515122327613e-05
20.98584391825,10.98584391825,2,0,1.316167997278803,20.07450453105912,1.035142163233699,-1.184786603355513e-05,6.318548010156614e-05,8.281137305869593e-06,8.122389764640759e-05,8.308230259544934e-05
21.51415608175,10.26415608175,2,0,1.553617513604182,20.16509862876255,0.9019904683661297,-1.116050285947666e-05,6.328542160115682e-05,7.215923746929038e-06,8.230083517648073e-05,8.278673085052959e-05
22.23584391825,10.26415608175,2,0,1.563859084873179,20.20606491383854,0.8536174650325158,-1.116050285947666e-05,6.340832045638479e-05,6.828939720260126e-06,8.248674413739449e-05,8.322001093486386e-05
21.51415608175,10.98584391825,2,0,1.424622838047882,20.13284995987348,0.9173528252696294,-1.154748688614556e-05,6.328542160115682e-05,7.338822602157035e-06,8.177615080708946e-05,8.343965681333648e-05
22.23584391825,10.98584391825,2,0,1.434864409316884,20.17381624494949,0.8689798219360155,-1.154748688614556e-05,6.340832045638484e-05,6.951838575488124e-06,8.196192968150363e-05,8.388881532077152e-05
21.51415608175,11.51415608175,2,0,1.393504495745911,20.31469265675852,0.7865567599770319,-1.17925397390199e-05,6.389221290503054e-05,6.292454079816255e-06,8.236873679744559e-05,8.427420279067004e-05
22.23584391825,11.51415608175,2,0,1.402026277577046,20.34877978408307,0.7512426577330356,-1.17925397390199e-05,6.399447428700417e-05,6.009941261864285e-06,8.252401628426547e-05,8.474693932549536e-05
21.51415608175,12.23584391825,2,0,1.299333556428579,20.29114992192919,0.7993394327237465,-1.20750525569719e-05,6.389221290503054e-05,6.394715461789972e-06,8.198646507456844e-05,8.59012988392876e-05
22.23584391825,12.23584391825,2,0,1.307855338259722,20.32523704925376,0.76402533047974,-1.20750525569719e-05,6.399447428700425e-05,6.11220264383792e-06,8.214166672560804e-05,8.642257331978738e-05
20.26415608175,9.01415608175,2,0,1.659745394035733,19.87707107457249,1.192559731159688,-1.059047159874364e-05,6.227883112340336e-05,9.540477849277502e-06,8.155072384590962e-05,8.140434424542124e-05
20.98584391825,9.01415608175,2,0,1.674851307030451,19.93749472655136,1.128333251832258,-1.059047159874364e-05,6.246010207933998e-05,9.026666014658061e-06,8.182395975865071e-05,8.190125033670254e-05
20.26415608175,9.735843918250001,2,0,1.488474782495917,19.83425342168753,1.215218600651762,-1.110428343336309e-05,6.227883112340336e-05,9.721748805214094e-06,8.085394159611912e-05,8.16228730490993e-05
20.98584391825,9.735843918250001,2,0,1.503580695490638,19.89467707366641,1.150992121324325,-1.110428343336309e-05,6.246010207934001e-05,9.207936970594599e-06,8.112691337595874e-05,8.212494126849209e-05
20.26415608175,7.76415608175,2,0,1.931413537976856,19.68198174523044,1.306795191123864,-9.565062074658414e-06,6.143721075435593e-05,1.045436152899091e-05,8.166516352799477e-05,8.130169248534671e-05
20.98584391825,7.76415608175,2,0,1.948893930209922,19.75190331416271,1.230173140616311,-9.565062074658414e-06,6.164697546115272e-05,9.841385124930484e-06,8.198063513351269e-05,8.179413060708825e-05
20.26415608175,8.485843918250001,2,0,1.727088069956715,19.63090037822541,1.33301577947344,-1.017803847871884e-05,6.143721075435593e-05,1.066412623578752e-05,8.083110344684258e-05,8.131828417274184e-05
20.98584391825,8.485843918250001,2,0,1.744568462189785,19.70082194715769,1.256393728965897,-1.017803847871884e-05,6.164697546115277e-05,1.005114983172717e-05,8.114621402459973e-05,8.181260988713454e-05
21.51415608175,7.76415608175,2,0,2.027178352254263,19.81486963824985,1.112837282846714,-9.364924983386241e-06,6.178584016059612e-05,8.90269826277371e-06,8.245765608330781e-05,8.212770761988585e-05
22.23584391825,7.76415608175,2,0,2.041313411210641,19.87140987407536,1.039266817763928,-9.364924983386241e-06,6.195546086807265e-05,8.314134542111422e-06,8.271285672644134e-05,8.254661884538319e-05
21.51415608175,8.485843918250001,2,0,1.830990445366838,19.765822661528,1.134039871281291,-9.953488704048513e-06,6.178584016059612e-05,9.072318970250329e-06,8.165496581035616e-05,8.214719337748929e-05
22.23584391825,8.485843918250001,2,0,1.84512550432322,19.82236289735352,1.060469406198508,-9.953488704048513e-06,6.195546086807269e-05,8.483755249588068e-06,8.190989489471336e-05,8.256696675815832e-05
21.51415608175,9.01415608175,2,0,1.765484494400912,19.99760197837994,1.011548917236834,-1.034853120062103e-05,6.257993873529506e-05,8.092391337894669e-06,8.232853765634978e-05,8.22374646026158e-05
22.23584391825,9.01415608175,2,0,1.777661900797216,20.04631160396515,0.9502098608407543,-1.034853120062103e-05,6.272606761205071e-05,7.601678886726035e-06,8.254891897108336e-05,8.265911296807804e-05
21.51415608175,9.735843918250001,2,0,1.601913677344701,19.95670927411589,1.029815026831303,-1.083924365178966e-05,6.257993873529506e-05,8.238520214650421e-06,8.166147053700465e-05,8.246460441853003e-05
22.23584391825,9.735843918250001,2,0,1.61409108374101,20.00541889970112,0.9684759704352199,-1.083924365178966e-05,6.272606761205077e-05,7.747807763481759e-06,8.188165514057429e-05,8.289051318253926e-05
20.26415608175,6.514156081750002,2,0,2.250532312128577,19.47587031727355,1.409103435821714,-8.378992855007395e-06,6.05223591655725e-05,1.127282748657371e-05,8.189167315247811e-05,8.143585101084463e-05
20.98584391825,6.514156081750002,2,0,2.27014118388872,19.55430580431412,1.321101386115984,-8.378992855007395e-06,6.075766562669421e-05,1.056881108892787e-05,8.224486741162604e-05,8.192554013191867e-05
20.26415608175,7.235843918250001,2,0,2.015860179579974,19.4172022841364,1.438516743461926,-9.083009252653203e-06,6.05223591655725e-05,1.150813394769541e-05,8.09299023780428e-05,8.133319442467206e-05
20.98584391825,7.235843918250001,2,0,2.035469051340121,19.49563777117699,1.350514693756208,-9.083009252653203e-06,6.075766562669425e-05,1.080411755004966e-05,8.128264026197686e-05,8.182439017497826e-05
20.26415608175,5.264156081750002,2,0,2.613631038331091,19.26117578205454,1.499614392906748,-7.04532130298414e-06,5.954485767190965e-05,1.199691514325399e-05,8.223095888050644e-05,8.172773471474412e-05
20.98584391825,5.264156081750002,2,0,2.635086182142041,19.34699635729834,1.401155053969272,-7.04532130298414e-06,5.980231939764105e-05,1.120924043175418e-05,8.26167240849285e-05,8.221428742968278e-05
20.26415608175,5.985843918250002,2,0,2.351072801164489,19.19553622276289,1.531797108623173,-7.832996014483945e-06,5.954485767190965e-05,1.225437686898538e-05,8.114999747931191e-05,8.15415677629477e-05
20.98584391825,5.985843918250002,2,0,2.37252794497544,19.28135679800669,1.4333377696857,-7.832996014483945e-06,5.980231939764105e-05,1.14667021574856e-05,8.153521881443361e-05,8.20300127864446e-05
21.51415608175,5.264156081750002,2,0,2.689165688487006,19.41416067059243,1.286845864650402,-6.925998333315521e-06,5.997398159510614e-05,1.029476691720321e-05,8.303419267800005e-05,8.254489650784504e-05
22.23584391825,5.264156081750002,2,0,2.706793031778852,19.48467004375981,1.191163078378286,-6.925998333315521e-06,6.01855097146083e-05,9.529304627026291e-06,8.335123083685466e-05,8.296158459192754e-05
21.51415608175,5.985843918250002,2,0,2.434011591761371,19.35037214641102,1.313286879588172,-7.691460623492424e-06,5.997398159510614e-05,1.050629503670538e-05,8.198161248183904e-05,8.236163279542998e-05
22.23584391825,5.985843918250002,2,0,2.451638935053222,19.42088151957842,1.217604093316062,-7.691460623492424e-06,6.018550971460836e-05,9.740832746528498e-06,8.229822897348369e-05,8.277919048532607e-05
21.51415608175,6.514156081750002,2,0,2.335981289096083,19.61961218327108,1.204691562843504,-8.220549621509393e-06,6.091397395519056e-05,9.637532502748035e-06,8.269201753935342e-05,8.225778768375269e-05
22.23584391825,6.514156081750002,2,0,2.351959275262277,19.68352412793585,1.11968709606943,-8.220549621509393e-06,6.110570978918488e-05,8.957496768555439e-06,8.297991278336935e-05,8.26758157550182e-05
21.51415608175,7.235843918250001,2,0,2.109302711031874,19.56294253875502,1.228658542092815,-8.90058535570202e-06,6.091397395519056e-05,9.829268336742519e-06,8.176099887662871e-05,8.215734127493569e-05
22.23584391825,7.235843918250001,2,0,2.125280697198074,19.62685448341982,1.143654075318734,-8.90058535570202e-06,6.110570978918497e-05,9.149232602549868e-06,8.204854572565581e-05,8.257578484618784e-05
20.26415608175,4.014156081750002,2,0,3.017812085552428,19.03989378200927,1.579211789018832,-5.574916351839643e-06,5.851341043398771e-05,1.263369431215065e-05,8.268397481145986e-05,8.213684403601244e-05
20.98584391825,4.014156081750002,2,0,3.040802730454424,19.13185636161724,1.471042497879754,-5.574916351839634e-06,5.878929817281162e-05,1.176833998303803e-05,8.309663226276025e-05,8.261959460632241e-05
20.26415608175,4.735843918250002,2,0,2.729360642514874,18.96778092124988,1.613697756371816,-6.440270680952308e-06,5.851341043398771e-05,1.290958205097452e-05,8.149044282243941e-05,8.188723851138027e-05
20.98584391825,4.735843918250002,2,0,2.752351287416865,19.05974350085786,1.505528465232739,-6.440270680952315e-06,5.878929817281164e-05,1.204422772186191e-05,8.190248099252553e-05,8.237226540218619e-05
20.26415608175,2.76415608175,2,0,3.461061400046764,18.81343584570059,1.64930514185459,-3.975352196410824e-06,5.743414558620446e-05,1.319444113483672e-05,8.325233890397546e-05,8.262609395833488e-05
20.98584391825,2.76415608175,2,0,3.485271119930964,18.91027472523739,1.531918737091095,-3.975352196410825e-06,5.772466222481487e-05,1.225534989672876e-05,8.3686078812892e-05,8.310472056896713e-05
20.26415608175,3.485843918250001,2,0,3.148030987344116,18.73517824252492,1.685619721680892,-4.914443434518767e-06,5.743414558620446e-05,1.348495777344714e-05,8.195009941972236e-05,8.233481975634111e-05
20.98584391825,3.485843918250002,2,0,3.17224070722832,18.83201712206174,1.568233316917401,-4.914443434518767e-06,5.772466222481491e-05,1.254586653533921e-05,8.23831581969032e-05,8.281585537674724e-05
21.51415608175,2.76415608175,2,0,3.51970059110432,18.97984997398411,1.424064837252674,-3.920838087653463e-06,5.791975944386568e-05,1.139251869802139e-05,8.405087932463433e-05,8.343044666150359e-05
22.23584391825,2.76415608175,2,0,3.539908830793855,19.06068293274225,1.30876320990587,-3.920838087653462e-06,5.81622583201401e-05,1.047010567924696e-05,8.441302937902262e-05,8.384172028506969e-05
21.51415608175,3.485843918250002,2,0,3.212229584846171,18.90298222241957,1.454377196786982,-4.843251106427909e-06,5.791975944386568e-05,1.163501757429585e-05,8.2769633202965e-05,8.314315359713059e-05
22.23584391825,3.485843918250001,2,0,3.232437824535712,18.98381518117773,1.339075569440176,-4.843251106427905e-06,5.816225832014016e-05,1.071260455552141e-05,8.313123983223772e-05,8.355631334407666e-05
21.51415608175,4.014156081750002,2,0,3.084340453513491,19.20043227899594,1.359700215994439,-5.490456371953583e-06,5.897391092997622e-05,1.087760172795551e-05,8.348638715441911e-05,8.294796813172673e-05
22.23584391825,4.014156081750002,2,0,3.103380761304875,19.27659351016148,1.253977134789067,-5.490456371953586e-06,5.920239462347284e-05,1.003181707831253e-05,8.382823353227552e-05,8.336235071672002e-05
21.51415608175,4.735843918250002,2,0,2.802412236965828,19.12995022485903,1.388260677681519,-6.33624102159657e-06,5.897391092997622e-05,1.110608542145215e-05,8.23177060591762e-05,8.270200458769469e-05
22.23584391825,4.735843918250002,2,0,2.821452544757208,19.20611145602455,1.282537596476147,-6.336241021596576e-06,5.92023946234728e-05,1.026030077180918e-05,8.265906509639135e-05,8.311784190498264e-05
20.26415608175,1.51415608175,2,0,3.942504256223526,18.58247038421057,1.711501329787012,-2.249962687453171e-06,5.630990182449498e-05,1.36920106382961e-05,8.39385481287181e-05,8.312895802015964e-05
20.98584391825,1.51415608175,2,0,3.9676494055983,18.68305098170966,1.585070824217592,-2.249962687453171e-06,5.661164361699228e-05,1.268056659374073e-05,8.438811994579439e-05,8.36037386427663e-05
20.26415608175,2.23584391825,2,0,3.605356241371733,18.49818338049762,1.749219053849175,-3.261406732008548e-06,5.630990182449498e-05,1.39937524307934e-05,8.252796013779745e-05,8.283888266479708e-05
20.98584391825,2.23584391825,2,0,3.630501390746509,18.59876397799672,1.622788548279754,-3.261406732008548e-06,5.661164361699229e-05,1.298230838623803e-05,8.29768011065705e-05,8.331583325382036e-05
20.26415608175,0.26415608175,2,0,4.462560746079995,18.34678997553212,1.767159836128629,-3.972375929697081e-07,5.513967932483877e-05,1.413727868902903e-05,8.474601218322899e-05,8.348883291827011e-05
20.98584391825,0.26415608175,2,0,4.488444320726962,18.45032427411999,1.631500675289161,-3.972375929697081e-07,5.545028222060237e-05,1.305200540231328e-05,8.520771199338234e-05,8.396113157647524e-05
20.26415608175,0.9858439182500001,2,0,4.100802983841413,18.25635053497247,1.80598519809908,-1.482510879685456e-06,5.513967932483877e-05,1.444788158479264e-05,8.322345369381692e-05,8.330311166569271e-05
20.98584391825,0.9858439182500001,2,0,4.126686558488379,18.35988483356034,1.670326037259612,-1.482510879685456e-06,5.545028222060237e-05,1.336260829807689e-05,8.368438112950516e-05,8.377664580719345e-05
21.51415608175,0.26415608175,2,0,4.507622830580901,18.52081760838656,1.530670692699473,-3.922610288503598e-07,5.566051808237226e-05,1.224536554159578e-05,8.552709647480405e-05,8.428239069062066e-05
22.23584391825,0.26415608175,2,0,4.529603843929998,18.60874166178294,1.396711060112725,-3.922610288503598e-07,5.592429024256141e-05,1.11736884809018e-05,8.591942856298905e-05,8.468778825469269e-05
21.51415608175,0.9858439182500001,2,0,4.150397143682906,18.43151118666206,1.563642212723118,-1.463938089544346e-06,5.566051808237226e-05,1.250913770178494e-05,8.402160358995001e-05,8.409882925615343e-05
22.23584391825,0.9858439182500001,2,0,4.172378157032004,18.51943524005845,1.429682580136371,-1.463938089544346e-06,5.592429024256142e-05,1.143746064109096e-05,8.441330621227456e-05,8.450551666660649e-05
21.51415608175,1.51415608175,2,0,3.99420003604498,18.75324986339426,1.480848012845559,-2.221159775371473e-06,5.681503953402565e-05,1.184678410276447e-05,8.47301958395401e-05,8.392681596836808e-05
22.23584391825,1.51415608175,2,0,4.015362218287772,18.83789859236543,1.356211630637228,-2.221159775371473e-06,5.706898572093915e-05,1.084969304509783e-05,8.510869661190734e-05,8.433469901411643e-05
21.51415608175,2.23584391825,2,0,3.661836350156099,18.67015894192204,1.512591286209748,-3.218250833038116e-06,5.681503953402565e-05,1.210073028967798e-05,8.333753463348682e-05,8.364042836100881e-05
22.23584391825,2.23584391825,2,0,3.682998532398892,18.75480767089321,1.387954904001419,-3.218250833038116e-06,5.706898572093916e-05,1.110363923201135e-05,8.37154452933796e-05,8.405028809675031e-05
22.76415608175001,21.51415608175,2,0.7456615623000333,4.827411998635243,21.68672272391406,0.06497050145843447,-7.476887098527301e-06,0.0002576707780006363,2.043592059335607e-06,0.0003875439950457711,0.0003553784276400387
23.48584391825,21.51415608175,2,0.7449832860370031,4.826641241737743,21.68997894012442,0.08962228009848223,-7.476887098527301e-06,0.0002570287201823125,2.81149509632491e-06,0.0003865526047862597,0.0003545494604728695
22.76415608175001,22.23584391825,2,0.7660554729287117,4.500212323819055,19.96276192453283,0.04098515814846938,-6.708984061537868e-06,0.0002576707780006363,1.401534241011939e-06,0.0003886241908480062,0.0003822702828581119
23.48584391825,22.23584391825,2,0.7650977836652977,4.506066260904958,19.99420907538163,0.06370070310019876,-6.708984061537868e-06,0.0002570287201823125,2.169437278001134e-06,0.0003876326565415003,0.0003809157950075546
22.76415608175001,20.26415608175,2,0.6932881100292839,4.647395766035613,22.0080509597911,0.0513446793368899,-8.91642745502961e-06,0.0002174935130974938,1.339228925016037e-06,0.0003234552638819999,0.00030109232666838
23.48584391825,20.26415608175,2,0.6933199896102069,4.646986427780637,22.00605829180795,0.08384963491670702,-8.91642745502961e-06,0.0002174963973256109,2.187286606913398e-06,0.0003234601855371983,0.0003011202933320891
22.76415608175001,20.98584391825,2,0.7267381140804362,4.217797983523521,19.62716435972229,0.04584354641782235,-8.0683697731324e-06,0.0002174935130974938,1.34211315313301e-06,0.0003246459755577454,0.0003336268598364679
23.48584391825,20.98584391825,2,0.7263123801447808,4.224434969487492,19.65800602710047,0.07492783036447252,-8.0683697731324e-06,0.0002174963973256109,2.190170835030371e-06,0.0003246508965463475,0.0003331683202399577
24.01415608175,20.26415608175,2,0.6933385906263543,4.651191797904372,22.00595939769727,0.04307901636383232,-8.872827430165924e-06,0.0002174975872267016,1.123819692913327e-06,0.0003235226695470178,0.0003011366136648873
24.73584391825,20.26415608175,2,0.6933575325996012,4.65091387040478,22.00463760162415,0.07253556636743672,-8.872827430165924e-06,0.0002174979538688212,1.892381495162529e-06,0.000323523597282442,0.0003011532349795811
24.01415608175,20.98584391825,2,0.726030769550471,4.225530743947762,19.67752224758967,0.03849905813634496,-8.104265627916678e-06,0.0002174975872267016,1.124186335032607e-06,0.0003246017684890708,0.0003328657070093187
24.73584391825,20.98584391825,2,0.7256874134196731,4.230834836231124,19.70221692833432,0.06490057966035857,-8.104265627916678e-06,0.0002174979538688211,1.892748137281809e-06,0.0003246026952413856,0.0003324974918846453
24.01415608175,21.51415608175,2,0.7445355035832073,4.81787347263085,21.69015719139666,0.05530510895073146,-7.574166539141129e-06,0.000256607885455098,1.731907477601135e-06,0.0003857650088305118,0.0003540043298046718
24.73584391825,21.51415608175,2,0.7439912045226067,4.81730758971414,21.69304692439493,0.07717395760812963,-7.574166539141129e-06,0.0002561002014170331,2.411603318994387e-06,0.000384981088662293,0.0003533439722894977
24.01415608175,22.23584391825,2,0.7644656352966424,4.495369681291543,20.01133469486616,0.03604333626076363,-6.894470697747992e-06,0.000256607885455098,1.224223439536161e-06,0.0003867210673293502,0.0003800270279416343
24.73584391825,22.23584391825,2,0.7636979787667993,4.500023815685929,20.03656696425737,0.05623749679355708,-6.894470697747992e-06,0.0002561002014170337,1.903919280929305e-06,0.0003859370458235219,0.0003789533590119005
22.76415608175001,19.01415608175,2,0.6129937532301233,4.321370885114179,22.24983047145935,0.05663279596463857,-1.026205023290915e-05,0.0001750420345045744,1.170684895912056e-06,0.00025599779807514,0.0002440687967450396
23.48584391825,19.01415608175,2,0.6141927881909335,4.32384050534956,22.24432825615231,0.0930042666563388,-1.026205023290915e-05,0.0001755352827591085,1.928512766160857e-06,0.0002567600770572147,0.0002447603320423379
22.76415608175001,19.73584391825,2,0.6635466199537474,3.841881100393644,19.36468407485992,0.06997949157984219,-9.504222362660412e-06,0.0001750420345045744,1.663933150446509e-06,0.0002570585134905625,0.0002770953159880832
23.48584391825,19.73584391825,2,0.6639989517698592,3.850527025214137,19.39389394643935,0.1017142801895604,-9.504222362660412e-06,0.0001755352827591085,2.421761020695201e-06,0.0002578209693905777,0.0002774314442908139
22.76415608175001,17.76415608175,2,0.4966937950909897,3.818072039246361,22.38698963179732,0.0895277829540338,-1.130874430780857e-05,0.0001362667666748778,1.423034837732135e-06,0.0001946574131948786,0.0001916089017626517
23.48584391825,17.76415608175,2,0.4997189161256405,3.827291633346455,22.3811051078464,0.1242078310750943,-1.130874430780857e-05,0.0001370383675263022,1.986208714719869e-06,0.0001958492549888669,0.0001926854032448092
22.76415608175001,18.48584391825,2,0.5690216657056733,3.350299328328541,19.19008236996104,0.118230054211958,-1.074557043082076e-05,0.0001362667666748778,2.194635689156763e-06,0.0001954422419766559,0.0002211627810902157
23.48584391825,18.48584391825,2,0.5709000612120423,3.363288388392535,19.21680807120374,0.1479219895026824,-1.074557043082076e-05,0.0001370383675263022,2.757809566144524e-06,0.0001966343756232307,0.0002220526987830329
24.01415608175,17.76415608175,2,0.5016900196128764,3.868312302651442,22.3858650571559,0.07034184002691576,-1.10976960022834e-05,0.0001375451446658378,1.129286473006526e-06,0.0001969248498679482,0.0001933933787096035
24.73584391825,17.76415608175,2,0.5040587419801592,3.875256089134986,22.38078100215768,0.1030526704118767,-1.10976960022834e-05,0.000138158084707797,1.662336718236964e-06,0.0001978716395868398,0.0001942511021678582
24.01415608175,18.48584391825,2,0.5721243064794153,3.397566970324275,19.24071179391998,0.09318204729512074,-1.056464575705287e-05,0.0001375451446658378,1.742226514965853e-06,0.000197667809984722,0.0002226365820917687
24.73584391825,18.48584391825,2,0.5735945237385717,3.407672723909784,19.2617194026009,0.1212738088197632,-1.056464575705287e-05,0.0001381580847077972,2.275276760196399e-06,0.0001986148164045153,0.0002233418632641768
24.01415608175,19.01415608175,2,0.6149741901479354,4.344621311469845,22.24554481265625,0.04571858365922729,-1.011269258784891e-05,0.0001758584609622399,9.499328614212825e-07,0.0002574676099351876,0.0002452131224587104
24.73584391825,19.01415608175,2,0.6159117639424618,4.346514730868646,22.24126674579837,0.0792970153765402,-1.011269258784891e-05,0.000176248151978596,1.651641637150504e-06,0.0002580698483034182,0.0002457586335841745
24.01415608175,19.73584391825,2,0.6642927080303711,3.866635344852761,19.41571124233203,0.05621518803333562,-9.410983812119891e-06,0.0001758584609622399,1.339623877777939e-06,0.0002584498824068754,0.000277650174420782
24.73584391825,19.73584391825,2,0.6646432321104098,3.873488511540015,19.43900043852728,0.08557184010844389,-9.410983812119891e-06,0.0001762481519785962,2.041332653506889e-06,0.0002590522493498663,0.0002779116279462957
22.76415608175001,16.51415608175,2,0.3393591080823698,3.12325094437943,22.37369852129853,0.1595239754258972,-1.196498111414242e-05,0.0001045912164354291,1.931748123708781e-06,0.0001448537534250858,0.0001484896172597459
23.48584391825,16.51415608175,2,0.3448435348303664,3.143643415366125,22.37324207716821,0.1851836455756785,-1.196498111414242e-05,0.0001054396370747243,2.261244822214867e-06,0.000146163370631202,0.0001496630986194942
22.76415608175001,17.23584391825,2,0.4354224502900644,2.731109964335318,19.13585645867638,0.1962026084996185,-1.16354844156363e-05,0.0001045912164354292,2.780168763004084e-06,0.0001453106487240919,0.0001721361862034686
23.48584391825,17.23584391825,2,0.439433073548993,2.751341861210042,19.15845211564246,0.217896951256201,-1.16354844156363e-05,0.0001054396370747243,3.10966546151017e-06,0.0001466205394535592,0.0001732886683411808
22.76415608175001,15.26415608175,2,0.1521896686839476,2.291648933494462,22.13231805449167,0.27460380354737,-1.223454996155773e-05,8.137444907103779e-05,2.5911814791981e-06,0.0001086762821465777,0.0001171524841851353
23.48584391825,15.26415608175,2,0.1597648085381719,2.323988361077117,22.14582773105693,0.2836036596397525,-1.223454996155773e-05,8.212874056186858e-05,2.700231197375519e-06,0.0001098392187053772,0.0001181614545711881
22.76415608175001,15.98584391825,2,0.2623011930161275,2.020830478681423,19.26453074425613,0.3084939273483885,-1.212550024338036e-05,8.137444907103779e-05,3.345472970028894e-06,0.0001088277306557486,0.0001337567787075186
23.48584391825,15.98584391825,2,0.2688371172833947,2.048885321148041,19.27768592500577,0.3157273458898606,-1.212550024338036e-05,8.212874056186858e-05,3.454522688206368e-06,0.0001099907732137981,0.0001348918062093065
24.01415608175,15.26415608175,2,0.1647342310494603,2.418386257066788,22.17274901780579,0.2149772392552317,-1.197147490456181e-05,8.263009262075003e-05,2.059006819114231e-06,0.000110971378623967,0.0001188328606379579
24.73584391825,15.26415608175,2,0.1707665422664646,2.443448385637897,22.18272795415163,0.2229636741990348,-1.197147490456181e-05,8.324552042732083e-05,2.151034038674128e-06,0.000111920359046103,0.000119658205738908
24.01415608175,15.98584391825,2,0.273105012164941,2.126913020705262,19.30154080841691,0.2430041405878876,-1.187944768500192e-05,8.263009262075003e-05,2.674434625685195e-06,0.0001110989381286396,0.0001356434366839714
24.73584391825,15.98584391825,2,0.2782563571222848,2.148855148022649,19.31281540152625,0.2495845312586626,-1.187944768500192e-05,8.324552042732094e-05,2.766461845244957e-06,0.0001120479921721458,0.0001365619018275726
24.01415608175,16.51415608175,2,0.3484193583765182,3.208091059204251,22.38527739270102,0.1247552482609155,-1.172890972584075e-05,0.0001059982608402754,1.531724428768474e-06,0.0001473508603453785,0.0001504382610584951
24.73584391825,16.51415608175,2,0.3527258604853728,3.223446240808127,22.3835599010304,0.1497609958701308,-1.172890972584075e-05,0.0001066760287108464,1.850974562122101e-06,0.0001483971375726227,0.0001513825628663064
24.01415608175,17.23584391825,2,0.4420460947543686,2.806490589705922,19.18354251776297,0.154099357128306,-1.140965959248704e-05,0.0001059982608402754,2.209492299339185e-06,0.0001477934488345131,0.0001740478968944569
24.73584391825,17.23584391825,2,0.4451879807095203,2.82202314893792,19.20086294315759,0.1753720869184849,-1.140965959248704e-05,0.0001066760287108465,2.52874243269292e-06,0.0001488399351794305,0.0001749696657389404
22.76415608175001,14.01415608175,2,0,1.534752666924349,21.40369388148642,0.423166811238026,-1.221174657103121e-05,6.726401828721705e-05,3.385334489904208e-06,8.697283938294257e-05,9.81514983648811e-05
23.48584391825,14.01415608175,2,0,1.561038847069361,21.50883860206647,0.4174276831917786,-1.221174657103121e-05,6.757945244895719e-05,3.339421465534229e-06,8.745824917302599e-05,9.88688151211121e-05
22.76415608175001,14.73584391825,2,0.07353317634823531,1.407718463799035,19.82626754364104,0.4285799222198549,-1.225765959540119e-05,6.726401828721694e-05,3.700768651644214e-06,8.691176280755155e-05,0.0001076120780713388
23.48584391825,14.73584391825,2,0.08151859879926304,1.419728394599483,19.75195402918012,0.419614614715661,-1.225765959540119e-05,6.757945244895719e-05,3.654855627274289e-06,8.739713407375862e-05,0.0001085091232004533
22.76415608175001,12.76415608175,2,0,1.390704005725543,20.51587616930692,0.5481953751261173,-1.19624481171238e-05,6.45382405372017e-05,4.385563001008938e-06,8.312022840588091e-05,8.893982768347269e-05
23.48584391825,12.76415608175,2,0,1.396442218632707,20.53882902093558,0.5269207780374869,-1.19624481171238e-05,6.460709909208767e-05,4.215366224299895e-06,8.322533226304556e-05,8.943567824566623e-05
22.76415608175001,13.48584391825,2,0,1.333971746822538,20.50169310458119,0.5568026944868467,-1.213264489383283e-05,6.453824053720175e-05,4.454421555894774e-06,8.288978756592831e-05,9.314828395273637e-05
23.48584391825,13.48584391825,2,0,1.339709959729698,20.52464595620982,0.5355280973982164,-1.213264489383283e-05,6.460709909208767e-05,4.284224779185731e-06,8.299486162489068e-05,9.375810094875649e-05
24.01415608175,12.76415608175,2,0,1.478866117230123,20.57326535846455,0.4365555239883798,-1.172624071163524e-05,6.465135625330245e-05,3.492444191907038e-06,8.361078647352771e-05,8.976543536380645e-05
24.73584391825,12.76415608175,2,0,1.483203972076526,20.59061677785017,0.4172288602729124,-1.172624071163524e-05,6.470341051145929e-05,3.337830882183299e-06,8.369029250359918e-05,9.017049800256776e-05
24.01415608175,13.48584391825,2,0,1.42732834732221,20.56038091598757,0.4430623062579812,-1.188085402135898e-05,6.465135625330245e-05,3.544498450063849e-06,8.340107663582216e-05,9.416569866414068e-05
24.73584391825,13.48584391825,2,0,1.431666202168623,20.57773233537322,0.4237356425425206,-1.188085402135898e-05,6.47034105114594e-05,3.389885140340164e-06,8.348056275722653e-05,9.46694593356465e-05
24.01415608175,14.01415608175,2,0,1.666293532386141,21.60486889892278,0.3341872150630667,-1.195175581550257e-05,6.780254565064397e-05,2.673497720504534e-06,8.815288816721463e-05,9.934842736618393e-05
24.73584391825,14.01415608175,2,0,1.690799182395924,21.70289149896191,0.3293004657839975,-1.195175581550257e-05,6.809661345076137e-05,2.63440372627198e-06,8.860558308702794e-05,9.9941435631477e-05
24.01415608175,14.73584391825,2,0.08677346959572629,1.509802903645221,19.72716432500974,0.3387574455181308,-1.199084980973505e-05,6.780254565064397e-05,2.967565520622072e-06,8.810065015881776e-05,0.0001091076422022793
24.73584391825,14.73584391825,2,0.09317524492536022,1.521441420541688,19.67776498447897,0.33195130933266,-1.199084980973505e-05,6.809661345076164e-05,2.928471526389572e-06,8.855331611436714e-05,0.0001098457813955183
22.76415608175001,11.51415608175,2,0,1.495772519198459,20.39352943090821,0.6500573574567483,-1.15283514832915e-05,6.40626761635475e-05,5.200458859653986e-06,8.298225848344529e-05,8.506470936670902e-05
23.48584391825,11.51415608175,2,0,1.50277832002529,20.42155263421553,0.6160352696453303,-1.15283514832915e-05,6.414674577346946e-05,4.928282157162642e-06,8.311002424680787e-05,8.546013672963956e-05
22.76415608175001,12.23584391825,2,0,1.405046951701354,20.37084803903393,0.6605660586969899,-1.180052818578281e-05,6.40626761635475e-05,5.28452846957592e-06,8.261321951014193e-05,8.677384040125732e-05
23.48584391825,12.23584391825,2,0,1.412052752528184,20.39887124234125,0.6265439708855788,-1.180052818578281e-05,6.414674577346946e-05,5.01235176708463e-06,8.274092555632003e-05,8.72122454344007e-05
22.76415608175001,10.26415608175,2,0,1.651560510422482,20.2533271209264,0.7479676702407235,-1.091766806338918e-05,6.348939837862649e-05,5.983741361925788e-06,8.293551935982838e-05,8.351048828386273e-05
23.48584391825,10.26415608175,2,0,1.659778022732258,20.2861971701655,0.7012024498551441,-1.091766806338918e-05,6.35880085263438e-05,5.609619598841153e-06,8.308476423742686e-05,8.387080707547502e-05
22.76415608175001,10.98584391825,2,0,1.526853256060932,20.22215030733599,0.7602939387053997,-1.129178982647381e-05,6.348939837862643e-05,6.082351509643198e-06,8.242724642664923e-05,8.419029680226196e-05
23.48584391825,10.98584391825,2,0,1.535070768370712,20.25502035657512,0.7135287183198221,-1.129178982647381e-05,6.35880085263438e-05,5.708229746558577e-06,8.257639325550751e-05,8.456480101983491e-05
24.01415608175,10.26415608175,2,0,1.733642597713327,20.32431950864276,0.6022661061330399,-1.071179929423156e-05,6.365090834948618e-05,4.818128849064319e-06,8.345718510927109e-05,8.410869748164377e-05
24.73584391825,10.26415608175,2,0,1.739745544788484,20.34873129694339,0.5567561574836122,-1.071179929423156e-05,6.372414371438806e-05,4.454049259868898e-06,8.35679708454915e-05,8.439830736634533e-05
24.01415608175,10.98584391825,2,0,1.612282734648189,20.29397954287648,0.6114205267458023,-1.107587888342698e-05,6.365090834948618e-05,4.891364213966418e-06,8.296172870827304e-05,8.481214576545259e-05
24.73584391825,10.98584391825,2,0,1.618385681723352,20.31839133117713,0.5659105780963695,-1.107587888342698e-05,6.372414371438813e-05,4.527284624770956e-06,8.307244473847049e-05,8.511339995992108e-05
24.01415608175,11.51415608175,2,0,1.58113306868576,20.4576045903908,0.5208160393247316,-1.130645785251821e-05,6.419942823430194e-05,4.166528314597853e-06,8.348866374355621e-05,8.572160550035038e-05
24.73584391825,11.51415608175,2,0,1.586121531164613,20.47755844030621,0.487581805631559,-1.130645785251821e-05,6.425928978404818e-05,3.900654445052472e-06,8.357955874777645e-05,8.604052410362479e-05
24.01415608175,12.23584391825,2,0,1.492508445503962,20.43544843459535,0.5282987330430149,-1.15723317220636e-05,6.419942823430194e-05,4.226389864344119e-06,8.312753416846847e-05,8.75028474198261e-05
24.73584391825,12.23584391825,2,0,1.497496907982831,20.45540228451082,0.4950644993498388,-1.15723317220636e-05,6.425928978404837e-05,3.96051599479871e-06,8.321838822081064e-05,8.785838177567905e-05
22.76415608175001,9.01415608175,2,0,1.857154433948933,20.09617328254244,0.8415192759327113,-1.013404443739736e-05,6.282203095697665e-05,6.73215420746169e-06,8.298194931049427e-05,8.294166078624753e-05
23.48584391825,9.01415608175,2,0,1.866825088720326,20.13485590162801,0.782343440438017,-1.013404443739736e-05,6.293807881423336e-05,6.258747523504136e-06,8.315702297975123e-05,8.329194741562483e-05
22.76415608175001,9.735843918250001,2,0,1.699352205963081,20.05672272554597,0.8560252580898091,-1.060745112135492e-05,6.282203095697665e-05,6.848202064718473e-06,8.233713533506518e-05,8.317591727174167e-05
23.48584391825,9.735843918250001,2,0,1.709022860734473,20.09540534463154,0.7968494225951183,-1.060745112135492e-05,6.293807881423336e-05,6.374795380760946e-06,8.251206231052105e-05,8.35297469801545e-05
22.76415608175001,7.76415608175,2,0,2.111150787706245,19.92370145081168,0.9290227977079852,-9.183278639989361e-06,6.206692401243238e-05,7.432182381663882e-06,8.312503049598908e-05,8.282754847877264e-05
23.48584391825,7.76415608175,2,0,2.122392643214409,19.96866887284434,0.8578778063135674,-9.183278639989361e-06,6.220182627853035e-05,6.863022450508539e-06,8.332804494659747e-05,8.317615128507962e-05
22.76415608175001,8.485843918250001,2,0,1.921430810654464,19.87627145654872,0.9458855809702487,-9.75243857114469e-06,6.206692401243232e-05,7.567084647761989e-06,8.234733374232943e-05,8.284831564950618e-05
23.48584391825,8.485843918250001,2,0,1.932672666162633,19.92123887858139,0.8747405895758223,-9.75243857114469e-06,6.220182627853035e-05,6.997924716606579e-06,8.255014466966172e-05,8.319720173468535e-05
24.01415608175,7.76415608175,2,0,2.182506353550445,20.01102271306859,0.753757691968059,-9.02479783909345e-06,6.228926759897915e-05,6.030061535744472e-06,8.367365948175443e-05,8.340658507818449e-05
24.73584391825,7.76415608175,2,0,2.191172342222029,20.04568666775493,0.6845203660571056,-9.02479783909345e-06,6.239325946303814e-05,5.476162928456845e-06,8.383015514667951e-05,8.368753910244765e-05
24.01415608175,8.485843918250001,2,0,1.997873484454577,19.96486449579463,0.7667566749754433,-9.578696446381057e-06,6.228926759897915e-05,6.134053399803547e-06,8.291566136207397e-05,8.342769263743765e-05
24.73584391825,8.485843918250001,2,0,2.006539473126165,19.99952845048098,0.69751934906449,-9.578696446381057e-06,6.23932594630382e-05,5.58015479251592e-06,8.307200728684182e-05,8.3708519409287e-05
24.01415608175,9.01415608175,2,0,1.934447917236166,20.17514711139903,0.6803481289118828,-9.94988435396349e-06,6.301291242268795e-05,5.442785031295062e-06,8.351821559508437e-05,8.352328720787447e-05
24.73584391825,9.01415608175,2,0,1.941814697499791,20.20461423245353,0.6228224269836543,-9.94988435396349e-06,6.310131378585145e-05,4.982579415869234e-06,8.365156130770754e-05,8.380503264476249e-05
24.01415608175,9.735843918250001,2,0,1.781046045427553,20.13679664344687,0.691398299307338,-1.041008996938933e-05,6.301291242268795e-05,5.531186394458704e-06,8.289038074744089e-05,8.376334887199351e-05
24.73584391825,9.735843918250001,2,0,1.788412825691183,20.16626376450139,0.6338725973791044,-1.041008996938933e-05,6.310131378585151e-05,5.070980779032835e-06,8.30236198489039e-05,8.404773140085621e-05
22.76415608175001,6.514156081750002,2,0,2.41165981902506,19.73792387580179,1.009229071344101,-8.073027679761241e-06,6.123202854734568e-05,8.073832570752807e-06,8.336846106964325e-05,8.295647820114334e-05
23.48584391825,6.514156081750002,2,0,2.424440938297079,19.78904835288987,0.9266973003271164,-8.073027679761241e-06,6.138540197860991e-05,7.413578402616931e-06,8.359879966028639e-05,8.330523419250088e-05
22.76415608175001,7.235843918250001,2,0,2.191575096313105,19.68290269512382,1.028400750252134,-8.733281847897119e-06,6.123202854734573e-05,8.227206002017068e-06,8.246291174568813e-05,8.28565305471342e-05
23.48584391825,7.235843918250001,2,0,2.20435621558512,19.73402717221188,0.9458689792351523,-8.733281847897119e-06,6.138540197860991e-05,7.566951833881219e-06,8.269298642446177e-05,8.320509849490674e-05
22.76415608175001,5.264156081750002,2,0,2.756591188209764,19.54080134594235,1.081632504970988,-6.811549274482632e-06,6.032529135644769e-05,8.653060039767903e-06,8.371535206706397e-05,8.324164770845479e-05
23.48584391825,5.264156081750002,2,0,2.770788057208461,19.59758882193713,0.9883135406985362,-6.811549274482632e-06,6.049565378443205e-05,7.906508325588289e-06,8.397073357022797e-05,8.359010628808333e-05
22.76415608175001,5.985843918250002,2,0,2.507740616816557,19.47858870309404,1.102927808469038,-7.558100988662248e-06,6.032529135644766e-05,8.823422467752303e-06,8.268707127972431e-05,8.305967003350735e-05
23.48584391825,5.985843918250002,2,0,2.521937485815255,19.53537617908883,1.009608844196586,-7.558100988662248e-06,6.049565378443205e-05,8.076870753572689e-06,8.294212943872298e-05,8.340839671975903e-05
24.01415608175,5.264156081750002,2,0,2.814670550542509,19.64329525119959,0.8831175588505478,-6.707690439223638e-06,6.060680836340467e-05,7.064940470804382e-06,8.427826989177596e-05,8.382086352209285e-05
24.73584391825,5.264156081750002,2,0,2.825780344648803,19.68773442762476,0.7917564369807834,-6.707690439223638e-06,6.074012589268018e-05,6.334051495846267e-06,8.447812853174478e-05,8.410284543001918e-05
24.01415608175,5.985843918250002,2,0,2.571040892223129,19.58238783661974,0.8997822500099959,-7.43857941418178e-06,6.060680836340467e-05,7.198258000079967e-06,8.327020915181095e-05,8.363922673711205e-05
24.73584391825,5.985843918250002,2,0,2.582150686329424,19.62682701304492,0.8084211281402298,-7.43857941418178e-06,6.074012589268021e-05,6.467369025121839e-06,8.346982472211885e-05,8.392113938620765e-05
24.01415608175,6.514156081750002,2,0,2.476453582742947,19.83322942617053,0.8215225932928225,-7.941932076158991e-06,6.148517129755132e-05,6.57218074634258e-06,8.392604235305491e-05,8.353599707111288e-05
24.73584391825,6.514156081750002,2,0,2.486387034170585,19.87296323188108,0.7409855843244377,-7.941932076158991e-06,6.160437271468298e-05,5.927884674595502e-06,8.410506695274022e-05,8.381769698865097e-05
24.01415608175,7.235843918250001,2,0,2.261688225493929,19.77953808685827,0.8364227704342851,-8.586228147906046e-06,6.148517129755132e-05,6.691382163474281e-06,8.30411069363703e-05,8.343560516372358e-05
24.73584391825,7.235843918250001,2,0,2.271621676921568,19.81927189256883,0.7558857614659056,-8.586228147906046e-06,6.1604372714683e-05,6.047086091727244e-06,8.321993522551512e-05,8.371679314666889e-05
22.76415608175001,4.014156081750002,2,0,3.143959226506134,19.33406742463177,1.146281595813914,-5.406584414885788e-06,5.935384837761675e-05,9.17025276651131e-06,8.416844586224683e-05,8.364106963831105e-05
23.48584391825,4.014156081750002,2,0,3.159400531326062,19.39583264391148,1.04272312941776,-5.406584414885788e-06,5.953914403545589e-05,8.341785035342078e-06,8.44457187677864e-05,8.398816130816763e-05
22.76415608175001,4.735843918250002,2,0,2.867803316116402,19.26502844703434,1.169443553043804,-6.235052146054981e-06,5.935384837761675e-05,9.355548424350428e-06,8.302194403086726e-05,8.339743326303687e-05
23.48584391825,4.735843918250002,2,0,2.883244620936331,19.32679366631405,1.065885086647657,-6.235052146054981e-06,5.953914403545589e-05,8.527080693181258e-06,8.32988386817003e-05,8.374545374134274e-05
22.76415608175001,2.76415608175,2,0,3.572089064936391,19.11911860573019,1.203543739968772,-3.864609876787703e-06,5.83235082863875e-05,9.628349919750175e-06,8.473028988682248e-05,8.411842534925592e-05
23.48584391825,2.76415608175,2,0,3.588592750290618,19.1851333471471,1.090191684173389,-3.864609876787703e-06,5.852155251063822e-05,8.721533473387108e-06,8.502610504261074e-05,8.446312401979035e-05
22.76415608175001,3.485843918250001,2,0,3.269816916148698,19.04355056853327,1.228299268000117,-4.771426323150778e-06,5.832350828638748e-05,9.826394144000936e-06,8.346895564745755e-05,8.383425888555667e-05
23.48584391825,3.485843918250001,2,0,3.286320601502926,19.10956530995018,1.114947212204732,-4.771426323150778e-06,5.852155251063822e-05,8.919577697637856e-06,8.376434427187782e-05,8.418046047970349e-05
24.01415608175,2.76415608175,2,0,3.617240506123409,19.23289938054436,0.9874882806308567,-3.811149884840581e-06,5.865148561284322e-05,7.899906245046854e-06,8.529324931883485e-05,8.469154731840825e-05
24.73584391825,2.764156081749999,2,0,3.630318807171192,19.2852125847355,0.8758757664741791,-3.811149884840583e-06,5.880842522541664e-05,7.007006131793433e-06,8.552769331601144e-05,8.497091270535698e-05
24.01415608175,3.485843918250001,2,0,3.319607135038939,19.15849103777325,1.007105732202537,-4.704049998093991e-06,5.865148561284322e-05,8.056845857620294e-06,8.404986748898053e-05,8.440986988997109e-05
24.73584391825,3.485843918250001,2,0,3.332685436086726,19.21080424196439,0.8954932180458599,-4.704049998093991e-06,5.880842522541667e-05,7.16394574436688e-06,8.428398469591533e-05,8.46904264604364e-05
24.01415608175,4.014156081750001,2,0,3.195467376995198,19.44273531552161,0.9384100401292379,-5.328692646032654e-06,5.966037910807299e-05,7.507280321033904e-06,8.473315214661904e-05,8.421813458320803e-05
24.73584391825,4.014156081750001,2,0,3.207627770347201,19.49137688892962,0.8367031229339996,-5.328692646032657e-06,5.980630382829702e-05,6.693624983471997e-06,8.495152440255937e-05,8.449934158517161e-05
24.01415608175,4.735843918250002,2,0,2.924248931141233,19.37493070405812,0.9566506301572495,-6.142347983594549e-06,5.966037910807299e-05,7.653205041257996e-06,8.360575238879199e-05,8.397598141194148e-05
24.73584391825,4.735843918250002,2,0,2.93640932449324,19.42357227746615,0.8549437129620128,-6.142347983594549e-06,5.980630382829707e-05,6.839549703696103e-06,8.382383744661364e-05,8.425777424228865e-05
22.76415608175001,1.51415608175,2,0,4.039738145172278,18.89693751049359,1.253827373646294,-2.190387943843582e-06,5.723840951744166e-05,1.003061898917035e-05,8.54032852462111e-05,8.460907553442412e-05
23.48584391825,1.51415608175,2,0,4.057148831269122,18.96658025488096,1.130998025696726,-2.190387943843582e-06,5.744733775060378e-05,9.04798420557381e-06,8.571478068075081e-05,8.49508030825922e-05
22.76415608175001,2.23584391825,2,0,3.712193217306765,18.81505127852721,1.279943402791561,-3.17302272744012e-06,5.723840951744165e-05,1.023954722233249e-05,8.402909776940353e-05,8.432603684459568e-05
23.48584391825,2.23584391825,2,0,3.729603903403609,18.88469402291459,1.157114054841996,-3.17302272744012e-06,5.744733775060378e-05,9.256912438735971e-06,8.434012555352284e-05,8.466953669812323e-05
22.76415608175001,0.26415608175,2,0,4.546116928237075,18.66806317842998,1.297259355327312,-3.868763723853421e-07,5.610090862838626e-05,1.037807484261849e-05,8.618960505950988e-05,8.496038888085955e-05
23.48584391825,0.26415608175,2,0,4.564346781858379,18.74098259291519,1.165138617121108,-3.868763723853421e-07,5.631966687184191e-05,9.321108936968864e-06,8.651516239171925e-05,8.529975007768209e-05
22.76415608175001,0.9858439182500001,2,0,4.1937949596872,18.57998268629251,1.324604135759266,-1.443842278034968e-06,5.610090862838627e-05,1.059683308607413e-05,8.470313286772491e-05,8.477904965025276e-05
23.48584391825,0.9858439182500001,2,0,4.212024813308504,18.65290210077773,1.192483397553064,-1.443842278034968e-06,5.631966687184191e-05,9.539867180424512e-06,8.502818775310007e-05,8.511966824869903e-05
24.01415608175,0.26415608175,2,0,4.57813154190338,18.7895470920344,1.06710653317688,-3.816167395367046e-07,5.646404546098737e-05,8.536852265415038e-06,8.673734970346705e-05,8.552451650704258e-05
24.73584391825,0.26415608175,2,0,4.592772491706016,18.84811089124494,0.9367819929922072,-3.816167395367046e-07,5.6639736858619e-05,7.494255943937657e-06,8.69989371604007e-05,8.579922861509486e-05
24.01415608175,0.9858439182500001,2,0,4.230599434744253,18.70266406524462,1.089067957880835,-1.424213061014084e-06,5.646404546098737e-05,8.712543663046677e-06,8.526976826013967e-05,8.534531390614792e-05
24.73584391825,0.9858439182500001,2,0,4.24524038454689,18.76122786445517,0.9587434176961621,-1.424213061014084e-06,5.663973685861901e-05,7.669947341569296e-06,8.553096568744008e-05,8.562117070838551e-05
24.01415608175,1.51415608175,2,0,4.078554517366022,19.01489023612944,1.030441790449411,-2.160537733332279e-06,5.758480514172137e-05,8.24353432359529e-06,8.596075733104013e-05,8.517721325997245e-05
24.73584391825,1.51415608175,2,0,4.092441156013601,19.07043679071976,0.9093067786684162,-2.160537733332281e-06,5.775144480549234e-05,7.27445422934733e-06,8.620926218437335e-05,8.545404981978423e-05
24.01415608175,2.23584391825,2,0,3.755527819283372,18.93413356160877,1.051271748420782,-3.12961782758023e-06,5.758480514172137e-05,8.410173987366258e-06,8.460414704810133e-05,8.489715635471109e-05
24.73584391825,2.235843918249999,2,0,3.769414457930952,18.9896801161991,0.9301367366397886,-3.129617827580232e-06,5.775144480549235e-05,7.441093893118309e-06,8.485229087549256e-05,8.51755249678094e-05
25.26415608175,21.51415608175,2,0.7436392676970964,4.809926211536816,21.69320520007758,0.0436057863233523,-7.656399892106336e-06,0.0002557736322641802,1.360763356591751e-06,0.0003843604130197574,0.0003529183147724384
25.98584391825,21.51415608175,2,0.7432226430484282,4.809515071896203,21.69554794765902,0.06333252643566746,-7.656399892106336e-06,0.0002553891127844264,1.973149881673156e-06,0.0003837666623553309,0.0003524157543243336
25.26415608175,22.23584391825,2,0.7632016045849686,4.491228454938169,20.0499276479946,0.02889662294612893,-7.044013367024947e-06,0.0002557736322641802,9.762438768381836e-07,0.0003852217672535977,0.0003782623697533022
25.98584391825,22.23584391825,2,0.7626144031812468,4.49475897423508,20.06922004335344,0.04713974701051699,-7.044013367024947e-06,0.0002553891127844264,1.588630401919752e-06,0.0003846279471843553,0.000377448220920981
25.26415608175,20.26415608175,2,0.6933683686336775,4.653515197158609,22.00450505264316,0.0332022158923084,-8.845647786306239e-06,0.0002174974698910205,8.662437268943811e-07,0.0003235605576486251,0.0003011627442772109
25.98584391825,20.26415608175,2,0.6933790322377528,4.65331020955074,22.00356719410446,0.06027957935607506,-8.845647786306239e-06,0.00021749578099696,1.57274513340694e-06,0.000323558217346418,0.0003011721028467871
25.26415608175,20.98584391825,2,0.7254651111244024,4.23106042829827,19.71734127184174,0.02966880811986502,-8.139146379793857e-06,0.0002174974698910205,8.645548328339164e-07,0.0003245525170757672,0.0003322595323900207
25.98584391825,20.98584391825,2,0.7252013417709315,4.235086897604885,19.73613072079121,0.05396551832185033,-8.139146379793857e-06,0.00021749578099696,1.571056239346421e-06,0.000324550175604913,0.0003319776300852085
26.51415608175,20.26415608175,2,0.6933849332848134,4.655007976437232,22.00343138726248,0.02181900305983197,-8.827744879624932e-06,0.0002174941198177825,5.692871728341922e-07,0.0003235804451806051,0.0003011772819627809
27.23584391825,20.26415608175,2,0.6933903919772879,4.654852295138787,22.00274842713803,0.04712463853556659,-8.827744879624932e-06,0.0002174912702859298,1.229567170825928e-06,0.0003235762285320536,0.0003011820730012385
26.51415608175,20.98584391825,2,0.7250364174555159,4.234995062568032,19.74717450547224,0.01946871538152968,-8.167464881633072e-06,0.0002174941198177825,5.664376409812016e-07,0.0003245075035082089,0.0003318016127638205
27.23584391825,20.98584391825,2,0.7248497595642227,4.237804634010643,19.76031844345771,0.0421914566637859,-8.167464881633072e-06,0.0002174912702859295,1.226717638973208e-06,0.0003245032857076451,0.0003316026268035682
26.51415608175,21.51415608175,2,0.7429623784823621,4.80384937278819,21.69567347018215,0.03021091610951059,-7.719573389716252e-06,0.0002551497139567642,9.402799771063871e-07,0.0003833075884495598,0.000352102537790066
27.23584391825,21.51415608175,2,0.7426683599772148,4.803564479338141,21.69737101816748,0.04836748543454655,-7.719573389716252e-06,0.0002548801836760452,1.503662291361106e-06,0.0003828913906357269,0.0003517493747527448
26.51415608175,22.23584391825,2,0.7622475421931385,4.488071961252702,20.07904036591892,0.0199340486111626,-7.156191075461453e-06,0.0002551497139567642,6.707496963873592e-07,0.0003841000068644236,0.0003769413656037335
27.23584391825,22.23584391825,2,0.7618333449163321,4.490541368908799,20.09262309011301,0.03674113661328977,-7.156191075461453e-06,0.0002548801836760453,1.234132010642132e-06,0.0003836837641879502,0.0003763707599571895
25.26415608175,19.01415608175,2,0.6165117316408493,4.362103892009326,22.24204128789915,0.03432436215538211,-1.000004665670229e-05,0.0001764978347245827,7.160451046337845e-07,0.0002586126658190963,0.0002461089953438415
25.98584391825,19.01415608175,2,0.6172145389986503,4.363438554039599,22.23859480305939,0.06563896224189933,-1.000004665670229e-05,0.0001767902896560634,1.371817248652877e-06,0.0002590646358842203,0.0002465206903468574
25.26415608175,19.73584391825,2,0.6648669778946118,3.885329409919604,19.45578633570076,0.04224770811204883,-9.344274512683195e-06,0.0001764978347245827,1.008500036114336e-06,0.0002595306991559538,0.0002780787774488981
25.98584391825,19.73584391825,2,0.665127939766363,3.890465224718654,19.47328147068822,0.069664781718851,-9.344274512683195e-06,0.0001767902896560634,1.664272180133429e-06,0.0002599827589587798,0.0002782739848569735
25.26415608175,17.76415608175,2,0.5055736604262047,3.907101039924227,22.3840568940182,0.05275489342733387,-1.093089456382084e-05,0.0001385510757537108,8.535935763100252e-07,0.0001987102347521129,0.0001948036713557093
25.98584391825,17.76415608175,2,0.5073499231933318,3.911979443028641,22.37930033015448,0.08370789402489251,-1.093089456382084e-05,0.0001390118072161528,1.359307922044509e-06,0.0001994219298527735,0.0001954555949934248
25.26415608175,18.48584391825,2,0.5745352482360492,3.433867683154213,19.27990412459509,0.06989987204371906,-1.042518021808643e-05,0.0001385510757537108,1.314325038751971e-06,0.0001994151708412679,0.0002237954979172499
25.98584391825,18.48584391825,2,0.5756378849946372,3.441261534527287,19.29511054643318,0.0965444703242178,-1.042518021808643e-05,0.0001390118072161528,1.820039384486482e-06,0.0002001270190091579,0.0002243295696651643
26.51415608175,17.76415608175,2,0.5084503973899965,3.935803711648183,22.38133145304184,0.0348273231473207,-1.080357558415655e-05,0.0001392974733716566,5.668168251976439e-07,0.0002000400192288585,0.0001958616906465322
27.23584391825,17.76415608175,2,0.5096848380809473,3.93898338271489,22.37737967067261,0.06435405908221588,-1.080357558415655e-05,0.0001396171963600875,1.050003166621884e-06,0.0002005339074049342,0.0001963192409658858
26.51415608175,18.48584391825,2,0.5763212095021558,3.460605409183157,19.30808417651739,0.04695101449577947,-1.032038924273236e-05,0.0001392974733716566,8.865398136283318e-07,0.0002007136047210634,0.0002246618297854245
27.23584391825,18.48584391825,2,0.5770872978256067,3.465615914509632,19.31824328570788,0.07240932368402526,-1.032038924273236e-05,0.0001396171963600876,1.369726155052518e-06,0.0002012075936958432,0.0002250355095674286
26.51415608175,19.01415608175,2,0.6176501001381423,4.374885276643571,22.23902874754091,0.02192492882174919,-9.916545327050407e-06,0.0001769713652213934,4.587406211885108e-07,0.0002594608363765222,0.0002467765312287411
27.23584391825,19.01415608175,2,0.618138097524103,4.375737612889459,22.23638903227776,0.05149772317405231,-9.916545327050407e-06,0.000177173617934425,1.078876375782008e-06,0.0002597734075763905,0.0002470638065137143
26.51415608175,19.73584391825,2,0.6652893732438303,3.898980689402591,19.48543160083428,0.02765518664731171,-9.296409572456974e-06,0.0001769713652213934,6.609933342202005e-07,0.0002603290214883845,0.000278394880029775
27.23584391825,19.73584391825,2,0.6654695870855241,3.902519719464204,19.49749354397697,0.05357208038470136,-9.296409572456974e-06,0.0001771736179344253,1.281129088813752e-06,0.0002606416511731401,0.0002785299643761973
25.26415608175,16.51415608175,2,0.3554794896046608,3.27464480794176,22.3917732436802,0.09527780238401101,-1.153501725642568e-05,0.0001071090173547446,1.182619337598042e-06,0.0001493329528012087,0.0001519926100199539
25.98584391825,16.51415608175,2,0.3587116594947127,3.285220097113298,22.38747048104454,0.1193888180534933,-1.153501725642568e-05,0.0001076141964584539,1.489362092058918e-06,0.0001501128565896205,0.0001527149880309911
25.26415608175,17.23584391825,2,0.4471967492971636,2.865175532950815,19.21948543739062,0.1166275581107408,-1.122827450196475e-05,0.0001071090173547446,1.687798441307427e-06,0.0001497581426493977,0.0001755641455300052
25.98584391825,17.23584391825,2,0.449552615593931,2.876137970126451,19.23026979425562,0.1372362480376075,-1.122827450196475e-05,0.0001076141964584539,1.994541195768384e-06,0.0001505381947249572,0.0001762665256788527
25.26415608175,15.26415608175,2,0.1746624202597039,2.512387284507433,22.19903110820455,0.1664484447237829,-1.177649705372468e-05,8.363485610381259e-05,1.613385347374181e-06,0.0001127873706168073,0.0001201973698303889
25.98584391825,15.26415608175,2,0.1792963865659079,2.52893833715843,22.19702045561845,0.175217077625637,-1.177649705372468e-05,8.4083113146661e-05,1.707969354661145e-06,0.0001134786800181937,0.000120845048421044
25.26415608175,15.98584391825,2,0.2815578703206099,2.209640848616981,19.32953650423314,0.1851463436836278,-1.168191304643772e-05,8.363485610381259e-05,2.061642390222863e-06,0.0001129179931498058,0.0001371571271841883
25.98584391825,15.98584391825,2,0.2854462058862055,2.224373863374004,19.3316895657954,0.1925924691636183,-1.168191304643772e-05,8.4083113146661e-05,2.1562263975098e-06,0.0001136093597093244,0.0001378648479568837
26.51415608175,15.26415608175,2,0.1821873279502223,2.575305008989069,22.20537086351513,0.1129866082941355,-1.164486805783736e-05,8.43676615857788e-05,1.105256615903925e-06,0.0001140975290034121,0.0001212526599431878
27.23584391825,15.26415608175,2,0.1854681924317796,2.587315019440569,22.2056543628169,0.123792490843181,-1.164486805783736e-05,8.469680533584759e-05,1.215839476793548e-06,0.0001146051952107535,0.0001217185967408273
26.51415608175,15.98584391825,2,0.2878621824000187,2.268783303899147,19.34263407525926,0.1276863432735434,-1.153428519694774e-05,8.43676615857788e-05,1.434400365972607e-06,0.0001142498706683772,0.0001383082787879005
27.23584391825,15.98584391825,2,0.2905880714000698,2.279557166100274,19.3464280476365,0.1370036913278621,-1.153428519694774e-05,8.46968053358477e-05,1.544983226862257e-06,0.0001147575870431433,0.0001388120335752371
26.51415608175,16.51415608175,2,0.3607167263323163,3.323596329999203,22.39244124771104,0.06506073846009611,-1.138532015770353e-05,0.0001079285784106756,8.141710085650248e-07,0.0001508047898626885,0.0001531665803527123
27.23584391825,16.51415608175,2,0.3629730643696579,3.330643635162445,22.38851905469008,0.0884327324322905,-1.138532015770353e-05,0.0001082823067734544,1.110568203459538e-06,0.0001513509050189554,0.0001536779755089778
26.51415608175,17.23584391825,2,0.4510124515535778,2.908393594994083,19.24317517030609,0.08014527658827865,-1.108892296280911e-05,0.0001079285784106756,1.167899371343943e-06,0.0001512156038257162,0.0001767045962989715
27.23584391825,17.23584391825,2,0.4526514796293928,2.915844840831475,19.25026133357242,0.1001850698642883,-1.108892296280911e-05,0.0001082823067734546,1.464296566238321e-06,0.00015176181859504,0.0001771990473416427
25.26415608175,14.01415608175,2,0.003438030385766511,1.768828874189457,21.72193911225264,0.2482916469389916,-1.175772229892696e-05,6.833006289234207e-05,1.993185808887366e-06,8.922754650754659e-05,0.0001003318051815933
25.98584391825,14.01415608175,2,0.00830503261578952,1.78859638566552,21.7294780823458,0.2422336472832108,-1.175772229892696e-05,6.867379082764767e-05,1.954098026106955e-06,8.97568465544209e-05,0.0001008053063609912
25.26415608175,14.73584391825,2,0.09732869944757505,1.590418261880038,19.67247542105108,0.2636831210937122,-1.179681008170736e-05,6.833006289234207e-05,2.336913744193183e-06,8.917514825484456e-05,0.0001103300545390846
25.98584391825,14.73584391825,2,0.1022969626030026,1.607378470647377,19.66705418501978,0.2578456681212462,-1.179681008170736e-05,6.867379082764767e-05,2.297825961412826e-06,8.970441591279422e-05,0.0001109149741788661
25.26415608175,12.76415608175,2,0,1.549845191346864,20.61447054008993,0.3312671864620462,-1.153207181976198e-05,6.472642957521029e-05,2.650137491696369e-06,8.398714971918198e-05,9.043387531930215e-05
25.98584391825,12.76415608175,2,0,1.550748107476541,20.61808220460864,0.3119279270028932,-1.153207181976198e-05,6.47372645687664e-05,2.495423416023145e-06,8.40033618208158e-05,9.074837289145093e-05
25.26415608175,13.48584391825,2,0,1.498273832789093,20.60157770045049,0.3326215606565507,-1.168678589543529e-05,6.472642957521029e-05,2.660972485252406e-06,8.377692147338577e-05,9.500064002735364e-05
25.98584391825,13.48584391825,2,0,1.49917674891877,20.6051893649692,0.3132823011973876,-1.168678589543529e-05,6.47372645687664e-05,2.506258409579101e-06,8.379312879359404e-05,9.540168183211603e-05
26.51415608175,12.76415608175,2,0,1.600659801174551,20.63336691402524,0.2361439269678093,-1.138458216746163e-05,6.474624628394112e-05,1.889151415742474e-06,8.421620407420477e-05,9.094612803027774e-05
27.23584391825,12.76415608175,2,0,1.601801760228037,20.63793475023918,0.2154553516872345,-1.138458216746163e-05,6.475994979258294e-05,1.723642813497876e-06,8.423695323072519e-05,9.117190754488459e-05
26.51415608175,13.48584391825,2,0,1.54549026709298,20.61957453050485,0.2378568655480299,-1.155009076970634e-05,6.474624628394112e-05,1.902854924384239e-06,8.399115524222348e-05,9.565507691921418e-05
27.23584391825,13.48584391825,2,0,1.546632226146472,20.62414236671881,0.2171682902674381,-1.155009076970634e-05,6.475994979258302e-05,1.737346322139505e-06,8.401189854005485e-05,9.594632336682167e-05
26.51415608175,14.01415608175,2,0.0113576875280792,1.844486074835815,21.74594654608471,0.1739226032893371,-1.162645139944849e-05,6.889391565418853e-05,1.407365240959393e-06,9.027375193198197e-05,0.00010110458245184
27.23584391825,14.01415608175,2,0.01484564241175734,1.859131938614306,21.75383932877548,0.1679999393695223,-1.162645139944849e-05,6.915157992902444e-05,1.364252723041722e-06,9.067058000806187e-05,0.0001014487187581664
26.51415608175,14.73584391825,2,0.1054042063193736,1.656169664681103,19.67410715192806,0.1861910501480802,-1.166956391736609e-05,6.889391565418853e-05,1.665029515795385e-06,9.021542657898485e-05,0.0001112839595547979
27.23584391825,14.73584391825,2,0.1089424237107268,1.668752153823874,19.67282529099673,0.1806526786339263,-1.166956391736609e-05,6.915157992902441e-05,1.621916997877849e-06,9.061223044104158e-05,0.000111707126709355
25.26415608175,11.51415608175,2,0,1.650533160090626,20.50429765599849,0.3982121261867318,-1.112173201250878e-05,6.429332597112264e-05,3.185697009493854e-06,8.388035124685748e-05,8.624643224501139e-05
25.98584391825,11.51415608175,2,0,1.653293746977359,20.51534000354541,0.3658453667307738,-1.112173201250878e-05,6.432645301376343e-05,2.926762933846191e-06,8.393042987035874e-05,8.649006514572114e-05
25.26415608175,12.23584391825,2,0,1.564221801541395,20.48271981636118,0.4023530065168338,-1.138066608815648e-05,6.429332597112264e-05,3.218824052134671e-06,8.352815213000696e-05,8.80881924137223e-05
25.98584391825,12.23584391825,2,0,1.566982388428127,20.49376216390811,0.3699862470608759,-1.138066608815648e-05,6.432645301376343e-05,2.959889976487007e-06,8.357820825336859e-05,8.836051239715002e-05
25.26415608175,10.26415608175,2,0,1.800175333981689,20.37786681286417,0.4637805606540766,-1.054173238154993e-05,6.376903353397999e-05,3.710244485232613e-06,8.386543546090182e-05,8.45852657213376e-05
25.98584391825,10.26415608175,2,0,1.804292492562577,20.39433544718772,0.4193795579319057,-1.054173238154993e-05,6.381843943695065e-05,3.355036463455245e-06,8.394005541623303e-05,8.480643556139613e-05
25.26415608175,10.98584391825,2,0,1.681772660055893,20.34826614438272,0.4699562985254122,-1.089694040332732e-05,6.376903353397999e-05,3.759650388203298e-06,8.338142298601987e-05,8.530782586667069e-05
25.98584391825,10.98584391825,2,0,1.685889818636781,20.36473477870627,0.4255552958032396,-1.089694040332732e-05,6.381843943695065e-05,3.404442366425917e-06,8.345599720378386e-05,8.553775312777236e-05
26.51415608175,10.26415608175,2,0,1.85074402680486,20.41514222245943,0.3319900371188986,-1.040973289219199e-05,6.384785989042629e-05,2.655920296951189e-06,8.416303983943754e-05,8.494432093135459e-05
27.23584391825,10.26415608175,2,0,1.853325049364018,20.42546631269606,0.2884905172326953,-1.040973289219199e-05,6.387883216113618e-05,2.307924137861562e-06,8.420973673644838e-05,8.509986092765899e-05
26.51415608175,10.98584391825,2,0,1.734745307108335,20.3861425425353,0.3358615709576332,-1.075772905128157e-05,6.384785989042629e-05,2.686892567661065e-06,8.368841676810133e-05,8.568110248742832e-05
27.23584391825,10.98584391825,2,0,1.737326329667494,20.39646663277194,0.2923620510714384,-1.075772905128157e-05,6.38788321611362e-05,2.338896408571507e-06,8.373508549355105e-05,8.584281296015587e-05
26.51415608175,11.51415608175,2,0,1.702865173524362,20.53377870010743,0.2834282740742725,-1.097785440480799e-05,6.434579970152429e-05,2.26742619259418e-06,8.415415304367007e-05,8.664218535232245e-05
27.23584391825,11.51415608175,2,0,1.704509264464567,20.54035506386825,0.2517535877237526,-1.097785440480799e-05,6.436552879280675e-05,2.01402870179002e-06,8.418389936667932e-05,8.681415258492308e-05
26.51415608175,12.23584391825,2,0,1.618399343256312,20.51266224254042,0.2858944104845468,-1.123125189561214e-05,6.434579970152429e-05,2.287155283876375e-06,8.380917224198178e-05,8.853113101353499e-05
27.23584391825,12.23584391825,2,0,1.620043434196515,20.51923860630123,0.2542197241340303,-1.123125189561214e-05,6.436552879280673e-05,2.033757793072242e-06,8.383890531746725e-05,8.872494975880792e-05
25.26415608175,9.01415608175,2,0,1.997184034494082,20.2358060230589,0.5265137794751509,-9.797655908066057e-06,6.315683204619321e-05,4.212110235801207e-06,8.394106598560161e-05,8.398709623858543e-05
25.98584391825,9.01415608175,2,0,2.002457146564428,20.25689847134029,0.4703232693831799,-9.797655908066057e-06,6.322010939103736e-05,3.762586155065439e-06,8.403645153045179e-05,8.420275779025147e-05
25.26415608175,9.735843918250001,2,0,1.847342674248836,20.19834568299759,0.5344234475806685,-1.02471799888018e-05,6.315683204619321e-05,4.275387580645348e-06,8.33270412772799e-05,8.42313772840833e-05
25.98584391825,9.735843918250001,2,0,1.852615786319182,20.21943813127897,0.4782329374886993,-1.02471799888018e-05,6.322010939103736e-05,3.825863499909595e-06,8.342235304049192e-05,8.444872463881922e-05
25.26415608175,7.76415608175,2,0,2.240652517825188,20.07867716153696,0.5855787035762741,-8.892853672188964e-06,6.245924490265811e-05,4.684629628610193e-06,8.410812261593287e-05,8.386929337936e-05
25.98584391825,7.76415608175,2,0,2.247009493620997,20.10410506472019,0.5178397544432984,-8.892853672188964e-06,6.253552861220782e-05,4.142718035546388e-06,8.422288973060241e-05,8.408490127413543e-05
25.26415608175,8.485843918250001,2,0,2.060015320137266,20.03351786211498,0.5951141672700018,-9.434765265252732e-06,6.245924490265811e-05,4.760913338160014e-06,8.336564872051398e-05,8.389007614872552e-05
25.98584391825,8.485843918250001,2,0,2.066372295933074,20.05894576529822,0.5273752181370346,-9.434765265252732e-06,6.253552861220782e-05,4.219001745096277e-06,8.348030976824e-05,8.41052716134999e-05
26.51415608175,7.76415608175,2,0,2.285055682236193,20.12825355070082,0.4231534110335232,-8.790424657404839e-06,6.258236681645367e-05,3.385227288268185e-06,8.443234846804127e-05,8.421956535027376e-05
27.23584391825,7.76415608175,2,0,2.289362402585406,20.14548043209767,0.3565519724045827,-8.790424657404839e-06,6.263404746064422e-05,2.852415779236662e-06,8.451006855778037e-05,8.437186655347821e-05
26.51415608175,8.485843918250001,2,0,2.10745184589236,20.08385259161486,0.4296134915573451,-9.323236166436337e-06,6.258236681645367e-05,3.436907932458761e-06,8.370170852208298e-05,8.423959979570998e-05
27.23584391825,8.485843918250001,2,0,2.111758566241578,20.10107947301174,0.3630120529284081,-9.323236166436337e-06,6.263404746064428e-05,2.904096423427265e-06,8.377935850921037e-05,8.439139574963747e-05
26.51415608175,9.01415608175,2,0,2.044969296738842,20.27954190978198,0.3788724633884989,-9.679731778261283e-06,6.325855867391123e-05,3.030979707107991e-06,8.425413295101241e-05,8.43373180893848e-05
27.23584391825,9.01415608175,2,0,2.048449967529383,20.29346459294414,0.323728386489631,-9.679731778261283e-06,6.330032672339773e-05,2.589827091917048e-06,8.43170408382519e-05,8.44892821116483e-05
26.51415608175,9.735843918250001,2,0,1.897918425008529,20.2427791918494,0.3840934695743063,-1.012088439345222e-05,6.325855867391123e-05,3.072747756594451e-06,8.365099959339899e-05,8.458425498710848e-05
27.23584391825,9.735843918250001,2,0,1.901399095799074,20.25670187501158,0.3289493926754384,-1.012088439345222e-05,6.330032672339777e-05,2.631595141403507e-06,8.371385989108804e-05,8.473718342988207e-05
25.26415608175,6.514156081750002,2,0,2.529515211249009,19.9075033314421,0.6403081766367982,-7.831553989156852e-06,6.168039849161551e-05,5.122465413094385e-06,8.436905339190406e-05,8.400010374940865e-05
25.98584391825,6.514156081750002,2,0,2.536890616927468,19.93700495415594,0.5613431120969096,-7.831553989156852e-06,6.176890335975703e-05,4.490744896775277e-06,8.450196071755904e-05,8.421674836992576e-05
25.26415608175,7.235843918250001,2,0,2.3189417058093,19.85485995508218,0.6513712851544947,-8.463274505475981e-06,6.168039849161551e-05,5.210970281235958e-06,8.350041626582237e-05,8.389877518610726e-05
25.98584391825,7.235843918250001,2,0,2.326317111487759,19.88436157779601,0.5724062206146011,-8.463274505475981e-06,6.176890335975703e-05,4.579249764916809e-06,8.363318267413651e-05,8.411477138099365e-05
25.26415608175,5.264156081750002,2,0,2.862443535368788,19.72355889633694,0.6902896581006889,-6.619027803889432e-06,6.082543363998319e-05,5.522317264805511e-06,8.472668726210937e-05,8.428555912811881e-05
25.98584391825,5.264156081750002,2,0,2.870755832922579,19.75680808655211,0.6004944367320704,-6.619027803889432e-06,6.092518121062867e-05,4.803955493856563e-06,8.487621333919031e-05,8.450276032666069e-05
25.26415608175,5.985843918250002,2,0,2.622989611719145,19.66369541542453,0.702758104431371,-7.337389574838363e-06,6.082543363998319e-05,5.622064835450967e-06,8.373486340964588e-05,8.410374219431274e-05
25.98584391825,5.985843918250002,2,0,2.631301909272935,19.6969446056397,0.6129628830627558,-7.337389574838363e-06,6.092518121062867e-05,4.903703064502047e-06,8.388421326204214e-05,8.432070969458623e-05
26.51415608175,5.264156081750002,2,0,2.899175510697194,19.7832185053756,0.5020521513556839,-6.549213170069463e-06,6.098695880864418e-05,4.016417210845472e-06,8.506405869537126e-05,8.463860222989606e-05
27.23584391825,5.264156081750002,2,0,2.904928174522999,19.80622916067882,0.4134389197005059,-6.549213170069463e-06,6.105599077455383e-05,3.307511357604048e-06,8.516752998769053e-05,8.479252801280583e-05
26.51415608175,5.985843918250002,2,0,2.662873559616716,19.72414301760548,0.5106811470943928,-7.258119023310895e-06,6.098695880864418e-05,4.085449176755143e-06,8.408453139897569e-05,8.445636734278353e-05
27.23584391825,5.985843918250002,2,0,2.668626223442526,19.74715367290872,0.4220679154392132,-7.258119023310895e-06,6.105599077455389e-05,3.376543323513705e-06,8.418788352421459e-05,8.461002342983613e-05
26.51415608175,6.514156081750002,2,0,2.570174078853767,19.96240092057942,0.4643152402431207,-7.745363684131484e-06,6.182354368277113e-05,3.714521921944965e-06,8.470124766157623e-05,8.43521688432793e-05
27.23584391825,6.514156081750002,2,0,2.575238684727199,19.98265934407315,0.386531325756417,-7.745363684131484e-06,6.188431895325231e-05,3.092250606051336e-06,8.479249507605271e-05,8.450549983636478e-05
26.51415608175,7.235843918250001,2,0,2.362750306889227,19.91054497758829,0.4719121490532729,-8.367635000025106e-06,6.182354368277113e-05,3.775297192426183e-06,8.384489691322188e-05,8.424972813566176e-05
27.23584391825,7.235843918250001,2,0,2.367814912762666,19.93080340108205,0.3941282345665777,-8.367635000025106e-06,6.188431895325241e-05,3.153025876532621e-06,8.393604989573863e-05,8.440244065136893e-05
25.26415608175,4.014156081750001,2,0,3.237934067108508,19.52820830921811,0.7353421924267828,-5.261177632627264e-06,5.989991933581115e-05,5.882737539414262e-06,8.518382523205135e-05,8.468162490745774e-05
25.98584391825,4.014156081750001,2,0,3.24708720066614,19.56482084344864,0.6351508351707702,-5.261177632627261e-06,6.000975693850272e-05,5.081206681366162e-06,8.534819322131283e-05,8.489842520337351e-05
25.26415608175,4.735843918250002,2,0,2.970757114425784,19.46141407104743,0.749071892763243,-6.062708490675436e-06,5.989991933581115e-05,5.992575142105944e-06,8.407214605524104e-05,8.444040233442109e-05
25.98584391825,4.735843918250002,2,0,2.979910247983415,19.49802660527796,0.6488805355072144,-6.062708490675436e-06,6.000975693850272e-05,5.191044284057715e-06,8.423630407556224e-05,8.465755873069036e-05
25.26415608175,2.764156081749999,2,0,3.654407250271402,19.32277199271004,0.775413452249443,-3.764114393299542e-06,5.890934457645499e-05,6.203307617995544e-06,8.574296516983154e-05,8.515201846405181e-05
25.98584391825,2.76415608175,2,0,3.664305348766561,19.36236438669067,0.6652688513459333,-3.76411439329954e-06,5.902812175839689e-05,5.322150810767467e-06,8.592041063199181e-05,8.536744321142169e-05
25.26415608175,3.485843918250001,2,0,3.360688314528709,19.24934225877436,0.790260599992182,-4.64527120052762e-06,5.890934457645499e-05,6.322084799937456e-06,8.451484728227759e-05,8.487230187470732e-05
25.98584391825,3.485843918250001,2,0,3.370586413023868,19.288934652755,0.680115999088668,-4.645271200527618e-06,5.902812175839689e-05,5.440927992709344e-06,8.46920521034872e-05,8.508863817669893e-05
26.51415608175,2.76415608175,2,0,3.683042949845659,19.39013183260208,0.5666596565628748,-3.72636802657555e-06,5.910198750445011e-05,4.533277252502998e-06,8.608266014841984e-05,8.550222077287213e-05
27.23584391825,2.76415608175,2,0,3.689961932280908,19.41780776234307,0.4576617748401748,-3.72636802657555e-06,5.918501529367309e-05,3.661294198721399e-06,8.620670115532034e-05,8.565501517112073e-05
26.51415608175,3.485843918250001,2,0,3.392381931918459,19.31746657812027,0.5770381302157526,-4.598351080357151e-06,5.910198750445011e-05,4.616305041726021e-06,8.486652819192323e-05,8.52239855540618e-05
27.23584391825,3.485843918250001,2,0,3.399300914353708,19.34514250786127,0.4680402484930519,-4.598351080357151e-06,5.918501529367309e-05,3.744321987944415e-06,8.499040444459005e-05,8.537742516371242e-05
26.51415608175,4.014156081750002,2,0,3.270660439506907,19.59201990266598,0.5361999775847978,-5.20750251571068e-06,6.00779353369256e-05,4.289599820678382e-06,8.552370175218756e-05,8.503405583021182e-05
27.23584391825,4.014156081750002,2,0,3.277029543322411,19.61749631792799,0.437168775437488,-5.20750251571068e-06,6.015436458271165e-05,3.497350203499904e-06,8.563807037188862e-05,8.518780529789645e-05
26.51415608175,4.735843918250002,2,0,3.006577233780752,19.52599910123444,0.5457536333080546,-5.999752132889144e-06,6.00779353369256e-05,4.366029066464437e-06,8.442410491603131e-05,8.479339339357442e-05
27.23584391825,4.735843918250002,2,0,3.01294633759626,19.55147551649647,0.4467224311607466,-5.999752132889144e-06,6.015436458271169e-05,3.573779449285973e-06,8.453833057331934e-05,8.49473441977491e-05
25.26415608175,1.51415608175,2,0,4.110253623841243,19.10845583385787,0.8104238834615002,-2.133953070794321e-06,5.785885576927219e-05,6.483391067692002e-06,8.640610334229188e-05,8.563348388528491e-05
25.98584391825,1.51415608175,2,0,4.120821336056077,19.15072668271721,0.6907669262456886,-2.133953070794321e-06,5.798566831585019e-05,5.526135409965509e-06,8.659524887873052e-05,8.584687030905044e-05
25.26415608175,2.235843918249999,2,0,3.791168404599078,19.02868452904733,0.8262754517837477,-3.091208728520816e-06,5.785885576927219e-05,6.610203614269982e-06,8.506497561751456e-05,8.535597656907281e-05
25.98584391825,2.23584391825,2,0,3.801736116813913,19.07095537790667,0.7066184945679387,-3.091208728520811e-06,5.798566831585019e-05,5.652947956543509e-06,8.525385373796642e-05,8.557061089895429e-05
25.26415608175,0.26415608175,2,0,4.603800862379608,18.8863451528335,0.8400797190974664,-3.769133626520558e-07,5.675326379916352e-05,6.720637752779731e-06,8.717452576801299e-05,8.59772362728699e-05
25.98584391825,0.26415608175,2,0,4.615006693377693,18.93116847682584,0.711361411989863,-3.769133626520558e-07,5.688773377114053e-05,5.690891295918904e-06,8.737481505946005e-05,8.618885013001606e-05
25.26415608175,0.9858439182500001,2,0,4.260552043425998,18.8005329480951,0.8568884655945928,-1.406659819512887e-06,5.675326379916352e-05,6.855107724756742e-06,8.572400970953468e-05,8.579994992120216e-05
25.98584391825,0.9858439182500001,2,0,4.271757874424083,18.84535627208744,0.7281701584869893,-1.406659819512887e-06,5.688773377114053e-05,5.825361267895915e-06,8.592400891435534e-05,8.601252701173753e-05
26.51415608175,0.26415608175,2,0,4.623271566562533,18.95946270995455,0.615795946773994,-3.731011549635336e-07,5.697166341860452e-05,4.926367574191952e-06,8.75051455742399e-05,8.632119762991252e-05
27.23584391825,0.26415608175,2,0,4.631174073993008,18.99107273967645,0.4883795328032015,-3.731011549635336e-07,5.706649350777022e-05,3.907036262425612e-06,8.764643347126289e-05,8.647116386675352e-05
26.51415608175,0.9858439182500001,2,0,4.28349446264042,18.87451843397402,0.6276497079197072,-1.39243246672987e-06,5.697166341860452e-05,5.021197663357658e-06,8.606854745479603e-05,8.614549325505443e-05
27.23584391825,0.9858439182500001,2,0,4.291396970070895,18.90612846369592,0.5002332939489144,-1.39243246672987e-06,5.706649350777022e-05,4.001866351591315e-06,8.620963529874952e-05,8.62961866969678e-05
26.51415608175,1.51415608175,2,0,4.134569913009913,19.17885285759282,0.5932929948079395,-2.112458564442538e-06,5.80646732138891e-05,4.746343958463516e-06,8.674279828475585e-05,8.598035386935408e-05
27.23584391825,1.51415608175,2,0,4.141989317086602,19.20853047389958,0.4748159235524581,-2.112458564442538e-06,5.815370606280936e-05,3.798527388419665e-06,8.687561091122895e-05,8.61316513143287e-05
26.51415608175,2.23584391825,2,0,3.818631056328631,19.0998681434225,0.6044221009229718,-3.060275134486382e-06,5.80646732138891e-05,4.835376807383774e-06,8.541410677230469e-05,8.570488905212888e-05
27.23584391825,2.23584391825,2,0,3.82605046040532,19.12954575972926,0.4859450296674929,-3.060275134486382e-06,5.815370606280937e-05,3.887560237339943e-06,8.554673551799862e-05,8.585710945908251e-05
27.76415608175,21.51415608175,2,0.7424965888065939,4.799766020718121,21.69745666718418,0.01547168323091195,-7.761893553899983e-06,0.0002547230276073891,4.806672862066731e-07,0.0003825888274224122,0.0003515433806959126
28.48584391825,21.51415608175,2,0.742321582872252,4.799596044394736,21.69847473368272,0.03259290297729586,-7.761893553899983e-06,0.000254563199523804,1.011893920821081e-06,0.0003823420245763769,0.000351333757503887
27.76415608175,22.23584391825,2,0.7615913258748876,4.486063702328602,20.09907195089841,0.009561356113043998,-7.230666919285647e-06,0.0002547230276073891,3.20839202621508e-07,0.0003833360165235818,0.0003760381568419583
28.48584391825,22.23584391825,2,0.7613448759737693,4.487522426100802,20.10713434242131,0.02541873475800322,-7.230666919285647e-06,0.0002545631995238039,8.520658372358075e-07,0.0003830891885588681,0.0003757000738788966
27.76415608175,20.26415608175,2,0.6933932699351564,4.655940160701682,22.0026346900853,0.009100706893212617,-8.816177118001233e-06,0.0002174892862449849,2.374561547631503e-07,0.0003235891738562201,0.0003011845990171346
28.48584391825,20.26415608175,2,0.6933956740660217,4.655837963877413,22.00219940873382,0.03322454700047121,-8.816177118001233e-06,0.0002174867152761735,8.669035415403894e-07,0.0003235853107285262,0.0003011867091824464
27.76415608175,20.98584391825,2,0.7247406575439552,4.237671879358405,19.76752982078618,0.008081792729707601,-8.186729731223919e-06,0.0002174892862449849,2.348851859514459e-07,0.0003244729393270088,0.0003314864303267789
28.48584391825,20.98584391825,2,0.7246293426362567,4.239326596874622,19.77528782218153,0.02975147859165479,-8.186729731223919e-06,0.0002174867152761735,8.643325727288476e-07,0.0003244690753525777,0.0003313679616087688
29.01415608175,20.26415608175,2,0.6933967941610117,4.656381967674522,22.00213332532354,-0.004627249715397885,-8.810359162124773e-06,0.0002174854006644451,-1.207358469129086e-07,0.0003235913315268512,0.0003011876923277732
29.73584391825,20.26415608175,2,0.6933974502080015,4.656345927303956,22.00198193882926,0.01890522564901753,-8.810359162124773e-06,0.0002174843800472225,4.932829335396716e-07,0.0003235897905935423,0.0003011882681654456
29.01415608175,20.98584391825,2,0.7245750398589124,4.239250076464488,19.77884620951402,-0.004191846160173703,-8.196340381672202e-06,0.0002174854006644451,-1.217564641353176e-07,0.0003244534334215383,0.0003313101999471159
29.73584391825,20.98584391825,2,0.7245380455617847,4.239796052040529,19.78140913413248,0.01694994246862951,-8.196340381672202e-06,0.0002174843800472225,4.922623163172626e-07,0.0003244518921779529,0.0003312708608707535
29.01415608175,21.51415608175,2,0.7422362117188483,4.797699957050797,21.69851768157724,-0.0002132179878692766,-7.782995028421272e-06,0.0002544853063063208,-6.617469095750953e-09,0.0003821918829020702,0.0003512315908794418
29.73584391825,21.51415608175,2,0.7421781073768692,4.797643153468343,21.69885574950336,0.01639245311529099,-7.782995028421272e-06,0.0002544323261621687,5.086442566536436e-07,0.0003821100716932498,0.0003511620896626333
29.01415608175,22.23584391825,2,0.7612246254302031,4.48528344744382,20.11032846679885,-0.001778805303335288,-7.267733302671843e-06,0.0002544853063063208,-5.959761324768678e-08,0.0003829166147524836,0.0003755353354469695
29.73584391825,22.23584391825,2,0.7611428170877561,4.485765621464171,20.1130003643988,0.01360483078329409,-7.267733302671843e-06,0.0002544323261621687,4.556641125016535e-07,0.0003828347954626557,0.0003754233446440284
27.76415608175,19.01415608175,2,0.6184217055600633,4.383319146962941,22.23658550903874,0.008300191218386502,-9.860747300818632e-06,0.000177291054803439,1.740180998621873e-07,0.000260032663068567,0.0002472310703337193
28.48584391825,19.01415608175,2,0.6187090472509602,4.383786488226624,22.23491311933982,0.03670099988577356,-9.860747300818632e-06,0.0001774096455832481,7.700366268051395e-07,0.0002602159403127178,0.000247400768303287
27.76415608175,19.73584391825,2,0.6655742039167478,3.908103746523701,19.5053703557183,0.01223199469064843,-9.264728773875697e-06,0.000177291054803439,2.926088796715524e-07,0.0002608671095946709,0.0002786084433497034
28.48584391825,19.73584391825,2,0.6656798872701511,3.910172669864974,19.51242213957689,0.03713575184427883,-9.264728773875697e-06,0.0001774096455832482,8.88627406614613e-07,0.0002610504197255864,0.0002786877675462348
27.76415608175,17.76415608175,2,0.5104022424089911,3.95462933233496,22.37848118726346,0.01576007785789581,-1.07189442863479e-05,0.0001398034106000817,2.575187915147467e-07,0.0002009391179892599,0.0001965861360356635
28.48584391825,17.76415608175,2,0.5111303458062938,3.956448886415557,22.37600377889786,0.04436858182711201,-1.07189442863479e-05,0.0001399924343764305,7.260599048683307e-07,0.0002012311132208599,0.0001968577566072631
27.76415608175,18.48584391825,2,0.5775325345051973,3.478378762380558,19.32659236051569,0.02358121336010118,-1.025040317299425e-05,0.0001398034106000817,4.465425678634423e-07,0.0002015923208305632,0.0002252532593282689
28.48584391825,18.48584391825,2,0.5779839903617183,3.481309296507313,19.33252999134252,0.04827249545404414,-1.025040317299425e-05,0.0001399924343764305,9.150836812171076e-07,0.0002018843736027606,0.000225474482956242
29.01415608175,17.76415608175,2,0.5114845100591658,3.963992563933263,22.37646569553134,-0.004057588179380577,-1.067805721466561e-05,0.0001400845983058631,-6.644764823931387e-08,0.0002014302795466342,0.0001969901506635151
29.73584391825,17.76415608175,2,0.5117252261111775,3.964593502564777,22.37565647533756,0.02415525322561176,-1.067805721466561e-05,0.0001401473710673605,3.957649179084854e-07,0.0002015272483425232,0.0001970802373802314
29.01415608175,18.48584391825,2,0.5782036417308165,3.487595761455027,19.33664063255579,-0.0001937567305990049,-1.021584464851783e-05,0.0001400845983058631,-3.674886741916392e-09,0.0002020746823051753,0.0002255822749148642
29.73584391825,18.48584391825,2,0.5783528252200018,3.488567910603417,19.3386241849623,0.02416763963145553,-1.021584464851783e-05,0.0001401473710673605,4.585376794058287e-07,0.0002021716699137241,0.0002256555443945067
29.01415608175,19.01415608175,2,0.6188488724895475,4.387550615847612,22.23497664329213,-0.006326457791278713,-9.832895860497129e-06,0.0001774673610640224,-1.327863376944668e-07,0.0002603439535089409,0.0002474834308166047
29.73584391825,19.01415608175,2,0.6189437812677474,4.387699408523048,22.23440527882851,0.0214933160583661,-9.832895860497129e-06,0.0001775064519100781,4.512366417716075e-07,0.0002604043670209783,0.000247539571033312
29.01415608175,19.73584391825,2,0.665731304941013,3.912945710299841,19.51629367708523,-0.003914933715382521,-9.248872881031009e-06,0.0001774673610640224,-9.369549163894438e-08,0.0002611616221426819,0.0002787263772358416
29.73584391825,19.73584391825,2,0.6657661341013474,3.913626790910821,19.51861533643354,0.02048550647660452,-9.248872881031009e-06,0.0001775064519100781,4.903274878271299e-07,0.0002612220462657929,0.0002787525366729851
27.76415608175,16.51415608175,2,0.3642852500217548,3.354331501331799,22.39122876164246,0.03389391978684514,-1.12929929741254e-05,0.0001084896438828116,4.265299150350691e-07,0.0001517984366393005,0.0001539769564345283
28.48584391825,16.51415608175,2,0.3656205048780897,3.35853187764295,22.38918148724799,0.05719069979076638,-1.12929929741254e-05,0.0001087023710371144,7.212175075712484e-07,0.0001521268699138661,0.0001542823923573955
27.76415608175,17.23584391825,2,0.4536041137988389,2.936714987521617,19.25864596969203,0.04366092911392026,-1.099830538158924e-05,0.0001084896438828116,6.392570693381254e-07,0.0001522068527327661,0.000177487708236404
28.48584391825,17.23584391825,2,0.4545717888316726,2.941182971989702,19.26321442566282,0.06367497078202955,-1.099830538158924e-05,0.0001087023710371147,9.339446618741691e-07,0.0001525353453168625,0.0001777818934244126
27.76415608175,15.26415608175,2,0.1873805780774459,2.617566721247455,22.21171534116776,0.06372667830807131,-1.155911181979792e-05,8.489021287669057e-05,6.273704672950307e-07,0.0001150208485530449,0.0001219918445379302
28.48584391825,15.26415608175,2,0.1893354452753923,2.624730585829908,22.21212513883017,0.07531293411026306,-1.155911181979792e-05,8.508946835479394e-05,7.432216807441174e-07,0.0001153281954830491,0.000122272434605064
27.76415608175,15.98584391825,2,0.2921743794275594,2.307344620810479,19.35416978331827,0.07313837784788928,-1.144326060634892e-05,8.489021287669057e-05,8.266259453986987e-07,0.0001151802662865317,0.0001391068845737173
28.48584391825,15.98584391825,2,0.2937910772717984,2.313800900093628,19.35686953200918,0.08319822238072883,-1.144326060634892e-05,8.508946835479402e-05,9.424771588477853e-07,0.0001154876452937007,0.0001394086776949253
29.01415608175,15.26415608175,2,0.1902865685971848,2.639757836624289,22.21522071201015,0.01702126948639269,-1.151636014763281e-05,8.518680478058972e-05,1.681708004463121e-07,0.0001155368586175967,0.0001224094210469427
29.73584391825,15.26415608175,2,0.1909356689846411,2.642136896273588,22.21539285831496,0.02884180206174539,-1.151636014763281e-05,8.525347736319818e-05,2.851867368870362e-07,0.0001156397022479029,0.0001225030848989857
29.01415608175,15.98584391825,2,0.2945774118523753,2.327273059814261,19.36078586006296,0.02070797838548247,-1.139934421119204e-05,8.518680478058972e-05,2.348433830547982e-07,0.0001156978031374922,0.0001395559393213582
29.73584391825,15.98584391825,2,0.2951132758433214,2.329421565605343,19.36174426062331,0.03100262038540199,-1.139934421119204e-05,8.525347736319818e-05,3.518593194955493e-07,0.0001158006576439251,0.0001396564724455873
29.01415608175,16.51415608175,2,0.3662699102744064,3.369893408916927,22.39052452118502,0.003438658711425995,-1.12488910089477e-05,0.0001088062013443541,4.340849541059275e-08,0.0001523480501728029,0.0001544313812657193
29.73584391825,16.51415608175,2,0.3667120805106547,3.371286065300833,22.38987774072695,0.02671195396143113,-1.12488910089477e-05,0.0001088771438648067,3.374383516801702e-07,0.0001524575807772179,0.0001545329906101743
29.01415608175,17.23584391825,2,0.4550424247371321,2.951252114480268,19.26742667180213,0.007789556541710036,-1.095486115267811e-05,0.0001088062013443541,1.14351015863246e-07,0.000152755548477056,0.0001779253261700674
29.73584391825,17.23584391825,2,0.4553625014049505,2.952738548841577,19.26898941492966,0.02780244208405887,-1.095486115267811e-05,0.0001088771438648067,4.083808721327964e-07,0.0001528650987768693,0.0001780230065306735
27.76415608175,14.01415608175,2,0.01688383207639754,1.896397107184,21.76571006853747,0.1039362226747459,-1.153891847369427e-05,6.930325912295166e-05,8.457696135280948e-07,9.10229670200753e-05,0.0001016509026078213
28.48584391825,14.01415608175,2,0.0189746102907794,1.90517715827448,21.77067362369647,0.09809577224043681,-1.153891847369427e-05,6.945999011239318e-05,7.999448191204326e-07,9.126436937915609e-05,0.0001018591428512455
27.76415608175,14.73584391825,2,0.1110070412246413,1.701257383519708,19.67847352728248,0.1114019971510049,-1.1584743268102e-05,6.930325912295166e-05,1.002500602969615e-06,9.096062863368806e-05,0.000111955544418766
28.48584391825,14.73584391825,2,0.113121161961812,1.708795060556927,19.67800980295899,0.1060569411845746,-1.1584743268102e-05,6.94599901123931e-05,9.566758085618717e-07,9.120201633690413e-05,0.0001122110670678488
27.76415608175,12.76415608175,2,0,1.633818988879529,20.6485461802975,0.1447927112277521,-1.129061617982351e-05,6.476829258584839e-05,1.158341689822017e-06,8.437670261440002e-05,9.130434361122826e-05
28.48584391825,12.76415608175,2,0,1.634576441082666,20.65157598911005,0.1236063139656433,-1.129061617982351e-05,6.477738201228603e-05,9.888505117251463e-07,8.439048607623594e-05,9.144038615864229e-05
27.76415608175,13.48584391825,2,0,1.577321929513902,20.6344219154561,0.1459288895324778,-1.146010735792039e-05,6.476829258584839e-05,1.167431116259822e-06,8.414612101069816e-05,9.611743002888083e-05
28.48584391825,13.48584391825,2,0,1.578079381717051,20.63745172426869,0.1247424922703588,-1.146010735792039e-05,6.477738201228616e-05,9.979399381628701e-07,8.415990056607524e-05,9.629365567555229e-05
29.01415608175,12.76415608175,2,0,1.650362305040749,20.65692089591156,0.05517210623733795,-1.124437734059885e-05,6.478185702288438e-05,4.413768498987035e-07,8.445985555562702e-05,9.150681438058528e-05
29.73584391825,12.76415608175,2,0,1.650623682530894,20.65796640587214,0.03385895324805135,-1.124437734059885e-05,6.478499355276612e-05,2.708716259844108e-07,8.446461455845504e-05,9.155225711058364e-05
29.01415608175,13.48584391825,2,0,1.593527230402619,20.64271212725203,0.05556417247255883,-1.141488256451324e-05,6.478185702288438e-05,4.445133797804706e-07,8.42278338807781e-05,9.637973616413344e-05
29.73584391825,13.48584391825,2,0,1.593788607892764,20.64375763721261,0.0342510194832553,-1.141488256451324e-05,6.478499355276612e-05,2.740081558660424e-07,8.423259153814283e-05,9.643868678581603e-05
29.01415608175,14.01415608175,2,0.01999275962709091,1.923930899886312,21.7767115698698,0.03632656280577661,-1.149459913375048e-05,6.953656003372331e-05,2.965411789566269e-07,9.144248967822447e-05,0.0001019608593659808
29.73584391825,14.01415608175,2,0.020688806040566,1.926845814565521,21.77837026045991,0.03051248278498764,-1.149459913375048e-05,6.958902195969613e-05,2.492566855005361e-07,9.152329677710586e-05,0.0001020305138087941
29.01415608175,14.73584391825,2,0.1141500792657315,1.725120784072234,19.6809540066454,0.03864554660469946,-1.154188362720666e-05,6.953656003372331e-05,3.490031049292568e-07,9.13779997199869e-05,0.0001123358497338294
29.73584391825,14.73584391825,2,0.1148528593330094,1.727621887275411,19.68081916226806,0.03338317077893295,-1.154188362720666e-05,6.958902195969613e-05,3.017186114731389e-07,9.145880191598432e-05,0.0001124212396681239
27.76415608175,11.51415608175,2,0,1.737390142337013,20.55226474234161,0.174662836086181,-1.088216333839484e-05,6.437733506162353e-05,1.397302688689448e-06,8.433124132140851e-05,8.691466705805693e-05
28.48584391825,11.51415608175,2,0,1.738433995251545,20.55644015399973,0.1429636850697756,-1.088216333839484e-05,6.438986129659791e-05,1.143709480558205e-06,8.435015614991151e-05,8.701731047296567e-05
27.76415608175,12.23584391825,2,0,1.652859072959938,20.53113197499734,0.1762286154579918,-1.113575654652607e-05,6.437733506162353e-05,1.409828923663935e-06,8.398580537439683e-05,8.88384707051377e-05
28.48584391825,12.23584391825,2,0,1.653902925874481,20.53530738665551,0.1445294644415797,-1.113575654652607e-05,6.438986129659804e-05,1.156235715532637e-06,8.400471194107013e-05,8.895479695297424e-05
27.76415608175,10.26415608175,2,0,1.88475020575993,20.43886160626201,0.2055886137025015,-1.031988862657783e-05,6.389655697543048e-05,1.644708909620012e-06,8.435817968377827e-05,8.519061196642837e-05
28.48584391825,10.26415608175,2,0,1.886204607634846,20.44467921376167,0.1626306685095909,-1.031988862657783e-05,6.391400979792946e-05,1.301045348076727e-06,8.438447377063414e-05,8.528300841889212e-05
27.76415608175,10.98584391825,2,0,1.770195685245519,20.41022297613341,0.2077702165148752,-1.066355218812107e-05,6.389655697543048e-05,1.662161732119002e-06,8.388919187385613e-05,8.593722625494737e-05
28.48584391825,10.98584391825,2,0,1.771650087120437,20.41604058363308,0.1648122713219681,-1.066355218812107e-05,6.39140097979295e-05,1.318498170575744e-06,8.39154703019523e-05,8.603345770051113e-05
29.01415608175,10.26415608175,2,0,1.901963296476389,20.45127493040664,0.08243470178450395,-1.027473739560087e-05,6.392250914012015e-05,6.594776142760316e-07,8.445850164627108e-05,8.532804957918643e-05
29.73584391825,10.26415608175,2,0,1.902443947492842,20.45319753447246,0.03966523863912206,-1.027473739560087e-05,6.392827695231758e-05,3.173219091129765e-07,8.446719208787981e-05,8.535870786508381e-05
29.01415608175,10.98584391825,2,0,1.78791139475535,20.42276195497638,0.08315567830919143,-1.061689310076399e-05,6.392250914012015e-05,6.652454264735315e-07,8.399143685978636e-05,8.608038116279966e-05
29.73584391825,10.98584391825,2,0,1.788392045771803,20.42468455904219,0.04038621516379938,-1.061689310076399e-05,6.392827695231758e-05,3.23089721310395e-07,8.400012217076993e-05,8.611234700028067e-05
29.01415608175,11.51415608175,2,0,1.754640193524167,20.56240995229337,0.06855067966068823,-1.083507934255736e-05,6.439599969251944e-05,5.484054372855058e-07,8.442320076451092e-05,8.70673790416298e-05
29.73584391825,11.51415608175,2,0,1.754993874737563,20.56382467714695,0.03680815554140001,-1.083507934255736e-05,6.44002438670802e-05,2.944652443312001e-07,8.442961245097909e-05,8.710152550017955e-05
29.01415608175,12.23584391825,2,0,1.669993462539398,20.54124826954718,0.06908120148079008,-1.108901953551166e-05,6.439599969251944e-05,5.526496118463207e-07,8.407719666077726e-05,8.901157581005787e-05
29.73584391825,12.23584391825,2,0,1.670347143752795,20.54266299440076,0.03733867736149848,-1.108901953551166e-05,6.44002438670802e-05,2.987094188919878e-07,8.408360556366146e-05,8.905037228457607e-05
27.76415608175,9.01415608175,2,0,2.07731427275495,20.30816797964215,0.2360656540906684,-9.599128710897877e-06,6.33242861166509e-05,1.888525232725347e-06,8.446246755129819e-05,8.457795796636806e-05
28.48584391825,9.01415608175,2,0,2.079288458605141,20.31606472304291,0.1816220910203973,-9.599128710897877e-06,6.334797634685319e-05,1.452976728163178e-06,8.449812394561781e-05,8.466826088461382e-05
27.76415608175,9.735843918250001,2,0,1.932131437900896,20.27187227092863,0.2390269328659671,-1.003467721546004e-05,6.33242861166509e-05,1.912215462927737e-06,8.386664725953219e-05,8.482639712621766e-05
28.48584391825,9.735843918250001,2,0,1.934105623751093,20.27976901432942,0.1845833697956977,-1.003467721546004e-05,6.334797634685326e-05,1.476666958365582e-06,8.390227705292819e-05,8.491720503457428e-05
27.76415608175,7.76415608175,2,0,2.31522548152133,20.16126624610536,0.2650906678621613,-8.720291456016027e-06,6.266387160232007e-05,2.12072534289729e-06,8.465023313608617e-05,8.446079467493294e-05
28.48584391825,7.76415608175,2,0,2.317708850368286,20.17119972149318,0.1992595863488061,-8.720291456016027e-06,6.269367202848354e-05,1.594076690790449e-06,8.469503131752141e-05,8.455144961777483e-05
27.76415608175,8.485843918250001,2,0,2.139675930819053,20.11737885842978,0.2688157211325865,-9.246940108122858e-06,6.266387160232007e-05,2.150525769060692e-06,8.392763219564793e-05,8.447999508479854e-05
28.48584391825,8.485843918250001,2,0,2.142159299666017,20.12731233381764,0.2029846396192314,-9.246940108122858e-06,6.269367202848363e-05,1.623877116953851e-06,8.397239058649457e-05,8.457025701605815e-05
29.01415608175,7.76415608175,2,0,2.330799004568362,20.17899356579693,0.1098195880910557,-8.684638038018786e-06,6.270814020689549e-05,8.785567047284458e-07,8.476528097195036e-05,8.45956465240704e-05
29.73584391825,7.76415608175,2,0,2.33160961893106,20.18223602324772,0.04437590923944744,-8.684638038018786e-06,6.271786757924785e-05,3.550072739155795e-07,8.477990063383067e-05,8.462573977477057e-05
29.01415608175,8.485843918250001,2,0,2.15628252763074,20.13536444656253,0.1110355096351081,-9.208187468831654e-06,6.270814020689549e-05,8.882840770808647e-07,8.404672458475296e-05,8.461425672986031e-05
29.73584391825,8.485843918250001,2,0,2.157093141993437,20.13860690401332,0.0455918307835015,-9.208187468831654e-06,6.271786757924785e-05,3.64734646268012e-07,8.406133135764984e-05,8.464420425223183e-05
29.01415608175,9.01415608175,2,0,2.093873079935973,20.32329963855974,0.09634117334781502,-9.55824585505268e-06,6.335946037944239e-05,7.707293867825201e-07,8.457091982768556e-05,8.471227816082025e-05
29.73584391825,9.01415608175,2,0,2.094513474128304,20.32586121532907,0.04223769009790718,-9.55824585505268e-06,6.336714510975037e-05,3.379015207832575e-07,8.458248241086611e-05,8.474223267758633e-05
29.01415608175,9.735843918250001,2,0,1.949597124602886,20.28723064972647,0.09730176463631227,-9.991073721051941e-06,6.335946037944239e-05,7.784141170904982e-07,8.397864761848538e-05,8.496146748465486e-05
29.73584391825,9.735843918250001,2,0,1.950237518795217,20.28979222649579,0.04319828138640613,-9.991073721051941e-06,6.336714510975037e-05,3.455862510912491e-07,8.399020163454051e-05,8.499158683879098e-05
27.76415608175,6.514156081750002,2,0,2.597902646660239,19.99932889888789,0.2922228026850437,-7.686174649797543e-06,6.191953035911303e-05,2.337782421480349e-06,8.492599323804139e-05,8.459507744464323e-05
28.48584391825,6.514156081750002,2,0,2.600854653271913,20.01113692533458,0.2152339324226888,-7.686174649797543e-06,6.195495443845311e-05,1.721871459381511e-06,8.497916775655702e-05,8.468647702860529e-05
27.76415608175,7.235843918250001,2,0,2.39259899262729,19.94800298537965,0.2966508126025724,-8.302085611896391e-06,6.191953035911303e-05,2.373206500820579e-06,8.407793253420327e-05,8.449163090031543e-05
28.48584391825,7.235843918250001,2,0,2.395550999238964,19.95981101182635,0.2196619423402142,-8.302085611896391e-06,6.195495443845313e-05,1.757295538721713e-06,8.413105287418113e-05,8.45825906762802e-05
27.76415608175,5.264156081750002,2,0,2.92432461865549,19.82360627713723,0.3172356666681282,-6.501046242012214e-06,6.109608039191474e-05,2.537885333345026e-06,8.529343115969871e-05,8.488248525882388e-05
28.48584391825,5.264156081750002,2,0,2.927699194120571,19.83710457899755,0.2294179962802251,-6.501046242012214e-06,6.113657529749571e-05,1.835343970241801e-06,8.535412194506277e-05,8.497432724255483e-05
27.76415608175,5.985843918250002,2,0,2.690144164287747,19.76506116354529,0.3222975298657533,-7.203587605115445e-06,6.109608039191474e-05,2.578380238926027e-06,8.432219778645824e-05,8.469980655436047e-05
28.48584391825,5.985843918250002,2,0,2.693518739752829,19.77855946540562,0.2344798594778451,-7.203587605115445e-06,6.113657529749572e-05,1.875838875822761e-06,8.438281972072339e-05,8.479144252518106e-05
29.01415608175,5.264156081750002,2,0,2.937535510597547,19.84572144802577,0.1345948734631524,-6.476463524508461e-06,6.11562802252044e-05,1.076758987705219e-06,8.541727374776533e-05,8.501911688914557e-05
29.73584391825,5.264156081750002,2,0,2.938647173770948,19.85016810071937,0.0471781695163056,-6.476463524508461e-06,6.116962018328522e-05,3.774253561304448e-07,8.543726533432515e-05,8.504964249555877e-05
29.01415608175,5.985843918250002,2,0,2.704424300072615,19.78744364539453,0.1362623682232539,-7.175797156083257e-06,6.11562802252044e-05,1.090098945786031e-06,8.445021766248352e-05,8.483612879991218e-05
29.73584391825,5.985843918250002,2,0,2.705535963246017,19.79189029808814,0.048845664276402,-7.175797156083257e-06,6.116962018328522e-05,3.90765314211216e-07,8.447018673761097e-05,8.486657800206321e-05
29.01415608175,6.514156081750002,2,0,2.612335958888498,20.01938920202629,0.1226124604873669,-7.656036293177835e-06,6.197217667937332e-05,9.808996838989349e-07,8.504611536858347e-05,8.473104529962461e-05
29.73584391825,6.514156081750002,2,0,2.613304955378143,20.02326518798487,0.04602444913656387,-7.656036293177835e-06,6.198380463724905e-05,3.68195593092511e-07,8.506356773014222e-05,8.476140849649799e-05
29.01415608175,7.235843918250001,2,0,2.408101261953014,19.96833052779241,0.124065955221835,-8.268740383984288e-06,6.197217667937332e-05,9.925276417746803e-07,8.420223435867597e-05,8.462693992702296e-05
29.73584391825,7.235843918250001,2,0,2.409070258442659,19.97220651375099,0.04747794387103204,-8.268740383984288e-06,6.198380463724905e-05,3.798235509682563e-07,8.421966907344074e-05,8.465714455737021e-05
27.76415608175,4.014156081750002,2,0,3.293147926791891,19.63541811642459,0.3400039251637025,-5.170261127405621e-06,6.019881963112517e-05,2.72003140130962e-06,8.575565922286795e-05,8.527767618007588e-05
28.48584391825,4.014156081750002,2,0,3.296899943886701,19.65042618480383,0.241759309292154,-5.170261127405622e-06,6.024384383626289e-05,1.934074474337232e-06,8.582302991227846e-05,8.536945852863695e-05
27.76415608175,4.735843918250002,2,0,3.031162284467761,19.56992170584356,0.3456319508059186,-5.95621805437801e-06,6.019881963112517e-05,2.765055606447349e-06,8.466427294892892e-05,8.503732495835998e-05
28.48584391825,4.735843918250002,2,0,3.03491430156257,19.5849297742228,0.2473873349343692,-5.956218054378011e-06,6.024384383626288e-05,1.979098679474954e-06,8.473156062596411e-05,8.512920616388828e-05
27.76415608175,2.76415608175,2,0,3.702770290241745,19.43612016090538,0.3604354075247811,-3.700031199950719e-06,5.923336828270382e-05,2.883483260198249e-06,8.631520853374e-05,8.574433076415883e-05
28.48584391825,2.76415608175,2,0,3.706859876367779,19.45247850540952,0.2522245972927575,-3.700031199950719e-06,5.928244331621622e-05,2.01779677834206e-06,8.638852542351188e-05,8.583555110400883e-05
27.76415608175,3.485843918250001,2,0,3.414208129623007,19.3639796207507,0.3665697867138331,-4.565717681806934e-06,5.923336828270382e-05,2.932558293710665e-06,8.510732624605077e-05,8.54671178147779e-05
28.48584391825,3.485843918250002,2,0,3.418297715749041,19.38033796525483,0.2583589764818069,-4.565717681806932e-06,5.928244331621621e-05,2.066871811854455e-06,8.518054710431288e-05,8.555872308491417e-05
29.01415608175,2.76415608175,2,0,3.71335865299558,19.46157331987685,0.1558521320545092,-3.686510966315624e-06,5.930634770120945e-05,1.246817056436073e-06,8.644287430869021e-05,8.588004099545167e-05
29.73584391825,2.76415608175,2,0,3.714711399730203,19.46698430681534,0.04804185287244054,-3.686510966315625e-06,5.932258066202494e-05,3.843348229795243e-07,8.646712590372463e-05,8.591036929945187e-05
29.01415608175,3.485843918250002,2,0,3.425864575176729,19.38969980042214,0.1578812521564453,-4.548993199772177e-06,5.930634770120945e-05,1.263050017251562e-06,8.523918474660579e-05,8.560340069549356e-05
29.73584391825,3.485843918250001,2,0,3.427217321911352,19.39511078736063,0.05007097297437917,-4.548993199772178e-06,5.932258066202494e-05,4.005677837950333e-07,8.526340479826235e-05,8.563385692742617e-05
29.01415608175,4.014156081750002,2,0,3.305080736353577,19.65932186651091,0.1456938886845619,-5.151199136877276e-06,6.026576538375203e-05,1.165551109476495e-06,8.58819946047656e-05,8.541422200089955e-05
29.73584391825,4.014156081750002,2,0,3.306319617719035,19.66427739197274,0.04784701575904546,-5.151199136877276e-06,6.028063196013753e-05,3.827761260723637e-07,8.590423904054277e-05,8.544473573288826e-05
29.01415608175,4.735843918250002,2,0,3.044155741885516,19.59409061789389,0.1475522107327514,-5.933974120281462e-06,6.026576538375203e-05,1.180417685862011e-06,8.479475537935844e-05,8.517401649549524e-05
29.73584391825,4.735843918250002,2,0,3.045394623250973,19.59904614335572,0.0497053378072367,-5.933974120281463e-06,6.028063196013753e-05,3.976427024578936e-07,8.481697260157673e-05,8.520455939262633e-05
27.76415608175,1.51415608175,2,0,4.151336485713262,19.22708894497893,0.378405267151088,-2.097394401700703e-06,5.820561543536195e-05,3.027242137208704e-06,8.697389839584866e-05,8.622008409907414e-05
28.48584391825,1.51415608175,2,0,4.155735335237297,19.24468434307507,0.2607488210626883,-2.097394401700703e-06,5.825840162965038e-05,2.085990568501507e-06,8.705264733183689e-05,8.631038951508912e-05
27.76415608175,2.23584391825,2,0,3.837585962810862,19.14865131425333,0.3850035414371416,-3.038645970407902e-06,5.820561543536195e-05,3.080028331497133e-06,8.565388424084728e-05,8.594608747195758e-05
28.48584391825,2.23584391825,2,0,3.841984812334899,19.16624671234948,0.2673470953487423,-3.038645970407902e-06,5.825840162965039e-05,2.138776762789939e-06,8.573252568726161e-05,8.603695951694553e-05
27.76415608175,0.26415608175,2,0,4.636678642256442,19.00974647830119,0.3936801807096904,-3.704255274203379e-07,5.712184581675864e-05,3.149441445677523e-06,8.773263761064216e-05,8.655880749064281e-05
28.48584391825,0.26415608175,2,0,4.641378244865884,19.02854488873896,0.2671775105377047,-3.704255274203379e-07,5.717824104807195e-05,2.137420084301637e-06,8.781667765910328e-05,8.664828808723696e-05
27.76415608175,0.9858439182500001,2,0,4.299338188464478,18.9254113648532,0.400729584623855,-1.382446888796226e-06,5.712184581675864e-05,3.20583667699084e-06,8.630583819304414e-05,8.638426193326211e-05
28.48584391825,0.9858439182500001,2,0,4.304037791073921,18.94420977529097,0.2742269144518699,-1.382446888796226e-06,5.717824104807196e-05,2.193815315614959e-06,8.638976107768265e-05,8.647419451180369e-05
29.01415608175,0.26415608175,2,0,4.644128484245319,19.03782356269711,0.1730192808558719,-3.69047700572671e-07,5.72057326132345e-05,1.384154246846975e-06,8.785956802027185e-05,8.669192631175128e-05
29.73584391825,0.26415608175,2,0,4.645687911036445,19.04406126986162,0.04698714730288797,-3.69047700572671e-07,5.722444573472802e-05,3.758971784231038e-07,8.788745702043317e-05,8.672166756168738e-05
29.01415608175,0.9858439182500001,2,0,4.308042794770695,18.95380214032846,0.1753584210425633,-1.377304768996542e-06,5.72057326132345e-05,1.402867368340506e-06,8.643780803184797e-05,8.651805427237867e-05
29.73584391825,0.9858439182500001,2,0,4.309602221561821,18.96003984749296,0.04932628748957896,-1.377304768996542e-06,5.722444573472802e-05,3.946102999166317e-07,8.646565845584281e-05,8.654794878814082e-05
29.01415608175,1.51415608175,2,0,4.160462667375207,19.25390438178102,0.1649988545015379,-2.089642969824154e-06,5.828412388779909e-05,1.319990836012303e-06,8.710175971620796e-05,8.635443186981131e-05
29.73584391825,1.51415608175,2,0,4.161920027530387,19.25973382240174,0.04776296844002442,-2.089642969824154e-06,5.830161220966126e-05,3.821037475201954e-07,8.712785064698058e-05,8.638445240458746e-05
29.01415608175,2.23584391825,2,0,3.847833637877835,19.17574712440668,0.1671848947343093,-3.027530058316271e-06,5.828412388779909e-05,1.337479157874474e-06,8.578618686007043e-05,8.608127919209444e-05
29.73584391825,2.23584391825,2,0,3.849290998033015,19.1815765650274,0.04994900867279578,-3.027530058316271e-06,5.830161220966126e-05,3.995920693823662e-07,8.581224243267446e-05,8.611149075139342e-05
30.26415608175,21.51415608175,2,0.7421781073768692,4.797643153468341,21.69885574950337,-0.01639245311532068,-7.782995028421319e-06,0.0002544323261621689,-5.086442566545652e-07,0.0003821100716932499,0.0003511620896626332
30.98584391825,21.51415608175,2,0.7422362117188483,4.797699957050791,21.69851768157723,0.0002132179878483165,-7.782995028421319e-06,0.0002544853063063207,6.617469095100432e-09,0.00038219188290207,0.0003512315908794416
30.26415608175,22.23584391825,2,0.7611428170877561,4.485765621464172,20.11300036439881,-0.01360483078331351,-7.267733302671872e-06,0.0002544323261621689,-4.556641125023041e-07,0.0003828347954626558,0.0003754233446440283
30.98584391825,22.23584391825,2,0.7612246254302031,4.485283447443828,20.11032846679889,0.001778805303315872,-7.267733302671872e-06,0.0002544853063063213,5.959761324703626e-08,0.0003829166147524842,0.0003755353354469694
30.26415608175,20.26415608175,2,0.6933974502080015,4.656345927303947,22.00198193882923,-0.01890522564904039,-8.810359162124773e-06,0.0002174843800472222,-4.932829335402679e-07,0.0003235897905935418,0.0003011882681654456
30.98584391825,20.26415608175,2,0.6933967941610117,4.656381967674529,22.00213332532356,0.004627249715375032,-8.810359162124773e-06,0.0002174854006644453,1.207358469123123e-07,0.0003235913315268516,0.0003011876923277731
30.26415608175,20.98584391825,2,0.7245380455617847,4.239796052040519,19.78140913413245,-0.01694994246864445,-8.196340381672234e-06,0.0002174843800472222,-4.922623163176962e-07,0.0003244518921779524,0.0003312708608707534
30.98584391825,20.98584391825,2,0.7245750398589121,4.239250076464487,19.77884620951403,0.004191846160158776,-8.196340381672234e-06,0.000217485400664445,1.217564641348839e-07,0.0003244534334215382,0.0003313101999471157
31.51415608175,20.26415608175,2,0.6933956740660214,4.655837963877413,22.00219940873382,-0.033224547000465,-8.816177118001242e-06,0.0002174867152761735,-8.669035415402268e-07,0.0003235853107285262,0.0003011867091824463
32.23584391825,20.26415608175,2,0.6933932699351564,4.655940160701697,22.00263469008536,-0.009100706893200151,-8.816177118001242e-06,0.0002174892862449855,-2.37456154762825e-07,0.000323589173856221,0.0003011845990171346
31.51415608175,20.98584391825,2,0.7246293426362566,4.239326596874622,19.77528782218153,-0.0297514785916324,-8.186729731223919e-06,0.0002174867152761735,-8.643325727281971e-07,0.0003244690753525777,0.0003313679616087687
32.23584391825,20.98584391825,2,0.7247406575439551,4.237671879358413,19.76752982078622,-0.00808179272969268,-8.186729731223919e-06,0.0002174892862449852,-2.348851859510122e-07,0.0003244729393270093,0.0003314864303267788
31.51415608175,21.51415608175,2,0.7423215828722519,4.799596044394729,21.6984747336827,-0.0325929029772854,-7.761893553900008e-06,0.0002545631995238037,-1.011893920820756e-06,0.0003823420245763764,0.0003513337575038869
32.23584391825,21.51415608175,2,0.7424965888065937,4.799766020718115,21.69745666718416,-0.01547168323090497,-7.761893553900008e-06,0.0002547230276073889,-4.806672862064563e-07,0.0003825888274224116,0.0003515433806959124
31.51415608175,22.23584391825,2,0.7613448759737691,4.487522426100799,20.10713434242131,-0.02541873475799677,-7.230666919285673e-06,0.0002545631995238037,-8.520658372355907e-07,0.0003830891885588677,0.0003757000738788964
32.23584391825,22.23584391825,2,0.7615913258748876,4.486063702328595,20.09907195089839,-0.009561356113037536,-7.230666919285673e-06,0.0002547230276073889,-3.208392026212911e-07,0.0003833360165235814,0.0003760381568419582
30.26415608175,19.01415608175,2,0.6189437812677473,4.387699408523044,22.2344052788285,-0.02149331605839451,-9.832895860497136e-06,0.000177506451910078,-4.512366417722038e-07,0.0002604043670209781,0.0002475395710333119
30.98584391825,19.01415608175,2,0.6188488724895473,4.387550615847615,22.23497664329214,0.006326457791258054,-9.832895860497136e-06,0.0001774673610640224,1.327863376940331e-07,0.000260343953508941,0.0002474834308166046
30.26415608175,19.73584391825,2,0.6657661341013474,3.913626790910819,19.51861533643352,-0.02048550647662263,-9.248872881030995e-06,0.000177506451910078,-4.903274878275635e-07,0.0002612220462657928,0.0002787525366729851
30.98584391825,19.73584391825,2,0.665731304941013,3.912945710299847,19.51629367708524,0.0039149337153644,-9.248872881030995e-06,0.0001774673610640225,9.369549163851069e-08,0.0002611616221426821,0.0002787263772358416
30.26415608175,17.76415608175,2,0.5117252261111775,3.964593502564779,22.37565647533756,-0.02415525322563492,-1.067805721466559e-05,0.0001401473710673605,-3.957649179088649e-07,0.0002015272483425232,0.0001970802373802314
30.98584391825,17.76415608175,2,0.5114845100591658,3.963992563933262,22.37646569553132,0.004057588179357406,-1.067805721466559e-05,0.000140084598305863,6.64476482389344e-08,0.0002014302795466341,0.0001969901506635151
30.26415608175,18.48584391825,2,0.5783528252200016,3.488567910603417,19.33862418496231,-0.02416763963148411,-1.021584464851783e-05,0.0001401473710673605,-4.585376794063708e-07,0.0002021716699137241,0.0002256555443945067
30.98584391825,18.48584391825,2,0.5782036417308164,3.487595761455028,19.3366406325558,0.0001937567305704229,-1.021584464851783e-05,0.0001400845983058631,3.674886741374291e-09,0.0002020746823051753,0.0002255822749148641
31.51415608175,17.76415608175,2,0.5111303458062936,3.956448886415547,22.37600377889783,-0.04436858182710374,-1.071894428634791e-05,0.0001399924343764302,-7.260599048681952e-07,0.0002012311132208595,0.0001968577566072631
32.23584391825,17.76415608175,2,0.5104022424089909,3.954629332334963,22.37848118726347,-0.01576007785788089,-1.071894428634791e-05,0.0001398034106000817,-2.575187915145028e-07,0.00020093911798926,0.0001965861360356634
31.51415608175,18.48584391825,2,0.577983990361718,3.481309296507308,19.3325299913425,-0.04827249545402131,-1.025040317299424e-05,0.0001399924343764302,-9.150836812166739e-07,0.0002018843736027602,0.0002254744829562419
32.23584391825,18.48584391825,2,0.577532534505197,3.478378762380564,19.32659236051571,-0.02358121336007829,-1.025040317299424e-05,0.0001398034106000818,-4.465425678630086e-07,0.0002015923208305634,0.0002252532593282688
31.51415608175,19.01415608175,2,0.61870904725096,4.383786488226638,22.23491311933989,-0.03670099988575033,-9.860747300818646e-06,0.0001774096455832484,-7.700366268046516e-07,0.0002602159403127183,0.0002474007683032869
32.23584391825,19.01415608175,2,0.6184217055600632,4.383319146962927,22.2365855090387,-0.008300191218368405,-9.860747300818646e-06,0.0001772910548034386,-1.740180998618078e-07,0.0002600326630685663,0.0002472310703337192
31.51415608175,19.73584391825,2,0.665679887270151,3.910172669864983,19.51242213957693,-0.03713575184426978,-9.264728773875683e-06,0.0001774096455832484,-8.886274066143961e-07,0.0002610504197255867,0.0002786877675462347
32.23584391825,19.73584391825,2,0.6655742039167478,3.9081037465237,19.50537035571829,-0.0122319946906303,-9.264728773875683e-06,0.0001772910548034389,-2.926088796711187e-07,0.0002608671095946708,0.0002786084433497034
30.26415608175,16.51415608175,2,0.3667120805106546,3.371286065300827,22.38987774072694,-0.02671195396145474,-1.124889100894772e-05,0.0001088771438648066,-3.374383516804684e-07,0.0001524575807772178,0.0001545329906101743
30.98584391825,16.51415608175,2,0.3662699102744061,3.369893408916931,22.39052452118506,-0.003438658711449615,-1.124889100894772e-05,0.0001088062013443542,-4.34084954108909e-08,0.0001523480501728031,0.0001544313812657193
30.26415608175,17.23584391825,2,0.4553625014049505,2.952738548841577,19.26898941492965,-0.02780244208408102,-1.095486115267809e-05,0.0001088771438648066,-4.083808721331217e-07,0.0001528650987768692,0.0001780230065306735
30.98584391825,17.23584391825,2,0.455042424737132,2.951252114480278,19.26742667180216,-0.007789556541724809,-1.095486115267809e-05,0.0001088062013443542,-1.143510158634628e-07,0.0001527555484770562,0.0001779253261700674
30.26415608175,15.26415608175,2,0.1909356689846411,2.642136896273589,22.21539285831496,-0.02884180206176183,-1.151636014763282e-05,8.525347736319821e-05,-2.851867368871988e-07,0.0001156397022479029,0.0001225030848989857
30.98584391825,15.26415608175,2,0.1902865685971848,2.639757836624275,22.2152207120101,-0.01702126948641189,-1.151636014763282e-05,8.518680478058953e-05,-1.681708004465019e-07,0.0001155368586175964,0.0001224094210469427
30.26415608175,15.98584391825,2,0.2951132758433213,2.32942156560534,19.36174426062332,-0.03100262038543065,-1.139934421119206e-05,8.525347736319821e-05,-3.518593194958746e-07,0.0001158006576439252,0.0001396564724455873
30.98584391825,15.98584391825,2,0.2945774118523752,2.32727305981425,19.36078586006294,-0.02070797838550159,-1.139934421119206e-05,8.518680478058962e-05,-2.34843383055015e-07,0.000115697803137492,0.0001395559393213582
31.51415608175,15.26415608175,2,0.1893354452753921,2.624730585829905,22.21212513883019,-0.07531293411024934,-1.155911181979794e-05,8.508946835479396e-05,-7.432216807439819e-07,0.0001153281954830491,0.0001222724346050639
32.23584391825001,15.26415608175,2,0.1873805780774456,2.617566721247424,22.21171534116766,-0.06372667830806858,-1.155911181979794e-05,8.489021287669019e-05,-6.273704672950036e-07,0.0001150208485530443,0.0001219918445379302
31.51415608175001,15.98584391825,2,0.2937910772717982,2.313800900093615,19.35686953200918,-0.08319822238070972,-1.144326060634897e-05,8.508946835479396e-05,-9.424771588475685e-07,0.0001154876452937006,0.0001394086776949252
32.23584391825,15.98584391825,2,0.2921743794275592,2.307344620810454,19.35416978331822,-0.07313837784787972,-1.144326060634897e-05,8.489021287669032e-05,-8.266259453985902e-07,0.0001151802662865313,0.0001391068845737173
31.51415608175,16.51415608175,2,0.3656205048780894,3.358531877642956,22.38918148724806,-0.05719069979076211,-1.129299297412545e-05,0.0001087023710371147,-7.212175075711942e-07,0.0001521268699138665,0.0001542823923573954
32.23584391825,16.51415608175,2,0.3642852500217546,3.354331501331795,22.39122876164248,-0.03389391978683007,-1.129299297412545e-05,0.0001084896438828117,-4.265299150348794e-07,0.0001517984366393006,0.0001539769564345282
31.51415608175,17.23584391825,2,0.4545717888316723,2.941182971989707,19.26321442566283,-0.06367497078202959,-1.099830538158923e-05,0.0001087023710371147,-9.339446618741691e-07,0.0001525353453168625,0.0001777818934244125
32.23584391825,17.23584391825,2,0.4536041137988386,2.936714987521624,19.25864596969206,-0.04366092911390548,-1.099830538158923e-05,0.0001084896438828116,-6.392570693379085e-07,0.0001522068527327663,0.0001774877082364039
30.26415608175,14.01415608175,2,0.02068880604056589,1.926845814565519,21.7783702604599,-0.03051248278499429,-1.149459913375048e-05,6.958902195969611e-05,-2.492566855005903e-07,9.15232967771058e-05,0.0001020305138087941
30.98584391825,14.01415608175,2,0.01999275962709079,1.923930899886315,21.77671156986981,-0.03632656280579653,-1.149459913375048e-05,6.953656003372334e-05,-2.965411789567895e-07,9.144248967822452e-05,0.0001019608593659808
30.26415608175,14.73584391825,2,0.1148528593330094,1.727621887275411,19.68081916226805,-0.03338317077895694,-1.154188362720665e-05,6.958902195969611e-05,-3.017186114733558e-07,9.145880191598429e-05,0.0001124212396681239
30.98584391825,14.73584391825,2,0.1141500792657313,1.725120784072243,19.68095400664543,-0.03864554660472348,-1.154188362720665e-05,6.95365600337234e-05,-3.490031049294736e-07,9.137799971998704e-05,0.0001123358497338294
30.26415608175,12.76415608175,2,0,1.650623682530889,20.6579664058721,-0.03385895324806151,-1.124437734059884e-05,6.478499355276602e-05,-2.708716259844921e-07,8.446461455845488e-05,9.155225711058364e-05
30.98584391825,12.76415608175,2,0,1.650362305040739,20.6569208959115,-0.05517210623736166,-1.124437734059884e-05,6.478185702288422e-05,-4.413768498988933e-07,8.445985555562678e-05,9.150681438058528e-05
30.26415608175,13.48584391825,2,0,1.593788607892759,20.64375763721257,-0.03425101948326885,-1.141488256451323e-05,6.478499355276602e-05,-2.740081558661508e-07,8.423259153814266e-05,9.6438686785816e-05
30.98584391825,13.48584391825,2,0,1.593527230402628,20.64271212725205,-0.05556417247258594,-1.141488256451323e-05,6.478185702288444e-05,-4.445133797806875e-07,8.422783388077821e-05,9.637973616413344e-05
31.51415608175,12.76415608175,2,0,1.634576441082666,20.65157598911007,-0.1236063139656365,-1.129061617982352e-05,6.477738201228608e-05,-9.888505117250921e-07,8.439048607623601e-05,9.144038615864229e-05
32.23584391825,12.76415608175,2,0,1.633818988879524,20.6485461802975,-0.1447927112277453,-1.129061617982352e-05,6.476829258584839e-05,-1.158341689821963e-06,8.43767026144e-05,9.130434361122825e-05
31.51415608175,13.48584391825,2,0,1.578079381717048,20.63745172426867,-0.1247424922703452,-1.146010735792038e-05,6.477738201228608e-05,-9.979399381627617e-07,8.415990056607513e-05,9.629365567555229e-05
32.23584391825,13.48584391825,2,0,1.577321929513913,20.63442191545613,-0.1459288895324642,-1.146010735792038e-05,6.476829258584847e-05,-1.167431116259714e-06,8.414612101069829e-05,9.611743002888081e-05
31.51415608175001,14.01415608175,2,0.0189746102907794,1.905177158274481,21.77067362369649,-0.09809577224039692,-1.153891847369428e-05,6.945999011239324e-05,-7.999448191201074e-07,9.126436937915614e-05,0.0001018591428512455
32.23584391825,14.01415608175,2,0.0168838320763971,1.896397107183983,21.76571006853742,-0.1039362226747092,-1.153891847369428e-05,6.93032591229515e-05,-8.457696135277966e-07,9.102296702007503e-05,0.0001016509026078213
31.51415608175,14.73584391825,2,0.1131211619618118,1.708795060556943,19.67800980295904,-0.1060569411845626,-1.158474326810198e-05,6.945999011239324e-05,-9.566758085617633e-07,9.120201633690435e-05,0.0001122110670678488
32.23584391825001,14.73584391825,2,0.111007041224641,1.701257383519694,19.67847352728241,-0.1114019971509809,-1.158474326810198e-05,6.930325912295139e-05,-1.002500602969398e-06,9.096062863368768e-05,0.000111955544418766
30.26415608175,11.51415608175,2,0,1.754993874737573,20.563824677147,-0.03680815554142033,-1.083507934255736e-05,6.440024386708033e-05,-2.944652443313627e-07,8.44296124509793e-05,8.710152550017955e-05
30.98584391825,11.51415608175,2,0,1.754640193524165,20.56240995229337,-0.06855067966070179,-1.083507934255736e-05,6.439599969251944e-05,-5.484054372856143e-07,8.442320076451091e-05,8.706737904162981e-05
30.26415608175,12.23584391825,2,0,1.670347143752813,20.54266299440081,-0.0373386773615188,-1.108901953551164e-05,6.440024386708033e-05,-2.987094188921504e-07,8.40836055636617e-05,8.905037228457607e-05
30.98584391825,12.23584391825,2,0,1.669993462539418,20.54124826954723,-0.06908120148080364,-1.108901953551164e-05,6.43959996925196e-05,-5.526496118464291e-07,8.407719666077756e-05,8.901157581005787e-05
30.26415608175,10.26415608175,2,0,1.902443947492837,20.45319753447245,-0.03966523863912545,-1.027473739560088e-05,6.392827695231757e-05,-3.173219091130036e-07,8.446719208787977e-05,8.535870786508381e-05
30.98584391825,10.26415608175,2,0,1.901963296476378,20.45127493040662,-0.08243470178451243,-1.027473739560088e-05,6.392250914012005e-05,-6.594776142760994e-07,8.445850164627093e-05,8.532804957918643e-05
30.26415608175,10.98584391825,2,0,1.788392045771802,20.42468455904219,-0.04038621516380615,-1.061689310076399e-05,6.392827695231757e-05,-3.230897213104492e-07,8.400012217076989e-05,8.611234700028067e-05
30.98584391825,10.98584391825,2,0,1.787911394755352,20.42276195497639,-0.08315567830919821,-1.061689310076399e-05,6.392250914012016e-05,-6.652454264735857e-07,8.399143685978639e-05,8.608038116279966e-05
31.51415608175,10.26415608175,2,0,1.886204607634855,20.44467921376171,-0.1626306685095774,-1.031988862657783e-05,6.39140097979296e-05,-1.301045348076619e-06,8.438447377063436e-05,8.528300841889213e-05
32.23584391825,10.26415608175,2,0,1.884750205759925,20.43886160626199,-0.2055886137024811,-1.031988862657783e-05,6.389655697543043e-05,-1.644708909619849e-06,8.435817968377817e-05,8.519061196642837e-05
31.51415608175,10.98584391825,2,0,1.771650087120446,20.41604058363311,-0.1648122713219613,-1.066355218812106e-05,6.39140097979296e-05,-1.31849817057569e-06,8.391547030195245e-05,8.603345770051113e-05
32.23584391825,10.98584391825,2,0,1.770195685245524,20.41022297613342,-0.2077702165148617,-1.066355218812106e-05,6.389655697543053e-05,-1.662161732118893e-06,8.388919187385621e-05,8.593722625494737e-05
31.51415608175,11.51415608175,2,0,1.73843399525154,20.55644015399974,-0.1429636850697689,-1.088216333839486e-05,6.438986129659794e-05,-1.143709480558151e-06,8.435015614991153e-05,8.701731047296567e-05
32.23584391825,11.51415608175,2,0,1.737390142337002,20.55226474234159,-0.1746628360861675,-1.088216333839486e-05,6.437733506162348e-05,-1.39730268868934e-06,8.43312413214084e-05,8.691466705805693e-05
31.51415608175,12.23584391825,2,0,1.653902925874474,20.53530738665548,-0.1445294644415729,-1.113575654652606e-05,6.438986129659794e-05,-1.156235715532583e-06,8.400471194106998e-05,8.895479695297425e-05
32.23584391825,12.23584391825,2,0,1.652859072959945,20.53113197499736,-0.1762286154579715,-1.113575654652606e-05,6.437733506162359e-05,-1.409828923663772e-06,8.398580537439691e-05,8.88384707051377e-05
30.26415608175,9.01415608175,2,0,2.094513474128304,20.32586121532907,-0.04223769009792582,-9.558245855052683e-06,6.336714510975038e-05,-3.379015207834066e-07,8.458248241086613e-05,8.474223267758633e-05
30.98584391825,9.01415608175,2,0,2.093873079935967,20.32329963855972,-0.09634117334783365,-9.558245855052683e-06,6.335946037944233e-05,-7.707293867826692e-07,8.457091982768548e-05,8.471227816082025e-05
30.26415608175,9.735843918250001,2,0,1.950237518795218,20.2897922264958,-0.04319828138642647,-9.991073721051941e-06,6.336714510975038e-05,-3.455862510914117e-07,8.399020163454054e-05,8.499158683879098e-05
30.98584391825,9.735843918250001,2,0,1.949597124602883,20.28723064972646,-0.0973017646363326,-9.991073721051941e-06,6.335946037944236e-05,-7.784141170906608e-07,8.397864761848536e-05,8.496146748465486e-05
30.26415608175,7.76415608175,2,0,2.33160961893106,20.18223602324774,-0.04437590923946946,-8.684638038018802e-06,6.271786757924792e-05,-3.550072739157557e-07,8.477990063383077e-05,8.462573977477057e-05
30.98584391825,7.76415608175,2,0,2.330799004568358,20.17899356579694,-0.1098195880910761,-8.684638038018803e-06,6.27081402068955e-05,-8.785567047286084e-07,8.476528097195036e-05,8.459564652407042e-05
30.26415608175,8.485843918250001,2,0,2.157093141993442,20.13860690401334,-0.04559183078351505,-9.208187468831654e-06,6.271786757924792e-05,-3.647346462681204e-07,8.406133135764994e-05,8.464420425223183e-05
30.98584391825,8.485843918250001,2,0,2.15628252763074,20.13536444656253,-0.1110355096351216,-9.208187468831654e-06,6.27081402068955e-05,-8.882840770809732e-07,8.404672458475297e-05,8.461425672986031e-05
31.51415608175,7.76415608175,2,0,2.317708850368287,20.1711997214932,-0.1992595863487977,-8.720291456016037e-06,6.269367202848359e-05,-1.594076690790381e-06,8.469503131752148e-05,8.455144961777483e-05
32.23584391825,7.76415608175,2,0,2.315225481521332,20.16126624610537,-0.2650906678621393,-8.720291456016037e-06,6.266387160232012e-05,-2.120725342897114e-06,8.465023313608623e-05,8.446079467493294e-05
31.51415608175,8.485843918250001,2,0,2.142159299666015,20.12731233381763,-0.2029846396192314,-9.246940108122855e-06,6.269367202848359e-05,-1.623877116953851e-06,8.397239058649452e-05,8.457025701605813e-05
32.23584391825,8.485843918250001,2,0,2.139675930819062,20.11737885842982,-0.2688157211325797,-9.246940108122855e-06,6.266387160232016e-05,-2.150525769060638e-06,8.392763219564807e-05,8.447999508479851e-05
31.51415608175,9.01415608175,2,0,2.07928845860514,20.31606472304293,-0.1816220910203922,-9.599128710897891e-06,6.334797634685325e-05,-1.452976728163137e-06,8.449812394561789e-05,8.466826088461381e-05
32.23584391825,9.01415608175,2,0,2.077314272754938,20.30816797964212,-0.2360656540906599,-9.599128710897891e-06,6.332428611665082e-05,-1.888525232725279e-06,8.446246755129804e-05,8.457795796636804e-05
31.51415608175,9.735843918250001,2,0,1.934105623751099,20.27976901432941,-0.1845833697956909,-1.003467721546002e-05,6.334797634685325e-05,-1.476666958365527e-06,8.390227705292819e-05,8.491720503457428e-05
32.23584391825,9.735843918250001,2,0,1.932131437900902,20.27187227092863,-0.2390269328659536,-1.003467721546002e-05,6.332428611665089e-05,-1.912215462927629e-06,8.38666472595322e-05,8.482639712621766e-05
30.26415608175,6.514156081750002,2,0,2.613304955378146,20.02326518798488,-0.04602444913656557,-7.656036293177838e-06,6.19838046372491e-05,-3.681955930925245e-07,8.50635677301423e-05,8.476140849649799e-05
30.98584391825,6.514156081750002,2,0,2.612335958888494,20.01938920202628,-0.1226124604873719,-7.65603629317784e-06,6.197217667937328e-05,-9.808996838989756e-07,8.504611536858342e-05,8.473104529962461e-05
30.26415608175,7.235843918250001,2,0,2.40907025844266,19.97220651375101,-0.04747794387105237,-8.268740383984296e-06,6.19838046372491e-05,-3.798235509684189e-07,8.421966907344082e-05,8.465714455737021e-05
30.98584391825,7.235843918250001,2,0,2.40810126195301,19.96833052779241,-0.1240659552218554,-8.268740383984299e-06,6.197217667937332e-05,-9.925276417748429e-07,8.420223435867596e-05,8.462693992702297e-05
30.26415608175,5.264156081750002,2,0,2.938647173770948,19.85016810071937,-0.04717816951631238,-6.476463524508457e-06,6.11696201832852e-05,-3.77425356130499e-07,8.543726533432514e-05,8.504964249555877e-05
30.98584391825,5.264156081750002,2,0,2.937535510597545,19.84572144802575,-0.1345948734631643,-6.476463524508457e-06,6.115628022520436e-05,-1.076758987705314e-06,8.541727374776527e-05,8.501911688914559e-05
30.26415608175,5.985843918250002,2,0,2.705535963246017,19.79189029808813,-0.04884566427642233,-7.175797156083251e-06,6.11696201832852e-05,-3.907653142113787e-07,8.447018673761097e-05,8.486657800206321e-05
30.98584391825,5.985843918250002,2,0,2.704424300072617,19.78744364539454,-0.1362623682232641,-7.175797156083253e-06,6.115628022520442e-05,-1.090098945786112e-06,8.445021766248354e-05,8.483612879991218e-05
31.51415608175,5.264156081750002,2,0,2.92769919412057,19.83710457899756,-0.2294179962802099,-6.501046242012222e-06,6.113657529749572e-05,-1.835343970241679e-06,8.535412194506279e-05,8.497432724255485e-05
32.23584391825,5.264156081750002,2,0,2.924324618655488,19.82360627713723,-0.3172356666681155,-6.501046242012222e-06,6.109608039191474e-05,-2.537885333344924e-06,8.529343115969869e-05,8.488248525882386e-05
31.51415608175,5.985843918250001,2,0,2.693518739752832,19.77855946540562,-0.2344798594778315,-7.203587605115438e-06,6.113657529749572e-05,-1.875838875822652e-06,8.438281972072341e-05,8.479144252518106e-05
32.23584391825,5.985843918250001,2,0,2.690144164287753,19.76506116354531,-0.3222975298657296,-7.203587605115438e-06,6.109608039191478e-05,-2.578380238925837e-06,8.432219778645831e-05,8.469980655436047e-05
31.51415608175,6.51415608175,2,0,2.60085465327192,20.01113692533462,-0.215233932422677,-7.686174649797551e-06,6.195495443845324e-05,-1.721871459381416e-06,8.497916775655718e-05,8.468647702860529e-05
32.23584391825,6.51415608175,2,0,2.597902646660233,19.99932889888787,-0.2922228026850318,-7.686174649797551e-06,6.191953035911299e-05,-2.337782421480255e-06,8.492599323804131e-05,8.45950774446432e-05
31.51415608175,7.235843918250001,2,0,2.395550999238976,19.95981101182638,-0.2196619423402006,-8.302085611896383e-06,6.195495443845324e-05,-1.757295538721605e-06,8.413105287418131e-05,8.458259067628021e-05
32.23584391825,7.235843918250001,2,0,2.392598992627294,19.94800298537966,-0.2966508126025453,-8.302085611896383e-06,6.191953035911306e-05,-2.373206500820362e-06,8.407793253420331e-05,8.449163090031543e-05
30.26415608175,4.014156081750002,2,0,3.306319617719035,19.66427739197274,-0.04784701575905393,-5.151199136877277e-06,6.028063196013753e-05,-3.827761260724314e-07,8.590423904054277e-05,8.544473573288826e-05
30.98584391825,4.014156081750002,2,0,3.305080736353574,19.65932186651089,-0.1456938886845737,-5.151199136877277e-06,6.026576538375199e-05,-1.16555110947659e-06,8.588199460476554e-05,8.541422200089954e-05
30.26415608175,4.735843918250002,2,0,3.045394623250976,19.59904614335572,-0.04970533780724687,-5.933974120281454e-06,6.028063196013753e-05,-3.97642702457975e-07,8.481697260157673e-05,8.520455939262633e-05
30.98584391825,4.735843918250002,2,0,3.044155741885517,19.59409061789388,-0.1475522107327616,-5.933974120281454e-06,6.026576538375202e-05,-1.180417685862093e-06,8.479475537935842e-05,8.517401649549524e-05
30.26415608175,2.76415608175,2,0,3.714711399730204,19.46698430681535,-0.04804185287244986,-3.686510966315626e-06,5.932258066202494e-05,-3.843348229795989e-07,8.646712590372464e-05,8.591036929945185e-05
30.98584391825,2.76415608175,2,0,3.713358652995578,19.46157331987684,-0.1558521320545227,-3.686510966315626e-06,5.930634770120943e-05,-1.246817056436182e-06,8.644287430869017e-05,8.588004099545165e-05
30.26415608175,3.485843918250001,2,0,3.427217321911354,19.39511078736064,-0.05007097297438933,-4.548993199772176e-06,5.932258066202494e-05,-4.005677837951146e-07,8.526340479826235e-05,8.563385692742617e-05
30.98584391825,3.485843918250002,2,0,3.42586457517673,19.38969980042214,-0.1578812521564588,-4.548993199772176e-06,5.930634770120946e-05,-1.263050017251671e-06,8.523918474660579e-05,8.560340069549356e-05
31.51415608175,2.76415608175,2,0,3.70685987636778,19.45247850540952,-0.2522245972927381,-3.700031199950722e-06,5.928244331621623e-05,-2.017796778341904e-06,8.638852542351191e-05,8.583555110400882e-05
32.23584391825,2.76415608175,2,0,3.702770290241745,19.43612016090538,-0.3604354075247651,-3.700031199950722e-06,5.923336828270381e-05,-2.88348326019812e-06,8.631520853373997e-05,8.57443307641588e-05
31.51415608175,3.485843918250002,2,0,3.418297715749046,19.38033796525484,-0.2583589764817934,-4.565717681806924e-06,5.928244331621623e-05,-2.066871811854347e-06,8.518054710431292e-05,8.555872308491415e-05
32.23584391825,3.485843918250001,2,0,3.414208129623013,19.36397962075071,-0.3665697867138162,-4.565717681806925e-06,5.923336828270385e-05,-2.932558293710529e-06,8.510732624605083e-05,8.54671178147779e-05
31.51415608175,4.014156081750002,2,0,3.296899943886702,19.65042618480383,-0.2417593092921362,-5.170261127405621e-06,6.024384383626291e-05,-1.93407447433709e-06,8.582302991227847e-05,8.536945852863694e-05
32.23584391825,4.014156081750002,2,0,3.293147926791888,19.63541811642458,-0.3400039251636848,-5.170261127405624e-06,6.019881963112515e-05,-2.720031401309478e-06,8.575565922286791e-05,8.527767618007588e-05
31.51415608175,4.735843918250002,2,0,3.034914301562575,19.5849297742228,-0.2473873349343489,-5.956218054378004e-06,6.024384383626291e-05,-1.979098679474791e-06,8.473156062596415e-05,8.512920616388829e-05
32.23584391825,4.735843918250002,2,0,3.031162284467763,19.56992170584356,-0.3456319508059016,-5.956218054378004e-06,6.019881963112517e-05,-2.765055606447213e-06,8.46642729489289e-05,8.503732495835996e-05
30.26415608175,1.51415608175,2,0,4.161920027530391,19.25973382240174,-0.04776296844003332,-2.089642969824144e-06,5.830161220966126e-05,-3.821037475202665e-07,8.71278506469806e-05,8.638445240458744e-05
30.98584391825,1.51415608175,2,0,4.160462667375209,19.25390438178102,-0.1649988545015489,-2.089642969824144e-06,5.828412388779907e-05,-1.319990836012392e-06,8.710175971620793e-05,8.635443186981131e-05
30.26415608175,2.23584391825,2,0,3.849290998033016,19.1815765650274,-0.04994900867280425,-3.027530058316267e-06,5.830161220966126e-05,-3.99592069382434e-07,8.581224243267446e-05,8.611149075139341e-05
30.98584391825,2.23584391825,2,0,3.847833637877836,19.17574712440668,-0.1671848947343194,-3.027530058316267e-06,5.828412388779909e-05,-1.337479157874556e-06,8.578618686007045e-05,8.608127919209443e-05
30.26415608175,0.26415608175,2,0,4.645687911036445,19.04406126986161,-0.0469871473028922,-3.690477005726684e-07,5.722444573472801e-05,-3.758971784231376e-07,8.788745702043314e-05,8.672166756168738e-05
30.98584391825,0.26415608175,2,0,4.644128484245315,19.0378235626971,-0.1730192808558748,-3.690477005726684e-07,5.720573261323445e-05,-1.384154246846999e-06,8.785956802027178e-05,8.669192631175128e-05
30.26415608175,0.9858439182500001,2,0,4.309602221561824,18.96003984749296,-0.04932628748958659,-1.377304768996531e-06,5.722444573472801e-05,-3.946102999166927e-07,8.646565845584281e-05,8.654794878814082e-05
30.98584391825,0.9858439182500001,2,0,4.308042794770694,18.95380214032844,-0.1753584210425701,-1.377304768996531e-06,5.720573261323445e-05,-1.402867368340561e-06,8.643780803184789e-05,8.651805427237865e-05
31.51415608175,0.26415608175,2,0,4.641378244865881,19.02854488873895,-0.2671775105377021,-3.704255274203381e-07,5.717824104807192e-05,-2.137420084301617e-06,8.781667765910326e-05,8.664828808723696e-05
32.23584391825,0.26415608175,2,0,4.636678642256443,19.0097464783012,-0.3936801807096876,-3.704255274203381e-07,5.712184581675867e-05,-3.149441445677501e-06,8.773263761064219e-05,8.655880749064281e-05
31.51415608175,0.9858439182500001,2,0,4.304037791073919,18.94420977529096,-0.274226914451858,-1.382446888796224e-06,5.717824104807192e-05,-2.193815315614864e-06,8.63897610776826e-05,8.647419451180368e-05
32.23584391825,0.9858439182500001,2,0,4.299338188464482,18.92541136485321,-0.400729584623844,-1.382446888796224e-06,5.712184581675867e-05,-3.205836676990752e-06,8.630583819304417e-05,8.63842619332621e-05
31.51415608175,1.51415608175,2,0,4.155735335237298,19.24468434307508,-0.2607488210626735,-2.097394401700705e-06,5.82584016296504e-05,-2.085990568501388e-06,8.705264733183692e-05,8.631038951508911e-05
32.23584391825,1.51415608175,2,0,4.151336485713261,19.22708894497893,-0.3784052671510724,-2.097394401700705e-06,5.820561543536195e-05,-3.027242137208579e-06,8.697389839584866e-05,8.622008409907412e-05
31.51415608175,2.23584391825,2,0,3.841984812334901,19.16624671234948,-0.2673470953487271,-3.038645970407899e-06,5.82584016296504e-05,-2.138776762789817e-06,8.573252568726161e-05,8.603695951694551e-05
32.23584391825,2.23584391825,2,0,3.837585962810865,19.14865131425333,-0.3850035414371263,-3.038645970407899e-06,5.820561543536196e-05,-3.080028331497011e-06,8.565388424084729e-05,8.594608747195757e-05
32.76415608175,21.51415608175,2,0.7426683599772148,4.803564479338136,21.69737101816744,-0.04836748543456922,-7.719573389716197e-06,0.0002548801836760447,-1.50366229136181e-06,0.0003828913906357262,0.0003517493747527446
33.48584391825,21.51415608175,2,0.742962378482362,4.803849372788195,21.69567347018215,-0.03021091610953151,-7.719573389716197e-06,0.0002551497139567641,-9.402799771070377e-07,0.0003833075884495596,0.0003521025377900658
32.76415608175,22.23584391825,2,0.7618333449163321,4.490541368908795,20.09262309011297,-0.03674113661329623,-7.156191075461379e-06,0.0002548801836760447,-1.234132010642349e-06,0.0003836837641879495,0.0003763707599571893
33.48584391825,22.23584391825,2,0.7622475421931383,4.488071961252706,20.07904036591891,-0.01993404861117551,-7.156191075461379e-06,0.0002551497139567639,-6.707496963877929e-07,0.0003841000068644233,0.0003769413656037333
32.76415608175,20.26415608175,2,0.6933903919772879,4.654852295138789,22.00274842713802,-0.04712463853557491,-8.827744879624897e-06,0.0002174912702859297,-1.229567170826144e-06,0.0003235762285320536,0.0003011820730012384
33.48584391825,20.26415608175,2,0.6933849332848132,4.655007976437244,22.00343138726252,-0.02181900305983615,-8.827744879624897e-06,0.0002174941198177827,-5.692871728343006e-07,0.0003235804451806054,0.0003011772819627808
32.76415608175,20.98584391825,2,0.7248497595642227,4.237804634010647,19.76031844345772,-0.04219145666380082,-8.167464881633068e-06,0.0002174912702859297,-1.226717638973642e-06,0.0003245032857076453,0.0003316026268035681
33.48584391825,20.98584391825,2,0.7250364174555157,4.234995062568038,19.74717450547227,-0.01946871538155206,-8.167464881633068e-06,0.0002174941198177826,-5.664376409818522e-07,0.0003245075035082091,0.0003318016127638204
34.01415608175,20.26415608175,2,0.6933790322377527,4.653310209550735,22.00356719410443,-0.06027957935608132,-8.845647786306208e-06,0.0002174957809969597,-1.572745133407102e-06,0.0003235582173464175,0.000301172102846787
34.73584391825,20.26415608175,2,0.6933683686336773,4.653515197158625,22.00450505264322,-0.03320221589232296,-8.845647786306208e-06,0.0002174974698910209,-8.662437268947606e-07,0.0003235605576486258,0.0003011627442772107
34.01415608175,20.98584391825,2,0.7252013417709315,4.235086897604883,19.73613072079117,-0.05396551832185033,-8.139146379793782e-06,0.0002174957809969597,-1.571056239346421e-06,0.0003245501756049125,0.0003319776300852084
34.73584391825,20.98584391825,2,0.7254651111244022,4.231060428298277,19.71734127184175,-0.02966880811986504,-8.139146379793782e-06,0.0002174974698910203,-8.645548328339164e-07,0.0003245525170757671,0.0003322595323900205
34.01415608175,21.51415608175,2,0.743222643048428,4.809515071896205,21.69554794765901,-0.0633325264356797,-7.656399892106273e-06,0.0002553891127844261,-1.973149881673536e-06,0.0003837666623553305,0.0003524157543243334
34.73584391825,21.51415608175,2,0.7436392676970964,4.809926211536805,21.69320520007751,-0.0436057863233662,-7.656399892106273e-06,0.0002557736322641794,-1.360763356592185e-06,0.0003843604130197562,0.0003529183147724383
34.01415608175,22.23584391825,2,0.7626144031812467,4.494758974235075,20.06922004335342,-0.04713974701052988,-7.044013367024951e-06,0.0002553891127844261,-1.588630401920185e-06,0.0003846279471843547,0.0003774482209209808
34.73584391825,22.23584391825,2,0.7632016045849684,4.491228454938153,20.04992764799454,-0.0288966229461482,-7.044013367024951e-06,0.0002557736322641793,-9.762438768388341e-07,0.0003852217672535964,0.000378262369753302
32.76415608175,19.01415608175,2,0.6181380975241029,4.375737612889472,22.2363890322778,-0.05149772317406008,-9.916545327050389e-06,0.0001771736179344253,-1.078876375782171e-06,0.000259773407576391,0.0002470638065137143
33.48584391825,19.01415608175,2,0.617650100138142,4.374885276643566,22.23902874754088,-0.02192492882175957,-9.916545327050389e-06,0.0001769713652213931,-4.587406211887276e-07,0.0002594608363765217,0.000246776531228741
32.76415608175,19.73584391825,2,0.665469587085524,3.902519719464204,19.49749354397697,-0.05357208038471044,-9.296409572456974e-06,0.0001771736179344253,-1.281129088813969e-06,0.00026064165117314,0.0002785299643761972
33.48584391825,19.73584391825,2,0.6652893732438301,3.89898068940259,19.48543160083427,-0.02765518664732987,-9.296409572456974e-06,0.0001769713652213933,-6.609933342206342e-07,0.0002603290214883843,0.0002783948800297749
32.76415608175,17.76415608175,2,0.5096848380809473,3.938983382714889,22.3773796706726,-0.06435405908222917,-1.080357558415653e-05,0.0001396171963600873,-1.050003166622101e-06,0.0002005339074049341,0.0001963192409658858
33.48584391825,17.76415608175,2,0.5084503973899963,3.93580371164819,22.38133145304186,-0.03482732314733737,-1.080357558415653e-05,0.0001392974733716566,-5.668168251979149e-07,0.0002000400192288586,0.0001958616906465321
32.76415608175,18.48584391825,2,0.5770872978256066,3.465615914509621,19.31824328570785,-0.07240932368403676,-1.032038924273238e-05,0.0001396171963600873,-1.369726155052734e-06,0.0002012075936958428,0.0002250355095674285
33.48584391825,18.48584391825,2,0.5763212095021557,3.460605409183159,19.30808417651741,-0.04695101449579097,-1.032038924273238e-05,0.0001392974733716567,-8.865398136285486e-07,0.0002007136047210635,0.0002246618297854244
34.01415608175,17.76415608175,2,0.5073499231933316,3.911979443028643,22.37930033015448,-0.08370789402491258,-1.093089456382084e-05,0.0001390118072161527,-1.359307922044835e-06,0.0001994219298527734,0.0001954555949934248
34.73584391825,17.76415608175,2,0.5055736604262042,3.907101039924222,22.38405689401819,-0.05275489342735904,-1.093089456382084e-05,0.0001385510757537106,-8.535935763104318e-07,0.0001987102347521126,0.0001948036713557092
34.01415608175,18.48584391825,2,0.575637884994637,3.441261534527286,19.29511054643319,-0.0965444703242351,-1.042518021808644e-05,0.0001390118072161527,-1.820039384486808e-06,0.0002001270190091578,0.0002243295696651642
34.73584391825,18.48584391825,2,0.574535248236049,3.433867683154209,19.27990412459508,-0.06989987204374215,-1.042518021808644e-05,0.0001385510757537107,-1.314325038752405e-06,0.0001994151708412677,0.0002237954979172498
34.01415608175,19.01415608175,2,0.6172145389986501,4.363438554039598,22.23859480305939,-0.06563896224192271,-1.00000466567023e-05,0.0001767902896560633,-1.371817248653365e-06,0.0002590646358842202,0.0002465206903468573
34.73584391825,19.01415608175,2,0.616511731640849,4.362103892009314,22.24204128789911,-0.03432436215540292,-1.00000466567023e-05,0.0001764978347245823,-7.160451046342182e-07,0.0002586126658190957,0.0002461089953438413
34.01415608175,19.73584391825,2,0.6651279397663628,3.890465224718654,19.47328147068822,-0.06966478171886918,-9.344274512683192e-06,0.0001767902896560633,-1.664272180133862e-06,0.0002599827589587796,0.0002782739848569734
34.73584391825,19.73584391825,2,0.6648669778946116,3.885329409919597,19.45578633570073,-0.04224770811206702,-9.344274512683192e-06,0.0001764978347245824,-1.00850003611477e-06,0.0002595306991559534,0.0002780787774488979
32.76415608175,16.51415608175,2,0.3629730643696575,3.330643635162461,22.38851905469015,-0.08843273243229703,-1.138532015770352e-05,0.0001082823067734546,-1.11056820345962e-06,0.0001513509050189557,0.0001536779755089777
33.48584391825,16.51415608175,2,0.360716726332316,3.323596329999206,22.39244124771105,-0.06506073846010914,-1.138532015770352e-05,0.0001079285784106755,-8.141710085651874e-07,0.0001508047898626885,0.0001531665803527122
32.76415608175,17.23584391825,2,0.4526514796293927,2.915844840831473,19.25026133357243,-0.1001850698642957,-1.108892296280913e-05,0.0001082823067734546,-1.46429656623843e-06,0.00015176181859504,0.0001771990473416426
33.48584391825,17.23584391825,2,0.4510124515535775,2.908393594994091,19.24317517030614,-0.08014527658828614,-1.108892296280913e-05,0.0001079285784106758,-1.167899371344052e-06,0.0001512156038257165,0.0001767045962989714
32.76415608175001,15.26415608175,2,0.185468192431779,2.587315019440569,22.20565436281687,-0.1237924908431838,-1.164486805783732e-05,8.469680533584737e-05,-1.215839476793575e-06,0.0001146051952107532,0.0001217185967408272
33.48584391825,15.26415608175,2,0.1821873279502217,2.575305008989085,22.20537086351515,-0.1129866082941577,-1.164486805783732e-05,8.436766158577882e-05,-1.105256615904142e-06,0.0001140975290034122,0.0001212526599431877
32.76415608175,15.98584391825,2,0.2905880714000694,2.279557166100275,19.34642804763651,-0.1370036913278622,-1.153428519694774e-05,8.46968053358477e-05,-1.544983226862257e-06,0.0001147575870431433,0.0001388120335752371
33.48584391825,15.98584391825,2,0.2878621824000183,2.268783303899153,19.34263407525929,-0.1276863432735531,-1.153428519694774e-05,8.436766158577888e-05,-1.434400365972715e-06,0.0001142498706683773,0.0001383082787879004
34.01415608175,15.26415608175,2,0.1792963865659074,2.528938337158432,22.19702045561849,-0.175217077625651,-1.17764970537247e-05,8.408311314666108e-05,-1.70796935466128e-06,0.0001134786800181938,0.000120845048421044
34.73584391825,15.26415608175,2,0.1746624202597036,2.51238728450741,22.19903110820448,-0.1664484447237886,-1.17764970537247e-05,8.363485610381232e-05,-1.613385347374235e-06,0.0001127873706168069,0.0001201973698303889
34.01415608175,15.98584391825,2,0.2854462058862051,2.224373863374012,19.33168956579544,-0.1925924691636281,-1.168191304643771e-05,8.408311314666108e-05,-2.156226397509908e-06,0.0001136093597093245,0.0001378648479568836
34.73584391825,15.98584391825,2,0.2815578703206094,2.209640848616974,19.32953650423311,-0.1851463436836376,-1.168191304643771e-05,8.36348561038124e-05,-2.061642390222972e-06,0.0001129179931498055,0.0001371571271841882
34.01415608175,16.51415608175,2,0.3587116594947123,3.285220097113314,22.38747048104459,-0.1193888180535151,-1.153501725642566e-05,0.0001076141964584541,-1.489362092059189e-06,0.0001501128565896208,0.000152714988030991
34.73584391825,16.51415608175,2,0.3554794896046604,3.274644807941762,22.3917732436802,-0.09527780238402418,-1.153501725642566e-05,0.0001071090173547445,-1.182619337598205e-06,0.0001493329528012086,0.0001519926100199538
34.01415608175,17.23584391825,2,0.4495526155939307,2.876137970126464,19.23026979425567,-0.1372362480376225,-1.122827450196474e-05,0.0001076141964584541,-1.994541195768601e-06,0.0001505381947249575,0.0001762665256788526
34.73584391825,17.23584391825,2,0.4471967492971631,2.865175532950818,19.21948543739062,-0.1166275581107633,-1.122827450196474e-05,0.0001071090173547445,-1.687798441307752e-06,0.0001497581426493977,0.000175564145530005
32.76415608175,14.01415608175,2,0.01484564241175701,1.859131938614309,21.75383932877542,-0.1679999393695257,-1.162645139944843e-05,6.915157992902423e-05,-1.364252723041749e-06,9.067058000806162e-05,0.0001014487187581663
33.48584391825,14.01415608175,2,0.01135768752807897,1.844486074835805,21.7459465460846,-0.1739226032893404,-1.162645139944843e-05,6.889391565418815e-05,-1.40736524095942e-06,9.027375193198148e-05,0.00010110458245184
32.76415608175001,14.73584391825,2,0.1089424237107264,1.668752153823883,19.67282529099676,-0.1806526786339385,-1.166956391736608e-05,6.915157992902444e-05,-1.621916997877958e-06,9.061223044104163e-05,0.0001117071267093549
33.48584391825,14.73584391825,2,0.1054042063193731,1.656169664681082,19.67410715192797,-0.1861910501481045,-1.166956391736608e-05,6.889391565418815e-05,-1.665029515795602e-06,9.021542657898431e-05,0.0001112839595547979
32.76415608175,12.76415608175,2,0,1.601801760228037,20.63793475023912,-0.2154553516872446,-1.138458216746158e-05,6.475994979258275e-05,-1.723642813497957e-06,8.423695323072496e-05,9.117190754488456e-05
33.48584391825,12.76415608175,2,0,1.600659801174554,20.63336691402519,-0.2361439269678364,-1.138458216746158e-05,6.474624628394096e-05,-1.889151415742691e-06,8.421620407420458e-05,9.094612803027774e-05
32.76415608175,13.48584391825,2,0,1.546632226146456,20.62414236671873,-0.2171682902674517,-1.155009076970632e-05,6.475994979258275e-05,-1.737346322139613e-06,8.401189854005446e-05,9.594632336682166e-05
33.48584391825,13.48584391825,2,0,1.545490267092985,20.61957453050484,-0.2378568655480434,-1.155009076970632e-05,6.47462462839411e-05,-1.902854924384348e-06,8.399115524222347e-05,9.565507691921415e-05
34.01415608175,12.76415608175,2,0,1.550748107476534,20.61808220460859,-0.311927927002883,-1.153207181976196e-05,6.473726456876624e-05,-2.495423416023064e-06,8.400336182081558e-05,9.074837289145093e-05
34.73584391825,12.76415608175,2,0,1.549845191346874,20.61447054008995,-0.3312671864620496,-1.153207181976196e-05,6.472642957521031e-05,-2.650137491696397e-06,8.398714971918205e-05,9.043387531930214e-05
34.01415608175,13.48584391825,2,0,1.499176748918759,20.60518936496914,-0.3132823011973876,-1.168678589543528e-05,6.473726456876624e-05,-2.506258409579101e-06,8.379312879359379e-05,9.540168183211603e-05
34.73584391825,13.48584391825,2,0,1.498273832789103,20.60157770045052,-0.3326215606565507,-1.168678589543528e-05,6.472642957521037e-05,-2.660972485252406e-06,8.377692147338591e-05,9.500064002735363e-05
34.01415608175,14.01415608175,2,0.008305032615789187,1.788596385665517,21.72947808234579,-0.2422336472832143,-1.175772229892696e-05,6.867379082764761e-05,-1.954098026106982e-06,8.975684655442083e-05,0.0001008053063609912
34.73584391825,14.01415608175,2,0.0034380303857664,1.768828874189436,21.72193911225255,-0.2482916469390017,-1.175772229892696e-05,6.83300628923418e-05,-1.993185808887447e-06,8.922754650754619e-05,0.0001003318051815933
34.01415608175,14.73584391825,2,0.1022969626030023,1.607378470647365,19.66705418501977,-0.2578456681212342,-1.179681008170738e-05,6.867379082764761e-05,-2.297825961412718e-06,8.970441591279411e-05,0.0001109149741788661
34.73584391825,14.73584391825,2,0.09732869944757472,1.590418261880019,19.67247542105104,-0.2636831210937001,-1.179681008170738e-05,6.833006289234191e-05,-2.336913744193075e-06,8.917514825484429e-05,0.0001103300545390846
32.76415608175,11.51415608175,2,0,1.704509264464576,20.54035506386825,-0.2517535877237559,-1.097785440480795e-05,6.436552879280673e-05,-2.014028701790047e-06,8.418389936667935e-05,8.681415258492308e-05
33.48584391825,11.51415608175,2,0,1.70286517352438,20.53377870010746,-0.2834282740742759,-1.097785440480795e-05,6.434579970152437e-05,-2.267426192594207e-06,8.415415304367025e-05,8.664218535232245e-05
32.76415608175,12.23584391825,2,0,1.620043434196512,20.51923860630123,-0.2542197241340506,-1.123125189561214e-05,6.436552879280673e-05,-2.033757793072405e-06,8.383890531746724e-05,8.872494975880791e-05
33.48584391825,12.23584391825,2,0,1.618399343256314,20.51266224254044,-0.2858944104845739,-1.123125189561214e-05,6.434579970152434e-05,-2.287155283876591e-06,8.380917224198186e-05,8.853113101353499e-05
32.76415608175,10.26415608175,2,0,1.853325049364034,20.42546631269608,-0.2884905172327156,-1.040973289219196e-05,6.387883216113624e-05,-2.307924137861725e-06,8.420973673644852e-05,8.509986092765899e-05
33.48584391825,10.26415608175,2,0,1.850744026804878,20.41514222245946,-0.3319900371189121,-1.040973289219196e-05,6.384785989042636e-05,-2.655920296951297e-06,8.416303983943768e-05,8.494432093135459e-05
32.76415608175,10.98584391825,2,0,1.737326329667495,20.39646663277195,-0.2923620510714384,-1.075772905128157e-05,6.387883216113624e-05,-2.338896408571507e-06,8.373508549355111e-05,8.584281296015587e-05
33.48584391825,10.98584391825,2,0,1.734745307108346,20.38614254253535,-0.3358615709576467,-1.075772905128157e-05,6.384785989042644e-05,-2.686892567661174e-06,8.368841676810156e-05,8.568110248742832e-05
34.01415608175,10.26415608175,2,0,1.804292492562591,20.39433544718777,-0.4193795579319192,-1.054173238154993e-05,6.381843943695079e-05,-3.355036463455354e-06,8.394005541623327e-05,8.480643556139613e-05
34.73584391825,10.26415608175,2,0,1.800175333981687,20.37786681286416,-0.4637805606540953,-1.054173238154993e-05,6.376903353397995e-05,-3.710244485232762e-06,8.386543546090176e-05,8.458526572133758e-05
34.01415608175,10.98584391825,2,0,1.685889818636795,20.36473477870632,-0.4255552958032667,-1.089694040332731e-05,6.381843943695079e-05,-3.404442366426134e-06,8.345599720378409e-05,8.553775312777236e-05
34.73584391825,10.98584391825,2,0,1.681772660055895,20.34826614438272,-0.4699562985254394,-1.089694040332731e-05,6.376903353397999e-05,-3.759650388203515e-06,8.338142298601989e-05,8.530782586667068e-05
34.01415608175,11.51415608175,2,0,1.653293746977363,20.51534000354542,-0.3658453667307908,-1.112173201250878e-05,6.432645301376346e-05,-2.926762933846326e-06,8.393042987035878e-05,8.649006514572114e-05
34.73584391825,11.51415608175,2,0,1.650533160090624,20.50429765599847,-0.3982121261867487,-1.112173201250878e-05,6.429332597112259e-05,-3.18569700949399e-06,8.388035124685741e-05,8.624643224501138e-05
34.01415608175,12.23584391825,2,0,1.566982388428136,20.49376216390812,-0.3699862470608895,-1.138066608815646e-05,6.432645301376346e-05,-2.959889976487115e-06,8.357820825336866e-05,8.836051239715002e-05
34.73584391825,12.23584391825,2,0,1.564221801541402,20.48271981636118,-0.4023530065168474,-1.138066608815646e-05,6.429332597112264e-05,-3.218824052134779e-06,8.352815213000699e-05,8.808819241372229e-05
32.76415608175,9.01415608175,2,0,2.048449967529386,20.29346459294412,-0.3237283864896514,-9.679731778261258e-06,6.330032672339765e-05,-2.589827091917211e-06,8.431704083825182e-05,8.448928211164829e-05
33.48584391825,9.01415608175,2,0,2.044969296738844,20.27954190978195,-0.3788724633885142,-9.679731778261258e-06,6.325855867391115e-05,-3.030979707108113e-06,8.425413295101231e-05,8.43373180893848e-05
32.76415608175,9.735843918250001,2,0,1.901399095799062,20.25670187501154,-0.328949392675452,-1.012088439345223e-05,6.330032672339765e-05,-2.631595141403616e-06,8.371385989108785e-05,8.473718342988205e-05
33.48584391825,9.735843918250001,2,0,1.897918425008525,20.24277919184939,-0.3840934695743267,-1.012088439345223e-05,6.325855867391121e-05,-3.072747756594613e-06,8.365099959339894e-05,8.458425498710848e-05
32.76415608175,7.76415608175,2,0,2.289362402585418,20.14548043209768,-0.3565519724046081,-8.790424657404807e-06,6.263404746064424e-05,-2.852415779236865e-06,8.451006855778045e-05,8.437186655347819e-05
33.48584391825,7.76415608175,2,0,2.285055682236206,20.12825355070083,-0.4231534110335469,-8.790424657404807e-06,6.25823668164537e-05,-3.385227288268375e-06,8.443234846804136e-05,8.421956535027377e-05
32.76415608175,8.485843918250001,2,0,2.11175856624157,20.10107947301172,-0.3630120529284284,-9.323236166436351e-06,6.263404746064424e-05,-2.904096423427427e-06,8.377935850921027e-05,8.439139574963747e-05
33.48584391825,8.485843918250001,2,0,2.107451845892363,20.08385259161489,-0.4296134915573723,-9.323236166436351e-06,6.258236681645376e-05,-3.436907932458978e-06,8.370170852208312e-05,8.423959979570998e-05
34.01415608175,7.76415608175,2,0,2.247009493621006,20.10410506472022,-0.517839754443312,-8.892853672188957e-06,6.253552861220789e-05,-4.142718035546496e-06,8.422288973060253e-05,8.408490127413543e-05
34.73584391825,7.76415608175,2,0,2.240652517825181,20.07867716153692,-0.5855787035762775,-8.892853672188957e-06,6.2459244902658e-05,-4.68462962861022e-06,8.410812261593272e-05,8.386929337936e-05
34.01415608175,8.485843918250001,2,0,2.066372295933088,20.05894576529824,-0.5273752181370414,-9.434765265252712e-06,6.253552861220789e-05,-4.219001745096331e-06,8.348030976824013e-05,8.410527161349992e-05
34.73584391825,8.485843918250001,2,0,2.060015320137262,20.03351786211494,-0.5951141672700153,-9.434765265252712e-06,6.245924490265799e-05,-4.760913338160123e-06,8.336564872051382e-05,8.389007614872552e-05
34.01415608175,9.01415608175,2,0,2.00245714656443,20.25689847134027,-0.4703232693831935,-9.797655908066038e-06,6.322010939103731e-05,-3.762586155065548e-06,8.403645153045173e-05,8.420275779025147e-05
34.73584391825,9.01415608175,2,0,1.99718403449408,20.23580602305887,-0.5265137794751626,-9.797655908066038e-06,6.315683204619311e-05,-4.212110235801301e-06,8.394106598560151e-05,8.398709623858543e-05
34.01415608175,9.735843918250001,2,0,1.852615786319179,20.21943813127896,-0.4782329374887061,-1.024717998880179e-05,6.322010939103731e-05,-3.825863499909649e-06,8.342235304049182e-05,8.444872463881922e-05
34.73584391825,9.735843918250001,2,0,1.847342674248834,20.19834568299758,-0.5344234475806754,-1.024717998880179e-05,6.315683204619318e-05,-4.275387580645403e-06,8.332704127727986e-05,8.42313772840833e-05
32.76415608175,6.51415608175,2,0,2.575238684727207,19.98265934407315,-0.3865313257564322,-7.745363684131455e-06,6.18843189532523e-05,-3.092250606051458e-06,8.479249507605274e-05,8.450549983636479e-05
33.48584391825,6.51415608175,2,0,2.570174078853769,19.96240092057939,-0.4643152402431342,-7.745363684131455e-06,6.182354368277104e-05,-3.714521921945074e-06,8.470124766157613e-05,8.43521688432793e-05
32.76415608175,7.235843918250001,2,0,2.367814912762657,19.93080340108201,-0.3941282345665912,-8.367635000025104e-06,6.18843189532523e-05,-3.15302587653273e-06,8.393604989573848e-05,8.440244065136892e-05
33.48584391825,7.235843918250001,2,0,2.362750306889223,19.91054497758827,-0.4719121490532932,-8.367635000025104e-06,6.182354368277108e-05,-3.775297192426346e-06,8.38448969132218e-05,8.424972813566178e-05
32.76415608175,5.264156081750002,2,0,2.90492817452301,19.80622916067883,-0.4134389197005127,-6.54921317006943e-06,6.105599077455383e-05,-3.307511357604102e-06,8.516752998769057e-05,8.479252801280581e-05
33.48584391825,5.264156081750002,2,0,2.899175510697203,19.7832185053756,-0.5020521513556984,-6.54921317006943e-06,6.098695880864415e-05,-4.016417210845587e-06,8.506405869537127e-05,8.463860222989605e-05
32.76415608175,5.985843918250001,2,0,2.668626223442521,19.74715367290871,-0.4220679154392267,-7.258119023310897e-06,6.105599077455383e-05,-3.376543323513814e-06,8.418788352421451e-05,8.461002342983613e-05
33.48584391825,5.985843918250001,2,0,2.662873559616716,19.72414301760548,-0.5106811470944098,-7.258119023310897e-06,6.098695880864418e-05,-4.085449176755278e-06,8.408453139897569e-05,8.445636734278353e-05
34.01415608175,5.264156081750002,2,0,2.870755832922582,19.75680808655211,-0.6004944367320857,-6.619027803889423e-06,6.092518121062867e-05,-4.803955493856685e-06,8.487621333919034e-05,8.450276032666069e-05
34.73584391825,5.264156081750002,2,0,2.862443535368795,19.72355889633696,-0.6902896581007024,-6.619027803889423e-06,6.082543363998323e-05,-5.522317264805619e-06,8.472668726210945e-05,8.42855591281188e-05
34.01415608175,5.985843918250001,2,0,2.631301909272937,19.6969446056397,-0.612962883062766,-7.337389574838359e-06,6.092518121062867e-05,-4.903703064502128e-06,8.388421326204214e-05,8.432070969458621e-05
34.73584391825,5.985843918250001,2,0,2.622989611719151,19.66369541542456,-0.7027581044313811,-7.337389574838359e-06,6.082543363998324e-05,-5.622064835451049e-06,8.373486340964598e-05,8.410374219431273e-05
34.01415608175,6.51415608175,2,0,2.536890616927468,19.93700495415594,-0.5613431120969147,-7.831553989156854e-06,6.176890335975703e-05,-4.490744896775317e-06,8.450196071755904e-05,8.421674836992577e-05
34.73584391825,6.51415608175,2,0,2.529515211249001,19.90750333144207,-0.6403081766368015,-7.831553989156854e-06,6.168039849161543e-05,-5.122465413094412e-06,8.436905339190393e-05,8.400010374940862e-05
34.01415608175,7.235843918250001,2,0,2.32631711148776,19.88436157779601,-0.5724062206146079,-8.463274505475978e-06,6.176890335975703e-05,-4.579249764916863e-06,8.363318267413652e-05,8.411477138099365e-05
34.73584391825,7.235843918250001,2,0,2.3189417058093,19.85485995508217,-0.6513712851544947,-8.463274505475978e-06,6.16803984916155e-05,-5.210970281235958e-06,8.350041626582235e-05,8.389877518610726e-05
32.76415608175,4.014156081750002,2,0,3.277029543322421,19.617496317928,-0.4371687754375024,-5.207502515710651e-06,6.015436458271166e-05,-3.497350203500019e-06,8.563807037188868e-05,8.518780529789642e-05
33.48584391825,4.014156081750002,2,0,3.270660439506915,19.59201990266597,-0.5361999775848122,-5.207502515710651e-06,6.007793533692557e-05,-4.289599820678497e-06,8.552370175218756e-05,8.503405583021179e-05
32.76415608175,4.735843918250002,2,0,3.012946337596261,19.55147551649646,-0.4467224311607601,-5.999752132889132e-06,6.015436458271166e-05,-3.573779449286081e-06,8.45383305733193e-05,8.494734419774909e-05
33.48584391825,4.735843918250002,2,0,3.006577233780753,19.52599910123443,-0.5457536333080716,-5.999752132889132e-06,6.007793533692555e-05,-4.366029066464573e-06,8.442410491603126e-05,8.479339339357439e-05
32.76415608175,2.76415608175,2,0,3.689961932280914,19.41780776234307,-0.4576617748401884,-3.726368026575529e-06,5.918501529367308e-05,-3.661294198721507e-06,8.620670115532035e-05,8.565501517112073e-05
33.48584391825,2.76415608175,2,0,3.683042949845659,19.39013183260205,-0.56665965656289,-3.726368026575529e-06,5.910198750445003e-05,-4.53327725250312e-06,8.608266014841973e-05,8.550222077287212e-05
32.76415608175,3.485843918250001,2,0,3.399300914353709,19.34514250786127,-0.4680402484930688,-4.598351080357142e-06,5.918501529367308e-05,-3.74432198794455e-06,8.499040444459005e-05,8.53774251637124e-05
33.48584391825,3.485843918250001,2,0,3.392381931918456,19.31746657812025,-0.5770381302157696,-4.598351080357142e-06,5.910198750445004e-05,-4.616305041726156e-06,8.486652819192315e-05,8.522398555406178e-05
34.01415608175,2.76415608175,2,0,3.664305348766561,19.36236438669066,-0.6652688513459554,-3.764114393299533e-06,5.902812175839685e-05,-5.322150810767643e-06,8.592041063199175e-05,8.536744321142168e-05
34.73584391825,2.764156081749999,2,0,3.654407250271405,19.32277199271004,-0.77541345224946,-3.764114393299534e-06,5.890934457645499e-05,-6.20330761799568e-06,8.574296516983156e-05,8.515201846405181e-05
34.01415608175,3.485843918250001,2,0,3.370586413023871,19.28893465275499,-0.6801159990886849,-4.645271200527603e-06,5.902812175839685e-05,-5.44092799270948e-06,8.469205210348714e-05,8.508863817669893e-05
34.73584391825,3.485843918250001,2,0,3.360688314528717,19.24934225877437,-0.7902605999921888,-4.645271200527602e-06,5.890934457645501e-05,-6.32208479993751e-06,8.451484728227765e-05,8.487230187470732e-05
34.01415608175,4.014156081750001,2,0,3.247087200666146,19.56482084344865,-0.6351508351707795,-5.261177632627251e-06,6.000975693850276e-05,-5.081206681366236e-06,8.53481932213129e-05,8.48984252033735e-05
34.73584391825,4.014156081750001,2,0,3.237934067108507,19.52820830921809,-0.7353421924268031,-5.261177632627253e-06,5.98999193358111e-05,-5.882737539414425e-06,8.518382523205129e-05,8.468162490745774e-05
34.01415608175,4.735843918250002,2,0,2.979910247983426,19.49802660527797,-0.6488805355072313,-6.062708490675414e-06,6.000975693850276e-05,-5.191044284057851e-06,8.423630407556235e-05,8.465755873069036e-05
34.73584391825,4.735843918250002,2,0,2.970757114425788,19.46141407104742,-0.7490718927632531,-6.062708490675416e-06,5.989991933581112e-05,-5.992575142106025e-06,8.407214605524101e-05,8.444040233442109e-05
32.76415608175,1.51415608175,2,0,4.141989317086599,19.20853047389958,-0.474815923552464,-2.112458564442548e-06,5.815370606280938e-05,-3.798527388419712e-06,8.687561091122895e-05,8.61316513143287e-05
33.48584391825,1.51415608175,2,0,4.134569913009909,19.17885285759282,-0.593292994807943,-2.112458564442548e-06,5.806467321388909e-05,-4.746343958463543e-06,8.674279828475582e-05,8.598035386935407e-05
32.76415608175,2.23584391825,2,0,3.826050460405321,19.12954575972926,-0.4859450296675014,-3.060275134486382e-06,5.815370606280938e-05,-3.887560237340011e-06,8.554673551799862e-05,8.585710945908251e-05
33.48584391825,2.23584391825,2,0,3.818631056328631,19.0998681434225,-0.6044221009229785,-3.060275134486382e-06,5.806467321388909e-05,-4.835376807383828e-06,8.541410677230467e-05,8.570488905212886e-05
32.76415608175,0.26415608175,2,0,4.631174073993012,18.99107273967647,-0.4883795328032036,-3.731011549635375e-07,5.706649350777029e-05,-3.907036262425629e-06,8.764643347126299e-05,8.647116386675353e-05
33.48584391825,0.26415608175,2,0,4.623271566562535,18.95946270995456,-0.6157959467739977,-3.731011549635375e-07,5.697166341860456e-05,-4.926367574191982e-06,8.750514557423996e-05,8.632119762991252e-05
32.76415608175,0.9858439182500001,2,0,4.291396970070894,18.90612846369594,-0.5002332939489177,-1.392432466729891e-06,5.706649350777029e-05,-4.001866351591342e-06,8.620963529874959e-05,8.629618669696781e-05
33.48584391825,0.9858439182500001,2,0,4.283494462640419,18.87451843397404,-0.6276497079197115,-1.392432466729891e-06,5.697166341860457e-05,-5.021197663357692e-06,8.606854745479609e-05,8.614549325505443e-05
34.01415608175,0.26415608175,2,0,4.615006693377696,18.93116847682585,-0.7113614119898704,-3.76913362652051e-07,5.688773377114054e-05,-5.690891295918962e-06,8.737481505946006e-05,8.618885013001608e-05
34.73584391825,0.26415608175,2,0,4.603800862379602,18.88634515283347,-0.840079719097471,-3.76913362652051e-07,5.675326379916343e-05,-6.720637752779769e-06,8.717452576801284e-05,8.597723627286989e-05
34.01415608175,0.9858439182500001,2,0,4.27175787442409,18.84535627208744,-0.7281701584870088,-1.406659819512865e-06,5.688773377114053e-05,-5.825361267896071e-06,8.592400891435536e-05,8.601252701173756e-05
34.73584391825,0.9858439182500001,2,0,4.260552043425997,18.80053294809507,-0.8568884655946097,-1.406659819512865e-06,5.675326379916343e-05,-6.855107724756878e-06,8.572400970953458e-05,8.579994992120215e-05
34.01415608175,1.51415608175,2,0,4.120821336056081,19.1507266827172,-0.6907669262457093,-2.133953070794301e-06,5.798566831585018e-05,-5.526135409965675e-06,8.659524887873054e-05,8.584687030905046e-05
34.73584391825,1.51415608175,2,0,4.110253623841245,19.10845583385786,-0.8104238834615197,-2.133953070794302e-06,5.785885576927215e-05,-6.483391067692158e-06,8.640610334229184e-05,8.563348388528491e-05
34.01415608175,2.23584391825,2,0,3.801736116813917,19.07095537790666,-0.7066184945679607,-3.091208728520797e-06,5.798566831585019e-05,-5.652947956543685e-06,8.525385373796644e-05,8.557061089895428e-05
34.73584391825,2.235843918249999,2,0,3.791168404599083,19.02868452904733,-0.8262754517837698,-3.091208728520799e-06,5.785885576927218e-05,-6.610203614270158e-06,8.506497561751458e-05,8.535597656907281e-05
35.26415608175,21.51415608175,2,0.7439912045226066,4.817307589714132,21.69304692439493,-0.07717395760808803,-7.574166539141208e-06,0.000256100201417033,-2.411603318993086e-06,0.0003849810886622927,0.0003533439722894976
35.98584391825,21.51415608175,2,0.7445355035832073,4.817873472630848,21.69015719139668,-0.05530510895068992,-7.574166539141208e-06,0.0002566078854550982,-1.731907477599834e-06,0.000385765008830512,0.0003540043298046718
35.26415608175,22.23584391825,2,0.7636979787667992,4.500023815685916,20.03656696425734,-0.05623749679351868,-6.89447069774803e-06,0.000256100201417033,-1.903919280928004e-06,0.0003859370458235208,0.0003789533590119003
35.98584391825,22.23584391825,2,0.7644656352966424,4.495369681291545,20.01133469486617,-0.03604333626072533,-6.89447069774803e-06,0.0002566078854550982,-1.22422343953486e-06,0.0003867210673293506,0.0003800270279416343
35.26415608175,20.26415608175,2,0.6933575325996011,4.65091387040478,22.00463760162416,-0.07253556636738064,-8.872827430165961e-06,0.0002174979538688213,-1.892381495161065e-06,0.0003235235972824421,0.0003011532349795809
35.98584391825,20.26415608175,2,0.6933385906263542,4.651191797904377,22.00595939769731,-0.04307901636377207,-8.872827430165961e-06,0.0002174975872267019,-1.123819692911755e-06,0.0003235226695470181,0.0003011366136648872
35.26415608175,20.98584391825,2,0.7256874134196729,4.230834836231124,19.70221692833435,-0.06490057966032145,-8.104265627916753e-06,0.0002174979538688213,-1.892748137280725e-06,0.0003246026952413857,0.0003324974918846452
35.98584391825,20.98584391825,2,0.7260307695504709,4.225530743947764,19.67752224758971,-0.03849905813630785,-8.104265627916753e-06,0.0002174975872267019,-1.124186335031523e-06,0.0003246017684890711,0.0003328657070093186
36.51415608175,20.26415608175,2,0.6933199896102069,4.646986427780632,22.00605829180792,-0.08384963491674235,-8.916427455029598e-06,0.0002174963973256106,-2.18728660691432e-06,0.0003234601855371979,0.000301120293332089
37.23584391825,20.26415608175,2,0.6932881100292838,4.647395766035617,22.00805095979111,-0.05134467933693357,-8.916427455029598e-06,0.0002174935130974938,-1.339228925017176e-06,0.0003234552638819999,0.0003010923266683799
36.51415608175,20.98584391825,2,0.7263123801447808,4.224434969487483,19.65800602710044,-0.07492783036451703,-8.068369773132434e-06,0.0002174963973256106,-2.190170835031672e-06,0.0003246508965463471,0.0003331683202399576
37.23584391825,20.98584391825,2,0.726738114080436,4.21779798352352,19.62716435972229,-0.04584354641787423,-8.068369773132434e-06,0.0002174935130974937,-1.342113153134528e-06,0.0003246459755577452,0.0003336268598364677
36.51415608175,21.51415608175,2,0.7449832860370031,4.826641241737748,21.68997894012444,-0.08962228009853061,-7.476887098527302e-06,0.0002570287201823127,-2.811495096326428e-06,0.00038655260478626,0.0003545494604728695
37.23584391825,21.51415608175,2,0.7456615623000332,4.827411998635236,21.68672272391403,-0.06497050145847587,-7.476887098527302e-06,0.0002576707780006359,-2.043592059336908e-06,0.0003875439950457703,0.0003553784276400385
36.51415608175,22.23584391825,2,0.7650977836652977,4.506066260904962,19.99420907538164,-0.06370070310024334,-6.708984061537864e-06,0.0002570287201823127,-2.169437278002652e-06,0.0003876326565415006,0.0003809157950075545
37.23584391825,22.23584391825,2,0.7660554729287116,4.500212323819059,19.96276192453285,-0.04098515814850745,-6.708984061537864e-06,0.0002576707780006365,-1.40153424101324e-06,0.0003886241908480065,0.0003822702828581118
35.26415608175,19.01415608175,2,0.6159117639424616,4.34651473086865,22.24126674579839,-0.07929701537649339,-1.011269258784891e-05,0.0001762481519785961,-1.651641637149528e-06,0.0002580698483034183,0.0002457586335841744
35.98584391825,19.01415608175,2,0.6149741901479354,4.344621311469849,22.24554481265627,-0.04571858365919076,-1.011269258784891e-05,0.0001758584609622401,-9.499328614205236e-07,0.0002574676099351879,0.0002452131224587104
35.26415608175,19.73584391825,2,0.6646432321104095,3.873488511540013,19.43900043852729,-0.0855718401084076,-9.410983812119915e-06,0.0001762481519785961,-2.041332653506022e-06,0.0002590522493498661,0.0002779116279462955
35.98584391825,19.73584391825,2,0.6642927080303711,3.86663534485276,19.41571124233203,-0.05621518803329922,-9.410983812119915e-06,0.00017585846096224,-1.339623877777071e-06,0.0002584498824068755,0.000277650174420782
35.26415608175,17.76415608175,2,0.5040587419801588,3.875256089134986,22.38078100215769,-0.1030526704118381,-1.109769600228342e-05,0.000138158084707797,-1.662336718236341e-06,0.0001978716395868397,0.0001942511021678581
35.98584391825,17.76415608175,2,0.5016900196128762,3.868312302651439,22.3858650571559,-0.07034184002687359,-1.109769600228342e-05,0.0001375451446658377,-1.129286473005849e-06,0.0001969248498679481,0.0001933933787096034
35.26415608175,18.48584391825,2,0.5735945237385716,3.407672723909776,19.26171940260087,-0.1212738088197343,-1.056464575705287e-05,0.000138158084707797,-2.275276760195857e-06,0.0001986148164045149,0.0002233418632641767
35.98584391825,18.48584391825,2,0.5721243064794153,3.397566970324274,19.24071179391997,-0.09318204729508595,-1.056464575705287e-05,0.0001375451446658377,-1.742226514965203e-06,0.000197667809984722,0.0002226365820917686
36.51415608175,17.76415608175,2,0.4997189161256403,3.827291633346459,22.3811051078464,-0.1242078310751486,-1.130874430780854e-05,0.0001370383675263022,-1.986208714720736e-06,0.0001958492549888669,0.0001926854032448092
37.23584391825,17.76415608175,2,0.4966937950909893,3.818072039246358,22.3869896317973,-0.08952778295409354,-1.130874430780854e-05,0.0001362667666748775,-1.423034837733084e-06,0.0001946574131948782,0.0001916089017626515
36.51415608175,18.48584391825,2,0.5709000612120423,3.363288388392532,19.21680807120373,-0.1479219895027347,-1.074557043082078e-05,0.0001370383675263022,-2.757809566145499e-06,0.0001966343756232306,0.0002220526987830329
37.23584391825,18.48584391825,2,0.5690216657056729,3.350299328328541,19.19008236996106,-0.1182300542120106,-1.074557043082078e-05,0.0001362667666748778,-2.194635689157739e-06,0.0001954422419766558,0.0002211627810902156
36.51415608175,19.01415608175,2,0.6141927881909333,4.323840505349573,22.24432825615236,-0.09300426665637547,-1.026205023290913e-05,0.0001755352827591088,-1.928512766161616e-06,0.0002567600770572152,0.0002447603320423379
37.23584391825,19.01415608175,2,0.6129937532301231,4.321370885114167,22.2498304714593,-0.05663279596468056,-1.026205023290913e-05,0.0001750420345045738,-1.170684895912923e-06,0.0002559977980751392,0.0002440687967450395
36.51415608175,19.73584391825,2,0.6639989517698591,3.850527025214145,19.39389394643939,-0.1017142801895969,-9.504222362660419e-06,0.0001755352827591088,-2.421761020696069e-06,0.0002578209693905781,0.0002774314442908138
37.23584391825,19.73584391825,2,0.6635466199537473,3.841881100393637,19.3646840748599,-0.06997949157987871,-9.504222362660419e-06,0.0001750420345045741,-1.663933150447376e-06,0.0002570585134905621,0.000277095315988083
35.26415608175,16.51415608175,2,0.3527258604853726,3.223446240808126,22.38355990103043,-0.149760995870087,-1.172890972584079e-05,0.0001066760287108465,-1.850974562121559e-06,0.0001483971375726228,0.0001513825628663063
35.98584391825,16.51415608175,2,0.3484193583765182,3.20809105920426,22.38527739270109,-0.1247552482608603,-1.172890972584079e-05,0.0001059982608402758,-1.531724428767797e-06,0.000147350860345379,0.0001504382610584951
35.26415608175,17.23584391825,2,0.44518798070952,2.822023148937917,19.2008629431576,-0.1753720869184398,-1.140965959248707e-05,0.0001066760287108465,-2.52874243269227e-06,0.0001488399351794305,0.0001749696657389403
35.98584391825,17.23584391825,2,0.4420460947543685,2.806490589705933,19.18354251776303,-0.1540993571282606,-1.140965959248707e-05,0.0001059982608402758,-2.209492299338534e-06,0.0001477934488345136,0.0001740478968944569
35.26415608175,15.26415608175,2,0.1707665422664643,2.443448385637904,22.18272795415167,-0.2229636741990097,-1.197147490456182e-05,8.324552042732094e-05,-2.151034038673884e-06,0.0001119203590461031,0.0001196582057389079
35.98584391825,15.26415608175,2,0.1647342310494604,2.418386257066795,22.17274901780582,-0.214977239255192,-1.197147490456182e-05,8.263009262075017e-05,-2.059006819113852e-06,0.0001109713786239672,0.0001188328606379579
35.26415608175,15.98584391825,2,0.2782563571222844,2.148855148022641,19.31281540152626,-0.2495845312586334,-1.187944768500195e-05,8.324552042732094e-05,-2.766461845244632e-06,0.0001120479921721458,0.0001365619018275726
35.98584391825,15.98584391825,2,0.2731050121649408,2.126913020705259,19.30154080841693,-0.2430041405878483,-1.187944768500195e-05,8.263009262075011e-05,-2.674434625684762e-06,0.0001110989381286397,0.0001356434366839714
36.51415608175,15.26415608175,2,0.1597648085381719,2.323988361077122,22.14582773105692,-0.2836036596397725,-1.223454996155771e-05,8.212874056186855e-05,-2.700231197375709e-06,0.0001098392187053772,0.0001181614545711881
37.23584391825,15.26415608175,2,0.1521896686839472,2.291648933494453,22.13231805449161,-0.2746038035474046,-1.223454996155771e-05,8.137444907103754e-05,-2.591181479198425e-06,0.0001086762821465773,0.0001171524841851353
36.51415608175,15.98584391825,2,0.2688371172833944,2.048885321148036,19.27768592500577,-0.3157273458899003,-1.212550024338037e-05,8.212874056186855e-05,-3.454522688206801e-06,0.000109990773213798,0.0001348918062093064
37.23584391825,15.98584391825,2,0.2623011930161272,2.020830478681411,19.2645307442561,-0.3084939273484386,-1.212550024338037e-05,8.137444907103762e-05,-3.345472970029436e-06,0.0001088277306557483,0.0001337567787075185
36.51415608175,16.51415608175,2,0.3448435348303663,3.143643415366138,22.37324207716825,-0.185183645575723,-1.19649811141424e-05,0.0001054396370747244,-2.261244822215409e-06,0.0001461633706312023,0.0001496630986194941
37.23584391825,16.51415608175,2,0.3393591080823696,3.123250944379421,22.37369852129848,-0.1595239754259488,-1.19649811141424e-05,0.0001045912164354288,-1.931748123709404e-06,0.0001448537534250854,0.0001484896172597459
36.51415608175,17.23584391825,2,0.439433073548993,2.751341861210048,19.15845211564248,-0.2178969512562618,-1.16354844156363e-05,0.0001054396370747244,-3.109665461511037e-06,0.0001466205394535594,0.0001732886683411808
37.23584391825,17.23584391825,2,0.4354224502900642,2.731109964335301,19.13585645867631,-0.1962026084996722,-1.16354844156363e-05,0.0001045912164354288,-2.780168763004843e-06,0.0001453106487240913,0.0001721361862034686
35.26415608175,14.01415608175,2,0,1.690799182395933,21.70289149896194,-0.3293004657839771,-1.195175581550257e-05,6.809661345076145e-05,-2.634403726271817e-06,8.860558308702808e-05,9.994143563147699e-05
35.98584391825,14.01415608175,2,0,1.666293532386153,21.60486889892282,-0.3341872150630261,-1.195175581550257e-05,6.780254565064411e-05,-2.673497720504208e-06,8.815288816721483e-05,9.934842736618393e-05
35.26415608175,14.73584391825,2,0.09317524492536,1.521441420541678,19.67776498447892,-0.3319513093326355,-1.199084980973503e-05,6.809661345076145e-05,-2.928471526389355e-06,8.855331611436686e-05,0.0001098457813955183
35.98584391825,14.73584391825,2,0.08677346959572663,1.509802903645229,19.72716432500975,-0.3387574455180936,-1.199084980973503e-05,6.780254565064402e-05,-2.967565520621746e-06,8.810065015881787e-05,0.0001091076422022793
35.26415608175,12.76415608175,2,0,1.483203972076529,20.5906167778502,-0.4172288602728684,-1.172624071163526e-05,6.47034105114594e-05,-3.337830882182947e-06,8.369029250359931e-05,9.017049800256774e-05
35.98584391825,12.76415608175,2,0,1.478866117230116,20.57326535846455,-0.4365555239883324,-1.172624071163526e-05,6.465135625330245e-05,-3.492444191906659e-06,8.361078647352767e-05,8.976543536380645e-05
35.26415608175,13.48584391825,2,0,1.43166620216862,20.57773233537322,-0.4237356425424935,-1.188085402135899e-05,6.47034105114594e-05,-3.389885140339948e-06,8.348056275722651e-05,9.466945933564649e-05
35.98584391825,13.48584391825,2,0,1.42732834732221,20.56038091598758,-0.4430623062579541,-1.188085402135899e-05,6.465135625330248e-05,-3.544498450063632e-06,8.340107663582221e-05,9.416569866414068e-05
36.51415608175,12.76415608175,2,0,1.396442218632702,20.53882902093551,-0.5269207780375276,-1.196244811712376e-05,6.460709909208745e-05,-4.21536622430022e-06,8.322533226304526e-05,8.943567824566624e-05
37.23584391825,12.76415608175,2,0,1.390704005725555,20.51587616930692,-0.548195375126168,-1.196244811712376e-05,6.45382405372017e-05,-4.385563001009344e-06,8.312022840588096e-05,8.893982768347267e-05
36.51415608175,13.48584391825,2,0,1.339709959729675,20.52464595620975,-0.5355280973982706,-1.213264489383284e-05,6.460709909208745e-05,-4.284224779186165e-06,8.299486162489033e-05,9.375810094875649e-05
37.23584391825,13.48584391825,2,0,1.333971746822528,20.50169310458116,-0.5568026944869144,-1.213264489383284e-05,6.45382405372017e-05,-4.454421555895316e-06,8.288978756592822e-05,9.314828395273636e-05
36.51415608175,14.01415608175,2,0,1.56103884706937,21.50883860206648,-0.4174276831917854,-1.221174657103119e-05,6.757945244895722e-05,-3.339421465534283e-06,8.745824917302606e-05,9.88688151211121e-05
37.23584391825,14.01415608175,2,0,1.534752666924359,21.40369388148643,-0.4231668112380396,-1.221174657103119e-05,6.726401828721708e-05,-3.385334489904317e-06,8.697283938294264e-05,9.815149836488108e-05
36.51415608175,14.73584391825,2,0.08151859879926315,1.419728394599484,19.75195402918012,-0.4196146147156858,-1.225765959540119e-05,6.757945244895722e-05,-3.654855627274506e-06,8.739713407375866e-05,0.0001085091232004533
37.23584391825,14.73584391825,2,0.07353317634823509,1.407718463799041,19.82626754364107,-0.4285799222199053,-1.225765959540119e-05,6.726401828721702e-05,-3.700768651644648e-06,8.691176280755168e-05,0.0001076120780713388
35.26415608175,11.51415608175,2,0,1.586121531164619,20.47755844030624,-0.4875818056315047,-1.130645785251821e-05,6.425928978404826e-05,-3.900654445052038e-06,8.357955874777658e-05,8.604052410362478e-05
35.98584391825,11.51415608175,2,0,1.581133068685761,20.45760459039081,-0.5208160393246741,-1.130645785251821e-05,6.419942823430197e-05,-4.166528314597393e-06,8.348866374355624e-05,8.572160550035038e-05
35.26415608175,12.23584391825,2,0,1.497496907982818,20.45540228451079,-0.4950644993498049,-1.157233172206361e-05,6.425928978404826e-05,-3.960515994798439e-06,8.321838822081045e-05,8.785838177567903e-05
35.98584391825,12.23584391825,2,0,1.492508445503957,20.43544843459535,-0.528298733042981,-1.157233172206361e-05,6.419942823430194e-05,-4.226389864343848e-06,8.312753416846844e-05,8.750284741982609e-05
35.26415608175,10.26415608175,2,0,1.739745544788489,20.34873129694341,-0.5567561574835851,-1.071179929423157e-05,6.372414371438813e-05,-4.454049259868681e-06,8.35679708454916e-05,8.439830736634533e-05
35.98584391825,10.26415608175,2,0,1.733642597713338,20.32431950864281,-0.6022661061330111,-1.071179929423157e-05,6.365090834948632e-05,-4.818128849064089e-06,8.345718510927131e-05,8.410869748164379e-05
35.26415608175,10.98584391825,2,0,1.618385681723354,20.31839133117713,-0.5659105780963221,-1.107587888342697e-05,6.372414371438813e-05,-4.527284624770576e-06,8.307244473847049e-05,8.511339995992108e-05
35.98584391825,10.98584391825,2,0,1.612282734648201,20.29397954287652,-0.6114205267457412,-1.107587888342697e-05,6.365090834948629e-05,-4.89136421396593e-06,8.29617287082732e-05,8.481214576545259e-05
36.51415608175,10.26415608175,2,0,1.659778022732279,20.28619717016555,-0.7012024498551713,-1.091766806338914e-05,6.358800852634391e-05,-5.60961959884137e-06,8.308476423742708e-05,8.387080707547505e-05
37.23584391825,10.26415608175,2,0,1.651560510422483,20.25332712092636,-0.7479676702407523,-1.091766806338914e-05,6.348939837862635e-05,-5.983741361926018e-06,8.293551935982822e-05,8.351048828386274e-05
36.51415608175,10.98584391825,2,0,1.53507076837072,20.25502035657516,-0.7135287183198628,-1.129178982647382e-05,6.358800852634391e-05,-5.708229746558902e-06,8.257639325550766e-05,8.456480101983492e-05
37.23584391825,10.98584391825,2,0,1.526853256060932,20.222150307336,-0.7602939387054539,-1.129178982647382e-05,6.348939837862646e-05,-6.082351509643631e-06,8.242724642664926e-05,8.419029680226196e-05
36.51415608175,11.51415608175,2,0,1.502778320025296,20.4215526342155,-0.6160352696453879,-1.152835148329145e-05,6.414674577346935e-05,-4.928282157163103e-06,8.311002424680776e-05,8.546013672963956e-05
37.23584391825,11.51415608175,2,0,1.495772519198466,20.39352943090818,-0.6500573574567957,-1.152835148329145e-05,6.406267616354739e-05,-5.200458859654366e-06,8.298225848344518e-05,8.506470936670902e-05
36.51415608175,12.23584391825,2,0,1.412052752528175,20.39887124234122,-0.6265439708856194,-1.180052818578281e-05,6.414674577346935e-05,-5.012351767084955e-06,8.274092555631986e-05,8.721224543440071e-05
37.23584391825,12.23584391825,2,0,1.405046951701347,20.37084803903391,-0.6605660586970373,-1.180052818578281e-05,6.406267616354742e-05,-5.284528469576299e-06,8.261321951014181e-05,8.677384040125731e-05
35.26415608175,9.01415608175,2,0,1.9418146974998,20.20461423245356,-0.6228224269836188,-9.94988435396349e-06,6.310131378585155e-05,-4.98257941586895e-06,8.365156130770769e-05,8.380503264476249e-05
35.98584391825,9.01415608175,2,0,1.934447917236161,20.17514711139901,-0.6803481289118387,-9.94988435396349e-06,6.301291242268789e-05,-5.44278503129471e-06,8.351821559508426e-05,8.352328720787449e-05
35.26415608175,9.735843918250001,2,0,1.788412825691188,20.16626376450141,-0.6338725973790705,-1.041008996938932e-05,6.310131378585155e-05,-5.070980779032564e-06,8.302361984890397e-05,8.404773140085621e-05
35.98584391825,9.735843918250001,2,0,1.781046045427552,20.13679664344686,-0.6913982993072973,-1.041008996938932e-05,6.301291242268791e-05,-5.531186394458379e-06,8.289038074744083e-05,8.376334887199354e-05
35.26415608175,7.76415608175,2,0,2.191172342222024,20.04568666775492,-0.6845203660570632,-9.024797839093459e-06,6.239325946303813e-05,-5.476162928456506e-06,8.383015514667945e-05,8.368753910244765e-05
35.98584391825,7.76415608175,2,0,2.182506353550442,20.01102271306859,-0.7537576919680166,-9.024797839093459e-06,6.228926759897914e-05,-6.030061535744133e-06,8.367365948175437e-05,8.34065850781845e-05
35.26415608175,8.485843918250001,2,0,2.006539473126158,19.99952845048096,-0.6975193490644493,-9.578696446381057e-06,6.239325946303813e-05,-5.580154792515595e-06,8.307200728684171e-05,8.3708519409287e-05
35.98584391825,8.485843918250001,2,0,1.997873484454579,19.96486449579464,-0.7667566749754027,-9.578696446381057e-06,6.228926759897918e-05,-6.134053399803221e-06,8.291566136207401e-05,8.342769263743767e-05
36.51415608175,7.76415608175,2,0,2.122392643214424,19.96866887284435,-0.8578778063136131,-9.183278639989318e-06,6.220182627853036e-05,-6.863022450508905e-06,8.332804494659756e-05,8.317615128507962e-05
37.23584391825,7.76415608175,2,0,2.111150787706243,19.92370145081163,-0.9290227977080343,-9.183278639989325e-06,6.206692401243221e-05,-7.432182381664275e-06,8.312503049598887e-05,8.282754847877265e-05
36.51415608175,8.485843918250001,2,0,1.932672666162636,19.9212388785814,-0.8747405895758698,-9.752438571144683e-06,6.220182627853036e-05,-6.997924716606958e-06,8.255014466966175e-05,8.319720173468535e-05
37.23584391825,8.485843918250001,2,0,1.921430810654461,19.8762714565487,-0.9458855809702893,-9.752438571144683e-06,6.206692401243227e-05,-7.567084647762314e-06,8.234733374232935e-05,8.284831564950618e-05
36.51415608175,9.01415608175,2,0,1.866825088720334,20.13485590162799,-0.7823434404380576,-1.013404443739733e-05,6.293807881423331e-05,-6.258747523504461e-06,8.31570229797512e-05,8.329194741562485e-05
37.23584391825,9.01415608175,2,0,1.857154433948938,20.09617328254241,-0.8415192759327654,-1.013404443739733e-05,6.282203095697655e-05,-6.732154207462124e-06,8.298194931049418e-05,8.294166078624753e-05
36.51415608175,9.735843918250001,2,0,1.709022860734471,20.09540534463153,-0.7968494225951454,-1.060745112135491e-05,6.293807881423331e-05,-6.374795380761163e-06,8.251206231052097e-05,8.352974698015452e-05
37.23584391825,9.735843918250001,2,0,1.699352205963078,20.05672272554596,-0.8560252580898565,-1.060745112135491e-05,6.282203095697658e-05,-6.848202064718852e-06,8.233713533506508e-05,8.317591727174168e-05
35.26415608175,6.514156081750002,2,0,2.48638703417059,19.8729632318811,-0.7409855843244073,-7.941932076158994e-06,6.160437271468305e-05,-5.927884674595258e-06,8.410506695274032e-05,8.381769698865096e-05
35.98584391825,6.514156081750002,2,0,2.476453582742948,19.83322942617055,-0.8215225932927885,-7.941932076159003e-06,6.148517129755138e-05,-6.572180746342309e-06,8.392604235305498e-05,8.353599707111288e-05
35.26415608175,7.235843918250001,2,0,2.27162167692157,19.81927189256885,-0.7558857614658717,-8.586228147906057e-06,6.160437271468305e-05,-6.047086091726973e-06,8.321993522551519e-05,8.371679314666889e-05
35.98584391825,7.235843918250001,2,0,2.261688225493928,19.77953808685828,-0.8364227704342445,-8.586228147906057e-06,6.148517129755136e-05,-6.691382163473956e-06,8.304110693637036e-05,8.343560516372358e-05
35.26415608175,5.264156081750002,2,0,2.825780344648805,19.68773442762478,-0.7917564369807419,-6.70769043922365e-06,6.074012589268025e-05,-6.334051495845935e-06,8.447812853174484e-05,8.410284543001917e-05
35.98584391825,5.264156081750002,2,0,2.814670550542504,19.64329525119958,-0.883117558850507,-6.70769043922365e-06,6.060680836340464e-05,-7.064940470804057e-06,8.427826989177589e-05,8.382086352209285e-05
35.26415608175,5.985843918250002,2,0,2.582150686329426,19.62682701304494,-0.808421128140196,-7.438579414181787e-06,6.074012589268025e-05,-6.467369025121568e-06,8.346982472211891e-05,8.392113938620764e-05
35.98584391825,5.985843918250002,2,0,2.571040892223122,19.58238783661973,-0.8997822500099654,-7.438579414181794e-06,6.060680836340464e-05,-7.198258000079723e-06,8.327020915181088e-05,8.363922673711205e-05
36.51415608175,5.264156081750002,2,0,2.770788057208462,19.59758882193713,-0.9883135406985759,-6.811549274482622e-06,6.049565378443204e-05,-7.906508325588607e-06,8.397073357022797e-05,8.359010628808333e-05
37.23584391825,5.264156081750002,2,0,2.756591188209761,19.54080134594232,-1.081632504971027,-6.811549274482622e-06,6.032529135644761e-05,-8.653060039768215e-06,8.371535206706386e-05,8.324164770845479e-05
36.51415608175,5.985843918250002,2,0,2.521937485815251,19.53537617908882,-1.009608844196627,-7.558100988662255e-06,6.049565378443204e-05,-8.076870753573014e-06,8.294212943872296e-05,8.340839671975903e-05
37.23584391825,5.985843918250002,2,0,2.507740616816553,19.47858870309403,-1.102927808469079,-7.558100988662255e-06,6.032529135644765e-05,-8.823422467752628e-06,8.268707127972429e-05,8.305967003350735e-05
36.51415608175,6.514156081750002,2,0,2.424440938297094,19.78904835288989,-0.926697300327157,-8.07302767976121e-06,6.138540197860997e-05,-7.413578402617256e-06,8.35987996602865e-05,8.330523419250088e-05
37.23584391825,6.514156081750002,2,0,2.411659819025062,19.73792387580176,-1.009229071344142,-8.07302767976121e-06,6.123202854734558e-05,-8.073832570753132e-06,8.336846106964314e-05,8.295647820114334e-05
36.51415608175,7.235843918250001,2,0,2.204356215585126,19.7340271722119,-0.9458689792351931,-8.733281847897112e-06,6.138540197860997e-05,-7.566951833881544e-06,8.269298642446185e-05,8.320509849490674e-05
37.23584391825,7.235843918250001,2,0,2.191575096313106,19.68290269512381,-1.028400750252181,-8.733281847897105e-06,6.123202854734569e-05,-8.227206002017447e-06,8.246291174568809e-05,8.285653054713421e-05
35.26415608175,4.014156081750001,2,0,3.207627770347197,19.49137688892962,-0.8367031229339614,-5.328692646032667e-06,5.980630382829702e-05,-6.693624983471692e-06,8.495152440255937e-05,8.449934158517161e-05
35.98584391825,4.014156081750001,2,0,3.195467376995197,19.44273531552162,-0.9384100401291982,-5.328692646032667e-06,5.966037910807303e-05,-7.507280321033585e-06,8.473315214661909e-05,8.421813458320803e-05
35.26415608175,4.735843918250002,2,0,2.936409324493231,19.42357227746613,-0.8549437129619654,-6.142347983594566e-06,5.980630382829702e-05,-6.839549703695723e-06,8.382383744661353e-05,8.425777424228864e-05
35.98584391825,4.735843918250002,2,0,2.924248931141227,19.37493070405812,-0.9566506301572054,-6.142347983594569e-06,5.9660379108073e-05,-7.653205041257644e-06,8.360575238879197e-05,8.397598141194148e-05
35.26415608175,2.764156081749999,2,0,3.630318807171191,19.28521258473551,-0.8758757664741389,-3.811149884840595e-06,5.880842522541667e-05,-7.007006131793111e-06,8.552769331601148e-05,8.497091270535698e-05
35.98584391825,2.76415608175,2,0,3.617240506123405,19.23289938054436,-0.987488280630817,-3.811149884840591e-06,5.865148561284322e-05,-7.899906245046535e-06,8.529324931883484e-05,8.469154731840825e-05
35.26415608175,3.485843918250001,2,0,3.332685436086719,19.21080424196439,-0.8954932180458227,-4.704049998094011e-06,5.880842522541667e-05,-7.163945744366582e-06,8.428398469591529e-05,8.46904264604364e-05
35.98584391825,3.485843918250001,2,0,3.319607135038932,19.15849103777324,-1.007105732202499,-4.704049998094011e-06,5.865148561284323e-05,-8.056845857619995e-06,8.404986748898052e-05,8.440986988997109e-05
36.51415608175,2.76415608175,2,0,3.588592750290621,19.1851333471471,-1.09019168417342,-3.864609876787691e-06,5.852155251063821e-05,-8.721533473387359e-06,8.502610504261074e-05,8.446312401979034e-05
37.23584391825,2.76415608175,2,0,3.572089064936391,19.11911860573018,-1.203543739968806,-3.864609876787691e-06,5.832350828638744e-05,-9.628349919750453e-06,8.473028988682243e-05,8.411842534925591e-05
36.51415608175,3.485843918250001,2,0,3.286320601502925,19.10956530995017,-1.114947212204769,-4.771426323150778e-06,5.852155251063821e-05,-8.919577697638154e-06,8.37643442718778e-05,8.418046047970349e-05
37.23584391825,3.485843918250001,2,0,3.269816916148696,19.04355056853326,-1.228299268000154,-4.771426323150778e-06,5.832350828638745e-05,-9.826394144001234e-06,8.346895564745752e-05,8.383425888555665e-05
36.51415608175,4.014156081750002,2,0,3.159400531326071,19.3958326439115,-1.0427231294178,-5.406584414885772e-06,5.953914403545593e-05,-8.341785035342396e-06,8.444571876778648e-05,8.398816130816763e-05
37.23584391825,4.014156081750002,2,0,3.143959226506138,19.33406742463177,-1.146281595813953,-5.406584414885772e-06,5.935384837761673e-05,-9.170252766511622e-06,8.416844586224685e-05,8.364106963831104e-05
36.51415608175,4.735843918250002,2,0,2.883244620936332,19.32679366631406,-1.065885086647698,-6.235052146054988e-06,5.953914403545593e-05,-8.527080693181583e-06,8.329883868170036e-05,8.374545374134274e-05
37.23584391825,4.735843918250002,2,0,2.8678033161164,19.26502844703434,-1.169443553043851,-6.235052146054988e-06,5.935384837761675e-05,-9.355548424350808e-06,8.302194403086728e-05,8.339743326303687e-05
35.26415608175,1.51415608175,2,0,4.092441156013598,19.07043679071975,-0.9093067786683803,-2.160537733332287e-06,5.775144480549232e-05,-7.274454229347042e-06,8.620926218437332e-05,8.545404981978423e-05
35.98584391825,1.51415608175,2,0,4.078554517366018,19.01489023612943,-1.030441790449375,-2.160537733332287e-06,5.758480514172136e-05,-8.243534323595002e-06,8.596075733104012e-05,8.517721325997245e-05
35.26415608175,2.235843918249999,2,0,3.769414457930946,18.98968011619909,-0.9301367366397514,-3.129617827580244e-06,5.775144480549232e-05,-7.441093893118011e-06,8.48522908754925e-05,8.51755249678094e-05
35.98584391825,2.23584391825,2,0,3.755527819283366,18.93413356160877,-1.051271748420747,-3.129617827580244e-06,5.758480514172136e-05,-8.410173987365973e-06,8.460414704810129e-05,8.489715635471109e-05
35.26415608175,0.26415608175,2,0,4.592772491706009,18.84811089124492,-0.9367819929921996,-3.816167395367056e-07,5.663973685861893e-05,-7.494255943937596e-06,8.699893716040059e-05,8.579922861509484e-05
35.98584391825,0.26415608175,2,0,4.578131541903384,18.78954709203442,-1.067106533176873,-3.816167395367056e-07,5.646404546098743e-05,-8.536852265414985e-06,8.673734970346715e-05,8.552451650704258e-05
35.26415608175,0.9858439182500001,2,0,4.245240384546881,18.76122786445514,-0.9587434176961349,-1.42421306101409e-06,5.663973685861893e-05,-7.66994734156908e-06,8.553096568743996e-05,8.56211707083855e-05
35.98584391825,0.9858439182500001,2,0,4.230599434744257,18.70266406524464,-1.089067957880808,-1.42421306101409e-06,5.646404546098745e-05,-8.712543663046467e-06,8.526976826013978e-05,8.534531390614792e-05
36.51415608175,0.26415608175,2,0,4.564346781858386,18.74098259291522,-1.165138617121116,-3.868763723853419e-07,5.631966687184198e-05,-9.32110893696893e-06,8.651516239171936e-05,8.529975007768209e-05
37.23584391825,0.26415608175,2,0,4.54611692823707,18.66806317842996,-1.29725935532732,-3.868763723853419e-07,5.61009086283862e-05,-1.037807484261856e-05,8.618960505950979e-05,8.496038888085953e-05
36.51415608175,0.9858439182500001,2,0,4.212024813308509,18.65290210077775,-1.19248339755309,-1.443842278034971e-06,5.631966687184198e-05,-9.539867180424716e-06,8.502818775310019e-05,8.511966824869903e-05
37.23584391825,0.9858439182500001,2,0,4.193794959687193,18.57998268629249,-1.324604135759293,-1.443842278034971e-06,5.61009086283862e-05,-1.059683308607435e-05,8.470313286772479e-05,8.477904965025276e-05
36.51415608175,1.51415608175,2,0,4.057148831269124,18.96658025488097,-1.13099802569676,-2.190387943843578e-06,5.744733775060381e-05,-9.047984205574078e-06,8.571478068075087e-05,8.49508030825922e-05
37.23584391825,1.51415608175,2,0,4.039738145172278,18.89693751049358,-1.253827373646328,-2.190387943843578e-06,5.723840951744164e-05,-1.003061898917062e-05,8.54032852462111e-05,8.460907553442411e-05
36.51415608175,2.23584391825,2,0,3.72960390340361,18.88469402291459,-1.157114054842028,-3.173022727440123e-06,5.744733775060381e-05,-9.256912438736228e-06,8.434012555352287e-05,8.466953669812323e-05
37.23584391825,2.23584391825,2,0,3.712193217306765,18.81505127852721,-1.279943402791595,-3.173022727440123e-06,5.723840951744166e-05,-1.023954722233276e-05,8.402909776940355e-05,8.432603684459567e-05
37.76415608175,21.51415608175,2,0.7462100480684335,4.837042133588273,21.68654836320239,-0.1004224735713728,-7.371071426751626e-06,0.0002581950962071431,-3.165530323232066e-06,0.0003885035982545392,0.0003560516341560373
38.48584391825,21.51415608175,2,0.7470292346290948,4.838091536032028,21.68319811966432,-0.07224451541121617,-7.371071426751626e-06,0.0002589855023683907,-2.284675553091407e-06,0.0003897240289551545,0.0003570619013946417
37.76415608175,22.23584391825,2,0.7668311314551273,4.512482712393488,19.94157644261528,-0.06922562668794578,-6.490216656610967e-06,0.0002581950962071431,-2.37512416198472e-06,0.0003897425965349057,0.000383374471624879
38.48584391825,22.23584391825,2,0.7679903102909489,4.50533111942115,19.90356591849063,-0.04333562224293255,-6.490216656610967e-06,0.0002589855023683909,-1.494269391844006e-06,0.0003909632292602219,0.0003850366835864047
37.76415608175,20.26415608175,2,0.6932571048476637,4.640450162987155,22.00807487200916,-0.0941714663053831,-8.988046405049506e-06,0.0002174898930484045,-2.45603644729545e-06,0.0003233498170559435,0.0003010651320942653
38.48584391825,20.26415608175,2,0.6932042695908116,4.641070346488267,22.01114921318912,-0.05784452997053599,-8.988046405049506e-06,0.0002174828871184846,-1.508352932901274e-06,0.0003233384088449653,0.0003010188017997997
37.76415608175,20.98584391825,2,0.7270808333458345,4.214973650634601,19.60285602718182,-0.08402643412794453,-8.040362890655342e-06,0.0002174898930484045,-2.463042377215527e-06,0.0003246803840248688,0.0003339969130999567
38.48584391825,20.98584391825,2,0.7275910683614675,4.206934522457657,19.56557142111754,-0.05159966110876638,-8.040362890655342e-06,0.0002174828871184847,-1.515358862821297e-06,0.0003246689756002467,0.0003345493778208481
39.01415608175,20.26415608175,2,0.6931526836990476,4.629922694233178,22.01104659757495,-0.103410576665069,-9.102522681913783e-06,0.0002174743183720854,-2.696079024882723e-06,0.0003231652995495225,0.000300973580894902
39.73584391825,20.26415608175,2,0.6930645637818141,4.630832719021041,22.01568933865808,-0.06237186463570899,-9.102522681913783e-06,0.0002174579140514841,-1.625667349569159e-06,0.00032313923756546,0.0003008963653796171
39.01415608175,20.98584391825,2,0.7279956009300581,4.201241097624235,19.53592630001363,-0.09222592529695227,-8.032111006600193e-06,0.000217474318372085,-2.712483345484063e-06,0.0003246681159056064,0.0003349887024585671
39.73584391825,20.98584391825,2,0.7285901447309759,4.191687053049395,19.4917408194552,-0.05570930429278511,-8.032111006600193e-06,0.0002174579140514839,-1.642071670170282e-06,0.0003246420506347509,0.0003356364949689921
39.01415608175,21.51415608175,2,0.7476833620945634,4.847879536208147,21.68307584076426,-0.109336013983899,-7.265657040945511e-06,0.0002596243339530787,-3.466628753189904e-06,0.0003908601089824341,0.0003578727711200613
39.73584391825,21.51415608175,2,0.7486499843413521,4.849308837995506,21.68001411574705,-0.07675755848644983,-7.265657040945511e-06,0.0002605792481387525,-2.443049252583054e-06,0.0003923345251297877,0.0003590778411697169
39.01415608175,22.23584391825,2,0.768918421322466,4.518723701998705,19.87793122330615,-0.07255137093112629,-6.242077540338779e-06,0.0002596243339530787,-2.511714567516232e-06,0.0003923000034576133,0.0003863780878261511
39.73584391825,22.23584391825,2,0.7702919398951336,4.51014429185633,19.83289657094454,-0.04272957742421934,-6.242077540338779e-06,0.0002605792481387525,-1.488135066909273e-06,0.000393774700777423,0.0003883806604012568
37.76415608175,19.01415608175,2,0.6120075040557134,4.293365861889403,22.24802854665509,-0.1072130497842483,-1.046322318527758e-05,0.0001746399720821264,-2.210621100252278e-06,0.0002550961667295557,0.0002435029189192064
38.48584391825,19.01415608175,2,0.6105095198486163,4.290298419816433,22.2553509572218,-0.06741339105105985,-1.046322318527758e-05,0.0001740347653706724,-1.384647779321502e-06,0.000254160858415833,0.0002426484472453862
37.76415608175,19.73584391825,2,0.6631717092124241,3.81994080840081,19.33738623322914,-0.1185563086211265,-9.637249864346772e-06,0.0001746399720821264,-2.815827811705881e-06,0.0002562523107777987,0.0002768173394344212
38.48584391825,19.73584391825,2,0.662599318253964,3.809415815502199,19.30218160499316,-0.08392228272036188,-9.637249864346772e-06,0.0001740347653706726,-1.989854490774996e-06,0.0002553167637716885,0.0002763940216692025
37.76415608175,17.76415608175,2,0.4942119502193343,3.764700084016662,22.38059815727766,-0.1488210616244215,-1.158081583680927e-05,0.0001356421015993283,-2.353888142496961e-06,0.00019331532340385,0.0001907346924250296
38.48584391825,17.76415608175,2,0.4904444699815592,3.753038788129543,22.3884910922323,-0.1119157462678488,-1.158081583680927e-05,0.0001347070857265657,-1.757072423706969e-06,0.000191871095112759,0.0001894228095802514
37.76415608175,18.48584391825,2,0.5674787587212964,3.305403057699078,19.16012893736024,-0.1778151058908256,-1.098400011801932e-05,0.0001356421015993283,-3.288904015259623e-06,0.0001941472369697175,0.0002204371431714244
38.48584391825,18.48584391825,2,0.5651363446851977,3.28942049422154,19.12836002851128,-0.1463364196291228,-1.098400011801932e-05,0.0001347070857265659,-2.692088296469631e-06,0.0001927026277584254,0.0002193445812021212
39.01415608175,17.76415608175,2,0.4873753788868936,3.68316464156057,22.38007825293895,-0.1770168558002244,-1.193453356975506e-05,0.000133957121581573,-2.762518201577635e-06,0.0001902226580555437,0.000188367413231611
39.73584391825,17.76415608175,2,0.4827409832616021,3.66844676841137,22.39034344804911,-0.1374679624406671,-1.193453356975506e-05,0.0001328431973062736,-2.126098654519015e-06,0.0001885021405195442,0.0001867958996296582
39.01415608175,18.48584391825,2,0.5632246699084944,3.230851339183395,19.09182720882696,-0.2116418053023452,-1.129811402269644e-05,0.0001339571215815731,-3.876442476877175e-06,0.0001911095882552783,0.0002184609485473729
39.73584391825,18.48584391825,2,0.560336417733923,3.21140323925652,19.05482456211272,-0.1780650109935276,-1.129811402269644e-05,0.0001328431973062735,-3.240022929818474e-06,0.0001893885766046657,0.0002171393812085741
39.01415608175,19.01415608175,2,0.6092844192541742,4.252679620605794,22.25275852124038,-0.1220230214653472,-1.073320911095652e-05,0.0001735448671948284,-2.498452121769414e-06,0.0002530276397413045,0.0002419540960201224
39.73584391825,19.01415608175,2,0.6074316785719123,4.248858893945505,22.26233293106309,-0.07809767673389031,-1.073320911095652e-05,0.0001728116471992831,-1.591522748443605e-06,0.0002518944924097238,0.0002409115648681433
39.01415608175,19.73584391825,2,0.6621261045924707,3.779675554819125,19.26875648467323,-0.1364872058696193,-9.826279737630762e-06,0.0001735448671948284,-3.231672117314519e-06,0.0002542968485547291,0.0002760450332323492
39.73584391825,19.73584391825,2,0.6614049557341999,3.767054070180187,19.22712830913478,-0.09839329653843411,-9.826279737630762e-06,0.0001728116471992832,-2.324742743988763e-06,0.0002531633799334949,0.0002755148968567901
37.76415608175,16.51415608175,2,0.3348701282054715,3.039932952546169,22.35783114074115,-0.2289975480438127,-1.226599467324104e-05,0.0001039092006225291,-2.754319813373884e-06,0.0001433869696663882,0.0001475427577359511
38.48584391825,16.51415608175,2,0.3280609754353793,3.014225552745132,22.35940283104605,-0.2026442430962181,-1.226599467324104e-05,0.0001028943194093382,-2.412650382704239e-06,0.0001418205428701666,0.0001461293707689515
37.76415608175,17.23584391825,2,0.4321342645026698,2.660067644976961,19.10454023513554,-0.2675500141484383,-1.192432524257134e-05,0.0001039092006225291,-3.76920102656479e-06,0.0001438612202121805,0.0001712027007154395
38.48584391825,17.23584391825,2,0.4271426211460215,2.63500160862922,19.07867856334406,-0.2454358457454569,-1.192432524257134e-05,0.0001028943194093384,-3.42753159589509e-06,0.0001422944488311198,0.0001698048530716195
37.76415608175,15.26415608175,2,0.146017669814056,2.174815696920156,22.09927120198671,-0.3551908830954541,-1.255296081958829e-05,8.077194673782333e-05,-3.32738390985786e-06,0.000107313841107906,0.0001163430691113435
38.48584391825,15.26415608175,2,0.1366887510815877,2.134416772341996,22.08405744284631,-0.3462806339015233,-1.255296081958829e-05,7.988017124256402e-05,-3.208860158700411e-06,0.0001059392330261199,0.0001151406763912911
37.76415608175,15.98584391825,2,0.2569590053921431,1.921640141135173,19.23568117293538,-0.391876050098414,-1.243443706843097e-05,8.077194673782333e-05,-4.219159405117112e-06,0.0001074791223067574,0.0001328431637510222
38.48584391825,15.98584391825,2,0.2488628707466285,1.886757754796299,19.22199022351388,-0.385017461653668,-1.243443706843097e-05,7.988017124256418e-05,-4.100635653959744e-06,0.0001061043813682474,0.0001314821487730011
39.01415608175,15.26415608175,2,0.1291527593483506,1.995753775363522,22.04537722490796,-0.4376190451845572,-1.291832731805508e-05,7.917416612334999e-05,-4.020168174221597e-06,0.0001043550418829292,0.0001141873867037676
39.73584391825,15.26415608175,2,0.117837569223039,1.945446812201346,22.02686603439025,-0.4312211885395003,-1.291832731805508e-05,7.813709976243064e-05,-3.910583117077012e-06,0.0001027570048667477,0.0001127853435630638
39.01415608175,15.98584391825,2,0.2422979560544049,1.764132227791148,19.18804165049484,-0.4789846179985862,-1.280874226091048e-05,7.917416612335021e-05,-5.057234535141134e-06,0.0001045091421017799,0.0001303988745799235
39.73584391825,15.98584391825,2,0.2324083986569715,1.720820799831212,19.17313692837785,-0.474721773212416,-1.280874226091048e-05,7.813709976243067e-05,-4.947649477996495e-06,0.0001029109768267282,0.0001288003294238027
39.01415608175,16.51415608175,2,0.3225303593008728,2.908716492648514,22.34023527887822,-0.2808803888350425,-1.264159296908014e-05,0.0001020883823324079,-3.316817427215577e-06,0.0001400608544048017,0.0001450011785950038
39.73584391825,16.51415608175,2,0.3141892237727588,2.87669220216129,22.34394466723727,-0.2545851441307282,-1.264159296908014e-05,0.0001009014025036277,-2.969742126610996e-06,0.0001382290389009653,0.0001433322872219458
39.01415608175,17.23584391825,2,0.4230799535355093,2.543751621706317,19.04119861751955,-0.3247913652744762,-1.229451766847556e-05,0.000102088382332408,-4.503797255995916e-06,0.0001405429181632767,0.0001686839271973102
39.73584391825,17.23584391825,2,0.4169460461268514,2.513124427567857,19.01295663223138,-0.3029491464052825,-1.229451766847556e-05,0.0001009014025036277,-4.156721955391363e-06,0.0001387106863066225,0.0001670193484008686
37.76415608175,14.01415608175,2,0,1.409433952526409,21.29240308929215,-0.5122018187487055,-1.252373382334921e-05,6.700814272371373e-05,-4.097614549989644e-06,8.615865354678995e-05,9.757809871549684e-05
38.48584391825,14.01415608175,2,0,1.377464712676728,21.16452612989342,-0.518846067449381,-1.252373382334921e-05,6.662451184551757e-05,-4.150768539595048e-06,8.556853452512043e-05,9.672885849650137e-05
37.76415608175,14.73584391825,2,0.06704262736563682,1.298411661754935,19.86077190938385,-0.5226013701012316,-1.257688781295463e-05,6.700814272371373e-05,-4.481245428185668e-06,8.608847601761334e-05,0.0001068938234143375
38.48584391825,14.73584391825,2,0.05725394399871075,1.281895853803192,19.94859764325484,-0.5343483959321249,-1.257688781295463e-05,6.662451184551762e-05,-4.534399417790991e-06,8.549841611193896e-05,0.0001058285603276684
37.76415608175,12.76415608175,2,0,1.29120048410921,20.47394320585747,-0.6440237511935737,-1.22473130155365e-05,6.448365787145653e-05,-5.152190009548589e-06,8.265441536227643e-05,8.8543153278215e-05
38.48584391825,12.76415608175,2,0,1.284511812346813,20.44718851880788,-0.6675376895687714,-1.22473130155365e-05,6.440339381030776e-05,-5.340301516550171e-06,8.25321054312888e-05,8.795526921113636e-05
37.76415608175,13.48584391825,2,0,1.228496648441997,20.45826724694066,-0.6540567588371704,-1.243542452253814e-05,6.448365787145653e-05,-5.232454070697363e-06,8.240017794570208e-05,9.266105147210591e-05
38.48584391825,13.48584391825,2,0,1.221807976679613,20.43151255989113,-0.6775706972123545,-1.243542452253814e-05,6.440339381030792e-05,-5.420565577698836e-06,8.22779078950406e-05,9.193972457588931e-05
39.01415608175,12.76415608175,2,0,1.16922944670444,20.39802411948492,-0.7721645412922281,-1.257688506613373e-05,6.433829362498819e-05,-6.177316330337825e-06,8.199166560950079e-05,8.74908912331913e-05
39.73584391825,12.76415608175,2,0,1.161096700643243,20.36549313524013,-0.7968243785920801,-1.257688506613373e-05,6.424070067225383e-05,-6.374595028736641e-06,8.184306065252335e-05,8.681007107055397e-05
39.01415608175,13.48584391825,2,0,1.103469880571506,20.38158422795166,-0.7843636603840307,-1.27741637645325e-05,6.433829362498809e-05,-6.274909283072246e-06,8.172571147372512e-05,9.137075433521299e-05
39.73584391825,13.48584391825,2,0,1.095337134510308,20.34905324370687,-0.8090234976838591,-1.27741637645325e-05,6.424070067225372e-05,-6.472187981470872e-06,8.157715924315265e-05,9.053762562584116e-05
39.01415608175,14.01415608175,2,0,1.236472787051913,21.03345989390256,-0.6174139377191008,-1.287005499655592e-05,6.631789343084665e-05,-4.939311501752806e-06,8.463188807211923e-05,9.605853315142348e-05
39.73584391825,14.01415608175,2,0,1.198633936280491,20.88210449081687,-0.6255015651566679,-1.287005499655592e-05,6.586382722158958e-05,-5.004012521253343e-06,8.39337902569715e-05,9.507641046998714e-05
39.01415608175,14.73584391825,2,0.04937010246092766,1.154925757685513,19.9899102635379,-0.6408882626008633,-1.293475601605649e-05,6.631789343084665e-05,-5.393377711009951e-06,8.454709563038332e-05,0.0001049859199504784
39.73584391825,14.73584391825,2,0.037565624211642,1.132849675824224,20.09246599365694,-0.6566303245003187,-1.293475601605649e-05,6.586382722158958e-05,-5.458078730510461e-06,8.384908995998609e-05,0.0001037490467140575
37.76415608175,11.51415608175,2,0,1.40202627757705,20.34877978408306,-0.751242657733022,-1.179253973901989e-05,6.399447428700415e-05,-6.009941261864176e-06,8.252401628426544e-05,8.474693932549536e-05
38.48584391825,11.51415608175,2,0,1.393504495745909,20.3146926567585,-0.7865567599770235,-1.179253973901989e-05,6.389221290503046e-05,-6.292454079816188e-06,8.236873679744549e-05,8.427420279067004e-05
37.76415608175,12.23584391825,2,0,1.307855338259715,20.32523704925373,-0.7640253304797332,-1.207505255697189e-05,6.399447428700415e-05,-6.112202643837866e-06,8.214166672560789e-05,8.642257331978735e-05
38.48584391825,12.23584391825,2,0,1.299333556428583,20.2911499219292,-0.7993394327237193,-1.207505255697189e-05,6.389221290503056e-05,-6.394715461789755e-06,8.198646507456847e-05,8.59012988392876e-05
37.76415608175,10.26415608175,2,0,1.563859084873187,20.20606491383856,-0.8536174650325141,-1.116050285947665e-05,6.340832045638483e-05,-6.828939720260113e-06,8.248674413739458e-05,8.322001093486389e-05
38.48584391825,10.26415608175,2,0,1.553617513604188,20.16509862876256,-0.9019904683661281,-1.116050285947665e-05,6.328542160115685e-05,-7.215923746929024e-06,8.23008351764808e-05,8.278673085052961e-05
37.76415608175,10.98584391825,2,0,1.434864409316889,20.17381624494949,-0.8689798219360088,-1.154748688614554e-05,6.340832045638483e-05,-6.95183857548807e-06,8.196192968150364e-05,8.388881532077152e-05
38.48584391825,10.98584391825,2,0,1.424622838047898,20.13284995987352,-0.9173528252696158,-1.154748688614554e-05,6.328542160115693e-05,-7.338822602156927e-06,8.177615080708966e-05,8.343965681333648e-05
39.01415608175,10.26415608175,2,0,1.451722922887943,20.10839326246143,-1.016373863302423,-1.144120125672772e-05,6.318548010156619e-05,-8.130990906419383e-06,8.177408536052893e-05,8.244140326743239e-05
39.73584391825,10.26415608175,2,0,1.43921072293376,20.05834446264469,-1.067206960405838,-1.144120125672772e-05,6.3035333702116e-05,-8.537655683246701e-06,8.154716282500588e-05,8.193123084945003e-05
39.01415608175,10.98584391825,2,0,1.316167997278817,20.07450453105914,-1.035142163233686,-1.18478660335551e-05,6.318548010156619e-05,-8.281137305869485e-06,8.12238976464077e-05,8.308230259544934e-05
39.73584391825,10.98584391825,2,0,1.303655797324639,20.02445573124243,-1.085975260337102,-1.18478660335551e-05,6.303533370211607e-05,-8.687802082696817e-06,8.099714826898326e-05,8.255515122327614e-05
39.01415608175,11.51415608175,2,0,1.282936052059358,20.26181962229335,-0.8963595510066297,-1.210406033124473e-05,6.381147394969122e-05,-7.170876408053037e-06,8.182931761462325e-05,8.389885024035433e-05
39.73584391825,11.51415608175,2,0,1.273075923211655,20.22237910690254,-0.9330184336440995,-1.210406033124473e-05,6.369315240351879e-05,-7.464147469152797e-06,8.164990243476827e-05,8.334610453692301e-05
39.01415608175,12.23584391825,2,0,1.185179031692774,20.23738036720174,-0.9111497442781941,-1.239733139234451e-05,6.381147394969133e-05,-7.289197954225553e-06,8.143334626936667e-05,8.548880056511342e-05
39.73584391825,12.23584391825,2,0,1.175318902845062,20.19793985181089,-0.9478086269156674,-1.239733139234451e-05,6.369315240351879e-05,-7.582469015325339e-06,8.125402835180894e-05,8.488310880248694e-05
37.76415608175,9.01415608175,2,0,1.777661900797225,20.04631160396519,-0.9502098608407357,-1.034853120062103e-05,6.272606761205081e-05,-7.601678886725885e-06,8.254891897108353e-05,8.265911296807804e-05
38.48584391825,9.01415608175,2,0,1.765484494400896,19.99760197837987,-1.011548917236813,-1.034853120062103e-05,6.257993873529486e-05,-8.092391337894507e-06,8.232853765634948e-05,8.22374646026158e-05
37.76415608175,9.735843918250001,2,0,1.614091083741016,20.00541889970114,-0.9684759704352335,-1.083924365178966e-05,6.272606761205081e-05,-7.747807763481868e-06,8.188165514057436e-05,8.289051318253926e-05
38.48584391825,9.735843918250001,2,0,1.6019136773447,19.95670927411587,-1.029815026831303,-1.083924365178966e-05,6.257993873529502e-05,-8.238520214650421e-06,8.166147053700461e-05,8.246460441853004e-05
37.76415608175,7.76415608175,2,0,2.041313411210645,19.87140987407538,-1.039266817763921,-9.364924983386239e-06,6.195546086807269e-05,-8.314134542111368e-06,8.271285672644139e-05,8.254661884538321e-05
38.48584391825,7.76415608175,2,0,2.027178352254257,19.81486963824983,-1.112837282846703,-9.364924983386239e-06,6.178584016059603e-05,-8.902698262773628e-06,8.245765608330768e-05,8.212770761988586e-05
37.76415608175,8.485843918250001,2,0,1.845125504323222,19.82236289735352,-1.060469406198495,-9.953488704048506e-06,6.195546086807269e-05,-8.48375524958796e-06,8.190989489471336e-05,8.256696675815832e-05
38.48584391825,8.485843918250001,2,0,1.830990445366836,19.76582266152798,-1.134039871281278,-9.953488704048506e-06,6.178584016059606e-05,-9.072318970250221e-06,8.165496581035608e-05,8.214719337748929e-05
39.01415608175,7.76415608175,2,0,1.948893930209917,19.75190331416271,-1.230173140616305,-9.56506207465843e-06,6.164697546115272e-05,-9.841385124930444e-06,8.198063513351266e-05,8.179413060708825e-05
39.73584391825,7.76415608175,2,0,1.931413537976855,19.68198174523046,-1.306795191123847,-9.56506207465843e-06,6.143721075435597e-05,-1.045436152899078e-05,8.16651635279948e-05,8.130169248534671e-05
39.01415608175,8.485843918250001,2,0,1.744568462189781,19.70082194715766,-1.256393728965904,-1.017803847871882e-05,6.164697546115266e-05,-1.005114983172723e-05,8.11462140245996e-05,8.181260988713454e-05
39.73584391825,8.485843918250001,2,0,1.727088069956724,19.63090037822543,-1.33301577947344,-1.017803847871882e-05,6.143721075435599e-05,-1.066412623578752e-05,8.083110344684268e-05,8.131828417274184e-05
39.01415608175,9.01415608175,2,0,1.674851307030446,19.93749472655134,-1.128333251832266,-1.059047159874364e-05,6.24601020793399e-05,-9.026666014658129e-06,8.182395975865058e-05,8.190125033670254e-05
39.73584391825,9.01415608175,2,0,1.659745394035738,19.87707107457251,-1.192559731159689,-1.059047159874364e-05,6.227883112340342e-05,-9.540477849277515e-06,8.15507238459097e-05,8.140434424542124e-05
39.01415608175,9.735843918250001,2,0,1.503580695490636,19.89467707366638,-1.150992121324325,-1.110428343336307e-05,6.24601020793399e-05,-9.207936970594599e-06,8.11269133759586e-05,8.212494126849209e-05
39.73584391825,9.735843918250001,2,0,1.488474782495925,19.83425342168754,-1.215218600651755,-1.110428343336307e-05,6.227883112340338e-05,-9.72174880521404e-06,8.085394159611916e-05,8.162287304909931e-05
37.76415608175,6.514156081750002,2,0,2.351959275262286,19.68352412793587,-1.119687096069413,-8.220549621509379e-06,6.110570978918494e-05,-8.957496768555303e-06,8.297991278336946e-05,8.267581575501821e-05
38.48584391825,6.514156081750002,2,0,2.335981289096082,19.61961218327105,-1.204691562843488,-8.220549621509379e-06,6.09139739551905e-05,-9.6375325027479e-06,8.269201753935334e-05,8.225778768375269e-05
37.76415608175,7.235843918250001,2,0,2.125280697198072,19.62685448341982,-1.143654075318713,-8.90058535570202e-06,6.110570978918494e-05,-9.149232602549706e-06,8.204854572565576e-05,8.257578484618785e-05
38.48584391825,7.235843918250001,2,0,2.10930271103187,19.56294253875501,-1.228658542092788,-8.90058535570202e-06,6.091397395519051e-05,-9.829268336742302e-06,8.176099887662863e-05,8.21573412749357e-05
37.76415608175,5.264156081750002,2,0,2.706793031778853,19.48467004375982,-1.191163078378277,-6.925998333315527e-06,6.018550971460834e-05,-9.529304627026217e-06,8.33512308368547e-05,8.296158459192755e-05
38.48584391825,5.264156081750002,2,0,2.689165688487004,19.41416067059243,-1.286845864650386,-6.925998333315527e-06,5.997398159510616e-05,-1.029476691720309e-05,8.303419267800005e-05,8.254489650784503e-05
37.76415608175,5.985843918250002,2,0,2.451638935053223,19.42088151957842,-1.217604093316049,-7.691460623492417e-06,6.018550971460834e-05,-9.740832746528389e-06,8.229822897348366e-05,8.277919048532608e-05
38.48584391825,5.985843918250002,2,0,2.434011591761378,19.35037214641104,-1.313286879588159,-7.691460623492417e-06,5.99739815951062e-05,-1.050629503670527e-05,8.198161248183913e-05,8.236163279542997e-05
39.01415608175,5.264156081750002,2,0,2.635086182142039,19.34699635729834,-1.401155053969276,-7.045321302984147e-06,5.980231939764106e-05,-1.12092404317542e-05,8.26167240849285e-05,8.221428742968277e-05
39.73584391825,5.264156081750002,2,0,2.61363103833109,19.26117578205454,-1.499614392906742,-7.045321302984147e-06,5.954485767190966e-05,-1.199691514325393e-05,8.223095888050644e-05,8.172773471474409e-05
39.01415608175,5.985843918250002,2,0,2.372527944975447,19.28135679800669,-1.4333377696857,-7.832996014483918e-06,5.980231939764103e-05,-1.14667021574856e-05,8.153521881443361e-05,8.203001278644459e-05
39.73584391825,5.985843918250002,2,0,2.351072801164496,19.19553622276288,-1.531797108623166,-7.832996014483918e-06,5.954485767190962e-05,-1.225437686898533e-05,8.114999747931191e-05,8.154156776294768e-05
39.01415608175,6.514156081750002,2,0,2.270141183888723,19.55430580431413,-1.321101386115984,-8.378992855007394e-06,6.075766562669424e-05,-1.056881108892787e-05,8.22448674116261e-05,8.192554013191867e-05
39.73584391825,6.514156081750002,2,0,2.250532312128577,19.47587031727355,-1.409103435821705,-8.378992855007394e-06,6.05223591655725e-05,-1.127282748657364e-05,8.189167315247811e-05,8.143585101084462e-05
39.01415608175,7.235843918250001,2,0,2.03546905134013,19.49563777117701,-1.350514693756201,-9.08300925265319e-06,6.075766562669432e-05,-1.080411755004961e-05,8.128264026197698e-05,8.182439017497826e-05
39.73584391825,7.235843918250001,2,0,2.015860179579978,19.4172022841364,-1.438516743461919,-9.08300925265319e-06,6.052235916557249e-05,-1.150813394769536e-05,8.09299023780428e-05,8.133319442467206e-05
37.76415608175,4.014156081750002,2,0,3.103380761304873,19.27659351016148,-1.253977134789058,-5.490456371953588e-06,5.920239462347282e-05,-1.003181707831247e-05,8.382823353227548e-05,8.336235071672001e-05
38.48584391825,4.014156081750002,2,0,3.084340453513488,19.20043227899593,-1.35970021599443,-5.490456371953584e-06,5.89739109299762e-05,-1.087760172795544e-05,8.348638715441909e-05,8.294796813172671e-05
37.76415608175,4.735843918250002,2,0,2.821452544757208,19.20611145602456,-1.282537596476134,-6.336241021596583e-06,5.920239462347282e-05,-1.026030077180907e-05,8.265906509639137e-05,8.311784190498264e-05
38.48584391825,4.735843918250002,2,0,2.802412236965822,19.12995022485902,-1.388260677681512,-6.336241021596587e-06,5.897391092997621e-05,-1.11060854214521e-05,8.231770605917618e-05,8.270200458769468e-05
37.76415608175,2.76415608175,2,0,3.539908830793854,19.06068293274225,-1.308763209905859,-3.920838087653465e-06,5.81622583201401e-05,-1.047010567924687e-05,8.44130293790226e-05,8.384172028506968e-05
38.48584391825,2.76415608175,2,0,3.519700591104315,18.97984997398409,-1.424064837252663,-3.920838087653464e-06,5.791975944386564e-05,-1.13925186980213e-05,8.405087932463428e-05,8.343044666150358e-05
37.76415608175,3.485843918250001,2,0,3.232437824535706,18.98381518117771,-1.339075569440163,-4.843251106427909e-06,5.81622583201401e-05,-1.07126045555213e-05,8.313123983223762e-05,8.355631334407665e-05
38.48584391825,3.485843918250002,2,0,3.212229584846171,18.90298222241957,-1.454377196786965,-4.843251106427909e-06,5.791975944386568e-05,-1.163501757429572e-05,8.2769633202965e-05,8.314315359713058e-05
39.01415608175,2.76415608175,2,0,3.485271119930962,18.91027472523738,-1.531918737091094,-3.975352196410827e-06,5.772466222481485e-05,-1.225534989672875e-05,8.368607881289197e-05,8.310472056896712e-05
39.73584391825,2.76415608175,2,0,3.461061400046765,18.81343584570059,-1.649305141854585,-3.975352196410825e-06,5.743414558620447e-05,-1.319444113483668e-05,8.325233890397549e-05,8.262609395833488e-05
39.01415608175,3.485843918250002,2,0,3.172240707228319,18.83201712206173,-1.568233316917394,-4.914443434518763e-06,5.772466222481488e-05,-1.254586653533915e-05,8.238315819690314e-05,8.281585537674724e-05
39.73584391825,3.485843918250001,2,0,3.148030987344118,18.73517824252493,-1.685619721680887,-4.914443434518763e-06,5.743414558620447e-05,-1.348495777344709e-05,8.195009941972239e-05,8.233481975634108e-05
39.01415608175,4.014156081750002,2,0,3.040802730454419,19.13185636161725,-1.47104249787975,-5.574916351839653e-06,5.878929817281165e-05,-1.1768339983038e-05,8.309663226276025e-05,8.261959460632238e-05
39.73584391825,4.014156081750002,2,0,3.017812085552426,19.03989378200927,-1.579211789018829,-5.57491635183965e-06,5.85134104339877e-05,-1.263369431215063e-05,8.268397481145983e-05,8.213684403601243e-05
39.01415608175,4.735843918250002,2,0,2.752351287416874,19.05974350085786,-1.505528465232735,-6.440270680952288e-06,5.878929817281165e-05,-1.204422772186188e-05,8.190248099252558e-05,8.237226540218618e-05
39.73584391825,4.735843918250002,2,0,2.729360642514881,18.96778092124989,-1.613697756371809,-6.440270680952288e-06,5.851341043398772e-05,-1.290958205097447e-05,8.149044282243945e-05,8.188723851138024e-05
37.76415608175,1.51415608175,2,0,4.015362218287778,18.83789859236543,-1.356211630637216,-2.221159775371457e-06,5.706898572093916e-05,-1.084969304509772e-05,8.510869661190737e-05,8.433469901411643e-05
38.48584391825,1.51415608175,2,0,3.994200036044982,18.75324986339425,-1.480848012845545,-2.221159775371457e-06,5.681503953402561e-05,-1.184678410276436e-05,8.473019583954007e-05,8.392681596836808e-05
37.76415608175,2.23584391825,2,0,3.682998532398893,18.75480767089321,-1.387954904001409,-3.218250833038112e-06,5.706898572093916e-05,-1.110363923201127e-05,8.37154452933796e-05,8.405028809675031e-05
38.48584391825,2.23584391825,2,0,3.661836350156098,18.67015894192203,-1.512591286209738,-3.218250833038112e-06,5.681503953402562e-05,-1.21007302896779e-05,8.333753463348679e-05,8.364042836100879e-05
37.76415608175,0.26415608175,2,0,4.529603843929992,18.60874166178291,-1.396711060112723,-3.922610288503551e-07,5.592429024256132e-05,-1.117368848090178e-05,8.591942856298892e-05,8.468778825469269e-05
38.48584391825,0.26415608175,2,0,4.507622830580901,18.52081760838655,-1.530670692699469,-3.922610288503551e-07,5.566051808237222e-05,-1.224536554159575e-05,8.552709647480401e-05,8.428239069062066e-05
37.76415608175,0.9858439182500001,2,0,4.172378157032001,18.51943524005842,-1.429682580136359,-1.463938089544331e-06,5.592429024256132e-05,-1.143746064109087e-05,8.441330621227446e-05,8.450551666660649e-05
38.48584391825,0.9858439182500001,2,0,4.15039714368291,18.43151118666205,-1.563642212723105,-1.463938089544331e-06,5.566051808237223e-05,-1.250913770178484e-05,8.402160358995001e-05,8.409882925615343e-05
39.01415608175,0.26415608175,2,0,4.488444320726962,18.45032427411998,-1.631500675289159,-3.972375929697106e-07,5.545028222060238e-05,-1.305200540231327e-05,8.520771199338234e-05,8.396113157647524e-05
39.73584391825,0.26415608175,2,0,4.462560746079997,18.34678997553212,-1.767159836128628,-3.972375929697106e-07,5.513967932483879e-05,-1.413727868902903e-05,8.4746012183229e-05,8.348883291827011e-05
39.01415608175,0.9858439182500001,2,0,4.126686558488377,18.35988483356034,-1.670326037259608,-1.482510879685463e-06,5.545028222060237e-05,-1.336260829807687e-05,8.368438112950515e-05,8.377664580719345e-05
39.73584391825,0.9858439182500001,2,0,4.100802983841411,18.25635053497247,-1.805985198099077,-1.482510879685463e-06,5.513967932483878e-05,-1.444788158479262e-05,8.322345369381692e-05,8.330311166569272e-05
39.01415608175,1.51415608175,2,0,3.967649405598296,18.68305098170966,-1.585070824217591,-2.249962687453181e-06,5.661164361699227e-05,-1.268056659374073e-05,8.438811994579436e-05,8.36037386427663e-05
39.73584391825,1.51415608175,2,0,3.942504256223523,18.58247038421057,-1.711501329787011,-2.249962687453181e-06,5.6309901824495e-05,-1.369201063829608e-05,8.39385481287181e-05,8.312895802015964e-05
39.01415608175,2.23584391825,2,0,3.63050139074651,18.59876397799671,-1.622788548279751,-3.261406732008538e-06,5.661164361699227e-05,-1.298230838623801e-05,8.297680110657047e-05,8.331583325382035e-05
39.73584391825,2.23584391825,2,0,3.605356241371736,18.49818338049762,-1.749219053849168,-3.261406732008538e-06,5.630990182449498e-05,-1.399375243079334e-05,8.252796013779747e-05,8.283888266479708e-05
40.26415608175,21.51415608175,2,0.749413789924632,4.858369614254544,21.68003880766675,-0.1162049324248279,-7.172175515876579e-06,0.0002613449019139278,-3.709858811141358e-06,0.0003936498759154306,0.0003600358705313749
40.98584391825,21.51415608175,2,0.7505323322538919,4.860318088916658,21.67780472893097,-0.07819743944820108,-7.172175515876579e-06,0.0002624817927431292,-2.507657690624192e-06,0.0003954052453283771,0.0003614481853730231
40.26415608175,22.23584391825,2,0.7713821584440109,4.52406139463145,19.80229890404032,-0.0735282983029676,-5.969974395359521e-06,0.0002613449019139278,-2.572967981939777e-06,0.0003953412599389915,0.0003899851785317244
40.98584391825,22.23584391825,2,0.7729834028359787,4.513882526374479,19.74963419598648,-0.03889835354817547,-5.969974395359521e-06,0.0002624817927431295,-1.370766861422774e-06,0.0003970970184070578,0.000392366231010908
40.26415608175,20.26415608175,2,0.6929781188758224,4.613738291762804,22.01539321580715,-0.1115577468130262,-9.277358436393354e-06,0.000217438142886538,-2.906835080406683e-06,0.0003228642763765591,0.000300820656335022
40.98584391825,20.26415608175,2,0.6928300102839604,4.615001217187869,22.02216248812518,-0.06480760918418055,-9.277358436393354e-06,0.0002174005313799808,-1.687863042716935e-06,0.0003228053026896313,0.0003006910308938717
40.26415608175,20.98584391825,2,0.7290546012937666,4.181694454619456,19.45600621313486,-0.09972303180927024,-8.058386398703578e-06,0.000217438142886538,-2.944446586963974e-06,0.0003245755311061386,0.0003361443088160052
40.98584391825,20.98584391825,2,0.7297285120125345,4.170446397859234,19.4042256948814,-0.05829332173960398,-8.058386398703578e-06,0.0002174005313799807,-1.725474549274172e-06,0.0003245165450941218,0.0003368838895364661
41.51415608175001,20.26415608175,2,0.692684570190607,4.589839783205509,22.0215611952656,-0.1189026994845078,-9.533402379997591e-06,0.0002173568832509167,-3.095261427211906e-06,0.0003223797234534395,0.0003005638502970941
42.23584391825001,20.26415608175,2,0.6924351684178511,4.591472267296891,22.03106319094859,-0.06533536948721487,-9.533402379997591e-06,0.0002172752458512118,-1.699423673405629e-06,0.0003222525715980855,0.0003003460118860966
41.51415608175001,20.98584391825,2,0.7302460902666437,4.154359130824973,19.36136136532857,-0.1071226099235254,-8.137564626191234e-06,0.0002173568832509167,-3.176898826917109e-06,0.0003243390182266363,0.0003374541346984538
42.23584391825001,20.98584391825,2,0.730985792818291,4.141137168137969,19.30094929293282,-0.05989134156563562,-8.137564626191234e-06,0.0002172752458512118,-1.781061073110723e-06,0.0003242118309580329,0.0003382724927333796
41.51415608175001,21.51415608175,2,0.7514073516906197,4.867542704162314,21.67817499202932,-0.121128197069828,-7.105613751319423e-06,0.0002633872170253286,-3.898045992706289e-06,0.0003968987892024654,0.0003625608373758513
42.23584391825001,21.51415608175,2,0.752677549491933,4.870222918711062,21.67761393151942,-0.07650120924100554,-7.105613751319423e-06,0.0002647239913376071,-2.474541525327811e-06,0.0003989627583144448,0.0003641883443372023
41.51415608175001,22.23584391825,2,0.7742452094165142,4.527489371337162,19.71341172468435,-0.0722774189802933,-5.682109283940916e-06,0.0002633872170253286,-2.561271680427604e-06,0.0003989018285082947,0.0003942633403025834
42.23584391825001,22.23584391825,2,0.7760865533828541,4.515504883946758,19.65239537806515,-0.03184517226522224,-5.682109283940916e-06,0.0002647239913376071,-1.137767213048963e-06,0.000400966332667714,0.0003970652867959883
40.26415608175,19.01415608175,2,0.6059171010319511,4.199297167886172,22.25866127529197,-0.1376495021746244,-1.108695174147118e-05,0.0001722182782463948,-2.794325813884851e-06,0.000250484820286615,0.0002400659953676417
40.98584391825,19.01415608175,2,0.603626395570231,4.1943784836962,22.27073271466709,-0.08899747538602271,-1.108695174147118e-05,0.0001713303841149454,-1.796234146601286e-06,0.0002491126480032225,0.0002387983876828218
40.26415608175,19.73584391825,2,0.6608065579009961,3.727250824090261,19.18659726563465,-0.1561231072279236,-1.008886007418754e-05,0.0001722182782463948,-3.682219945333833e-06,0.000251881210469007,0.00027507654983719
40.98584391825,19.73584391825,2,0.6598917146959051,3.712138629983881,19.13768564556661,-0.1141117832729887,-1.008886007418754e-05,0.0001713303841149455,-2.684128278050268e-06,0.0002505086033274759,0.0002744090998838042
40.26415608175,17.76415608175,2,0.4789732205132925,3.580036606646753,22.3792296287019,-0.2083852181532198,-1.237415583138254e-05,0.0001319500421729908,-3.199608563053311e-06,0.0001865142137741188,0.0001855375028555817
40.98584391825,17.76415608175,2,0.4732894441028002,3.560879292879622,22.39051529240108,-0.1662264031810171,-1.237415583138254e-05,0.0001306238212450177,-2.524747625729532e-06,0.0001844659141510576,0.0001836710125345308
40.26415608175,18.48584391825,2,0.5579824214872238,3.136588510704095,19.01047154203981,-0.2500620240481405,-1.169929489405877e-05,0.0001319500421729908,-4.525829491026229e-06,0.0001874544782321829,0.0002160740800386142
40.98584391825,18.48584391825,2,0.5544278559210144,3.112568038275032,18.96637204079774,-0.2144855394067484,-1.169929489405877e-05,0.0001306238212450178,-3.850968553702531e-06,0.000185405538545551,0.000214485190455596
41.51415608175001,17.76415608175,2,0.4686646217160427,3.452703717653741,22.37585388663067,-0.2453387206918124,-1.289586858481441e-05,0.0001295614263168925,-3.693918842508515e-06,0.0001821041807603104,0.0001821798237825555
42.23584391825001,17.76415608175,2,0.4616771144603948,3.427396659115689,22.38726312160881,-0.2016505843856836,-1.289586858481441e-05,0.000127985130323401,-2.996723190522397e-06,0.00017966988936333,0.0001799723106693618
41.51415608175001,18.48584391825,2,0.5515251326880444,3.018487548040646,18.91244797332769,-0.2954448624100776,-1.219867293282823e-05,0.0001295614263168925,-5.270214836000046e-06,0.0001830753967720561,0.0002132049606050982
42.23584391825001,18.48584391825,2,0.5471317708852461,2.988569474001632,18.85976715680653,-0.25887188744652,-1.219867293282823e-05,0.000127985130323401,-4.573019184013873e-06,0.0001806402958625897,0.0002112961971910415
41.51415608175001,19.01415608175,2,0.6017477280908082,4.129908061615719,22.2654867774348,-0.1549912429512429,-1.154214036932264e-05,0.0001706095257480202,-3.113428424816791e-06,0.0002473649917276277,0.0002377687783297652
42.23584391825001,19.01415608175,2,0.5988971799166505,4.123318162643424,22.28025396549018,-0.101125228580497,-1.154214036932264e-05,0.0001695279981958834,-2.016943756406062e-06,0.0002456936200613632,0.0002362234409499668
41.51415608175001,19.73584391825,2,0.6591264005728457,3.659474175808418,19.08870702466692,-0.1787437179128117,-1.044565570091185e-05,0.0001706095257480202,-4.194955976953205e-06,0.0002488984570049399,0.0002738532395617267
42.23584391825001,19.73584391825,2,0.6579484028632412,3.641292473312429,19.0313614127967,-0.1324796324711698,-1.044565570091185e-05,0.0001695279981958834,-3.098471308542422e-06,0.0002472264916892775,0.0002730020508732203
40.26415608175,16.51415608175,2,0.3074393367612808,2.743581332291593,22.31946724703897,-0.3387732051092198,-1.310515311662976e-05,9.995865170995047e-05,-3.913282669275114e-06,0.0001361387656115188,0.0001420096770776442
40.98584391825,16.51415608175,2,0.2972835833012042,2.702493678254098,22.3214825110253,-0.3126195568821037,-1.310515311662976e-05,9.856998847141972e-05,-3.558983959426709e-06,0.0001339961110771628,0.0001400651303377104
40.26415608175,17.23584391825,2,0.4119663352903503,2.398943808703531,18.96818979106266,-0.3897153352824408,-1.275085440678135e-05,9.995865170995047e-05,-5.301945907806058e-06,0.0001366313156846402,0.0001656920058949142
40.98584391825,17.23584391825,2,0.4044582566599727,2.360656543776505,18.93470875321782,-0.3683163047128837,-1.275085440678135e-05,9.856998847141991e-05,-4.947647197957599e-06,0.0001344881545972684,0.0001637302175258883
40.26415608175,15.26415608175,2,0.1087678466657296,1.783547915648769,21.98364798208209,-0.5347972703914774,-1.33293721631854e-05,7.733207891153567e-05,-4.800520433565582e-06,0.0001009606475941504,0.0001116861719396454
40.98584391825,15.26415608175,2,0.09523342429592452,1.722999674205209,21.96696170728394,-0.5350919309155856,-1.33293721631854e-05,7.616978740656411e-05,-4.731314752640461e-06,9.917054913605977e-05,0.0001100852223588044
40.26415608175,15.98584391825,2,0.2244289494216274,1.569976390572154,19.1351571241522,-0.5780730399465297,-1.326016648226046e-05,7.733207891153567e-05,-5.962811938536785e-06,0.0001010610377438856,0.0001275388574832109
40.98584391825,15.98584391825,2,0.2124507859128618,1.517943453512391,19.12556592876062,-0.5801881220401622,-1.326016648226046e-05,7.616978740656422e-05,-5.893606257611908e-06,9.927089870236294e-05,0.0001256909972051662
41.51415608175001,15.26415608175,2,0.08446518524622793,1.525213254261929,21.90650075590537,-0.630656445007919,-1.381107303329235e-05,7.523540416539234e-05,-5.510715134760051e-06,9.708152767642518e-05,0.0001088439214304599
42.23584391825001,15.26415608175,2,0.0684937587486123,1.443882883149633,21.85690744371173,-0.6359384728763895,-1.381107303329235e-05,7.384491318163279e-05,-5.461592802831407e-06,9.49412966092755e-05,0.0001070535738074373
41.51415608175001,15.98584391825,2,0.202800890823736,1.341128151712295,19.07828115641775,-0.6877044212406928,-1.376195070136376e-05,7.523540416539234e-05,-6.901206118519517e-06,9.715701151408358e-05,0.0001242408575703762
42.23584391825001,15.98584391825,2,0.188322370216258,1.271432833076611,19.048565740411,-0.6952103908724693,-1.376195070136376e-05,7.384491318163279e-05,-6.852083786590955e-06,9.501683644692506e-05,0.0001221268626879368
41.51415608175001,16.51415608175,2,0.2890628331005345,2.546612196815298,22.28897557782402,-0.4027963985129762,-1.361867389023341e-05,9.74592908030966e-05,-4.532568190459353e-06,0.0001315804250526775,0.0001385297117342507
42.23584391825001,16.51415608175,2,0.2766794031664032,2.491765678527499,22.28039687206719,-0.3788618563066661,-1.361867389023341e-05,9.581347157979058e-05,-4.190250994816618e-06,0.0001290417340346331,0.0001362794168384677
41.51415608175001,17.23584391825,2,0.3983596807712237,2.223756075905886,18.87951365353434,-0.4646458719920981,-1.327635669459068e-05,9.74592908030966e-05,-6.17838741376526e-06,0.0001320574465834623,0.0001621706511536416
42.23584391825001,17.23584391825,2,0.3891520867629673,2.174010003782159,18.83333349298017,-0.4456189142806236,-1.327635669459068e-05,9.581347157979058e-05,-5.836070218122606e-06,0.0001295181733403469,0.0001598716249557323
40.26415608175,14.01415608175,2,0,1.046383952320274,20.73269792096172,-0.7349224704590553,-1.32377296893445e-05,6.550752618522128e-05,-5.879379763672443e-06,8.289467346298813e-05,9.431201580962663e-05
40.98584391825,14.01415608175,2,0,1.003103425242613,20.55957581265108,-0.7456262896213572,-1.32377296893445e-05,6.498815986028935e-05,-5.965010316970858e-06,8.209676024785578e-05,9.320577344183494e-05
40.26415608175,14.73584391825,2,0.02814874820940605,0.9891895004444953,20.14216341411501,-0.7773286745125219,-1.332336024264299e-05,6.550752618522128e-05,-6.398746088604216e-06,8.278291489399283e-05,0.0001027830665464488
40.98584391825,14.73584391825,2,0.01415946909175492,0.9607606565884774,20.26142829521512,-0.7990701639078025,-1.332336024264299e-05,6.49881598602894e-05,-6.484376641902739e-06,8.198514913581776e-05,0.0001013808328857464
40.26415608175,12.76415608175,2,0,1.028326672525602,20.31029521581737,-0.9142171455730698,-1.295759082057196e-05,6.417028335259508e-05,-7.313737164584558e-06,8.122823368506419e-05,8.627757079827586e-05
40.98584391825,12.76415608175,2,0,1.02042744399941,20.2786983017126,-0.9369835515125217,-1.295759082057196e-05,6.407549261028077e-05,-7.495868412100173e-06,8.108415158633151e-05,8.550357316194321e-05
40.26415608175,13.48584391825,2,0,0.9676162566870579,20.29511761185773,-0.9260659883623414,-1.31397220680876e-05,6.417028335259508e-05,-7.408527906898731e-06,8.098336453835615e-05,8.988938155336602e-05
40.98584391825,13.48584391825,2,0,0.9597170281608722,20.26352069775299,-0.9488323943017933,-1.31397220680876e-05,6.407549261028085e-05,-7.590659154414346e-06,8.083933188803605e-05,8.89514745209551e-05
41.51415608175001,12.76415608175,2,0,0.8717129018589977,20.20973586759913,-1.077812391192081,-1.337830740813051e-05,6.397378445483002e-05,-8.622499129536652e-06,8.037178363083986e-05,8.490002382241498e-05
42.23584391825,12.76415608175,2,0,0.8564561430312265,20.14870883228805,-1.099664396763779,-1.337830740813051e-05,6.379070334889677e-05,-8.79731517411023e-06,8.009236152213198e-05,8.402509399821174e-05
41.51415608175001,13.48584391825,2,0,0.8134408870011045,20.19516786388466,-1.100697529433749,-1.355312345270419e-05,6.397378445483002e-05,-8.80558023546999e-06,8.013844469011394e-05,8.823099297833278e-05
42.23584391825001,13.48584391825,2,0,0.7981841281733422,20.13414082857361,-1.122549535005453,-1.355312345270419e-05,6.379070334889688e-05,-8.980396280043623e-06,7.985911814984182e-05,8.720050783030024e-05
41.51415608175001,14.01415608175,2,0,0.8366762034957862,20.42407891885112,-0.884746694778986,-1.366189928389438e-05,6.468771157752695e-05,-7.077973558231889e-06,8.107216258893221e-05,9.235762812332143e-05
42.23584391825001,14.01415608175,2,0,0.8115533994410642,20.32358770263223,-0.9000423263897736,-1.366189928389438e-05,6.438623792887028e-05,-7.200338611118188e-06,8.061000155978624e-05,9.114669438863403e-05
41.51415608175001,14.73584391825,2,0.003118101942918505,0.7934061930743717,20.35022926651051,-0.9195546672768867,-1.378426433678063e-05,6.468771157752695e-05,-7.379447206888557e-06,8.091017345966157e-05,0.0001003008358482913
42.23584391825001,14.73584391825,2,0,0.7707650484789808,20.31339061489171,-0.9377265324718604,-1.378426433678063e-05,6.438623792887028e-05,-7.501812259774884e-06,8.044812576315263e-05,9.875246273051721e-05
40.26415608175,11.51415608175,2,0,1.145752238513571,20.16022091985299,-1.056106703798781,-1.246176957263896e-05,6.359610515271869e-05,-8.448853630390249e-06,8.102611883276034e-05,8.290970156974108e-05
40.98584391825,11.51415608175,2,0,1.133517532366941,20.11128209526647,-1.095377256833343,-1.246176957263896e-05,6.344928867895914e-05,-8.763018054666741e-06,8.080368162226574e-05,8.227017219420686e-05
40.26415608175,12.23584391825,2,0,1.041030763754736,20.13404055116328,-1.074458763018713,-1.277593399691547e-05,6.359610515271869e-05,-8.595670104149709e-06,8.060322378721725e-05,8.44073711832941e-05
40.98584391825,12.23584391825,2,0,1.028796057608111,20.08510172657678,-1.11372931605327,-1.277593399691547e-05,6.344928867895919e-05,-8.90983452842616e-06,8.038092133625462e-05,8.371332359915855e-05
40.26415608175,10.26415608175,2,0,1.324531362411923,19.99080782996283,-1.192909802602145,-1.175414590425211e-05,6.291095996595152e-05,-9.543278420817163e-06,8.094239544023786e-05,8.152710801934664e-05
40.98584391825,10.26415608175,2,0,1.308727281837508,19.92759150766517,-1.247139349368446,-1.175414590425211e-05,6.272131099905854e-05,-9.977114794947571e-06,8.065590115796047e-05,8.093319633294103e-05
40.26415608175,10.98584391825,2,0,1.179919237701769,19.9546547987853,-1.216615923463744,-1.218798227838257e-05,6.291095996595152e-05,-9.732927387709955e-06,8.035721139868212e-05,8.213793738099626e-05
40.98584391825,10.98584391825,2,0,1.16411515712736,19.89143847648766,-1.270845470230061,-1.218798227838257e-05,6.27213109990586e-05,-1.016676376184049e-05,8.007095969954285e-05,8.15252393383913e-05
41.51415608175001,10.26415608175,2,0,1.184599050807518,19.84666352178668,-1.385301216592175,-1.208661385484529e-05,6.256164402907138e-05,-1.10824097327374e-05,7.997462466798505e-05,8.046454774969791e-05
42.23584391825001,10.26415608175,2,0,1.16405160852242,19.76447375264629,-1.443534076954933,-1.208661385484529e-05,6.23150747216502e-05,-1.154827261563946e-05,7.960215017769796e-05,7.977808769573374e-05
41.51415608175001,10.98584391825,2,0,1.029311423173497,19.80784161487818,-1.416122380019816,-1.255247673774735e-05,6.256164402907138e-05,-1.132897904015853e-05,7.93486348234131e-05,8.104161217898051e-05
42.23584391825001,10.98584391825,2,0,1.008763980888399,19.72565184573779,-1.474355240382574,-1.255247673774735e-05,6.23150747216502e-05,-1.179484192306059e-05,7.89765140278284e-05,8.033301625009874e-05
41.51415608175001,11.51415608175,2,0,0.9938963765411977,20.03553082531905,-1.234992361098222,-1.28479562553234e-05,6.331858153978798e-05,-9.879938888785773e-06,8.009407423272539e-05,8.176592329111883e-05
42.23584391825001,11.51415608175,2,0,0.9763728705925478,19.96543680152445,-1.277667632566463,-1.28479562553234e-05,6.310829946840418e-05,-1.02213410605317e-05,7.977517829191502e-05,8.102781904369709e-05
41.51415608175001,12.23584391825,2,0,0.8800956526258981,20.00708064434022,-1.261277620021176,-1.31893584270693e-05,6.331858153978798e-05,-1.009022096016941e-05,7.963653123208485e-05,8.316771362076899e-05
42.23584391825,12.23584391825,2,0,0.8625721466772482,19.93698662054562,-1.303952891489426,-1.31893584270693e-05,6.310829946840418e-05,-1.043162313191541e-05,7.931785381404017e-05,8.237112702276426e-05
40.26415608175,9.01415608175,2,0,1.559685255975599,19.80551102242253,-1.3187800691259,-1.08534159988161e-05,6.21298870669716e-05,-1.05502405530072e-05,8.097605761153606e-05,8.101108377370306e-05
40.98584391825,9.01415608175,2,0,1.540880941497447,19.73029376450992,-1.386671812699836,-1.08534159988161e-05,6.190423529323377e-05,-1.109337450159869e-05,8.063608286880923e-05,8.043358227559607e-05
40.26415608175,9.735843918250001,2,0,1.37864060644511,19.7602498600399,-1.346986540843115,-1.139654994740757e-05,6.21298870669716e-05,-1.077589232674492e-05,8.024133115447712e-05,8.122516850529371e-05
40.98584391825,9.735843918250001,2,0,1.359836291966961,19.68503260212731,-1.414878284417047,-1.139654994740757e-05,6.190423529323381e-05,-1.131902627533638e-05,7.99017174821232e-05,8.064068770456242e-05
40.26415608175,7.76415608175,2,0,1.846569839116641,19.60733843495227,-1.431942635767605,-9.776847262788566e-06,6.126622712055395e-05,-1.145554108614084e-05,8.112598153367981e-05,8.091289843309825e-05
40.98584391825,7.76415608175,2,0,1.825122233447222,19.5215480122746,-1.512263974482454,-9.776847262788566e-06,6.100885585252093e-05,-1.209811179585963e-05,8.073910457095925e-05,8.034313145037129e-05
40.26415608175,8.485843918250001,2,0,1.632379602543695,19.55379087580904,-1.464114044271719,-1.04194179725074e-05,6.126622712055395e-05,-1.171291235417375e-05,8.025359725206683e-05,8.092741126004049e-05
40.98584391825,8.485843918250001,2,0,1.610931996874282,19.46800045313138,-1.544435382986571,-1.04194179725074e-05,6.1008855852521e-05,-1.235548306389257e-05,7.986720228590022e-05,8.035385231758521e-05
41.51415608175001,7.76415608175,2,0,1.736177400486419,19.43399380406576,-1.645263343925829,-9.991427361696066e-06,6.079983825262129e-05,-1.316210675140663e-05,8.014134611691375e-05,7.989623269371279e-05
42.23584391825,7.76415608175,2,0,1.71003778093699,19.32943532586803,-1.729865043964135,-9.991427361696056e-06,6.048616281802811e-05,-1.383892035171308e-05,7.96701235143692e-05,7.924504956735751e-05
41.51415608175001,8.485843918250001,2,0,1.510572867050956,19.37759267070689,-1.684472773249992,-1.066824096200245e-05,6.079983825262129e-05,-1.347578218599993e-05,7.922536826549536e-05,7.990302497850853e-05
42.23584391825,8.485843918250001,2,0,1.484433247501524,19.27303419250917,-1.769074473288297,-1.066824096200245e-05,6.048616281802811e-05,-1.415259578630638e-05,7.875479178210292e-05,7.924490072511281e-05
41.51415608175001,9.01415608175,2,0,1.434101703319496,19.64556063881675,-1.522755025328054,-1.112732306043101e-05,6.171851268155801e-05,-1.218204020262443e-05,7.999394707955016e-05,7.997901337733493e-05
42.23584391825,9.01415608175,2,0,1.410622383528119,19.55164335965124,-1.59493277751543,-1.112732306043101e-05,6.143676084406149e-05,-1.275946222012344e-05,7.956962819190782e-05,7.931460954979904e-05
41.51415608175001,9.735843918250001,2,0,1.241627697486483,19.5974421373585,-1.557974005015123,-1.170474507793005e-05,6.171851268155801e-05,-1.246379204012098e-05,7.921553827448935e-05,8.017982525892757e-05
42.23584391825001,9.735843918250001,2,0,1.218148377695108,19.503524858193,-1.630151757202504,-1.170474507793005e-05,6.14367608440615e-05,-1.304121405762003e-05,7.879172014828722e-05,7.950520644283049e-05
40.26415608175,6.514156081750002,2,0,2.180533526883504,19.39884538812696,-1.53183968299635,-8.541369024474357e-06,6.033187842049948e-05,-1.22547174639708e-05,8.138955272256317e-05,8.105025985794955e-05
40.98584391825,6.514156081750002,2,0,2.156775475858214,19.3038131840258,-1.623371750416134,-8.541369024474357e-06,6.0046781808196e-05,-1.298697400332907e-05,8.096183886498643e-05,8.048649435832042e-05
40.26415608175,7.235843918250001,2,0,1.936448013764077,19.33782400984711,-1.567476759534277,-9.273625563832639e-06,6.033187842049948e-05,-1.253981407627422e-05,8.039117683434152e-05,8.094581561569826e-05
40.98584391825,7.235843918250001,2,0,1.912689962738793,19.24279180574597,-1.659008826954066,-9.273625563832639e-06,6.004678180819606e-05,-1.327207061563253e-05,7.996405932983173e-05,8.037867277806759e-05
40.26415608175,5.264156081750002,2,0,2.557254976457275,19.18233178542954,-1.61886311019116,-7.16264950368035e-06,5.93376577322087e-05,-1.295090488152928e-05,8.176436347533575e-05,8.134552059247924e-05
40.98584391825,5.264156081750002,2,0,2.531536723383881,19.07945877313596,-1.720498758972702,-7.162649503680348e-06,5.902903869532797e-05,-1.376399007178162e-05,8.130216710475831e-05,8.078784490597558e-05
40.26415608175,5.985843918250001,2,0,2.286226579706488,19.11457468624184,-1.657440489801252,-7.97573469393271e-06,5.93376577322087e-05,-1.325952391841002e-05,8.065046693994986e-05,8.115736048368538e-05
40.98584391825,5.985843918250001,2,0,2.260508326633097,19.01170167394828,-1.759076138582792,-7.97573469393271e-06,5.9029038695328e-05,-1.407260910866234e-05,8.018896745616244e-05,8.059613169955529e-05
41.51415608175001,5.264156081750001,2,0,2.475140301198909,18.98831119451662,-1.844396710405652,-7.270199991776786e-06,5.878248358149406e-05,-1.475517368324521e-05,8.079164759289376e-05,8.035337471300136e-05
42.23584391825,5.26415608175,2,0,2.44472512944824,18.86665050751394,-1.949574517720184,-7.270199991776784e-06,5.841750152048601e-05,-1.559659614176148e-05,8.024541810469258e-05,7.972405575787471e-05
41.51415608175001,5.985843918250001,2,0,2.194666148360165,18.91819265630694,-1.890019468031662,-8.11162245029302e-06,5.878248358149406e-05,-1.51201557442533e-05,7.964192047555966e-05,8.01581230599903e-05
42.23584391825,5.985843918250001,2,0,2.16425097660949,18.79653196930425,-1.995197275346189,-8.111622450293034e-06,5.841750152048601e-05,-1.596157820276951e-05,7.909657929805526e-05,7.952268998662388e-05
41.51415608175001,6.514156081750002,2,0,2.08497680259764,19.21417970721145,-1.752260017108162,-8.699417997456712e-06,5.981739362099852e-05,-1.40180801368653e-05,8.040925184091797e-05,8.004588943131902e-05
42.23584391825,6.514156081750002,2,0,2.056509838447362,19.10031185061036,-1.847818122216392,-8.699417997456725e-06,5.947579005119524e-05,-1.478254497773114e-05,7.989711972656765e-05,7.940589988426398e-05
41.51415608175001,7.235843918250001,2,0,1.830155188975694,19.15047430380596,-1.794960463333571,-9.463882838322548e-06,5.981739362099852e-05,-1.435968370666857e-05,7.936994713429538e-05,7.993451310846928e-05
42.23584391825,7.235843918250001,2,0,1.801688224825412,19.03660644720487,-1.890518568441799,-9.463882838322575e-06,5.947579005119524e-05,-1.512414854753439e-05,7.885859315605321e-05,7.92881891620328e-05
40.26415608175,4.014156081750001,2,0,2.973173530180116,18.95970251628287,-1.694213666222381,-5.653606716449924e-06,5.829250922796109e-05,-1.355370932977905e-05,8.224896530680614e-05,8.175827453642976e-05
40.98584391825,4.01415608175,2,0,2.945871398553464,18.85049398977626,-1.805067475092574,-5.653606716449921e-06,5.796488364844125e-05,-1.444053980074059e-05,8.175913138605637e-05,8.120675399964002e-05
40.26415608175,4.735843918250002,2,0,2.677563373192934,18.88579997703608,-1.735166863662359,-6.540437187411471e-06,5.829250922796109e-05,-1.388133490929887e-05,8.102766932387777e-05,8.15065350276276e-05
40.98584391825,4.735843918250001,2,0,2.65026124156628,18.77659145052947,-1.846020672532553,-6.540437187411478e-06,5.796488364844127e-05,-1.476816538026042e-05,8.05386147158856e-05,8.095146065815864e-05
40.26415608175,2.76415608175,2,0,3.425928150580943,18.7323044569119,-1.759695919470904,-4.022873483670505e-06,5.720263174165333e-05,-1.407756735576723e-05,8.284362363685055e-05,8.225109824923176e-05
40.98584391825,2.76415608175,2,0,3.397428904965468,18.61830747445,-1.879215178407043,-4.022873483670502e-06,5.686064079426761e-05,-1.503372142725634e-05,8.233323844567375e-05,8.170521752993039e-05
40.26415608175,3.485843918250001,2,0,3.107210126751245,18.65262495095448,-1.802444787894122,-4.979027555159598e-06,5.720263174165333e-05,-1.441955830315298e-05,8.151947658285296e-05,8.195777965036631e-05
40.98584391825,3.485843918250001,2,0,3.078710881135766,18.53862796849258,-1.921964046830257,-4.979027555159612e-06,5.686064079426764e-05,-1.537571237464206e-05,8.100993446368026e-05,8.14087225447144e-05
41.51415608175,2.76415608175,2,0,3.363374094786362,18.52534314017289,-1.991755846582072,-4.057477408821951e-06,5.659039877272415e-05,-1.593404677265658e-05,8.188550035016995e-05,8.128154083606489e-05
42.23584391825,2.76415608175,2,0,3.330347095966146,18.39323514489202,-2.113361938935881,-4.057477408821951e-06,5.619407478688155e-05,-1.690689551148705e-05,8.129436684807556e-05,8.066991530169374e-05
41.51415608175001,3.48584391825,2,0,3.03909118184287,18.44427241193701,-2.041296344812394,-5.030326147652428e-06,5.659039877272415e-05,-1.633037075849915e-05,8.054110225516129e-05,8.09822944903632e-05
42.23584391825,3.48584391825,2,0,3.006064183022653,18.31216441665615,-2.162902437166206,-5.030326147652428e-06,5.619407478688155e-05,-1.730321949732965e-05,7.995100057191205e-05,8.036632848570539e-05
41.51415608175001,4.01415608175,2,0,2.902247982690533,18.75826714729105,-1.923377396495717,-5.71942017322313e-06,5.770465648517891e-05,-1.538701917196573e-05,8.128430259575552e-05,8.077810589186458e-05
42.23584391825,4.01415608175,2,0,2.870303961686134,18.63049106327345,-2.037101290283319,-5.719420173223131e-06,5.732132823312613e-05,-1.629681032226656e-05,8.071155093796905e-05,8.015853801959376e-05
41.51415608175001,4.735843918250001,2,0,2.598984265923601,18.68245121809931,-1.97129342800232,-6.629211323523927e-06,5.770465648517891e-05,-1.577034742401856e-05,8.003432953574875e-05,8.051949861211806e-05
42.23584391825,4.735843918250001,2,0,2.5670402449192,18.55467513408172,-2.085017321789912,-6.629211323523934e-06,5.732132823312613e-05,-1.668013857431929e-05,7.946255045177266e-05,7.989443072481261e-05
40.26415608175,1.51415608175,2,0,3.914761751001629,18.50075390898605,-1.817388056917651,-2.273365523983629e-06,5.607060310795406e-05,-1.453910445534121e-05,8.355099585144333e-05,8.275699586701104e-05
40.98584391825,1.51415608175,2,0,3.885425546059435,18.38340908921727,-1.945454057350686,-2.273365523983629e-06,5.571856864864773e-05,-1.556363245880549e-05,8.302673414255514e-05,8.221555698867983e-05
40.26415608175,2.23584391825,2,0,3.573252416513538,18.41537657536403,-1.861392364330943,-3.297893527447903e-06,5.607060310795406e-05,-1.489113891464754e-05,8.212379669535797e-05,8.24652475890529e-05
40.98584391825,2.23584391825,2,0,3.543916211571344,18.29803175559526,-1.989458364763977,-3.297893527447903e-06,5.571856864864774e-05,-1.591566691811181e-05,8.160042642152747e-05,8.192140816760981e-05
40.26415608175,0.26415608175,2,0,4.440831565713476,18.26479019598626,-1.869165784761357,-4.011711465058822e-07,5.489466337458524e-05,-1.495332627809086e-05,8.437667510512197e-05,8.311864892951916e-05
40.98584391825,0.26415608175,2,0,4.41093213829495,18.14519248631215,-2.006168279115272,-4.011711465058822e-07,5.453587024556291e-05,-1.604934623292218e-05,8.384371292218493e-05,8.257958612226517e-05
40.26415608175,0.9858439182500001,2,0,4.075491580769701,18.17345519975031,-1.914014925889147,-1.497191101337206e-06,5.489466337458524e-05,-1.531211940711317e-05,8.284054152010039e-05,8.293207422851694e-05
40.98584391825,0.9858439182500001,2,0,4.045592153351175,18.05385749007621,-2.051017420243062,-1.497191101337206e-06,5.453587024556292e-05,-1.640813936194449e-05,8.230851033943199e-05,8.239191524010022e-05
41.51415608175001,0.26415608175,2,0,4.386839005636223,18.05152582379912,-2.108957154313298,-4.033358410033817e-07,5.425541143164821e-05,-1.687165723450638e-05,8.342455844265585e-05,8.216117410543642e-05
42.23584391825,0.26415608175,2,0,4.352886122298242,17.9157142904472,-2.246698905585998,-4.033358410033817e-07,5.384797683159243e-05,-1.797359124468799e-05,8.28198082141871e-05,8.155711402416829e-05
41.51415608175001,0.9858439182500001,2,0,4.019527668909022,17.95969798961732,-2.15988647932027,-1.505269851184987e-06,5.425541143164821e-05,-1.727909183456216e-05,8.188282483372555e-05,8.197277713857026e-05
42.23584391825,0.9858439182500001,2,0,3.985574785571041,17.8238864562654,-2.29762823059297,-1.505269851184987e-06,5.384797683159243e-05,-1.838102584474376e-05,8.127917745973348e-05,8.136782953817049e-05
41.51415608175001,1.51415608175,2,0,3.857662796273774,18.28998319339953,-2.052598838144563,-2.287465606643546e-06,5.544181598185946e-05,-1.642079070515651e-05,8.259693631022062e-05,8.179546298561081e-05
42.23584391825,1.51415608175,2,0,3.823990472313641,18.155293897559,-2.181981905055408,-2.287465606643546e-06,5.503774809433787e-05,-1.745585524044326e-05,8.199553303042167e-05,8.118918370355368e-05
41.51415608175,2.23584391825,2,0,3.512641284511526,18.20372781545897,-2.10310732408476,-3.32253014193029e-06,5.544181598185946e-05,-1.682485859267807e-05,8.11578426375006e-05,8.149942867767014e-05
42.23584391825,2.23584391825,2,0,3.478968960551395,18.06903851961844,-2.232490390995605,-3.32253014193029e-06,5.50377480943379e-05,-1.785992312796484e-05,8.05575112252789e-05,8.089039869279706e-05
42.76415608175,21.51415608175,2,0.7536601018925385,4.874050263331941,21.67874847797762,-0.1247972087227109,-7.087921823196518e-06,0.0002657821791023939,-4.052845996332119e-06,0.0004006237023765998,0.0003654574413423833
43.48584391825001,21.51415608175,2,0.7550722799987339,4.877832295066964,21.68136484489628,-0.07219865428800346,-7.087921823196518e-06,0.0002673364275275826,-2.358202796731387e-06,0.0004030234261987099,0.0003672971718790681
42.76415608175,22.23584391825,2,0.7775275966792934,4.527481459670501,19.60974541014388,-0.06948362582294014,-5.393278623595584e-06,0.0002657821791023937,-2.498597571143259e-06,0.0004030086343105376,0.0003992863413265133
43.48584391825001,22.23584391825,2,0.7796174705651953,4.513495047377867,19.53971067077979,-0.0221471872438314,-5.393278623595584e-06,0.0002673364275275826,-8.039543715422561e-07,0.0004054090886329315,0.0004025524286571417
42.76415608175,20.26415608175,2,0.692190571076418,4.555776414319149,22.03007496818262,-0.1265302825117985,-9.894353981862354e-06,0.0002171850907898144,-3.288535583962542e-06,0.000321608307904514,0.0003001326783082726
43.48584391825001,20.26415608175,2,0.691771268535187,4.557752670566414,22.04316590288222,-0.06504253990182249,-9.894353981862354e-06,0.0002170204199812121,-1.688162932578468e-06,0.0003213526961412816,0.0002997676785456696
42.76415608175,20.98584391825,2,0.7315409342122241,4.116577388158426,19.24955265218549,-0.1158805702650463,-8.293981330478178e-06,0.0002171850907898142,-3.453206392564981e-06,0.000323854259281184,0.000338889297410885
43.48584391825001,20.98584391825,2,0.732317629896147,4.100994171745528,19.1791674121565,-0.0619963659059654,-8.293981330478178e-06,0.0002170204199812119,-1.852833741181016e-06,0.0003235985596945665,0.0003397560810933215
44.01415608175001,20.26415608175,2,0.6913610593442876,4.508096268984644,22.04183918363684,-0.1371808812933473,-1.039260723013124e-05,0.0002168469352255451,-3.555763404368938e-06,0.0003203877218966669,0.0002994114580003801
44.73584391825,20.26415608175,2,0.6906583909923809,4.510386469152378,22.06012817955078,-0.06680230996356562,-1.039260723013124e-05,0.000216537636867308,-1.727599728413394e-06,0.000319908445548167,0.000298803245134511
44.01415608175001,20.98584391825,2,0.7328793289614796,4.064444934420199,19.11745462425949,-0.129054736454099,-8.564443554175737e-06,0.0002168469352255451,-3.865061762606562e-06,0.000322952611128662,0.0003403857212484024
44.73584391825,20.98584391825,2,0.7336373300985388,4.046045907073897,19.03574369243385,-0.06781920158469289,-8.564443554175737e-06,0.0002165376368673079,-2.036898086651018e-06,0.0003224731386169494,0.0003412391464602054
44.01415608175001,21.51415608175,2,0.756148543630818,4.875790463398061,21.68414828035327,-0.1290128417763966,-7.155131108863563e-06,0.0002685595694260059,-4.23250592626606e-06,0.0004048199642421853,0.0003687118889742836
44.73584391825,21.51415608175,2,0.7576749218527696,4.881365727685715,21.69279754212916,-0.06695309835151952,-7.155131108863563e-06,0.0002703470068123178,-2.210356397725887e-06,0.0004075796772840147,0.000370737237420228
44.01415608175001,22.23584391825,2,0.7812403235521541,4.52153724630905,19.4897607223916,-0.06686030033665172,-5.132981580323483e-06,0.0002685595694260059,-2.445068539954319e-06,0.000407666160141096,0.0004051261551403764
44.73584391825,22.23584391825,2,0.7835774032575059,4.505469035441883,19.41049264507378,-0.01144115383275958,-5.132981580323483e-06,0.0002703470068123179,-4.229190114144171e-07,0.0004104268614291517,0.00040889161932703
42.76415608175,19.01415608175,2,0.5965437733691218,4.040007554685832,22.27243885424468,-0.175554694386812,-1.212009280222331e-05,0.0001686423304406797,-3.481015937769661e-06,0.0002435210304489469,0.0002349627309453544
43.48584391825001,19.01415608175,2,0.5929506242769678,4.030596048704245,22.28922945587975,-0.1160335253882467,-1.212009280222331e-05,0.0001673041686868712,-2.280480596382473e-06,0.0002414531661688538,0.000233063744538795
42.76415608175,19.73584391825,2,0.6569511898219182,3.572398835407523,18.97202183489382,-0.206651646641588,-1.091955746083599e-05,0.0001686423304406801,-4.819177691578339e-06,0.00024519921603573,0.0002722856387525609
43.48584391825001,19.73584391825,2,0.6554011668321618,3.550112856229836,18.9040348745609,-0.1558724914409469,-1.091955746083599e-05,0.0001673041686868712,-3.618642350191096e-06,0.0002431305268995376,0.0002711795531281843
42.76415608175,17.76415608175,2,0.4559764361427439,3.293091384091604,22.36733825824161,-0.2921242287500529,-1.352143301540933e-05,0.0001267243073632541,-4.295758465737372e-06,0.000176860016177732,0.0001782106670878351
43.48584391825001,17.76415608175,2,0.4473352413571274,3.259351417121672,22.3784300609454,-0.2481180631809508,-1.352143301540933e-05,0.0001248559709701292,-3.591588706183926e-06,0.0001739751406457031,0.0001756052804312659
42.76415608175,18.48584391825,2,0.5435268773776016,2.870274630564165,18.79451874959894,-0.3517179535456944,-1.281726325585579e-05,0.0001267243073632542,-6.164094858862319e-06,0.0001778409870617141,0.0002097554182605949
43.48584391825001,18.48584391825,2,0.5380439761878255,2.832826668271094,18.73257163537066,-0.3152806611486337,-1.281726325585579e-05,0.0001248559709701293,-5.459925099308982e-06,0.000174955110378038,0.0002074546953532608
44.01415608175001,17.76415608175,2,0.4402396143179607,3.091556681727274,22.34889911492648,-0.3500657697230644,-1.426706518483477e-05,0.0001233442622743967,-5.003080299032268e-06,0.0001706149961881079,0.0001735223042105403
44.73584391825,17.76415608175,2,0.4294097703445089,3.043826559361777,22.35111623785302,-0.306478458039699,-1.426706518483477e-05,0.0001210825337043613,-4.297002536825679e-06,0.0001671234586157549,0.0001704368940008876
44.01415608175001,18.48584391825,2,0.533506786785565,2.68623557094814,18.65257803022058,-0.4236230040900299,-1.356098742262829e-05,0.0001233442622743967,-7.264808869067961e-06,0.0001715991942449314,0.00020558874752426
44.73584391825,18.48584391825,2,0.5265484474258025,2.637069281101443,18.57386531150894,-0.3881551781825268,-1.356098742262829e-05,0.0001210825337043613,-6.558731106861399e-06,0.0001681064010389436,0.0002027916061582745
44.01415608175001,19.01415608175,2,0.5899536193470666,3.925536873325942,22.27775979495009,-0.2029901512619755,-1.282901176432912e-05,0.0001661968134840358,-3.960335432079583e-06,0.0002387571172558882,0.000231503233734453
44.73584391825,19.01415608175,2,0.5853346208021202,3.911454811546236,22.29550303117194,-0.1382192967367072,-1.282901176432912e-05,0.0001645096245615433,-2.666618505824158e-06,0.0002361501012525234,0.0002291388253376088
44.01415608175001,19.73584391825,2,0.6540695134420831,3.460908660767697,18.83164733797564,-0.2442063559780986,-1.153529483807376e-05,0.0001661968134840358,-5.647524354572032e-06,0.0002405646255246684,0.0002702364834020336
44.73584391825,19.73584391825,2,0.6519744645203441,3.432936793986915,18.74996862961807,-0.1894045202018988,-1.153529483807376e-05,0.0001645096245615434,-4.353807428316607e-06,0.0002379564534879822,0.0002687660546193765
42.76415608175,16.51415608175,2,0.2666721246280772,2.315724496985685,22.23958077637886,-0.4892878195475158,-1.415648658587234e-05,9.451990196291077e-05,-5.337725031105499e-06,0.0001263144233819152,0.0001345137034353428
43.48584391825001,16.51415608175,2,0.2516049912089766,2.245539074971731,22.22546117849185,-0.4735015956603202,-1.415648658587234e-05,9.263162326962333e-05,-5.061515270394194e-06,0.0001234029918185211,0.0001319399796019781
42.76415608175,17.23584391825,2,0.3816647025854606,2.009527608025108,18.76644180570301,-0.5585116452551238,-1.388027682516099e-05,9.451990196291077e-05,-7.226003724392798e-06,0.0001267022758420348,0.0001580497103639034
43.48584391825001,17.23584391825,2,0.3703374724403344,1.94725844033925,18.7138964975554,-0.5470031041488245,-1.388027682516099e-05,9.263162326962349e-05,-6.949793963681493e-06,0.0001237903459776505,0.0001553711733296736
42.76415608175,15.26415608175,2,0.05581078434939291,1.211603297022278,21.77064177120565,-0.7609041370339127,-1.433969234351372e-05,7.275741969039941e-05,-6.447047896090198e-06,9.25587538843943e-05,0.0001056733018306669
43.48584391825001,15.26415608175,2,0.03702092047677352,1.108874729756613,21.69652858603032,-0.7688114597433362,-1.433969234351372e-05,7.117682320308241e-05,-6.386942155578099e-06,9.012769283771552e-05,0.0001036926762847291
42.76415608175,15.98584391825,2,0.1766870245078528,1.072987662897851,18.98766182023504,-0.8261579729369727,-1.427958660300143e-05,7.275741969039963e-05,-8.027644383407171e-06,9.265223042432747e-05,0.0001204794870668563
43.48584391825001,15.98584391825,2,0.1592532347486268,0.9849682405382767,18.94676826915348,-0.8373352926286655,-1.427958660300143e-05,7.117682320308252e-05,-7.967538642895044e-06,9.022127865063138e-05,0.000118092768053162
44.01415608175001,15.26415608175,2,0.02212551746626124,0.8523472691766232,21.61272871847238,-0.9386811899862048,-1.489216865101116e-05,7.002826569963967e-05,-7.67935931862354e-06,8.762781566073944e-05,0.0001021745893643088
44.73584391825,15.26415608175,2,8.029575276091716e-05,0.7417962761231278,21.58090119589138,-0.9543306566312137,-1.489216865101116e-05,6.84709447320034e-05,-7.635258331864991e-06,8.523501695096048e-05,0.0001000077243131764
44.01415608175001,15.98584391825,2,0.1452754288377748,0.7575705251412046,18.89404243420995,-0.9868521995795169,-1.484806766425272e-05,7.002826569963967e-05,-9.236680286259973e-06,8.770196514775117e-05,0.0001162464828777573
44.73584391825,15.98584391825,2,0.1243581392232931,0.6624722550343156,18.90187601821814,-1.006175905394114,-1.484806766425272e-05,6.847094473200348e-05,-9.192579299501479e-06,8.530939891615981e-05,0.0001135890569867705
44.01415608175001,16.51415608175,2,0.2394356766683318,2.033124317342117,22.17172734205148,-0.5986499072518673,-1.476717184017663e-05,9.114683125947853e-05,-6.296902327781757e-06,0.0001202859663342255,0.000129932145843331
44.73584391825,16.51415608175,2,0.2211032106543933,1.941393456859386,22.14320224497309,-0.5958552467492851,-1.476717184017663e-05,8.897858274220562e-05,-6.119991813034899e-06,0.0001169449915193311,0.0001270203658346868
44.01415608175001,17.23584391825,2,0.3610866047501539,1.745606485183888,18.63481769200168,-0.6760622834645255,-1.459026132542984e-05,9.114683125947853e-05,-8.465150845055015e-06,0.0001205407954270625,0.0001532501788886832
44.73584391825,17.23584391825,2,0.3470204487404914,1.666052154879994,18.57313648581765,-0.6765064314519456,-1.459026132542984e-05,8.897858274220562e-05,-8.28824033030813e-06,0.0001171996093753081,0.0001501340513473097
42.76415608175,14.01415608175,2,0,0.6258688853917231,20.22234916440434,-1.05249472886717,-1.417509889826995e-05,6.42108222177805e-05,-8.419957830937356e-06,7.966274817480669e-05,9.021955860807497e-05
43.48584391825001,14.01415608175,2,0,0.61105463651612,20.16309216890193,-1.069569235010039,-1.417509889826995e-05,6.403305123127325e-05,-8.556553880080314e-06,7.939123023800851e-05,8.88975102846523e-05
42.76415608175,14.73584391825,2,0,0.5803368690107789,20.2109661603091,-1.074716102180575,-1.431169494741279e-05,6.42108222177805e-05,-8.5977288174446e-06,7.948141533897601e-05,9.756517843736527e-05
43.48584391825001,14.73584391825,2,0,0.565522620135182,20.15170916480671,-1.091790608323431,-1.431169494741279e-05,6.403305123127334e-05,-8.734324866587449e-06,7.920997324999582e-05,9.58698305430819e-05
42.76415608175,12.76415608175,2,0,0.693474511725138,20.05908972242098,-1.253436259895864,-1.382815334041634e-05,6.363430750236702e-05,-1.002749007916691e-05,7.92616155021598e-05,8.334494142089931e-05
43.48584391825001,12.76415608175,2,0,0.6731244873170974,19.97768962478882,-1.280608881740381,-1.382815334041634e-05,6.339010720947052e-05,-1.024487105392305e-05,7.888942374253662e-05,8.23616598469071e-05
42.76415608175,13.48584391825,2,0,0.6210141868064536,20.04097464119134,-1.283961296507952,-1.404553431517242e-05,6.363430750236712e-05,-1.027169037206362e-05,7.89729457702078e-05,8.640925758345235e-05
43.48584391825001,13.48584391825,2,0,0.6006641623984104,19.95957454355917,-1.311133918352456,-1.404553431517242e-05,6.33901072094706e-05,-1.048907134681965e-05,7.860092307023726e-05,8.527800685550316e-05
44.01415608175001,12.76415608175,2,0,0.497318515249713,19.87024281109355,-1.446914383143861,-1.430477500007576e-05,6.318692218329957e-05,-1.157531506515089e-05,7.795685654627919e-05,8.159693877055944e-05
44.73584391825,12.76415608175,2,0,0.4714092217528183,19.76660563710597,-1.481554984769327,-1.430477500007576e-05,6.287601066133684e-05,-1.185243987815462e-05,7.748401575790588e-05,8.049096351026228e-05
44.01415608175001,13.48584391825,2,0,0.4049435775817605,19.84714907667656,-1.485778323389209,-1.458189981307961e-05,6.318692218329957e-05,-1.188622658711367e-05,7.759076550866451e-05,8.440414002882989e-05
44.73584391825,13.48584391825,2,0,0.3790342840848613,19.74351190268896,-1.520418925014686,-1.458189981307961e-05,6.287601066133679e-05,-1.216335140011749e-05,7.711821902859484e-05,8.314794218715724e-05
44.01415608175001,14.01415608175,2,0,0.4132155324340596,20.06645912896236,-1.239435397922271,-1.47308775993809e-05,6.38820967867323e-05,-9.915483183378171e-06,7.843084915646646e-05,8.788138229258433e-05
44.73584391825,14.01415608175,2,0,0.3936618469653173,19.98824438708739,-1.255671656470754,-1.47308775993809e-05,6.364745256110739e-05,-1.004537325176603e-05,7.807251120940922e-05,8.64273173145663e-05
44.01415608175001,14.73584391825,2,0,0.3699188429714182,20.0556349565967,-1.268765926125382,-1.486076766776882e-05,6.38820967867323e-05,-1.015012740900306e-05,7.826017973589304e-05,9.457418356952066e-05
44.73584391825,14.73584391825,2,0,0.350365157502682,19.97742021472175,-1.285002184673868,-1.486076766776882e-05,6.364745256110747e-05,-1.028001747739094e-05,7.790194624199604e-05,9.272975810321142e-05
42.76415608175,11.51415608175,2,0,0.8290536940023738,19.87203922561978,-1.430564549980122,-1.324465955968822e-05,6.292728256678139e-05,-1.144451639984097e-05,7.897920999239228e-05,8.044791419696227e-05
43.48584391825001,11.51415608175,2,0,0.8053649189273777,19.7772841253198,-1.476677054575677,-1.324465955968822e-05,6.264301726588144e-05,-1.181341643660542e-05,7.854806852538924e-05,7.960168893948166e-05
42.76415608175,12.23584391825,2,0,0.7060870150809393,19.84129755588942,-1.466097712592604,-1.361355959645253e-05,6.292728256678139e-05,-1.172878170074083e-05,7.848745147602391e-05,8.174760427473439e-05
43.48584391825001,12.23584391825,2,0,0.6823982400059458,19.74654245558945,-1.512210217188155,-1.361355959645253e-05,6.264301726588146e-05,-1.209768173750524e-05,7.805664746340547e-05,8.084069504537417e-05
42.76415608175,10.26415608175,2,0,1.034003064985122,19.66754348729783,-1.592825757347584,-1.242522498188587e-05,6.210893670736495e-05,-1.274260605878067e-05,7.884608398155582e-05,7.92384725246265e-05
43.48584391825001,10.26415608175,2,0,1.007618879901673,19.56200674696403,-1.655453417035243,-1.242522498188587e-05,6.179232648636356e-05,-1.324362733628194e-05,7.836793460612191e-05,7.845067651452808e-05
42.76415608175,10.98584391825,2,0,0.8669959724847445,19.62579171417275,-1.632402034972757,-1.292624625938702e-05,6.2108936707365e-05,-1.305921627978206e-05,7.817595592598156e-05,7.977559437083849e-05
43.48584391825001,10.98584391825,2,0,0.8406117874013006,19.52025497383898,-1.69502969466041,-1.292624625938702e-05,6.179232648636368e-05,-1.356023755728328e-05,7.769832135564766e-05,7.896128540426597e-05
44.01415608175001,10.26415608175,2,0,0.8743916652622321,19.44708160187857,-1.813395547469005,-1.275961195266371e-05,6.153114779380164e-05,-1.450716437975204e-05,7.753853558383011e-05,7.783360756105897e-05
44.73584391825,10.26415608175,2,0,0.8413130621819995,19.31476718955764,-1.880966170686564,-1.275961195266371e-05,6.113420455683885e-05,-1.504772936549252e-05,7.693952596579727e-05,7.693553983843473e-05
44.01415608175001,10.98584391825,2,0,0.6942033366820368,19.40203451973353,-1.863013452089356,-1.33001769384043e-05,6.153114779380164e-05,-1.490410761671485e-05,7.681942001763081e-05,7.832297610795953e-05
44.73584391825,10.98584391825,2,0,0.661124733601806,19.2697201074126,-1.930584075306915,-1.33001769384043e-05,6.113420455683888e-05,-1.544467260245532e-05,7.622115167354144e-05,7.739339164600521e-05
44.01415608175001,11.51415608175,2,0,0.6515394209786418,19.66501453353312,-1.639702981173152,-1.364708547969484e-05,6.240681497052307e-05,-1.311762384938521e-05,7.766543426460372e-05,7.893897658511388e-05
44.73584391825,11.51415608175,2,0,0.6214518067360757,19.54466407656286,-1.690603828008803,-1.364708547969484e-05,6.204576359961227e-05,-1.352483062407042e-05,7.711838890844928e-05,7.797463801958116e-05
44.01415608175001,12.23584391825,2,0,0.5158038294168783,19.63108063564268,-1.684834402537027,-1.405429225438013e-05,6.240681497052307e-05,-1.347867522029622e-05,7.712581301405502e-05,8.013255263935722e-05
44.73584391825,12.23584391825,2,0,0.485716215174314,19.51073017867242,-1.73573524937268,-1.405429225438013e-05,6.20457635996123e-05,-1.388588199498144e-05,7.657927396960541e-05,7.910478083640285e-05
42.76415608175,9.01415608175,2,0,1.300149468063367,19.45188272852185,-1.739886946111975,-1.140102788501471e-05,6.120590515681923e-05,-1.39190955688958e-05,7.886299353784704e-05,7.87940437492756e-05
43.48584391825001,9.01415608175,2,0,1.271069665622342,19.33556351875775,-1.816826454260687,-1.140102788501471e-05,6.085694752752693e-05,-1.453461163408549e-05,7.83377767636834e-05,7.803623536103823e-05
42.76415608175,9.735843918250001,2,0,1.094977446333467,19.4005897230894,-1.78350664977352,-1.201654395020442e-05,6.120590515681928e-05,-1.426805319818816e-05,7.803664237502565e-05,7.897546682825664e-05
43.48584391825001,9.735843918250001,2,0,1.065897643892447,19.28427051332531,-1.860446157922231,-1.201654395020442e-05,6.085694752752704e-05,-1.488356926337785e-05,7.751212142202659e-05,7.820281010249455e-05
42.76415608175,7.76415608175,2,0,1.619715496676771,19.22766027152877,-1.869742089992141,-1.019903862785734e-05,6.023274047155063e-05,-1.495793671993713e-05,7.901780262583021e-05,7.873709635085071e-05
43.48584391825001,7.76415608175,2,0,1.588158222361279,19.10143117426679,-1.959115861718434,-1.019903862785734e-05,5.98540531797647e-05,-1.567292689374747e-05,7.844938275984072e-05,7.800052548178238e-05
42.76415608175,8.485843918250001,2,0,1.381385438739986,19.16807775704457,-1.917078001465383,-1.09140288016677e-05,6.023274047155063e-05,-1.533662401172306e-05,7.805372077025603e-05,7.873017257235724e-05
43.48584391825001,8.485843918250001,2,0,1.349828164424496,19.04184865978261,-2.006451773191672,-1.09140288016677e-05,5.985405317976475e-05,-1.605161418553338e-05,7.748616706211922e-05,7.798203336027885e-05
44.01415608175001,7.76415608175,2,0,1.499170537700698,18.98416815220434,-2.103700521986125,-1.038998880112124e-05,5.955000165689333e-05,-1.6829604175889e-05,7.774640409490288e-05,7.742870856833548e-05
44.73584391825,7.76415608175,2,0,1.46150412796298,18.83350251325347,-2.198252139993395,-1.038998880112124e-05,5.909800474004071e-05,-1.758601711994716e-05,7.706867775962209e-05,7.660304657717323e-05
44.01415608175001,8.485843918250001,2,0,1.247032889681291,18.92113374019949,-2.160200136592716,-1.114640174517946e-05,5.955000165689333e-05,-1.728160109274173e-05,7.673078998885936e-05,7.739940370528594e-05
44.73584391825,8.485843918250001,2,0,1.209366479943572,18.77046810124861,-2.254751754599986,-1.114640174517946e-05,5.90980047400407e-05,-1.803801403679989e-05,7.60542210233349e-05,7.655576909785967e-05
44.01415608175001,9.01415608175,2,0,1.159800744982256,19.21902540043735,-1.968399661015915,-1.166385793640666e-05,6.057304068541371e-05,-1.574719728812732e-05,7.75693923712035e-05,7.744484940254537e-05
44.73584391825,9.01415608175,2,0,1.124243220981383,19.07679530443386,-2.050562618656632,-1.166385793640666e-05,6.014635039740325e-05,-1.640450094925305e-05,7.692775140678493e-05,7.658696130522874e-05
44.01415608175001,9.735843918250001,2,0,0.9406995246069965,19.16425009534354,-2.021735947017228,-1.232116159753244e-05,6.057304068541371e-05,-1.617388757613783e-05,7.669117576339019e-05,7.759831421949836e-05
44.73584391825,9.735843918250001,2,0,0.9051420006061273,19.02201999934006,-2.103898904657947,-1.232116159753244e-05,6.014635039740329e-05,-1.683119123726358e-05,7.605049866104521e-05,7.671945747987844e-05
42.76415608175,6.51415608175,2,0,1.985454663074387,18.9972011692761,-1.981879639294637,-8.844306013582836e-06,5.920268001122399e-05,-1.58550371143571e-05,7.929912410624648e-05,7.890893817486319e-05
43.48584391825001,6.51415608175,2,0,1.951742418450459,18.86235219078038,-2.081898647378158,-8.844306013582836e-06,5.879813307573685e-05,-1.665518917902526e-05,7.869319992471203e-05,7.819120308236131e-05
42.76415608175,7.235843918250001,2,0,1.71873730818501,18.93052183055375,-2.03244800623054,-9.644458078250968e-06,5.920268001122399e-05,-1.625958404984432e-05,7.821488597381244e-05,7.878499644967514e-05
43.48584391825001,7.235843918250001,2,0,1.685025063561082,18.79567285205804,-2.132467014314047,-9.644458078250968e-06,5.879813307573686e-05,-1.705973611451238e-05,7.760997411377648e-05,7.805657233989367e-05
42.76415608175,5.26415608175,2,0,2.39072281545726,18.76269458698685,-2.07718846162869,-7.359842660126249e-06,5.812804442599211e-05,-1.661750769302952e-05,7.969696970324293e-05,7.923737811832215e-05
43.48584391825001,5.26415608175,2,0,2.355237029807746,18.62075144438879,-2.186226273775371,-7.359842660126249e-06,5.770221499819794e-05,-1.748981019020297e-05,7.906029301595055e-05,7.853706903522689e-05
42.76415608175,5.985843918250001,2,0,2.099955316399452,18.6900027122224,-2.130417140102959,-8.232145157299672e-06,5.812804442599211e-05,-1.704333712082367e-05,7.850856402301536e-05,7.903015347764403e-05
43.48584391825001,5.985843918250001,2,0,2.064469530749937,18.54805956962434,-2.23945495224964,-8.232145157299672e-06,5.770221499819793e-05,-1.791563961799712e-05,7.787301300108913e-05,7.831995178383766e-05
44.01415608175001,5.26415608175,2,0,2.305940720038651,18.50371937417292,-2.315759911451943,-7.42396519521465e-06,5.736714942132241e-05,-1.852607929161554e-05,7.848028669429713e-05,7.799925990149935e-05
44.73584391825,5.26415608175,2,0,2.265141824027321,18.3405237901276,-2.428914496695187,-7.42396519521465e-06,5.687756266918645e-05,-1.943131597356149e-05,7.774924425840271e-05,7.723024710641391e-05
44.01415608175001,5.985843918250001,2,0,2.004195159389988,18.42828298401075,-2.376958255468941,-8.32920187716064e-06,5.736714942132241e-05,-1.901566604375153e-05,7.725106110460081e-05,7.777291918759765e-05
44.73584391825,5.985843918250001,2,0,1.963396263378658,18.26508739996543,-2.490112840712182,-8.32920187716064e-06,5.687756266918646e-05,-1.992090272569746e-05,7.652143385970548e-05,7.698860003501641e-05
44.01415608175001,6.51415608175,2,0,1.883908583204931,18.74501929861809,-2.219102455166818,-8.967507972638691e-06,5.847693488901393e-05,-1.775281964133454e-05,7.805489024131806e-05,7.763710672781061e-05
44.73584391825,6.51415608175,2,0,1.844493347373594,18.58735835529274,-2.323933455386217,-8.967507972638691e-06,5.80039520590379e-05,-1.859146764308974e-05,7.734734407638649e-05,7.684102242732686e-05
44.01415608175001,7.235843918250001,2,0,1.604359249286518,18.67513196513849,-2.278225308913827,-9.80615597439393e-06,5.847693488901393e-05,-1.822580247131062e-05,7.692272187722951e-05,7.749240090125742e-05
44.73584391825,7.235843918250001,2,0,1.564944013455181,18.51747102181314,-2.383056309133233,-9.80615597439393e-06,5.80039520590379e-05,-1.906445047306586e-05,7.621648560279549e-05,7.667947997643988e-05
42.76415608175,4.01415608175,2,0,2.829950904240372,18.52600892484493,-2.157868970833385,-5.764964246306752e-06,5.701926783611146e-05,-1.726295176666708e-05,8.020346114160336e-05,7.968095394983407e-05
43.48584391825,4.01415608175,2,0,2.793124562608643,18.37870355831801,-2.274593880978141,-5.764964246306752e-06,5.657735173653072e-05,-1.819675104782513e-05,7.954376816415734e-05,7.899573787858038e-05
42.76415608175,4.735843918250001,2,0,2.518684477187698,18.44819231808176,-2.213108483280983,-6.698763527464773e-06,5.701926783611146e-05,-1.770486786624787e-05,7.892390846517455e-05,7.941175957927383e-05
43.48584391825,4.735843918250001,2,0,2.481858135555968,18.30088695155484,-2.329833393425739,-6.698763527464773e-06,5.657735173653071e-05,-1.863866714740592e-05,7.826541872253131e-05,7.871814537356375e-05
42.76415608175,2.76415608175,2,0,3.299317865118124,18.28841937188934,-2.227291005822772,-4.072918329133477e-06,5.588348769795139e-05,-1.781832804658218e-05,8.081394276182613e-05,8.019942383035782e-05
43.48584391825,2.76415608175,2,0,3.261633221674323,18.13768079811414,-2.350847607929418,-4.072918329133477e-06,5.543127197662578e-05,-1.880678086343534e-05,8.01399850182091e-05,7.952564276045675e-05
42.76415608175,3.48584391825,2,0,2.969833592833742,18.20604830381825,-2.283817970988472,-5.061371145986622e-06,5.588348769795139e-05,-1.827054376790778e-05,7.945127050557587e-05,7.989200794981232e-05
43.48584391825,3.48584391825,2,0,2.932148949389942,18.05530973004304,-2.407374573095115,-5.061371145986622e-06,5.543127197662578e-05,-1.925899658476092e-05,7.87785609119901e-05,7.921210615128188e-05
44.01415608175,2.76415608175,2,0,3.235605789956518,18.02140993556787,-2.464932021611697,-4.063189420593438e-06,5.508002716185197e-05,-1.971945617289357e-05,7.963475758050354e-05,7.901202575925421e-05
44.73584391825,2.76415608175,2,0,3.19332221007548,17.85227561604372,-2.590232874744836,-4.063189420593438e-06,5.45726242032795e-05,-2.072186299795869e-05,7.887939905099486e-05,7.828257908617908e-05
44.01415608175,3.48584391825,2,0,2.901470181601483,17.93787603347911,-2.528357391433254,-5.065596245658545e-06,5.508002716185197e-05,-2.022685913146603e-05,7.825651748982704e-05,7.869301408430597e-05
44.73584391825,3.48584391825,2,0,2.859186601720446,17.76874171395497,-2.653658244566393,-5.065596245658545e-06,5.457262420327953e-05,-2.122926595653114e-05,7.750264861216134e-05,7.795472998199203e-05
44.01415608175,4.01415608175,2,0,2.758231600770987,18.26208624133009,-2.396310481169182,-5.783327870596912e-06,5.623209069163949e-05,-1.917048384935345e-05,7.900989614687145e-05,7.847182335195168e-05
44.73584391825,4.01415608175,2,0,2.716452049356287,18.09496803567129,-2.516119536237787,-5.783327870596912e-06,5.573073607466309e-05,-2.01289562899023e-05,7.826241926269173e-05,7.772567831757152e-05
44.01415608175001,4.735843918250001,2,0,2.438740787254714,18.18221353795103,-2.458979808291233,-6.741800311145739e-06,5.623209069163951e-05,-1.967183846632986e-05,7.770037689808221e-05,7.818653070791894e-05
44.73584391825,4.735843918250001,2,0,2.396961235840012,18.01509533229222,-2.578788863359836,-6.741800311145739e-06,5.573073607466309e-05,-2.063031090687869e-05,7.69543730703399e-05,7.742774663697694e-05
42.76415608175,1.51415608175,2,0,3.797548237198296,18.05025781515763,-2.289699317060386,-2.288051893091554e-06,5.472278641874577e-05,-1.831759453648309e-05,8.15283217999853e-05,8.072314570795172e-05
43.48584391825,1.51415608175,2,0,3.759512952809156,17.89811667760107,-2.419919039797649,-2.288051893091554e-06,5.426636300607608e-05,-1.935935231838119e-05,8.084949592790776e-05,8.005618550771258e-05
42.76415608175,2.23584391825,2,0,3.450295643232255,17.96344466666612,-2.346752243644096,-3.329809674989681e-06,5.472278641874577e-05,-1.877401794915276e-05,8.008311102550957e-05,8.042212652144336e-05
43.48584391825,2.23584391825,2,0,3.412260358843114,17.81130352910956,-2.476971966381359,-3.329809674989681e-06,5.426636300607608e-05,-1.981577573105087e-05,7.940555470330928e-05,7.975181314235311e-05
42.76415608175,0.26415608175,2,0,4.326710957348278,17.81052134624434,-2.349660445083983,-4.029420134809849e-07,5.353229954210327e-05,-1.879728356067186e-05,8.235238578541636e-05,8.109266103093e-05
43.48584391825001,0.26415608175,2,0,4.288793307876536,17.65885074835737,-2.487267701756603,-4.029420134809849e-07,5.307728774844236e-05,-1.989814161405283e-05,8.16775946895334e-05,8.042781193688972e-05
42.76415608175,0.9858439182500001,2,0,3.959758272887959,17.71878317512926,-2.406536919291597,-1.503800066861942e-06,5.353229954210327e-05,-1.925229535433277e-05,8.081526279135404e-05,8.090281488826027e-05
43.48584391825001,0.9858439182500001,2,0,3.921840623416216,17.56711257724229,-2.544144175964217,-1.503800066861942e-06,5.307728774844236e-05,-2.035315340771373e-05,8.014175369857064e-05,8.023731883878744e-05
44.01415608175001,0.26415608175,2,0,4.260939654726436,17.54274121123937,-2.589555693333696,-3.991860738668985e-07,5.272802015218483e-05,-2.071644554666957e-05,8.116556251623741e-05,7.992167205621664e-05
44.73584391825,0.26415608175,2,0,4.219339235993714,17.37633953630848,-2.72588027277428,-3.991860738668985e-07,5.222881512739216e-05,-2.180704218219424e-05,8.042594979751447e-05,7.920372128046242e-05
44.01415608175001,0.9858439182500001,2,0,3.897407442884875,17.45185815827898,-2.651956321432781,-1.489782709391582e-06,5.272802015218483e-05,-2.121565057146225e-05,7.964626789402581e-05,7.973077879731841e-05
44.73584391825,0.9858439182500001,2,0,3.855807024152153,17.28545648334809,-2.788280900873364,-1.489782709391582e-06,5.222881512739216e-05,-2.230624720698691e-05,7.890811299263078e-05,7.901238171737092e-05
44.01415608175001,1.51415608175,2,0,3.735850674774573,17.7820267354009,-2.527196295421478,-2.270899229042084e-06,5.391380501346321e-05,-2.021757036337182e-05,8.035173122367386e-05,7.954845791002016e-05
44.73584391825,1.51415608175,2,0,3.693618763457558,17.61309909013284,-2.657627968281802,-2.270899229042084e-06,5.340702207765904e-05,-2.126102374625442e-05,7.959873647128152e-05,7.882828051689972e-05
44.01415608175,2.23584391825,2,0,3.388032880480366,17.69507228682735,-2.590544162397001,-3.314352611924708e-06,5.391380501346322e-05,-2.072435329917601e-05,7.890772447571281e-05,7.924124124151737e-05
44.73584391825,2.23584391825,2,0,3.345800969163353,17.5261446415593,-2.720975835257326,-3.314352611924708e-06,5.340702207765906e-05,-2.176780668205861e-05,7.815620771883847e-05,7.851664624654809e-05
45.26415608175001,21.51415608175,2,0.758811497167845,4.869260633924641,21.6989940600993,-0.137453909410047,-7.370008100085959e-06,0.0002717433530850715,-4.55921929266097e-06,0.0004094364090643939,0.0003722600079616557
45.98584391825,21.51415608175,2,0.7603892700492648,4.877890855134621,21.71897969629402,-0.06434906084657536,-7.370008100085959e-06,0.0002737708046610451,-2.148453397218255e-06,0.0004125665348306617,0.0003743949460033378
45.26415608175001,22.23584391825,2,0.7853730973096822,4.505490585252972,19.35244583360397,-0.06792318292049948,-4.959242204643146e-06,0.0002717433530850715,-2.531767716687592e-06,0.0004128297047834857,0.000411833259701769
45.98584391825,22.23584391825,2,0.7879347219214436,4.487545792624036,19.26478701697934,-0.003207535608786893,-4.959242204643146e-06,0.0002737708046610451,-1.210018212448229e-07,0.0004159611495113254,0.0004161045064768402
45.26415608175001,20.26415608175,2,0.6899714177283015,4.441641214733114,22.05893926299019,-0.1562423274946253,-1.107607401254647e-05,0.0002162229436350312,-4.031688339178993e-06,0.000318466786849183,0.0002982110166555813
45.98584391825001,20.26415608175,2,0.6887937330115421,4.444237840137183,22.0856309184643,-0.07642535699984339,-1.107607401254647e-05,0.0002156724840938545,-1.964622569832191e-06,0.0003176145851597804,0.0002972012312272566
45.26415608175001,20.98584391825,2,0.7341466571095756,3.991941045387733,18.96160787852845,-0.1522724164513611,-9.009008243199642e-06,0.0002162229436350312,-4.582147880355901e-06,0.0003213656615674412,0.0003418150196961645
45.98584391825,20.98584391825,2,0.7347809303542531,3.970251036732513,18.86770512779539,-0.08338096719555819,-9.009008243199642e-06,0.0002156724840938545,-2.51508211100899e-06,0.000320513053384964,0.000342534909423788
46.51415608175002,20.26415608175,2,0.687638211581421,4.348114332663224,22.08558394235895,-0.1927525244949696,-1.201972017247398e-05,0.0002151203496740555,-4.936647993234627e-06,0.000315443848363988,0.0002962171151967481
47.23584391825002,20.26415608175,2,0.6856489960946932,4.35070877391422,22.12584897425446,-0.1035851365771457,-1.201972017247398e-05,0.0002141623499276707,-2.636164931309692e-06,0.0003139614080699487,0.0002945382456290661
46.51415608175001,20.98584391825,2,0.7351266445607236,3.890181754859453,18.77868570166409,-0.1951668907407036,-9.719237110548894e-06,0.0002151203496740555,-5.894647739619749e-06,0.0003186683161545359,0.0003429285781276267
47.23584391825001,20.98584391825,2,0.7354382692335222,3.864484099591182,18.67210913798548,-0.1188598034738296,-9.719237110548894e-06,0.0002141623499276705,-3.594164677694651e-06,0.0003171850659467519,0.000343284211300286
46.51415608175001,21.51415608175,2,0.761514740391947,4.849272110316369,21.73199893167718,-0.1571081404017163,-7.832468955939984e-06,0.00027533349021667,-5.270200452972941e-06,0.0004143327833423749,0.0003759330301695118
47.23584391825001,21.51415608175,2,0.7630128062777056,4.863085817551799,21.7725868174387,-0.07156826783510943,-7.832468955939984e-06,0.0002775753749750995,-2.415937054184433e-06,0.0004177934762965929,0.0003780002162163127
46.51415608175001,22.23584391825,2,0.7898700585249072,4.472627501321758,19.19809755825603,-0.07954247495781357,-4.978205557151391e-06,0.00027533349021667,-3.028315694543395e-06,0.0004183497345496358,0.0004193914070968671
47.23584391825001,22.23584391825,2,0.7925896846181337,4.453489277270593,19.10462108988803,-0.004512530194426745,-4.978205557151391e-06,0.0002775753749750998,-1.740522957546699e-07,0.0004218121394381347,0.0004241001398155209
45.26415608175001,19.01415608175,2,0.5814333820826223,3.779365180060918,22.27888183711281,-0.2455268277073859,-1.368751507705329e-05,0.000163101706663545,-4.692716852175752e-06,0.0002327841528614219,0.000227179269680136
45.98584391825001,19.01415608175,2,0.5753503898326726,3.757877700558834,22.29700822927295,-0.1770193258489491,-1.368751507705329e-05,0.000160942392355656,-3.33487791554448e-06,0.0002294479451023994,0.0002241900724602778
45.26415608175001,19.73584391825,2,0.6501440437561228,3.317305083720354,18.66123363023724,-0.2996529892146488,-1.232967614042201e-05,0.000163101706663545,-6.852031160064446e-06,0.0002346804563251992,0.0002674944600160064
45.98584391825001,19.73584391825,2,0.647224113986581,3.281512113466861,18.5630639847373,-0.2422773161937117,-1.232967614042201e-05,0.000160942392355656,-5.494192223433228e-06,0.0002313426386597471,0.0002654908277354781
45.26415608175001,17.76415608175,2,0.4204310731065306,2.848259381239804,22.30919348654585,-0.4308946432362963,-1.506796580016531e-05,0.0001192451983621581,-5.947794966109342e-06,0.0001631894259473173,0.0001679610302952482
45.98584391825001,17.76415608175,2,0.406589159372166,2.779900841828639,22.29647118234899,-0.3932138092419501,-1.506796580016531e-05,0.0001164872334265401,-5.301066745945206e-06,0.0001589332706285137,0.0001642822550681907
45.26415608175001,18.48584391825,2,0.5207267492039889,2.458681683247639,18.47436850232651,-0.5215547310938061,-1.442123758000117e-05,0.0001192451983621581,-8.705759901727391e-06,0.0001640934923393829,0.000200509367567389
45.98584391825001,18.48584391825,2,0.5117014006648097,2.392756039886047,18.37336179828741,-0.4919017352631559,-1.442123758000117e-05,0.0001164872334265401,-8.059031681563228e-06,0.0001598359251716923,0.0001970713171478155
46.51415608175002,17.76415608175,2,0.3950046792363747,2.542204687771034,22.23612508150716,-0.5564737880242163,-1.595689211637759e-05,0.0001142518530942694,-7.358387993108243e-06,0.0001542719847393424,0.0001613253154036526
47.23584391825002,17.76415608175,2,0.3769580622014629,2.444145595630739,22.20384861431058,-0.5304982641249678,-1.595689211637759e-05,0.000110902645387624,-6.811718209524527e-06,0.000149105984992092,0.0001569255812319331
46.51415608175002,18.48584391825,2,0.5040475521815637,2.174378021699461,18.25093394601714,-0.6638072871928714,-1.541022233279383e-05,0.0001142518530942694,-1.070759569975362e-05,0.0001550427095474241,0.0001942470323639612
47.23584391825002,18.48584391825,2,0.4920193455954418,2.085334923222708,18.12645822430627,-0.6451942245315176,-1.541022233279383e-05,0.000110902645387624,-1.016092591616974e-05,0.0001498753772270914,0.0001899689932586728
46.51415608175002,19.01415608175,2,0.5701286927112268,3.591919103705432,22.27400809482757,-0.3159561417461059,-1.47138579308707e-05,0.0001591250438460476,-5.880013602003114e-06,0.0002252209156876589,0.0002216863832359922
47.23584391825002,19.01415608175,2,0.5618618763901604,3.558551923887082,22.29258532666514,-0.2477769921401791,-1.47138579308707e-05,0.0001563192696904147,-4.524180458869608e-06,0.0002208865276000405,0.0002178353742884487
46.51415608175002,19.73584391825,2,0.6446217594220084,3.130081060604264,18.45426342574613,-0.3858424964178059,-1.335802478773723e-05,0.0001591250438460476,-8.685787757635737e-06,0.0002271146860574634,0.0002637303669879689
47.23584391825002,19.73584391825,2,0.6404008524504703,3.083178234981249,18.33713084819474,-0.3294806788689655,-1.335802478773723e-05,0.0001563192696904147,-7.329954614502176e-06,0.0002227781314569378,0.000260924331061367
45.26415608175001,16.51415608175,2,0.2062410561088639,1.671812588124776,22.05394429778829,-0.7290423964149008,-1.548751702370409e-05,8.72244303075447e-05,-7.347746083626001e-06,0.0001132699474973544,0.0001247539704658397
45.98584391825001,16.51415608175,2,0.1837479172421506,1.540687856404622,21.96489895980113,-0.7360454773328206,-1.548751702370409e-05,8.46002452489005e-05,-7.213903575924369e-06,0.0001092297545651873,0.0001214738431764914
45.26415608175001,17.23584391825,2,0.3354406810593906,1.429341506816906,18.47165037675565,-0.8283674710537237,-1.535367451600251e-05,8.72244303075447e-05,-9.97193114227028e-06,0.0001134718241246762,0.0001476624328202208
45.98584391825001,17.23584391825,2,0.3176797840404793,1.318330630194509,18.36847566019182,-0.839090845220971,-1.535367451600251e-05,8.46002452489005e-05,-9.838088634568621e-06,0.000109431746666618,0.000144025972968372
45.26415608175001,15.26415608175,2,0,0.4617524793854972,21.19562699408812,-1.159784674596072,-1.54788936612369e-05,6.745660439757357e-05,-9.278277396768575e-06,8.290744654406522e-05,9.835380569264261e-05
45.98584391825,15.26415608175,2,0,0.360593449192991,20.79099087331809,-1.165056641009662,-1.54788936612369e-05,6.624269603526349e-05,-9.320453128077295e-06,8.10454357975148e-05,9.600208104070029e-05
45.26415608175001,15.98584391825,2,0.1075629761973,0.3995386137277306,18.91262567355902,-1.170451879002166,-1.552106939254549e-05,6.745660439757357e-05,-1.049218575907877e-05,8.286526270494295e-05,0.0001115417636475289
45.98584391825001,15.98584391825,2,0.0823720324206777,0.3179900903714232,19.07516956315963,-1.208328090521247,-1.552106939254549e-05,6.624269603526349e-05,-1.05343614903873e-05,8.100370925102724e-05,0.0001086058801174728
46.51415608175001,15.26415608175,2,0,0.09486728107475884,20.42566437095855,-1.367229961789325,-1.603695619732761e-05,6.528623216220755e-05,-1.09378396943146e-05,7.885513090676769e-05,9.420078183011585e-05
47.23584391825001,15.26415608175,2,0,-0.02173268014140017,19.95926452609391,-1.383816154031338,-1.603695619732761e-05,6.388703262761363e-05,-1.10705292322507e-05,7.671345209343404e-05,9.163126551889851e-05
46.51415608175002,15.98584391825,2,0.06195537859633249,0.04750017363353187,19.14981220949274,-1.446586661590445,-1.616964573526372e-05,6.528623216220755e-05,-1.233703922890838e-05,7.869894979809763e-05,0.000106337533656787
47.23584391825002,15.98584391825,2,0.03102483245356047,-0.06391604979901544,19.32931728267111,-1.510357190138987,-1.616964573526372e-05,6.388703262761363e-05,-1.246972876684459e-05,7.655839347474933e-05,0.0001030761794068171
46.51415608175002,16.51415608175,2,0.1653375513961728,1.235197913986071,21.84820961887544,-0.9450519810243957,-1.620527483052614e-05,8.257962552946758e-05,-9.058051983579435e-06,0.0001051625352362463,0.0001189148940311764
47.23584391825002,16.51415608175,2,0.1371836826808376,1.068617819945938,21.7521907178081,-0.9731169158150851,-1.620527483052614e-05,7.968337485161076e-05,-9.022702944131935e-06,0.0001007090844799148,0.0001152038422412418
46.51415608175002,17.23584391825,2,0.3029326069623858,1.039787684887737,18.24856076054955,-1.041619323973741,-1.616992579107866e-05,8.257962552946758e-05,-1.195430266143617e-05,0.0001052389301996254,0.0001411401297739015
47.23584391825002,17.23584391825,2,0.2800926215533911,0.900104495956247,18.15147909123955,-1.07256783197907,-1.616992579107866e-05,7.968337485161076e-05,-1.191895362198864e-05,0.0001007865035206892,0.000136892319395445
45.26415608175001,14.01415608175,2,0,0.2011085039089515,19.86254873549879,-1.454412515107254,-1.524649177589038e-05,6.339926915046896e-05,-1.163530012085804e-05,7.702565337227907e-05,8.53065088439256e-05
45.98584391825,14.01415608175,2,0,0.1641580487536007,19.71474691487738,-1.474266144445556,-1.524649177589038e-05,6.295586368860475e-05,-1.179412915556445e-05,7.634851439875572e-05,8.369846813446954e-05
45.26415608175001,14.73584391825,2,0,0.1481654923401541,19.84931298260659,-1.50983819784024,-1.540532081059678e-05,6.339926915046896e-05,-1.207870558272192e-05,7.682083117042547e-05,9.132409035501115e-05
45.98584391825,14.73584391825,2,0,0.1112150371848033,19.70151116198518,-1.529691827178544,-1.540532081059678e-05,6.295586368860475e-05,-1.223753461742836e-05,7.614397148996397e-05,8.932816011451302e-05
45.26415608175001,12.76415608175,2,0,0.2932305492697553,19.63734520647647,-1.66388747840713,-1.477153840751796e-05,6.260492022130889e-05,-1.331109982725704e-05,7.646815507260938e-05,7.962901424709852e-05
45.98584391825001,12.76415608175,2,0,0.2574204381305307,19.49410476191957,-1.702028964069096,-1.477153840751796e-05,6.217519888763819e-05,-1.361623171255276e-05,7.581493848905448e-05,7.838010032678561e-05
45.26415608175001,13.48584391825,2,0,0.1915199208378722,19.6119175493685,-1.717602645115984,-1.507667029281361e-05,6.260492022130889e-05,-1.374082116092787e-05,7.606893186062198e-05,8.217282264548743e-05
45.98584391825,13.48584391825,2,0,0.1557098096986476,19.4686771048116,-1.755744130777958,-1.507667029281361e-05,6.217519888763819e-05,-1.404595304622366e-05,7.541620542812954e-05,8.076494435575163e-05
46.51415608175002,12.76415608175,2,0,0.0821904845510808,19.33864760002268,-1.895544027734454,-1.520790852945468e-05,6.18179199324317e-05,-1.516435222187563e-05,7.471594677691034e-05,7.740679967812738e-05
47.23584391825002,12.76415608175,2,0,0.03665857417861496,19.15651995853282,-1.937769367375701,-1.520790852945468e-05,6.127153700796211e-05,-1.550215493900561e-05,7.388654581775433e-05,7.599660677515322e-05
46.51415608175001,13.48584391825,2,0,-0.03041042115889336,19.31049737359519,-1.963841893293139,-1.554571124658461e-05,6.18179199324317e-05,-1.571073514634511e-05,7.42785766268135e-05,7.967618022075774e-05
47.23584391825001,13.48584391825,2,0,-0.07594233153136187,19.12836973210531,-2.00606723293439,-1.554571124658461e-05,6.127153700796208e-05,-1.604853786347512e-05,7.344993695241578e-05,7.810949957610497e-05
46.51415608175001,14.01415608175,2,0,-0.02655547637846833,19.56474708577607,-1.674333787847651,-1.573677519303195e-05,6.262843505558619e-05,-1.33946703027812e-05,7.522135498935574e-05,8.246192241359335e-05
47.23584391825001,14.01415608175,2,0,-0.06415099299796978,19.41436501929806,-1.697357999357783,-1.573677519303195e-05,6.217728885615217e-05,-1.357886399486227e-05,7.45340663048275e-05,8.069165738759014e-05
46.51415608175001,14.73584391825,2,0,-0.08795337373881029,19.54939761143598,-1.730727062776899,-1.592096888511298e-05,6.262843505558619e-05,-1.384581650221519e-05,7.498507364304319e-05,8.78033310789018e-05
47.23584391825001,14.73584391825,2,0,-0.1255488903583029,19.39901554495801,-1.753751274287025,-1.592096888511298e-05,6.217728885615228e-05,-1.40300101942962e-05,7.429813700230659e-05,8.563335092107665e-05
45.26415608175001,11.51415608175,2,0,0.4645659069022336,19.41149189382998,-1.863215733010749,-1.404258261297683e-05,6.174512133473413e-05,-1.490572586408599e-05,7.61529160435017e-05,7.722011446088802e-05
45.98584391825,11.51415608175,2,0,0.4262060259294378,19.25805236993879,-1.919699837490056,-1.404258261297683e-05,6.128480276306058e-05,-1.535759869992045e-05,7.54562682566005e-05,7.612305632847577e-05
45.26415608175001,12.23584391825,2,0,0.3139416282907384,19.3738358241771,-1.920755554469936,-1.449445544881132e-05,6.174512133473413e-05,-1.536604443575949e-05,7.555839492882555e-05,7.830194008872939e-05
45.98584391825001,12.23584391825,2,0,0.2755817473179425,19.22039630028592,-1.977239658949253,-1.449445544881132e-05,6.128480276306058e-05,-1.581791727159402e-05,7.486252131571937e-05,7.713631017856006e-05
45.26415608175001,10.26415608175,2,0,0.7081786722732426,19.17966603491458,-2.04480889401654,-1.307756107665728e-05,6.080838837390804e-05,-1.635847115213232e-05,7.603899667941427e-05,7.623365559335269e-05
45.98584391825,10.26415608175,2,0,0.6670784115423904,19.01526499199117,-2.11797962321061,-1.307756107665728e-05,6.031518524513781e-05,-1.694383698568488e-05,7.529550039698604e-05,7.521413989729914e-05
45.26415608175001,10.98584391825,2,0,0.5130567277557434,19.1308855487852,-2.10645928511282,-1.366292691020978e-05,6.080838837390804e-05,-1.685167428090256e-05,7.526524084931397e-05,7.666591930065127e-05
45.98584391825,10.98584391825,2,0,0.4719564670248912,18.96648450586179,-2.179630014306885,-1.366292691020978e-05,6.031518524513781e-05,-1.743704011445508e-05,7.452281594216822e-05,7.560801235391283e-05
46.51415608175001,10.26415608175,2,0,0.5394367332353109,18.85671480448677,-2.283448848841626,-1.335917429723642e-05,5.99099379877694e-05,-1.826759079073301e-05,7.432790612381699e-05,7.441798834305429e-05
47.23584391825001,10.26415608175,2,0,0.4882739858990304,18.65206381514165,-2.362415375351198,-1.335917429723642e-05,5.929598501973404e-05,-1.889932300280958e-05,7.34033397536705e-05,7.326237754229355e-05
46.51415608175001,10.98584391825,2,0,0.328859329209811,18.8040704534804,-2.360192969846033,-1.399090650931292e-05,5.99099379877694e-05,-1.888154375876826e-05,7.349930529245707e-05,7.478010220188168e-05
47.23584391825001,10.98584391825,2,0,0.277696581873534,18.59941946413529,-2.439159496355625,-1.399090650931292e-05,5.929598501973408e-05,-1.9513275970845e-05,7.257629960942254e-05,7.357611654907278e-05
46.51415608175001,11.51415608175,2,0,0.2735482759514412,19.09960003837107,-2.0995427082216,-1.440432554765224e-05,6.089988150202627e-05,-1.67963416657728e-05,7.441419611122692e-05,7.526418476357333e-05
47.23584391825001,11.51415608175,2,0,0.2242727867489087,18.90249808156094,-2.161761408912928,-1.440432554765224e-05,6.030857563159588e-05,-1.729409127130342e-05,7.352030488194479e-05,7.401476214339615e-05
46.51415608175002,12.23584391825,2,0,0.1076317407745737,19.05812090457685,-2.173455942025394,-1.490207515318284e-05,6.089988150202627e-05,-1.738764753620315e-05,7.376520852839604e-05,7.622460905840182e-05
47.23584391825002,12.23584391825,2,0,0.05835625157204127,18.86101894776672,-2.235674642716727,-1.490207515318284e-05,6.030857563159588e-05,-1.788539714173381e-05,7.28725151911706e-05,7.489942518687555e-05
45.26415608175001,9.01415608175,2,0,1.015295160932057,18.94162304023896,-2.205268156317,-1.190435391720859e-05,5.980095760001902e-05,-1.7642145250536e-05,7.610028387603435e-05,7.591953594712764e-05
45.98584391825,9.01415608175,2,0,0.9722167956777548,18.76930957922175,-2.293018024586682,-1.190435391720859e-05,5.928401721696739e-05,-1.834414419669346e-05,7.532378063542907e-05,7.495398405577472e-05
45.26415608175001,9.735843918250001,2,0,0.78129551221289,18.88312312805917,-2.269885704198448,-1.260635286336608e-05,5.980095760001902e-05,-1.815908563358758e-05,7.516759128702773e-05,7.603366277653822e-05
45.98584391825,9.735843918250001,2,0,0.7382171469585881,18.71080966704196,-2.357635572468134,-1.260635286336608e-05,5.928401721696739e-05,-1.886108457974507e-05,7.439242108224278e-05,7.503889354299137e-05
45.26415608175001,7.76415608175,2,0,1.376475532993,18.69950861330708,-2.343900894520901,-1.055488518506806e-05,5.873724713618825e-05,-1.87512071561672e-05,7.631834728928646e-05,7.596469261373258e-05
45.98584391825,7.76415608175,2,0,1.332007934148774,18.52163821793016,-2.443873347578289,-1.055488518506805e-05,5.820363595005751e-05,-1.955098678062631e-05,7.55192937355237e-05,7.504633914348788e-05
45.26415608175001,8.485843918250001,2,0,1.109882324839964,18.63286031126882,-2.410602292787251,-1.135466480952717e-05,5.873724713618825e-05,-1.928481834229801e-05,7.524969227371659e-05,7.59010554477026e-05
45.98584391825,8.485843918250001,2,0,1.065414725995735,18.4549899158919,-2.510574745844648,-1.135466480952717e-05,5.820363595005751e-05,-2.008459796675718e-05,7.445217711383336e-05,7.495597909841486e-05
46.51415608175001,7.76415608175,2,0,1.253423809010187,18.36961666917481,-2.584831797838372,-1.068473714650725e-05,5.778003429415124e-05,-2.067865438270698e-05,7.47235433125785e-05,7.433875611095143e-05
47.23584391825001,7.764156081749999,2,0,1.201449637341483,18.16171998250001,-2.690090469203209,-1.068473714650726e-05,5.715634423412683e-05,-2.152072375362567e-05,7.379092850287049e-05,7.332395678565074e-05
46.51415608175001,8.485843918250001,2,0,0.9727340187039495,18.29944422159825,-2.662793055341425,-1.152680651742596e-05,5.778003429415124e-05,-2.13023444427314e-05,7.360455486641897e-05,7.422447894394742e-05
47.23584391825001,8.485843918250001,2,0,0.9207598470352458,18.09154753492344,-2.768051726706263,-1.152680651742596e-05,5.715634423412679e-05,-2.21444138136501e-05,7.267396742715019e-05,7.317105970540069e-05
46.51415608175001,9.01415608175,2,0,0.8694697306875661,18.6131929529759,-2.445378460937873,-1.21082512241805e-05,5.886664166497281e-05,-1.956302768750298e-05,7.443984253367111e-05,7.420437371064679e-05
47.23584391825001,9.01415608175,2,0,0.8175238281139734,18.40540934268153,-2.538686849662148,-1.21082512241805e-05,5.82432908340897e-05,-2.030949479729718e-05,7.350454953826738e-05,7.312195205314392e-05
46.51415608175001,9.735843918250001,2,0,0.6206473607561778,18.55098736049305,-2.523297314798252,-1.285471833397467e-05,5.886664166497281e-05,-2.018637851838601e-05,7.345457835341585e-05,7.426372235877312e-05
47.23584391825001,9.735843918250001,2,0,0.5687014581825913,18.3432037501987,-2.616605703522532,-1.285471833397467e-05,5.824329083408977e-05,-2.093284562818025e-05,7.252112574192607e-05,7.31406845323823e-05
45.26415608175001,6.51415608175,2,0,1.782020999121494,18.45525390795724,-2.46085768753237,-9.061735929177011e-06,5.763119570616597e-05,-1.968686150025896e-05,7.667309204379666e-05,7.622974788948623e-05
45.98584391825,6.51415608175,2,0,1.736570460375044,18.27345175297147,-2.570702789297158,-9.061735929177034e-06,5.708578924120867e-05,-2.056562231437727e-05,7.585847632743663e-05,7.535579909514514e-05
45.26415608175001,7.235843918250001,2,0,1.48910072774872,18.38202384011405,-2.529033495652028,-9.940496743295331e-06,5.763119570616597e-05,-2.023226796521622e-05,7.549168445521273e-05,7.605276548806398e-05
45.98584391825,7.23584391825,2,0,1.443650189002279,18.20022168512828,-2.638878597416826,-9.940496743295331e-06,5.708578924120867e-05,-2.111102877933461e-05,7.467874929085059e-05,7.515347058872625e-05
45.26415608175001,5.26415608175,2,0,2.222413083394073,18.21051608773828,-2.557416711457695,-7.45669100332959e-06,5.649572101404723e-05,-2.045933369166156e-05,7.714367543602993e-05,7.664374232967666e-05
45.98584391825,5.26415608175,2,0,2.176277745877842,18.02597473767338,-2.674855609418759,-7.456691003329607e-06,5.594209696385253e-05,-2.139884487535007e-05,7.631844518656559e-05,7.581039427576592e-05
45.26415608175001,5.985843918250001,2,0,1.909242688831238,18.13222348909757,-2.626619717732035,-8.396202187018097e-06,5.649572101404723e-05,-2.101295774185628e-05,7.587245199606386e-05,7.638809965693691e-05
45.98584391825,5.98584391825,2,0,1.863107351315012,17.94768213903267,-2.744058615693103,-8.396202187018097e-06,5.594209696385253e-05,-2.195246892554482e-05,7.504898108106689e-05,7.553182126657083e-05
46.51415608175001,5.26415608175,2,0,2.140995730571926,17.88361457493478,-2.797800346349395,-7.455705322117662e-06,5.551477005533376e-05,-2.238240277079516e-05,7.569161208811329e-05,7.517930452850537e-05
47.23584391825001,5.26415608175,2,0,2.089841165957806,17.6789963164783,-2.919544541049701,-7.455705322117662e-06,5.490091527996431e-05,-2.335635632839761e-05,7.477865104490773e-05,7.428848332869117e-05
46.51415608175001,5.98584391825,2,0,1.816344544704458,17.80245177846792,-2.874532193270576,-8.429658879720067e-06,5.551477005533376e-05,-2.299625754616461e-05,7.437871422333106e-05,7.488006402603076e-05
47.23584391825001,5.98584391825,2,0,1.76518998009034,17.59783352001145,-2.99627638797088,-8.429658879720067e-06,5.490091527996435e-05,-2.397021110376704e-05,7.346790496774132e-05,7.395570852096478e-05
46.51415608175001,6.514156081749999,2,0,1.68087297746919,18.12628550078014,-2.701990251772764,-9.122234872722703e-06,5.665941522052108e-05,-2.161592201418211e-05,7.515067072997077e-05,7.468812828104109e-05
47.23584391825001,6.514156081749999,2,0,1.629250558916024,17.91979582656744,-2.816765157205715,-9.122234872722676e-06,5.603994619788299e-05,-2.253412125764572e-05,7.422714717259665e-05,7.373796648844145e-05
46.51415608175001,7.23584391825,2,0,1.374806562981339,18.04976889715817,-2.779423879602528,-1.004043411618626e-05,5.665941522052108e-05,-2.223539103682023e-05,7.392183063123454e-05,7.446299057639304e-05
47.23584391825001,7.23584391825,2,0,1.323184144428162,17.84327922294548,-2.89419878503548,-1.004043411618627e-05,5.603994619788301e-05,-2.315359028028384e-05,7.300043481528232e-05,7.34758590003455e-05
45.26415608175001,4.01415608175,2,0,2.688818283572285,17.96684983669381,-2.636413536633571,-5.769261361923737e-06,5.534286485056237e-05,-2.109130829306857e-05,7.771067682851488e-05,7.716000244468443e-05
45.98584391825,4.01415608175,2,0,2.64229084406347,17.78074007865855,-2.759356407730992,-5.769261361923737e-06,5.478453557645658e-05,-2.207485126184794e-05,7.687970674060601e-05,7.63606922536555e-05
45.26415608175001,4.735843918250001,2,0,2.3609706273125,17.88488792262887,-2.70620469589679,-6.752804330703094e-06,5.534286485056237e-05,-2.164963756717432e-05,7.63710966972922e-05,7.685057305828251e-05
45.98584391825,4.735843918250001,2,0,2.314443187803684,17.69877816459361,-2.829147566994214,-6.752804330703094e-06,5.478453557645658e-05,-2.263318053595371e-05,7.554190555406046e-05,7.603248958737793e-05
45.26415608175001,2.76415608175,2,0,3.17407348851473,17.72556370570356,-2.702653933316673,-4.02341580131571e-06,5.418254506743959e-05,-2.162123146653338e-05,7.835875524366617e-05,7.77320116498579e-05
45.98584391825,2.76415608175,2,0,3.127547400218059,17.53945935251688,-2.829467446860506,-4.02341580131571e-06,5.362423200787955e-05,-2.263573957488405e-05,7.752891850750911e-05,7.695728011384667e-05
45.26415608175001,3.48584391825,2,0,2.83590411906451,17.641021363341,-2.772443065761681,-5.037923909666369e-06,5.418254506743959e-05,-2.217954452609345e-05,7.69678164564861e-05,7.739618320346735e-05
45.98584391825,3.48584391825,2,0,2.78937803076784,17.45491701015432,-2.899256579305512,-5.037923909666369e-06,5.362423200787955e-05,-2.319405263444409e-05,7.61397284510766e-05,7.660848912838304e-05
46.51415608175001,2.76415608175,2,0,3.116286121927683,17.40420034559254,-2.937681565632252,-3.951244686305446e-06,5.320041220835398e-05,-2.350145252505802e-05,7.700345440657952e-05,7.637921772896784e-05
47.23584391825001,2.764156081749999,2,0,3.066320774757127,17.20433895691032,-3.065832200487743,-3.951244686305453e-06,5.260082804230733e-05,-2.452665760390194e-05,7.611429252682505e-05,7.557465345947855e-05
46.51415608175001,3.48584391825,2,0,2.774551095646376,17.31876658902221,-3.012629586388083,-4.976449765149367e-06,5.320041220835398e-05,-2.410103669110467e-05,7.560183964025924e-05,7.601865587925885e-05
47.23584391825001,3.48584391825,2,0,2.724585748475822,17.11890520034,-3.140780221243575,-4.976449765149367e-06,5.260082804230733e-05,-2.51262417699486e-05,7.471468771442615e-05,7.519489554967393e-05
46.51415608175001,4.01415608175,2,0,2.622811586826977,17.64248854265306,-2.874718182865563,-5.720993756276117e-06,5.435771406702818e-05,-2.299774546292451e-05,7.63174719837177e-05,7.57603411609641e-05
47.23584391825001,4.014156081749999,2,0,2.572164188871517,17.43989895083122,-3.000834049549434,-5.720993756276124e-06,5.37499452915627e-05,-2.400667239639547e-05,7.541509871103851e-05,7.491946166431091e-05
46.51415608175001,4.735843918250001,2,0,2.286502609003322,17.55841129819714,-2.950689279798749,-6.72992068974708e-06,5.435771406702818e-05,-2.360551423838999e-05,7.494767453398509e-05,7.5415174075919e-05
47.23584391825001,4.73584391825,2,0,2.235855211047865,17.35582170637531,-3.076805146482626,-6.72992068974708e-06,5.374994529156269e-05,-2.461444117186101e-05,7.404741023511968e-05,7.45467202051457e-05
45.26415608175001,1.51415608175,2,0,3.674219067907393,17.48718612431188,-2.763080353412395,-2.23224788214584e-06,5.301962034347208e-05,-2.210464282729916e-05,7.907977011962879e-05,7.828597840541475e-05
45.98584391825,1.51415608175,2,0,3.628250877492401,17.30331336265191,-2.893004015086868,-2.23224788214584e-06,5.246800205849217e-05,-2.314403212069495e-05,7.826123358417272e-05,7.752455887684339e-05
45.26415608175001,2.23584391825,2,0,3.327755970108802,17.40057034986223,-2.832032639034884,-3.271637175541614e-06,5.301962034347208e-05,-2.265626111227907e-05,7.764520929862324e-05,7.797043155564138e-05
45.98584391825,2.23584391825,2,0,3.28178777969381,17.21669758820226,-2.961956300709355,-3.271637175541614e-06,5.246800205849217e-05,-2.369565040567484e-05,7.68283580680044e-05,7.720274026314956e-05
45.26415608175001,0.26415608175,2,0,4.190361724892714,17.25061245157375,-2.826407739800926,-3.913324416023177e-07,5.184967046512183e-05,-2.261126191840741e-05,7.987597074396105e-05,7.86632798375104e-05
45.98584391825,0.26415608175,2,0,4.145641936893342,17.07173329957626,-2.960050253945048,-3.913324416023177e-07,5.131303300912937e-05,-2.368040203156038e-05,7.908180958859183e-05,7.790471713254109e-05
45.26415608175001,0.9858439182500001,2,0,3.833981687175058,17.16151744214434,-2.893487421799984,-1.460472554755285e-06,5.184967046512183e-05,-2.314789937439988e-05,7.839038795561928e-05,7.847162654301307e-05
45.98584391825,0.9858439182500001,2,0,3.789261899175686,16.98263829014685,-3.027129935944106,-1.460472554755285e-06,5.131303300912937e-05,-2.421703948755284e-05,7.759784055924571e-05,7.771265301209632e-05
46.51415608175001,0.26415608175,2,0,4.116278449649605,16.93866528814413,-3.057507078571601,-3.788411916365695e-07,5.091070616234153e-05,-2.446005662857281e-05,7.850470856341803e-05,7.73414964103367e-05
47.23584391825001,0.26415608175,2,0,4.069400122088972,16.7511519779016,-3.186883751520983,-3.788411916365695e-07,5.034816623161394e-05,-2.549507001216786e-05,7.767342077912094e-05,7.656131148630261e-05
46.51415608175001,0.9858439182500001,2,0,3.771273988451255,16.85241417284454,-3.127824569912551,-1.413854575231619e-06,5.091070616234153e-05,-2.502259655930041e-05,7.707052360103909e-05,7.714900761526559e-05
47.23584391825001,0.9858439182500001,2,0,3.724395660890622,16.66490086260201,-3.257201242861932,-1.413854575231619e-06,5.034816623161394e-05,-2.605760994289546e-05,7.624096252958571e-05,7.636807328452301e-05
46.51415608175001,1.51415608175,2,0,3.614457056855738,17.16976689981014,-2.994836949177393,-2.169550937909752e-06,5.205168843390786e-05,-2.395869559341915e-05,7.773339751493931e-05,7.695865469846693e-05
47.23584391825001,1.51415608175,2,0,3.56564274941274,16.97450967003815,-3.12353538348044,-2.16955093790975e-06,5.146591674459188e-05,-2.498828306784352e-05,7.686580337729017e-05,7.617399525943252e-05
46.51415608175001,2.23584391825,2,0,3.27126123204761,17.08396794360811,-3.068058410341888,-3.199138412334133e-06,5.205168843390786e-05,-2.45444672827351e-05,7.631624374521945e-05,7.663108965345303e-05
47.23584391825001,2.235843918249999,2,0,3.222446924604615,16.88871071383612,-3.196756844644935,-3.199138412334126e-06,5.146591674459187e-05,-2.557405475715948e-05,7.545052226275108e-05,7.583700243600974e-05
47.76415608175002,21.51415608175,2,0.7639818747781426,4.809478557936044,21.79904183785992,-0.2019826509305256,-8.681121769637949e-06,0.0002792554638456179,-6.846343711633558e-06,0.0004192002433621536,0.000379349710353139
48.48584391825001,21.51415608175,2,0.7651358234355907,4.831922946682431,21.87629743183146,-0.1038497662447478,-8.681121769637949e-06,0.0002816036672428705,-3.537355684084687e-06,0.0004228236640963778,0.0003809694108528204
47.76415608175002,22.23584391825,2,0.7945831650936124,4.412472222792244,19.02929727866119,-0.1154992182931075,-5.372133742089169e-06,0.0002792554638456179,-4.498140314380472e-06,0.0004238549510186529,0.0004276201843958854
48.48584391825001,22.23584391825,2,0.7973079655228429,4.393605446584679,18.93553268342301,-0.03012896204014226,-5.372133742089169e-06,0.000281603667242871,-1.189152286831981e-06,0.0004274804551203912,0.0004325283923161038
47.76415608175002,20.26415608175,2,0.683679978084105,4.21764895433692,22.12845096751503,-0.2610879387405574,-1.329755889196376e-05,0.0002131920816270969,-6.603134057950387e-06,0.0003106816822060712,0.000292895172992996
48.48584391825001,20.26415608175,2,0.6802604248044742,4.218138327262086,22.18724809811582,-0.1642785248893307,-1.329755889196376e-05,0.0002114992590792284,-4.110308204140743e-06,0.0003080629411657493,0.0002900850846382172
47.76415608175002,20.98584391825,2,0.7354085407114366,3.747786971610492,18.56469798867764,-0.2743799080660322,-1.080473303815405e-05,0.0002131920816270966,-8.295956605819041e-06,0.0003141738594958199,0.0003432502523485844
48.48584391825001,20.98584391825,2,0.7350154337307426,3.715974120191424,18.44275585297865,-0.1922175106656196,-1.080473303815405e-05,0.0002114992590792281,-5.803130752009234e-06,0.0003115535167300886,0.0003428018415945006
49.01415608175001,20.26415608175,2,0.6768303352245593,4.042687196694715,22.19528771943972,-0.3883605405807928,-1.491362485856364e-05,0.0002097683611237359,-9.61378700815006e-06,0.0003031458002301764,0.0002873203063449162
49.73584391825001,20.26415608175,2,0.6707881687979852,4.034978858075688,22.27709261923728,-0.2900523135282444,-1.491362485856364e-05,0.0002067322825142811,-7.048405580545715e-06,0.0002984503652588715,0.000282576879930412
49.01415608175001,20.98584391825,2,0.7342008791871852,3.552303080908963,18.31190263305036,-0.4202903949449412,-1.234824343095932e-05,0.0002097683611237357,-1.26498656176045e-05,0.0003067403764033914,0.0003418764415984157
49.73584391825001,20.98584391825,2,0.7323538510100338,3.509271673542115,18.1682864455271,-0.3373841697504693,-1.234824343095932e-05,0.000206732282514281,-1.008448419000021e-05,0.000302041892762707,0.0003397966125457642
49.01415608175001,21.51415608175,2,0.7656589347130709,4.744295702141768,21.92765386295422,-0.300809680508881,-1.00723995626616e-05,0.0002832327134745776,-1.02691239417408e-05,0.000423395743411208,0.0003817082688084925
49.73584391825001,21.51415608175,2,0.7659405043573568,4.779603132079555,22.06533848025291,-0.1935901492350169,-1.00723995626616e-05,0.0002853351471504157,-6.616784290797107e-06,0.0004266361714116453,0.0003821071657833695
49.01415608175001,22.23584391825,2,0.7991840736076177,4.310053218863375,18.85177572378631,-0.2050001839133544,-6.420059911718012e-06,0.0002832327134745776,-8.166690265902369e-06,0.0004285285807856087,0.0004359747092558536
49.73584391825001,22.23584391825,2,0.8015928942257289,4.293114891488687,18.76469144843149,-0.1119599049955368,-6.420059911718012e-06,0.000285335147150416,-4.514350614958891e-06,0.0004317711233564653,0.0004404820143144175
47.76415608175002,19.01415608175,2,0.5546151576185944,3.347680844377981,22.26033743298268,-0.4309824271240594,-1.593159571043553e-05,0.0001539229192073293,-7.741303899246526e-06,0.0002155080252003136,0.0002145683288466596
48.48584391825001,19.01415608175,2,0.5429090332950008,3.293163644640302,22.27539018410646,-0.3703011504200243,-1.593159571043553e-05,0.0001501817420901519,-6.481005793475015e-06,0.0002097301076285256,0.0002094936036562195
47.76415608175002,19.73584391825,2,0.6365481637454922,2.884527284079334,18.20349670463174,-0.5216661012720893,-1.467129760466408e-05,0.0001539229192073293,-1.148248101642368e-05,0.0002172721944746605,0.0002584149555112448
48.48584391825001,19.73584391825,2,0.6301694755605067,2.819851474089537,18.06177300553415,-0.4725594083453648,-1.467129760466408e-05,0.000150181742090152,-1.022218291065217e-05,0.0002114915451568065,0.0002543652499393505
47.76415608175002,17.76415608175,2,0.36160610367291,2.175395894542713,22.12286700046914,-0.7396372943835604,-1.68188117079637e-05,0.0001081665380623985,-9.268726391514206e-06,0.0001437217691014697,0.0001533677485744441
48.48584391825001,17.76415608175,2,0.3372692930347648,2.030458584096354,22.05476305330287,-0.7420044883744472,-1.68188117079637e-05,0.0001040405615412491,-8.956935063681853e-06,0.0001373630786508096,0.0001480473031606627
47.76415608175002,18.48584391825,2,0.4816238740684515,1.820297487909279,17.97724654579406,-0.8679367754838325,-1.650702038013125e-05,0.0001081665380623986,-1.339470291266374e-05,0.000144180661463037,0.0001864210145816749
48.48584391825001,18.48584391825,2,0.4649697050805129,1.694819033009098,17.81897110981591,-0.8749692554547374,-1.650702038013125e-05,0.0001040405615412492,-1.308291158483136e-05,0.0001378218137135482,0.0001810057956768216
49.01415608175001,17.76415608175,2,0.3162526773322571,1.748139148388613,21.93899554687647,-1.000380333495451,-1.74876752950271e-05,0.0001006311427485168,-1.170467861832136e-05,0.0001312219355542508,0.0001437415502461426
49.73584391825001,17.76415608175,2,0.2823375837455637,1.52453701227915,21.78595718274432,-1.059525912675496,-1.748767529502712e-05,9.544241390324458e-05,-1.181085578598679e-05,0.0001232370582431983,0.0001372984599321174
49.01415608175001,18.48584391825,2,0.4502418763215678,1.3861112456984,17.63489913049994,-1.160910998715063,-1.759385246269263e-05,0.0001006311427485168,-1.689340746359371e-05,0.0001311336196516121,0.0001764730888699021
49.73584391825001,18.48584391825,2,0.4260601107677118,1.198912794105193,17.41791834342954,-1.219592465032482,-1.75938524626926e-05,9.544241390324452e-05,-1.699958463125927e-05,0.0001231531261809351,0.0001695047224819113
49.01415608175001,19.01415608175,2,0.5323705227064821,3.034519672640725,22.22516063253482,-0.6117347413411905,-1.725653737716031e-05,0.0001468959969837022,-1.046528965422292e-05,0.0002028446027075726,0.0002051267117526226
49.73584391825001,19.01415608175,2,0.514886035538952,2.936322141461618,22.20952264072709,-0.5722859443352828,-1.725653737716031e-05,0.0001416603515289557,-9.437550534684461e-06,0.0001947627242795138,0.0001982708663907678
49.01415608175001,19.73584391825,2,0.6241821298309884,2.567487594703382,17.893790874541,-0.7375864990393384,-1.622879825762177e-05,0.0001468959969837022,-1.570093510896932e-05,0.0002042984484399781,0.0002506783266687021
49.73584391825001,19.73584391825,2,0.6140108903122969,2.46856628347213,17.70443937233949,-0.7079617320292031,-1.622879825762177e-05,0.0001416603515289557,-1.467319598943094e-05,0.0001962138088737188,0.0002446551705411489
47.76415608175002,16.51415608175,2,0.1139767644838544,0.7354317822919398,21.59309304402122,-1.176563827753996,-1.684052080551884e-05,7.732252334796241e-05,-1.062332255490883e-05,9.624236634258892e-05,0.0001123148114108726
48.48584391825001,16.51415608175,2,0.07818549531250552,0.4921509678656379,21.37339930273605,-1.231886935052866,-1.684052080551884e-05,7.376880776845229e-05,-1.069097462700906e-05,9.078774128054123e-05,0.00010813288418727
47.76415608175002,17.23584391825,2,0.2608715465856585,0.5968358683238897,18.00898305966653,-1.309831533786147,-1.69081728776189e-05,7.732252334796241e-05,-1.417703813441889e-05,9.619665366448326e-05,0.0001335110512813089
48.48584391825001,17.23584391825,2,0.2306554289457969,0.3933989775359974,17.83385967244652,-1.369884384591812,-1.69081728776189e-05,7.376880776845251e-05,-1.424469020651917e-05,9.074521850315132e-05,0.0001285210653775403
47.76415608175002,15.26415608175,2,0,-0.2464630648829766,19.63361015790322,-1.644692370380785,-1.64955699339481e-05,6.302472295719667e-05,-1.315753896304628e-05,7.481859813251464e-05,8.967271412278603e-05
48.48584391825001,15.26415608175,2,0,-0.3261859229616002,19.31471872558872,-1.673991651133647,-1.64955699339481e-05,6.206804866025318e-05,-1.339193320906918e-05,7.335970782391366e-05,8.689136851036162e-05
47.76415608175002,15.98584391825,2,0.005875297332764484,-0.3226873911400254,19.49883876799876,-1.753911007558667,-1.672996417997091e-05,6.302472295719667e-05,-1.411421325998982e-05,7.452599153664186e-05,0.0001005683643720887
48.48584391825001,15.98584391825,2,0,-0.4043173383025271,19.29518587175354,-1.793575938251586,-1.672996417997091e-05,6.206804866025332e-05,-1.434860750601269e-05,7.306821287981383e-05,9.697824053090417e-05
49.01415608175,15.26415608175,2,0,-0.5154406361840413,19.05693611111581,-1.968370871162938,-1.689495892468157e-05,6.13945480645178e-05,-1.574696696930351e-05,7.185063563742956e-05,8.476029504104129e-05
49.73584391825,15.26415608175,2,0,-0.5890542653183877,18.76248159457842,-1.996543406833914,-1.689495892468157e-05,6.051118451490565e-05,-1.597234725467131e-05,7.05072984442116e-05,8.171943966037298e-05
49.01415608175,15.98584391825,2,0,-0.5905673979733068,19.03815442066849,-2.078791314864454,-1.712033921004937e-05,6.13945480645178e-05,-1.663033051891563e-05,7.157396101232668e-05,9.422614955070778e-05
49.73584391825,15.98584391825,2,0,-0.6641810271076505,18.74369990413111,-2.106963850535433,-1.712033921004937e-05,6.051118451490568e-05,-1.685571080428346e-05,7.023174257384262e-05,9.029742100662407e-05
49.01415608175,16.51415608175,2,0.04847169873966639,0.1645057646087738,21.18107943460637,-1.537638168284486,-1.725481531047494e-05,7.109389125835915e-05,-1.292773460335613e-05,8.616201670425729e-05,0.0001048907484390637
49.73584391825,16.51415608175,2,0.002230300457331968,-0.1396596720427157,20.96177617182519,-1.630075048460963,-1.725481531047497e-05,6.733959902597897e-05,-1.306974985677047e-05,8.041440974930237e-05,0.0001002149960731547
49.01415608175001,17.23584391825,2,0.2049514180458045,0.09981629577454676,17.68842202099496,-1.657877722484257,-1.739683056388908e-05,7.109389125835915e-05,-1.668202683573639e-05,8.603630555815049e-05,0.0001245611199359667
49.73584391825001,17.23584391825,2,0.1639937606163562,-0.1565925536945185,17.5534534063611,-1.758125519772862,-1.739683056388908e-05,6.733959902597894e-05,-1.682404208915055e-05,8.029460204376921e-05,0.0001187323336976955
47.76415608175002,14.01415608175,2,0,-0.246720132311979,19.23506511441707,-1.932433696251435,-1.617755651493199e-05,6.174958447198421e-05,-1.545946957001148e-05,7.33325020487919e-05,7.932259836709019e-05
48.48584391825001,14.01415608175,2,0,-0.3065004580439075,18.99594381148936,-1.953683225161532,-1.617755651493199e-05,6.103222056320107e-05,-1.562946580129225e-05,7.22396901479328e-05,7.735252459036808e-05
47.76415608175002,14.73584391825,2,0,-0.3033855427388845,19.22089876181038,-2.022104184849321,-1.634755274621273e-05,6.174958447198431e-05,-1.617683347879457e-05,7.312313568574699e-05,8.397992827934328e-05
48.48584391825001,14.73584391825,2,0,-0.3631658684708103,18.98177745888268,-2.043353713759407,-1.634755274621273e-05,6.10322205632012e-05,-1.634682971007526e-05,7.203098046558139e-05,8.163267377337602e-05
47.76415608175002,12.76415608175,2,0,-0.1262945103212756,18.96809838189449,-2.14402004889517,-1.557862113854367e-05,6.079895043031939e-05,-1.715216039116136e-05,7.270829760943208e-05,7.489224007730683e-05
48.48584391825001,12.76415608175,2,0,-0.1883568117112819,18.71984917633447,-2.193132645530798,-1.557862113854367e-05,6.005420281363931e-05,-1.754506116424638e-05,7.157944439158877e-05,7.328524705144926e-05
47.76415608175002,13.48584391825,2,0,-0.2572614346829463,18.93535665080409,-2.237113500980186,-1.59715219116287e-05,6.079895043031944e-05,-1.789690800784149e-05,7.220656487215007e-05,7.688755965236447e-05
48.48584391825001,13.48584391825,2,0,-0.3193237360729571,18.68710744524405,-2.286226097615807,-1.59715219116287e-05,6.005420281363931e-05,-1.828980878092645e-05,7.107906873159793e-05,7.511583834141944e-05
49.01415608175001,12.76415608175,2,0,-0.3185334944342566,18.48635125242137,-2.402059787772388,-1.580838818412672e-05,5.941115080329579e-05,-1.92164783021791e-05,7.033655915031153e-05,7.202241114504339e-05
49.73584391825001,12.76415608175,2,0,-0.402875423397802,18.14898353656719,-2.455235341156464,-1.580838818412672e-05,5.839904765573325e-05,-1.964188272925171e-05,6.880426887716286e-05,7.017927231283113e-05
49.01415608175001,13.48584391825,2,0,-0.4603349701251158,18.45090088349866,-2.528572681217701,-1.623379261119929e-05,5.941115080329579e-05,-2.022858144974161e-05,6.980453727916091e-05,7.372846427639804e-05
49.73584391825,13.48584391825,2,0,-0.5446768990886612,18.11353316764448,-2.581748234601781,-1.623379261119929e-05,5.839904765573325e-05,-2.065398587681425e-05,6.827456603193311e-05,7.170980915244011e-05
49.01415608175001,14.01415608175,2,0,-0.4590959503109575,18.76222113362987,-2.202358961284694,-1.647888394789896e-05,6.040638438786436e-05,-1.761887169027756e-05,7.093204399884789e-05,7.582007315077042e-05
49.73584391825,14.01415608175,2,0,-0.5418003102713556,18.43140369378828,-2.232883655948946,-1.647888394789896e-05,5.941393206833958e-05,-1.786306924759156e-05,6.942404833173741e-05,7.36034117342017e-05
49.01415608175,14.73584391825,2,0,-0.5404951360823089,18.74187133718704,-2.326415501225295,-1.672308150521302e-05,6.040638438786436e-05,-1.861132400980236e-05,7.063586999999928e-05,7.982840173400603e-05
49.73584391825,14.73584391825,2,0,-0.6231994960426892,18.41105389734551,-2.356940195889543,-1.672308150521302e-05,5.94139320683398e-05,-1.885552156711634e-05,6.912933535039385e-05,7.724629335752894e-05
47.76415608175002,11.51415608175,2,0,0.08619353900021842,18.71261237043696,-2.34308258430565,-1.469427057154887e-05,5.981140475419809e-05,-1.87446606744452e-05,7.240936957985041e-05,7.303494474387843e-05
48.48584391825001,11.51415608175,2,0,0.02227768677341935,18.45694896152976,-2.410846597043102,-1.469427057154887e-05,5.90444145274765e-05,-1.928677277634482e-05,7.125107318330009e-05,7.160745644631943e-05
47.76415608175002,12.23584391825,2,0,-0.09451049496628894,18.66743636194537,-2.438956362645868,-1.523638267344842e-05,5.98114047541982e-05,-1.951165090116695e-05,7.1710742672152e-05,7.385993502386202e-05
48.48584391825001,12.23584391825,2,0,-0.1584263471930933,18.41177295303815,-2.506720375383307,-1.523638267344842e-05,5.904441452747655e-05,-2.005376300306646e-05,7.055432509578233e-05,7.23451789559465e-05
47.76415608175,10.26415608175,2,0,0.3738838386884327,18.46555322492636,-2.521766681102835,-1.35760142961381e-05,5.879066324881359e-05,-2.017413344882268e-05,7.237401921820288e-05,7.235993387023046e-05
48.48584391825001,10.26415608175,2,0,0.309999523326038,18.21001596347678,-2.6059369198011,-1.35760142961381e-05,5.802405146446485e-05,-2.08474953584088e-05,7.122055802661763e-05,7.105002270784101e-05
47.76415608175002,10.98584391825,2,0,0.149429868826382,18.40943973246086,-2.617593154146445,-1.424937620572427e-05,5.879066324881364e-05,-2.094074523317156e-05,7.149927582668277e-05,7.263302064612962e-05
48.48584391825001,10.98584391825,2,0,0.08554555346398374,18.15390247101127,-2.7017633928447,-1.424937620572427e-05,5.802405146446486e-05,-2.16141071427576e-05,7.034809216028759e-05,7.126042037557824e-05
49.01415608175001,10.26415608175,2,0,0.2185267968197682,17.99013860725102,-2.746293740628226,-1.369282513597755e-05,5.739362210574743e-05,-2.197034992502581e-05,7.0135070165372e-05,7.002699973713608e-05
49.73584391825001,10.26415608175,2,0,0.1388806922928083,17.67155418914318,-2.833925248686691,-1.369282513597755e-05,5.643786885142391e-05,-2.267140198949353e-05,6.869785852630366e-05,6.854196016613073e-05
49.01415608175001,10.98584391825,2,0,-0.01515722466948333,17.9317176018787,-2.865762897418646,-1.439387720044531e-05,5.739362210574743e-05,-2.292610317934917e-05,6.923544124704339e-05,7.018437624334699e-05
49.73584391825001,10.98584391825,2,0,-0.0948033291964423,17.61313318377087,-2.953394405477126,-1.439387720044531e-05,5.643786885142393e-05,-2.362715524381701e-05,6.780151671307517e-05,6.861716927333124e-05
49.01415608175001,11.51415608175,2,0,-0.08748330698857654,18.22790389178722,-2.582350626343731,-1.486226969579322e-05,5.839927909930996e-05,-2.065880501074985e-05,7.008116421271146e-05,7.048626573670611e-05
49.73584391825001,11.51415608175,2,0,-0.170446018727465,17.89605304483166,-2.654678130188859,-1.486226969579322e-05,5.74037265584433e-05,-2.123742504151087e-05,6.857911799231371e-05,6.885060405049711e-05
49.01415608175001,12.23584391825,2,0,-0.2803566505755866,18.17968555589048,-2.706794693952074,-1.544088972655426e-05,5.839927909931001e-05,-2.165435755161659e-05,6.934684033743182e-05,7.115366666465862e-05
49.73584391825001,12.23584391825,2,0,-0.3633193623144821,17.8478347089349,-2.779122197797204,-1.544088972655426e-05,5.740372655844326e-05,-2.223297758237764e-05,6.784773965782463e-05,6.941315061479441e-05
47.76415608175,9.01415608175,2,0,0.7257023012180959,18.2254699059291,-2.6799095541635,-1.225812856084537e-05,5.774094185799863e-05,-2.1439276433308e-05,7.256590734878673e-05,7.22827561766342e-05
48.48584391825001,9.01415608175,2,0,0.6632779599692453,17.97577254093369,-2.777951121280207,-1.225812856084537e-05,5.699184976301242e-05,-2.222360897024166e-05,7.144300814953493e-05,7.107245206191278e-05
47.76415608175,9.735843918250001,2,0,0.4642581222402127,18.16010886118463,-2.773546066036785,-1.304246109777902e-05,5.774094185799863e-05,-2.218836852829428e-05,7.153876518328322e-05,7.226608078849477e-05
48.48584391825001,9.735843918250001,2,0,0.4018337809913577,17.91041149618921,-2.871587633153488,-1.304246109777902e-05,5.699184976301237e-05,-2.297270106522791e-05,7.041838730008736e-05,7.099965674999329e-05
47.76415608175,7.764156081749999,2,0,1.131329581539826,17.99031270823302,-2.817492003020079,-1.077199550565897e-05,5.666393700111378e-05,-2.253993602416063e-05,7.294876221068708e-05,7.254427883065159e-05
48.48584391825001,7.764156081749999,2,0,1.07119695498659,17.74978220202007,-2.92721245718934,-1.077199550565897e-05,5.594234548247495e-05,-2.341769965751472e-05,7.187121801930131e-05,7.142895836926267e-05
47.76415608175,8.485843918250001,2,0,0.8387417037551259,17.91716573878684,-2.907690942849936,-1.164975913901307e-05,5.666393700111378e-05,-2.326152754279949e-05,7.178962128875456e-05,7.235729911736372e-05
48.48584391825001,8.485843918250001,2,0,0.7786090772018905,17.6766352325739,-3.017411397019202,-1.164975913901307e-05,5.594234548247496e-05,-2.413929117615362e-05,7.071470851745231e-05,7.118748308410181e-05
49.01415608175001,7.764156081749999,2,0,1.010416227953817,17.55766338282502,-3.027884701281921,-1.08127987768078e-05,5.5376189842677e-05,-2.422307761025537e-05,7.097627210545445e-05,7.057405117731822e-05
49.73584391825001,7.764156081749999,2,0,0.9416516900916121,17.28260523137619,-3.140169450412049,-1.08127987768078e-05,5.455101538833053e-05,-2.512135560329639e-05,6.974532073696614e-05,6.935372175445954e-05
49.01415608175001,8.485843918250001,2,0,0.710990230273473,17.48280688340493,-3.131031508075223,-1.171107676984883e-05,5.5376189842677e-05,-2.504825206460178e-05,6.979852302393903e-05,7.028519311242767e-05
49.73584391825001,8.485843918250001,2,0,0.6422256924112695,17.20774873195612,-3.24331625720535,-1.171107676984883e-05,5.455101538833056e-05,-2.59465300576428e-05,6.857090063639973e-05,6.89899070998111e-05
49.01415608175001,9.01415608175,2,0,0.5875031514089804,17.76870439465362,-2.894525246140399,-1.233495343121416e-05,5.638985154176441e-05,-2.31562019691232e-05,7.044891297409059e-05,7.013507117627019e-05
49.73584391825001,9.01415608175,2,0,0.512870015442382,17.47017185078723,-2.995298339082625,-1.233495343121416e-05,5.549425391016523e-05,-2.3962386712661e-05,6.910713235056073e-05,6.878440308526326e-05
49.01415608175001,9.735843918250001,2,0,0.3187749035630487,17.70152233269214,-3.006474950090275,-1.314113817475196e-05,5.638985154176441e-05,-2.40517996007222e-05,6.940319558790292e-05,7.00137884842305e-05
49.73584391825001,9.735843918250001,2,0,0.2441417675964601,17.40298978882579,-3.107248043032507,-1.314113817475196e-05,5.549425391016535e-05,-2.485798434426006e-05,6.806480660237431e-05,6.858677033098369e-05
47.76415608175,6.514156081749999,2,0,1.580353820452315,17.75763245167782,-2.934330388372417,-9.148973735894845e-06,5.556014078900715e-05,-2.347464310697933e-05,7.348406495549352e-05,7.30155299895368e-05
48.48584391825001,6.514156081749999,2,0,1.522738509434578,17.52717120760687,-3.0534476809444,-9.148973735894845e-06,5.486875705679431e-05,-2.44275814475552e-05,7.245546520085292e-05,7.199195856180283e-05
47.76415608175,7.23584391825,2,0,1.262707706927013,17.67822092329649,-3.02075335489902,-1.010191207647075e-05,5.556014078900715e-05,-2.416602683919216e-05,7.221493473226281e-05,7.272065126127811e-05
48.48584391825001,7.23584391825,2,0,1.20509239590928,17.44775967922556,-3.139870647471004,-1.010191207647075e-05,5.486875705679435e-05,-2.511896517976803e-05,7.118897365893879e-05,7.164451692383659e-05
47.76415608175,5.26415608175,2,0,2.061066244795974,17.52561981079352,-3.030237903622287,-7.425083865287698e-06,5.443313039870247e-05,-2.42419032289783e-05,7.413090411826373e-05,7.361885531524739e-05
48.48584391825001,5.26415608175,2,0,2.005719804187243,17.30423404835859,-3.156067392768052,-7.425083865287698e-06,5.37689731113977e-05,-2.524853914214442e-05,7.314596193106112e-05,7.268021876008397e-05
47.76415608175,5.98584391825,2,0,1.725520940407268,17.44173348469634,-3.113257564535386,-8.431719778453814e-06,5.443313039870247e-05,-2.490606051628309e-05,7.277904450393702e-05,7.325620304042873e-05
48.48584391825001,5.98584391825,2,0,1.670174499798539,17.22034772226143,-3.239087053681149,-8.431719778453814e-06,5.376897311139772e-05,-2.591269642944919e-05,7.179667155354078e-05,7.22694740324161e-05
49.01415608175001,5.26415608175,2,0,1.979438047315282,17.14210260268863,-3.244836091277093,-7.379480330742e-06,5.327117789075139e-05,-2.595868873021674e-05,7.247008833010101e-05,7.198014415404395e-05
49.73584391825001,5.264156081750001,2,0,1.92145100170498,16.91015442024741,-3.374140741443162,-7.379480330741993e-06,5.257533334342773e-05,-2.699312593154529e-05,7.144194626016337e-05,7.100614131633597e-05
49.01415608175001,5.98584391825,2,0,1.634625646872429,17.05589950257792,-3.331816659692547,-8.41391753207056e-06,5.327117789075139e-05,-2.665453327754038e-05,7.108578945362083e-05,7.152699300049468e-05
49.73584391825001,5.985843918250001,2,0,1.576638601262126,16.82395132013671,-3.461121309858615,-8.41391753207056e-06,5.257533334342775e-05,-2.768897047886892e-05,7.006060760280698e-05,7.048522610555554e-05
49.01415608175001,6.514156081749999,2,0,1.478265331927696,17.35055513017794,-3.145455471213257,-9.149995041973723e-06,5.433916415102725e-05,-2.516364376970606e-05,7.166799287670467e-05,7.121714247681533e-05
49.73584391825001,6.51415608175,2,0,1.415307749116669,17.09872479893383,-3.267525965478399,-9.149995041973723e-06,5.358367315729491e-05,-2.61402077238272e-05,7.054643168886e-05,7.012387699375185e-05
49.01415608175001,7.23584391825,2,0,1.152744013887308,17.26917480066784,-3.23989184542979,-1.012655899609489e-05,5.433916415102725e-05,-2.591913476343832e-05,7.037406776961154e-05,7.082376625688482e-05
49.73584391825001,7.23584391825,2,0,1.089786431076285,17.01734446942375,-3.361962339694935,-1.012655899609489e-05,5.358367315729497e-05,-2.689569871755948e-05,6.925567645242862e-05,6.965756807177271e-05
47.76415608175,4.014156081749999,2,0,2.560025552481125,17.29388976305736,-3.106237486297603,-5.643030042506291e-06,5.329242679979866e-05,-2.484989989038083e-05,7.484746029886915e-05,7.429461710219274e-05
48.48584391825001,4.01415608175,2,0,2.50650930335701,17.07982476656091,-3.23559081881217,-5.643030042506294e-06,5.265023181030929e-05,-2.588472655049736e-05,7.389720773172249e-05,7.34283895082334e-05
47.76415608175,4.73584391825,2,0,2.215083332442271,17.20765420804765,-3.18651185998377,-6.677856702622855e-06,5.329242679979866e-05,-2.549209487987016e-05,7.344668223423681e-05,7.389709752449753e-05
48.48584391825001,4.735843918250001,2,0,2.161567083318155,16.99358921155119,-3.315865192498341,-6.677856702622855e-06,5.265023181030928e-05,-2.652692153998673e-05,7.249886623041071e-05,7.299074922591547e-05
47.76415608175,2.764156081749999,2,0,3.063103748501076,17.0636457839453,-3.166394125544978,-3.848984631952792e-06,5.215318350982408e-05,-2.533115300435982e-05,7.559508259136551e-05,7.49827708583423e-05
48.48584391825001,2.764156081749999,2,0,3.011153461794406,16.85584463711862,-3.295900553513737,-3.848984631952796e-06,5.152978006934405e-05,-2.63672044281099e-05,7.467372215133699e-05,7.417028178934257e-05
47.76415608175,3.485843918249999,2,0,2.717753273917711,16.97730816529945,-3.244319555604981,-4.885036055702889e-06,5.215318350982408e-05,-2.595455644483985e-05,7.418228475982586e-05,7.458552239523141e-05
48.48584391825001,3.48584391825,2,0,2.665802987211047,16.76950701847278,-3.373825983573742,-4.885036055702875e-06,5.152978006934407e-05,-2.699060786858993e-05,7.32631711975363e-05,7.374444430604007e-05
49.01415608175,2.764156081749999,2,0,3.013971674482077,16.71448578030415,-3.384218432195702,-3.726879265900673e-06,5.107517715738762e-05,-2.707374745756561e-05,7.417084809961403e-05,7.358355395607375e-05
49.73584391825,2.764156081749999,2,0,2.962422106789877,16.50828750953535,-3.515515731716133,-3.726879265900673e-06,5.045658234508121e-05,-2.812412585372906e-05,7.326153185330517e-05,7.279307277430013e-05
49.01415608175,3.48584391825,2,0,2.663845542427588,16.62695424729053,-3.461542783734001,-4.777257662064141e-06,5.107517715738762e-05,-2.769234226987201e-05,7.274116273265244e-05,7.313160201941896e-05
49.73584391825,3.48584391825,2,0,2.612295974735387,16.42075597652173,-3.592840083254435,-4.777257662064141e-06,5.045658234508121e-05,-2.874272066603548e-05,7.183426536955705e-05,7.22983638444636e-05
49.01415608175,4.01415608175,2,0,2.497950020235267,16.92977026364511,-3.323956041281904,-5.550376146163234e-06,5.217690482747614e-05,-2.659164833025524e-05,7.332394133190324e-05,7.279285441857358e-05
49.73584391825,4.01415608175,2,0,2.44370348888036,16.71278413822548,-3.456683614126362,-5.550376146163231e-06,5.152594645121724e-05,-2.765346891301089e-05,7.236552997800459e-05,7.192276785751563e-05
49.01415608175001,4.735843918250001,2,0,2.144009825983376,16.84128521508214,-3.405325838314265,-6.612196728918905e-06,5.217690482747614e-05,-2.724260670651412e-05,7.189008985908306e-05,7.231933069873735e-05
49.73584391825001,4.735843918250001,2,0,2.089763294628471,16.62429908966251,-3.538053411158725,-6.612196728918905e-06,5.152594645121727e-05,-2.83044272892698e-05,7.093439167718791e-05,7.139132946784772e-05
47.76415608175,1.514156081749999,2,0,3.558396874180798,16.83685196659909,-3.219516878689854,-2.082611575900719e-06,5.103120879377245e-05,-2.575613502951884e-05,7.634490492299491e-05,7.560057635704569e-05
48.48584391825001,1.514156081749999,2,0,3.508240830945184,16.63622779365663,-3.346450088672761,-2.082611575900719e-06,5.042933627494507e-05,-2.677160070938208e-05,7.545598233129818e-05,7.481862622067232e-05
47.76415608175,2.235843918249999,2,0,3.219908314226383,16.75222982661049,-3.294750943543276,-3.098077255763964e-06,5.103120879377245e-05,-2.635800754834621e-05,7.495074345103422e-05,7.525475374767598e-05
48.48584391825001,2.235843918249999,2,0,3.169752270990769,16.55160565366803,-3.421684153526181,-3.098077255763964e-06,5.042933627494508e-05,-2.737347322820945e-05,7.406383418417863e-05,7.445810796588345e-05
47.76415608175,0.26415608175,2,0,4.040606562915914,16.61437758575456,-3.279788458505985,-3.615610672727196e-07,4.993352302408185e-05,-2.623830766804788e-05,7.708569910989703e-05,7.599240193061193e-05
48.48584391825001,0.26415608175,2,0,3.993082697973283,16.42428212598403,-3.403263859239722,-3.615610672727196e-07,4.936323664477027e-05,-2.722611087391777e-05,7.624467007503007e-05,7.521829704352156e-05
47.76415608175,0.9858439182500001,2,0,3.71133882762595,16.53206065193207,-3.351074255919932,-1.349364273142612e-06,4.993352302408185e-05,-2.680859404735945e-05,7.572075965490242e-05,7.579822859195551e-05
48.48584391825001,0.9858439182500001,2,0,3.663814962683318,16.34196519216154,-3.474549656653668,-1.349364273142612e-06,4.936323664477026e-05,-2.779639725322934e-05,7.488149828684351e-05,7.502231827011407e-05
49.01415608175,0.26415608175,2,0,3.966071488762291,16.28930799452263,-3.490064902696766,-3.400176315787711e-07,4.895292839146257e-05,-2.792051922157413e-05,7.567054682658114e-05,7.466825234680953e-05
49.73584391825,0.26415608175,2,0,3.920180104134162,16.10574245601011,-3.606183083319506,-3.400176315787711e-07,4.840223177592503e-05,-2.884946466655605e-05,7.486103447857043e-05,7.393960717598494e-05
49.01415608175,0.9858439182500001,2,0,3.65642300710165,16.21189587410747,-3.558901979638958,-1.268963076560696e-06,4.895292839146257e-05,-2.847121583711166e-05,7.439007434896301e-05,7.44700939408848e-05
49.73584391825,0.9858439182500001,2,0,3.610531622473523,16.02833033559496,-3.675020160261698,-1.268963076560696e-06,4.840223177592505e-05,-2.940016128209359e-05,7.358226692298893e-05,7.373729933803207e-05
49.01415608175,1.514156081749999,2,0,3.507672947735656,16.49981464606818,-3.433892569617148,-1.975298284100445e-06,4.999326850922965e-05,-2.747114055693718e-05,7.496178707114908e-05,7.42605011973822e-05
49.73584391825,1.514156081749999,2,0,3.458549050010587,16.30331905516791,-3.558992348276322,-1.975298284100445e-06,4.940378173652882e-05,-2.847193878621058e-05,7.409522854970613e-05,7.351762541308657e-05
49.01415608175,2.235843918249999,2,0,3.174073537977858,16.41641479362873,-3.50757841620475,-2.976096513373838e-06,4.999326850922965e-05,-2.8060627329638e-05,7.359034328463857e-05,7.388604157913575e-05
49.73584391825,2.235843918249999,2,0,3.124949640252791,16.21991920272846,-3.632678194863925,-2.976096513373838e-06,4.940378173652884e-05,-2.90614255589114e-05,7.272585788560235e-05,7.311977292696478e-05
50.26415608175001,21.51415608175,2,0.7654312809354649,4.654409629363593,22.16443428857279,-0.5144438502393316,-1.2096398139575e-05,0.0002864945602633959,-1.754518172042527e-05,0.0004256165413130606,0.0003813863683883198
50.98584391825001,21.51415608175,2,0.7637444753697922,4.70885039435838,22.40770268818497,-0.4093843407863784,-1.2096398139575e-05,0.0002875597021193156,-1.386242599582483e-05,0.0004272480968141394,0.0003790182163081199
50.26415608175001,22.23584391825,2,0.8029959817825368,4.150874509579562,18.67539974281181,-0.4058292592114558,-8.41364241497445e-06,0.0002864945602633959,-1.648003986450593e-05,0.0004307858044441609,0.0004431512098816877
50.98584391825001,22.23584391825,2,0.8044418398792725,4.137768379081113,18.6077690545571,-0.312826667617762,-8.41364241497445e-06,0.0002875597021193156,-1.279728413990555e-05,0.0004324185709584787,0.000445936282728554
50.26415608175001,20.26415608175,2,0.6646136364211845,3.819385368690684,22.28928057719872,-0.6249800416752349,-1.672516205516683e-05,0.0002035568435865757,-1.490770310411539e-05,0.0002910528072830514,0.0002778895335875375
50.98584391825001,20.26415608175,2,0.6534882384102501,3.783238903305195,22.37728732148316,-0.5416846916610488,-1.672516205516683e-05,0.0001979174617088397,-1.25060041639192e-05,0.0002823351395472372,0.0002698268916400916
50.26415608175001,20.98584391825,2,0.7299290797840965,3.291781717259709,18.0025654492122,-0.6936462686003873,-1.432346311497069e-05,0.0002035568435865757,-2.054708498185184e-05,0.0002944337533700293,0.0003371046356868668
50.98584391825001,20.98584391825,2,0.725062884355639,3.221887459867325,17.81011438305485,-0.6236050125682827,-1.432346311497069e-05,0.0001979174617088397,-1.814538604165568e-05,0.0002857109246240514,0.0003318298471878983
51.51415608175002,20.26415608175,2,0.64176581814678,3.510510313428061,22.40503328166418,-1.050831891155904,-1.867603361508037e-05,0.000192297948493392,-2.346692625968257e-05,0.000271023391982846,0.0002618251654365902
52.23584391825001,20.26415608175,2,0.6197654679589355,3.418321126777923,22.54987563462829,-0.9989488076511158,-1.867603361508037e-05,0.0001825845347520683,-2.101752941351958e-05,0.0002560150058173004,0.0002480266848468856
51.51415608175002,20.98584391825,2,0.7192219598029733,2.980725669001736,17.61800676471399,-1.164538854819205,-1.62266367689174e-05,0.000192297948493392,-3.318034000100657e-05,0.0002745259834795134,0.0003257140365691508
52.23584391825001,20.98584391825,2,0.7076875532783986,2.866561708580214,17.39530670430204,-1.122879647956847,-1.62266367689174e-05,0.0001825845347520683,-3.073094315484358e-05,0.000259510676694785,0.0003142801197275216
51.51415608175002,21.51415608175,2,0.7609309920986048,4.586787246462478,22.55517081922255,-0.9368221610772266,-1.408136293469959e-05,0.0002865579165853157,-3.134901238101501e-05,0.0004230115597963465,0.0003751336818609143
52.23584391825001,21.51415608175,2,0.7547602686194721,4.627477417017538,22.82654674754196,-0.8564204303401012,-1.408136293469959e-05,0.0002827558457521052,-2.79374121156977e-05,0.0004171159803209333,0.0003668890884671459
51.51415608175002,22.23584391825,2,0.8046096333081636,3.970965086509302,18.48982139664405,-0.8585228798553503,-1.066976266938227e-05,0.0002865579165853157,-3.515108321422563e-05,0.0004278264466938113,0.0004462617925632239
52.23584391825001,22.23584391825,2,0.8036289079619104,3.928678535149929,18.33375532456702,-0.7790896159251813,-1.066976266938227e-05,0.0002827558457521052,-3.173948294890832e-05,0.0004219278673162682,0.0004443660291230769
50.26415608175001,19.01415608175,2,0.4986552836088896,2.657649602737056,22.12754251616703,-0.90756626451587,-1.834577085080882e-05,0.0001369955923021326,-1.448211156665079e-05,0.0001861002518927476,0.0001923055254984968
50.98584391825001,19.01415608175,2,0.4707951803500157,2.474199899077199,22.03263753936157,-0.9220915634496937,-1.834577085080882e-05,0.0001294868785435811,-1.393927688050255e-05,0.0001745206850087905,0.0001828637564575062
50.26415608175001,19.73584391825,2,0.6041568520228083,2.170007111437593,17.48899131407068,-1.088114690418085,-1.780293616466061e-05,0.0001369955923021326,-2.199082532520244e-05,0.0001869202494434271,0.0002390907289490261
50.98584391825001,19.73584391825,2,0.5868546667301018,2.006341634186744,17.21936653041126,-1.107642155067716,-1.780293616466061e-05,0.0001294868785435811,-2.144799063905425e-05,0.0001753416900490513,0.000229911547930504
50.26415608175001,17.76415608175,2,0.2525210686452033,1.216082940658671,21.58266106490982,-1.379386402440718,-1.789303066720381e-05,9.109507465550793e-05,-1.476307994330325e-05,0.0001160344441508227,0.0001320936422983216
50.98584391825001,17.76415608175,2,0.2033125547879922,0.8520923518505574,21.22731051909561,-1.517685686939535,-1.78930306672038e-05,8.440665179772054e-05,-1.523996087610655e-05,0.000105764612337034,0.0001243169063920814
50.26415608175001,18.48584391825,2,0.4040921330365148,0.8747643564476175,17.18252597312539,-1.597889909669916,-1.836991160000697e-05,9.109507465550793e-05,-2.145150280109093e-05,0.0001154940311629661,0.00016363574253885
50.98584391825001,18.48584391825,2,0.3668719344996897,0.576516149096038,16.84419783978935,-1.735434396623597,-1.836991160000703e-05,8.440665179772054e-05,-2.1928383733894e-05,0.0001052401661158352,0.0001545697575331126
51.51415608175002,17.76415608175,2,0.159280684167478,0.6186425733535934,20.87133315009396,-1.935982168021415,-1.750573587187033e-05,7.885313299358515e-05,-1.84221500000086e-05,9.781387641156477e-05,0.0001180964515231653
52.23584391825001,17.76415608175,2,0.08476925825631298,0.02639806355400598,20.13282678769222,-2.167176097911146,-1.750573587187033e-05,7.036906031704121e-05,-1.894321070362883e-05,8.482846223942817e-05,0.0001088785886806147
51.51415608175002,18.48584391825,2,0.3321647614545755,0.3754317431679235,16.5503894616748,-2.246115454943976,-1.802679657549042e-05,7.885313299358515e-05,-2.690622267655259e-05,9.731061222303952e-05,0.000146977934121151
52.23584391825001,18.48584391825,2,0.2711759710151247,-0.1055656652677488,16.00069047622861,-2.498707897155926,-1.802679657549042e-05,7.036906031704127e-05,-2.742728338017274e-05,8.436553178903549e-05,0.0001353026718424366
51.51415608175002,19.01415608175,2,0.4440802166544354,2.256656297319639,21.88496310990938,-1.428681922992449,-1.850387527962892e-05,0.0001227273411700912,-2.055954065019295e-05,0.0001639560139911525,0.0001746435543164271
52.23584391825001,19.01415608175,2,0.3962072979902178,1.89958991880474,21.56399074114291,-1.610759165831552,-1.850387527962892e-05,0.0001117686553878224,-2.134188320554369e-05,0.0001470942326487006,0.000161627313458548
51.51415608175002,19.73584391825,2,0.5694095323620266,1.635614750022329,16.92303594575392,-1.696430982334162,-1.928621783497958e-05,0.0001227273411700912,-3.151822643246188e-05,0.0001630601433563786,0.0002213459517180525
52.23584391825001,19.73584391825,2,0.5372446089360692,1.335195227266745,16.49678250452964,-1.868407804192835,-1.928621783497958e-05,0.0001117686553878224,-3.230056898781257e-05,0.0001462282874091447,0.0002071234886860425
50.26415608175,16.51415608175,2,0,-0.3659377491700528,20.15141384797693,-2.015005818585462,-1.729213187572572e-05,6.477727451286222e-05,-1.612004654868369e-05,7.650190089175538e-05,9.660825760040709e-05
50.98584391825001,16.51415608175,2,0,-0.6364467927726825,19.06937767356645,-2.054019391678849,-1.729213187572574e-05,6.153116598963079e-05,-1.643215513343079e-05,7.155254118403162e-05,9.143021720873731e-05
50.26415608175,17.23584391825,2,0.1287244595414478,-0.4094768021347708,17.53477294341194,-2.109157153360858,-1.760424046047288e-05,6.477727451286222e-05,-1.936615507191499e-05,7.6164255952514e-05,0.0001141336818389355
50.98584391825001,17.23584391825,2,0.07161420379191941,-0.6874538881036285,17.67959294325377,-2.28362755911035,-1.760424046047288e-05,6.153116598963079e-05,-1.967826365666212e-05,7.122344096535945e-05,0.0001073987175522193
50.26415608175,15.26415608175,2,0,-0.702350449709825,18.47865176582224,-2.315804422089186,-1.703044285172923e-05,5.969356601039902e-05,-1.852643537671349e-05,6.914436550869048e-05,7.9372044293334e-05
50.98584391825001,15.26415608175,2,0,-0.8148847618768027,18.02851451715433,-2.329296974354126,-1.703044285172923e-05,5.834315426439529e-05,-1.863437579483301e-05,6.709069834286317e-05,7.599969626552737e-05
50.26415608175,15.98584391825,2,0,-0.7383305890829828,18.46965673097895,-2.484605890339635,-1.71383832698487e-05,5.969356601039902e-05,-1.987684712271708e-05,6.903958510333944e-05,8.729390489276966e-05
50.98584391825001,15.98584391825,2,0,-0.8508649012499649,18.01951948231102,-2.498098442604575,-1.71383832698487e-05,5.834315426439524e-05,-1.99847875408366e-05,6.698757312353968e-05,8.301687481210242e-05
51.51415608175002,15.26415608175,2,0,-0.8293126256711094,17.6577150900726,-2.66003073517213,-1.677997247420563e-05,5.716813838876921e-05,-2.128024588137704e-05,6.570678198212381e-05,7.33876764590357e-05
52.23584391825001,15.26415608175,2,0,-0.984295236174737,17.03778464805809,-2.66328521973598,-1.677997247420563e-05,5.530834706272568e-05,-2.130628175788784e-05,6.288268256169718e-05,6.962385366482749e-05
51.51415608175002,15.98584391825,2,0,-0.8379912511747181,17.6555454336967,-2.892504650927585,-1.680600835071645e-05,5.716813838876921e-05,-2.314003720742068e-05,6.573359200654517e-05,7.975332654306489e-05
52.23584391825001,15.98584391825,2,0,-0.9929738616783519,17.03561499168217,-2.895759135491453,-1.680600835071645e-05,5.53083470627256e-05,-2.316607308393162e-05,6.291226348065796e-05,7.51141769393891e-05
51.51415608175002,16.51415608175,2,0,-0.6908400295633612,18.38800225600945,-2.463146718416177,-1.692108989941031e-05,5.939427924288093e-05,-1.970517374732942e-05,6.886319869558162e-05,8.745979670982468e-05
52.23584391825001,16.51415608175,2,0,-0.9068379161598372,17.52401070962355,-2.499193313609648,-1.692108989941031e-05,5.680230460372322e-05,-1.999354650887718e-05,6.492774034538616e-05,8.179044657059103e-05
51.51415608175002,17.23584391825,2,0.02186679931846047,-0.7697558933564581,17.96240991978971,-2.726197639668235,-1.720946266095815e-05,5.939427924288093e-05,-2.229714838648713e-05,6.856320657087629e-05,0.0001021486146692922
52.23584391825001,17.23584391825,2,0,-1.002962170009112,17.49997964616124,-2.823190143504372,-1.720946266095815e-05,5.680230460372324e-05,-2.258552114803498e-05,6.463538221825643e-05,9.454003113427768e-05
50.26415608175,14.01415608175,2,0,-0.6440903865216132,18.13982163829145,-2.482522316429498,-1.657294654750232e-05,5.856270155174992e-05,-1.986017853143599e-05,6.805666120319398e-05,7.186832269717486e-05
50.98584391825001,14.01415608175,2,0,-0.7551864449258208,17.69543740467462,-2.520770815317993,-1.657294654750232e-05,5.722954885089944e-05,-2.016616652254395e-05,6.603620471623668e-05,6.934463270872899e-05
50.26415608175,14.73584391825,2,0,-0.7460863835576061,18.11432263903245,-2.649166404035795,-1.68789345386103e-05,5.856270155174992e-05,-2.119333123228636e-05,6.769571432181965e-05,7.523877200137311e-05
50.98584391825001,14.73584391825,2,0,-0.857182441961811,17.66993840541563,-2.687414902924297,-1.68789345386103e-05,5.722954885089947e-05,-2.149931922339437e-05,6.56781487813022e-05,7.233623003531968e-05
50.26415608175,12.76415608175,2,0,-0.4818968017530185,17.86060353072926,-2.649322258680713,-1.583055259019306e-05,5.753944873973602e-05,-2.119457806944571e-05,6.75103451966814e-05,6.872812931301641e-05
50.98584391825001,12.76415608175,2,0,-0.5932605321840425,17.41514860900516,-2.707007366290747,-1.583055259019306e-05,5.620308397456374e-05,-2.165605893032598e-05,6.549048742985849e-05,6.660667174051836e-05
50.26415608175,13.48584391825,2,0,-0.6357237553797974,17.82214679232256,-2.816367854327255,-1.62920334510734e-05,5.753944873973602e-05,-2.253094283461804e-05,6.69480534190188e-05,7.012380124667638e-05
50.98584391825001,13.48584391825,2,0,-0.7470874858108099,17.37669187059851,-2.874052961937292,-1.62920334510734e-05,5.620308397456388e-05,-2.299242369549834e-05,6.493212805631519e-05,6.780940219069771e-05
51.51415608175002,12.76415608175,2,0,-0.5953121306067448,17.05984103234673,-2.865546374231247,-1.555287164381897e-05,5.506774100799493e-05,-2.292437099384998e-05,6.416928065173708e-05,6.493522145781911e-05
52.23584391825001,12.76415608175,2,0,-0.7424329559101919,16.47135773113294,-2.925244783970174,-1.555287164381897e-05,5.330229110435357e-05,-2.34019582717614e-05,6.150495026365207e-05,6.24901919354633e-05
51.51415608175002,13.48584391825,2,0,-0.7545078899105526,17.02004209252078,-3.086227612186427,-1.603045892173039e-05,5.506774100799493e-05,-2.468982089749141e-05,6.360996642457956e-05,6.598505911945248e-05
52.23584391825001,13.48584391825,2,0,-0.9016287152139997,16.43155879130699,-3.145926021925357,-1.603045892173039e-05,5.330229110435357e-05,-2.516740817540286e-05,6.095228426940823e-05,6.331526021414101e-05
51.51415608175002,14.01415608175,2,0,-0.7696099987693268,17.32743933241401,-2.76230641373541,-1.632470346199305e-05,5.606349386274028e-05,-2.209845130988328e-05,6.464740649973216e-05,6.736009351307783e-05
52.23584391825001,14.01415608175,2,0,-0.9239907297155874,16.70991640862897,-2.803094383231655,-1.632470346199305e-05,5.421092509138515e-05,-2.242475506585324e-05,6.184571932024787e-05,6.446192158916236e-05
51.51415608175002,14.73584391825,2,0,-0.8783779174259871,17.30024735274984,-2.993877510154807,-1.665100721796303e-05,5.606349386274028e-05,-2.395102008123846e-05,6.428672477479221e-05,7.006691967714331e-05
52.23584391825001,14.73584391825,2,0,-1.032758648372248,16.6827244289648,-3.034665479651059,-1.665100721796303e-05,5.421092509138515e-05,-2.427732383720847e-05,6.149064326266756e-05,6.676959044625295e-05
50.26415608175001,11.51415608175,2,0,-0.2352644822169703,17.61948230460379,-2.798369867459122,-1.484843218677734e-05,5.65705549605057e-05,-2.238695893967297e-05,6.736305327132939e-05,6.756552052818815e-05
50.98584391825001,11.51415608175,2,0,-0.3419906985685062,17.19257743919765,-2.872783443767501,-1.484843218677734e-05,5.528984036428726e-05,-2.298226755014001e-05,6.543229361374614e-05,6.569026873933019e-05
50.26415608175001,12.23584391825,2,0,-0.4337006857060173,17.56987325373153,-2.958459191986445,-1.544374079724448e-05,5.65705549605057e-05,-2.366767353589156e-05,6.662318329707788e-05,6.804264006050671e-05
50.98584391825001,12.23584391825,2,0,-0.5404269020575532,17.14296838832539,-3.032872768294817,-1.544374079724448e-05,5.528984036428726e-05,-2.426298214635854e-05,6.469694662332318e-05,6.603885164358833e-05
50.26415608175001,10.26415608175,2,0,0.0813547235561245,17.41244835671003,-2.936185049492799,-1.366962356998842e-05,5.565475096262719e-05,-2.348948039594239e-05,6.756094186697064e-05,6.738283374045059e-05
50.98584391825001,10.26415608175,2,0,-0.01729232696690453,17.01786015461791,-3.024114466803092,-1.366962356998842e-05,5.447098635635084e-05,-2.419291573442473e-05,6.578115101322075e-05,6.570108102396747e-05
50.26415608175001,10.98584391825,2,0,-0.1531237226046676,17.35382874516983,-3.084155625277353,-1.43730589084708e-05,5.565475096262719e-05,-2.467324500221883e-05,6.667270996964923e-05,6.738872595757366e-05
50.98584391825001,10.98584391825,2,0,-0.2517707731276966,16.95924054307772,-3.172085042587646,-1.43730589084708e-05,5.447098635635084e-05,-2.537668034070117e-05,6.489754721506756e-05,6.559976337457863e-05
51.51415608175002,10.26415608175,2,0,-0.02897817786874235,16.7137235761182,-3.062215569081718,-1.346370903007453e-05,5.350709798587321e-05,-2.449772455265375e-05,6.459624486646794e-05,6.439116427986975e-05
52.23584391825001,10.26415608175,2,0,-0.1497804607691728,16.23051444451647,-3.145382611226275,-1.346370903007453e-05,5.205747059106805e-05,-2.516306088981021e-05,6.241569664773331e-05,6.24941578976406e-05
51.51415608175002,10.98584391825,2,0,-0.2507569569208741,16.65827888135516,-3.243418993432366,-1.412904536723093e-05,5.350709798587321e-05,-2.594735194745893e-05,6.377506152238928e-05,6.420030430822325e-05
52.23584391825001,10.98584391825,2,0,-0.3715592398213019,16.17506974975345,-3.32658603557692,-1.412904536723093e-05,5.205747059106809e-05,-2.661268828461536e-05,6.160075802536648e-05,6.216587361865992e-05
51.51415608175002,11.51415608175,2,0,-0.3429049252791199,16.85970506844719,-2.963317632287832,-1.458505981565094e-05,5.422538015925431e-05,-2.370654105830266e-05,6.418381883162833e-05,6.421930882221261e-05
52.23584391825001,11.51415608175,2,0,-0.4785253225033124,16.31722347955042,-3.035882420408508,-1.458505981565094e-05,5.259793539256399e-05,-2.428705936326806e-05,6.173152010067574e-05,6.207582338143717e-05
51.51415608175002,12.23584391825,2,0,-0.5364110269342595,16.81132854303341,-3.166748228124129,-1.516557812061636e-05,5.422538015925431e-05,-2.533398582499303e-05,6.348392108379974e-05,6.44620900916534e-05
52.23584391825001,12.23584391825,2,0,-0.6720314241584457,16.26884695413666,-3.239313016244801,-1.516557812061636e-05,5.259793539256408e-05,-2.591450412995841e-05,6.103835857664949e-05,6.215808583708125e-05
50.26415608175001,9.01415608175,2,0,0.4580636379669674,17.23250385434699,-3.067835686365587,-1.232019944198329e-05,5.477756142353678e-05,-2.454268549092469e-05,6.80525911542505e-05,6.773948652336159e-05
50.98584391825001,9.01415608175,2,0,0.3695267500206008,16.87835630256152,-3.167755947840887,-1.232019944198329e-05,5.371511876818037e-05,-2.534204758272709e-05,6.646064918447577e-05,6.623538947746161e-05
50.26415608175001,9.735843918250001,2,0,0.1916096073661677,17.16589034669678,-3.200641018285141,-1.311956153378569e-05,5.477756142353678e-05,-2.560512814628113e-05,6.702812209686822e-05,6.747681975078723e-05
50.98584391825001,9.735843918250001,2,0,0.1030727194198011,16.81174279491132,-3.300561279760441,-1.311956153378569e-05,5.371511876818037e-05,-2.640449023808353e-05,6.544059781425763e-05,6.587139652491781e-05
50.26415608175001,7.764156081749999,2,0,0.8891135390925289,17.06859513772297,-3.195436426435773,-1.080971278508228e-05,5.390821360943946e-05,-2.556349141148618e-05,6.878296969695231e-05,6.842011422738458e-05
50.98584391825001,7.76415608175,2,0,0.8115308170213495,16.75826424943825,-3.30688199519417,-1.080971278508228e-05,5.29772209445853e-05,-2.645505596155336e-05,6.739460322133543e-05,6.708978045183724e-05
50.26415608175001,8.485843918250001,2,0,0.5919253557367963,16.99429809188403,-3.311810509542554,-1.170127733514948e-05,5.390821360943946e-05,-2.649448407634043e-05,6.762380204879245e-05,6.799224151658272e-05
50.98584391825001,8.485843918250001,2,0,0.5143426336656169,16.68396720359932,-3.423256078300936,-1.170127733514948e-05,5.29772209445853e-05,-2.738604862640749e-05,6.623948333910787e-05,6.656185446674058e-05
51.51415608175002,7.76415608175,2,0,0.7636882921941295,16.52134639782781,-3.291608865214643,-1.077327458324103e-05,5.225735783929368e-05,-2.633287092171714e-05,6.634000574018717e-05,6.607364578462672e-05
52.23584391825001,7.76415608175,2,0,0.6773791327457586,16.17610976003433,-3.396863843240931,-1.077327458324103e-05,5.122164792591323e-05,-2.717491074592745e-05,6.479399107767769e-05,6.462784802190475e-05
51.51415608175002,8.485843918250001,2,0,0.4830083507907146,16.45117641247695,-3.421072604387197,-1.161531440745128e-05,5.225735783929368e-05,-2.736858083509757e-05,6.525653100754601e-05,6.546199125638408e-05
52.23584391825001,8.485843918250001,2,0,0.3966991913423463,16.10593977468348,-3.526327582413486,-1.161531440745128e-05,5.122164792591326e-05,-2.821062065930789e-05,6.371516381734426e-05,6.388749613402867e-05
51.51415608175002,9.01415608175,2,0,0.3399619660886612,16.60677057321137,-3.170328606484552,-1.219753816708538e-05,5.286969626140545e-05,-2.536262885187642e-05,6.53356203488902e-05,6.507389250662926e-05
52.23584391825001,9.01415608175,2,0,0.236020750495892,16.19100571084029,-3.263906740053469,-1.219753816708538e-05,5.162240167429222e-05,-2.611125392042775e-05,6.346461717194246e-05,6.3404720815243e-05
51.51415608175002,9.735843918250001,2,0,0.09042027657154961,16.54438515083209,-3.326240429873712,-1.294616323563671e-05,5.286969626140545e-05,-2.660992343898969e-05,6.439154897369944e-05,6.462524153214271e-05
52.23584391825001,9.735843918250001,2,0,-0.01352093902122409,16.128620288461,-3.41981856344263,-1.294616323563671e-05,5.162240167429216e-05,-2.735854850754104e-05,6.252602113105219e-05,6.282610600350026e-05
50.26415608175001,6.51415608175,2,0,1.369209865616993,16.90875022511474,-3.317161818029834,-9.145528610117411e-06,5.301263282787356e-05,-2.653729454423867e-05,6.969369418967643e-05,6.92994668999012e-05
50.98584391825001,6.51415608175,2,0,1.302158182326636,16.64054349195332,-3.43958348903695,-9.145528610117418e-06,5.22080126283893e-05,-2.75166679122956e-05,6.850148138656651e-05,6.814040212019631e-05
50.26415608175001,7.23584391825,2,0,1.042752076264663,16.82713577777665,-3.417739342965358,-1.01249019781744e-05,5.301263282787356e-05,-2.734191474372286e-05,6.84029733632035e-05,6.877038421315932e-05
50.98584391825001,7.235843918250001,2,0,0.9757003929742991,16.55892904461523,-3.540161013972476,-1.012490197817443e-05,5.22080126283893e-05,-2.832128811177981e-05,6.721439274615267e-05,6.751275102078159e-05
50.26415608175001,5.264156081750001,2,0,1.888842768958372,16.74260751830007,-3.427193903572968,-7.349789153973261e-06,5.206526984339352e-05,-2.741755122858375e-05,7.071770159355301e-05,7.028549349172562e-05
50.98584391825001,5.26415608175,2,0,1.830703198132087,16.51004923499492,-3.558712680575136,-7.349789153973255e-06,5.136759499347807e-05,-2.846970144460109e-05,6.969176833966387e-05,6.929064985815039e-05
50.26415608175001,5.985843918250001,2,0,1.538126030285914,16.65492833363195,-3.514403259812401,-8.401939369990637e-06,5.206526984339352e-05,-2.811522607849921e-05,6.931388930336803e-05,6.97054392075253e-05
50.98584391825001,5.985843918250001,2,0,1.479986459459627,16.4223700503268,-3.645922036814571,-8.401939369990637e-06,5.136759499347807e-05,-2.916737629451657e-05,6.829119064567005e-05,6.861678867787868e-05
51.51415608175002,5.26415608175,2,0,1.776049796644734,16.34139973632114,-3.556428039071284,-7.389760439793762e-06,5.087163931891185e-05,-2.845142431257027e-05,6.887822599008529e-05,6.856004111692053e-05
52.23584391825001,5.26415608175,2,0,1.721274692364809,16.12229931920144,-3.687734086851007,-7.389760439793762e-06,5.021433806755275e-05,-2.950187269480806e-05,6.791774792714198e-05,6.755882454891698e-05
51.51415608175002,5.985843918250001,2,0,1.425900335898806,16.25386237113466,-3.638590695491176,-8.440208822031546e-06,5.087163931891185e-05,-2.910872556392941e-05,6.74796258811886e-05,6.780526040381214e-05
52.23584391825001,5.985843918250001,2,0,1.371125231618878,16.03476195401495,-3.769896743270894,-8.440208822031546e-06,5.021433806755272e-05,-3.015917394616716e-05,6.652241117770271e-05,6.667677445683601e-05
51.51415608175002,6.51415608175,2,0,1.24362096107384,16.43867128309324,-3.423612401363094,-9.171349951038306e-06,5.16088513370393e-05,-2.738889921090475e-05,6.754613862700828e-05,6.726875239595726e-05
52.23584391825001,6.51415608175,2,0,1.174261053533667,16.16123165293255,-3.541995692587697,-9.171349951038306e-06,5.077653244655722e-05,-2.833596554070158e-05,6.631414288147644e-05,6.604642584253639e-05
51.51415608175002,7.235843918250001,2,0,0.9279321844748836,16.3597490889435,-3.527652262673356,-1.011841628083517e-05,5.16088513370393e-05,-2.822121810138684e-05,6.630503386121433e-05,6.655776597287621e-05
52.23584391825001,7.235843918250001,2,0,0.8585722769347104,16.08230945878281,-3.646035553897963,-1.011841628083517e-05,5.077653244655722e-05,-2.91682844311837e-05,6.507692696631673e-05,6.520633149379694e-05
50.26415608175,4.01415608175,2,0,2.430153078578479,16.56407831849258,-3.518041405353588,-5.474772803342931e-06,5.106092815631346e-05,-2.814433124282871e-05,7.177603024610471e-05,7.129424812538188e-05
50.98584391825001,4.014156081749999,2,0,2.378528475918354,16.3575799078521,-3.654376959479853,-5.474772803342944e-06,5.044143292439201e-05,-2.923501567583882e-05,7.087120905187202e-05,7.044718684461779e-05
50.26415608175,4.735843918250001,2,0,2.066591600908446,16.47318794907507,-3.595478309343764,-6.56545723635303e-06,5.106092815631346e-05,-2.876382647475011e-05,7.030516707995154e-05,7.071121355817941e-05
50.98584391825001,4.735843918250001,2,0,2.01496699824833,16.26668953843459,-3.731813863470024,-6.565457236353017e-06,5.044143292439201e-05,-2.985451090776019e-05,6.940320691585866e-05,6.978110356874027e-05
50.26415608175,2.764156081749999,2,0,2.965755771855686,16.373240632043,-3.585444391548772,-3.608174035696207e-06,5.002176540505306e-05,-2.868355513239018e-05,7.278127470079044e-05,7.223694832080057e-05
50.98584391825001,2.764156081749998,2,0,2.918310175197966,16.18345824541212,-3.71971903183193,-3.6081740356962e-06,4.945241824516039e-05,-2.975775225465543e-05,7.195246183460949e-05,7.150806924021737e-05
50.26415608175,3.485843918249999,2,0,2.607690064433932,16.28372420518756,-3.656612786535351,-4.682371157961469e-06,5.002176540505306e-05,-2.925290229228281e-05,7.131983144441812e-05,7.170306752287759e-05
50.98584391825001,3.485843918249998,2,0,2.560244467776215,16.09394181855668,-3.790887426818512,-4.682371157961455e-06,4.94524182451604e-05,-3.03270994145481e-05,7.049348745080581e-05,7.090992590163194e-05
51.51415608175002,2.764156081749998,2,0,2.910741994677683,16.06460632954807,-3.762733958302473,-3.537310680669867e-06,4.907814665881166e-05,-3.010187166641978e-05,7.149187929592365e-05,7.101554465421632e-05
52.23584391825001,2.764156081749999,2,0,2.872976842187265,15.9135457195864,-3.902376605429025,-3.537310680669867e-06,4.862496482892665e-05,-3.12190128434322e-05,7.084647090380893e-05,7.039882154181065e-05
51.51415608175002,3.485843918249998,2,0,2.538361602340212,15.9715112314637,-3.819381687038099,-4.654451857682279e-06,4.907814665881166e-05,-3.055505349630479e-05,6.996933935502729e-05,7.035827286915349e-05
52.23584391825001,3.485843918249999,2,0,2.500596449849795,15.82045062150203,-3.959024334164648,-4.654451857682279e-06,4.862496482892665e-05,-3.167219467331718e-05,6.932625243941871e-05,6.964427037745449e-05
51.51415608175002,4.014156081749999,2,0,2.343839782434497,16.21752036738531,-3.674361961491344,-5.473728990117857e-06,5.002099334968538e-05,-2.939489569193075e-05,7.023591063433127e-05,6.984690625647745e-05
52.23584391825001,4.014156081749999,2,0,2.299742528456279,16.04113135147245,-3.814507658288361,-5.473728990117867e-06,4.949182630194682e-05,-3.051606126630688e-05,6.947441568525936e-05,6.905397047157507e-05
51.51415608175002,4.73584391825,2,0,1.970117924309112,16.12408990285396,-3.740507842458666,-6.594894564494012e-06,5.002099334968538e-05,-2.992406273966933e-05,6.872345255282093e-05,6.910709847435553e-05
52.23584391825001,4.73584391825,2,0,1.926020670330898,15.94770088694111,-3.880653539255678,-6.594894564494012e-06,4.949182630194681e-05,-3.104522831404543e-05,6.796472787060916e-05,6.819579230129696e-05
50.26415608175,1.514156081749999,2,0,3.463325835452066,16.17603644108162,-3.634722869143463,-1.858186479418685e-06,4.899265594309953e-05,-2.907778295314771e-05,7.365189404555823e-05,7.300641152280907e-05
50.98584391825001,1.514156081749999,2,0,3.418848353510579,15.99812651331567,-3.758879063194613,-1.858186479418685e-06,4.845892615980169e-05,-3.00710325055569e-05,7.287425897310873e-05,7.235262498527222e-05
50.26415608175,2.235843918249999,2,0,3.132242651315669,16.09326564504752,-3.701439092055692,-2.851436031827876e-06,4.899265594309953e-05,-2.961151273644554e-05,7.229135086899486e-05,7.25861782930313e-05
50.98584391825001,2.235843918249999,2,0,3.087765169374184,15.91535571728158,-3.825595286106843,-2.851436031827876e-06,4.84589261598017e-05,-3.060476228885474e-05,7.151572894188093e-05,7.189463929458786e-05
50.26415608175,0.26415608175,2,0,3.89646497514178,15.98067600982347,-3.685429726003839,-3.158528874050796e-07,4.802099125132167e-05,-2.948343780803072e-05,7.433534315718499e-05,7.344304163801272e-05
50.98584391825001,0.26415608175,2,0,3.855558986172832,15.81705205394768,-3.793295493021927,-3.158528874050796e-07,4.753011938369429e-05,-3.034636394417542e-05,7.361822802816537e-05,7.281504452975174e-05
50.26415608175,0.9858439182500001,2,0,3.608822929760215,15.90876549847808,-3.746788709457262,-1.178779023549775e-06,4.802099125132167e-05,-2.997430967565809e-05,7.314741070056752e-05,7.323600736411353e-05
50.98584391825001,0.9858439182500001,2,0,3.567916940791267,15.74514154260229,-3.85465447647535,-1.178779023549775e-06,4.753011938369429e-05,-3.08372358118028e-05,7.24318068103423e-05,7.259924682473609e-05
51.51415608175002,0.26415608175,2,0,3.837012730617826,15.71372749638281,-3.863902065422387,-2.925412591292013e-07,4.721431780393071e-05,-3.09112165233791e-05,7.319090377349442e-05,7.242034085314363e-05
52.23584391825001,0.26415608175,2,0,3.806019889498331,15.58975613190483,-3.963806763333028,-2.925412591292013e-07,4.684240371049678e-05,-3.171045410666422e-05,7.265604475602922e-05,7.196998746293113e-05
51.51415608175002,0.9858439182500001,2,0,3.570600202856117,15.64712436444238,-3.910391327101628,-1.091778842414329e-06,4.721431780393071e-05,-3.128313061681303e-05,7.208909750980146e-05,7.219495792627032e-05
52.23584391825001,0.9858439182500001,2,0,3.539607361736622,15.5231529999644,-4.010296025012269,-1.091778842414329e-06,4.684240371049678e-05,-3.208236820009815e-05,7.155541437637199e-05,7.172718065405625e-05
51.51415608175002,1.514156081749999,2,0,3.425075331041822,15.89141304307472,-3.819107850834302,-1.752889375125944e-06,4.811246147300563e-05,-3.055286280667442e-05,7.251052663374574e-05,7.193149627805629e-05
52.23584391825001,1.514156081749999,2,0,3.390672885700349,15.75380326170882,-3.944976598531641,-1.752889375125944e-06,4.769963212890795e-05,-3.155981278825312e-05,7.192199755558538e-05,7.14347377909045e-05
51.51415608175002,2.235843918249999,2,0,3.089425337182254,15.80750054460983,-3.870711518846513,-2.75983935670465e-06,4.811246147300563e-05,-3.096569215077211e-05,7.112817884948505e-05,7.143708859613245e-05
52.23584391825001,2.235843918249999,2,0,3.05502289184078,15.66989076324393,-3.99658026654385,-2.75983935670465e-06,4.769963212890795e-05,-3.19726421323508e-05,7.054144517573818e-05,7.08785758393039e-05
52.76415608175,21.51415608175,2,0.7461661712293477,4.466395512652479,23.24352318218501,-1.768921039978384,-1.694948591405994e-05,0.000278946892602112,-5.575052146659823e-05,0.0004075081629127793,0.000355997685449745
53.48584391825,21.51415608175,2,0.7275330017350914,4.644308205893307,24.34995225999481,-1.598376718556507,-1.694948591405994e-05,0.0002723427099054499,-4.693050472123512e-05,0.0003972035088701823,0.0003344864124330003
52.76415608175,22.23584391825,2,0.8009379606005842,4.087888539807032,18.37439004917245,-1.551556822110721,-8.129469168696816e-06,0.000278946892602112,-6.235470416325996e-05,0.0004199611832681997,0.0004392472056021591
53.48584391825,22.23584391825,2,0.7943233631759976,4.110530427146667,18.53217405581415,-1.37635430769216,-8.129469168696816e-06,0.0002723427099054502,-5.353468741789696e-05,0.0004096445469392992,0.0004271580831075856
52.76415608175,20.26415608175,2,0.5954801113949474,3.213334543166416,22.47513933405113,-1.852134377558093,-1.902858461583248e-05,0.0001714372523773217,-3.662879239772358e-05,0.0002385183512589895,0.0002343973539999933
53.48584391825,20.26415608175,2,0.5463492487457826,2.819491809654174,22.06838187146275,-2.124792540029768,-1.902858461583248e-05,0.0001506957243032273,-3.747010287813364e-05,0.0002065746543754814,0.0002109598102412394
52.76415608175,20.98584391825,2,0.6933063567594302,2.350236120604628,17.01840762976173,-2.199389074922613,-1.986989509624259e-05,0.0001714372523773217,-5.737032047181798e-05,0.000237766479701947,0.0003011083331450177
53.48584391825,20.98584391825,2,0.6628188974940643,2.001061493548268,16.37893739322853,-2.453482737892617,-1.986989509624259e-05,0.0001506957243032272,-5.821163095222814e-05,0.0002058983114804649,0.0002765562598152623
54.01415608175001,20.26415608175,2,0.4919176559696532,3.368912434932867,21.36434435239633,-3.130066741668306,-1.242112772522351e-05,0.0001292522221079179,-4.928440089988805e-05,0.0001829476004787288,0.0001899336308524359
54.73584391825,20.26415608175,2,0.3727182821696858,2.181084763142542,18.46377197365511,-4.028056062814788,-1.242112772522351e-05,9.140901268972279e-05,-5.137157290982188e-05,0.0001249429258253542,0.0001559265842294787
54.01415608175001,20.98584391825,2,0.6241390894151869,2.230703908218163,15.73919406973971,-4.093482868904182,-1.450829973515737e-05,0.0001292522221079179,-8.712761031808307e-05,0.000181485134593008,0.0002506522116171258
54.73584391825,20.98584391825,2,0.5306551044038831,1.305397318291971,13.73333480376114,-5.234062837171675,-1.450829973515737e-05,9.140901268972279e-05,-8.921478232801693e-05,0.0001242186503538273,0.0002044331091448506
54.01415608175001,21.51415608175,2,0.7006493598161314,4.962826771908169,24.22518560880745,-3.593372042095001,-1.168897723014918e-05,0.0002456995999256285,-9.603111695068666e-05,0.0003644115682393227,0.0003076919078309115
54.73584391825,21.51415608175,2,0.6327675620577815,4.062739698126959,21.61667329910629,-3.958830525719264,-1.168897723014918e-05,0.0001795134524826783,-8.624141261382053e-05,0.0002623355605053213,0.0002559992329079994
54.01415608175001,22.23584391825,2,0.7797799857206175,4.369578149111958,18.0011349760469,-4.465436035141114,-1.899272893283115e-06,0.0002456995999256285,-0.0001622172643936361,0.0003804096038139905,0.0004028086751772036
54.73584391825,22.23584391825,2,0.7398279092351563,3.727319921209999,15.52695193431308,-4.957174623769203,-1.899272893283115e-06,0.0001795134524826783,-0.00015242756005677,0.0002788711767695161,0.0003483739780689245
52.76415608175,19.01415608175,2,0.3493372812615898,1.905866480814469,21.17103471104972,-2.195620611809732,-1.665694793647884e-05,0.0001017771819155531,-2.699549918663713e-05,0.0001343375138568187,0.0001506385463167618
53.48584391825,19.01415608175,2,0.2615812216798363,1.157524526221251,20.0048520371316,-2.63119187393786,-1.665694793647884e-05,8.543865452794561e-05,-2.850622926923484e-05,0.0001092794176183387,0.0001336329170294608
52.76415608175,19.73584391825,2,0.5035854064141516,1.204073032997363,16.08966775728755,-2.688955398786489,-1.816767801907662e-05,0.0001017771819155531,-4.333402657424445e-05,0.0001327119156384898,0.0001940790961353337
53.48584391825,19.73584391825,2,0.437264558302764,0.5987478112573332,15.17448663837715,-3.15446674313665,-1.816767801907662e-05,8.543865452794556e-05,-4.484475665684226e-05,0.0001077936131997931,0.0001726636159634193
52.76415608175,17.76415608175,2,0.01776010001400152,0.06274544440849539,19.77592929766992,-2.8050294106835,-1.590238598152183e-05,6.437610343248967e-05,-2.28459822145159e-05,7.78925732890181e-05,0.0001017380745471318
53.48584391825,17.76415608175,2,0,-0.5935358761594367,17.50383897226455,-2.87419512467603,-1.590238598152183e-05,5.64871134121741e-05,-2.299356099740824e-05,6.587255931531914e-05,9.144768998401372e-05
52.76415608175,18.48584391825,2,0.2137959909977972,0.01154700283813082,15.81937131401074,-3.020494798449492,-1.604996476441424e-05,6.437610343248967e-05,-3.073497223483152e-05,7.796166792888303e-05,0.0001258958441547082
53.48584391825,18.48584391825,2,0.1103068722013162,-0.5718313997704376,15.56210359130622,-3.434499176170155,-1.604996476441424e-05,5.648711341217419e-05,-3.088255101772394e-05,6.599138479566788e-05,0.0001118711752514106
54.01415608175001,17.76415608175,2,0,-0.1544758219196334,16.10267552899015,-3.451444150268665,-1.337646305333495e-05,5.165214235030419e-05,-2.761155320214932e-05,6.201544994087702e-05,8.378656128360087e-05
54.73584391825,17.76415608175,2,0,-0.5978422031195669,14.32921000419042,-3.386140224841881,-1.337646305333495e-05,4.633174577590499e-05,-2.708912179873505e-05,5.393394041517441e-05,7.314635299297701e-05
54.01415608175001,18.48584391825,2,0.01333821155964143,0.0194056435506953,15.9308498946774,-4.061587057919685,-1.285403164992066e-05,5.165214235030419e-05,-3.293194977654857e-05,6.29522347376228e-05,0.000101299702032498
54.73584391825,18.48584391825,2,0,-0.4236984019814716,14.37274595447495,-4.051189796641788,-1.285403164992066e-05,4.633174577590499e-05,-3.24095183731343e-05,5.489147579235399e-05,8.644256898964487e-05
54.01415608175001,19.01415608175,2,0.1760405808628147,1.578770818245894,19.1382524927161,-3.169877576318505,-1.245029201380854e-05,7.279410845852411e-05,-3.077702617575864e-05,9.564933162841522e-05,0.0001203892648062828
54.73584391825,19.01415608175,2,0.01245467128051325,0.3938598633653161,16.94447410274896,-3.727541736319286,-1.245029201380854e-05,5.458709354435801e-05,-3.019642038023834e-05,6.781179369299973e-05,0.0001012125633405505
54.01415608175001,19.73584391825,2,0.3688655817149761,1.331449772510592,14.69000847329876,-3.864439284817401,-1.186968621828824e-05,7.279410845852411e-05,-4.89840410899245e-05,9.717754920926942e-05,0.0001550297794518585
54.73584391825,19.73584391825,2,0.2290648722518377,0.4566729742428293,13.26513947325462,-4.664488571517663,-1.186968621828824e-05,5.458709354435801e-05,-4.840343529440407e-05,6.959031382266348e-05,0.0001282687223397776
52.76415608175,16.51415608175,2,0,-0.7790166094986706,16.94907376225365,-2.969238821554592,-1.605211216019866e-05,5.486024932681061e-05,-2.375391057243673e-05,6.323244303966066e-05,7.7465318586463e-05
53.48584391825,16.51415608175,2,0,-1.005168196890386,16.04446741268679,-2.950594973340768,-1.605211216019866e-05,5.214643027811003e-05,-2.360475978672614e-05,5.911300840800999e-05,7.131819932331856e-05
52.76415608175,17.23584391825,2,0,-0.7292996809284773,16.9615029943962,-3.308466202642127,-1.590296137448809e-05,5.486024932681061e-05,-2.646772962113702e-05,6.353022050154314e-05,8.87611543325095e-05
53.48584391825,17.23584391825,2,0,-0.9554512683201812,16.05689664482938,-3.289822354428316,-1.590296137448809e-05,5.214643027811016e-05,-2.631857883542653e-05,5.941552513723263e-05,8.05815528337409e-05
52.76415608175,15.26415608175,2,0,-0.87025651990737,16.54524835030735,-2.982749784564069,-1.602101954394946e-05,5.364099993690941e-05,-2.386199827651255e-05,6.142739588235952e-05,6.669582157304619e-05
53.48584391825,15.26415608175,2,0,-1.094880331218501,15.64675310506282,-2.990590560490972,-1.602101954394946e-05,5.094551420117583e-05,-2.392472448392778e-05,5.734864890817946e-05,6.246011192597566e-05
52.76415608175,15.98584391825,2,0,-0.8911652557124592,16.54002116635608,-3.319685501530743,-1.608374575136473e-05,5.364099993690941e-05,-2.655748401224594e-05,6.145252646963116e-05,7.155293049302483e-05
53.48584391825,15.98584391825,2,0,-1.115789067023583,15.64152592111158,-3.327526277457665,-1.608374575136473e-05,5.094551420117591e-05,-2.662021021966133e-05,5.738167269265126e-05,6.646257386654569e-05
54.01415608175001,15.26415608175,2,0,-0.7915922407050378,14.99402301001062,-3.212774358553769,-1.452831357826462e-05,4.861414742459802e-05,-2.570219486843015e-05,5.582609038809705e-05,5.917893350758148e-05
54.73584391825,15.26415608175,2,0,-1.097752803140546,13.76938076026859,-3.215788852900109,-1.452831357826462e-05,4.494022067537192e-05,-2.572631082320087e-05,5.028565209290806e-05,5.44502970065195e-05
54.01415608175001,15.98584391825,2,0,-0.7996308922952782,14.99201334711306,-3.672015202207021,-1.455242953303534e-05,4.861414742459802e-05,-2.937612161765617e-05,5.596858970889165e-05,6.254599580471628e-05
54.73584391825,15.98584391825,2,0,-1.105791454730786,13.76737109737103,-3.67502969655337,-1.455242953303534e-05,4.494022067537192e-05,-2.940023757242696e-05,5.044618663403459e-05,5.693606217401296e-05
54.01415608175001,16.51415608175,2,0,-0.6497999919127597,15.33991310881316,-3.37183435300341,-1.435129046117136e-05,4.960756194173231e-05,-2.697467482402728e-05,5.76147703150798e-05,6.665199645614889e-05
54.73584391825,16.51415608175,2,0,-1.001674845271642,13.93241369537763,-3.300129588189176,-1.435129046117136e-05,4.538506370142573e-05,-2.640103670551341e-05,5.121494302508375e-05,6.005081240722017e-05
54.01415608175001,17.23584391825,2,0,-0.4585872857414692,15.38771628535598,-3.89964663304172,-1.377765234265749e-05,4.960756194173231e-05,-3.119717306433376e-05,5.856411911725048e-05,7.450273655511575e-05
54.73584391825,17.23584391825,2,0,-0.8104621391003515,13.98021687192045,-3.82794186822747,-1.377765234265749e-05,4.538506370142573e-05,-3.062353494581976e-05,5.217390973758096e-05,6.607470313009763e-05
52.76415608175,14.01415608175,2,0,-0.8078545168265459,16.2389765045798,-2.995610039756192,-1.557631565750879e-05,5.261100842811659e-05,-2.396488031804954e-05,6.044704478674114e-05,6.218430544968657e-05
53.48584391825,14.01415608175,2,0,-1.017728253556236,15.39948155766104,-3.034202340078801,-1.557631565750879e-05,5.009252358736032e-05,-2.427361872063041e-05,5.664625966397079e-05,5.885991436015072e-05
52.76415608175,14.73584391825,2,0,-0.91076731768685,16.21324830436473,-3.310420644850712,-1.58850540600897e-05,5.261100842811659e-05,-2.64833651588057e-05,6.014824107546343e-05,6.418550605857183e-05
53.48584391825,14.73584391825,2,0,-1.120641054416534,15.37375335744599,-3.349012945173326,-1.58850540600897e-05,5.009252358736038e-05,-2.679210356138661e-05,5.635795519411254e-05,6.042298545097173e-05
52.76415608175,12.76415608175,2,0,-0.6366077734509643,16.03450357395427,-3.011409719178502,-1.48647477342065e-05,5.181969765541444e-05,-2.409127775342802e-05,6.017747898340469e-05,6.057151351471841e-05
53.48584391825,12.76415608175,2,0,-0.8270303339510248,15.27281333195403,-3.066181927585751,-1.48647477342065e-05,4.953462692941371e-05,-2.452945542068601e-05,5.673249045460217e-05,5.777461610799033e-05
52.76415608175,13.48584391825,2,0,-0.7826669958703043,15.99798876834944,-3.297043559928592,-1.530292540146452e-05,5.181969765541444e-05,-2.637634847942874e-05,5.970051945619108e-05,6.121593906613907e-05
53.48584391825,13.48584391825,2,0,-0.973089556370355,15.23629852634923,-3.351815768335846,-1.530292540146452e-05,4.953462692941382e-05,-2.681452614668677e-05,5.626611761795531e-05,5.815028593346159e-05
54.01415608175001,12.76415608175,2,0,-0.5934507928688055,14.74642938081556,-3.025952642419503,-1.369618604183262e-05,4.766333465290481e-05,-2.420762113935602e-05,5.540262766573949e-05,5.560507032304652e-05
54.73584391825,12.76415608175,2,0,-0.8290670303229861,13.80396443099883,-3.06693543703041,-1.369618604183262e-05,4.483593980345465e-05,-2.453548349624328e-05,5.114106478616931e-05,5.247465841570921e-05
54.01415608175001,13.48584391825,2,0,-0.7027382451645612,14.71910751774162,-3.379376998600763,-1.402404839871989e-05,4.766333465290481e-05,-2.703501598880611e-05,5.510312418977114e-05,5.576586080099158e-05
54.73584391825,13.48584391825,2,0,-0.9383544826187418,13.77664256792489,-3.420359793211674,-1.402404839871989e-05,4.483593980345465e-05,-2.736287834569339e-05,5.085680112249626e-05,5.231714332463986e-05
54.01415608175001,14.01415608175,2,0,-0.742386544971481,14.80969445051351,-3.108562545082986,-1.422339250431954e-05,4.79849314776204e-05,-2.486850036066389e-05,5.523299722819847e-05,5.627310096912864e-05
54.73584391825,14.01415608175,2,0,-1.012350202048929,13.72983982220371,-3.135657028560909,-1.422339250431954e-05,4.474536759269102e-05,-2.508525622848727e-05,5.035199540112187e-05,5.253018644439215e-05
54.01415608175001,14.73584391825,2,0,-0.8146385009126336,14.79163146152822,-3.513508030699152,-1.4440148372143e-05,4.79849314776204e-05,-2.810806424559322e-05,5.510194117472942e-05,5.749811640223272e-05
54.73584391825,14.73584391825,2,0,-1.084602157990082,13.71177683321842,-3.540602514177083,-1.4440148372143e-05,4.474536759269102e-05,-2.832482011341667e-05,5.023855404440125e-05,5.326974616285246e-05
52.76415608175,11.51415608175,2,0,-0.3960997960350952,15.92009241198214,-3.038581578862897,-1.400359327689801e-05,5.126117555517091e-05,-2.430865263090318e-05,6.046315542670046e-05,6.0403370669832e-05
53.48584391825,11.51415608175,2,0,-0.5648207149301099,15.24520873640208,-3.102706511843119,-1.400359327689801e-05,4.923652452843074e-05,-2.482165209474495e-05,5.741187289353251e-05,5.797763032905149e-05
52.76415608175,12.23584391825,2,0,-0.5670996173157263,15.87734245666198,-3.291662957205402,-1.451659274073991e-05,5.126117555517091e-05,-2.633330365764321e-05,5.987525370594661e-05,6.035378646913966e-05
53.48584391825,12.23584391825,2,0,-0.7358205362107375,15.20245878108194,-3.355787890185634,-1.451659274073991e-05,4.923652452843078e-05,-2.684630312148507e-05,5.683341876493528e-05,5.772835317822137e-05
52.76415608175,10.26415608175,2,0,-0.1043419645456778,15.8767022951793,-3.086382793210663,-1.303525612268961e-05,5.088892091621028e-05,-2.469106234568531e-05,6.118454354878439e-05,6.102391220598845e-05
53.48584391825,10.26415608175,2,0,-0.2495844385631676,15.29573239910934,-3.157809568672591,-1.303525612268961e-05,4.91460112280004e-05,-2.526247654938073e-05,5.855929752947642e-05,5.890413265884392e-05
52.76415608175,10.98584391825,2,0,-0.2948133657775198,15.82908444487133,-3.304246504236891,-1.360667032638513e-05,5.088892091621028e-05,-2.643397203389513e-05,6.050447697707879e-05,6.058293031984236e-05
53.48584391825,10.98584391825,2,0,-0.4400558397950007,15.24811454880141,-3.375673279698826,-1.360667032638513e-05,4.914601122800051e-05,-2.700538623759061e-05,5.788710822478385e-05,5.829267949135158e-05
54.01415608175001,10.26415608175,2,0,-0.139119793448212,14.89075222521868,-2.964544919549651,-1.235778511920922e-05,4.776170295545833e-05,-2.371635935639721e-05,5.728344682585758e-05,5.72774416549522e-05
54.73584391825,10.26415608175,2,0,-0.3090440306043702,14.21105527659405,-3.016131471128905,-1.235778511920922e-05,4.572261210958443e-05,-2.412905176903124e-05,5.420457061385003e-05,5.495301873106041e-05
54.01415608175001,10.98584391825,2,0,-0.2766839309928715,14.85636119083251,-3.219431275283888,-1.27704775318432e-05,4.776170295545833e-05,-2.575545020227111e-05,5.682716836545947e-05,5.653012432103681e-05
54.73584391825,10.98584391825,2,0,-0.4466081681490297,14.17666424220788,-3.271017826863137,-1.27704775318432e-05,4.572261210958443e-05,-2.61681426149051e-05,5.375726471970297e-05,5.400498487287972e-05
54.01415608175001,11.51415608175,2,0,-0.3861057488811568,14.78042269736888,-2.97427146196045,-1.305987655431481e-05,4.760623723068535e-05,-2.37941716956836e-05,5.612916387677552e-05,5.610646829072713e-05
54.73584391825,11.51415608175,2,0,-0.5885538073664951,13.97063046342753,-3.021516514517038,-1.305987655431481e-05,4.517686052886129e-05,-2.417213211613631e-05,5.246382528698315e-05,5.3420098873394e-05
54.01415608175001,12.23584391825,2,0,-0.512092555698703,14.7489259956645,-3.27794354968845,-1.343783697476745e-05,4.760623723068535e-05,-2.62235483975076e-05,5.57406925081825e-05,5.569633582485431e-05
54.73584391825,12.23584391825,2,0,-0.7145406141840414,13.93913376172314,-3.325188602245041,-1.343783697476745e-05,4.517686052886129e-05,-2.660150881796032e-05,5.208733833537807e-05,5.277019446427611e-05
52.76415608175,9.01415608175,2,0,0.2352825175470041,15.88283127147763,-3.164571853899499,-1.195336096103169e-05,5.063683405469083e-05,-2.531657483119599e-05,6.225613912785952e-05,6.212028847746558e-05
53.48584391825,9.01415608175,2,0,0.1148386655431031,15.40105586346203,-3.244433385447795,-1.195336096103169e-05,4.919150783064402e-05,-2.595546708358236e-05,6.008284965367833e-05,6.028032576301028e-05
52.76415608175,9.735843918250001,2,0,0.02231843341820028,15.82959025044543,-3.34523763190534,-1.259225321341811e-05,5.063683405469083e-05,-2.676190105524272e-05,6.146995537728784e-05,6.143584608278818e-05
53.48584391825,9.735843918250001,2,0,-0.09812541858569723,15.34781484242984,-3.425099163453641,-1.259225321341811e-05,4.919150783064406e-05,-2.740079330762913e-05,5.930297725599371e-05,5.943672087215702e-05
52.76415608175,7.76415608175,2,0,0.6289878333648642,15.91520735756687,-3.279289213946802,-1.071940481928593e-05,5.042547327752209e-05,-2.623431371157441e-05,6.36139174500648e-05,6.352537995294485e-05
53.48584391825,7.76415608175,2,0,0.5340311935469502,15.53538079829522,-3.370805204822766,-1.071940481928593e-05,4.928599359970712e-05,-2.696644163858213e-05,6.190804367010878e-05,6.195917893741796e-05
52.76415608175,8.485843918250001,2,0,0.3849451910289536,15.85419669698289,-3.421724173673668,-1.145153274629366e-05,5.042547327752209e-05,-2.737379338938934e-05,6.268542095553038e-05,6.268017739051411e-05
53.48584391825,8.485843918250001,2,0,0.2899885512110441,15.47437013771126,-3.51324016454963,-1.145153274629366e-05,4.928599359970718e-05,-2.810592131639704e-05,6.098447802960813e-05,6.095621636451729e-05
54.01415608175001,7.76415608175,2,0,0.4817093355744633,15.24894612616293,-3.114607929551696,-1.065768702709206e-05,4.84112601352618e-05,-2.491686343641357e-05,6.057287165794716e-05,6.076852390560261e-05
54.73584391825,7.76415608175,2,0,0.3775146197217802,14.8321672627522,-3.183152506649944,-1.065768702709206e-05,4.71609235450296e-05,-2.546522005319955e-05,5.869112789926014e-05,5.90817948797841e-05
54.01415608175001,8.485843918250001,2,0,0.298923796645818,15.20324974143077,-3.270900003330719,-1.1206043643878e-05,4.84112601352618e-05,-2.616720002664575e-05,5.989516776313321e-05,5.964159049007559e-05
54.73584391825,8.485843918250001,2,0,0.194729080793135,14.78647087802003,-3.339444580428966,-1.1206043643878e-05,4.71609235450296e-05,-2.671555664343172e-05,5.801812798496581e-05,5.77739268340003e-05
54.01415608175001,9.01415608175,2,0,0.1463172464003599,15.05503186944062,-3.00824309870653,-1.157581030707134e-05,4.805904818508969e-05,-2.406594478965224e-05,5.878220555791925e-05,5.887447459725716e-05
54.73584391825,9.01415608175,2,0,0.008932990961954879,14.505494847687,-3.065976185462326,-1.157581030707134e-05,4.641043711982883e-05,-2.452780948369861e-05,5.629373906714707e-05,5.687358049883168e-05
54.01415608175001,9.735843918250001,2,0,-0.007637651615064023,15.01654314493677,-3.214319481864127,-1.203767500111762e-05,4.805904818508969e-05,-2.571455585491302e-05,5.82400440784485e-05,5.790560841822157e-05
54.73584391825,9.735843918250001,2,0,-0.1450219070534691,14.46700612318314,-3.27205256861992,-1.203767500111762e-05,4.641043711982883e-05,-2.617642054895936e-05,5.575813065234425e-05,5.572165661242177e-05
52.76415608175,6.51415608175,2,0,1.087953324100617,15.94855453049481,-3.429268021864008,-9.277392987273873e-06,5.01650118383029e-05,-2.743414417491206e-05,6.520037965527053e-05,6.512802323108515e-05
53.48584391825,6.51415608175,2,0,1.018087783999359,15.66909237008978,-3.536699626785055,-9.277392987273873e-06,4.93266253570878e-05,-2.829359701428044e-05,6.39579467538046e-05,6.384122718811061e-05
52.76415608175,7.235843918250001,2,0,0.8014690443111463,15.87693346054744,-3.534066332015883,-1.013684582664229e-05,5.01650118383029e-05,-2.827253065612706e-05,6.408151701145214e-05,6.418127826910133e-05
53.48584391825,7.23584391825,2,0,0.7316035042098918,15.59747130014243,-3.64149793693694,-1.013684582664229e-05,4.932662535708784e-05,-2.913198349549552e-05,6.284287460140893e-05,6.273221525773078e-05
52.76415608175,5.26415608175,2,0,1.620097063590649,15.9569541812033,-3.601811581163693,-7.581252741472561e-06,4.976617572897802e-05,-2.881449264930954e-05,6.69435851789516e-05,6.682715202208791e-05
53.48584391825,5.26415608175,2,0,1.572838644614167,15.76792050529734,-3.728232973972294,-7.581252741472534e-06,4.919907470126015e-05,-2.982586379177835e-05,6.612175736582483e-05,6.582940207220714e-05
52.76415608175,5.985843918250001,2,0,1.282973349434386,15.87267325266423,-3.672699209628427,-8.59262388394135e-06,4.976617572897802e-05,-2.938159367702741e-05,6.559850688965287e-05,6.583698296645054e-05
53.48584391825,5.98584391825,2,0,1.235714930457899,15.68363957675829,-3.799120602437033,-8.59262388394135e-06,4.919907470126019e-05,-3.039296481949626e-05,6.477959286850918e-05,6.467111589383204e-05
54.01415608175001,5.26415608175,2,0,1.392763426599187,15.60802695170773,-3.517319341387992,-8.029578596248787e-06,4.883147550418539e-05,-2.813855473110393e-05,6.487947515099254e-05,6.50992598352234e-05
54.73584391825,5.26415608175,2,0,1.356330205302972,15.46229406652285,-3.629957992573073,-8.029578596248767e-06,4.839427684863073e-05,-2.903966394058458e-05,6.425163306576887e-05,6.410222409682778e-05
54.01415608175001,5.98584391825,2,0,1.092393690105667,15.53293451758435,-3.57196917333233,-8.930687805729347e-06,4.883147550418539e-05,-2.857575338665864e-05,6.368188377621985e-05,6.380158117350568e-05
54.73584391825,5.98584391825,2,0,1.055960468809445,15.38720163239947,-3.684607824517403,-8.930687805729347e-06,4.839427684863073e-05,-2.947686259613923e-05,6.305619207031357e-05,6.259183521114635e-05
54.01415608175001,6.51415608175,2,0,0.888183218239837,15.44443034062732,-3.287187229998023,-9.513357974134373e-06,4.871163051541554e-05,-2.629749783998419e-05,6.261842901279483e-05,6.28731817953408e-05
54.73584391825,6.51415608175,2,0,0.8180323288483491,15.16382678306137,-3.373534141838552,-9.513357974134373e-06,4.786981984271768e-05,-2.698827313470841e-05,6.136399303373771e-05,6.151522864112282e-05
54.01415608175001,7.23584391825,2,0,0.6579247866650832,15.38686573273363,-3.392413564085254,-1.020413326885864e-05,4.871163051541554e-05,-2.713930851268203e-05,6.172848721306249e-05,6.163442618608892e-05
54.73584391825,7.23584391825,2,0,0.5877738972735953,15.10626217516768,-3.478760475925782,-1.020413326885864e-05,4.786981984271768e-05,-2.783008380740626e-05,6.047732471257468e-05,6.008427367761249e-05
52.76415608175,4.014156081749999,2,0,2.216161124048362,15.91871125691183,-3.771341639476882,-5.643253408574699e-06,4.916694712287914e-05,-3.017073311581505e-05,6.873039048515345e-05,6.850470876637319e-05
53.48584391825,4.01415608175,2,0,2.18629284272892,15.79923813163407,-3.914806376460343,-5.64325340857471e-06,4.880852774704588e-05,-3.131845101168275e-05,6.82338977861896e-05,6.779703366594837e-05
52.76415608175,4.73584391825,2,0,1.833588492092453,15.82306809892285,-3.816144061456034,-6.790971304442429e-06,4.916694712287914e-05,-3.052915249164827e-05,6.717835456729278e-05,6.754196699578261e-05
53.48584391825,4.735843918250001,2,0,1.803720210773015,15.7035949736451,-3.959608798439499,-6.790971304442429e-06,4.88085277470459e-05,-3.167687038751599e-05,6.668416930713872e-05,6.666698921482574e-05
52.76415608175,2.764156081749999,2,0,2.83292851492427,15.82441567900396,-3.905543638091102,-3.594161295445499e-06,4.837178736087324e-05,-3.124434910472882e-05,7.03818238828812e-05,7.001081253533437e-05
53.48584391825,2.76415608175,2,0,2.813052525241108,15.7449117202713,-4.054607319702276,-3.594161295445495e-06,4.813327548467527e-05,-3.243685855761821e-05,7.007109932643706e-05,6.956747532820742e-05
52.76415608175,3.48584391825,2,0,2.43542536396114,15.72503989126317,-3.935357622615849,-4.78667074833489e-06,4.837178736087324e-05,-3.148286098092679e-05,6.874911859846113e-05,6.916623393491268e-05
53.48584391825,3.48584391825,2,0,2.415549374277977,15.64553593253052,-4.084421304227021,-4.78667074833489e-06,4.813327548467528e-05,-3.267537043381617e-05,6.844027516468467e-05,6.85742165776625e-05
54.01415608175001,2.76415608175,2,0,2.700420035643369,15.70350495027619,-3.995548255304206,-3.921459846162164e-06,4.809087981236909e-05,-3.196438604243365e-05,6.953296518998804e-05,6.933060910572789e-05
54.73584391825,2.76415608175,2,0,2.710643764429324,15.74439986542,-4.159608109884802,-3.921459846162164e-06,4.821356455780054e-05,-3.327686487907841e-05,6.978146411056784e-05,6.912681575841632e-05
54.01415608175001,3.48584391825,2,0,2.262927090095122,15.59413171388912,-3.980212662125271,-5.233938682806908e-06,4.809087981236909e-05,-3.184170129700217e-05,6.772290651889287e-05,6.819913559702203e-05
54.73584391825,3.48584391825,2,0,2.273150818881076,15.63502662903294,-4.144272516705866,-5.233938682806908e-06,4.821356455780054e-05,-3.315418013364693e-05,6.797240831572736e-05,6.776641265816618e-05
54.01415608175001,4.01415608175,2,0,2.008925091938429,15.70308271289327,-3.772345979342198,-6.133905876111642e-06,4.864272460770771e-05,-3.017876783473759e-05,6.725845664101236e-05,6.73178022952976e-05
54.73584391825,4.01415608175,2,0,2.001044823195724,15.67156163792249,-3.915630636931373,-6.133905876111669e-06,4.854816138279536e-05,-3.132504509545098e-05,6.716599077684197e-05,6.671619294246797e-05
54.01415608175001,4.735843918250001,2,0,1.626832671700626,15.60755960783382,-3.784166382456249,-7.280183136825052e-06,4.864272460770771e-05,-3.027333105964999e-05,6.570158311010454e-05,6.604142844518748e-05
54.73584391825,4.735843918250001,2,0,1.61895240295793,15.57603853286304,-3.927451040045426,-7.280183136825052e-06,4.854816138279536e-05,-3.141960832036341e-05,6.561049741691074e-05,6.520734242019807e-05
52.76415608175,1.51415608175,2,0,3.389779371955973,15.68435123300142,-3.984817188059017,-1.700186996142021e-06,4.747810044803975e-05,-3.187853750447213e-05,7.167057085864654e-05,7.116196412447042e-05
53.48584391825,1.51415608175,2,0,3.373745499993798,15.62021574515272,-4.118186371868684,-1.700186996142023e-06,4.728569398449367e-05,-3.294549097494948e-05,7.142469095420775e-05,7.091349109592578e-05
52.76415608175,2.235843918249999,2,0,3.034128215130192,15.59543844379497,-4.008867996002278,-2.767140466619363e-06,4.747810044803975e-05,-3.207094396801822e-05,7.019714658599395e-05,7.054556682792014e-05
53.48584391825,2.23584391825,2,0,3.018094343168018,15.53130295594628,-4.142237179811946,-2.767140466619363e-06,4.728569398449367e-05,-3.313789743849557e-05,6.995265217144148e-05,7.019428204623127e-05
52.76415608175,0.26415608175,2,0,3.794925488464981,15.52565526631723,-4.025468156547489,-2.767626499658488e-07,4.664615646144316e-05,-3.220374525237991e-05,7.239968056609291e-05,7.174479528358779e-05
53.48584391825,0.26415608175,2,0,3.781238541644232,15.47090747903424,-4.11998435921952,-2.767626499658488e-07,4.648191309959418e-05,-3.295987487375616e-05,7.218266403428884e-05,7.157991219834095e-05
52.76415608175,0.9858439182500001,2,0,3.542882281339566,15.46264446453588,-4.045998576778612,-1.032892271342095e-06,4.664615646144316e-05,-3.236798861422889e-05,7.135036888619668e-05,7.148329642069698e-05
53.48584391825,0.9858439182500001,2,0,3.529195334518818,15.40789667725289,-4.140514779450641,-1.032892271342095e-06,4.648191309959418e-05,-3.312411823560513e-05,7.113407480064998e-05,7.128476957618022e-05
54.01415608175001,0.26415608175,2,0,3.780370626176735,15.4731516016497,-4.173732848857312,-2.813352775542096e-07,4.648978862433766e-05,-3.338986279085849e-05,7.2208097350797e-05,7.161920539722907e-05
54.73584391825,0.26415608175,2,0,3.795850600808845,15.53507150017814,-4.269810632891346,-2.813352775542096e-07,4.667554831992297e-05,-3.415848506313077e-05,7.252787586644107e-05,7.189143949823473e-05
54.01415608175001,0.9858439182500001,2,0,3.52416320208598,15.40909974562701,-4.150512886909147,-1.049957549826475e-06,4.648978862433766e-05,-3.320410309527318e-05,7.112604159511641e-05,7.128815340231635e-05
54.73584391825,0.9858439182500001,2,0,3.53964317671809,15.47101964415545,-4.246590670943181,-1.049957549826475e-06,4.667554831992297e-05,-3.397272536754545e-05,7.144604698888269e-05,7.149592503176131e-05
54.01415608175001,1.51415608175,2,0,3.347820415802211,15.61270532905241,-4.129761004245169,-1.777138932674849e-06,4.728240072032593e-05,-3.303808803396135e-05,7.131688522800477e-05,7.086642891861282e-05
54.73584391825,1.51415608175,2,0,3.363104507345267,15.67384169522463,-4.282020280754187,-1.777138932674849e-06,4.746580981884259e-05,-3.425616224603349e-05,7.165433221564127e-05,7.098632568761817e-05
54.01415608175001,2.23584391825,2,0,2.941795678444833,15.51119914471306,-4.106834866930586,-2.995213144746984e-06,4.728240072032593e-05,-3.285467893544469e-05,6.961860231242484e-05,7.004530819720282e-05
54.73584391825,2.23584391825,2,0,2.957079769987888,15.57233551088528,-4.259094143439603,-2.995213144746984e-06,4.746580981884259e-05,-3.407275314751683e-05,6.995679553629722e-05,6.998958885432957e-05
55.26415608175,21.51415608175,2,0.5452102735340689,5.556293296744899,18.70695404354654,-4.116612745348008,6.18873987461827e-06,0.0001218523970024296,-7.24134694481739e-05,0.000198385368971626,0.0002104721086950915
55.98584391825001,21.51415608175,2,0.2849951018921723,3.2926315630323,7.639302097795091,-5.608221938359419,6.18873987461827e-06,3.050561124859469e-05,-6.274890651183942e-05,5.940559419906067e-05,0.0001377823671405521
55.26415608175,22.23584391825,2,0.6719408441545749,5.064839920704232,13.75833326091314,-6.715381385325264,1.585330281095264e-05,0.0001218523970024296,-0.000163760255202008,0.0002171993452539421,0.0002834695953604271
55.98584391825001,22.23584391825,2,0.3920262286212322,4.758348392846715,6.98540319790624,-11.71076739749795,1.585330281095264e-05,3.050561124859455e-05,-0.0001540956922656736,8.471058931301266e-05,0.0001605822212676575
55.26415608175,20.26415608175,2,0.2463972148466207,3.531335206310786,16.35355631523487,-3.98375453155996,-2.365400483001899e-06,6.569284644247569e-05,-4.229023151233874e-05,9.906935123404475e-05,0.0001310731851435974
55.98584391825001,20.26415608175,2,0,1.98471509685914,10.89561099118893,-4.827222248665495,-2.365400483001899e-06,3.327818309431727e-05,-3.861777798932396e-05,4.960352472567845e-05,9.717948272025393e-05
55.26415608175,20.98584391825,2,0.4265398958949411,3.389199804120513,12.6198707509863,-5.355034597982283,1.307053040012845e-06,6.569284644247569e-05,-7.470489486049732e-05,0.0001060134809160046,0.0001696376136493608
55.98584391825001,20.98584391825,2,0.1789304943719454,2.63470224291857,9.197332229933043,-7.290321436565065,1.307053040012845e-06,3.327818309431716e-05,-7.103244133748246e-05,5.771354181727803e-05,0.0001207936545493824
56.51415608175001,20.26415608175,2,0,3.176577375758476,6.254168846976188,-3.100515715495245,5.161712524846173e-06,1.747207840971702e-05,-2.480412572396196e-05,3.533272677250782e-05,7.597867436688277e-05
57.23584391825,20.26415608175,2,0,2.279209232278669,2.664696273056959,-2.397970153590175,5.161712524846173e-06,6.703660687959332e-06,-1.91837612287214e-05,1.894534749973906e-05,5.195069120482297e-05
56.51415608175001,20.98584391825,2,0,5.050032207505323,6.7225325549129,-4.446567930714966,1.078207702008671e-05,1.747207840971702e-05,-3.557254344571973e-05,4.423708740815305e-05,9.071765716974914e-05
57.23584391825,20.98584391825,2,0,4.152664064025518,3.133059980993679,-3.744022368809885,1.078207702008671e-05,6.703660687959359e-06,-2.995217895047908e-05,2.811048801693908e-05,5.739246333676745e-05
56.51415608175001,21.51415608175,2,0,2.051074089129052,-0.04316012755786613,1.139341573951134,6.597965187259257e-06,-1.778971679488412e-06,9.114732591609075e-06,8.245427664762554e-06,9.741788051520825e-05
57.23584391825,21.51415608175,2,0,2.313046163244918,1.004728168905598,-0.9921047519940595,6.597965187259257e-06,1.364693209901979e-06,-7.936838015952475e-06,1.241193467338088e-05,5.982979378318546e-05
56.51415608175001,22.23584391825,2,0.01013244039410444,-3.595973825074409,-1.449289192200851,1.516773749899493,-1.045360542030212e-05,-1.778971679488412e-06,1.225839748099941e-05,7.509833320365514e-07,0.0001009842483149736
57.23584391825,22.23584391825,2,0,-3.370810705942208,-0.416236048391175,-0.5991466408202537,-1.045360542030212e-05,1.364693209902006e-06,-4.793173126562029e-06,6.91485811764811e-07,6.104693226597257e-05
55.26415608175,19.01415608175,2,0,1.388208661942258,14.08958278131541,-4.096946555679211,-6.829398506837099e-06,4.39760979706555e-05,-3.277557244543369e-05,5.933265099242711e-05,8.763605119888932e-05
55.98584391825001,19.01415608175,2,0,0.4896449858330367,10.49532807687852,-3.811466255345505,-6.829398506837099e-06,3.319333385734484e-05,-3.049173004276404e-05,4.290064172803356e-05,6.972103170245059e-05
55.26415608175,19.73584391825,2,0.0867148814740637,1.963096738832907,13.04162288703269,-4.972647570855623,-4.54555610416744e-06,4.39760979706555e-05,-4.355833655874384e-05,6.308399291974105e-05,0.0001091009327075871
55.98584391825001,19.73584391825,2,0,1.250925786722928,10.68564827710101,-5.159311769509307,-4.54555610416744e-06,3.319333385734489e-05,-4.127449415607446e-05,4.676027259030639e-05,8.349461467350514e-05
55.26415608175,17.76415608175,2,0,0.1390985517506902,13.11350345565431,-3.80273330605542,-1.004568739892124e-05,4.185193221669325e-05,-3.042186644844336e-05,5.169516933971685e-05,6.545024360461047e-05
55.98584391825001,17.76415608175,2,0,-0.4374582547762866,10.80727622954641,-3.584916661875977,-1.004568739892124e-05,3.493325053836952e-05,-2.867933329500782e-05,4.119056328787207e-05,5.506429002471524e-05
55.26415608175,18.48584391825,2,0,0.7199429362292245,13.25871455177395,-4.667568515845865,-8.303154245485638e-06,4.185193221669325e-05,-3.734054812676692e-05,5.442393703958824e-05,7.593988430504875e-05
55.98584391825001,18.48584391825,2,0,0.1433861297022565,10.95248732566608,-4.449751871666406,-8.303154245485638e-06,3.493325053836963e-05,-3.559801497333124e-05,4.394300713872227e-05,6.210314917248979e-05
56.51415608175001,17.76415608175,2,0,0.4048591730944704,9.383447125230694,-3.323373807136508,-6.211208346282249e-06,2.970314346226264e-05,-2.658699045709207e-05,3.821032562485567e-05,4.78544426995563e-05
57.23584391825,17.76415608175,2,0,-0.2093272088416347,6.926701597486273,-3.05207673627199,-6.211208346282249e-06,2.233290687902938e-05,-2.441661389017592e-05,2.70645224111107e-05,3.854272707146533e-05
56.51415608175001,18.48584391825,2,0,1.128318028733184,9.564311839140373,-4.244653380040673,-4.040831779366109e-06,2.970314346226264e-05,-3.395722704032538e-05,4.163496670388562e-05,5.27403263964094e-05
57.23584391825,18.48584391825,2,0,0.5141316467970831,7.10756631139597,-3.973356309176145,-4.040831779366109e-06,2.233290687902943e-05,-3.178685047340916e-05,3.053795373640133e-05,4.099735400136614e-05
56.51415608175001,19.01415608175,2,0,1.51662050013501,8.44686737805128,-3.46918945647536,-1.904308302008991e-06,2.581667920965609e-05,-2.775351565180288e-05,3.822485111302818e-05,5.79215359998345e-05
57.23584391825,19.01415608175,2,0,0.73573456889153,5.323323653077359,-3.010850190845947,-1.904308302008991e-06,1.644604803473432e-05,-2.408680152676758e-05,2.395907546429285e-05,4.359973373166489e-05
56.51415608175001,19.73584391825,2,0,2.738858541813457,8.752426888470891,-4.64051835334058,1.762405823026349e-06,2.581667920965609e-05,-3.712414682672464e-05,4.398590013451628e-05,6.719098018480439e-05
57.23584391825,19.73584391825,2,0,1.957972610569977,5.628883163496971,-4.182179087711168,1.762405823026349e-06,1.644604803473432e-05,-3.345743270168934e-05,2.98360808096341e-05,4.825494044582992e-05
55.26415608175,16.51415608175,2,0,-0.4066389457466202,12.96857883660281,-3.468840791601782,-1.167610769567143e-05,4.182476343372627e-05,-2.775072633281426e-05,4.93743640669486e-05,5.511960322330468e-05
55.98584391825001,16.51415608175,2,0,-0.8653408608851962,11.1337711760485,-3.378010773640134,-1.167610769567143e-05,3.632034045206336e-05,-2.702408618912107e-05,4.107060294504296e-05,4.824847323845322e-05
55.26415608175,17.23584391825,2,0,-0.1644255645155281,13.02913218191058,-4.156893664309647,-1.094946755197815e-05,4.182476343372627e-05,-3.325514931447717e-05,5.064158668525207e-05,5.98714661027418e-05
55.98584391825001,17.23584391825,2,0,-0.6231274796540975,11.1943245213563,-4.066063646347996,-1.094946755197815e-05,3.632034045206344e-05,-3.252850917078397e-05,4.236768210678825e-05,5.135194079691077e-05
55.26415608175,15.26415608175,2,0,-0.5910758032659755,12.94988314463297,-3.218296692231532,-1.22513490861575e-05,4.191248670543828e-05,-2.574637353785225e-05,4.865563115606548e-05,5.085989298094002e-05
55.98584391825001,15.26415608175,2,0,-0.9742421606648399,11.41721771503751,-3.189996281634962,-1.22513490861575e-05,3.731449041665191e-05,-2.55199702530797e-05,4.173476433187526e-05,4.577936326400203e-05
55.26415608175,15.98584391825,2,0,-0.5156080416751019,12.96875008503069,-3.793046228329822,-1.202494580138488e-05,4.191248670543828e-05,-3.034436982663857e-05,4.920095030219658e-05,5.270495948285903e-05
55.98584391825001,15.98584391825,2,0,-0.8987743990739592,11.43608465543526,-3.764745817733249,-1.202494580138488e-05,3.731449041665199e-05,-3.011796654186599e-05,4.231010312230013e-05,4.675530558879697e-05
56.51415608175001,15.26415608175,2,0,-0.3379447164758043,10.4664299396424,-2.841742619066134,-9.454567044436493e-06,3.376293158003632e-05,-2.273394095252907e-05,3.983766420595948e-05,4.207007879195793e-05
57.23584391825,15.26415608175,2,0,-0.7633649580866648,8.764748973198957,-2.784818482934226,-9.454567044436493e-06,2.865788868070599e-05,-2.22785478634738e-05,3.216029722731824e-05,3.701665487111431e-05
56.51415608175001,15.98584391825,2,0,-0.1861470201240492,10.50437936373034,-3.479872981482437,-8.999173955381227e-06,3.376293158003632e-05,-2.783898385185949e-05,4.073589232046826e-05,4.243706542155594e-05
57.23584391825,15.98584391825,2,0,-0.611567261734919,8.802698397286859,-3.422948845350518,-8.999173955381227e-06,2.865788868070588e-05,-2.738359076280415e-05,3.310184854104324e-05,3.65890677789292e-05
56.51415608175001,16.51415608175,2,0,-0.1425085062507399,9.987998535883674,-3.092930007074962,-8.446426048709306e-06,3.207560211982834e-05,-2.47434400565997e-05,3.87259178227617e-05,4.330990744118483e-05
57.23584391825,16.51415608175,2,0,-0.6502099901950276,7.957192600106523,-2.961087222598198,-8.446426048709306e-06,2.598318431249689e-05,-2.368869778078558e-05,2.956281878349616e-05,3.668862475080355e-05
56.51415608175001,17.23584391825,2,0,0.2090722523539728,10.07589372553485,-3.854482232991394,-7.391683772895168e-06,3.207560211982834e-05,-3.083585786393115e-05,4.051202964663878e-05,4.532756955629537e-05
57.23584391825,17.23584391825,2,0,-0.2986292315903105,8.045087789757719,-3.722639448514636,-7.391683772895168e-06,2.598318431249694e-05,-2.978111558811709e-05,3.139740702282299e-05,3.738820654840865e-05
55.26415608175,14.01415608175,2,0,-0.5795004943908482,13.0233507482427,-3.007234668713217,-1.227308218064487e-05,4.213832278988932e-05,-2.405787734970573e-05,4.888555842780757e-05,4.968009419079867e-05
55.98584391825001,14.01415608175,2,0,-0.9030850755771933,11.72901242349732,-3.012829024706472,-1.227308218064487e-05,3.825530781565318e-05,-2.410263219765178e-05,4.303839490768827e-05,4.563641187212829e-05
55.26415608175,14.73584391825,2,0,-0.5944187770395275,13.01962117758053,-3.492611540492724,-1.231783702859091e-05,4.213832278988932e-05,-2.794089232394179e-05,4.902549608305677e-05,5.004938276874474e-05
55.98584391825001,14.73584391825,2,0,-0.9180033582258647,11.72528285283518,-3.498205896485984,-1.231783702859091e-05,3.825530781565328e-05,-2.798564717188787e-05,4.320402913111611e-05,4.547955659621373e-05
55.26415608175,12.76415608175,2,0,-0.4705771036588766,13.19324957927944,-2.838777713424113,-1.206044639513196e-05,4.25948603366213e-05,-2.27102217073929e-05,4.979097614550736e-05,5.009904625874027e-05
55.98584391825001,12.76415608175,2,0,-0.7451894468253868,12.0948002066134,-2.85673623506666,-1.206044639513196e-05,3.929951221862318e-05,-2.285388988053328e-05,4.481843582580564e-05,4.673916505388422e-05
55.26415608175,13.48584391825,2,0,-0.5184664947056685,13.18127723151774,-3.250696228173879,-1.220411456827233e-05,4.25948603366213e-05,-2.600556982539103e-05,4.975944199074105e-05,4.969340148283587e-05
55.98584391825001,13.48584391825,2,0,-0.7930788378721729,12.08282785885172,-3.268654749816427,-1.220411456827233e-05,3.929951221862325e-05,-2.614923799853142e-05,4.48059068266396e-05,4.597392294113e-05
56.51415608175001,12.76415608175,2,0,-0.2946588215824475,11.42142219028111,-2.384266174545381,-1.008004598128872e-05,3.678427806616552e-05,-1.907412939636305e-05,4.341294020698521e-05,4.428651999476084e-05
57.23584391825,12.76415608175,2,0,-0.5926921032275012,10.2292890637009,-2.372686663492881,-1.008004598128872e-05,3.320787868642487e-05,-1.898149330794305e-05,3.799843624510308e-05,4.094565028487417e-05
56.51415608175001,13.48584391825,2,0,-0.2637801254424068,11.42914186431612,-2.831316097012972,-9.9874098928686e-06,3.678427806616552e-05,-2.265052877610378e-05,4.369937831751859e-05,4.325309704144091e-05
57.23584391825,13.48584391825,2,0,-0.5618134070874694,10.23700873773587,-2.819736585960467,-9.9874098928686e-06,3.320787868642476e-05,-2.255789268768374e-05,3.83040644278072e-05,3.953914098633087e-05
56.51415608175001,14.01415608175,2,0,-0.3555623571627327,10.9318630618184,-2.597577049295807,-9.883289992375463e-06,3.526641168354906e-05,-2.078061639436646e-05,4.144872886337563e-05,4.26763858443844e-05
57.23584391825,14.01415608175,2,0,-0.712462450293228,9.50426268929642,-2.573598953068511,-9.883289992375463e-06,3.098361056598312e-05,-2.058879162454809e-05,3.498852154821507e-05,3.863312666318842e-05
56.51415608175001,14.73584391825,2,0,-0.2916207672232707,10.94784845930327,-3.132927188991562,-9.691465222557078e-06,3.526641168354906e-05,-2.50634175119325e-05,4.192465632483474e-05,4.21342045059851e-05
57.23584391825,14.73584391825,2,0,-0.648520860353766,9.520248086781285,-3.108949092764264,-9.691465222557078e-06,3.098361056598312e-05,-2.487159274211411e-05,3.549531294199228e-05,3.756435879841618e-05
55.26415608175,11.51415608175,2,0,-0.3153125425378591,13.44365958835585,-2.716837211250495,-1.176392780680583e-05,4.3271960716769e-05,-2.173469769000396e-05,5.116326125090033e-05,5.139039192091743e-05
55.98584391825001,11.51415608175,2,0,-0.5465547399013504,12.51869079890188,-2.739158573884986,-1.176392780680583e-05,4.04970543484071e-05,-2.191326859107988e-05,4.696619736309589e-05,4.853149881937301e-05
55.26415608175,12.23584391825,2,0,-0.3748361762298402,13.42877867993285,-3.063700507295726,-1.194249870788177e-05,4.3271960716769e-05,-2.450960405836581e-05,5.105116029402953e-05,5.055375347617341e-05
55.98584391825001,12.23584391825,2,0,-0.6060783735933226,12.50380989047892,-3.086021869930228,-1.194249870788177e-05,4.049705434840721e-05,-2.468817495944182e-05,4.686720384481609e-05,4.742446544501943e-05
55.26415608175,10.26415608175,2,0,-0.1327358142688406,13.75896726986214,-2.653669865405845,-1.143192842155e-05,4.413488391497391e-05,-2.122935892324676e-05,5.288991726158436e-05,5.320167414391957e-05
55.98584391825001,10.26415608175,2,0,-0.3242910851518341,12.99274618633016,-2.678068926575612,-1.143192842155e-05,4.183622066437799e-05,-2.14245514126049e-05,4.940642126625629e-05,5.074133467397843e-05
55.26415608175,10.98584391825,2,0,-0.1977999773882275,13.74270122908229,-2.941002771730326,-1.162712091090816e-05,4.413488391497391e-05,-2.352802217384261e-05,5.272781923072914e-05,5.209990012543962e-05
55.98584391825001,10.98584391825,2,0,-0.389355248271213,12.97648014555035,-2.965401832900101,-1.162712091090816e-05,4.183622066437808e-05,-2.372321466320081e-05,4.925306811153194e-05,4.942025125064455e-05
56.51415608175001,10.26415608175,2,0,-0.09259782193678667,12.50533956246631,-2.123383303533888,-1.030058468017077e-05,4.009116485744163e-05,-1.698706642827111e-05,4.807038244353072e-05,4.89504152646649e-05
57.23584391825,10.26415608175,2,0,-0.298340978286801,11.68236693706626,-2.116501533765859,-1.030058468017077e-05,3.762224698124146e-05,-1.693201227012687e-05,4.431137213964265e-05,4.651787191589227e-05
56.51415608175001,10.98584391825,2,0,-0.07424643588870339,12.50992740897833,-2.431998038058905,-1.024553052202652e-05,4.009116485744163e-05,-1.945598430447125e-05,4.8233843868562e-05,4.747051842863417e-05
57.23584391825,10.98584391825,2,0,-0.279989592238715,11.68695478357829,-2.425116268290885,-1.024553052202652e-05,3.762224698124149e-05,-1.940093014632708e-05,4.448127326219619e-05,4.482339817228576e-05
56.51415608175001,11.51415608175,2,0,-0.201387091639619,11.94674186293287,-2.221734274409011,-1.020183218359308e-05,3.839068363469688e-05,-1.777387419527209e-05,4.56406178618247e-05,4.64503865134705e-05
57.23584391825,11.51415608175,2,0,-0.4497042117491419,10.95347338249478,-2.213692784075596,-1.020183218359308e-05,3.541087819338261e-05,-1.770954227260477e-05,4.11147936802382e-05,4.362357505879071e-05
56.51415608175001,12.23584391825,2,0,-0.1799431174171744,11.95210285648848,-2.594209954573281,-1.013750026092574e-05,3.839068363469688e-05,-2.075367963658625e-05,4.584672255642766e-05,4.514323112673303e-05
57.23584391825,12.23584391825,2,0,-0.4282602375266982,10.95883437605039,-2.586168464239871,-1.013750026092574e-05,3.54108781933826e-05,-2.068934771391897e-05,4.133209502160824e-05,4.204007109609389e-05
55.26415608175,9.01415608175,2,0,0.07667804897411346,14.12287366095867,-2.661802195722557,-1.105292917204977e-05,4.513185327588843e-05,-2.129441756578046e-05,5.490995210756239e-05,5.536657004178553e-05
55.98584391825001,9.01415608175,2,0,-0.07703403088167837,13.5080253415355,-2.689945325319726,-1.105292917204977e-05,4.328730831761893e-05,-2.15195626025578e-05,5.211184506461375e-05,5.325023500384828e-05
55.26415608175,9.735843918250001,2,0,0.001629703381685221,14.10411157456056,-2.892370315506245,-1.127807420882705e-05,4.513185327588843e-05,-2.313896252404996e-05,5.468516877600188e-05,5.407697570991626e-05
55.98584391825001,9.735843918250001,2,0,-0.1520823764741013,13.48926325513741,-2.920513445103416,-1.127807420882705e-05,4.3287308317619e-05,-2.336410756082733e-05,5.189286075329955e-05,5.176757572764174e-05
55.26415608175,7.76415608175,2,0,0.32599998792886,14.51774924014567,-2.753905307574547,-1.057099943074418e-05,4.619599757812304e-05,-2.203124246059638e-05,5.719898879140622e-05,5.780988832181358e-05
55.98584391825001,7.764156081749999,2,0,0.2105091398446008,14.05578584780864,-2.79046401076652,-1.057099943074419e-05,4.481010740111196e-05,-2.232371208613216e-05,5.509839127995103e-05,5.602170400862882e-05
55.26415608175,8.485843918250001,2,0,0.2285101127502749,14.49337677135102,-2.927141579700947,-1.086346905627994e-05,4.619599757812304e-05,-2.341713263760757e-05,5.686427258597665e-05,5.636680096152823e-05
55.98584391825001,8.485843918250001,2,0,0.1130192646660131,14.03141337901397,-2.963700282892911,-1.086346905627994e-05,4.48101074011119e-05,-2.370960226314329e-05,5.476751780780379e-05,5.43901252412017e-05
56.51415608175001,7.764156081749999,2,0,0.1791123553163363,13.71065721598002,-2.168571907657662,-1.039536623577174e-05,4.373081320688298e-05,-1.73485752612613e-05,5.350833185482702e-05,5.470390651194545e-05
57.23584391825,7.764156081749999,2,0,0.04887932214451229,13.18972508329272,-2.168190343289193,-1.039536623577174e-05,4.216801680882109e-05,-1.734552274631355e-05,5.112314403798539e-05,5.289180110995113e-05
56.51415608175001,8.485843918250001,2,0,0.1801298602989254,13.71091159222566,-2.363921457415407,-1.039231372082397e-05,4.373081320688298e-05,-1.891137165932325e-05,5.356410629584492e-05,5.29413482939099e-05
57.23584391825,8.485843918250001,2,0,0.04989682712710142,13.18997945953837,-2.363539893046923,-1.039231372082397e-05,4.216801680882109e-05,-1.890831914437539e-05,5.118118977414765e-05,5.095989178523247e-05
56.51415608175001,9.01415608175,2,0,0.03090449610779089,13.09400093748553,-2.101074648238221,-1.037630636244349e-05,4.187607940306744e-05,-1.680859718590577e-05,5.068548533491645e-05,5.170362859651215e-05
57.23584391825,9.01415608175,2,0,-0.1366791820221565,12.42366622496574,-2.095989598057648,-1.037630636244349e-05,3.986507526550807e-05,-1.676791678446118e-05,4.761861052940988e-05,4.959455635011587e-05
56.51415608175001,9.735843918250001,2,0,0.04446462992265454,13.09739097093924,-2.352450165433142,-1.03356259609989e-05,4.187607940306744e-05,-1.881960132346514e-05,5.08081763451891e-05,5.008467371558448e-05
57.23584391825,9.735843918250001,2,0,-0.1231190482072964,12.42705625841944,-2.34736511525257,-1.03356259609989e-05,3.986507526550803e-05,-1.877892092202056e-05,4.774506138283376e-05,4.77962998965632e-05
55.26415608175,6.514156081749999,2,0,0.6419718056736485,14.92144135694711,-2.94203543164298,-9.88284330740201e-06,4.723503489769182e-05,-2.353628345314384e-05,5.975980949978973e-05,6.049232399396881e-05
55.98584391825001,6.514156081749999,2,0,0.5676006349181266,14.62395667392498,-2.995210212375651,-9.882843307401982e-06,4.634258084862545e-05,-2.39616816990052e-05,5.841526464297065e-05,5.905564968074491e-05
55.26415608175,7.23584391825,2,0,0.5001723903865578,14.88599150312534,-3.053592187776287,-1.030824155326328e-05,4.723503489769182e-05,-2.442873750221029e-05,5.922658328524008e-05,5.891531888667762e-05
55.98584391825001,7.23584391825,2,0,0.4258012196310097,14.58850682010321,-3.106766968508953,-1.030824155326334e-05,4.634258084862546e-05,-2.485413574807163e-05,5.788448612429785e-05,5.727182751443317e-05
55.26415608175,5.26415608175,2,0,1.066811847124272,15.30075721075346,-3.232667949241542,-8.8268078578051e-06,4.810897359671165e-05,-2.586134359393234e-05,6.260450221325553e-05,6.336410198927485e-05
55.98584391825001,5.26415608175,2,0,1.038289820100433,15.18666910265814,-3.315053760150404,-8.826807857805127e-06,4.776670927242571e-05,-2.652043008120323e-05,6.210933724409365e-05,6.234455062756031e-05
55.26415608175,5.98584391825,2,0,0.8471163513672892,15.24583333681422,-3.275450989777283,-9.485894345076046e-06,4.810897359671165e-05,-2.620360791821827e-05,6.17321737626494e-05,6.168437183357386e-05
55.98584391825001,5.98584391825,2,0,0.8185943243434624,15.13174522871891,-3.357836800686152,-9.485894345076046e-06,4.776670927242573e-05,-2.686269440548922e-05,6.123825890721137e-05,6.04148817422917e-05
56.51415608175001,5.26415608175,2,0,0.6600521438010674,15.0023543831911,-2.659361319942787,-9.889716646389461e-06,4.747949231117065e-05,-2.12748905595423e-05,6.004091821853952e-05,6.157611983189957e-05
57.23584391825,5.264156081750001,2,0,0.6231832265767689,14.8548787142939,-2.69277339184389,-9.889716646389455e-06,4.703706530447905e-05,-2.154218713475112e-05,5.937433811455779e-05,6.049627921767916e-05
56.51415608175001,5.98584391825,2,0,0.5709532853981214,14.98007966859036,-2.714664695779241,-1.01570132215983e-05,4.747949231117065e-05,-2.171731756623393e-05,5.969853383120503e-05,5.946331864076604e-05
57.23584391825,5.985843918250001,2,0,0.5340843681738203,14.83260399969316,-2.748076767680349,-1.01570132215983e-05,4.703706530447904e-05,-2.198461414144279e-05,5.903262526069755e-05,5.813308999196177e-05
56.51415608175001,6.514156081749999,2,0,0.3738600456641281,14.35141659254585,-2.345417303422768,-1.028478112791147e-05,4.562544505961542e-05,-1.876333842738214e-05,5.659491638176467e-05,5.798395769767757e-05
57.23584391825,6.51415608175,2,0,0.2849602654542718,13.99581747170643,-2.355638782976548,-1.028478112791147e-05,4.455864769709714e-05,-1.884511026381238e-05,5.496828305696797e-05,5.649271506297281e-05
56.51415608175001,7.23584391825,2,0,0.3466027668540597,14.34460227284334,-2.478766973737561,-1.036655296434168e-05,4.562544505961542e-05,-1.983013578990049e-05,5.652151074387295e-05,5.605506962938853e-05
57.23584391825,7.23584391825,2,0,0.2577029866442011,13.9890031520039,-2.488988453291342,-1.036655296434168e-05,4.455864769709712e-05,-1.991190762633073e-05,5.48962654413955e-05,5.437431663903963e-05
55.26415608175,4.01415608175,2,0,1.66468310199209,15.60499905010033,-3.610053343474733,-7.157013313705579e-06,4.860425047872738e-05,-2.888042674779787e-05,6.574830702453951e-05,6.631016303469338e-05
55.98584391825001,4.01415608175,2,0,1.685333225721739,15.68759954501893,-3.740774937536619,-7.157013313705579e-06,4.885205196348318e-05,-2.992619950029295e-05,6.617267675331736e-05,6.580247805004316e-05
55.26415608175,4.735843918250001,2,0,1.316092184493735,15.51785132072574,-3.579078157880257,-8.202786066200643e-06,4.860425047872738e-05,-2.863262526304206e-05,6.431978347974535e-05,6.460357900593123e-05
55.98584391825001,4.735843918250001,2,0,1.336742308223383,15.60045181564436,-3.709799751942146,-8.202786066200657e-06,4.885205196348323e-05,-2.967839801553716e-05,6.47442520100442e-05,6.378815270732227e-05
55.26415608175,2.76415608175,2,0,2.448832264103821,15.76982829429442,-3.990031341405238,-4.779599390303307e-06,4.850438473045907e-05,-3.19202507312419e-05,6.898136675594856e-05,6.908370176055753e-05
55.98584391825,2.76415608175,2,0,2.504819825951433,15.99377854168487,-4.17255306866563,-4.779599390303307e-06,4.917623547263042e-05,-3.338042454932504e-05,7.007524770665769e-05,6.91697054751965e-05
55.26415608175,3.48584391825,2,0,1.962107658076114,15.64814714278749,-3.906049998633822,-6.239773208386429e-06,4.850438473045907e-05,-3.124839998907058e-05,6.695116696247471e-05,6.751060830875043e-05
55.98584391825001,3.48584391825,2,0,2.018095219923726,15.87209739017794,-4.088571725894216,-6.239773208386429e-06,4.917623547263043e-05,-3.270857380715373e-05,6.804456885832923e-05,6.724446076817564e-05
56.51415608175,2.76415608175,2,0,1.945994791797859,16.10466690557352,-3.782977398227958,-6.656550190705663e-06,4.997813826439696e-05,-3.026381918582366e-05,6.858858482600585e-05,6.932497359644008e-05
57.23584391825,2.76415608175,2,0,2.072577160777815,16.61099638149334,-3.969238872954576,-6.656550190705663e-06,5.149712669215643e-05,-3.175391098363661e-05,7.097437299516355e-05,6.966317027785237e-05
56.51415608175,3.48584391825,2,0,1.449297525860216,15.9804925890891,-3.593103844758028,-8.146641988518593e-06,4.997813826439696e-05,-2.874483075806422e-05,6.649745456494104e-05,6.70863544965225e-05
57.23584391825,3.48584391825,2,0,1.575879894840172,16.48682206500893,-3.779365319484648,-8.146641988518593e-06,5.149712669215643e-05,-3.023492255587719e-05,6.888052375202971e-05,6.692054766992723e-05
56.51415608175,4.01415608175,2,0,1.116009012736567,15.61962854370584,-3.141395179133393,-8.924473994207658e-06,4.909000412966943e-05,-2.513116143306714e-05,6.394225926641047e-05,6.543909696861403e-05
57.23584391825,4.01415608175,2,0,1.149533672991887,15.7537271847271,-3.220768274330023,-8.924473994207638e-06,4.94923000527332e-05,-2.576614619464019e-05,6.458169928118806e-05,6.495400637624834e-05
56.51415608175001,4.735843918250001,2,0,0.9043474255455304,15.56671314690808,-3.09110818875042,-9.559458755780767e-06,4.909000412966943e-05,-2.472886551000336e-05,6.307146317745687e-05,6.3177324808944e-05
57.23584391825,4.735843918250001,2,0,0.93787208580085,15.70081178792933,-3.170481283947048,-9.55945875578074e-06,4.949230005273316e-05,-2.536385027157638e-05,6.371046252514301e-05,6.232393825443208e-05
55.26415608175,1.51415608175,2,0,3.271714846205077,15.76826892228771,-4.249214330812362,-2.14512762997392e-06,4.78410886743566e-05,-3.399371464649889e-05,7.170383581923891e-05,7.126246271889508e-05
55.98584391825001,1.51415608175,2,0,3.341870829688203,16.04889285622021,-4.441378678854389,-2.14512762997392e-06,4.868296047615411e-05,-3.553102943083511e-05,7.306300590050086e-05,7.18969863492216e-05
55.26415608175,2.23584391825,2,0,2.759276584759671,15.64015935692636,-4.143980355587672,-3.682442414310139e-06,4.78410886743566e-05,-3.315184284470138e-05,6.953641323126865e-05,7.008900811984365e-05
55.98584391825,2.23584391825,2,0,2.829432568242798,15.92078329085887,-4.336144703629701,-3.682442414310139e-06,4.868296047615413e-05,-3.468915762903761e-05,7.089525496333495e-05,7.041634594736411e-05
55.26415608175,0.26415608175,2,0,3.807630415903497,15.64853053271453,-4.319570989885734,-3.344070952804362e-07,4.702919337196371e-05,-3.455656791908587e-05,7.301276538436259e-05,7.232918603967115e-05
55.98584391825001,0.26415608175,2,0,3.872665128776531,15.90866938420667,-4.433773136730298,-3.344070952804362e-07,4.780960992644011e-05,-3.547018509384238e-05,7.424830650414017e-05,7.32528977307582e-05
55.26415608175,0.9858439182500001,2,0,3.503091357651325,15.57239576815149,-4.222018920576184,-1.248024270036954e-06,4.702919337196371e-05,-3.377615136460947e-05,7.170096524591551e-05,7.186271658339622e-05
55.98584391825001,0.9858439182500001,2,0,3.568126070524358,15.83253461964362,-4.336221067420749,-1.248024270036954e-06,4.780960992644011e-05,-3.468976853936599e-05,7.293634808200831e-05,7.265703810884745e-05
56.51415608175,0.26415608175,2,0,3.899407373443102,16.22726838644967,-4.48518560759257,-5.037111141418071e-07,4.880773293788445e-05,-3.588148486074056e-05,7.555590022600071e-05,7.426623261939035e-05
57.23584391825,0.26415608175,2,0,4.061616225535528,16.87610379481937,-4.657206152121451,-5.037111141418071e-07,5.075423916299356e-05,-3.725764921697161e-05,7.859461288938185e-05,7.611100332924621e-05
56.51415608175,0.9858439182500001,2,0,3.440685921366085,16.11258802343041,-4.24187232945393,-1.879875470372856e-06,4.880773293788445e-05,-3.393497863563144e-05,7.35466208836462e-05,7.352995512478294e-05
57.23584391825,0.9858439182500001,2,0,3.602894773458511,16.76142343180011,-4.41389287398281,-1.879875470372856e-06,5.075423916299355e-05,-3.531114299186248e-05,7.658507019945286e-05,7.512048723776028e-05
56.51415608175,1.51415608175,2,0,3.084040376611485,16.30030030867309,-4.308406039889552,-3.171311041781721e-06,4.96937286864647e-05,-3.446724831911642e-05,7.313378412945716e-05,7.260195075442917e-05
57.23584391825,1.51415608175,2,0,3.244006901908466,16.94016640986101,-4.577418944853265,-3.171311041781721e-06,5.161332699002847e-05,-3.661935155882612e-05,7.616722688575647e-05,7.389342569673919e-05
56.51415608175,2.23584391825,2,0,2.36667263004158,16.12095837203062,-4.06845625194408,-5.323414281491439e-06,4.969372868646471e-05,-3.254765001555264e-05,7.008009570182231e-05,7.08028731594763e-05
57.23584391825,2.23584391825,2,0,2.526639155338561,16.76082447321854,-4.337469156907792,-5.323414281491439e-06,5.161332699002849e-05,-3.469975325526234e-05,7.311090434711912e-05,7.153154731399921e-05
57.76415608175,21.51415608175,2,0,0.3205507116907301,0.6938612484734611,1.333526977868382,4.706732786315675e-07,1.963915425762491e-06,1.066821582294705e-05,4.905031669954139e-06,4.087925587245862e-05
58.48584391825001,21.51415608175,2,0,0.1950040991436609,0.1916747982851841,0.4606109297638997,4.706732786315675e-07,4.573560751976603e-07,3.684887438111197e-06,1.794485402323242e-06,2.66935101994144e-05
57.76415608175,22.23584391825,2,0,-2.007225416587881,0.1119172164038084,1.145207059047781,-6.512655106204264e-06,1.963915425762491e-06,9.161656472382249e-06,1.073081411651479e-06,4.113776796288793e-05
58.48584391825001,22.23584391825,2,0,-2.13277202913495,-0.3902692337844686,0.2722910109433094,-6.512655106204264e-06,4.573560751976603e-07,2.178328087546475e-06,3.614834310165082e-07,2.668223559731251e-05
57.76415608175,20.26415608175,2,0,1.550844749296329,1.06464935298326,-0.09979821261666048,4.110983715361644e-06,2.166202130109368e-06,-7.983857009332838e-07,9.51189791385962e-06,3.864471910638614e-05
58.48584391825001,20.26415608175,2,0,1.415165616291918,0.5219328209656163,-0.1990125868541758,4.110983715361644e-06,5.380525340564378e-07,-1.592100694833406e-06,7.137772524350207e-06,2.632011044987711e-05
57.76415608175,20.98584391825,2,0,1.286273084662939,0.9985064368249124,-0.3033169121232599,3.317268721461474e-06,2.166202130109368e-06,-2.426535296986079e-06,8.332936305343419e-06,4.021124544468842e-05
58.48584391825001,20.98584391825,2,0,1.150593951658528,0.4557899048072688,-0.4025312863607786,3.317268721461474e-06,5.380525340564378e-07,-3.220250290886229e-06,5.983605922225583e-06,2.65964790586031e-05
59.01415608175,20.26415608175,2,0,0.5291346940596136,-0.3061988264572104,0.6850147266871763,1.938190082156531e-06,-1.403143999910764e-06,5.48011781349741e-06,1.92169641567051e-06,2.044849187111983e-05
59.73584391825001,20.26415608175,2,0,0.2228598638555804,-1.531298147273343,0.5920802188110034,1.938190082156531e-06,-5.078441962359161e-06,4.736641750488027e-06,7.190430806605817e-07,1.67315402471166e-05
59.01415608175,20.98584391825,2,0,0.2813093397231502,-0.3681551650413093,0.2256024813811691,1.194714019147128e-06,-1.40314399991071e-06,1.804819851049353e-06,5.828348041899404e-07,2.024926622001207e-05
59.73584391825001,20.98584391825,2,0,-0.02496549048088742,-1.59325448585746,0.1326679735050046,1.194714019147128e-06,-5.078441962359161e-06,1.061343788040037e-06,3.818270541015741e-07,1.652312464387597e-05
59.01415608175,21.51415608175,2,0,0.05414230051100345,-0.1333475700472965,0.687508879041914,2.799334176730482e-07,-4.700260645601516e-07,5.500071032335312e-06,1.132507566731184e-06,2.013801893628397e-05
59.73584391825001,21.51415608175,2,0,-0.0314490139385151,-0.4757128278453707,0.4680400017791239,2.799334176730482e-07,-1.497121837954374e-06,3.744320014232992e-06,4.114120190553486e-07,1.641382940912058e-05
59.01415608175,22.23584391825,2,0,-0.5311080388564335,-0.2796601548891389,0.5591219073676973,-1.475817600429276e-06,-4.700260645600974e-07,4.472975258941578e-06,3.545323137284508e-07,2.003331135602964e-05
59.73584391825001,22.23584391825,2,0,-0.6166993533059465,-0.6220254126871905,0.3396530301049037,-1.475817600429276e-06,-1.497121837954252e-06,2.71722424083923e-06,1.175494820237295e-07,1.632364487797162e-05
57.76415608175,19.01415608175,2,0,1.072488016026404,3.674319781857756,-1.665804138964907,4.925058257982881e-07,1.08998328891237e-05,-1.332643311171926e-05,1.803891487767105e-05,3.490489221716772e-05
58.48584391825001,19.01415608175,2,0,0.5906621499232431,1.747016317445112,-1.308106019854342,4.925058257982881e-07,5.117922495885763e-06,-1.046484815883474e-05,9.214855583857221e-06,2.547194570296202e-05
57.76415608175,19.73584391825,2,0,2.026349666987921,3.912785194598136,-2.388542938119659,3.354090778682838e-06,1.08998328891237e-05,-1.910834350495727e-05,2.251396843640914e-05,3.722288604436194e-05
58.48584391825001,19.73584391825,2,0,1.54452380088476,1.985481730185491,-2.030844819009094,3.354090778682838e-06,5.117922495885763e-06,-1.624675855207275e-05,1.380581934568616e-05,2.60187926453806e-05
57.76415608175,17.76415608175,2,0,0.389398813043093,5.481989942134516,-2.120886957291789,-3.139515751969715e-06,1.723084876439597e-05,-1.696709565833431e-05,2.288705365736588e-05,3.253585148437507e-05
58.48584391825001,17.76415608175,2,0,-0.1580049710990902,3.292374805565784,-1.884378838295741,-3.139515751969715e-06,1.066200335468978e-05,-1.507503070636593e-05,1.302904855251161e-05,2.543647781309265e-05
57.76415608175,18.48584391825,2,0,1.020087130365875,5.639662021465211,-2.941992633505047,-1.247450800001369e-06,1.723084876439597e-05,-2.353594106804037e-05,2.594361340938665e-05,3.364900509196156e-05
58.48584391825001,18.48584391825,2,0,0.4726833462236917,3.450046884896479,-2.705484514509001,-1.247450800001369e-06,1.066200335468978e-05,-2.164387611607201e-05,1.618131059515108e-05,2.531591491391465e-05
59.01415608175,17.76415608175,2,0,0.2379611537949682,1.832252159401054,-0.5200080510077247,-7.043260353769448e-07,5.672837987047397e-06,-4.160064408061798e-06,7.889800961681684e-06,2.171615222521456e-05
59.73584391825001,17.76415608175,2,0,-0.3505228347580436,-0.5216837948109934,-0.37168855829655,-7.043260353769448e-07,-1.388969875588744e-06,-2.9735084663724e-06,1.695142387946605e-07,1.865140736928338e-05
59.01415608175,18.48584391825,2,0,0.6334798010247493,1.931131821208516,-1.40273403383721,4.82229906312385e-07,5.672837987047452e-06,-1.122187227069768e-05,1.008714664596763e-05,2.105489001206418e-05
59.73584391825001,18.48584391825,2,0,0.04499581247173869,-0.4228041330035266,-1.254414541126054,4.82229906312385e-07,-1.388969875588676e-06,-1.003531632900843e-05,1.749830276801367e-06,1.77466436654445e-05
59.01415608175,19.01415608175,2,0,0.4575567497926525,0.342792293838721,-0.02296173810552796,1.189947764265511e-06,7.308899404497851e-07,-1.836939048442237e-07,2.907665945200282e-06,2.075126320591515e-05
59.73584391825001,19.01415608175,2,0,-0.05941703713919205,-1.725102853888657,0.07040891236253723,1.189947764265511e-06,-5.472795502732349e-06,5.632712989002978e-07,3.885453085172015e-07,1.728706529123937e-05
59.01415608175,19.73584391825,2,0,0.7065451510408671,0.4050393941508085,-0.7984224185032677,1.936912968010128e-06,7.308899404498935e-07,-6.387379348026141e-06,4.516338753512468e-06,2.058300155809123e-05
59.73584391825001,19.73584391825,2,0,0.189571364109009,-1.662855753576624,-0.7050517680351991,1.936912968010128e-06,-5.472795502732403e-06,-5.640414144281593e-06,7.782916589625524e-07,1.693623752663657e-05
57.76415608175,16.51415608175,2,0,0.02887783456050186,6.733412441306794,-2.155475414559527,-5.294320882451829e-06,2.152381754453334e-05,-1.724380331647622e-05,2.651366301071026e-05,3.226571536981572e-05
58.48584391825001,16.51415608175,2,0,-0.4786887298433831,4.703146183691254,-2.021669219553332,-5.294320882451829e-06,1.543301877168672e-05,-1.617335375642665e-05,1.738185944968379e-05,2.68033849135515e-05
57.76415608175,17.23584391825,2,0,0.3856943545770359,6.822616571310927,-2.916825261165337,-4.223871322402227e-06,2.152381754453334e-05,-2.33346020893227e-05,2.835136917473323e-05,3.216520012043936e-05
58.48584391825001,17.23584391825,2,0,-0.121872209826849,4.792350313695388,-2.783019066159144,-4.223871322402227e-06,1.543301877168672e-05,-2.226415252927315e-05,1.930635580790002e-05,2.583504419824845e-05
57.76415608175,15.26415608175,2,0,-0.1073252429223879,7.748642794945139,-2.008704597174941,-6.542355013307752e-06,2.488151713816235e-05,-1.606963677739953e-05,2.98758516472403e-05,3.359860382317696e-05
58.48584391825001,15.26415608175,2,0,-0.5416749115552244,6.011244120413793,-1.930354809895886,-6.542355013307752e-06,1.966932111456832e-05,-1.544283847916708e-05,2.201589960908232e-05,2.931373861779468e-05
57.76415608175,15.98584391825,2,0,0.1016075231550968,7.800875986464511,-2.660229100124198,-5.915556715075298e-06,2.488151713816235e-05,-2.128183280099359e-05,3.100450178863703e-05,3.264979473438008e-05
58.48584391825001,15.98584391825,2,0,-0.3327421454777397,6.063477311933164,-2.58187931284514,-5.915556715075298e-06,1.966932111456832e-05,-2.065503450276112e-05,2.319957180390518e-05,2.773549827395455e-05
59.01415608175,15.26415608175,2,0,0.01907243449891549,4.997470763448757,-0.6672359415947111,-3.936944820362475e-06,1.597664849543689e-05,-5.337887532757689e-06,1.933469770111321e-05,2.700207273406788e-05
59.73584391825001,15.26415608175,2,0,-0.3872919978360988,3.372013034108699,-0.5661400748733916,-3.936944820362475e-06,1.110027530741671e-05,-4.529120598987133e-06,1.189936998900496e-05,2.497134929471644e-05
59.01415608175,15.98584391825,2,0,0.2886614124224387,5.064868007929637,-1.276782590097224,-3.128177886591905e-06,1.597664849543689e-05,-1.021426072077779e-05,2.059854168218136e-05,2.508280412902745e-05
59.73584391825001,15.98584391825,2,0,-0.1177030199125655,3.43941027858962,-1.175686723375906,-3.128177886591905e-06,1.110027530741684e-05,-9.40549378700725e-06,1.319048731175465e-05,2.274980540826354e-05
59.01415608175,16.51415608175,2,0,0.08853736012140501,3.446983488514003,-0.675018478544066,-2.474267238422706e-06,1.095951727514768e-05,-5.400147828352528e-06,1.362120439960167e-05,2.386845055593048e-05
59.73584391825001,16.51415608175,2,0,-0.42238219020803,1.403305287196263,-0.5527997059548578,-2.474267238422706e-06,4.828482671194464e-06,-4.422397647638863e-06,4.413311532900956e-06,2.131239122995365e-05
59.01415608175,17.23584391825,2,0,0.4144540870259919,3.528462670240201,-1.441397804038234,-1.496517057708986e-06,1.095951727514785e-05,-1.153118243230587e-05,1.52784512728819e-05,2.247004350077614e-05
59.73584391825001,17.23584391825,2,0,-0.09646546330346017,1.484784468922392,-1.319179031449014,-1.496517057708986e-06,4.828482671194424e-06,-1.055343225159211e-05,6.28342708113504e-06,1.960684654957712e-05
57.76415608175,14.01415608175,2,0,-0.1345387931823701,8.66528641124882,-1.808004588687185,-7.36275326718264e-06,2.783654755054212e-05,-1.446403670949748e-05,3.320168167852035e-05,3.589695867297272e-05
58.48584391825001,14.01415608175,2,0,-0.4941333711494609,7.226908099380458,-1.753926700379597,-7.36275326718264e-06,2.352141261493703e-05,-1.403141360303678e-05,2.665641174912402e-05,3.246486788653798e-05
57.76415608175,14.73584391825,2,0,0.009668908971201429,8.701338336787213,-2.347396455637813,-6.930130160721925e-06,2.783654755054212e-05,-1.87791716451025e-05,3.397645876361388e-05,3.446867877818724e-05
58.48584391825001,14.73584391825,2,0,-0.3499256689958894,7.26296002491885,-2.293318567330223,-6.930130160721925e-06,2.352141261493703e-05,-1.834654853864179e-05,2.745835564079038e-05,3.058096938615527e-05
57.76415608175,12.76415608175,2,0,-0.1162254179792872,9.532669817410694,-1.617586055659078,-7.998057191462273e-06,3.059752375009765e-05,-1.294068844527263e-05,3.650625878979608e-05,3.86906791379755e-05
58.48584391825001,12.76415608175,2,0,-0.4124939956789473,8.347595506612054,-1.573941838305798,-7.998057191462273e-06,2.704230081770172e-05,-1.259153470644639e-05,3.109131973737405e-05,3.587085310467117e-05
57.76415608175,13.48584391825,2,0,0.0001591616294733811,9.561765962312883,-2.061988922208573,-7.648903452635991e-06,3.059752375009765e-05,-1.649591137766859e-05,3.710462913890712e-05,3.702824025978668e-05
58.48584391825001,13.48584391825,2,0,-0.2961094160701867,8.376691651514243,-2.018344704855297,-7.648903452635991e-06,2.704230081770172e-05,-1.614675763884237e-05,3.170164874723964e-05,3.388228795692474e-05
59.01415608175,12.76415608175,2,0,-0.01220583343887949,7.685634570281251,-0.52822162327707,-6.187566323229414e-06,2.460379529165111e-05,-4.22577298621656e-06,2.952762179701013e-05,3.435518894853311e-05
59.73584391825001,12.76415608175,2,0,-0.271114005071752,6.650001883749761,-0.4562647903384597,-6.187566323229414e-06,2.149689723205664e-05,-3.650118322707678e-06,2.476799796462144e-05,3.30341434998812e-05
59.01415608175,13.48584391825,2,0,0.17967905439746,7.733605792240352,-0.9165838807264043,-5.61191165972041e-06,2.460379529165116e-05,-7.332671045811234e-06,3.035302312688285e-05,3.21900958385303e-05
59.73584391825001,13.48584391825,2,0,-0.07922911723541115,6.697973105708868,-0.8446270477877922,-5.61191165972041e-06,2.14968972320567e-05,-6.757016382302338e-06,2.558749847134308e-05,3.071289329757447e-05
59.01415608175,14.01415608175,2,0,-0.006848129985702611,6.415520818076853,-0.6017342199082838,-5.15433067041573e-06,2.053514512183449e-05,-4.813873759266271e-06,2.467931818458821e-05,3.061718495260692e-05
59.73584391825001,14.01415608175,2,0,-0.3271397617264649,5.134354291113804,-0.5174242389204897,-5.15433067041573e-06,1.669164554094534e-05,-4.139393911363918e-06,1.87986428038707e-05,2.900131208704945e-05
59.01415608175,14.73584391825,2,0,0.2179784859818028,6.471727472068764,-1.082171667519454,-4.479850822513242e-06,2.05351451218346e-05,-8.657373340155634e-06,2.567845573805518e-05,2.848500560630614e-05
59.73584391825001,14.73584391825,2,0,-0.1023131457589697,5.190560945105674,-0.997861686531655,-4.479850822513242e-06,1.669164554094533e-05,-7.98289349225324e-06,1.979549234429329e-05,2.664643546072276e-05
57.76415608175,11.51415608175,2,0,-0.08052893567780828,10.36698547070145,-1.466905260163633,-8.551280970730142e-06,3.323877665478687e-05,-1.173524208130907e-05,3.976513326279892e-05,4.171761982636514e-05
58.48584391825001,11.51415608175,2,0,-0.3267361291428115,9.382156696841433,-1.427976203659389,-8.551280970730142e-06,3.028429033320683e-05,-1.142380962927511e-05,3.525317654396721e-05,3.933726474888517e-05
57.76415608175,12.23584391825,2,0,0.02328188166688516,10.39293817503762,-1.836216050361142,-8.239848518696062e-06,3.323877665478687e-05,-1.468972840288913e-05,4.027197751440646e-05,3.99471946058041e-05
58.48584391825001,12.23584391825,2,0,-0.222925311798118,9.408109401177605,-1.797286993856878,-8.239848518696062e-06,3.028429033320683e-05,-1.437829595085503e-05,3.576490449137466e-05,3.7332509730762e-05
57.76415608175,10.26415608175,2,0,-0.03774062634444864,11.18064867991716,-1.369066510912436,-9.065288948235959e-06,3.580826827681046e-05,-1.095253208729949e-05,4.298832205291101e-05,4.487352480584694e-05
58.48584391825001,10.26415608175,2,0,-0.2449876353747626,10.3516606437959,-1.332462525785252,-9.065288948235959e-06,3.332130416844668e-05,-1.065970020628202e-05,3.918384215513904e-05,4.28136283045057e-05
57.76415608175,10.98584391825,2,0,0.05987000066139547,11.20505133666862,-1.679937024457912,-8.772457067218427e-06,3.580826827681046e-05,-1.34394961956633e-05,4.344497631839841e-05,4.303762602507459e-05
58.48584391825001,10.98584391825,2,0,-0.1473770083689185,10.37606330054736,-1.643333039330723,-8.772457067218427e-06,3.332130416844668e-05,-1.314666431464579e-05,3.964225676230398e-05,4.080592604429332e-05
59.01415608175,10.26415608175,2,0,-0.001747340490117821,9.866062113107073,-0.4229934717333363,-7.898441180054035e-06,3.157279663433473e-05,-3.38394777386669e-06,3.792355230681681e-05,4.170184000565953e-05
59.73584391825001,10.26415608175,2,0,-0.1925846165275771,9.102713008957236,-0.3657324952734489,-7.898441180054035e-06,2.928274932188522e-05,-2.925859962187591e-06,3.441246682010184e-05,4.072427438716333e-05
59.01415608175,10.98584391825,2,0,0.1509485967362894,9.904236097413708,-0.7092493857895557,-7.440353368374841e-06,3.157279663433484e-05,-5.673995086316445e-06,3.856017800172947e-05,3.960430988423812e-05
59.73584391825001,10.98584391825,2,0,-0.0398886793011699,9.140886993263871,-0.6519884093296683,-7.440353368374841e-06,2.928274932188532e-05,-5.215907274637346e-06,3.504466275770967e-05,3.855313346441323e-05
59.01415608175,11.51415608175,2,0,-0.008729854807747905,8.824951577239466,-0.4662212319477751,-7.087896797176364e-06,2.824682893101248e-05,-3.729769855582201e-06,3.39068668726414e-05,3.80570058538038e-05
59.73584391825001,11.51415608175,2,0,-0.2263933338003672,7.954297661268988,-0.4031160509055824,-7.087896797176364e-06,2.563486718310105e-05,-3.224928407244659e-06,2.990330177217628e-05,3.693962858293074e-05
59.01415608175,12.23584391825,2,0,0.1595506279714822,8.867021697934323,-0.7927164504367398,-6.583055348838713e-06,2.824682893101264e-05,-6.341731603493918e-06,3.461678539846661e-05,3.592722274914278e-05
59.73584391825001,12.23584391825,2,0,-0.05811285102114949,7.996367781963795,-0.7296112693945503,-6.583055348838713e-06,2.563486718310106e-05,-5.836890155156403e-06,3.060787328980214e-05,3.470259219102286e-05
57.76415608175,9.01415608175,2,0,0.01057545459864029,11.98915399677719,-1.332055005012743,-9.557481742706101e-06,3.835683242600808e-05,-1.065644004010195e-05,4.62252303391039e-05,4.815827077710298e-05
58.48584391825001,9.01415608175,2,0,-0.1652238729248405,11.28595668668326,-1.296824246682589,-9.557481742706101e-06,3.624724049572631e-05,-1.037459397346071e-05,4.29942990146098e-05,4.634333786368303e-05
57.76415608175,9.735843918250001,2,0,0.104524143479078,12.0126411689973,-1.595753996297961,-9.275635676064787e-06,3.835683242600808e-05,-1.276603197038369e-05,4.665151815363676e-05,4.624559743183691e-05
58.48584391825001,9.735843918250001,2,0,-0.07127518404440281,11.30944385890337,-1.560523237967797,-9.275635676064787e-06,3.624724049572631e-05,-1.248418590374238e-05,4.342099839335132e-05,4.429737332962355e-05
57.76415608175,7.764156081749999,2,0,0.06819396905563835,12.81302322097952,-1.36606569224535,-1.003219787580557e-05,4.094711913188995e-05,-1.09285255379628e-05,4.956369341814854e-05,5.164080326317032e-05
58.48584391825001,7.76415608175,2,0,-0.07953587146923846,12.22210385887998,-1.33206620441269,-1.003219787580555e-05,3.917436104559132e-05,-1.065652963530152e-05,4.684623214301779e-05,5.003511898745494e-05
57.76415608175,8.485843918250001,2,0,0.1588592699427545,12.8356895462013,-1.587660453032687,-9.760201973144225e-06,4.094711913188995e-05,-1.27012836242615e-05,4.996665426358339e-05,4.960391182256346e-05
58.48584391825001,8.485843918250001,2,0,0.01112942941786876,12.24477018410176,-1.553660965200009,-9.760201973144225e-06,3.917436104559132e-05,-1.242928772160007e-05,4.724905567868014e-05,4.788076217902628e-05
59.01415608175,7.76415608175,2,0,0.01562320366371761,11.8189583301031,-0.4069132183693154,-9.405172412358583e-06,3.780816809339894e-05,-3.255305746954523e-06,4.54775100609252e-05,4.915257493535946e-05
59.73584391825001,7.76415608175,2,0,-0.1476893356855737,11.16570817270593,-0.3530826559437365,-9.405172412358576e-06,3.584841762120742e-05,-2.824661247549892e-06,4.247183369603416e-05,4.834710402072979e-05
59.01415608175,8.485843918250001,2,0,0.159171370131971,11.85484537172017,-0.6518820273932729,-8.974527912953829e-06,3.780816809339897e-05,-5.215056219146183e-06,4.606888853947562e-05,4.694042062229397e-05
59.73584391825001,8.485843918250001,2,0,-0.00414116921731722,11.20159521432302,-0.598051464967694,-8.974527912953829e-06,3.584841762120751e-05,-4.784411719741552e-06,4.305984368496887e-05,4.609450935626083e-05
59.01415608175,9.01415608175,2,0,0.00653727559828976,10.8489502094992,-0.4019586025323154,-8.65824088568483e-06,3.47114108499188e-05,-3.215668820258523e-06,4.172309986623864e-05,4.535702885406533e-05
59.73584391825001,9.01415608175,2,0,-0.1673271155694516,10.15349264482823,-0.3477751364190999,-8.65824088568483e-06,3.26250381559059e-05,-2.782201091352799e-06,3.852373656115914e-05,4.447731544113223e-05
59.01415608175,9.735843918250001,2,0,0.1510265185668982,10.88507252024138,-0.6627551892839524,-8.224773156779031e-06,3.471141084991891e-05,-5.302041514271619e-06,4.232112193368486e-05,4.324327640785996e-05
59.73584391825001,9.735843918250001,2,0,-0.02283787260085068,10.18961495557039,-0.6085717231707301,-8.224773156779031e-06,3.262503815590592e-05,-4.868573785365841e-06,3.911799778926291e-05,4.231165416359079e-05
57.76415608175,6.51415608175,2,0,0.1454921420019146,13.67727368878192,-1.489534844141971,-1.047624409661941e-05,4.365088209050061e-05,-1.191627875313577e-05,5.313266958089749e-05,5.543933342699283e-05
58.48584391825001,6.51415608175,2,0,0.0277201089875363,13.20618555672444,-1.458011930130968,-1.047624409661944e-05,4.223761769432818e-05,-1.166409544104775e-05,5.096452080824795e-05,5.405268391231788e-05
57.76415608175,7.23584391825,2,0,0.2295532460312475,13.69828896478925,-1.666192893663516,-1.022406078453141e-05,4.365088209050061e-05,-1.332954314930813e-05,5.350138392111509e-05,5.320439976952364e-05
58.48584391825001,7.235843918250001,2,0,0.1117812130168696,13.22720083273177,-1.634669979652525,-1.022406078453144e-05,4.223761769432818e-05,-1.30773598372202e-05,5.13329549304776e-05,5.168888043158705e-05
57.76415608175,5.264156081750001,2,0,0.2632862033769712,14.6078765969201,-1.738302616500905,-1.084378542672977e-05,4.653457614744273e-05,-1.390642093200724e-05,5.710277007082699e-05,5.970242143991641e-05
58.48584391825001,5.26415608175,2,0,0.1857529616567843,14.29774363003932,-1.713116789912318,-1.084378542672974e-05,4.560417724680038e-05,-1.370493431929855e-05,5.567398329056435e-05,5.861340227121309e-05
57.76415608175,5.985843918250001,2,0,0.3304484076132379,14.62466714797916,-1.854602479081204,-1.064229881402097e-05,4.653457614744273e-05,-1.483681983264964e-05,5.739455348848544e-05,5.718047308592032e-05
58.48584391825001,5.985843918250001,2,0,0.2529151658930422,14.31453418109838,-1.82941665249261,-1.064229881402097e-05,4.560417724680038e-05,-1.463533321994088e-05,5.59655691714296e-05,5.59081039471596e-05
59.01415608175,5.26415608175,2,0,0.04216767321679527,13.95040288790107,-0.5323530295781991,-1.102538575602711e-05,4.460755510270997e-05,-4.258824236625592e-06,5.375392781295956e-05,5.797966839062901e-05
59.73584391825001,5.26415608175,2,0,-0.1072009462061971,13.3529284102091,-0.4702691133056108,-1.102538575602711e-05,4.281513166963407e-05,-3.762152906444886e-06,5.100328171049692e-05,5.733729439902526e-05
59.01415608175,5.985843918250001,2,0,0.2077247832770599,13.99179216541615,-0.7564059587127188,-1.052871442584633e-05,4.460755510271003e-05,-6.05124766970175e-06,5.443254650928768e-05,5.518624219918493e-05
59.73584391825001,5.985843918250001,2,0,0.05835616385407016,13.39431768772419,-0.6943220424401297,-1.052871442584633e-05,4.281513166963415e-05,-5.554576339521038e-06,5.167877939502995e-05,5.448644836635451e-05
59.01415608175,6.51415608175,2,0,0.02574998568146691,12.82951977515382,-0.445279954603182,-1.018121586594236e-05,4.103386329194704e-05,-3.562239636825456e-06,4.939281869818531e-05,5.327589632661494e-05
59.73584391825001,6.51415608175,2,0,-0.1305378302440681,12.20436851145168,-0.3886909057189198,-1.018121586594236e-05,3.915840950084062e-05,-3.109527245751358e-06,4.651580881752691e-05,5.254032269037047e-05
59.01415608175,7.235843918250001,2,0,0.1766541160395518,12.86724580774337,-0.6797116784915237,-9.728503474868132e-06,4.103386329194715e-05,-5.43769342793219e-06,5.001256880511169e-05,5.085016053394643e-05
59.73584391825001,7.235843918250001,2,0,0.02036630011399954,12.2420945440412,-0.6231226296072648,-9.728503474868159e-06,3.915840950084063e-05,-4.984981036858119e-06,4.713235515855652e-05,5.007425449811248e-05
57.76415608175,4.01415608175,2,0,0.4903631076667252,15.62152713535744,-2.180928536114441,-1.092805976375243e-05,4.959659634701043e-05,-1.744742828891553e-05,6.176862345498318e-05,6.455936441353924e-05
58.48584391825001,4.01415608175,2,0,0.4805836786629563,15.58240941934239,-2.179965420949922,-1.092805976375245e-05,4.947924319896528e-05,-1.743972336759937e-05,6.158880531136315e-05,6.396627311293913e-05
57.76415608175,4.735843918250001,2,0,0.4929314147721251,15.62216921213379,-2.195597679620085,-1.092035484243623e-05,4.959659634701043e-05,-1.756478143696068e-05,6.178219844776423e-05,6.167958941212739e-05
58.48584391825001,4.735843918250001,2,0,0.4831519857683628,15.58305149611875,-2.194634564455564,-1.092035484243623e-05,4.947924319896528e-05,-1.755707651564451e-05,6.160238616089407e-05,6.077258219158988e-05
57.76415608175,2.76415608175,2,0,0.9292349292231368,16.66416608515981,-2.951624847781618,-1.035778109461381e-05,5.258194352913289e-05,-2.361299878225295e-05,6.729379411397619e-05,6.991958236613072e-05
58.48584391825,2.76415608175,2,0,1.049633786547501,17.14576151445727,-3.004067033748033,-1.035778109461381e-05,5.402672981702525e-05,-2.403253626998426e-05,6.951813533241215e-05,7.028191653759953e-05
57.76415608175,3.48584391825,2,0,0.7893890999793616,16.62920462784887,-2.771026561795077,-1.077731858234514e-05,5.258194352913289e-05,-2.216821249436062e-05,6.668137956026944e-05,6.676726387113387e-05
58.48584391825001,3.48584391825,2,0,0.9097879573037249,17.11080005714632,-2.823468747761494,-1.077731858234514e-05,5.402672981702525e-05,-2.258774998209195e-05,6.890539703477617e-05,6.651429157143065e-05
59.01415608175,2.76415608175,2,0,0.2076998205891023,16.98029463526157,-1.061001522479017,-1.291959628232412e-05,5.417078297636573e-05,-8.488012179832132e-06,6.593716898515431e-05,7.038842546039642e-05
59.73584391825,2.76415608175,2,0,0.1200976757919081,16.62988605607279,-0.9995430415011086,-1.291959628232412e-05,5.31195572387994e-05,-7.996344332008869e-06,6.431945338751012e-05,7.031707907748051e-05
59.01415608175,3.48584391825,2,0,0.3715891031968521,17.02126695591351,-1.192404739674801,-1.242792843450088e-05,5.417078297636574e-05,-9.539237917398406e-06,6.660784323135962e-05,6.630219192295541e-05
59.73584391825001,3.48584391825,2,0,0.2839869583996588,16.67085837672473,-1.130946258696888,-1.242792843450088e-05,5.311955723879942e-05,-9.047570069575106e-06,6.498869686394214e-05,6.597569720673216e-05
59.01415608175,4.01415608175,2,0,0.0609410470871472,15.27879127672251,-0.7073010128280466,-1.202802167069913e-05,4.88433792478423e-05,-5.658408102624372e-06,5.892576107163541e-05,6.357991400918904e-05
59.73584391825001,4.01415608175,2,0,-0.07404724234599147,14.73883811898995,-0.6321887941755537,-1.202802167069913e-05,4.722351977464463e-05,-5.05751035340443e-06,5.643780382252905e-05,6.311745260833227e-05
59.01415608175,4.735843918250001,2,0,0.2612402968271801,15.32886608915751,-0.9097834469777815,-1.142712392147903e-05,4.88433792478423e-05,-7.278267575822251e-06,5.974415700914009e-05,6.02287459735815e-05
59.73584391825001,4.735843918250001,2,0,0.1262520073940467,14.78891293142498,-0.8346712283252878,-1.142712392147903e-05,4.72235197746447e-05,-6.677369826602303e-06,5.725303323444825e-05,5.964996501546082e-05
57.76415608175,1.51415608175,2,0,2.47332462189708,17.50910972901589,-4.186613076528308,-6.092648993142056e-06,5.405049143533318e-05,-3.349290461222646e-05,7.572360805646773e-05,7.502645130651471e-05
58.48584391825001,1.51415608175,2,0,2.868229520871427,19.08872932491328,-4.562847910062962,-6.092648993142056e-06,5.878935022302535e-05,-3.650278328050369e-05,8.309884980111206e-05,7.683045989651968e-05
57.76415608175,2.23584391825,2,0,1.470031732471346,17.25828650665946,-3.594255728066791,-9.10252766141926e-06,5.405049143533318e-05,-2.875404582453433e-05,7.142427779407083e-05,7.213262496950942e-05
58.48584391825,2.23584391825,2,0,1.864936631445695,18.83790610255686,-3.970490561601448,-9.10252766141926e-06,5.878935022302538e-05,-3.176392449281158e-05,7.87882404500513e-05,7.304612550920464e-05
57.76415608175,0.26415608175,2,0,4.066852793090518,17.58580280136388,-4.746770940173104,-1.054713303201448e-06,5.3021086729892e-05,-3.797416752138484e-05,8.132247439018738e-05,7.79361419313245e-05
58.48584391825001,0.26415608175,2,0,4.420739168168401,19.00134830167541,-5.106962231659065,-1.054713303201448e-06,5.72677232308266e-05,-4.085569785327252e-05,8.794628163566505e-05,8.107774261341378e-05
57.76415608175,0.9858439182500001,2,0,3.106342682461295,17.34567527370658,-4.215941377556283,-3.936243635089114e-06,5.3021086729892e-05,-3.372753102045027e-05,7.712847931801205e-05,7.658149898964498e-05
58.48584391825001,0.9858439182500001,2,0,3.46022905753918,18.76122077401811,-4.576132669042243,-3.936243635089114e-06,5.726772323082661e-05,-3.660906135233795e-05,8.374988585503504e-05,7.898252521344153e-05
59.01415608175,0.26415608175,2,0,4.343134589964593,21.40062341485779,-5.062733606944407,-3.222468043999532e-06,6.500748725557323e-05,-4.050186885555526e-05,9.67516680880255e-05,8.341712379596526e-05
59.73584391825001,0.26415608175,2,0,5.751367261145104,27.03355409957983,-6.163226909737923,-3.222468043999532e-06,8.190627930973937e-05,-4.930581527790338e-05,0.000122997764835466,8.666683136314895e-05
59.01415608175,0.9858439182500001,2,0,1.408485782515218,20.66696121299541,-2.950384600173642,-1.202641446634763e-05,6.500748725557314e-05,-2.360307680138913e-05,8.40726939509784e-05,8.064388978232077e-05
59.73584391825001,0.9858439182500001,2,0,2.816718453695739,26.2998918977175,-4.050877902967166,-1.202641446634763e-05,8.19062793097394e-05,-3.240702322373733e-05,0.000110253033072459,8.278179597079004e-05
59.01415608175,1.51415608175,2,0,0.1600957860289931,19.13372945925422,-2.04933395232788,-1.47946770521106e-05,6.10998576407903e-05,-1.639467161862304e-05,7.419180061750896e-05,7.799216272682418e-05
59.73584391825001,1.51415608175,2,0,0.2912261917935899,19.65825108231261,-1.894219903699114,-1.47946770521106e-05,6.267342250996546e-05,-1.515375922959291e-05,7.65758745371744e-05,7.936198529264261e-05
59.01415608175,2.23584391825,2,0,0.5737332490390736,19.23713882500674,-1.852638343681017,-1.355376466308036e-05,6.10998576407903e-05,-1.482110674944813e-05,7.581631917390749e-05,7.352074369673897e-05
59.73584391825,2.23584391825,2,0,0.7048636548036704,19.76166044806513,-1.697524295052253,-1.355376466308036e-05,6.267342250996546e-05,-1.358019436041802e-05,7.82075722990597e-05,7.390392415963894e-05
