xcoord,ycoord,g,damage,sigma_xx,sigma_yy,tau_xy,e_xx,e_yy,e_xy,elocal,enonlocal_true,
0.4226497308,0.4226497308,8,0,-0.02000444827573533,-0.02000497490004224,0.03765305830948323,-4.801025456231927e-08,-4.80123610595469e-08,3.012244664758659e-07,1.026009254306826e-07,1.0633985889031e-06
1.5773502692,0.4226497308,8,0,-0.02732347378243277,-0.04928107692683199,0.0266835259464987,-4.801025456231927e-08,-1.358406671399161e-07,2.134682075719896e-07,2.348993783721691e-08,1.140428694667398e-06
0.4226497308,1.5773502692,8,0,-0.04925653457698224,-0.02731799647535397,0.02667452004943708,-1.3576651346606e-07,-4.80123610595469e-08,2.133961603954966e-07,2.347814108584489e-08,1.129804663300866e-06
1.5773502692,1.5773502692,8,0,-0.05657556008367968,-0.05659409850214372,0.0157049876864661,-1.3576651346606e-07,-1.358406671399161e-07,1.256399014917288e-07,0,1.21665204458956e-06
2.4226497308,0.4226497308,8,0,-0.2191715685080467,-0.08659331984224992,0.164173870379405,-6.320743633519495e-07,-1.017613686887624e-07,1.31339096303524e-06,3.412889706614275e-07,1.244504358745218e-06
3.5773502692,0.4226497308,8,0,-0.2040936784299143,-0.02628175952972022,0.1419662994146678,-6.320743633519495e-07,7.917331224882671e-08,1.135730395317343e-06,3.935787250963478e-07,1.451814255085083e-06
2.4226497308,1.5773502692,8,0,-0.2783917577473674,-0.1013983671520801,0.1867907054965766,-8.097349310699114e-07,-1.017613686887624e-07,1.494325643972613e-06,3.710280736637719e-07,1.331065039968803e-06
3.5773502692,1.5773502692,8,0,-0.2633138676692621,-0.0410868068396588,0.1645831345318529,-8.097349310699114e-07,7.917331224850145e-08,1.316665076254823e-06,4.29037261022756e-07,1.556799775115635e-06
4.422649730800001,0.4226497308,8,0,-0.6813086610304848,-0.09329193870616213,0.2651610863249414,-2.105554164332621e-06,2.46512724964669e-07,2.121288690599531e-06,6.541525705335883e-07,1.630487355284433e-06
5.577350269200001,0.4226497308,8,0,-0.6582882363028739,-0.001210239795718493,0.2719455474464499,-2.105554164332621e-06,5.227578216959999e-07,2.175564379571599e-06,9.145549541779961e-07,1.911321446655788e-06
4.422649730800001,1.5773502692,8,0,-0.6632167647063943,-0.08876896462513952,0.2996917234163307,-2.05127847536035e-06,2.46512724964669e-07,2.397533787330645e-06,7.580397112002065e-07,1.746688411804968e-06
5.577350269200001,1.5773502692,8,0,-0.6401963399788105,0.003312734285195712,0.3064761845378663,-2.05127847536035e-06,5.227578216956746e-07,2.45180947630293e-06,1.0131698804227e-06,2.039739079895437e-06
6.422649730800001,0.4226497308,8,0,-1.35211540926588,-0.1057564354031217,0.3108997138110645,-4.242164161328317e-06,7.432717341227142e-07,2.487197710488516e-06,1.036263907654925e-06,2.132280242494522e-06
7.577350269200001,0.4226497308,8,0,-1.324931232947595,0.002980269870018426,0.3799228952771992,-4.242164161328317e-06,1.069481849942135e-06,3.039383162217594e-06,1.473537655461736e-06,2.45511680775949e-06
6.422649730800001,1.5773502692,8,0,-1.16805359202295,-0.05974098109238923,0.3516759782885327,-3.689978709599527e-06,7.432717341227142e-07,2.813407826308262e-06,1.15195473673239e-06,2.265658775860191e-06
7.577350269200001,1.5773502692,8,0,-1.140869415704629,0.04899572418089548,0.4206991597546675,-3.689978709599527e-06,1.069481849942568e-06,3.36559327803734e-06,1.60435630027674e-06,2.589832195602184e-06
8.4226497308,0.4226497308,8,0,-2.157468369650947,-0.1273357125973151,0.3182752847344941,-6.802030212805179e-06,1.31850041540935e-06,2.546202277875953e-06,1.513413232815234e-06,2.709886994548699e-06
9.5773502692,0.4226497308,8,0,-2.127958264893111,-0.009295293565969476,0.4692116921969599,-6.802030212805179e-06,1.672621672503386e-06,3.753693537575679e-06,2.069676480046519e-06,3.083095523875251e-06
8.4226497308,1.5773502692,8,0,-1.754971283084291,-0.02671144095565092,0.3625404418711674,-5.594538953105209e-06,1.31850041540935e-06,2.900323534969339e-06,1.61038005346717e-06,2.84206809391659e-06
9.5773502692,1.5773502692,8,0,-1.725461178326454,0.09132897807569473,0.5134768493336196,-5.594538953105209e-06,1.672621672503386e-06,4.107814794668957e-06,2.212941392812516e-06,3.207015963891628e-06
10.4226497308,0.4226497308,8,0,-3.049314686530564,-0.1569900671421539,0.3017317130064385,-9.632214943184079e-06,1.937083534369558e-06,2.413853704051508e-06,2.061650761573828e-06,3.393921063283772e-06
11.5773502692,0.4226497308,8,0,-3.018614521012242,-0.03418940506886781,0.549653883184209,-9.632214943184079e-06,2.305485520589417e-06,4.397231065473672e-06,2.697538003843513e-06,3.869903699947405e-06
10.4226497308,1.5773502692,8,0,-2.388188899389779,0.008291379643042274,0.3477819612839614,-7.648837581761725e-06,1.937083534369558e-06,2.782255690271691e-06,2.134885201924889e-06,3.509559136709922e-06
11.5773502692,1.5773502692,8,0,-2.35748873387143,0.1310920417164368,0.595704131461732,-7.648837581761725e-06,2.305485520589742e-06,4.765633051693856e-06,2.846471457688606e-06,3.971174586392693e-06
12.4226497308,0.4226497308,8,0,-4.004806604015286,-0.1957968980461191,0.2705201496342027,-1.265874361441202e-05,2.577295209464647e-06,2.164161197073622e-06,2.653762017047345e-06,4.299152279504587e-06
13.5773502692,0.4226497308,8,0,-3.973623612864697,-0.07106493344376275,0.6328686052469362,-1.265874361441202e-05,2.951491103271716e-06,5.06294884197549e-06,3.351751232968076e-06,4.995898571317808e-06
12.4226497308,1.5773502692,8,0,-3.038544055714595,0.04576873902905365,0.3172946363600728,-9.759955969509946e-06,2.577295209464647e-06,2.538357090880582e-06,2.706507014153501e-06,4.389090462226767e-06
13.5773502692,1.5773502692,8,0,-3.007361064564051,0.1705007036312294,0.6796430919728063,-9.759955969509946e-06,2.951491103271174e-06,5.43714473578245e-06,3.508499110235284e-06,5.069242418660874e-06
14.4226497308,0.4226497308,8,0,-5.024458807391471,-0.248244901517231,0.2307499011199634,-1.587967226243892e-05,3.225183361058037e-06,1.845999208959707e-06,3.269672000364855e-06,5.673864713144099e-06
15.5773502692,0.4226497308,8,0,-4.993330035713363,-0.1237298148047983,0.7341913147031984,-1.587967226243892e-05,3.598728621195335e-06,5.873530517625587e-06,4.031873800288889e-06,6.829356366690503e-06
14.4226497308,1.5773502692,8,0,-3.681948371169482,0.08738270753826627,0.2774430586371122,-1.185214095377295e-05,3.225183361058037e-06,2.219544469096897e-06,3.306430752726645e-06,5.735564289412445e-06
15.5773502692,1.5773502692,8,0,-3.650819599491347,0.2118977942508073,0.7808844722203743,-1.185214095377295e-05,3.598728621195661e-06,6.247075777762994e-06,4.206290389509934e-06,6.875837538143369e-06
16.4226497308,0.4226497308,8,0,-6.137799486408709,-0.3246192613702885,0.1868925301628561,-1.938126294741164e-05,3.871457952742043e-06,1.495140241302849e-06,3.895467385222654e-06,8.017373277090601e-06
17.5773502692,0.4226497308,8,0,-6.106835725542473,-0.2007642179053442,0.8784586972963468,-1.938126294741164e-05,4.243023083136876e-06,7.027669578370775e-06,4.754587202446026e-06,1.010760418314626e-05
16.4226497308,1.5773502692,8,0,-4.293623040719345,0.1364248500520526,0.2333381714622238,-1.384873361034354e-05,3.871457952742043e-06,1.86670537169779e-06,3.920483592208941e-06,8.054514169103835e-06
17.5773502692,1.5773502692,8,0,-4.262659279853108,0.260279893516997,0.9249043385957281,-1.384873361034354e-05,4.243023083136876e-06,7.399234708765825e-06,4.970326594567249e-06,1.013444536198792e-05
18.4226497308,0.4226497308,8,0,-7.421736195823192,-0.4490756420447759,0.1463879687186697,-2.339029531299839e-05,4.50034690211527e-06,1.171103749749358e-06,4.512634894652887e-06,1.233588261605048e-05
19.5773502692,0.4226497308,8,0,-7.394114811066427,-0.3385901030177172,1.117776267216248,-2.339029531299839e-05,4.831803519196446e-06,8.942210137729981e-06,5.523203095085911e-06,1.633342160235795e-05
18.4226497308,1.5773502692,8,0,-4.831367399829707,0.1985165569535954,0.1878200458537761,-1.561918892501794e-05,4.50034690211527e-06,1.502560366830209e-06,4.528361321094131e-06,1.235310068756961e-05
19.5773502692,1.5773502692,8,0,-4.803746015072951,0.3090020959806179,1.159208344351408,-1.561918892501794e-05,4.831803519196338e-06,9.273666754811265e-06,5.833996140219395e-06,1.633464856891565e-05
20.4226497308,0.4226497308,8,0,-9.062669088547104,-0.6721045090884996,0.1000948736520685,-2.846285747607993e-05,5.099400841754483e-06,8.007589892165476e-07,5.104176471914454e-06,2.070276393884433e-05
21.5773502692,0.4226497308,8,0,-9.029366349868065,-0.5388935543723496,1.554833747029606,-2.846285747607993e-05,5.499033705902933e-06,1.243866997623685e-05,6.60213193421932e-06,2.864249021198688e-05
20.4226497308,1.5773502692,8,0,-5.183365426206922,0.2977214064965457,0.1500489816706383,-1.682494648905938e-05,5.099400841754483e-06,1.200391853365106e-06,5.115819373025027e-06,2.067906300000688e-05
21.5773502692,1.5773502692,8,0,-5.150062687527857,0.4309323612128042,1.60478785504823,-1.682494648905938e-05,5.499033705903258e-06,1.283830284038584e-05,7.213204833400282e-06,2.856667607404213e-05
22.4226497308,0.4226497308,8,0,-11.40974320179722,-1.135816966867749,0.07542564050962923,-3.56025246722569e-05,5.493180267460976e-06,6.034051240770338e-07,5.495395086032718e-06,3.752734757323761e-05
23.5773502692,0.4226497308,8,0,-11.44437859807812,-1.274358551991362,2.500385434135448,-3.56025246722569e-05,5.077555512090137e-06,2.000308347308358e-05,7.403526715665444e-06,5.38615030300664e-05
22.4226497308,1.5773502692,8,0,-4.943183752128405,0.4808228955494538,0.02347254608828795,-1.620284632325046e-05,5.493180267460976e-06,1.877803687063036e-07,5.493586572348065e-06,3.732480131649436e-05
23.5773502692,1.5773502692,8,0,-4.977819148409308,0.3422813104258409,2.448432339714052,-1.620284632325046e-05,5.077555512090137e-06,1.958745871771242e-05,8.898717266136287e-06,5.336483138490736e-05
24.4226497308,0.4226497308,8,0,-15.47650800182461,-1.562075870851137,-1.044922770232457,-4.827516490915784e-05,7.38256361473605e-06,-8.359382161859659e-06,7.69469264801364e-06,7.212657549042469e-05
25.5773502692,0.4226497308,8,0.05215672899458805,-14.13906274900607,0.6403617737530416,3.314922160442958,-4.827516490915784e-05,1.409558761866054e-05,2.797865226749312e-05,1.708957557350058e-05,0.0001056935260013433
24.4226497308,1.5773502692,8,0,-3.36382985870705,1.466093664928254,-0.2057947697418558,-1.193713047980516e-05,7.38256361473605e-06,-1.646358157934846e-06,7.417574419580259e-06,7.149812022264312e-05
25.5773502692,1.5773502692,8,0.04599634567279528,-2.675418525130661,3.533408524370834,4.136998242208628,-1.193713047980516e-05,1.409558761866027e-05,3.469167627141788e-05,2.276571522653172e-05,0.000104999156569352
26.4226497308,0.4226497308,8,0.3286399718697274,-21.18575818373754,-3.022333070729753,-3.208602233016058,-9.737928531945676e-05,1.08394012388875e-05,-3.823405741866363e-05,1.411718035469791e-05,0.0001448597184081518
27.57735026920001,0.4226497308,8,0.6157090131387645,-12.62673960543455,-3.729481352668351,3.542205607806308,-9.737928531945676e-05,-4.769689393867955e-06,7.374007153772505e-05,8.116169439595704e-06,0.0002182967954962014
26.4226497308,1.5773502692,8,0.3079530837870175,3.99188669393041,3.342151111284877,-4.65774807102295,1.459484363693192e-05,1.08394012388875e-05,-5.384314805141903e-05,3.970410049998652e-05,0.0001412411629351698
27.57735026920001,1.5773502692,8,0.5834958776786453,1.860721238577705,-0.1556307199613524,3.026474147687965,1.459484363693192e-05,-4.769689393868063e-06,5.813098090496943e-05,3.554832454376265e-05,0.0002067551293523194
28.4226497308,0.4226497308,8,0.7350583628998519,1.517828460889444,16.27370392612614,-30.44265772733917,-3.080645290558644e-05,0.0001919728071117276,-0.0009192260774272133,0.0005535015580410722,0.0002778127514567993
29.5773502692,0.4226497308,8,0.8262746566438101,9.002832132083791,42.70115553909679,-19.45872679736954,-3.080645290558644e-05,0.0007450923942285627,-0.00089606853767896,0.0009497975591871764,0.0003669762899210479
28.4226497308,1.5773502692,8,0.7047438988951202,3.970632453322659,18.70551515894561,-13.51189686477917,-7.64891315733308e-06,0.0001919728071117276,-0.0003661064903103771,0.0003006582259910932,0.0002592209203747236
29.5773502692,1.5773502692,8,0.803305855498875,11.71144377814184,48.72639564987364,-8.432006304796944,-7.64891315733308e-06,0.000745092394228563,-0.0003429489505621238,0.0007823137673375984,0.0003370461606961676
30.4226497308,0.4226497308,8,0.8464347502780603,20.85419198944738,46.80275971216324,6.807636769446156,0.0001907411126510623,0.0008666379778520338,0.0003546446494514992,0.0009221333799419235,0.000401567702528787
31.5773502692,0.4226497308,8,0.8490619152721621,17.71700611548942,34.88040168394755,3.071086483790897,0.0001907411126510623,0.0006455871006442473,0.0001627733114185721,0.0006829439596545931,0.0004069096608184782
30.4226497308,1.5773502692,8,0.8284482834623847,12.32480535832259,49.54158656370693,2.864780118393009,-1.130225381864577e-06,0.0008666379778520332,0.0001335937722437123,0.0008717495910564514,0.0003702551656187096
31.5773502692,1.5773502692,8,0.8364369202394742,8.737896821493035,35.18266621632375,-1.191507267678823,-1.130225381864577e-06,0.0006455871006442472,-5.827756578921455e-05,0.000646897336071079,0.000383158614018313
32.4226497308,0.4226497308,8,0.8464409363350629,14.32530854287972,29.63207083699121,2.502587992152999,0.0001441486431300532,0.0005428685084064018,0.0001303778719366821,0.0005691961379709072,0.0004015800095258717
33.57735026920001,0.4226497308,8,0.8355634457951062,14.52360576381082,28.46529034322216,1.485558511095662,0.0001441486431300532,0.0004832869727265128,7.2273881839903e-05,0.0005069091499682135,0.0003816771731175355
32.4226497308,1.5773502692,8,0.8358429901410855,12.134583575977,30.88229310854547,1.452714358610178,8.604465303327397e-05,0.0005428685084064018,7.079633625679322e-05,0.0005519202481778509,0.0003821492807324194
33.57735026920001,1.5773502692,8,0.8259459006867629,12.00198142378668,29.2873949646136,0.2761443598816332,8.604465303327397e-05,0.0004832869727265128,1.269234616001403e-05,0.0004909689686205192,0.0003664882825138672
34.42264973080001,0.4226497308,8,0.825526309733981,12.05132424565604,27.34427146277681,1.117572613967002,9.565236105473855e-05,0.0004462598868955391,5.124314673521473e-05,0.0004578320553118019,0.0003658683900594425
35.5773502692,0.4226497308,8,0.8080175431194206,12.59550483104799,27.42755022204577,0.8132114911953515,9.565236105473855e-05,0.0004046815428246936,3.38869083939769e-05,0.0004165221321353419,0.0003425808279453985
34.42264973080001,1.5773502692,8,0.8162980004384078,11.62595422903334,28.52487404064599,0.2219304468515997,7.829612271350083e-05,0.000446259886895539,9.664802664369047e-06,0.0004531278778548694,0.0003530102751762491
35.5773502692,1.5773502692,8,0.7986665760777201,12.04420220650323,28.47227574382777,-0.1935678849627458,7.829612271350083e-05,0.0004046815428246934,-7.691435676868759e-06,0.0004122220433532485,0.0003318486725620771
36.4226497308,0.4226497308,8,0.7929662109402292,11.25826793928814,27.2388075110676,0.7214334559441409,6.8758879705178e-05,0.000377511178435814,2.787693580726043e-05,0.0003842278427669046,0.0003257742596040195
37.5773502692,0.4226497308,8,0.7687745116140327,11.94461208375297,27.90494140913466,0.5748193822880778,6.8758879705178e-05,0.0003448587065329249,1.988775152083839e-05,0.0003519276521391157,0.0003031454231065854
36.4226497308,1.5773502692,8,0.7834815289831648,11.19743244096644,28.34252784358102,-0.1292489717139045,6.076969541875589e-05,0.000377511178435814,-4.775536095628712e-06,0.0003823859942489862,0.0003163451141120297
37.5773502692,1.5773502692,8,0.7589687474626856,11.80927576636703,28.92785831160082,-0.3845870677467861,6.076969541875589e-05,0.0003448587065329248,-1.276472038205079e-05,0.0003502883846148288,0.0002951502073407577
38.4226497308,0.4226497308,8,0.7486180183943831,11.00317692748707,28.10943591021288,0.5430821093162796,5.061069754692413e-05,0.0003228061647552801,1.72830878600774e-05,0.0003269780042651017,0.0002873019607921115
39.5773502692,0.4226497308,8,0.717487905607437,11.716077012446,28.99164034647141,0.4626107102965585,5.061069754692413e-05,0.0002952099720830472,1.309991945771329e-05,0.0002996600978915261,0.0002666456532767601
38.4226497308,1.5773502692,8,0.7386218628980127,11.0762531917488,29.13608641942855,-0.3369525154423451,4.642752914456007e-05,0.0003228061647552801,-1.031310481215556e-05,0.0003262093124543125,0.0002802267544842008
39.5773502692,1.5773502692,8,0.7072667058547409,11.73177681453739,29.93850282625946,-0.5304427263645028,4.642752914456007e-05,0.0002952099720830471,-1.449627321451966e-05,0.0002990142371999993,0.0002606500298252667
40.4226497308,0.4226497308,8,0.6922054830337456,11.02949923943806,29.35504239703289,0.4682279053387863,3.837093579503346e-05,0.0002765238871629616,1.216988294538389e-05,0.0002793060004922076,0.000252391710533033
41.5773502692,0.4226497308,8,0.6543163034502025,11.71154728769218,30.26593049364106,0.4178923711831383,3.837093579503346e-05,0.0002530687464368036,9.671092396986996e-06,0.0002560525027234792,0.000234105522262689
40.4226497308,1.5773502692,8,0.6819146294813092,11.13331846281717,30.27026808617282,-0.448709425324559,3.587214524663654e-05,0.0002765238871629616,-1.128525778077411e-05,0.0002789551030146237,0.0002471000867387773
41.5773502692,1.5773502692,8,0.6440471477842549,11.76297598028287,31.09091340158429,-0.6133089147310112,3.587214524663654e-05,0.0002530687464368036,-1.378404832917099e-05,0.0002557842865030248,0.0002296576784441817
42.4226497308,0.4226497308,8,0.6242971623254643,11.18228198183675,30.65296884459846,0.447190689000893,2.997296303615883e-05,0.0002372717631546588,9.522221163275554e-06,0.0002392521775274545,0.0002216087075719233
43.57735026920001,0.4226497308,8,0.5805214031075543,11.79645807792041,31.46956171278534,0.4122513697356693,2.997296303615883e-05,0.0002175687429458462,7.862167420024445e-06,0.0002196939763818591,0.000205752963172871
42.4226497308,1.5773502692,8,0.6141588584462069,11.27052907693441,31.42675975488197,-0.491021390707473,2.831290929290775e-05,0.0002372717631546588,-1.018079904553705e-05,0.0002390634534130044,0.0002177102850219241
43.57735026920001,1.5773502692,8,0.5706959865776352,11.83520974219544,32.14728197989592,-0.6354157030712706,2.831290929290775e-05,0.0002175687429458462,-1.184085278878818e-05,0.0002195629332037787,0.0002025118074675102
44.4226497308,0.4226497308,8,0.5466592462688395,11.35307544467689,31.79458725741472,0.4567468440575345,2.403086757008112e-05,0.0002043941959891275,8.060106492493176e-06,0.0002058809185149216,0.0001949987574410158
45.5773502692,0.4226497308,8,0.4985189777549856,11.87787701258919,32.44772800725821,0.429294777028018,2.403086757008112e-05,0.0001881036845439523,6.848431074917488e-06,0.0001896943047096445,0.0001814734653843424
44.4226497308,1.5773502692,8,0.5371710231850095,11.40375750161046,32.4133008118309,-0.476158737877849,2.281919215250542e-05,0.0002043941959891275,-8.230404952681896e-06,0.0002057463794757453,0.0001921823580459826
45.5773502692,1.5773502692,8,0.4896010240098492,11.88295810012105,32.97321701603266,-0.6024035190245206,2.281919215250542e-05,0.0001881036845439524,-9.442080370257564e-06,0.000189600337843483,0.0001791602549653702
46.42264973080001,0.4226497308,8,0.462106723324136,11.46380110574957,32.66499277709919,0.4813187782939098,1.961758916551402e-05,0.000177278542300093,7.158576604911965e-06,0.0001784324913635881,0.0001723565047143714
47.57735026920001,0.4226497308,8,0.4115295325532665,11.89026999203884,33.13061513514534,0.4569032627560938,1.961758916551402e-05,0.0001639942151346268,6.21140108850001e-06,0.0001652217998752896,0.0001609737970090181
46.42264973080001,1.5773502692,8,0.4536891172850533,11.47071646462994,33.13305315690211,-0.4183205245034924,1.867041364910201e-05,0.000177278542300093,-6.125750560554192e-06,0.0001783116045461974,0.0001703657224863572
47.57735026920001,1.5773502692,8,0.4038601013045544,11.85701740020887,33.51534647411332,-0.5270566793753717,1.867041364910201e-05,0.0001639942151346268,-7.072926076966146e-06,0.0001651293435010747,0.0001593607160044698
48.4226497308,0.4226497308,8,0.3740457432496913,11.46475067549845,33.22641542490323,0.5101449799327586,1.614506126076833e-05,0.000155207393785718,6.519901087740397e-06,0.0001561129483545995,0.0001533401870502656
49.57735026920001,0.4226497308,8,0.323048894256756,11.79395068126911,33.51403138411452,0.4863303316047483,1.614506126076833e-05,0.0001444856785879137,5.747302308585992e-06,0.0001454417067489138,0.0001438674845022566
48.4226497308,1.5773502692,8,0.3669743695556534,11.43124244303758,33.56101632976818,-0.332482003254139,1.537246248161392e-05,0.000155207393785718,-4.201814110063837e-06,0.0001559951130946458,0.0001519673351540452
49.57735026920001,1.5773502692,8,0.3168122165326329,11.72666373118763,33.77880671318917,-0.4248072644795663,1.537246248161392e-05,0.0001444856785879137,-4.974412889218268e-06,0.0001453437178262437,0.000142773249512007
50.42264973080001,0.4226497308,8,0.2859373038959336,11.33127260794368,33.4966041145867,0.5362936566979516,1.325204230017824e-05,0.0001374166660934519,6.008364919483687e-06,0.0001381195386969845,0.0001375423603110975
51.57735026920001,0.4226497308,8,0.2363667676624694,11.5711847736656,33.6351142237139,0.5119846697538374,1.325204230017824e-05,0.0001288254799962261,5.363670915018921e-06,0.0001295608173956388,0.0001297345022039422
50.42264973080001,1.5773502692,8,0.2803313783518768,11.26557621345089,33.72091364053614,-0.2323469196186592,1.26073482957135e-05,0.0001374166660934519,-2.582821177742148e-06,0.0001380058724616702,0.0001366242902142667
51.57735026920001,1.5773502692,8,0.231602277562109,11.47825302389151,33.80368995005669,-0.3100019143926872,1.26073482957135e-05,0.0001288254799962261,-3.227515182206901e-06,0.0001294610287091569,0.0001290191066404911
52.4226497308,0.4226497308,8,0.2008842916151298,11.05806439821658,33.5241201028623,0.5560969650174163,1.071998698325853e-05,0.0001231745688112288,5.567123350798545e-06,0.0001237028251656157,0.0001245423849597097
53.5773502692,0.4226497308,8,0.1542737569830472,11.22047040417612,33.54916372102712,0.5311017053232934,1.071998698325853e-05,0.0001163271784413267,5.023864019436817e-06,0.0001168740782632504,0.0001181651149561645
52.4226497308,1.5773502692,8,0.1967315108493933,10.97006903104321,33.66197031737744,-0.1285497692680895,1.017672765189679e-05,0.0001231745688112288,-1.28026701910362e-06,0.0001235975716968304,0.0001239545258385638
53.5773502692,1.5773502692,8,0.1509109707334753,11.11132685269127,33.64412265694153,-0.1935420273448182,1.017672765189679e-05,0.0001163271784413267,-1.823526350465342e-06,0.0001167785975853305,0.0001177230173418482
54.42264973080001,0.4226497308,8,0.1214321741187002,10.65214687948531,33.36723321369703,0.5684924340141452,8.414926230629159e-06,0.000111833629556925,5.176537699353012e-06,0.0001122094913749228,0.0001139442641368976
55.57735026920001,0.4226497308,8,0.0789851277569442,10.75009487497965,33.31253924087152,0.5432528398674998,8.414926230629159e-06,0.0001064044160678254,4.718732400439549e-06,0.0001067887819948112,0.0001087899552505471
54.42264973080001,1.5773502692,8,0.1186274926988297,10.5516530824264,33.44012779659949,-0.02783768679290967,7.957120931715683e-06,0.000111833629556925,-2.526757897466149e-07,0.000112116494754005,0.0001135935262819561
55.57735026920001,1.5773502692,8,0.07688364364418121,10.63375423224763,33.3533313270305,-0.08198208922795081,7.957120931715683e-06,0.0001064044160678254,-7.104810886600778e-07,0.0001067027081378233,0.0001085430553931655
56.4226497308,0.4226497308,8,0.04957556431122034,10.12767427565924,33.07936177932986,0.5738649687993871,6.25517193730108e-06,0.0001028506997534072,4.830389011482037e-06,0.0001030973323841691,0.0001054018494848178
57.57735026920001,0.4226497308,8,0.0122435259900359,10.17320580598888,32.96959000256228,0.5486681494678368,6.25517193730108e-06,9.857097971541716e-05,4.443752393667851e-06,9.881922224795384e-05,0.0001012996812773856
56.4226497308,1.5773502692,8,0.04796043436212108,10.02218723206376,33.10490165763647,0.06553233129169901,5.868535319486891e-06,0.0001028506997534072,5.506689734920123e-07,0.0001030187253110849,0.0001052198802309611
57.57735026920001,1.5773502692,8,0.01123007583159138,10.05621208581113,32.97155931470865,0.02027378248559417,5.868535319486891e-06,9.857097971541716e-05,1.640323556778502e-07,9.874558826681881e-05,0.0001011912677337723
58.4226497308,0.4226497308,8,0,9.621159626350238,32.35811557617303,0.5742487562475972,4.901218343382341e-06,9.584904214267348e-05,4.593990049980778e-06,9.602923093104081e-05,9.86287006434534e-05
59.57735026920001,0.4226497308,8,0,9.358096984175857,31.3058650074755,0.5335144057714777,4.901218343382341e-06,9.269229043658091e-05,4.268115246171822e-06,9.287082992795035e-05,9.543361405264011e-05
58.4226497308,1.5773502692,8,0,9.51253469174725,32.33095934252228,0.1796547929860265,4.575343539573378e-06,9.584904214267348e-05,1.437238343888212e-06,9.59635632685744e-05,9.856555405624831e-05
59.57735026920001,1.5773502692,8,0,9.249472049572869,31.27870877382476,0.1389204425099078,4.575343539573378e-06,9.269229043658091e-05,1.111363540079262e-06,9.280846965306397e-05,9.542058338000788e-05
60.4226497308,0.4226497308,8,0,8.838673273945403,30.55791720682404,0.5464356042539188,3.837420711166057e-06,9.071439644268059e-05,4.371484834031351e-06,9.084812854154668e-05,9.336417874084788e-05
61.5773502692,0.4226497308,8,0,8.651427009157221,29.80893214767131,0.5087467594009484,3.837420711166057e-06,8.846744126522241e-05,4.069974075207587e-06,8.859738317928183e-05,9.090546291662724e-05
60.4226497308,1.5773502692,8,0,8.738169687670817,30.53279131025539,0.2655662070716492,3.535909952342303e-06,9.071439644268059e-05,2.124529656573194e-06,9.079571132097444e-05,9.338056092551975e-05
61.5773502692,1.5773502692,8,0,8.550923422882635,29.78380625110266,0.2278773622186783,3.535909952342303e-06,8.846744126522241e-05,1.823018897749426e-06,8.854745915133547e-05,9.095208660728038e-05
62.42264973080001,0.4226497308,8,0,8.0386003933986,29.20722336508154,0.509020917247988,2.357742566810285e-06,8.703223445354205e-05,4.072167337983904e-06,8.711176761725095e-05,8.930753669701592e-05
63.57735026920001,0.4226497308,8,0,7.899091830766249,28.64918911455214,0.4758522220346573,2.357742566810285e-06,8.535813170195385e-05,3.806817776277258e-06,8.543310557652892e-05,8.740063690232631e-05
62.42264973080001,1.5773502692,8,0,7.950150539496387,29.18511090160599,0.2997580732994616,2.092393005103646e-06,8.703223445354205e-05,2.398064586395693e-06,8.707389562517793e-05,8.937081886592821e-05
63.57735026920001,1.5773502692,8,0,7.810641976864036,28.62707665107659,0.2665893780861309,2.092393005103646e-06,8.535813170195385e-05,2.132715024689047e-06,8.539709007234481e-05,8.747918937424012e-05
64.4226497308,0.4226497308,8,0,7.259551666063984,28.14849626665296,0.4702410642114839,7.117683180823809e-07,8.426754672043829e-05,3.761928513691871e-06,8.431252633797033e-05,8.614966756912783e-05
65.57735026920001,0.4226497308,8,0,7.150765763729775,27.71335265731613,0.4419958007147508,7.117683180823809e-07,8.296211589242777e-05,3.535966405718006e-06,8.300283619671334e-05,8.46388555866633e-05
64.4226497308,1.5773502692,8,0,7.184230963406038,28.12966609098848,0.3070622107101693,4.858062101085396e-07,8.426754672043829e-05,2.456497685681354e-06,8.428684730368617e-05,8.623590052047341e-05
65.57735026920001,1.5773502692,8,0,7.075445061071829,27.69452248165164,0.27881694721344,4.858062101085396e-07,8.296211589242777e-05,2.23053557770752e-06,8.297852930429717e-05,8.473080169504237e-05
66.4226497308,0.4226497308,8,0,6.517973644218924,27.28425101915687,0.4340459893989939,-9.698851538249352e-07,8.209522434592682e-05,3.472367915191951e-06,8.213149732532485e-05,8.363435375061678e-05
67.57735026920001,0.4226497308,8,0,6.429393567403699,26.92993071189597,0.4102632261910846,-9.698851538249352e-07,8.103226342414413e-05,3.282105809528677e-06,8.106509155117487e-05,8.240081568058935e-05
66.4226497308,1.5773502692,8,0,6.454552942331166,27.26839584368493,0.301175874176155,-1.160147259488209e-06,8.209522434592682e-05,2.40940699340924e-06,8.211265273208796e-05,8.37284890669237e-05
67.57735026920001,1.5773502692,8,0,6.365972865515942,26.91407553642403,0.2773931109682458,-1.160147259488209e-06,8.103226342414413e-05,2.219144887745966e-06,8.104723958450474e-05,8.249521886715024e-05
68.42264973080002,0.4226497308,8,0,5.819360720343584,26.55254241548285,0.4015788847285294,-2.620079627286812e-06,8.031264715327025e-05,3.212631077828235e-06,8.034374805209244e-05,8.156738906992851e-05
69.57735026920001,0.4226497308,8,0,5.744105112653455,26.25151998472233,0.3816488821418119,-2.620079627286812e-06,7.940957986098869e-05,3.053191057134495e-06,7.943798040941499e-05,8.052396329515378e-05
68.42264973080002,1.5773502692,8,0,5.766214046779004,26.53925574709171,0.2886954731933373,-2.779519647980552e-06,8.031264715327025e-05,2.309563785546698e-06,8.032869275431654e-05,8.166102343050049e-05
69.57735026920001,1.5773502692,8,0,5.690958439088877,26.2382333163312,0.2687654706066206,-2.779519647980552e-06,7.940957986098872e-05,2.150123764852965e-06,7.942363963753615e-05,8.061522931380784e-05
70.4226497308,0.4226497308,8,0,5.164369535258235,25.91178948800984,0.3729664537256902,-4.203449077581518e-06,7.878623073342488e-05,2.983731629805522e-06,7.88130406312835e-05,7.980670762181028e-05
71.57735026920001,0.4226497308,8,0,5.097706685662489,25.64513808962685,0.3562864836039015,-4.203449077581518e-06,7.798627653827593e-05,2.850291868831212e-06,7.801098072875886e-05,7.889055445491023e-05
70.4226497308,1.5773502692,8,0,5.119889614933461,25.90066950792864,0.2729721793320714,-4.336888838555838e-06,7.878623073342488e-05,2.183777434656571e-06,7.880057109181479e-05,7.989583790565387e-05
71.57735026920001,1.5773502692,8,0,5.053226765337715,25.63401810954566,0.2562922092102848,-4.336888838555838e-06,7.798627653827593e-05,2.050337673682279e-06,7.799904096744443e-05,7.897621814465787e-05
72.4226497308,0.4226497308,8,0,4.551616320464877,25.33269454720302,0.3479041877741137,-5.700983412274807e-06,7.742332949467774e-05,2.78323350219291e-06,7.744662057089833e-05,7.82494100771987e-05
73.57735026920001,0.4226497308,8,0,4.490112509631762,25.08667930387056,0.3339447416599279,-5.700983412274807e-06,7.668528376468036e-05,2.671557933279423e-06,7.670693587606876e-05,7.741392422912917e-05
72.4226497308,1.5773502692,8,0,4.514391130827052,25.32338824979356,0.2556484715244404,-5.81265898118828e-06,7.742332949467774e-05,2.045187772195523e-06,7.743589065352643e-05,7.833242681847688e-05
73.57735026920001,1.5773502692,8,0,4.452887319993936,25.07737300646109,0.2416890254102545,-5.81265898118828e-06,7.668528376468035e-05,1.933512203282036e-06,7.669661118714031e-05,7.749317596679948e-05
74.4226497308,0.4226497308,8,0,3.979064680291679,24.79354207049654,0.3259443958151819,-7.101826679463855e-06,7.615608288135555e-05,2.607555166521455e-06,7.61764943877936e-05,7.681866030322835e-05
75.57735026920001,0.4226497308,8,0,3.92008484939853,24.55762274692394,0.3142605206925337,-7.101826679463855e-06,7.544832491063777e-05,2.51408416554027e-06,7.5467462229352e-05,7.60278548617548e-05
74.4226497308,1.5773502692,8,0,3.947907679964601,24.78575282041476,0.2374746494754588,-7.195297680445087e-06,7.615608288135555e-05,1.89979719580367e-06,7.616690681951443e-05,7.68951997102167e-05
75.57735026920001,1.5773502692,8,0,3.888927849071452,24.54983349684217,0.2257907743528098,-7.195297680445087e-06,7.544832491063777e-05,1.806326194822478e-06,7.545819386553935e-05,7.610074904712061e-05
76.42264973080002,0.4226497308,8,0,3.444703018625591,24.27739000309781,0.3066153004620469,-8.39886234287636e-06,7.493188559501253e-05,2.452922403696375e-06,7.494993273148638e-05,7.545465787144352e-05
77.57735026920001,0.4226497308,8,0,3.386104645404221,24.04299651021233,0.2968398589714127,-8.39886234287636e-06,7.422870511635609e-05,2.374718871771302e-06,7.424576396812802e-05,7.467946001257449e-05
76.42264973080002,1.5773502692,8,0,3.418635174650577,24.27087304210406,0.2187177406299923,-8.477065874801403e-06,7.493188559501253e-05,1.749741925039938e-06,7.494106104918879e-05,7.552500505893106e-05
77.57735026920001,1.5773502692,8,0,3.360036801429207,24.03647954921858,0.2089422991393598,-8.477065874801403e-06,7.422870511635609e-05,1.671538393114879e-06,7.423714997849627e-05,7.47464938940741e-05
78.4226497308,0.4226497308,8,0,2.946879469199094,23.77031584849639,0.2894675019583607,-9.586238377360009e-06,7.370750713982916e-05,2.315740015666886e-06,7.372359963246949e-05,7.410867875390825e-05
79.57735026920001,0.4226497308,8,0,2.886816229692613,23.53006289047046,0.281298588944602,-9.586238377360009e-06,7.298674826575138e-05,2.250388711556816e-06,7.300207806532606e-05,7.332447321402662e-05
78.4226497308,1.5773502692,8,0,2.925095701162394,23.76486990648721,0.1993726426986385,-9.651589681470109e-06,7.370750713982916e-05,1.594981141589108e-06,7.371513597741969e-05,7.417344689008894e-05
79.57735026920001,1.5773502692,8,0,2.865032461655914,23.52461694846129,0.1912037296848798,-9.651589681470109e-06,7.29867482657514e-05,1.529629837479038e-06,7.299382599480799e-05,7.338636452486677e-05
80.4226497308,0.4226497308,8,0,2.484472645506838,23.26027104887347,0.2740867759758481,-1.065790437347689e-05,7.244528923998963e-05,2.192694207806785e-06,7.245975039118116e-05,7.273913224163798e-05
81.57735026920001,0.4226497308,8,0,2.421261420958258,23.00742615067915,0.2672746271066261,-1.065790437347689e-05,7.168675454540667e-05,2.138197016853009e-06,7.170063254352934e-05,7.192415650513407e-05
80.4226497308,1.5773502692,8,0,2.46630691518891,23.25572961629399,0.1792699391529763,-1.071240156443068e-05,7.244528923998963e-05,1.43415951322381e-06,7.245147225376394e-05,7.279909635851784e-05
81.57735026920001,1.5773502692,8,0,2.40309569064033,23.00288471809966,0.1724577902837544,-1.071240156443068e-05,7.168675454540666e-05,1.379662322270035e-06,7.169252928516999e-05,7.19817322555387e-05
82.4226497308,0.4226497308,8,0,2.056988938985472,22.7362920074627,0.2600920531498333,-1.160666900121665e-05,7.111054327269227e-05,2.080736425198666e-06,7.1123626339945e-05,7.130902188318747e-05
83.57735026920001,0.4226497308,8,0,1.989013624116007,22.46439074798485,0.2544271805204731,-1.160666900121665e-05,7.02948394942587e-05,2.035417444163785e-06,7.03074835979958e-05,7.044341857896713e-05
82.4226497308,1.5773502692,8,0,2.041882611973862,22.7325154257098,0.158129080845636,-1.165198798225149e-05,7.111054327269227e-05,1.265032646765088e-06,7.111537702448941e-05,7.136503914429549e-05
83.57735026920001,1.5773502692,8,0,1.973907297104397,22.46061416623195,0.1524642082162767,-1.165198798225149e-05,7.02948394942587e-05,1.219713665730214e-06,7.029937786104203e-05,7.049756633460881e-05
84.42264973080002,0.4226497308,8,0,1.664633469010893,22.18792176733809,0.2471269343969055,-1.242351031303561e-05,6.966964288027317e-05,1.977015475175244e-06,6.96815440665601e-05,6.978454755407803e-05
85.57735026920001,0.4226497308,8,0,1.590269707696931,21.89046672208224,0.2424298333748063,-1.242351031303561e-05,6.877727774450563e-05,1.93943866699845e-06,6.878885671480506e-05,6.885008174258986e-05
84.42264973080002,1.5773502692,8,0,1.652107866285316,22.1847903666567,0.1355812924259639,-1.246108712121235e-05,6.966964288027317e-05,1.084650339407711e-06,6.967322380262324e-05,6.983752629935948e-05
85.57735026920001,1.5773502692,8,0,1.577744104971355,21.88733532140085,0.1308841914038651,-1.246108712121235e-05,6.877727774450564e-05,1.047073531230921e-06,6.878065151209804e-05,6.890173619763876e-05
86.4226497308,0.4226497308,8,0,1.308380614334577,21.60475374139071,0.2348483402426994,-1.309698502724192e-05,6.808850748098261e-05,1.878786721941595e-06,6.809937570067528e-05,6.813496202998404e-05
87.57735026920002,0.4226497308,8,0,1.22593142941791,21.27495700172405,0.230960552233818,-1.309698502724192e-05,6.709911726198261e-05,1.847684417870544e-06,6.710975831772701e-05,6.711568445305598e-05
86.4226497308,1.5773502692,8,0,1.298013179644222,21.60216188271812,0.1111745628677003,-1.312808733131299e-05,6.808850748098261e-05,8.893965029416022e-07,6.809094233566719e-05,6.818585814123701e-05
87.57735026920002,1.5773502692,8,0,1.215563994727556,21.27236514305146,0.107286774858818,-1.312808733131299e-05,6.709911726198261e-05,8.582941988705443e-07,6.710141276716122e-05,6.71658330207613e-05
88.42264973080002,0.4226497308,8,0,0.9900600063909062,20.97604065710004,0.2229135930426531,-1.361264050522913e-05,6.63312820976074e-05,1.783308744341225e-06,6.634122592590363e-05,6.633434269771849e-05
89.57735026920001,0.4226497308,8,0,0.8976954678908822,20.60658250309994,0.2196897100689596,-1.361264050522913e-05,6.522290763560711e-05,1.757517680551677e-06,6.52327017093935e-05,6.521895490089869e-05
88.42264973080002,1.5773502692,8,0,0.9814629851277248,20.97389140178425,0.08436678529261737,-1.363843156901867e-05,6.63312820976074e-05,6.74934282340939e-07,6.633270616227124e-05,6.638416936870437e-05
89.57735026920001,1.5773502692,8,0,0.8890984466277008,20.60443324778415,0.08114290231892393,-1.363843156901867e-05,6.522290763560711e-05,6.491432185513915e-07,6.522424346056498e-05,6.526864967723993e-05
90.42264973080002,0.4226497308,8,0,0.7124696543806275,20.29032936194551,0.2109660922966907,-1.39523605955384e-05,6.435907823472114e-05,1.687728738373525e-06,6.436817044929224e-05,6.436692778591198e-05
91.57735026920001,0.4226497308,8,0,0.608165375181267,19.87311224514807,0.2082662193387384,-1.39523605955384e-05,6.310742688432881e-05,1.666129754709907e-06,6.311643178849837e-05,6.315453421506276e-05
90.42264973080002,1.5773502692,8,0,0.7052699931594271,20.28852944664022,0.05450967349765039,-1.3973959579202e-05,6.435907823472114e-05,4.360773879812031e-07,6.435968513705856e-05,6.441676540465476e-05
91.57735026920001,1.5773502692,8,0,0.6009657139600666,19.87131232984277,0.05180980053969811,-1.3973959579202e-05,6.310742688432881e-05,4.144784043175849e-07,6.310798405874456e-05,6.320489398114877e-05
92.42264973080002,0.4226497308,8,0,0.4795269557298312,19.53509128209084,0.1986191098689595,-1.409358676733721e-05,6.212867053810681e-05,1.588952878951676e-06,6.213695059010123e-05,6.223963009496635e-05
93.57735026920001,0.4226497308,8,0,0.3609968960773049,19.06097104348073,0.196301260287922,-1.409358676733721e-05,6.070630982227649e-05,1.570410082303376e-06,6.071455153194428e-05,6.095245912555184e-05
92.42264973080002,1.5773502692,8,0,0.4733460235137503,19.53354604903682,0.02082402039017066,-1.411212956398545e-05,6.212867053810681e-05,1.665921631213653e-07,6.212876154225304e-05,6.229061503661016e-05
93.57735026920001,1.5773502692,8,0,0.354815963861224,19.05942581042671,0.01850617080913336,-1.411212956398545e-05,6.07063098222765e-05,1.480493664730669e-07,6.070638306155293e-05,6.100462993124004e-05
94.4226497308,0.4226497308,8,0,0.2964695869146583,18.69632221803439,0.1854367881358414,-1.40083550963006e-05,5.95910554281783e-05,1.483494305086731e-06,5.959853012075201e-05,6.000936883548937e-05
95.57735026920002,0.4226497308,8,0,0.1610886742196609,18.1547985672544,0.1833486273624171,-1.40083550963006e-05,5.796648447583833e-05,1.466789018899337e-06,5.797395669356956e-05,5.871996921621882e-05
94.4226497308,1.5773502692,8,0,0.2909011581855099,18.6949301108521,-0.01763458090665403,-1.402506038248804e-05,5.95910554281783e-05,-1.410766472532323e-07,5.95911230173261e-05,6.006261679326179e-05
95.57735026920002,1.5773502692,8,0,0.1555202454905142,18.15340646007212,-0.01972274168007874,-1.402506038248804e-05,5.796648447583835e-05,-1.577819334406299e-07,5.796657092733996e-05,5.877497414416852e-05
96.4226497308,0.4226497308,8,0,0.1701212842262736,17.75808531657619,0.1709109973696116,-1.366208014373687e-05,5.668977598566278e-05,1.367287978956893e-06,5.669641866724707e-05,5.784120599446053e-05
97.57735026920001,0.4226497308,8,0,0.01483282510773343,17.13693148010203,0.1688802407108475,-1.366208014373687e-05,5.48263144762403e-05,1.35104192568678e-06,5.483297668797277e-05,5.67297798439625e-05
96.4226497308,1.5773502692,8,0,0.1647059331362284,17.75673147880368,-0.06202169130819846,-1.367832619700701e-05,5.668977598566278e-05,-4.961735304655877e-07,5.669065061885867e-05,5.789757031631297e-05
97.57735026920001,1.5773502692,8,0,0.009417474017689109,17.13557764232952,-0.06405244796696342,-1.367832619700701e-05,5.482631447624031e-05,-5.124195837357074e-07,5.482727269656841e-05,5.678810112884751e-05
98.42264973080002,0.4226497308,8,0,0.1092423989114328,16.70196806948113,0.154432183916033,-1.301199877906832e-05,5.335890390321046e-05,1.235457471328264e-06,5.336465274383605e-05,5.613062541447554e-05
99.57735026920002,0.4226497308,8,0,-0.0695558287410023,15.98677515887139,0.1522547681399146,-1.301199877906832e-05,5.121332517138123e-05,1.218038145119317e-06,5.121909969866679e-05,5.560513122196566e-05
98.42264973080002,1.5773502692,8,0,0.1034359568417837,16.70051645896372,-0.1137651575626215,-1.302941810527726e-05,5.335890390321046e-05,-9.101212605009721e-07,5.336202298262508e-05,5.619006532320038e-05
99.57735026920002,1.5773502692,8,0,-0.07536227081065139,15.98532354835397,-0.1159425733387405,-1.302941810527726e-05,5.121332517138123e-05,-9.275405867099242e-07,5.121667296859976e-05,5.566567030482303e-05
0.4226497308,2.4226497308,8,0,-0.0851144590354698,-0.2177710841035458,0.1621360705812241,-9.814940163066676e-08,-6.287759019029705e-07,1.297088564649793e-06,3.372518456100541e-07,1.216551904680027e-06
1.5773502692,2.4226497308,8,0,-0.100230962307968,-0.2782370971935385,0.1859520855407629,-9.814940163066676e-08,-8.101739411729486e-07,1.487616684326103e-06,3.704567773967545e-07,1.313456580915634e-06
0.4226497308,3.577350269200001,8,0,-0.0216050858100051,-0.2018937407971796,0.1394613156724769,9.237871804572733e-08,-6.287759019029705e-07,1.115690525379815e-06,3.960358046317415e-07,1.387143701156644e-06
1.5773502692,3.577350269200001,8,0,-0.03672158908250327,-0.2623597538871723,0.1632773306320563,9.237871804572733e-08,-8.101739411729486e-07,1.306218645056451e-06,4.349550906670697e-07,1.501708142650694e-06
2.4226497308,2.4226497308,8,0,-0.3204597679705103,-0.3266134327702254,0.4232897491682273,-7.641805112894527e-07,-7.887951704883128e-07,3.386317993345819e-06,9.167158852989266e-07,1.438379420147097e-06
3.5773502692,2.4226497308,8,0,-0.3004759407214304,-0.2466781237739058,0.4610544438023796,-7.641805112894527e-07,-5.489892434993541e-07,3.688435550419037e-06,1.190768911903149e-06,1.682770287732116e-06
2.4226497308,3.577350269200001,8,0,-0.2197539156129264,-0.3014369696808294,0.4532654900418743,-4.62062954216701e-07,-7.887951704883128e-07,3.626123920334994e-06,1.194978078013034e-06,1.645007077965834e-06
3.5773502692,3.577350269200001,8,0,-0.1997700883638375,-0.2215016606844737,0.4910301846759724,-4.62062954216701e-07,-5.489892434992457e-07,3.928241477407779e-06,1.459075469182941e-06,1.921942608439916e-06
4.422649730800001,2.4226497308,8,0,-0.6444453401170048,-0.2711460319911862,0.6459208772648827,-1.845308262781466e-06,-3.521110302781918e-07,5.167367018119062e-06,1.590682472290896e-06,1.884316444198214e-06
5.577350269200001,2.4226497308,8,0,-0.6196057272454281,-0.1717875805048787,0.7094765518477706,-1.845308262781466e-06,-5.403567581926949e-08,5.675812414782165e-06,2.026210422890123e-06,2.19055991617221e-06
4.422649730800001,3.577350269200001,8,0,-0.4749635412293619,-0.2287755822692754,0.6831802965722886,-1.336862866118538e-06,-3.521110302781918e-07,5.465442372578309e-06,1.93223758378916e-06,2.144122164737747e-06
5.577350269200001,3.577350269200001,8,0,-0.4501239283577669,-0.1294171307828957,0.7467359711551494,-1.336862866118538e-06,-5.403567581905265e-08,5.973887769241196e-06,2.359586763174715e-06,2.474192470498253e-06
6.422649730800001,2.4226497308,8,0,-1.043877853443685,-0.2115263402297838,0.7913183865657417,-3.171188058835963e-06,1.582179940196396e-07,6.330547092525934e-06,2.069852869534274e-06,2.422710337454509e-06
7.577350269200001,2.4226497308,8,0,-1.020393482138873,-0.1175888550105362,0.8994655071543413,-3.171188058835963e-06,4.400304496773822e-07,7.19572405723473e-06,2.659944261560562e-06,2.750713611449237e-06
6.422649730800001,3.577350269200001,8,0,-0.7554855318739404,-0.1394282598373477,0.8265449435229189,-2.306011094126731e-06,1.582179940196396e-07,6.612359548183351e-06,2.454407709549013e-06,2.718404649790795e-06
7.577350269200001,3.577350269200001,8,0,-0.7320011605690924,-0.04549077461795559,0.9346920641115455,-2.306011094126731e-06,4.400304496778159e-07,7.477536512892364e-06,3.04991993479675e-06,3.055534425712997e-06
8.4226497308,2.4226497308,8,0,-1.49731277713518,-0.1759620986376731,0.8629545199891649,-4.650631207922437e-06,6.347715060675899e-07,6.90363615991332e-06,2.339358789061756e-06,3.002463429048044e-06
9.5773502692,2.4226497308,8,0,-1.476460276739918,-0.09255209705662343,1.03436860222748,-4.650631207922437e-06,8.85001510810739e-07,8.27494881781984e-06,3.095086504781902e-06,3.362253447558694e-06
8.4226497308,3.577350269200001,8,0,-1.040208557832907,-0.06168604381210502,0.8942332705820315,-3.27931855001562e-06,6.347715060675899e-07,7.153866164656252e-06,2.755038768890612e-06,3.308490534574951e-06
9.5773502692,3.577350269200001,8,0,-1.019356057437618,0.02172395776905311,1.065647352820347,-3.27931855001562e-06,8.850015108110643e-07,8.525178822562773e-06,3.546791193602857e-06,3.662449700177913e-06
10.4226497308,2.4226497308,8,0,-1.973856027752962,-0.1642274174275323,0.8764876678606255,-6.184957354867453e-06,1.053557086434266e-06,7.011901342885004e-06,2.473219684536382e-06,3.658955545751508e-06
11.5773502692,2.4226497308,8,0,-1.9563333284381,-0.09413662016808255,1.12848989221293,-6.184957354867453e-06,1.263829478212616e-06,9.027919137703441e-06,3.391524347950802e-06,4.109770734250379e-06
10.4226497308,3.577350269200001,8,0,-1.301850096146874,0.003774065473854116,0.9027717168329599,-4.168939560049081e-06,1.053557086433832e-06,7.222173734663679e-06,2.898603880108198e-06,3.951476052312665e-06
11.5773502692,3.577350269200001,8,0,-1.284327396831985,0.07386486273341231,1.154773941185237,-4.168939560049081e-06,1.263829478212507e-06,9.238191529481899e-06,3.906063301492489e-06,4.387151565501713e-06
12.4226497308,2.4226497308,8,0,-2.440094793959683,-0.1731436013247916,0.8453844442682725,-7.669788459611152e-06,1.398016310928413e-06,6.763075554146181e-06,2.520178686331677e-06,4.519718595620357e-06
13.5773502692,2.4226497308,8,0,-2.427067056216034,-0.1210326503501954,1.196841467857504,-7.669788459611152e-06,1.554349163852202e-06,9.574731742860031e-06,3.589840108232606e-06,5.188901792886086e-06
12.4226497308,3.577350269200001,8,0,-1.502876064388378,0.06116108106803464,0.8649260508837597,-4.858132270897238e-06,1.398016310928413e-06,6.919408407070077e-06,2.934103460770806e-06,4.786663110242522e-06
13.5773502692,3.577350269200001,8,0,-1.489848326644729,0.1132720320426308,1.216383074473086,-4.858132270897238e-06,1.554349163852202e-06,9.731064595784687e-06,4.175061688059665e-06,5.442473435542098e-06
14.4226497308,2.4226497308,8,0,-2.858298866118072,-0.2021380506133799,0.776867881616922,-8.984845931087126e-06,1.639797330931642e-06,6.214943052935376e-06,2.481916405550806e-06,5.849475640076195e-06
15.5773502692,2.4226497308,8,0,-2.851872542704692,-0.1764327569598617,1.252625928358672,-8.984845931087126e-06,1.716913211892196e-06,1.002100742686937e-05,3.696590212104862e-06,6.985013755561809e-06
14.4226497308,3.577350269200001,8,0,-1.589610741473361,0.1150339805477978,0.7865073667369642,-5.178781557152994e-06,1.639797330931642e-06,6.292058933895714e-06,2.869554763152011e-06,6.098987661393241e-06
15.5773502692,3.577350269200001,8,0,-1.583184418060063,0.1407392742009906,1.262265413478714,-5.178781557152994e-06,1.71691321189122e-06,1.009812330782971e-05,4.38303959015133e-06,7.23680755708699e-06
16.4226497308,2.4226497308,8,0,-3.175649112959096,-0.2546849577834487,0.6689153794526854,-9.958329195242348e-06,1.725527425460241e-06,5.351323035621483e-06,2.309117844455023e-06,8.165129232343575e-06
17.5773502692,2.4226497308,8,0,-3.180114230610927,-0.2725454283907736,1.305947027881545,-9.958329195242348e-06,1.671946013638266e-06,1.044757622305236e-05,3.673699581057654e-06,1.025372655836119e-05
16.4226497308,3.577350269200001,8,0,-1.476898050482259,0.1700028078357608,0.6622177029749114,-4.862076007811836e-06,1.725527425460241e-06,5.297741623799292e-06,2.658503006795838e-06,8.430194313196602e-06
17.5773502692,3.577350269200001,8,0,-1.481363168134099,0.1521423372283997,1.29924935140369,-4.862076007811836e-06,1.671946013638158e-06,1.039399481122952e-05,4.543513256724456e-06,1.055276766841273e-05
18.4226497308,2.4226497308,8,0,-3.293946438649945,-0.3352209964617142,0.4955192085792079,-1.027245180651045e-05,1.56244996224247e-06,3.964153668633663e-06,1.885580264433747e-06,1.248524388406365e-05
19.5773502692,2.4226497308,8,0,-3.314410385635744,-0.4170767844049115,1.350075592968875,-1.027245180651045e-05,1.316882598412878e-06,1.0800604743751e-05,3.443164435994903e-06,1.649326527009459e-05
18.4226497308,3.577350269200001,8,0,-1.015129413610803,0.2344832597980712,0.4648232881004412,-3.436000731393027e-06,1.56244996224247e-06,3.718586304803529e-06,2.178204288030048e-06,1.282904773925616e-05
19.5773502692,3.577350269200001,8,0,-1.035593360596612,0.1526274718548378,1.319379672490122,-3.436000731393027e-06,1.31688259841277e-06,1.055503737992097e-05,4.728331612295081e-06,1.692538719010516e-05
20.4226497308,2.4226497308,8,0,-2.984720310884549,-0.435032656166121,0.1713823641264135,-9.203078869897658e-06,9.956717489760514e-07,1.371058913011308e-06,1.041544653399355e-06,2.084505282116982e-05
21.5773502692,2.4226497308,8,0,-3.037386727285368,-0.6456983217693983,1.319559688873757,-9.203078869897658e-06,3.636747521662195e-07,1.055647751099006e-05,2.703534430001388e-06,2.872633612892761e-05
20.4226497308,3.577350269200001,8,0,0.07708588844168293,0.3304188936654369,0.09238273952522513,-1.766027191896409e-08,9.956717489760514e-07,7.390619162018011e-07,1.116113046042787e-06,2.132224638498298e-05
21.5773502692,3.577350269200001,8,0,0.02441947204088167,0.1197532280622318,1.240560064272528,-1.766027191896409e-08,3.636747521664364e-07,9.924480514180226e-06,5.138909219546438e-06,2.92383496487773e-05
22.4226497308,2.4226497308,8,0,-1.617345165766037,-0.3452794112518701,-0.7375185225293061,-4.899281001449821e-06,1.889820166068451e-07,-5.900148180234448e-06,1.540430345344869e-06,3.736192411351686e-05
23.5773502692,2.4226497308,8,0,-1.604451201805283,-0.2937035554088534,0.6977610297381396,-4.899281001449821e-06,3.437095841358952e-07,5.582088237905116e-06,1.551334927216863e-06,5.307350593389125e-05
22.4226497308,3.577350269200001,8,0,2.210066973613787,0.611573623593086,-0.7181775765882561,6.58295541668965e-06,1.889820166068451e-07,-5.745420612706048e-06,7.684013442389071e-06,3.766589173784897e-05
23.5773502692,3.577350269200001,8,0,2.222960937574523,0.6631494794360304,0.7171019756791895,6.58295541668965e-06,3.437095841356784e-07,5.736815805433516e-06,7.701234226046293e-06,5.277426164530252e-05
24.4226497308,2.4226497308,8,0,1.954790745898452,0.8575257626004782,-3.039002793736192,5.569309776794662e-06,1.180249843602769e-06,-2.431202234988954e-05,1.572729248817925e-05,7.058474670201736e-05
25.5773502692,2.4226497308,8,0.02534292135912518,2.078312610555727,1.528041445851973,-1.562079554002008,5.569309776794662e-06,3.310992767611954e-06,-1.282157253650913e-05,1.094961972252491e-05,0.0001027147643657689
24.4226497308,3.577350269200001,8,0,5.784940683691959,1.815063247048855,-2.772659928235004,1.705975959017518e-05,1.180249843602769e-06,-2.218127942588003e-05,2.275972600033587e-05,6.871781910505523e-05
25.5773502692,3.577350269200001,8,0,5.962502594026075,2.525310888385322,-1.336353701562453,1.705975959017518e-05,3.310992767612171e-06,-1.069082961249962e-05,1.895112105611443e-05,9.716805823289171e-05
26.4226497308,2.4226497308,8,0.2755013206964942,13.12992377551559,9.107264989480502,-13.25781918329236,4.793651814997506e-05,2.572718139920416e-05,-0.0001463944055333568,0.0001108665994033519,0.0001358407515249242
27.57735026920001,2.4226497308,8,0.5440378142924922,10.5093461674305,14.71583518113417,-9.534020300789635,4.793651814997506e-05,8.483860473135717e-05,-0.0001672773857068148,0.0001520372662897873,0.0001942126138347068
26.4226497308,3.577350269200001,8,0.2020288216357468,8.90677696410731,8.642178383874903,-8.706163019780089,2.705353797651716e-05,2.572718139920416e-05,-8.728298220120377e-05,7.003688934287973e-05,0.0001247051086427133
27.57735026920001,3.577350269200001,8,0.4584536669786833,8.71225103638788,16.53557378750677,-7.32211003521498,2.705353797651716e-05,8.483860473135706e-05,-0.0001081659623746619,0.0001172628499636661,0.0001714874903282932
28.4226497308,2.4226497308,8,0.6678766780826597,4.827207730548762,19.05119216343792,-16.47492332011679,6.205857686109721e-07,0.0001719302589439173,-0.0003968386977465465,0.0003023934203068081,0.0002402878716755792
29.5773502692,2.4226497308,8,0.7741579084175637,6.648038424174729,26.41696071171217,-11.21880601162861,6.205857686109721e-07,0.0003507576598458131,-0.0003974035462750238,0.0004405124361858254,0.0003077959547642479
28.4226497308,3.577350269200001,8,0.5846705101153639,5.958358668413307,23.80449802426289,-11.31831508844707,5.573724013360477e-08,0.0001719302589439173,-0.0002180112968446501,0.0002248002176113922,0.000207153651767217
29.5773502692,3.577350269200001,8,0.7022250030493207,8.709437476421478,34.81700346004738,-8.135813877746775,5.573724013360477e-08,0.0003507576598458131,-0.0002185761453731272,0.0003820267422497097,0.0002578130352478736
30.4226497308,2.4226497308,8,0.8048946266201832,3.100450962976805,27.17839572437259,-4.402724141816159,-6.058917441991463e-05,0.0004330506335319166,-0.0001805270276486033,0.0004490378202643571,0.0003388824438016235
31.5773502692,2.4226497308,8,0.8187606822246615,3.57487184179179,28.02591316271256,-3.423170286716316,-6.058917441991463e-05,0.0004790518178559425,-0.0001511005593591839,0.0004894293675637737,0.0003563042281956089
30.4226497308,3.577350269200001,8,0.7447137175273483,6.560853396451849,36.18767783560973,-4.292825304853727,-3.116270613049534e-05,0.0004330506335319166,-0.0001345258433245776,0.0004426003453890072,0.0002844831107320532
31.5773502692,3.577350269200001,8,0.7728956072451125,6.70716853190318,35.67515844306917,-2.983566218284726,-3.116270613049534e-05,0.0004790518178559425,-0.0001050993750351583,0.0004844079597794198,0.0003066877285189702
32.4226497308,2.4226497308,8,0.8203874024668104,10.06101575604982,29.20574411551333,1.942628939874409,4.916500985025281e-05,0.0004755210365966698,8.652528682529372e-05,0.0004819551504752766,0.0003585327832236444
33.57735026920001,2.4226497308,8,0.8117778213146343,9.67044173255124,27.11433534382739,1.032215556418231,4.916500985025281e-05,0.0004198735784814885,4.387221797676433e-05,0.0004238789990734697,0.0003471995243939737
32.4226497308,3.577350269200001,8,0.7803958583737813,9.178882160253133,34.92796712350747,0.8476123836457047,6.511941001723427e-06,0.0004755210365966698,3.087782871011237e-05,0.0004760665728388277,0.0003134420409235564
33.57735026920001,3.577350269200001,8,0.7762867384671115,8.313209826266684,31.43182985456012,-0.3292846720872801,6.511941001723427e-06,0.0004198735784814885,-1.177524013841697e-05,0.000420006613546286,0.000309690547796946
34.42264973080001,2.4226497308,8,0.8026227805812983,10.42935243344081,26.49849277369422,1.415812069351644,6.168459361172659e-05,0.0003873379874041583,5.73850244124979e-05,0.000394312345848769,0.0003362657294760645
35.5773502692,2.4226497308,8,0.7849225487654821,10.76883715045737,26.49164213377051,0.789272982679875,6.168459361172659e-05,0.0003540965576380097,2.935772125434985e-05,0.0003600281921166123,0.0003177273050691988
34.42264973080001,3.577350269200001,8,0.7690478787441047,10.04578502815823,30.46661183015817,0.6970017997896034,3.365729045357866e-05,0.0003873379874041581,2.414359464634921e-05,0.0003891721807480642,0.0003033768947547497
35.5773502692,3.577350269200001,8,0.7520997839738197,10.09626761914847,29.95550850872131,-0.1203465223822049,3.365729045357866e-05,0.0003540965576380096,-3.883708511798808e-06,0.0003557031443882204,0.0002898791669879849
36.4226497308,2.4226497308,8,0.7696218293497613,10.3708979442754,26.50324303730723,0.8954084796304299,5.202002845152413e-05,0.0003321220024796804,3.10935181785029e-05,0.0003368894645541304,0.0003038644764578528
37.5773502692,2.4226497308,8,0.7447780237749114,10.91941585856036,27.08184535338727,0.4842252464018627,5.202002845152413e-05,0.0003053278310769961,1.51781677601245e-05,0.0003099134656296129,0.0002845289487602915
36.4226497308,3.577350269200001,8,0.7371098952385647,10.43981986562559,29.89482622436292,0.1412819655375898,3.61046780331457e-05,0.0003321220024796804,4.299346775818707e-06,0.0003340925238587947,0.0002791958857663242
37.5773502692,3.577350269200001,8,0.7122081127498773,10.78611720454196,30.15617703102154,-0.4178739513245721,3.61046780331457e-05,0.000305327831076996,-1.161600364255977e-05,0.0003075647866326243,0.0002635063464427246
38.4226497308,2.4226497308,8,0.724246970872266,10.40921216364056,27.3671010136074,0.5613242817532329,4.139863177160547e-05,0.0002873852510824908,1.628484107039758e-05,0.0002905799843014851,0.0002708045411043001
39.5773502692,2.4226497308,8,0.6926838356275304,11.0314699355827,28.22279383443322,0.2584838695252803,4.139863177160547e-05,0.0002651593823192337,6.728806343215865e-06,0.0002684138281867773,0.0002526442897803118
38.4226497308,3.577350269200001,8,0.6917234149039724,10.65495434337084,30.34940852667857,-0.2289349661394567,3.18425970444238e-05,0.0002873852510824908,-5.941027692859483e-06,0.0002891744826766419,0.0002521377817374728
39.5773502692,3.577350269200001,8,0.6602549983991738,11.11333562548759,30.93038852216006,-0.6581311870881251,3.18425970444238e-05,0.0002651593823192336,-1.54970624200412e-05,0.0002672892225479291,0.0002367678246758696
40.4226497308,2.4226497308,8,0.6673042216335123,10.56045825592972,28.64185094998348,0.3890315225642305,3.270250591218277e-05,0.0002500950172669357,9.354648850053878e-06,0.0002523107732187413,0.0002400193035187899
41.5773502692,2.4226497308,8,0.6295471641552147,11.1745337963801,29.5547151175217,0.1478951306105801,3.270250591218277e-05,0.0002311642753217995,3.193823694685845e-06,0.0002334769289092296,0.0002236874509299749
40.4226497308,3.577350269200001,8,0.6351804347771555,10.8309377666385,31.22009552407315,-0.4366932649351751,2.654168075681471e-05,0.0002500950172669357,-9.57609309508228e-06,0.0002515905985100167,0.0002259658677978365
41.5773502692,3.577350269200001,8,0.5980969883631101,11.29786201291378,31.8574712640692,-0.7905893548424369,2.654168075681471e-05,0.0002311642753217995,-1.573691825045026e-05,0.0002329489392559238,0.0002118243298462303
42.4226497308,2.4226497308,8,0.5998896888507842,10.76433270241705,29.99014755311648,0.3443867344942366,2.61271612201536e-05,0.0002183323038017395,6.885835728753358e-06,0.0002199439264986434,0.0002124646045911224
43.57735026920001,2.4226497308,8,0.5569137349470173,11.32506680604147,30.82953437232216,0.1425804348249841,2.61271612201536e-05,0.0002022054475913045,2.574314684440689e-06,0.0002038945441571965,0.0001981350707753502
42.4226497308,3.577350269200001,8,0.5692129686296904,10.97052537351379,32.13473290806342,-0.4976139725169846,2.181564017584095e-05,0.0002183323038017395,-9.241020481681674e-06,0.0002195167767379711,0.0002020315616832921
43.57735026920001,3.577350269200001,8,0.5275948249551257,11.39551542736116,32.69978506446446,-0.8002863439862865,2.181564017584095e-05,0.0002022054475913045,-1.355254152599436e-05,0.0002036045207818049,0.0001894187594658704
44.4226497308,2.4226497308,8,0.5238859171725508,10.95300078117558,31.20319426357864,0.394739231220354,2.118619770496192e-05,0.0001913151160696138,6.632683139740916e-06,0.0001925417483371844,0.0001883688295126452
45.5773502692,2.4226497308,8,0.4771364818838194,11.43475604383145,31.8921618409241,0.2211016461380686,2.118619770496192e-05,0.0001776890332502561,3.382934757960139e-06,0.0001789635986294215,0.0001760164959985973
44.4226497308,3.577350269200001,8,0.4958157630371616,11.05259715652816,32.90629485632427,-0.4407452351554643,1.793644932318111e-05,0.0001913151160696138,-6.99339967961672e-06,0.0001922176986403497,0.0001807664751980441
45.5773502692,3.577350269200001,8,0.4510106348681746,11.41142243846295,33.33703984553635,-0.7029224188972422,1.793644932318111e-05,0.0001776890332502561,-1.024314806139756e-05,0.0001787388312394303,0.0001697407971932304
46.42264973080001,2.4226497308,8,0.4419331781723178,11.06996460679756,32.15921550133515,0.5072988456433868,1.737518512375949e-05,0.0001685345092023333,7.272230862705235e-06,0.0001695058126466952,0.000167652665147251
47.57735026920001,2.4226497308,8,0.3931564007990215,11.46179426838988,32.66715222695264,0.3550623875911526,1.737518512375949e-05,0.0001571499672025918,4.680776240318364e-06,0.0001581422273871421,0.0001571545878285373
46.42264973080001,3.577350269200001,8,0.4174180348057135,11.05300872064329,33.44611642208268,-0.2994697879631153,1.478373050137261e-05,0.0001685345092023333,-4.112311137036237e-06,0.0001692066636721275,0.0001622312368806643
47.57735026920001,3.577350269200001,8,0.3709692128394352,11.33748784245796,33.72567432677177,-0.5271093815737438,1.478373050137261e-05,0.0001571499672025918,-6.703765759423096e-06,0.0001579149806604538,0.0001527404145681723
48.4226497308,2.4226497308,8,0.3571065305712862,11.07715602423286,32.81229560534751,0.651727679016424,1.430573373445499e-05,0.0001495389604799614,8.109930618465427e-06,0.0001503311019264701,0.0001500848333977037
49.57735026920001,2.4226497308,8,0.3081094526249137,11.37887693540765,33.14300531146274,0.5161652466794214,1.430573373445499e-05,0.0001401298454158442,5.968172262363331e-06,0.0001409213863614254,0.0001412679824135236
48.4226497308,3.577350269200001,8,0.3367292180723024,10.95473842403305,33.73394187044547,-0.1077138853919716,1.21639753783529e-05,0.0001495389604799614,-1.299184445651802e-06,0.0001500356855502868,0.0001463145948500425
49.57735026920001,3.577350269200001,8,0.2902178808411265,11.16639562686983,33.87336723067473,-0.3052899592166679,1.21639753783529e-05,0.0001401298454158442,-3.440942801753884e-06,0.0001406778444423856,0.0001382497512115796
50.42264973080001,2.4226497308,8,0.2725068047463847,10.95544177687329,33.17220019729611,0.8037197201652825,1.171097349603049e-05,0.0001338661142746475,8.838237667749934e-06,0.0001345226400044005,0.0001353583998886649
51.57735026920001,2.4226497308,8,0.2249502959737779,11.17403959156955,33.35042518883151,0.6814615005769,1.171097349603049e-05,0.0001261623976153366,7.033990176752269e-06,0.0001268023500617332,0.0001280299711627234
50.42264973080001,3.577350269200001,8,0.2564654194839402,10.74983821502279,33.79186115454162,0.105444450262038,9.906726005032835e-06,0.0001338661142746475,1.13452100843894e-06,0.0001342345832492174,0.0001328179932989944
51.57735026920001,3.577350269200001,8,0.2113578082580971,10.89570318409624,33.81673509939046,-0.06602182013408583,9.906726005032835e-06,0.0001261623976153366,-6.697264825586977e-07,0.0001265516418659584,0.0001260429983452295
52.4226497308,2.4226497308,8,0.1909315224139954,10.70124698819595,33.28143493067534,0.9468393503080865,9.416807883084147e-06,0.0001210522927303064,9.362266621813226e-06,0.0001215983546933085,0.0001231401481126289
53.5773502692,2.4226497308,8,0.1462136226584876,10.8475106546517,33.34011475783252,0.8355779458170559,9.416807883084147e-06,0.0001147949432111152,7.829386535014502e-06,0.0001153135070332501,0.0001171093318251228
52.4226497308,3.577350269200001,8,0.1791045495778432,10.43823318359912,33.66308216011216,0.3186015404350664,7.883927796285389e-06,0.0001210522927303064,3.104917102622227e-06,0.000121328620481187,0.0001215030859098735
53.5773502692,3.577350269200001,8,0.1366594145718524,10.52776606937902,33.60292072861825,0.1696504196944741,7.883927796285389e-06,0.0001147949432111152,1.572037015823516e-06,0.0001150707215347578,0.0001158748094278048
54.42264973080001,2.4226497308,8,0.1147092830901375,10.3215963199216,33.19429376875491,1.072453436316814,7.312482877197423e-06,0.0001106579580389442,9.691310805203059e-06,0.0001111108313160314,0.0001131060155829545
55.57735026920001,2.4226497308,8,0.07394934437283192,10.40748090219433,33.16526165541345,0.9709562625952655,7.312482877197423e-06,0.0001056128538771246,8.387932186605365e-06,0.0001060317217302621,0.0001081995684976263
54.42264973080001,3.577350269200001,8,0.1067528713815099,10.02628031461047,33.39560235273772,0.5187763428962988,6.009104258599708e-06,0.0001106579580389442,4.646206643383417e-06,0.0001108696830942796,0.0001121248494389338
55.57735026920001,3.577350269200001,8,0.06800377063321709,10.06938596914103,33.27696573795563,0.3894378893152397,6.009104258599708e-06,0.0001056128538771246,3.342828024785737e-06,0.000105810072713628,0.000107508044704621
56.4226497308,2.4226497308,8,0.04570602870254804,9.828194839302315,32.96300159476274,1.177705218671766,5.323120927873749e-06,0.0001022945257624091,9.872892455313877e-06,0.0001026705538121133,0.0001049665829365086
57.57735026920001,2.4226497308,8,0.009816925898712036,9.86604161594666,32.87558615856798,1.085417550866989,5.323120927873749e-06,9.827378891825639e-05,8.769429243998246e-06,9.861300446389171e-05,0.000101040349208351
56.4226497308,3.577350269200001,8,0.0411444997721784,9.522486392740394,33.03239305771091,0.701421449493872,4.219657716558132e-06,0.0001022945257624091,5.852155611161148e-06,0.0001024651129646072,0.0001044565311124719
57.57735026920001,3.577350269200001,8,0.006962900827834339,9.529218742120367,32.87902914554355,0.5894534657004352,4.219657716558132e-06,9.827378891825639e-05,4.748692399845496e-06,9.842163450862363e-05,0.0001007364456726921
58.4226497308,2.4226497308,8,0,9.346710195486045,32.24689657695723,1.293594723621252,4.11195536398956e-06,9.571270088987429e-05,1.034875778897002e-05,9.608005871374856e-05,9.847785037704664e-05
59.57735026920001,2.4226497308,8,0,9.098686381124308,31.25480131951028,1.176079069175439,4.11195536398956e-06,9.273641511753345e-05,9.408632553403512e-06,9.306563301793746e-05,9.540320710344736e-05
58.4226497308,3.577350269200001,8,0,9.033335116963878,32.16855280732669,0.9215590020786453,3.171830128423061e-06,9.571270088987429e-05,7.372472016629162e-06,9.590702940773479e-05,9.830138605665184e-05
59.57735026920001,3.577350269200001,8,0,8.785311302602141,31.17645754987974,0.8040433476328336,3.171830128423061e-06,9.273641511753345e-05,6.432346781062669e-06,9.29020491580836e-05,9.536876490566786e-05
60.4226497308,2.4226497308,8,0,8.606158798812872,30.54336618167018,1.327003066275766,3.105015210865043e-06,9.085384474229428e-05,1.061602453020613e-05,9.121629356825231e-05,9.340433649272729e-05
61.5773502692,2.4226497308,8,0,8.425576120324934,29.82103546771843,1.21753862031871,3.105015210865043e-06,8.868685260043902e-05,9.740308962549682e-06,8.900806566247051e-05,9.101796369985103e-05
60.4226497308,3.577350269200001,8,0,8.314253609594038,30.47038988436547,1.056129048543866,2.229299643208543e-06,9.085384474229428e-05,8.449032388350926e-06,9.107735149588961e-05,9.345291036564794e-05
61.5773502692,3.577350269200001,8,0,8.133670931106101,29.74805917041372,0.9466646025868082,2.229299643208543e-06,8.868685260043902e-05,7.573316820694466e-06,8.887634761231198e-05,9.115131957316346e-05
62.42264973080001,2.4226497308,8,0,7.845625857070815,29.2392614684295,1.289992666079287,1.714593567883007e-06,8.728913601331774e-05,1.03199413286343e-05,8.761040858007534e-05,8.945989458297755e-05
63.57735026920001,2.4226497308,8,0,7.707989141328792,28.68871460546141,1.194140454092423,1.714593567883007e-06,8.563749542441346e-05,9.553123632739383e-06,8.592061184163357e-05,8.758954338667052e-05
62.42264973080001,3.577350269200001,8,0,7.590019958439181,29.17535999377159,1.083537592466257,9.477758719881062e-07,8.728913601331774e-05,8.668300739730054e-06,8.750920673798963e-05,8.9639971798775e-05
63.57735026920001,3.577350269200001,8,0,7.452383242697158,28.6248131308035,0.9876853804793934,9.477758719881062e-07,8.563749542441346e-05,7.901483043835147e-06,8.582479606043912e-05,8.781248368354849e-05
64.4226497308,2.4226497308,8,0,7.10068469970587,28.19854104816953,1.224705029748459,1.633582005231623e-07,8.455478359437778e-05,9.797640237987674e-06,8.483820234525542e-05,8.635701106359097e-05
65.57735026920001,2.4226497308,8,0,6.991819437969636,27.76308000122459,1.142832250117163,1.633582005231623e-07,8.324840045354298e-05,9.142658000937301e-06,8.349915761884751e-05,8.486002133113061e-05
64.4226497308,3.577350269200001,8,0,6.882357287355755,28.143959195082,1.06140713714411,-4.91624036527184e-07,8.455478359437778e-05,8.491257097152877e-06,8.476620537109587e-05,8.660165826938891e-05
65.57735026920001,3.577350269200001,8,0,6.773492025619521,27.70849814813706,0.9795343575128095,-4.91624036527184e-07,8.324840045354298e-05,7.836274860102476e-06,8.343132777663032e-05,8.512110983389521e-05
66.4226497308,2.4226497308,8,0,6.387370697975811,27.33973388211661,1.150708181932645,-1.432200872170693e-06,8.23772518643925e-05,9.205665455461159e-06,8.262928250041596e-05,8.38609165503337e-05
67.57735026920001,2.4226497308,8,0,6.297900775828527,26.98185419352748,1.081582908607712,-1.432200872170693e-06,8.130361279862509e-05,8.652663268861693e-06,8.152922542663924e-05,8.262830125945587e-05
66.4226497308,3.577350269200001,8,0,6.20303663577598,27.29365036656666,1.01650329871172,-1.985203058770186e-06,8.23772518643925e-05,8.132026389693757e-06,8.257276818364374e-05,8.412857984703675e-05
67.57735026920001,3.577350269200001,8,0,6.113566713628696,26.93577067797752,0.9473780253867873,-1.985203058770186e-06,8.130361279862509e-05,7.579024203094298e-06,8.147567427732179e-05,8.289748593028221e-05
68.42264973080002,2.4226497308,8,0,5.711925014576111,26.60768684176401,1.076810882243296,-3.007989426767656e-06,8.057505788198395e-05,8.614487057946372e-06,8.079643458181047e-05,8.179323185889516e-05
69.57735026920001,2.4226497308,8,0,5.635524182685698,26.30208351420236,1.018717004371656,-3.007989426767656e-06,7.965824789929899e-05,8.149736034973251e-06,7.985862472812536e-05,8.074439511949809e-05
68.42264973080002,3.577350269200001,8,0,5.557008006918415,26.56895758984959,0.962209634407681,-3.472740449740743e-06,8.057505788198395e-05,7.697677075261449e-06,8.075094140740235e-05,8.206079764190161e-05
69.57735026920001,3.577350269200001,8,0,5.480607175028,26.26335426228793,0.90411575653604,-3.472740449740743e-06,7.965824789929896e-05,7.232926052288321e-06,7.981527894547388e-05,8.100601664460536e-05
70.4226497308,2.4226497308,8,0,5.075908340845364,25.96423127512895,1.006649040682699,-4.528478329397997e-06,7.902481340773634e-05,8.053192325461593e-06,7.921841434193873e-05,8.002218627683937e-05
71.57735026920001,2.4226497308,8,0,5.008094571545001,25.6929761979275,0.9578999829045667,-4.528478329397997e-06,7.821104817613199e-05,7.663199863236534e-06,7.838810754105704e-05,7.909791176433351e-05
70.4226497308,3.577350269200001,8,0,4.945910853437022,25.93173190327687,0.9049283867321523,-4.918470791623022e-06,7.902481340773634e-05,7.239427093857218e-06,7.918060971469874e-05,8.027824616254283e-05
71.57735026920001,3.577350269200001,8,0,4.878097084136657,25.66047682607541,0.8561793289540267,-4.918470791623022e-06,7.821104817613196e-05,6.849434631632213e-06,7.835189886218046e-05,7.934472122651082e-05
72.4226497308,2.4226497308,8,0,4.478776237471383,25.38170831062671,0.9413810790599484,-5.973282688592944e-06,7.763844560402836e-05,7.531048632479587e-06,7.780768658439936e-05,7.845053531623574e-05
73.57735026920001,2.4226497308,8,0,4.4162250634719,25.13150361462878,0.900486508980615,-5.973282688592944e-06,7.688783151603459e-05,7.20389207184492e-06,7.704411219989758e-05,7.76061444808398e-05
72.4226497308,3.577350269200001,8,0,4.369724050593168,25.35444526390716,0.8475543180607253,-6.300439249227584e-06,7.763844560402836e-05,6.780434544485802e-06,7.777515083727369e-05,7.869019699165408e-05
73.57735026920001,3.577350269200001,8,0,4.307172876593686,25.10424056790923,0.8066597479813902,-6.300439249227584e-06,7.688783151603456e-05,6.453277983851122e-06,7.701279604474932e-05,7.78355284631963e-05
74.4226497308,2.4226497308,8,0,3.919191208800476,24.83919591224673,0.8809875078281799,-7.329944861635856e-06,7.635007395214913e-05,7.047900062625439e-06,7.649821300398295e-05,7.700444789477942e-05
75.57735026920001,2.4226497308,8,0,3.859310633903969,24.5996736126607,0.8466885154352393,-7.329944861635856e-06,7.563150705339105e-05,6.773508123481914e-06,7.576953563078709e-05,7.620497308624779e-05
74.4226497308,3.577350269200001,8,0,3.827727229085959,24.8163299173181,0.7911666454834196,-7.604336800779408e-06,7.635007395214913e-05,6.329333163867357e-06,7.646919722549314e-05,7.722638007866381e-05
75.57735026920001,3.577350269200001,8,0,3.767846654189453,24.57680761773208,0.756867653090479,-7.604336800779408e-06,7.563150705339106e-05,6.054941224723832e-06,7.574147752261164e-05,7.641682427115957e-05
76.42264973080002,2.4226497308,8,0,3.395698013459618,24.3201302498757,0.8249000954071514,-8.589870556829778e-06,7.510785838883452e-05,6.599200763257211e-06,7.523773639769084e-05,7.562570831199568e-05
77.57735026920001,2.4226497308,8,0,3.336359025277386,24.08277429714677,0.7961520215669975,-8.589870556829778e-06,7.439579053064773e-05,6.36921617253598e-06,7.451782169753519e-05,7.484260232616837e-05
76.42264973080002,3.577350269200001,8,0,3.319036483219226,24.3009648673156,0.7358916131338024,-8.819855147550954e-06,7.510785838883452e-05,5.887132905070419e-06,7.521097035291302e-05,7.583048752837983e-05
77.57735026920001,3.577350269200001,8,0,3.259697495036994,24.06360891458667,0.7071435392936511,-8.819855147550954e-06,7.439579053064773e-05,5.657148314349209e-06,7.449182546481097e-05,7.503814156419726e-05
78.4226497308,2.4226497308,8,0,2.90707803151254,23.8107686140159,0.7723013105054467,-9.745965190372592e-06,7.386879713964084e-05,6.178410484043573e-06,7.398277459889025e-05,7.426640764084053e-05
79.57735026920001,2.4226497308,8,0,2.846435959732687,23.56820032689649,0.7482403878538786,-9.745965190372592e-06,7.31410922782826e-05,5.985923102831029e-06,7.324902432214292e-05,7.34753204712341e-05
78.4226497308,3.577350269200001,8,0,2.842915571108346,23.79472799891485,0.6813382028356649,-9.938452571585173e-06,7.386879713964084e-05,5.45070562268532e-06,7.39573301707838e-05,7.44556129988337e-05
79.57735026920001,3.577350269200001,8,0,2.782273499328493,23.55215971179544,0.6572772801840995,-9.938452571585173e-06,7.31410922782826e-05,5.258218241472795e-06,7.322420908372336e-05,7.365646132551518e-05
80.4226497308,2.4226497308,8,0,2.452543472740299,23.29915230158191,0.7222602029052293,-1.079118272849657e-05,7.259525258686987e-05,5.778081623241834e-06,7.269522762204225e-05,7.288536745693244e-05
81.57735026920001,2.4226497308,8,0,2.388913730370933,23.04463333210445,0.7021680839098939,-1.079118272849657e-05,7.183169567843747e-05,5.617344671279152e-06,7.192706327470736e-05,7.206467301731983e-05
80.4226497308,3.577350269200001,8,0,2.398964488752743,23.28575755558502,0.6268155893511809,-1.095191968045924e-05,7.259525258686987e-05,5.014524714809447e-06,7.267042823889678e-05,7.306110036415608e-05
81.57735026920001,3.577350269200001,8,0,2.335334746383375,23.03123858610755,0.6067234703558456,-1.095191968045924e-05,7.183169567843746e-05,4.853787762846765e-06,7.190278173404009e-05,7.223369564212935e-05
82.4226497308,2.4226497308,8,0,2.031855503386296,22.77437365302163,0.6737854668288131,-1.171756131158116e-05,7.125251128696017e-05,5.390283734630505e-06,7.133996621009234e-05,7.144580784777132e-05
83.57735026920001,2.4226497308,8,0,1.963621813711148,22.50143889432104,0.6570566310384653,-1.171756131158116e-05,7.04337070108584e-05,5.256453048307723e-06,7.051770472856376e-05,7.05757312010708e-05
82.4226497308,3.577350269200001,8,0,1.98724527461205,22.76322109582807,0.5714349323160892,-1.18513919979039e-05,7.125251128696017e-05,4.571479458528714e-06,7.131533215868407e-05,7.161045478823012e-05
83.57735026920001,3.577350269200001,8,0,1.919011584936901,22.49028633712748,0.5547060965257432,-1.18513919979039e-05,7.04337070108584e-05,4.437648772205946e-06,7.049349435011778e-05,7.073513383197918e-05
84.42264973080002,2.4226497308,8,0,1.645411707646103,22.2260278092715,0.6258352000387096,-1.251550478294967e-05,6.980695962355193e-05,5.006681600309677e-06,6.988301335974736e-05,6.991406732428129e-05
85.57735026920001,2.4226497308,8,0,1.570953255179158,21.92819399940372,0.6119483239730821,-1.251550478294967e-05,6.891345819394858e-05,4.895586591784657e-06,6.898697365181544e-05,6.897644464198301e-05
84.42264973080002,3.577350269200001,8,0,1.608380038137768,22.21676989189442,0.514147521338292,-1.262659979147468e-05,6.980695962355193e-05,4.113180170706336e-06,6.985823647600827e-05,7.007020254795851e-05
85.57735026920001,3.577350269200001,8,0,1.533921585670823,21.91893608202664,0.5002606452726653,-1.262659979147468e-05,6.891345819394858e-05,4.002085162181323e-06,6.896253545649302e-05,6.912889745264568e-05
86.4226497308,2.4226497308,8,0,1.294328834274779,21.64377403058061,0.5773024140211005,-1.317316695478519e-05,6.822461383043811e-05,4.618419312168804e-06,6.829007218063812e-05,6.825952597577889e-05
87.57735026920002,2.4226497308,8,0,1.211957470100217,21.31428857388236,0.5657952243153294,-1.317316695478519e-05,6.723615746034338e-05,4.526361794522635e-06,6.72998060069947e-05,6.723849043702971e-05
86.4226497308,3.577350269200001,8,0,1.263642995059392,21.63610257077676,0.4537453677592561,-1.326522447243135e-05,6.822461383043811e-05,3.629962942074049e-06,6.826501795094964e-05,6.840989413138649e-05
87.57735026920002,3.577350269200001,8,0,1.181271630884832,21.30661711407852,0.442238178053491,-1.326522447243135e-05,6.723615746034339e-05,3.537905424427928e-06,6.72750100129594e-05,6.738684562212488e-05
88.42264973080002,2.4226497308,8,0,0.9805372169649154,21.0169566836661,0.5269849486192389,-1.367584625264515e-05,6.646983161415958e-05,4.215879588953911e-06,6.652523498414684e-05,6.645641012513692e-05
89.57735026920001,2.4226497308,8,0,0.8884384855547802,20.64856175802556,0.5174314795153212,-1.367584625264515e-05,6.536464683723795e-05,4.139451836122569e-06,6.54188068241556e-05,6.534076251610482e-05
88.42264973080002,3.577350269200001,8,0,0.9550612993544698,21.01058770426349,0.3888368515040383,-1.375227400547648e-05,6.646983161415958e-05,3.110694812032307e-06,6.649997538672324e-05,6.66039488711104e-05
89.57735026920001,3.577350269200001,8,0,0.8629625679443347,20.64219277862295,0.3792833824001206,-1.375227400547648e-05,6.536464683723795e-05,3.034267059200964e-06,6.539372845949242e-05,6.54880836794289e-05
90.42264973080002,2.4226497308,8,0,0.7068990420962402,20.33425037235815,0.4735428760734207,-1.400532336317855e-05,6.450408195786908e-05,3.788343008587366e-06,6.454975546162407e-05,6.448912897880082e-05
91.57735026920001,2.4226497308,8,0,0.6030721923609486,19.91894297341699,0.4655318176132363,-1.400532336317855e-05,6.325815976104559e-05,3.724254540905891e-06,6.330301285375262e-05,6.327807049438987e-05
90.42264973080002,3.577350269200001,8,0,0.6855362195357486,20.32890966671803,0.3178026014704872,-1.406941183086003e-05,6.450408195786908e-05,2.542420811763897e-06,6.452464300284178e-05,6.463699232125072e-05
91.57735026920001,3.577350269200001,8,0,0.581709369800457,19.91360226777686,0.3097915430103003,-1.406941183086003e-05,6.325815976104559e-05,2.478332344082402e-06,6.327801217141011e-05,6.342763268040779e-05
92.42264973080002,2.4226497308,8,0,0.4773615375325395,19.58330137803298,0.4154431905782313,-1.413908418232225e-05,6.228467517967949e-05,3.323545524625851e-06,6.232079201442899e-05,6.236473662974177e-05
93.57735026920001,2.4226497308,8,0,0.3595542758686445,19.1120723313774,0.4085558668095305,-1.413908418232225e-05,6.087098803971275e-05,3.268446934476244e-06,6.090657552540177e-05,6.108052059155481e-05
92.42264973080002,3.577350269200001,8,0,0.4589953408160268,19.57870982885385,0.2387322980823909,-1.419418277247179e-05,6.228467517967949e-05,1.909858384659127e-06,6.229659674418864e-05,6.251625564648011e-05
93.57735026920001,3.577350269200001,8,0,0.3411880791521327,19.10748078219827,0.2318449743136918,-1.419418277247179e-05,6.087098803971275e-05,1.854759794509534e-06,6.088244344890092e-05,6.123568692567534e-05
94.4226497308,2.4226497308,8,0,0.2971571419660366,18.75034089138714,0.3508892552117311,-1.404936985881839e-05,5.976336513886601e-05,2.807114041693849e-06,5.979004428216213e-05,6.014010304580914e-05
95.57735026920002,2.4226497308,8,0,0.1627909002241967,18.21287592441978,0.3446755754298289,-1.404936985881839e-05,5.815097023796392e-05,2.757404603438631e-06,5.817728766842302e-05,5.885505056858044e-05
94.4226497308,3.577350269200001,8,0,0.2805873292142795,18.7461984381992,0.1493398925989716,-1.409907929707366e-05,5.976336513886601e-05,1.194719140791773e-06,5.976819594459393e-05,6.029855146689316e-05
95.57735026920002,3.577350269200001,8,0,0.1462210874724414,18.20873347123185,0.1431262128170685,-1.409907929707366e-05,5.815097023796394e-05,1.145009702536548e-06,5.815550644561577e-05,5.901881850062184e-05
96.4226497308,2.4226497308,8,0,0.1730654227895885,17.81974561666144,0.277730376891337,-1.370198714040246e-05,5.688473363508492e-05,2.221843015130696e-06,5.690221342504199e-05,5.797964510030656e-05
97.57735026920001,2.4226497308,8,0,0.01914643673010552,17.2040696724235,0.2716807711108551,-1.370198714040246e-05,5.503770580237112e-05,2.173446168886841e-06,5.505488178901291e-05,5.687304536088568e-05
96.4226497308,3.577350269200001,8,0,0.1569331407082899,17.81571254614111,0.04685189780211206,-1.375038398664636e-05,5.688473363508492e-05,3.748151824168965e-07,5.688523085741844e-05,5.814751325835438e-05
97.57735026920001,3.577350269200001,8,0,0.003014154648807832,17.20003660190318,0.04080229202162893,-1.375038398664636e-05,5.503770580237113e-05,3.264183361730314e-07,5.503809303630479e-05,5.704679603374872e-05
98.42264973080002,2.4226497308,8,0,0.1137560066557421,16.77351866657452,0.1933444977324962,-1.305479571196124e-05,5.358425492771385e-05,1.546755981859969e-06,5.35932291399007e-05,5.627664803186964e-05
99.57735026920002,2.4226497308,8,0,-0.06323347695459347,16.06556073213318,0.1868552996538705,-1.305479571196124e-05,5.146038112438983e-05,1.494842397230964e-06,5.146903898625982e-05,5.575385996685105e-05
98.42264973080002,3.577350269200001,8,0,0.09645147844607305,16.7691925345221,-0.07213972768300536,-1.310670929659025e-05,5.358425492771385e-05,-5.771178214640429e-07,5.358550344296838e-05,5.645375648229619e-05
99.57735026920002,3.577350269200001,8,0,-0.08053800516426257,16.06123460008076,-0.07862892576163188,-1.310670929659025e-05,5.146038112438983e-05,-6.290314060930551e-07,5.146191313984456e-05,5.59342595213668e-05
0.4226497308,4.422649730800001,8,0,-0.08255795709407006,-0.6615602840715327,0.2502983632854188,2.650627645562019e-07,-2.050946543353648e-06,2.002386906283351e-06,6.378628366179617e-07,1.524349647109115e-06
1.5773502692,4.422649730800001,8,0,-0.07981058241301565,-0.6505707853473151,0.2854550469187943,2.650627645562019e-07,-2.017978047180995e-06,2.283640375350354e-06,7.381079900562963e-07,1.648704931071474e-06
0.4226497308,5.5773502692,8,0,0.01119319926154472,-0.638122494982629,0.2544194253070275,5.463162336230462e-07,-2.050946543353648e-06,2.03535540245622e-06,8.975670793393415e-07,1.728611466091136e-06
1.5773502692,5.5773502692,8,0,0.01394057394259912,-0.6271329962584113,0.2895761089404436,5.463162336230462e-07,-2.017978047180995e-06,2.316608871523549e-06,9.920494292242111e-07,1.86205606386851e-06
2.4226497308,4.422649730800001,8,0,-0.2269008644102274,-0.6444393354795243,0.6168061613600343,-2.105312977291085e-07,-1.880685182006295e-06,4.934449290880274e-06,1.559108817771909e-06,1.802464299999644e-06
3.5773502692,4.422649730800001,8,0,-0.1983906488254414,-0.5303984731403801,0.6649411248840982,-2.105312977291085e-07,-1.538562594988863e-06,5.319528999072785e-06,1.866851232421221e-06,2.098187424106632e-06
2.4226497308,5.5773502692,8,0,-0.0985409616793804,-0.6123493597968125,0.6595714847371591,1.745484104634327e-07,-1.880685182006295e-06,5.276571877897273e-06,1.978282700822758e-06,2.026017772814218e-06
3.5773502692,5.5773502692,8,0,-0.07003074609461243,-0.4983084974577406,0.7077064482612365,1.745484104634327e-07,-1.53856259498908e-06,5.661651586089892e-06,2.275569956576171e-06,2.340524894391384e-06
4.422649730800001,4.422649730800001,8,0,-0.4160588191834532,-0.5022394136814551,0.8696593703418906,-9.295966904418861e-07,-1.274319068433893e-06,6.957274962735125e-06,2.380947101500777e-06,2.333040911420799e-06
5.577350269200001,4.422649730800001,8,0,-0.3844084730889752,-0.3756380293035433,0.9451876812840325,-9.295966904418861e-07,-8.945149153001585e-07,7.56150145027226e-06,2.868735612739491e-06,2.678949447018126e-06
4.422649730800001,5.5773502692,8,0,-0.2146499900043695,-0.4518872063866841,0.9171348894836074,-3.25370202904635e-07,-1.274319068433893e-06,7.337079115868859e-06,2.899250993734909e-06,2.589370805343544e-06
5.577350269200001,5.5773502692,8,0,-0.1829996439098825,-0.3252858220087363,0.99266320042579,-3.25370202904635e-07,-8.945149153000501e-07,7.941305603406321e-06,3.37089467665411e-06,2.954723355772347e-06
6.422649730800001,4.422649730800001,8,0,-0.6061183853105411,-0.3511916817352551,1.02758391542563,-1.658625487605527e-06,-6.389186733043832e-07,8.220671323405041e-06,2.993064438366924e-06,2.932379509703986e-06
7.577350269200001,4.422649730800001,8,0,-0.5795769047896983,-0.2450257596518841,1.140523090984501,-1.658625487605527e-06,-3.204209070542703e-07,9.124184727876011e-06,3.62137526305215e-06,3.278854781559228e-06
6.422649730800001,5.5773502692,8,0,-0.3049472504869771,-0.2758988980293641,1.067396136207057,-7.551120831348354e-07,-6.389186733043832e-07,8.539169089656455e-06,3.572964412430233e-06,3.221275386217824e-06
7.577350269200001,5.5773502692,8,0,-0.2784057699661344,-0.1697329759459931,1.180335311765915,-7.551120831348354e-07,-3.204209070542703e-07,9.442682494127316e-06,4.188574825193815e-06,3.584156525857672e-06
8.4226497308,4.422649730800001,8,0,-0.7779060064033207,-0.2310490900346888,1.093025831395384,-2.304459948462875e-06,-1.170322829883476e-07,8.74420665116307e-06,3.296081752906821e-06,3.536416773413967e-06
9.5773502692,4.422649730800001,8,0,-0.7581418157029987,-0.1519923272334002,1.254532152875909,-2.304459948462875e-06,1.201380054155184e-07,1.003625722300727e-05,4.070327146726979e-06,3.893613949434429e-06
8.4226497308,5.5773502692,8,0,-0.3472224824552987,-0.1233782090476833,1.12267211744584,-1.012409376618809e-06,-1.170322829883476e-07,8.981376939566719e-06,3.948228091643987e-06,3.853095732799802e-06
9.5773502692,5.5773502692,8,0,-0.3274582917549766,-0.04432144624639464,1.284178438926338,-1.012409376618809e-06,1.201380054155184e-07,1.02734275114107e-05,4.721696945317313e-06,4.224970170704375e-06
10.4226497308,4.422649730800001,8,0,-0.9056627077264765,-0.1440661806797301,1.071202345404555,-2.782867720180941e-06,2.635183880060447e-07,8.569618763236441e-06,3.287820085623892e-06,4.184706780038884e-06
11.5773502692,4.422649730800001,8,0,-0.892783357588163,-0.09254878012647574,1.292552457254925,-2.782867720180941e-06,4.180705896658079e-07,1.03404196580394e-05,4.229862625035548e-06,4.622790006982646e-06
10.4226497308,5.5773502692,8,0,-0.3153957427922323,0.003500560553695381,1.090521370612026,-1.0120668253781e-06,2.635183880056111e-07,8.724170964896204e-06,4.034191406146877e-06,4.529384471539107e-06
11.5773502692,5.5773502692,8,0,-0.3025163926538464,0.0550179611072389,1.311871482462354,-1.0120668253781e-06,4.180705896662416e-07,1.049497185969884e-05,4.998984495450598e-06,4.989185370100938e-06
12.4226497308,4.422649730800001,8,0,-0.9496869045552975,-0.08106998579969549,0.9633709470226214,-2.974142105937195e-06,5.003255690852124e-07,7.706967576180971e-06,2.99006685703549e-06,5.027680506785784e-06
13.5773502692,4.422649730800001,8,0,-0.9438391894469762,-0.05767912536641051,1.255308529914576,-2.974142105937195e-06,5.704981503850673e-07,1.004246823931661e-05,4.123017054636633e-06,5.695778696853178e-06
12.4226497308,5.5773502692,8,0,-0.171186683510018,0.1135550694616244,0.9721425196849813,-6.38641442801357e-07,5.003255690852124e-07,7.77714015747985e-06,3.860891518404912e-06,5.419207765055778e-06
13.5773502692,5.5773502692,8,0,-0.1653389684017329,0.1369459298947648,1.264080102576976,-6.38641442801357e-07,5.704981503846336e-07,1.011264082061581e-05,5.05826384260704e-06,6.134249897952969e-06
14.4226497308,4.422649730800001,8,0,-0.8497257847147008,-0.02835765308274982,0.7579328621926915,-2.696436388620843e-06,5.890361379069613e-07,6.063462897541532e-06,2.394484615649251e-06,6.372307777354717e-06
15.5773502692,4.422649730800001,8,0,-0.8513529395077037,-0.03486627225476119,1.129911455781071,-2.696436388620843e-06,5.695102803909271e-07,9.039291646248566e-06,3.742137873728723e-06,7.55252140809396e-06
14.4226497308,5.5773502692,8,0,0.1422171315210192,0.2196280759761802,0.7554921300032144,2.793923600863174e-07,5.890361379069613e-07,6.043937040025715e-06,3.460146097739181e-06,6.869520199606787e-06
15.5773502692,5.5773502692,8,0,0.1405899767279712,0.2131194568039882,1.12747072359158,2.793923600863174e-07,5.69510280390385e-07,9.019765788732641e-06,4.936666499373576e-06,8.163273888209722e-06
16.4226497308,4.422649730800001,8,0,-0.5096427355449448,0.03694517628347199,0.4161066683237684,-1.660412894770601e-06,5.259387525430662e-07,3.328853346590147e-06,1.424081470005132e-06,8.795027239114791e-06
17.5773502692,4.422649730800001,8,0,-0.5179355497392406,0.003773919506288886,0.8724633066349335,-1.660412894770601e-06,4.264249822115169e-07,6.979706453079468e-06,3.025504996910644e-06,1.100940266756937e-05
16.4226497308,5.5773502692,8,0,0.7073082999514463,0.3411829351575698,0.4036674470322705,1.990440211718572e-06,5.259387525430662e-07,3.229339576258164e-06,3.031138904894652e-06,9.526704248186646e-06
17.5773502692,5.5773502692,8,0,0.6990154857571504,0.3080116783803867,0.8600240853434086,1.990440211718572e-06,4.264249822115169e-07,6.880192682747269e-06,4.73629296090588e-06,1.195791157578095e-05
18.4226497308,4.422649730800001,8,0,0.231874421489227,0.1673792440671567,-0.1573778481207307,6.080947535118011e-07,3.501140438235198e-07,-1.259022784965845e-06,1.121695329905105e-06,1.336118446660646e-05
19.5773502692,4.422649730800001,8,0,0.2227934556120341,0.1310553805583851,0.3691500594757869,6.080947535118011e-07,2.411424532972051e-07,2.953200475806295e-06,1.912574167335707e-06,1.757199640171012e-05
18.4226497308,5.5773502692,8,0,1.635948841746613,0.5183978491315031,-0.1709992969365065,4.820318014283958e-06,3.501140438235198e-07,-1.367994375492051e-06,4.928869029321213e-06,1.447120518717019e-05
19.5773502692,5.5773502692,8,0,1.626867875869447,0.48207398562284,0.3555286106599704,4.820318014283958e-06,2.411424532975303e-07,2.844228885279763e-06,5.226026449895531e-06,1.890644370052148e-05
20.4226497308,4.422649730800001,8,0,1.648989565767923,0.5232852370202004,-1.202399388968112,4.858138420841192e-06,3.553211058503029e-07,-9.619195111744893e-06,7.917197689291602e-06,2.199486654429292e-05
21.5773502692,4.422649730800001,8,0,1.684065688305992,0.6635897271724762,-0.6854604941323257,4.858138420841192e-06,7.762345763071303e-07,-5.483683953058606e-06,6.235253521507387e-06,2.986756055451859e-05
20.4226497308,5.5773502692,8,0,3.027493285330024,0.8679111669107258,-1.149785205161185,8.993649579527497e-06,3.553211058503029e-07,-9.198281641289476e-06,1.098378609577607e-05,2.33553054299877e-05
21.5773502692,5.5773502692,8,0,3.062569407868057,1.008215657062857,-0.6328463103253442,8.993649579527497e-06,7.762345763066966e-07,-5.062770482602754e-06,9.711029572426706e-06,3.107458319790363e-05
22.4226497308,4.422649730800001,8,0,4.030178570172461,1.569612240655972,-3.168427606035942,1.164088163202709e-05,1.798616313961141e-06,-2.534742084828753e-05,2.031535423950768e-05,3.800548915231682e-05
23.5773502692,4.422649730800001,8,0,4.227869018644641,2.360374034544691,-2.876393233075399,1.164088163202709e-05,4.170901695627299e-06,-2.301114586460319e-05,2.000251758029932e-05,5.236602954058891e-05
22.4226497308,5.5773502692,8,0,4.808936898067287,1.764301822629679,-2.871891933327726,1.397715661571158e-05,1.798616313961141e-06,-2.297513546662181e-05,2.08895564882505e-05,3.862931891846933e-05
23.5773502692,5.5773502692,8,0,5.006627346539467,2.555063616518398,-2.57985756036715,1.397715661571158e-05,4.170901695627299e-06,-2.06388604829372e-05,2.049905866976506e-05,5.154996297777184e-05
24.4226497308,4.422649730800001,8,0,7.378071295798429,4.762049772920387,-6.974527589900212,1.980018832821866e-05,9.336102236706494e-06,-5.57962207192017e-05,4.295262759356194e-05,6.690164960396673e-05
25.5773502692,4.422649730800001,8,0,8.356346706502155,8.675151415735295,-7.474959998175914,1.980018832821866e-05,2.107540716515122e-05,-5.979967998540731e-05,5.034443542730356e-05,9.225316175004874e-05
24.4226497308,5.5773502692,8,0,6.043584873729903,4.428428167403255,-5.507114473844601,1.579672906201308e-05,9.336102236706494e-06,-4.405691579075681e-05,3.48304647418413e-05,6.380670984858714e-05
25.5773502692,5.5773502692,8,0,7.021860284433607,8.341529810218072,-6.007546882120304,1.579672906201308e-05,2.107540716515094e-05,-4.806037505696243e-05,4.261076611134635e-05,8.437212097728651e-05
26.4226497308,4.422649730800001,8,0.135852760950357,7.613361095753792,12.3695153134349,-11.57345899201375,1.674152575153123e-05,3.875700646017413e-05,-0.0001071433984304972,8.244019135417174e-05,0.0001157714092436494
27.57735026920001,4.422649730800001,8,0.3808117386289672,7.342067748519032,16.41057571558988,-8.856974120548456,1.674152575153123e-05,7.532472916686067e-05,-0.00011443335958517,0.000110311789370344,0.0001546729441577955
26.4226497308,5.5773502692,8,0.02336765791345542,6.23118005549264,13.38634063620541,-8.615810934560717,9.45156459685843e-06,3.875700646017413e-05,-7.057567572381069e-05,6.231336470701998e-05,0.0001024997314670326
27.57735026920001,5.5773502692,8,0.2476994277597361,7.092375556266828,19.48148040658929,-7.32229539769198,9.45156459685843e-06,7.532472916686077e-05,-7.786563687848364e-05,9.338405656331955e-05,0.0001314598732182438
28.4226497308,4.422649730800001,8,0.5073811543886847,4.479248141560752,18.19828472036121,-10.26725251443975,-4.568110320978685e-07,0.0001109399550561002,-0.0001667374702516482,0.0001555045056924346,0.0001838277573100704
29.5773502692,4.422649730800001,8,0.6317655282812386,5.211978281038014,21.05818008550188,-7.713266152741674,-4.568110320978685e-07,0.0001716748390059939,-0.0001675729296442984,0.0002057235340234627,0.0002245786532165027
28.4226497308,5.5773502692,8,0.3735047935493472,5.522078761693935,23.10031657995399,-8.301264023677573,-1.292270424748052e-06,0.0001109399550561002,-0.0001060025863017541,0.0001320129295285794,0.0001532344484268092
29.5773502692,5.5773502692,8,0.5071422853209832,6.838637252268992,28.15068081943673,-6.581994380214577,-1.292270424748052e-06,0.0001716748390059939,-0.0001068380456944046,0.0001868426356744412,0.0001837635524611575
30.4226497308,4.422649730800001,8,0.6834902795834612,3.635000915696341,21.84114422316472,-5.759533916435434,-1.845413291135774e-05,0.0002116322389511987,-0.0001455761651517222,0.0002327251598920101,0.0002478931834205946
31.5773502692,4.422649730800001,8,0.7243015117665138,4.278989188245651,23.47567743463404,-4.834447626658569,-1.845413291135774e-05,0.0002600630017945956,-0.0001402821657132722,0.0002767298014782401,0.0002708387685890482
30.4226497308,5.5773502692,8,0.5701260605416251,5.695532549596692,29.8536282231329,-5.220034598818557,-1.316013347290782e-05,0.0002116322389511987,-9.71454023083252e-05,0.0002216787330937756,0.000202326976025758
31.5773502692,5.5773502692,8,0.6265968710358899,6.454349877702052,31.95994328126958,-4.287200153919308,-1.316013347290782e-05,0.0002600630017945957,-9.185140286987526e-05,0.0002675759999490611,0.0002225140883344754
32.4226497308,4.422649730800001,8,0.7375344356840765,5.299676380349567,24.25618204355075,-1.66954697606002,-9.319246218440361e-06,0.0002795796912495422,-5.088810733435269e-05,0.0002818034950792681,0.0002794843442685603
33.57735026920001,4.422649730800001,8,0.7385228020717002,5.386267523480031,24.59103307892224,-1.682823001221125,-9.319246218440361e-06,0.000284469515594869,-5.148664631728463e-05,0.0002867082223287498,0.0002801589111182196
32.4226497308,5.5773502692,8,0.6490507169572047,7.01631114784805,32.41604409863479,-2.01788305452478,-9.917785201372353e-06,0.0002795796912495422,-4.599828298902588e-05,0.0002813954703103182,0.000231800933995243
33.57735026920001,5.5773502692,8,0.6607348473790752,6.920963165356103,31.88980129893083,-1.976084739745792,-9.917785201372353e-06,0.000284469515594869,-4.659682197195782e-05,0.0002863019926777902,0.0002369859558748721
34.42264973080001,4.422649730800001,8,0.7335872454725597,7.857339401895167,25.34757560858591,0.198692340055601,1.826273523512805e-05,0.0002808663217295466,5.966451280699052e-06,0.0002814910610491851,0.0002768317775953845
35.5773502692,4.422649730800001,8,0.718185268820134,7.965571571338978,25.42890150923506,-0.2841028054023575,1.826273523512805e-05,0.0002661323886742203,-8.064952579672812e-06,0.0002668192225642126,0.0002670673129173878
34.42264973080001,5.5773502692,8,0.6612003475287221,8.407642215824117,31.83860186422369,-0.3713024722865066,4.231331374756229e-06,0.0002808663217295466,-8.767481774627482e-06,0.0002809665980422271,0.0002371980035413619
35.5773502692,5.5773502692,8,0.6508721194592977,8.235278318333418,31.09451857991615,-0.9949658275546435,4.231331374756229e-06,0.0002661323886742202,-2.279888563499924e-05,0.0002666537962597722,0.0002325923066602339
36.4226497308,4.422649730800001,8,0.7039989610072841,8.832090580145419,25.83837255643073,0.3297251882647965,2.564853095501324e-05,0.0002554623455842762,8.911460294513642e-06,0.0002568239946225055,0.0002588025964479914
37.5773502692,4.422649730800001,8,0.6796838963913318,9.172766871776203,26.42152061360962,-0.1497443493407773,2.564853095501324e-05,0.0002410451787976868,-3.739914357193123e-06,0.0002424203350411401,0.000245987435820486
36.4226497308,5.5773502692,8,0.6395188278845105,9.235857193427382,31.08689110072939,-0.2480879411984145,1.29971563033064e-05,0.0002554623455842762,-5.50570649207572e-06,0.000255822384644857,0.0002277556845860145
37.5773502692,5.5773502692,8,0.6179416052751162,9.329668730044615,31.1115840786414,-0.8671331593353818,1.29971563033064e-05,0.0002410451787976867,-1.815708114378265e-05,0.0002417365179103321,0.0002191474842228041
38.4226497308,4.422649730800001,8,0.6596612271363609,9.366934634422186,26.90068699200207,0.221884381572028,2.483890144346379e-05,0.0002309130106029864,5.215612190290848e-06,0.0002322743868701687,0.0002364985398618658
39.5773502692,4.422649730800001,8,0.6288013342868943,9.805960870566814,27.69863464027589,-0.2024334385399991,2.483890144346379e-05,0.0002176485790896445,-4.362805305910386e-06,0.0002190830710934279,0.0002233895546215837
38.4226497308,5.5773502692,8,0.5998156917553695,9.736315688374621,31.31150498860651,-0.4026263991226475,1.526048394726261e-05,0.0002309130106029864,-8.048819323051002e-06,0.0002314867006596429,0.0002124380958308596
39.5773502692,5.5773502692,8,0.5713241039786175,9.955658848190417,31.64538335549577,-0.9445464422342571,1.526048394726261e-05,0.0002176485790896446,-1.762723681925224e-05,0.0002185386603989942,0.0002027159062187855
40.4226497308,4.422649730800001,8,0.6043439246601469,9.731229742788116,28.20401080245757,0.1432515021175951,2.167722693905012e-05,0.0002084331719228551,2.896485327456128e-06,0.0002095673737470021,0.0002140731931213644
41.5773502692,4.422649730800001,8,0.5682762498567673,10.1897436446733,29.0607574451524,-0.2284155652041463,2.167722693905012e-05,0.0001965206428430237,-4.232624498946191e-06,0.0001977352340537136,0.0002017294054002868
40.4226497308,5.5773502692,8,0.548766485228434,10.0258687361608,31.89772742208271,-0.5085426389648123,1.45481171126477e-05,0.0002084331719228551,-9.016043752375241e-06,0.0002090375071412261,0.0001956352373869269
41.5773502692,5.5773502692,8,0.5154175334148873,10.28579231185234,32.33096615413948,-0.9779572930749378,1.45481171126477e-05,0.0001965206428430238,-1.614515357877759e-05,0.0001973888136825382,0.0001860126799979718
42.4226497308,4.422649730800001,8,0.5403465120531442,10.0049624799071,29.54125160163176,0.1700321898385134,1.823738723672323e-05,0.000188246227669875,2.959310772956384e-06,0.0001891391638061405,0.0001931160709649332
43.57735026920001,4.422649730800001,8,0.5002458239101668,10.43245934114154,30.33707432391632,-0.1564940856247238,1.823738723672323e-05,0.0001775526340927842,-2.505137015148715e-06,0.0001784955966466418,0.0001819277913850417
42.4226497308,5.5773502692,8,0.4897230523952198,10.17738805571871,32.5623815306479,-0.4933282776507304,1.277293944861816e-05,0.000188246227669875,-7.734282804134403e-06,0.0001887583104908063,0.0001791915402547626
43.57735026920001,5.5773502692,8,0.4528880527092391,10.42450654021241,32.96274144289908,-0.9026478995107826,1.277293944861816e-05,0.0001775526340927842,-1.319873059223945e-05,0.0001782559651177695,0.0001701783972989507
44.4226497308,4.422649730800001,8,0.4697676186007659,10.19596637124038,30.7425068297615,0.3026315687090233,1.515012512619742e-05,0.0001701503942859247,4.566021681443245e-06,0.0001708540524658189,0.0001742047488723471
45.5773502692,4.422649730800001,8,0.4269071618502965,10.56502345222942,31.40705855029817,0.01457022566421377,1.515012512619742e-05,0.0001606206926200064,2.033907903823112e-07,0.0001613336724709904,0.0001642932839176455
44.4226497308,5.5773502692,8,0.4250223789711113,10.22024500103124,33.12777028889793,-0.3567506136277647,1.078749423513649e-05,0.0001701503942859247,-4.96367998447495e-06,0.0001705281377574472,0.0001638801334790197
45.5773502692,5.5773502692,8,0.3858910771796877,10.42811553218372,33.43159154789738,-0.7159213407078403,1.078749423513649e-05,0.0001606206926200065,-9.326310875535911e-06,0.0001611175563583226,0.0001556860996785756
46.42264973080001,4.422649730800001,8,0.3948748096640112,10.29317565198334,31.70670588602632,0.513816012839907,1.251443089540023e-05,0.0001540622003554907,6.792855707158599e-06,0.0001546442498230705,0.0001575053015088359
47.57735026920001,4.422649730800001,8,0.350640162151133,10.59168079931674,32.20876217600703,0.2584832442624518,1.251443089540023e-05,0.0001456737679329426,3.18446850816926e-06,0.000146227658342245,0.0001488716536409977
46.42264973080001,5.5773502692,8,0.3567378475034823,10.168172164379,33.51153760953935,-0.128296764051837,8.906043696410896e-06,0.0001540622003554907,-1.59557671538938e-06,0.0001543235306919365,0.0001500152342257516
47.57735026920001,5.5773502692,8,0.316484860242477,10.32665738792049,33.69735992438333,-0.4446235152787096,8.906043696410896e-06,0.0001456737679329426,-5.203963914378719e-06,0.0001459921398511382,0.0001427161754855349
48.4226497308,4.422649730800001,8,0.3180935623305226,10.28452567581972,32.39181624139595,0.7681723468711469,1.026098124754443e-05,0.0001399402999595447,9.012055665542584e-06,0.0001404606132073658,0.000142996994526823
49.57735026920001,4.422649730800001,8,0.2738893537847048,10.51096784229693,32.73061171361582,0.5404747749307379,1.026098124754443e-05,0.0001326646065745344,5.95473736954943e-06,0.0001331274390285812,0.0001355807752169058
48.4226497308,5.5773502692,8,0.2869146332189732,10.02805722299951,33.69119559453077,0.1547718167097692,7.203662951551246e-06,0.0001399402999595447,1.736362280532354e-06,0.0001401309665622539,0.0001377033804318559
49.57735026920001,5.5773502692,8,0.2467057387038472,10.1367832213808,33.76403543337914,-0.1243835732339092,7.203662951551246e-06,0.0001326646065745344,-1.320956015460827e-06,0.0001328633247359591,0.0001313072283969096
50.42264973080001,4.422649730800001,8,0.2418391662561056,10.16365107974043,32.80227645287468,1.033559405060291,8.285659207491646e-06,0.0001277253578336622,1.090596463503864e-05,0.0001282259303516652,0.0001305634436509526
51.57735026920001,4.422649730800001,8,0.1989781517610004,10.32312965468527,32.99627605341178,0.8291953158425901,8.285659207491646e-06,0.0001215067727068156,8.281375272502524e-06,0.0001219296459042281,0.0001242720582036838
50.42264973080001,5.5773502692,8,0.2175619252753543,9.804577453196854,33.68151407482644,0.4584480247366915,5.661069844955569e-06,0.0001277253578336622,4.687379508192034e-06,0.0001278937078548176,0.0001269443060537247
51.57735026920001,5.5773502692,8,0.178503588038627,9.86829767246917,33.66000498300952,0.2118218379107031,5.661069844955569e-06,0.0001215067727068156,2.062790145655931e-06,0.000121647322522971,0.0001214207325771058
52.4226497308,4.422649730800001,8,0.168337271196801,9.930823053624819,32.97155861782497,1.286580603956833,6.494684311646725e-06,0.000117312374061225,1.237598424840591e-05,0.0001178174712224258,0.000120039507143047
53.5773502692,4.422649730800001,8,0.1279675431168293,10.03203478961608,33.04866976225697,1.102399511152356,6.494684311646725e-06,0.0001120716489806327,1.011338055092643e-05,0.0001124872244418451,0.0001147673480465349
52.4226497308,5.5773502692,8,0.1505675407900232,9.502367080771215,33.51588501850127,0.7576150927520706,4.232080614167153e-06,0.000117312374061225,7.135259167813748e-06,0.0001174970619883814,0.0001176779977937831
53.5773502692,5.5773502692,8,0.1136622639707737,9.528128552631044,33.42369827270656,0.5398523022533059,4.232080614167153e-06,0.0001120716489806327,4.872655470334209e-06,0.000112204440185,0.0001129762296826744
54.42264973080001,4.422649730800001,8,0.09951840543148981,9.592172599352308,32.94577465094121,1.513696911777211,4.817791527713841e-06,0.0001085560675455792,1.344788762730938e-05,0.0001090782001913454,0.0001112427738437815
55.57735026920001,4.422649730800001,8,0.06260830418344149,9.644449110684612,32.93259922992054,1.347095063174899,4.817791527713841e-06,0.0001041920455270506,1.149653933728482e-05,0.0001046196858850301,0.0001068856171429154
54.42264973080001,5.5773502692,8,0.08763367429151858,9.125323801534314,33.23223735035914,1.035976636089133,2.866443237689278e-06,0.0001085560675455792,9.083865608780896e-06,0.0001087837056042606,0.0001098140646456271
55.57735026920001,5.5773502692,8,0.05377232251749214,9.119885746745791,33.08915807769046,0.8436231621413267,2.866443237689278e-06,0.0001041920455270506,7.13251731875638e-06,0.0001043534151314515,0.0001058766372132376
56.4226497308,4.422649730800001,8,0.03701412611553061,9.155843205606335,32.76866744426874,1.711792398122102,3.202294432509238e-06,0.0001012840000069163,1.422070619762772e-05,0.0001018323013066734,0.0001039975139215986
57.57735026920001,4.422649730800001,8,0.004396877878551813,9.168863556743037,32.69018630827424,1.561190474458475,3.202294432509238e-06,9.770309391337692e-05,1.254468122704849e-05,9.815718905624162e-05,0.0001004642258839882
56.4226497308,5.5773502692,8,0.0302679700504614,8.678219038532115,32.86278567466928,1.28971936914937,1.526269461929968e-06,0.0001012840000069163,1.06398001040884e-05,0.0001015745087558828,0.0001032535074585683
57.57735026920001,5.5773502692,8,0.0002318689062261403,8.648675156154436,32.68730616524372,1.120212089096661,1.526269461929968e-06,9.770309391337694e-05,8.963775133509152e-06,9.792036913246717e-05,0.000100024411126051
58.4226497308,4.422649730800001,8,0,8.717251771607138,32.00382654713558,1.938309109818737,2.292144431434373e-06,9.543844353354815e-05,1.55064728785499e-05,9.609357824936801e-05,9.814428908956803e-05
59.57735026920001,4.422649730800001,8,0,8.500065621124143,31.13508194520361,1.755406511893681,2.292144431434373e-06,9.283220972775222e-05,1.404325209514944e-05,9.338993282862929e-05,9.533939193420443e-05
58.4226497308,5.5773502692,8,0,8.229511510473655,31.88189148185221,1.612529884094245,8.289236480339246e-07,9.543844353354815e-05,1.290023907275396e-05,9.587696127113976e-05,9.789155651415658e-05
59.57735026920001,5.5773502692,8,0,8.01232535999066,31.01314687992024,1.429627286169185,8.289236480339246e-07,9.283220972775222e-05,1.143701828935348e-05,9.318749364065518e-05,9.52935856815731e-05
60.4226497308,4.422649730800001,8,0,8.065677904018074,30.49565742032076,2.024919091161472,1.41364335660123e-06,9.113356142181195e-05,1.619935272929178e-05,9.186149312626505e-05,9.34981485374455e-05
61.5773502692,4.422649730800001,8,0,7.896131264816318,29.81747086351373,1.85583173504116,1.41364335660123e-06,8.909900175139088e-05,1.484665388032928e-05,8.972648475425284e-05,9.127267518354916e-05
60.4226497308,5.5773502692,8,0,7.614778287697224,30.38293251624054,1.770599132358849,6.09445076386818e-08,9.113356142181195e-05,1.416479305887079e-05,9.168104326564456e-05,9.35731676483226e-05
61.5773502692,5.5773502692,8,0,7.445231648495467,29.70474595943352,1.601511776238531,6.09445076386818e-08,8.909900175139087e-05,1.281209420990825e-05,8.955753808079147e-05,9.147086900360812e-05
62.42264973080001,4.422649730800001,8,0,7.391261125939462,29.27456072901922,1.994703369154632,2.323870197908968e-07,8.776558543210995e-05,1.595762695323706e-05,8.848692471007523e-05,8.980344249079079e-05
63.57735026920001,4.422649730800001,8,0,7.257227670801892,28.73842690846894,1.846245744709713,2.323870197908968e-07,8.61571839704591e-05,1.47699659576777e-05,8.678728090833953e-05,8.801489747975935e-05
62.42264973080001,5.5773502692,8,0,6.995374127419691,29.17558897938928,1.79365318644828,-9.552739757684166e-07,8.776558543210995e-05,1.434922549158624e-05,8.834203136021963e-05,9.006997551114794e-05
63.57735026920001,5.5773502692,8,0,6.861340672282121,28.639455158839,1.645195562003361,-9.552739757684166e-07,8.61571839704591e-05,1.316156449602689e-05,8.665151432811983e-05,8.834496195830587e-05
64.4226497308,4.422649730800001,8,0,6.72271472783348,28.27139075656149,1.913659845270508,-1.104425476182052e-06,8.509027863872997e-05,1.530927876216406e-05,8.576478121891433e-05,8.682405313230085e-05
65.57735026920001,4.422649730800001,8,0,6.613844885198216,27.83591138602043,1.786257041381861,-1.104425476182052e-06,8.37838405271068e-05,1.429005633105489e-05,8.438103480224906e-05,8.53591508820312e-05
64.4226497308,5.5773502692,8,0,6.382973917463731,28.18645555396905,1.750355081317619,-2.123647907291301e-06,8.509027863872997e-05,1.400284065054095e-05,8.564876716307797e-05,8.718699999134653e-05
65.57735026920001,5.5773502692,8,0,6.274104074828466,27.75097618342799,1.622952277428965,-2.123647907291301e-06,8.37838405271068e-05,1.298361821943172e-05,8.427164011067006e-05,8.574840261708874e-05
66.4226497308,4.422649730800001,8,0,6.074037395218412,27.42667050438024,1.812742900397576,-2.50441673880527e-06,8.290611569784202e-05,1.450194320318061e-05,8.351731692487874e-05,8.43732114807481e-05
67.57735026920001,4.422649730800001,8,0,5.983074835460511,27.06282026534863,1.704553404484896,-2.50441673880527e-06,8.18145649807472e-05,1.363642723587917e-05,8.236234172843344e-05,8.31444771934138e-05
66.4226497308,5.5773502692,8,0,5.785532072784589,27.35454417377178,1.676299060760723,-3.36993270610674e-06,8.290611569784202e-05,1.341039248608578e-05,8.342411958716156e-05,8.477389423651146e-05
67.57735026920001,5.5773502692,8,0,5.694569513026686,26.99069393474017,1.568109564848045,-3.36993270610674e-06,8.181456498074719e-05,1.254487651878436e-05,8.227394959365138e-05,8.355008520251728e-05
68.42264973080002,4.422649730800001,8,0,5.452346364128447,26.69765951609835,1.706947135108317,-3.910619247667651e-06,8.107063336021195e-05,1.365557708086654e-05,8.161571339477592e-05,8.230698565782571e-05
69.57735026920001,4.422649730800001,8,0,5.373937341824202,26.38402342688137,1.615502622536916,-3.910619247667651e-06,8.012972509256102e-05,1.292402098029533e-05,8.062369702509597e-05,8.124765051892725e-05
68.42264973080002,5.5773502692,8,0,5.208494330604706,26.63669650771742,1.589333601651957,-4.642175348238873e-06,8.107063336021195e-05,1.271466881321565e-05,8.153959218888797e-05,8.271201804256709e-05
69.57735026920001,5.5773502692,8,0,5.130085308300464,26.32306041850045,1.497889089080552,-4.642175348238873e-06,8.012972509256104e-05,1.198311271264442e-05,8.055110512828904e-05,8.164618501532515e-05
70.4226497308,4.422649730800001,8,0,4.860835223696904,26.05221731638222,1.603117541442426,-5.287101137275684e-06,7.947842723346558e-05,1.282494033153941e-05,7.996078259324052e-05,8.051536740341438e-05
71.57735026920001,4.422649730800001,8,0,4.79096267583571,25.77272712493745,1.525976995023365,-5.287101137275684e-06,7.863995665913126e-05,1.220781596018692e-05,7.908156247619318e-05,7.95740678651218e-05
70.4226497308,5.5773502692,8,0,4.655127099912741,26.00079028543618,1.498308719650634,-5.904225508628172e-06,7.947842723346558e-05,1.198646975720508e-05,7.98970557641504e-05,8.090713479535331e-05
71.57735026920001,5.5773502692,8,0,4.58525455205155,25.72130009399142,1.421168173231575,-5.904225508628172e-06,7.863995665913128e-05,1.13693453858526e-05,7.902047614283025e-05,7.995384507220145e-05
72.4226497308,4.422649730800001,8,0,4.300643063661428,25.46577792795076,1.503998250317432,-6.610564538644042e-06,7.804997491851329e-05,1.203198600253946e-05,7.84753353114233e-05,7.891343680020748e-05
73.57735026920001,4.422649730800001,8,0,4.23619393727473,25.20798142240397,1.438983064467546,-6.610564538644042e-06,7.727658540187292e-05,1.151186451574037e-05,7.766968764467503e-05,7.804985870401904e-05
72.4226497308,5.5773502692,8,0,4.127269234728409,25.42243447071751,1.407324560737381,-7.130686025443099e-06,7.804997491851329e-05,1.125859648589905e-05,7.842038522716397e-05,7.928367762405486e-05
73.57735026920001,5.5773502692,8,0,4.062820108341707,25.16463796517071,1.342309374887496,-7.130686025443099e-06,7.727658540187287e-05,1.073847499909997e-05,7.761675744889519e-05,7.840603582921363e-05
74.4226497308,4.422649730800001,8,0,3.771905850950138,24.91899516521854,1.41024535183309,-7.865097409134388e-06,7.67232598479392e-05,1.128196281466472e-05,7.709778423578724e-05,7.743419613727681e-05
75.57735026920001,4.422649730800001,8,0,3.710378850125394,24.67288716191957,1.355492940392447,-7.865097409134388e-06,7.598493583804228e-05,1.084394352313957e-05,7.633408149676794e-05,7.661575282073569e-05
74.4226497308,5.5773502692,8,0,3.62589942044173,24.88249355759144,1.317954850595979,-8.303116700659612e-06,7.67232598479392e-05,1.054363880476783e-05,7.704887707819815e-05,7.7780027984176e-05
75.57735026920001,5.5773502692,8,0,3.564372419616989,24.63638555429247,1.263202439155338,-8.303116700659612e-06,7.598493583804231e-05,1.010561951324271e-05,7.628675549769071e-05,7.694738454036501e-05
76.42264973080002,4.422649730800001,8,0,3.274376433070514,24.39611890547712,1.321447683095434,-9.038890538556048e-06,7.544807935107037e-05,1.057158146476347e-05,7.577749193448741e-05,7.602314985947064e-05
77.57735026920001,4.422649730800001,8,0,3.213676833991699,24.15332050916186,1.275393779822201,-9.038890538556048e-06,7.471968416212458e-05,1.020315023857761e-05,7.502926711747177e-05,7.5222571777051e-05
76.42264973080002,5.5773502692,8,0,3.151566024341907,24.36541630329497,1.230398284477213,-9.407321764741872e-06,7.544807935107037e-05,9.843186275817708e-06,7.573257674230353e-05,7.634473392035364e-05
77.57735026920001,5.5773502692,8,0,3.090866425263094,24.12261790697972,1.184344381203981,-9.407321764741872e-06,7.47196841621246e-05,9.474755049631851e-06,7.49856157255946e-05,7.553090525101071e-05
78.4226497308,4.422649730800001,8,0,2.807795517509552,23.8838361020786,1.236640768308964,-1.012212322563231e-05,7.418203911264386e-05,9.893126146471715e-06,7.447128724793621e-05,7.46343835249662e-05
79.57735026920001,4.422649730800001,8,0,2.746088983948218,23.63700996783326,1.197976996118362,-1.012212322563231e-05,7.344156070990786e-05,9.583815968946896e-06,7.371545200588404e-05,7.382800141820668e-05
78.4226497308,5.5773502692,8,0,2.704692125001268,23.85806025395152,1.144080967966968,-1.043143340315716e-05,7.418203911264386e-05,9.152647743735748e-06,7.442883000556577e-05,7.493358832728357e-05
79.57735026920001,5.5773502692,8,0,2.642985591439936,23.6112341197062,1.105417195776366,-1.043143340315716e-05,7.344156070990788e-05,8.843337566210929e-06,7.367402072134243e-05,7.411551681271378e-05
80.4226497308,4.422649730800001,8,0,2.372123619044169,23.37043202016335,1.154558437988717,-1.110555003518934e-05,7.288768356928738e-05,9.236467503909735e-06,7.314084671702917e-05,7.322778640714221e-05
81.57735026920001,4.422649730800001,8,0,2.307728445156298,23.11285132461187,1.122184815143398,-1.110555003518934e-05,7.211494148263292e-05,8.977478521147185e-06,7.235635437981805e-05,7.239435060813837e-05
80.4226497308,5.5773502692,8,0,2.285793958123318,23.34884960493314,1.057965677156902,-1.136453901795189e-05,7.288768356928738e-05,8.463725417255213e-06,7.309971010324704e-05,7.350744823828866e-05
81.57735026920001,5.5773502692,8,0,2.221398784235444,23.09126890938164,1.025592054311591,-1.136453901795189e-05,7.21149414826329e-05,8.204736434492724e-06,7.231605650678325e-05,7.26642455129724e-05
82.4226497308,4.422649730800001,8,0,1.96769767297803,22.84516336942261,1.073744985638559,-1.197949814200839e-05,7.153036464376992e-05,8.589959885108473e-06,7.175067772106608e-05,7.176718148723809e-05
83.57735026920001,4.422649730800001,8,0,1.899001711468441,22.57037952338425,1.046724759620145,-1.197949814200839e-05,7.070601310565485e-05,8.373798076961162e-06,7.091748188958099e-05,7.088715938293122e-05
82.4226497308,5.5773502692,8,0,1.895643736928943,22.82714988541034,0.9707010433741721,-1.219565995015565e-05,7.153036464376992e-05,7.765608346993377e-06,7.171004453968864e-05,7.203071985138981e-05
83.57735026920001,5.5773502692,8,0,1.826947775419353,22.55236603937198,0.9436808173557633,-1.219565995015565e-05,7.070601310565485e-05,7.549446538846106e-06,7.087753096363037e-05,7.114309828129012e-05
84.42264973080002,4.422649730800001,8,0,1.595350877541317,22.29776952866117,0.9925903997705307,-1.273309281479672e-05,7.007658178968267e-05,7.940723198164245e-06,7.026650765845293e-05,7.021931424123984e-05
85.57735026920001,4.422649730800001,8,0,1.520743644452242,21.99934059630487,0.9701092320386796,-1.273309281479672e-05,6.918129499261378e-05,7.760873856309437e-06,6.936470783235724e-05,6.927474948678023e-05
84.42264973080002,5.5773502692,8,0,1.535401096923066,22.28278208350661,0.8806795501369175,-1.291294215665147e-05,7.007658178968267e-05,7.045436401095339e-06,7.02258447748486e-05,7.047055973962717e-05
85.57735026920001,5.5773502692,8,0,1.460793863833989,21.9843531511503,0.8581983824050714,-1.291294215665147e-05,6.918129499261375e-05,6.865587059240571e-06,6.932458810197566e-05,6.952077184377733e-05
86.4226497308,4.422649730800001,8,0,1.256520056878661,21.71806995575673,0.909320199524825,-1.335359178259366e-05,6.849260781291859e-05,7.2745615961986e-06,6.865393217641034e-05,6.855393106041054e-05
87.57735026920002,4.422649730800001,8,0,1.174333259507024,21.38932276627018,0.8906493915928703,-1.335359178259366e-05,6.750636624445894e-05,7.125195132742962e-06,6.766302671308357e-05,6.752918325091256e-05
86.4226497308,5.5773502692,8,0,1.206731235726773,21.70562275046876,0.7860400034673684,-1.350295824604933e-05,6.849260781291859e-05,6.288320027738947e-06,6.861299540817739e-05,6.879707911307954e-05
87.57735026920002,5.5773502692,8,0,1.124544438355139,21.37687556098222,0.7673691955354118,-1.350295824604933e-05,6.750636624445898e-05,6.138953564283295e-06,6.762250349057653e-05,6.776970169951076e-05
88.42264973080002,4.422649730800001,8,0,0.9533570925814141,21.09561036573531,0.8219550029815189,-1.382574559632772e-05,6.674326749628786e-05,6.575640023852151e-06,6.687721252980111e-05,6.67456622857294e-05
89.57735026920001,4.422649730800001,8,0,0.8618085106793654,20.72941603812712,0.8064174571945725,-1.382574559632772e-05,6.564468451346328e-05,6.45133965755658e-06,6.577539803552538e-05,6.562979100946056e-05
88.42264973080002,5.5773502692,8,0,0.9119236371495596,21.08525200187735,0.6846321301284428,-1.395004596262329e-05,6.674326749628786e-05,5.477057041027543e-06,6.68360994839537e-05,6.698529178862558e-05
89.57735026920001,5.5773502692,8,0,0.82037505524751,20.71905767426915,0.6690945843414982,-1.395004596262329e-05,6.564468451346327e-05,5.352756674731986e-06,6.573457639965627e-05,6.586962147160436e-05
90.42264973080002,4.422649730800001,8,0,0.688857139758376,20.41932923048897,0.7282458158420329,-1.413112053716437e-05,6.479076782575798e-05,5.825966526736263e-06,6.489813908967629e-05,6.477936047856784e-05
91.57735026920001,4.422649730800001,8,0,0.5859937402986723,20.00787563265015,0.7151829591897253,-1.413112053716437e-05,6.355640703224153e-05,5.721463673517802e-06,6.366160692571166e-05,6.357181233603121e-05
90.42264973080002,5.5773502692,8,0,0.65402285535224,20.41062065938743,0.573950716652474,-1.423562339038277e-05,6.479076782575798e-05,4.591605733219792e-06,6.485740720930887e-05,6.502045417530478e-05
91.57735026920001,5.5773502692,8,0,0.5511594558925363,19.99916706154862,0.5608878600001724,-1.423562339038277e-05,6.355640703224153e-05,4.487102880001379e-06,6.362105817024321e-05,6.381615629461103e-05
92.42264973080002,4.422649730800001,8,0,0.4670150336695666,19.67722126472864,0.6255854288429744,-1.424732890404029e-05,6.259349602019597e-05,5.004683430743796e-06,6.267489920123645e-05,6.266243927696648e-05
93.57735026920001,4.422649730800001,8,0,0.350651615780273,19.21176759317146,0.6143230111520466,-1.424732890404029e-05,6.119713500552445e-05,4.914584089216373e-06,6.127708642476028e-05,6.138553401899825e-05
92.42264973080002,5.5773502692,8,0,0.4369819198271072,19.66971298626802,0.4510403020090407,-1.433742824556767e-05,6.259349602019597e-05,3.608322416072325e-06,6.263578342894211e-05,6.291030136596873e-05
93.57735026920001,5.5773502692,8,0,0.3206185019378136,19.20425931471085,0.4397778843181103,-1.433742824556767e-05,6.119713500552445e-05,3.518223074544882e-06,6.123808045800831e-05,6.163975755721983e-05
94.4226497308,4.422649730800001,8,0,0.2930217942039635,18.85597681367784,0.5108922720252488,-1.414711170948959e-05,6.01047083684059e-05,4.08713817620199e-06,6.016090922754842e-05,6.04516601428692e-05
95.57735026920002,4.422649730800001,8,0,0.1606714557368853,18.32657545980953,0.5007025779151688,-1.414711170948959e-05,5.851650430680098e-05,4.00562062332135e-06,5.857166542615001e-05,5.917717452328311e-05
94.4226497308,5.5773502692,8,0,0.2658492765770593,18.84918368427111,0.3123667643246363,-1.42286292623703e-05,6.01047083684059e-05,2.49893411459709e-06,6.012570469564294e-05,6.071151240364906e-05
95.57735026920002,5.5773502692,8,0,0.133498938109982,18.31978233040281,0.3021770702145546,-1.42286292623703e-05,5.851650430680098e-05,2.417416561716437e-06,5.853658224896415e-05,5.944604329085522e-05
96.4226497308,4.422649730800001,8,0,0.173515172517531,17.94057601589697,0.3804594324808634,-1.379721226066148e-05,5.727103111285628e-05,3.043675459846907e-06,5.730360443878599e-05,5.830989589533246e-05
97.57735026920001,4.422649730800001,8,0,0.02230750719572594,17.33574535460975,0.3705168852806782,-1.379721226066148e-05,5.545653912899462e-05,2.964135082245425e-06,5.548824165921099e-05,5.721493223893803e-05
96.4226497308,5.5773502692,8,0,0.1470017133170298,17.93394765109685,0.1536479344981487,-1.387675263826298e-05,5.727103111285628e-05,1.229183475985189e-06,5.72763397086172e-05,5.858566535179463e-05
97.57735026920001,5.5773502692,8,0,-0.00420595200477436,17.32911698980963,0.1437053872979652,-1.387675263826298e-05,5.545653912899463e-05,1.149643098383721e-06,5.546130447471058e-05,5.750053822126358e-05
98.42264973080002,4.422649730800001,8,0,0.1169017898698677,16.91381449748636,0.2297574879564014,-1.315696587040551e-05,5.403068496006046e-05,1.838059903651211e-06,5.404325361026546e-05,5.662517133517372e-05
99.57735026920002,4.422649730800001,8,0,-0.05651604763145635,16.22014314748106,0.2190837468996094,-1.315696587040551e-05,5.194967091004457e-05,1.752669975196875e-06,5.19614642381271e-05,5.61088782380978e-05
98.42264973080002,5.5773502692,8,0,0.08843848038508373,16.90669867011517,-0.03036926829557942,-1.324235579885986e-05,5.403068496006046e-05,-2.429541463646353e-07,5.403090431436682e-05,5.691637697200047e-05
99.57735026920002,5.5773502692,8,0,-0.08497935711624027,16.21302732010987,-0.04104300935237477,-1.324235579885986e-05,5.194967091004457e-05,-3.283440748189982e-07,5.195008433923682e-05,5.640554588966393e-05
0.4226497308,6.4226497308,8,0,-0.07800789061953101,-1.262445000005847,0.2663383406996959,7.60330750022178e-07,-3.977417687523084e-06,2.130706725597567e-06,9.888673289464221e-07,1.871530994434128e-06
1.5773502692,6.4226497308,8,0,-0.03855817760669006,-1.104646147954483,0.3042689736143934,7.60330750022178e-07,-3.504021131368992e-06,2.434151788915147e-06,1.083240953426389e-06,2.00677233883648e-06
0.4226497308,7.577350269200001,8,0,0.02314046381970319,-1.237157911396038,0.3255129102189302,1.063775813339881e-06,-3.977417687523084e-06,2.604103281751442e-06,1.38021033763783e-06,2.057732588295541e-06
1.5773502692,7.577350269200001,8,0,0.06259017683254414,-1.079359059344674,0.3634435431336684,1.063775813339881e-06,-3.504021131368992e-06,2.907548345069347e-06,1.4872102678254e-06,2.188793421950854e-06
2.4226497308,6.4226497308,8,0,-0.1124803352726029,-1.006749611015235,0.6912835425889956,4.454626159398591e-07,-3.131614487030671e-06,5.530268340711965e-06,1.950074095992678e-06,2.173581742790686e-06
3.5773502692,6.4226497308,8,0,-0.06714389216444397,-0.8254038385825999,0.7356675008005629,4.454626159398591e-07,-2.587577169732764e-06,5.885340006404503e-06,2.239401805030795e-06,2.494072165190885e-06
2.4226497308,7.577350269200001,8,0,0.005876886624959388,-0.9771603055408449,0.7592882072512747,8.005342816325459e-07,-3.131614487030671e-06,6.074305658010197e-06,2.452435269171037e-06,2.353180533335533e-06
3.5773502692,7.577350269200001,8,0,0.05121332973313636,-0.795814533108137,0.8036721654628418,8.005342816325459e-07,-2.587577169732547e-06,6.429377323702735e-06,2.740216025051689e-06,2.671233640111744e-06
4.422649730800001,6.4226497308,8,0,-0.1539341582498019,-0.7267153151128265,0.9402971789668473,8.878294569089531e-08,-2.202341681761203e-06,7.522377431734778e-06,2.874995494669673e-06,2.74873990324693e-06
5.577350269200001,6.4226497308,8,0,-0.1115636908528514,-0.5572334455250245,1.006204798540401,8.878294569089531e-08,-1.693896072997797e-06,8.049638388323206e-06,3.319779626737851e-06,3.12401468029407e-06
4.422649730800001,7.577350269200001,8,0,0.02181949394632252,-0.6827769020639309,1.003852880062327,6.160439022793768e-07,-2.202341681761637e-06,8.030823040498618e-06,3.46235977574569e-06,2.927814481971166e-06
5.577350269200001,7.577350269200001,8,0,0.06418996134329108,-0.5132950324760567,1.069760499635894,6.160439022793768e-07,-1.693896072998014e-06,8.558083997087153e-06,3.893246756221426e-06,3.310753271433493e-06
6.422649730800001,6.4226497308,8,0,-0.1618867793359801,-0.4641380269156483,1.063726715662473,-1.467272723426177e-07,-1.35573226266129e-06,8.509813725299784e-06,3.546403962410242e-06,3.398838968105587e-06
7.577350269200001,6.4226497308,8,0,-0.1272671874697205,-0.3256596594506101,1.1585548168171,-1.467272723426177e-07,-9.402971602661759e-07,9.268438534536802e-06,4.107662528733294e-06,3.774398108545362e-06
6.422649730800001,7.577350269200001,8,0,0.0909881570765083,-0.4009192928125263,1.115656103461862,6.118975368948475e-07,-1.35573226266129e-06,8.925248827694899e-06,4.19786473433899e-06,3.595055818903657e-06
7.577350269200001,7.577350269200001,8,0,0.1256077489427588,-0.2624409253475242,1.21048420461653,6.118975368948475e-07,-9.402971602662843e-07,9.683873636932242e-06,4.739541540434273e-06,3.988846033884104e-06
8.4226497308,6.4226497308,8,0,-0.1102911056785817,-0.2380892570962854,1.073869943753395,-1.62460132494433e-07,-6.73652738165248e-07,8.590959550027161e-06,3.885021064271329e-06,4.05475427849014e-06
9.5773502692,6.4226497308,8,0,-0.084203521814481,-0.1337389216398827,1.202626687135555,-1.62460132494433e-07,-3.606017317960399e-07,9.62101349708444e-06,4.549995873465815e-06,4.445142438587476e-06
8.4226497308,7.577350269200001,8,0,0.2330602100071556,-0.1522514281748511,1.113001319549627,8.675938145627786e-07,-6.73652738165248e-07,8.904010556397019e-06,4.615179390297282e-06,4.28901671173418e-06
9.5773502692,7.577350269200001,8,0,0.2591477938712924,-0.04790109271830385,1.241758062931733,8.675938145627786e-07,-3.606017317956062e-07,9.934064503453865e-06,5.258346235417286e-06,4.715308039617399e-06
10.4226497308,6.4226497308,8,0,0.02723087275584333,-0.04418304231823188,0.9690146368522334,1.224852266732841e-07,-1.631704336230166e-07,7.752117094817867e-06,3.858346563241988e-06,4.768570167623583e-06
11.5773502692,6.4226497308,8,0,0.04609265036111467,0.0312640681028535,1.135121256272881,1.224852266732841e-07,6.317089764023946e-08,9.080970050183044e-06,4.63340994232229e-06,5.26180299586708e-06
10.4226497308,7.577350269200001,8,0,0.4701818578774086,0.06655470396202393,0.9973073032602353,1.451338182038088e-06,-1.631704336234503e-07,7.978458426081882e-06,4.71417100247504e-06,5.077359950297657e-06
11.5773502692,7.577350269200001,8,0,0.4890436354827432,0.1420018143833623,1.163413922680842,1.451338182038088e-06,6.317089764056472e-08,9.307311381446734e-06,5.462386141630065e-06,5.64021283741235e-06
12.4226497308,6.4226497308,8,0,0.288151728992874,0.1371662742963826,0.7364155428305743,8.123525133400906e-07,2.084106945541252e-07,5.891324342644595e-06,3.471481409370562e-06,5.729186895196199e-06
13.5773502692,6.4226497308,8,0,0.3023568267596189,0.1939866653633623,0.9400016111663203,8.123525133400906e-07,3.788718677550642e-07,7.520012889330563e-06,4.361860301260499e-06,6.512870626613804e-06
12.4226497308,7.577350269200001,8,0,0.8310479112216949,0.2728903198535879,0.7577231894806782,2.441041060026553e-06,2.084106945541252e-07,6.061785515845425e-06,4.554659390110028e-06,6.184538369791846e-06
13.5773502692,7.577350269200001,8,0,0.8452530089884308,0.3297107109205314,0.961309257816519,2.441041060026553e-06,3.788718677549558e-07,7.690474062532152e-06,5.391034618236442e-06,7.108810493058139e-06
14.4226497308,6.4226497308,8,0,0.7268905202841951,0.3394305797196652,0.3446785431538161,2.054505201133692e-06,5.046654388755727e-07,2.757428345230529e-06,2.861152135519952e-06,7.320125374575696e-06
15.5773502692,6.4226497308,8,0,0.7413249581492032,0.3971683311796976,0.578912258454887,2.054505201133692e-06,6.778786932556697e-07,4.631298067639096e-06,3.781974549867677e-06,8.741902629334953e-06
14.4226497308,7.577350269200001,8,0,1.351513761087008,0.4955863899203685,0.3663301999513283,3.92837492354213e-06,5.046654388755727e-07,2.930641599610626e-06,4.469875835603208e-06,8.053989184544489e-06
15.5773502692,7.577350269200001,8,0,1.365948198952088,0.55332414138069,0.6005639152523992,3.92837492354213e-06,6.778786932565371e-07,4.804511322019193e-06,5.203517074661422e-06,9.711993268760155e-06
16.4226497308,6.4226497308,8,0,1.417925647792254,0.6212563505592429,-0.2706804658676493,4.040356992487819e-06,8.536798035557736e-07,-2.165443726941194e-06,4.404296436551328e-06,1.021578243908957e-05
17.5773502692,6.4226497308,8,0,1.443516007042921,0.7236177875619094,-0.0269775046053656,4.040356992487819e-06,1.160764114563773e-06,-2.158200368429248e-07,4.206560007958483e-06,1.282071970900108e-05
16.4226497308,7.577350269200001,8,0,2.067800211158441,0.7837249914007896,-0.2322949269916493,5.98998068258638e-06,8.536798035557736e-07,-1.858359415933195e-06,6.19155777201108e-06,1.136670205803221e-05
17.5773502692,7.577350269200001,8,0,2.093390570409072,0.8860864284033116,0.01140803427066147,5.98998068258638e-06,1.16076411456334e-06,9.126427416529179e-08,6.101754378151047e-06,1.422944645803076e-05
18.4226497308,6.4226497308,8,0,2.448697881129609,1.100626539426633,-1.232653544815221,6.955331988073443e-06,1.563046621261537e-06,-9.861228358521768e-06,9.878810426594834e-06,1.543752092642951e-05
19.5773502692,6.4226497308,8,0,2.514695542490615,1.364617184870658,-1.030060620972918,6.955331988073443e-06,2.355018557593613e-06,-8.240484967783341e-06,9.373980104645189e-06,1.99818175361445e-05
18.4226497308,7.577350269200001,8,0,2.98894567804235,1.235688488654818,-1.133657052773739,8.576075378811666e-06,1.563046621261537e-06,-9.069256422189909e-06,1.08017940816039e-05,1.696752390178795e-05
19.5773502692,7.577350269200001,8,0,3.054943339403312,1.499679134098663,-0.9310641289314624,8.576075378811666e-06,2.355018557593071e-06,-7.448513031451699e-06,1.033611892827866e-05,2.158534619351039e-05
20.4226497308,6.4226497308,8,0,3.851026724103748,2.028273980086611,-2.735388249080516,1.07006663330627e-05,3.409655356994157e-06,-2.188310599264413e-05,1.858803959383232e-05,2.438812874486026e-05
21.5773502692,6.4226497308,8,0,4.025139172710934,2.724723774515355,-2.669370081387882,1.07006663330627e-05,5.499004740280389e-06,-2.135496065110306e-05,1.908950827674878e-05,3.188209823182876e-05
20.4226497308,7.577350269200001,8,0,4.027075171284226,2.072286091881731,-2.474219576169777,1.122881167460414e-05,3.409655356994157e-06,-1.979375660935822e-05,1.796033315622321e-05,2.5849415630759e-05
21.5773502692,7.577350269200001,8,0,4.201187619891394,2.768735886310402,-2.408201408477049,1.122881167460414e-05,5.499004740280172e-06,-1.926561126781639e-05,1.841371498453047e-05,3.288124768909668e-05
22.4226497308,6.4226497308,8,0,5.421479920046429,3.942439497107389,-5.014499764962761,1.419478414646266e-05,8.278622454706503e-06,-4.011599811970209e-05,3.151165258722242e-05,3.894515904858054e-05
23.5773502692,6.4226497308,8,0,5.880205539918869,5.777341976597148,-5.232212954027927,1.419478414646266e-05,1.378332989317578e-05,-4.185770363222341e-05,3.491891994319736e-05,5.074783057074722e-05
22.4226497308,7.577350269200001,8,0,4.840911415872611,3.797297371063935,-4.32641133515417,1.245307863394121e-05,8.278622454706503e-06,-3.461129068123335e-05,2.779691137702407e-05,3.918422056499773e-05
23.5773502692,7.577350269200001,8,0,5.299637035745033,5.632199850553622,-4.544124524219348,1.245307863394121e-05,1.378332989317556e-05,-3.635299619375479e-05,3.130686763305756e-05,4.937243064308235e-05
24.4226497308,6.4226497308,8,0,6.02070936547077,7.656417904356672,-7.649222466303755,1.314113564602112e-05,1.968396980156473e-05,-6.119377973043004e-05,4.718383542570242e-05,6.146390538287741e-05
25.5773502692,6.4226497308,8,0,6.905387747896164,11.19513143405825,-8.05569207515855,1.314113564602112e-05,3.030011039066946e-05,-6.444553660126841e-05,5.506600351592286e-05,7.89380947064042e-05
24.4226497308,7.577350269200001,8,0,4.936790408524655,7.385438165120143,-6.322204892665671,9.889378775182782e-06,1.968396980156473e-05,-5.057763914132537e-05,4.054532135340907e-05,5.815818430546665e-05
25.5773502692,7.577350269200001,8,0,5.821468790950027,10.92415169482163,-6.728674501520481,9.889378775182782e-06,3.030011039066919e-05,-5.382939601216385e-05,4.887929703781825e-05,7.197309961682072e-05
26.4226497308,6.4226497308,8,0,5.271654390534477,13.83851956628955,-9.240006660657071,5.798478396678684e-06,4.006593909969898e-05,-7.392005328525658e-05,6.367049890845516e-05,9.379605324100269e-05
27.57735026920001,6.4226497308,8,0.1447155972696263,5.653747234622385,16.41580377317916,-8.190471704168983,5.798478396678684e-06,5.613053872281321e-05,-7.661050923432784e-05,7.679704727902452e-05,0.0001169145615324764
26.4226497308,7.577350269200001,8,0,4.374835740844039,13.61431490386694,-7.231931707767781,3.10802244760737e-06,4.006593909969898e-05,-5.785545366214224e-05,5.591314106618822e-05,8.328883989036374e-05
27.57735026920001,7.577350269200001,8,0.003687142640301816,5.692485693510037,18.89923936714792,-7.540333525773775,3.10802244760737e-06,5.613053872281331e-05,-6.054590961121356e-05,6.98597900340348e-05,0.0001003891019328969
28.4226497308,6.4226497308,8,0.2660617979781119,3.879530762825635,17.45006665399005,-8.298682867910207,-2.105837900101456e-06,7.185426312082731e-05,-9.045647543674492e-05,9.329610596265088e-05,0.0001343290044090811
29.5773502692,6.4226497308,8,0.4011036978875621,4.507908727967244,19.60810807589271,-6.875608313685745,-2.105837900101456e-06,9.874767743912346e-05,-9.184372372224005e-05,0.0001165241109401711,0.0001587876388440201
28.4226497308,7.577350269200001,8,0.1160433506531728,4.263758885631038,20.91470649314895,-7.023373816061405,-3.493086185596801e-06,7.185426312082731e-05,-6.35630611184484e-05,8.346924280675273e-05,0.0001132716796940642
29.5773502692,7.577350269200001,8,0.2470968333402137,5.318968036834135,24.56331671052577,-6.112661703220263,-3.493086185596801e-06,9.87476774391234e-05,-6.495030940394369e-05,0.0001081907260906867,0.0001313672746289934
30.4226497308,6.4226497308,8,0.4701460782028717,3.337049609678839,20.33575659492297,-5.880045241352005,-1.055016542296429e-05,0.0001177773322963232,-8.877986931052096e-05,0.000131635714697122,0.0001742969775972182
31.5773502692,6.4226497308,8,0.5372676637632829,3.882063636526263,21.63063291342017,-5.028934739542946,-1.055016542296429e-05,0.0001428739019006073,-8.694330343009054e-05,0.000154335110276081,0.0001922106446296149
30.4226497308,7.577350269200001,8,0.3197314797122796,4.700821807994823,26.21277156595337,-5.415218007275174,-8.713599542533847e-06,0.0001177773322963232,-6.368329970623718e-05,0.0001253406202476852,0.0001432838051459528
31.5773502692,7.577350269200001,8,0.3960445026888973,5.436581091236319,28.32460729629631,-4.669084360604061,-8.713599542533847e-06,0.0001428739019006075,-6.184673382580671e-05,0.0001489394650637357,0.000157744777034686
32.4226497308,6.4226497308,8,0.5670862022242213,4.222756328884604,22.34487087892056,-3.349471552210216,-1.007839545221773e-05,0.0001573647735402571,-6.189632336819212e-05,0.0001629017596251442,0.0002013468426922386
33.57735026920001,6.4226497308,8,0.5882960477430194,4.513113123790077,23.23909654526883,-3.177149235279331,-1.007839545221773e-05,0.0001718580015031384,-6.173657975080488e-05,0.0001769526181731859,0.0002083937329560032
32.4226497308,7.577350269200001,8,0.4338379298749154,5.552642344140589,29.23002494613425,-3.354729328125967,-9.918651834830343e-06,0.0001573647735402571,-4.740309540531094e-05,0.0001606580909890564,0.0001658281282238689
33.57735026920001,7.577350269200001,8,0.466662218755369,5.874866513392884,30.11195575672954,-3.149583052641345,-9.918651834830343e-06,0.0001718580015031383,-4.724335178792364e-05,0.0001748774567093925,0.0001734512824803443
34.42264973080001,6.4226497308,8,0.5939740639109342,5.71811975208667,24.03168097509082,-1.593156284999886,-2.283995900182808e-06,0.000178133653271735,-3.1390236798083e-05,0.0001794888433134683,0.0002103669851106754
35.5773502692,6.4226497308,8,0.5892168292735294,5.875905501603659,24.67640585366883,-1.805342642853504,-2.283995900182808e-06,0.0001807858247919985,-3.515903808154074e-05,0.0001824586357020981,0.0002087111199898495
34.42264973080001,7.577350269200001,8,0.4798690999681259,6.671652501237001,30.62191856349465,-1.868444469765865,-6.052797183640486e-06,0.0001781336532717349,-2.873806527781933e-05,0.0001792478914352138,0.0001766970535901293
35.5773502692,7.577350269200001,8,0.4848166639843725,6.722053611625247,30.78608975311837,-2.093374494806707,-6.052797183640486e-06,0.0001807858247919986,-3.250686656127723e-05,0.0001821891996912974,0.0001779415109157027
36.4226497308,6.4226497308,8,0.5811015458535502,7.126890134180577,25.42589331075982,-0.7305348213433673,5.885277819402244e-06,0.0001806197796581871,-1.395154007587657e-05,0.0001809847066302233,0.0002059476445691159
37.5773502692,6.4226497308,8,0.563029299342054,7.321264773993747,26.0704416305864,-1.132310093297815,5.885277819402244e-06,0.000177513964395981,-2.073017878027791e-05,0.0001782153590651498,0.0002000535544347089
36.4226497308,7.577350269200001,8,0.4827267193907886,7.631778258641478,31.10475267925517,-1.102914269280874,-8.933608849990421e-07,0.0001806197796581871,-1.705735533808254e-05,0.0001810196320360432,0.0001774138830888975
37.5773502692,7.577350269200001,8,0.4719096715595646,7.654692232328117,31.20848798328119,-1.573444740324948,-8.933608849990421e-07,0.0001775139643959809,-2.38359940424839e-05,0.0001783065910205305,0.0001747279197329439
38.4226497308,6.4226497308,8,0.5472484509159961,7.983308180889518,26.70475690210716,-0.433548305443449,9.23857834528282e-06,0.0001746400994143497,-7.66068376919913e-06,0.0001749681647934895,0.0001951763136226659
39.5773502692,6.4226497308,8,0.5216653608654686,8.245240841404588,27.45704831698465,-0.8690394687638588,9.23857834528282e-06,0.0001698943695323121,-1.453441833668988e-05,0.0001704554862326721,0.0001877455340572565
38.4226497308,7.577350269200001,8,0.4609340721406103,8.270146171127049,31.48707630286066,-0.8359843607889142,2.364843777792136e-06,0.0001746400994143497,-1.240641365123671e-05,0.0001748762887283182,0.0001720766916296933
39.5773502692,7.577350269200001,8,0.4413469574527273,8.349709594777252,31.7474294145933,-1.346364182894307,2.364843777792136e-06,0.000169894369532312,-1.928014821872743e-05,0.0001704568899826088,0.0001675193651048038
40.4226497308,6.4226497308,8,0.5012614332971416,8.521182134874403,28.03360111012935,-0.2668976862645713,9.706291565734784e-06,0.0001662004572706314,-4.281163785331809e-06,0.0001665111656154159,0.0001821959831004858
41.5773502692,6.4226497308,8,0.4708350697518676,8.805277868086574,28.80082509815869,-0.6866025667994111,9.706291565734784e-06,0.0001608542311746272,-1.038016735504304e-05,0.0001613138857008249,0.0001744651074921607
40.4226497308,7.577350269200001,8,0.425191870760275,8.652280648417618,32.01724951289144,-0.6917377458940248,3.607287996023576e-06,0.0001662004572706314,-9.627389881335991e-06,0.0001663789284783889,0.0001639172133069672
41.5773502692,7.577350269200001,8,0.4003583806835795,8.758934309713023,32.33188721975677,-1.178775004374138,3.607287996023576e-06,0.0001608542311746271,-1.572639345104722e-05,0.0001612785042680989,0.0001586332781031729
42.4226497308,6.4226497308,8,0.4473827176831833,8.856142001364864,29.30535134799037,-0.07771848543627145,8.858523760696905e-06,0.0001568756777729156,-1.125096705053321e-06,0.0001571276062352772,0.0001689007877836271
43.57735026920001,6.4226497308,8,0.4136733393135922,9.126486637667359,30.01346073164367,-0.4657655467206322,8.858523760696905e-06,0.0001513522938343559,-6.355031458748464e-06,0.0001516778939218266,0.0001614296592380354
42.4226497308,7.577350269200001,8,0.3810008014472035,8.840857796892331,32.5558140785548,-0.5144255237487753,3.628589007001823e-06,0.0001568756777729156,-6.648480643612958e-06,0.0001569880443929653,0.0001547104598933451
43.57735026920001,7.577350269200001,8,0.3528104407428583,8.94559700165679,32.84690685641863,-0.960948303207128,3.628589007001823e-06,0.0001513522938343559,-1.187841539730802e-05,0.0001516285985006735,0.0001492770564385778
44.4226497308,6.4226497308,8,0.3881958487932107,9.050004782831731,30.42848236497763,0.1801995960927113,7.546907623905312e-06,0.00014732024874934,2.356304326961705e-06,0.0001475228375245399,0.0001561494625030714
45.5773502692,6.4226497308,8,0.352370994632384,9.283519532951511,31.02458278421719,-0.1727964895315772,7.546907623905312e-06,0.000141827880656759,-2.134512050565025e-06,0.0001420365502858988,0.000149194825294169
44.4226497308,7.577350269200001,8,0.331399798788287,8.889296737114085,33.00305792064362,-0.2620966080882053,3.056091246378731e-06,0.00014732024874934,-3.136063765619024e-06,0.0001473686290675346,0.0001453534920126121
45.5773502692,7.577350269200001,8,0.3010647393803267,8.972712204752394,33.22083640430305,-0.6663369325705689,3.056091246378731e-06,0.0001418278806567591,-7.6268801431457e-06,0.0001419632772080619,0.0001400675181084156
46.42264973080001,6.4226497308,8,0.3256982330151643,9.131765787136718,31.3365737636907,0.4999737705407377,6.158061139973724e-06,0.0001378783624278886,5.931750975844398e-06,0.0001380795327976582,0.0001443363138613972
47.57735026920001,6.4226497308,8,0.2888146823803935,9.317279775632533,31.79471576783867,0.180686427587121,6.158061139973724e-06,0.0001325804460533175,2.032510212014981e-06,0.0001327311641687108,0.0001380172509862483
46.42264973080001,7.577350269200001,8,0.2784069338386219,8.834322232180769,33.29985252731079,0.05717133167150518,2.258820376144395e-06,0.0001378783624278886,6.33834601273392e-07,0.0001378975923228494,0.0001363112821762677
47.57735026920001,7.577350269200001,8,0.24688684119911,8.887722326417716,33.42445511986847,-0.3074025437312922,2.258820376144395e-06,0.0001325804460533175,-3.265406162555862e-06,0.0001326197888095571,0.0001313350286681843
48.4226497308,6.4226497308,8,0.2617192508167083,9.115079341023234,31.99994509274975,0.8547967430369666,4.833253231947197e-06,0.000128823297816165,9.262565699919099e-06,0.0001290802074630698,0.0001336420591711211
49.57735026920001,6.4226497308,8,0.2248008423884359,9.250032116107819,32.31671117202023,0.5662640123067593,4.833253231947197e-06,0.000123856494314831,5.84380420692358e-06,0.0001240196216111318,0.0001280078757139746
48.4226497308,7.577350269200001,8,0.2236636703061834,8.700224292137904,33.42824551230168,0.416869532310884,1.414491738951652e-06,0.000128823297816165,4.295762198585197e-06,0.0001288668678658146,0.000127839937235429
49.57735026920001,7.577350269200001,8,0.1918415997786802,8.722349985500383,33.46048321590473,0.08859443590278221,1.414491738951652e-06,0.000123856494314831,8.770007055895973e-07,0.0001238661234396158,0.0001232674233717205
50.42264973080001,6.4226497308,8,0.1980256151949195,9.006751670305933,32.42076157885379,1.215297934609588,3.597366869263728e-06,0.0001203792010633253,1.212305986461117e-05,0.0001207376386520667,0.0001241372871904409
51.57735026920001,6.4226497308,8,0.1620531870540382,9.0941899898803,32.60875733065004,0.9541603833394208,3.597366869263728e-06,0.0001158458627283256,9.109507845586409e-06,0.0001160805605011302,0.0001191968261456506
50.42264973080001,7.577350269200001,8,0.1686933399027523,8.501112356183112,33.39778795814828,0.7886732569811903,5.838148502389782e-07,0.0001203792010633253,7.589721529611515e-06,0.0001205001859951775,0.0001200875066350469
51.57735026920001,7.577350269200001,8,0.1374192569314267,8.495063345246127,33.3507690718175,0.4934144621062058,5.838148502389782e-07,0.0001158458627283256,4.576169510586725e-06,0.0001158925166468665,0.0001159723264099553
52.4226497308,6.4226497308,8,0.1362988271531512,8.811855537545657,32.62329888821952,1.558120474291689,2.430584414573594e-06,0.000112706888762703,1.44320329602514e-05,0.0001131940471175387,0.0001158285720166857
53.5773502692,6.4226497308,8,0.1021849372825176,8.857448998457656,32.70202687056747,1.321231100529261,2.430584414573594e-06,0.0001086643907396209,1.177285751058971e-05,0.0001090098969928497,0.0001115667916479492
52.4226497308,7.577350269200001,8,0.1149618695465927,8.24505391586932,33.23310539139322,1.149391822134102,-2.285910350880707e-07,0.000112706888762703,1.038953493716946e-05,0.0001129453324626178,0.0001131373561778772
53.5773502692,7.577350269200001,8,0.08505413022819501,8.21545348373358,33.12324946421018,0.8841075606183191,-2.285910350880707e-07,0.0001086643907396209,7.730359487507805e-06,0.0001088014137039625,0.0001095072536906567
54.42264973080001,6.4226497308,8,0.0781007856211037,8.534592573782271,32.64274296561022,1.868530086062807,1.297866236301335e-06,0.0001058999746482068,1.621461484656261e-05,0.0001065267382142594,0.0001086859633649536
55.57735026920001,6.4226497308,8,0.04669120596046522,8.546525543102289,32.63951805171784,1.654054042232206,1.297866236301335e-06,0.0001023899474559628,1.388053107302908e-05,0.0001028674893648952,0.0001050771744963303
54.42264973080001,7.577350269200001,8,0.06388656634323583,7.937860022076848,32.96396153429957,1.486616896534714,-1.036217537232146e-06,0.0001058999746482068,1.270458765431881e-05,0.000106275995566047,0.0001070326425480934
55.57735026920001,7.577350269200001,8,0.03615147025585642,7.891114443082055,32.8129037095236,1.249449364775098,-1.036217537232146e-06,0.0001023899474559628,1.037050388078524e-05,0.0001026492589679661,0.0001039019816645676
56.4226497308,6.4226497308,8,0.02486687554804086,8.18467387228821,32.53176319367168,2.14846123105857,1.697674217332823e-07,0.000100041625779809,1.762599322849208e-05,0.0001008133482156566,0.0001026628865004801
57.57735026920001,6.4226497308,8,0,8.151249043912131,32.39278689848192,1.949498213065688,1.697674217332823e-07,9.713591884001243e-05,1.559598570452551e-05,9.775902729073301e-05,9.967571790005673e-05
56.4226497308,7.577350269200001,8,0.01683989231435629,7.586773344816058,32.63323570330522,1.80904978159468,-1.860240102233247e-06,0.000100041625779809,1.472028628869557e-05,0.0001005704876583646,0.00010179328649793
57.57735026920001,7.577350269200001,8,0,7.474579869256618,32.22361960481803,1.586284845591119,-1.860240102233247e-06,9.71359188400124e-05,1.269027876472895e-05,9.754095214866738e-05,9.916288504828215e-05
58.4226497308,6.4226497308,8,0,7.808490074814394,31.71834242978782,2.482183805655345,-3.875057044241996e-07,9.525190371546951e-05,1.985747044524276e-05,9.627177252605451e-05,9.769105668183182e-05
59.57735026920001,6.4226497308,8,0,7.621696899572578,30.97116972882056,2.249668054221033,-3.875057044241996e-07,9.301038561256772e-05,1.799734443376826e-05,9.38694847759742e-05,9.525602999802265e-05
58.4226497308,7.577350269200001,8,0,7.188448070989542,31.56333192883161,2.201994042792633,-2.247631715898756e-06,9.525190371546951e-05,1.761595234234107e-05,9.604121447895238e-05,9.739601352839962e-05
59.57735026920001,7.577350269200001,8,0,7.001654895747726,30.81615922786435,1.969478291358323,-2.247631715898756e-06,9.301038561256772e-05,1.575582633086658e-05,9.365749922612013e-05,9.519923221507678e-05
60.4226497308,6.4226497308,8,0,7.274563502162081,30.41503000584444,2.600491598029222,-1.053420797756894e-06,9.150844521697255e-05,2.080393278423378e-05,9.266300171751647e-05,9.363087218161611e-05
61.5773502692,6.4226497308,8,0,7.119408554830501,29.79441021651812,2.389016125066779,-1.053420797756894e-06,8.964658584899357e-05,1.911212900053423e-05,9.064246875259009e-05,9.16258851404961e-05
60.4226497308,7.577350269200001,8,0,6.710628907595555,30.27404635720281,2.367759177031867,-2.745224581456474e-06,9.150844521697255e-05,1.894207341625494e-05,9.245071790199056e-05,9.371350478753063e-05
61.5773502692,7.577350269200001,8,0,6.555473960263975,29.65342656787649,2.156283704069424,-2.745224581456474e-06,8.964658584899359e-05,1.725026963255539e-05,9.044487824637836e-05,9.18512032824262e-05
62.42264973080001,6.4226497308,8,0,6.721319351446548,29.3045099322476,2.58552578054518,-1.935386021169132e-06,8.839737630203509e-05,2.068420624436144e-05,8.956630655866936e-05,9.027949461090137e-05
63.57735026920001,6.4226497308,8,0,6.592065636133468,28.78749507099528,2.39926891683274,-1.935386021169132e-06,8.684633171827813e-05,1.919415133466192e-05,8.787190393418911e-05,8.860607431818256e-05
62.42264973080001,7.577350269200001,8,0,6.224634381546716,29.18033868977265,2.391645207575563,-3.425440930868628e-06,8.839737630203509e-05,1.913316166060451e-05,8.938348265097897e-05,9.058537841625101e-05
63.57735026920001,7.577350269200001,8,0,6.095380666233636,28.66332382852033,2.205388343863119,-3.425440930868628e-06,8.684633171827813e-05,1.764310675090496e-05,8.77003142591491e-05,8.89893820733337e-05
64.4226497308,6.4226497308,8,0,6.160750108832466,28.35339327003577,2.503512029236282,-2.968314267764728e-06,8.580225837704849e-05,2.002809623389026e-05,8.691790393092886e-05,8.747534250344726e-05
65.57735026920001,6.4226497308,8,0,6.052298706213152,27.91958765955852,2.342455906580468,-2.968314267764728e-06,8.450084154561673e-05,1.873964725264375e-05,8.549329013817788e-05,8.605954602844331e-05
64.4226497308,7.577350269200001,8,0,5.731267115083623,28.24602252159856,2.340834925307305,-4.256763249011256e-06,8.580225837704849e-05,1.872667940245844e-05,8.676545322938896e-05,8.790016203747637e-05
65.57735026920001,7.577350269200001,8,0,5.622815712464305,27.81221691112129,2.179778802651486,-4.256763249011256e-06,8.450084154561669e-05,1.743823042121189e-05,8.534925520540333e-05,8.652035390168292e-05
66.4226497308,6.4226497308,8,0,5.604576962347288,27.53175812384685,2.391141535059293,-4.090760219566155e-06,8.361796442643208e-05,1.912913228047435e-05,8.464885603173169e-05,8.509551984934623e-05
67.57735026920001,6.4226497308,8,0,5.512022936087034,27.16154201880583,2.253163857178412,-4.090760219566155e-06,8.250731611130902e-05,1.80253108574273e-05,8.343535860838794e-05,8.387754782311852e-05
66.4226497308,7.577350269200001,8,0,5.236636487998273,27.43977300525959,2.252310495668908,-5.194581642613201e-06,8.361796442643208e-05,1.801848396535126e-05,8.452265613466213e-05,8.557353460890031e-05
67.57735026920001,7.577350269200001,8,0,5.144082461738016,27.06955690021856,2.114332817788032,-5.194581642613201e-06,8.250731611130899e-05,1.691466254230426e-05,8.33154331632258e-05,8.436658433111529e-05
68.42264973080002,6.4226497308,8,0,5.060704414593522,26.810799093191,2.267258893794105,-5.254385147853532e-06,8.174599356653637e-05,1.813807115035284e-05,8.268130668625319e-05,8.304031246123448e-05
69.57735026920001,6.4226497308,8,0,4.979927451407525,26.48769124044701,2.149629871676776,-5.254385147853532e-06,8.077667000830441e-05,1.719703897341421e-05,8.162764616808622e-05,8.197091494080452e-05
68.42264973080002,7.577350269200001,8,0,4.747027022280687,26.73237974511279,2.146093449015117,-6.195417324792037e-06,8.174599356653637e-05,1.716874759212094e-05,8.257611859152141e-05,8.35321971081718e-05
69.57735026920001,7.577350269200001,8,0,4.666250059094686,26.4092718923688,2.028464426897786,-6.195417324792037e-06,8.077667000830439e-05,1.622771541518229e-05,8.152715740679308e-05,8.245955909959204e-05
70.4226497308,6.4226497308,8,0,4.534335811017323,26.16603566944209,2.141378098999394,-6.422953940298235e-06,8.010384549340081e-05,1.713102479199515e-05,8.094361751811522e-05,8.122750770804653e-05
71.57735026920001,6.4226497308,8,0,4.461930210922252,25.8764132690618,2.041369591579285,-6.422953940298235e-06,7.923497829225995e-05,1.633095673263428e-05,8.000641785689369e-05,8.026587889778114e-05
70.4226497308,7.577350269200001,8,0,4.267646457897039,26.09936333116202,2.032769698856799,-7.223021999659088e-06,8.010384549340081e-05,1.626215759085439e-05,8.085448484217542e-05,8.171101539099148e-05
71.57735026920001,7.577350269200001,8,0,4.195240857801965,25.80974093078172,1.932761191436686,-7.223021999659088e-06,7.923497829225993e-05,1.546208953149349e-05,7.992084472687136e-05,8.073859395590152e-05
72.4226497308,6.4226497308,8,0,4.028750592334695,25.57698514464109,2.017918863552872,-7.569586220241846e-06,7.862335198898372e-05,1.614335090842298e-05,7.937272184228077e-05,7.95888686471315e-05
73.57735026920001,6.4226497308,8,0,3.961906681107489,25.30960949973227,1.933046845441128,-7.569586220241846e-06,7.782122505425725e-05,1.546437476352902e-05,7.851573050513969e-05,7.870087105529848e-05
72.4226497308,7.577350269200001,8,0,3.802425210703403,25.52040379923326,1.917652996712064,-8.248562365135721e-06,7.862335198898372e-05,1.534122397369651e-05,7.929545149253674e-05,8.005242520437884e-05
73.57735026920001,7.577350269200001,8,0,3.735581299476199,25.25302815432445,1.832780978600318,-8.248562365135721e-06,7.782122505425727e-05,1.466224782880254e-05,7.844119882177551e-05,7.915019874766297e-05
74.4226497308,6.4226497308,8,0,3.546011084217296,25.02653654585421,1.898510575007204,-8.673993767188016e-06,7.724810807935962e-05,1.518808460005764e-05,7.791412873883993e-05,7.806713771501104e-05
75.57735026920001,6.4226497308,8,0,3.482372937597239,24.77198395937398,1.826606112802751,-8.673993767188016e-06,7.648445031991892e-05,1.461284890242201e-05,7.710677903667362e-05,7.72237436226548e-05
74.4226497308,7.577350269200001,8,0,3.354265851672066,24.9786002377179,1.803053355077114,-9.249229464823708e-06,7.724810807935962e-05,1.442442684061691e-05,7.784534416710833e-05,7.850570424013391e-05
75.57735026920001,7.577350269200001,8,0,3.29062770505201,24.72404765123768,1.731148892872655,-9.249229464823708e-06,7.648445031991895e-05,1.384919114298124e-05,7.704013898343558e-05,7.764713895700642e-05
76.42264973080002,6.4226497308,8,0,3.087482861381973,24.50017981677869,1.783229212973163,-9.720198697000641e-06,7.593058912458623e-05,1.42658337037853e-05,7.652054810226576e-05,7.661342612381551e-05
77.57735026920001,6.4226497308,8,0,3.02502293083086,24.25034009457424,1.722433656810951,-9.720198697000641e-06,7.518106995797287e-05,1.377946925448761e-05,7.573653750033522e-05,7.578940180052353e-05
76.42264973080002,7.577350269200001,8,0,2.925361378282735,24.45964944600388,1.689539317146498,-1.020656314629836e-05,7.593058912458623e-05,1.351631453717198e-05,7.645759693983017e-05,7.702592281441916e-05
77.57735026920001,7.577350269200001,8,0,2.862901447731621,24.20980972379943,1.628743760984281,-1.020656314629836e-05,7.518106995797287e-05,1.302995008787425e-05,7.567529424598804e-05,7.61872940334441e-05
78.4226497308,6.4226497308,8,0,2.654209952885303,23.98531419435508,1.671263863095003,-1.069477950625109e-05,7.462963745962799e-05,1.337011090476003e-05,7.515022646646666e-05,7.51850306314713e-05
79.57735026920001,6.4226497308,8,0,2.591124749895822,23.73297338239715,1.61999326857832,-1.069477950625109e-05,7.387261502375421e-05,1.295994614862656e-05,7.436626112462946e-05,7.435788221421251e-05
78.4226497308,7.577350269200001,8,0,2.517488367507485,23.95113379801062,1.576636058610787,-1.110494426238455e-05,7.462963745962799e-05,1.261308846888629e-05,7.509105677955255e-05,7.557277897939617e-05
79.57735026920001,7.577350269200001,8,0,2.454403164518004,23.6987929860527,1.525365464094107,-1.110494426238455e-05,7.387261502375423e-05,1.220292371275286e-05,7.430846971042752e-05,7.473252141062495e-05
80.4226497308,6.4226497308,8,0,2.247184031670171,23.47066431094985,1.561267666230805,-1.158554254741533e-05,7.330837856970337e-05,1.249014132984644e-05,7.376532655418679e-05,7.374370753474728e-05
81.57735026920001,6.4226497308,8,0,2.181809012991734,23.2091642362361,1.518167180179647,-1.158554254741533e-05,7.252387834556213e-05,1.214533744143718e-05,7.296006076012778e-05,7.289289952291334e-05
80.4226497308,7.577350269200001,8,0,2.132249402200434,23.44193065358241,1.463205138213151,-1.193034643582454e-05,7.330837856970337e-05,1.170564110570521e-05,7.370837878381258e-05,7.410951810531369e-05
81.57735026920001,7.577350269200001,8,0,2.066874383521998,23.18043057886867,1.420104652161994,-1.193034643582454e-05,7.252387834556215e-05,1.136083721729595e-05,7.290423216005075e-05,7.324769899061883e-05
82.4226497308,6.4226497308,8,0,1.867544018930182,22.94579744290881,1.451530638744539,-1.238049709375047e-05,7.193251660216404e-05,1.161224510995632e-05,7.233047049271565e-05,7.22544365184988e-05
83.57735026920001,6.4226497308,8,0,1.79828317688488,22.6687540747276,1.415427806331904,-1.238049709375047e-05,7.110138649762042e-05,1.132342245065523e-05,7.148361167676963e-05,7.1360931163445e-05
82.4226497308,7.577350269200001,8,0,1.77126979916316,22.92172888796706,1.347639375676595,-1.266931975305153e-05,7.193251660216404e-05,1.078111500541276e-05,7.227460240948505e-05,7.260210345541482e-05
83.57735026920001,7.577350269200001,8,0,1.702008957117857,22.64468551978585,1.311536543263955,-1.266931975305153e-05,7.110138649762042e-05,1.049229234611164e-05,7.142864826526591e-05,7.170012276671767e-05
84.42264973080002,6.4226497308,8,0,1.516733949559934,22.40071959347461,1.340048121397078,-1.30670270361879e-05,7.04689155394708e-05,1.072038497117663e-05,7.081145468530272e-05,7.068479356689472e-05
85.57735026920001,6.4226497308,8,0,1.441999558934394,22.10178203097245,1.309908324180239,-1.30670270361879e-05,6.957210285196432e-05,1.047926659344191e-05,6.990299053750354e-05,6.973105665518716e-05
84.42264973080002,7.577350269200001,8,0,1.436361156981703,22.38062639533005,1.22794653545877,-1.330814541392259e-05,7.04689155394708e-05,9.823572283670164e-06,7.075590673827056e-05,7.101884576932714e-05
85.57735026920001,7.577350269200001,8,0,1.361626766356164,22.0816888328279,1.19780673824193,-1.330814541392259e-05,6.957210285196434e-05,9.582453905935439e-06,6.984815955893726e-05,7.00595430870462e-05
86.4226497308,6.4226497308,8,0,1.196639927696669,21.82552674651653,1.224524185738558,-1.363117362858388e-05,6.888437364669555e-05,9.79619348590846e-06,6.917410579746698e-05,6.9005259637009e-05
87.57735026920002,6.4226497308,8,0,1.114798390761933,21.49816059877758,1.199408626244136,-1.363117362858388e-05,6.790227520347871e-05,9.595269009953086e-06,6.818360940726504e-05,6.797608221898753e-05
86.4226497308,7.577350269200001,8,0,1.129665102378213,21.80878304018691,1.101761880336457,-1.383209810453925e-05,6.888437364669555e-05,8.814095042691654e-06,6.91185137863842e-05,6.933087135288575e-05
87.57735026920002,7.577350269200001,8,0,1.047823565443477,21.48141689244797,1.076646320842038,-1.383209810453925e-05,6.790227520347871e-05,8.613170566736306e-06,6.812856274935374e-05,6.829940583531633e-05
88.42264973080002,6.4226497308,8,0,0.9097219841568656,21.210089636287,1.102329990371743,-1.405696135972763e-05,6.714450924879289e-05,8.818639922973948e-06,6.738323782163774e-05,6.719122354265634e-05
89.57735026920001,6.4226497308,8,0,0.8190422637136257,20.84737075451404,1.081355249032085,-1.405696135972763e-05,6.605635260347403e-05,8.650841992256679e-06,6.628921082540201e-05,6.607612718008856e-05
88.42264973080002,7.577350269200001,8,0,0.8537893405844521,21.1961064753939,0.9663104097068874,-1.422475929044487e-05,6.714450924879289e-05,7.7304832776551e-06,6.732770534217681e-05,6.751421005468791e-05
89.57735026920001,7.577350269200001,8,0,0.7631096201412149,20.83338759362095,0.9453356683672357,-1.422475929044487e-05,6.605635260347405e-05,7.562685346937885e-06,6.623406527193482e-05,6.64004808056006e-05
90.42264973080002,6.4226497308,8,0,0.6591536063010803,20.54375296655365,0.970425702495579,-1.432571083307946e-05,6.521268660793081e-05,7.763405619964632e-06,6.540167582902347e-05,6.522832305641701e-05
91.57735026920001,6.4226497308,8,0,0.5577551296992773,20.13815906014644,0.9527231253251701,-1.432571083307946e-05,6.399590488870918e-05,7.621785002601361e-06,6.418089443966499e-05,6.402717547814917e-05
90.42264973080002,7.577350269200001,8,0,0.6119467338466764,20.53195124844005,0.8183279875928869,-1.446733145044268e-05,6.521268660793081e-05,6.546623900743095e-06,6.53469304244212e-05,6.555513770421526e-05
91.57735026920001,7.577350269200001,8,0,0.5105482572448734,20.12635734203284,0.8006254104224815,-1.446733145044268e-05,6.399590488870918e-05,6.405003283379852e-06,6.412639897150643e-05,6.435934665039179e-05
92.42264973080002,6.4226497308,8,0,0.4489802983182916,19.81503192600921,0.8252472911033583,-1.441528858618883e-05,6.304891792457482e-05,6.601978328826866e-06,6.318932876397639e-05,6.312459136037662e-05
93.57735026920001,6.4226497308,8,0,0.3347773999008714,19.35822033233953,0.8099199079842082,-1.441528858618883e-05,6.167848314356578e-05,6.479359263873666e-06,6.181616285344115e-05,6.185983327068022e-05
92.42264973080002,7.577350269200001,8,0,0.4081072766672476,19.80481367059645,0.6539429434772321,-1.453790765114196e-05,6.304891792457482e-05,5.231543547817857e-06,6.313700636419417e-05,6.346218042367522e-05
93.57735026920001,7.577350269200001,8,0,0.2939043782498292,19.34800207692677,0.6386155603580839,-1.453790765114196e-05,6.167848314356581e-05,5.108924482864671e-06,6.176400233102035e-05,6.220686776316992e-05
94.4226497308,6.4226497308,8,0,0.284308473356262,19.01128972871306,0.6625540640769501,-1.42992446682304e-05,6.060868035319677e-05,5.3004325126156e-06,6.070232700683792e-05,6.093664240570048e-05
95.57735026920002,6.4226497308,8,0,0.1549484069827329,18.49384946321894,0.6486281486101568,-1.42992446682304e-05,5.905635955671442e-05,5.189025188881255e-06,5.914801030125902e-05,5.967919614708156e-05
94.4226497308,7.577350269200001,8,0,0.2471726987781313,19.00200578506853,0.4685139645166538,-1.44106519919648e-05,6.060868035319677e-05,3.74811171613323e-06,6.065546691163951e-05,6.129185674885934e-05
95.57735026920002,7.577350269200001,8,0,0.1178126324046032,18.48456551957441,0.4545880490498598,-1.44106519919648e-05,5.905635955671443e-05,3.636704392398878e-06,5.910133731803552e-05,6.00473128286767e-05
96.4226497308,6.4226497308,8,0,0.1715371340914347,18.11837965469067,0.4772279030619922,-1.394578489465994e-05,5.784158518773699e-05,3.817823224495937e-06,5.789230957804998e-05,5.882492390159094e-05
97.57735026920001,6.4226497308,8,0,0.02432842580498029,17.52954482154485,0.4635954962814918,-1.394578489465994e-05,5.607508068829953e-05,3.708763970251934e-06,5.612415640440557e-05,5.774845498193426e-05
96.4226497308,7.577350269200001,8,0,0.1351840493434242,18.10929138350367,0.2564148406323103,-1.405484414890397e-05,5.784158518773699e-05,2.051318725058483e-06,5.78562140522574e-05,5.920282095934531e-05
97.57735026920001,7.577350269200001,8,0,-0.01202465894303195,17.52045655035784,0.2427824338518083,-1.405484414890397e-05,5.607508068829951e-05,1.942259470814466e-06,5.608852590717392e-05,5.814017018583772e-05
98.42264973080002,6.4226497308,8,0,0.1186471656294943,17.12023362703176,0.2630097555305744,-1.331651597161102e-05,5.468982987399802e-05,2.104078044244595e-06,5.470610072857196e-05,5.716921183579673e-05
99.57735026920002,6.4226497308,8,0,-0.04952542658893844,16.44754325815802,0.2483573266045245,-1.331651597161102e-05,5.267175876737683e-05,1.986858612836196e-06,5.268671109366043e-05,5.666315905020237e-05
98.42264973080002,7.577350269200001,8,0,0.07957402182670048,17.11046534108106,0.01075086720293272,-1.34337354030194e-05,5.468982987399802e-05,8.600693762346174e-08,5.468985702022247e-05,5.756876389281553e-05
99.57735026920002,7.577350269200001,8,0,-0.08859857039173136,16.43777497220733,-0.00390156172312063,-1.34337354030194e-05,5.267175876737684e-05,-3.121249378496504e-08,5.267176245171399e-05,5.707030364195555e-05
0.4226497308,8.422649730800002,8,0,-0.07596620578781987,-1.901709319864553,0.2284213665342059,1.278275597370619e-06,-6.024696858936314e-06,1.827370932273647e-06,1.390852706280451e-06,2.179719616612133e-06
1.5773502692,8.422649730800002,8,0,0.00613471402072252,-1.573305640630384,0.2637437721457003,1.278275597370619e-06,-5.039485821233805e-06,2.109950177165603e-06,1.449785221517616e-06,2.304059779430817e-06
0.4226497308,9.5773502692,8,0,0.01822687584274163,-1.878161049456913,0.3515727462469653,1.560854842262303e-06,-6.024696858936314e-06,2.812581969975723e-06,1.813175157064682e-06,2.326792781990163e-06
1.5773502692,9.5773502692,8,0,0.100327795651284,-1.549757370222743,0.3868951518584598,1.560854842262303e-06,-5.039485821233805e-06,3.095161214867678e-06,1.905698907612751e-06,2.436952241368488e-06
2.4226497308,8.422649730800002,8,0,-0.01969648640415966,-1.372407899212329,0.6514590452980344,1.034897562876552e-06,-4.375948088356126e-06,5.211672362384276e-06,2.08576211558684e-06,2.462762750304846e-06
3.5773502692,8.422649730800002,8,0,0.04927082704046687,-1.096538645433823,0.6871116360632971,1.034897562876552e-06,-3.548340327020607e-06,5.496893088506377e-06,2.321752565781238e-06,2.772007167244568e-06
2.4226497308,9.5773502692,8,0,0.07537708896973844,-1.348639505368855,0.7549100154650555,1.320118288998247e-06,-4.375948088356126e-06,6.039280123720445e-06,2.622930694534117e-06,2.582548144138927e-06
3.5773502692,9.5773502692,8,0,0.1443444024143831,-1.072770251590276,0.7905626062302369,1.320118288998247e-06,-3.54834032702039e-06,6.324500849841895e-06,2.876540566116881e-06,2.87016408852021e-06
4.422649730800001,8.422649730800002,8,0,0.06761293690542519,-0.9176943659153669,0.8700015466885281,9.505168908296541e-07,-2.990712320453514e-06,6.960012373508225e-06,2.979122832221558e-06,3.025851093278605e-06
5.577350269200001,8.422649730800002,8,0,0.1256012939382185,-0.6857409377841936,0.9183185769296006,9.505168908296541e-07,-2.294852036059994e-06,7.346548615436805e-06,3.34355764304007e-06,3.410121179486113e-06
4.422649730800001,9.5773502692,8,0,0.1964583508818219,-0.8854830124212678,0.9569840822376097,1.337053132758844e-06,-2.990712320453514e-06,7.655872657900877e-06,3.570383727450957e-06,3.114617517659563e-06
5.577350269200001,9.5773502692,8,0,0.2544467079145881,-0.653529584290203,1.005301112478804,1.337053132758844e-06,-2.29485203606032e-06,8.042408899830433e-06,3.933330032050419e-06,3.494860761799824e-06
6.422649730800001,8.422649730800002,8,0,0.2086561761797754,-0.5199339120763867,0.9374114203828776,1.08364689343639e-06,-1.830713459588258e-06,7.499291363063021e-06,3.649303626848255e-06,3.700343670784561e-06
7.577350269200001,8.422649730800002,8,0,0.2563386668743759,-0.3292039492979845,1.003688720548654,1.08364689343639e-06,-1.258523571253051e-06,8.02950976438923e-06,4.094630214513694e-06,4.108976176337338e-06
6.422649730800001,9.5773502692,8,0,0.3853956432886654,-0.4757490452991642,1.00893515642467,1.61386529476306e-06,-1.830713459588258e-06,8.07148125139736e-06,4.279455029031436e-06,3.791778580757135e-06
7.577350269200001,9.5773502692,8,0,0.4330781339832569,-0.2850190825207982,1.075212456590527,1.61386529476306e-06,-1.258523571253159e-06,8.601699652724219e-06,4.711980476053744e-06,4.222729903715274e-06
8.4226497308,8.422649730800002,8,0,0.4250921667582084,-0.1676570740721365,0.870552380206717,1.494420592883976e-06,-8.765763704374034e-07,6.964419041653735e-06,3.987398670474015e-06,4.427632980817727e-06
9.5773502692,8.422649730800002,8,0,0.4643679392704198,-0.0105539840232909,0.9558609625734312,1.494420592883976e-06,-4.052671002908667e-07,7.64688770058745e-06,4.484237418137328e-06,4.889587055319923e-06
8.4226497308,9.5773502692,8,0,0.6525817197361313,-0.1107846858276557,0.9294660389750883,2.176889251817745e-06,-8.765763704374034e-07,7.435728311800706e-06,4.669289053369447e-06,4.572077237481673e-06
9.5773502692,9.5773502692,8,0,0.6918574922483427,0.04631840422118982,1.014774621341816,2.176889251817745e-06,-4.052671002908667e-07,8.118196970734529e-06,5.145290312782271e-06,5.095560579902633e-06
10.4226497308,8.422649730800002,8,0,0.7386476241558736,0.159381406573367,0.6654633768828522,2.236167272040102e-06,-8.089759828992446e-08,5.323707015062818e-06,3.980678325851208e-06,5.291474346392146e-06
11.5773502692,8.422649730800002,8,0,0.7732213483045953,0.2976763031682537,0.7673808761166171,2.236167272040102e-06,3.339870914947354e-07,6.139047008932937e-06,4.498571682196353e-06,5.927496770062162e-06
10.4226497308,9.5773502692,8,0,1.010427622112544,0.2273264060626701,0.7173239631059212,3.051507265910004e-06,-8.089759828949078e-08,5.738591704847369e-06,4.754226482772024e-06,5.567655972505008e-06
11.5773502692,9.5773502692,8,0,1.045001346261229,0.3656213026574122,0.8192414623395912,3.051507265910004e-06,3.339870914947354e-07,6.553931698716729e-06,5.240244064176617e-06,6.333961228747745e-06
12.4226497308,8.422649730800002,8,0,1.17462829110075,0.4948973865219748,0.3026178541994009,3.362892622304819e-06,6.439690039897195e-07,2.420942833595207e-06,3.828083720220822e-06,6.546664151968047e-06
13.5773502692,8.422649730800002,8,0,1.210628428152007,0.6388979347270014,0.4138499490245572,3.362892622304819e-06,1.075970648604799e-06,3.310799592196457e-06,4.236443861973782e-06,7.602238474126228e-06
12.4226497308,9.5773502692,8,0,1.47124721063459,0.569052116405435,0.3566180597763401,4.25274938090634e-06,6.439690039897195e-07,2.852944478210721e-06,4.750812506590351e-06,7.080658713050467e-06
13.5773502692,9.5773502692,8,0,1.507247347685883,0.7130526646106061,0.467850154601537,4.25274938090634e-06,1.075970648605233e-06,3.742801236812296e-06,5.123267578665109e-06,8.35436892189336e-06
14.4226497308,8.422649730800002,8,0,1.761231493451211,0.8917814978154207,-0.2554482665082804,4.922515580791539e-06,1.444715598248377e-06,-2.043586132066243e-06,5.329773441952703e-06,8.660575400306461e-06
15.5773502692,8.422649730800002,8,0,1.809183851191821,1.083590928777861,-0.1501766336105059,4.922515580791539e-06,2.020143891135699e-06,-1.201413068884047e-06,5.388305639537445e-06,1.049643133212187e-05
14.4226497308,9.5773502692,8,0,2.041955847845327,0.9619625864139496,-0.183519729897311,5.764688643973884e-06,1.444715598248377e-06,-1.468157839178488e-06,6.032957984451263e-06,9.583935951040769e-06
15.5773502692,9.5773502692,8,0,2.089908205585937,1.15377201737639,-0.07824809699957716,5.764688643973884e-06,2.020143891135699e-06,-6.259847759966172e-07,6.12442201132026e-06,1.166946533728293e-05
16.4226497308,8.422649730800002,8,0,2.519407086888435,1.436333896661722,-1.069715417745362,6.913035560713614e-06,2.580742799806763e-06,-8.557723341962899e-06,9.54280904415967e-06,1.227239845638714e-05
17.5773502692,8.422649730800002,8,0,2.599086787583077,1.755052699440289,-0.9981892758420492,6.913035560713614e-06,3.536899208142464e-06,-7.985514206736394e-06,9.601246546425323e-06,1.528857494084271e-05
16.4226497308,9.5773502692,8,0,2.710143465297302,1.484017991263939,-0.9501958667035488,7.485244695940214e-06,2.580742799806763e-06,-7.60156693362839e-06,9.569797880836973e-06,1.359588741408753e-05
17.5773502692,9.5773502692,8,0,2.789823165991899,1.802736794042325,-0.878669724800195,7.485244695940214e-06,3.536899208141922e-06,-7.02935779840156e-06,9.656318123158042e-06,1.677344101872165e-05
18.4226497308,8.422649730800002,8,0,3.429743308414726,2.275752267576132,-2.22236615203551,9.154576772866217e-06,4.538612609511841e-06,-1.777892921628408e-05,1.603078558145002e-05,1.808133680812774e-05
19.5773502692,8.422649730800002,8,0,3.578124599993666,2.869277433891889,-2.22739717576861,9.154576772866217e-06,6.319188108459112e-06,-1.781917740614888e-05,1.675855789910794e-05,2.269512763886016e-05
18.4226497308,9.5773502692,8,0,3.416327245126551,2.272398251754088,-1.99979421466721,9.11432858300169e-06,4.538612609511841e-06,-1.599835371733768e-05,1.514639394829407e-05,1.959432728314491e-05
19.5773502692,9.5773502692,8,0,3.56470853670548,2.865923418069809,-2.004825238400296,9.11432858300169e-06,6.319188108459004e-06,-1.603860190720237e-05,1.585692974150179e-05,2.412357827561599e-05
20.4226497308,8.422649730800002,8,0,4.363626303052668,3.660501134275978,-3.784713485409185,1.103520326234775e-05,8.222702587240994e-06,-3.027770788327348e-05,2.483297997942958e-05,2.682359985853865e-05
21.5773502692,8.422649730800002,8,0,4.648619867240216,4.800475391026167,-3.916850155486802,1.103520326234775e-05,1.164262535749156e-05,-3.133480124389442e-05,2.700925836003576e-05,3.348900489008404e-05
20.4226497308,9.5773502692,8,0,4.011261849512306,3.572410020890887,-3.357223139127837,9.978109901726667e-06,8.222702587240994e-06,-2.685778511302269e-05,2.255795130308435e-05,2.802383377897933e-05
21.5773502692,9.5773502692,8,0,4.296255413699835,4.712384277641004,-3.489359809205508,9.978109901726667e-06,1.164262535749134e-05,-2.791487847364407e-05,2.479259788716088e-05,3.415027898465005e-05
22.4226497308,8.422649730800002,8,0,4.946128245080163,5.948541012941468,-5.648456069137558,1.106877757390335e-05,1.507842864534857e-05,-4.518764855310047e-05,3.575620042272738e-05,3.927102637405784e-05
23.5773502692,8.422649730800002,8,0,5.443367109862665,7.937496472071473,-5.903490483716808,1.106877757390335e-05,2.104529502273858e-05,-4.722792386973446e-05,4.019211291645265e-05,4.840239780785527e-05
22.4226497308,9.5773502692,8,0,4.266036472868818,5.778518069888835,-4.902597771963942,9.02850225726915e-06,1.507842864534922e-05,-3.922078217571154e-05,3.189578993570239e-05,3.92691227383951e-05
23.5773502692,9.5773502692,8,0,4.763275337651229,7.767473529018479,-5.157632186543204,9.02850225726915e-06,2.104529502273815e-05,-4.126105749234564e-05,3.652455889976018e-05,4.712761874455699e-05
24.4226497308,8.422649730800002,8,0,4.814919842260185,9.457315404867543,-7.294980484905989,7.841891171338555e-06,2.641147342176799e-05,-5.835984387924791e-05,4.774816479889814e-05,5.60132416646754e-05
25.5773502692,8.422649730800002,8,0,5.539403646582072,12.3552506221551,-7.587740896277205,7.841891171338555e-06,3.510527907363064e-05,-6.070192717021764e-05,5.474525581276274e-05,6.767508233706805e-05
24.4226497308,9.5773502692,8,0,4.034225411937073,9.262141797286764,-6.208254778423191,5.49980788036922e-06,2.641147342176799e-05,-4.966603822738553e-05,4.290008863631895e-05,5.34588704678744e-05
25.5773502692,9.5773502692,8,0,4.758709216258975,12.16007701457437,-6.501015189794339,5.49980788036922e-06,3.510527907363081e-05,-5.200812151835471e-05,5.022464495919454e-05,6.289767584605907e-05
26.4226497308,8.422649730800002,8,0,4.002353876388026,13.93186428715277,-7.745835211198089,1.662040974719466e-06,4.138008261777844e-05,-6.196668168958471e-05,5.832253076006234e-05,7.696553282246609e-05
27.57735026920001,8.422649730800002,8,0,4.70646024630406,16.74828976681691,-7.903340073926832,1.662040974719466e-06,4.982935905677085e-05,-6.322672059141466e-05,6.548770779077563e-05,9.06856749024629e-05
26.4226497308,9.5773502692,8,0,3.582340909111454,13.82686104533363,-6.689675656324119,4.020020728897527e-07,4.138008261777844e-05,-5.351740525059295e-05,5.45931036691596e-05,7.019714999101476e-05
27.57735026920001,9.5773502692,8,0,4.286447279027475,16.64328652499771,-6.847180519052869,4.020020728897527e-07,4.982935905677068e-05,-5.477744415242295e-05,6.200616716464283e-05,8.07008788462323e-05
28.4226497308,8.422649730800002,8,0.009305154557148259,3.299826343396438,18.42071471312224,-7.509936562572928,-4.216361365806814e-06,5.68352871383967e-05,-6.064379236143822e-05,6.933554026112093e-05,0.0001009857666317274
29.5773502692,8.422649730800002,8,0.1329940670875278,3.660290729640451,19.21067581788361,-6.636125034715977,-4.216361365806814e-06,6.75265621733936e-05,-6.123256861621427e-05,7.881566268121685e-05,0.0001154059984798975
28.4226497308,9.5773502692,8,0,3.134561388005451,18.54466757775034,-6.24406466580513,-4.805137620582823e-06,5.68352871383967e-05,-4.995251732644104e-05,6.568494982713664e-05,8.847735264163884e-05
29.5773502692,9.5773502692,8,0,4.025500974255202,22.10842592274934,-6.317661697652143,-4.805137620582823e-06,6.752656217339371e-05,-5.054129358121715e-05,7.548071100699452e-05,9.921934530010317e-05
30.4226497308,8.422649730800002,8,0.2051826958256064,2.918870966231239,19.75039571724445,-5.947589551509042,-8.127565225276223e-06,7.657881780193652e-05,-5.986371479606398e-05,8.608802999934552e-05,0.0001251551029411688
31.5773502692,8.422649730800002,8,0.2848887138921512,3.462837262398855,21.11649107606131,-5.372202485814511,-8.127565225276223e-06,9.061876506827213e-05,-6.009920514670001e-05,9.90442854725286e-05,0.0001373699198106206
30.4226497308,9.5773502692,8,0.06046535221365645,3.376577559309124,23.32803583090141,-5.381627160785849,-8.363055575911821e-06,7.657881780193674e-05,-4.582376752972853e-05,8.236484828760048e-05,0.0001066397398915727
31.5773502692,9.5773502692,8,0.1389617806016553,4.101881515934325,25.40866416600295,-4.957347674014721,-8.363055575911821e-06,9.061876506827213e-05,-4.605925788036397e-05,9.571461150669687e-05,0.0001161706422700744
32.4226497308,8.422649730800002,8,0.3272006988758593,3.388014827598497,21.83560987437217,-4.323807038933021,-9.849654183811051e-06,9.982700580053001e-05,-5.141274114534456e-05,0.0001055531862443379,0.000144603263782316
33.57735026920001,8.422649730800002,8,0.3679228819739812,3.768539818042694,22.85633555974103,-4.059829723173561,-9.849654183811051e-06,0.0001109444400641165,-5.138397967453638e-05,0.0001161818476350201,0.0001521503101529982
32.4226497308,9.5773502692,8,0.1836935187265222,4.118499862252921,26.49507241590627,-4.111665021560347,-9.820892713002815e-06,9.982700580053001e-05,-4.029530688175794e-05,0.000103411903059358,0.0001221345702101359
33.57735026920001,9.5773502692,8,0.2307879909579218,4.593533431362095,27.81706949339288,-3.871688786592602,-9.820892713002815e-06,0.0001109444400641166,-4.026654541094987e-05,0.0001142125008514904,0.0001288974219772546
34.42264973080001,8.422649730800002,8,0.3868258146504877,4.377352529851008,23.6055214433669,-2.91298793840764,-7.953513333883169e-06,0.000117480135850521,-3.800535649421997e-05,0.0001202957602244016,0.0001558737480036913
35.5773502692,8.422649730800002,8,0.3997106002868055,4.622453546517102,24.45782636707793,-2.958631980247795,-7.953513333883169e-06,0.0001242185545389644,-3.942940830421282e-05,0.0001270965216556353,0.0001584993230203603
34.42264973080001,9.5773502692,8,0.2554098805085523,4.962064915561784,28.57631260101893,-2.910131619616865,-9.377565143875953e-06,0.0001174801358505213,-3.126693780577667e-05,0.000119378342728759,0.0001326533506781373
35.5773502692,9.5773502692,8,0.2774243490022656,5.221108496462537,29.35443428411244,-2.95271413792185,-9.377565143875953e-06,0.0001242185545389644,-3.269098961576947e-05,0.0001261893539224328,0.0001361518869518725
36.4226497308,8.422649730800002,8,0.4027703358082593,5.454936998381674,25.20914598834722,-1.888715535743334,-4.540160274064833e-06,0.0001277654512812477,-2.529968819682689e-05,0.0001289640543082369,0.0001591337291488905
37.5773502692,8.422649730800002,8,0.3984606601993974,5.642273263494748,25.98294932129135,-2.141802678456596,-4.540160274064833e-06,0.0001307173347023342,-2.8484290708788e-05,0.0001322007148844527,0.000158241383908073
36.4226497308,9.5773502692,8,0.2870468214553749,5.755100655995999,29.90464535123462,-1.991617306044824,-7.724762786026043e-06,0.0001277654512812477,-2.234780477574001e-05,0.0001286807813389414,0.000137725181292706
37.5773502692,9.5773502692,8,0.2918741916722513,5.890325227546682,30.39893077518023,-2.260019568644605,-7.724762786026043e-06,0.0001307173347023343,-2.553240728770138e-05,0.0001318847050675534,0.0001385249650935716
38.4226497308,8.422649730800002,8,0.3918093138455167,6.347134306162709,26.67189619638807,-1.235632359852048,-1.688100789378093e-06,0.0001319855141009543,-1.625322304969586e-05,0.0001324777542083714,0.0001568805702203034
39.5773502692,8.422649730800002,8,0.3776871539780762,6.52111042032841,27.39760018957581,-1.590969158284977,-1.688100789378093e-06,0.0001324983612301569,-2.045233896044534e-05,0.0001332732095328929,0.000154055103326341
38.4226497308,9.5773502692,8,0.2915054171878287,6.402231432556597,30.8227521550784,-1.393996383887108,-5.887216700127399e-06,0.0001319855141009543,-1.574037592049361e-05,0.0001324333135593098,0.0001384636164430727
39.5773502692,9.5773502692,8,0.2856569578059414,6.485609441364906,31.19930312499046,-1.780454656816704,-5.887216700127399e-06,0.0001324983612301568,-1.99394918312429e-05,0.0001332129243704746,0.0001374962250120614
40.4226497308,8.422649730800002,8,0.3653221157010593,6.949902820184787,27.98994362360893,-0.7880766349036629,-2.399104775235975e-07,0.0001323630449675981,-9.933563521270826e-06,0.0001325488206794589,0.0001516494604870201
41.5773502692,8.422649730800002,8,0.3454136156271381,7.119765093433581,28.6753630388035,-1.173779892356904,-2.399104775235975e-07,0.000131480506933979,-1.434530164853905e-05,0.0001318699322695718,0.0001479025889188141
40.4226497308,9.5773502692,8,0.2790275573808497,6.834605501298924,31.53056007619901,-0.9747638947057108,-4.651648604791722e-06,0.0001323630449675981,-1.08161015548898e-05,0.0001325761724004844,0.0001364121062803218
41.5773502692,9.5773502692,8,0.2666196127726003,6.898292805665386,31.85745604144648,-1.395974870342209,-4.651648604791722e-06,0.0001314805069339791,-1.522783968215782e-05,0.0001319050323029396,0.0001344176302546574
42.4226497308,8.422649730800002,8,0.3295629293464344,7.327558885476668,29.17487567177543,-0.392151933964019,1.615183599549901e-07,0.0001305082294390499,-4.679358599091014e-06,0.0001305502670925867,0.0001450245530218528
43.57735026920001,8.422649730800002,8,0.3060095796460172,7.482403998497118,29.78950075083841,-0.77394132708833,1.615183599549901e-07,0.0001287344559573537,-8.921637006961182e-06,0.0001288890377117404,0.0001409084842932191
42.4226497308,9.5773502692,8,0.2560457144020585,7.079046741033933,32.11106062181493,-0.6001044083788986,-4.080760047915177e-06,0.0001305082294390499,-6.453132080787185e-06,0.000130585537040418,0.0001327524912207122
43.57735026920001,9.5773502692,8,0.239431152925515,7.124718407243652,32.37849733501269,-1.016824503043315,-4.080760047915177e-06,0.0001287344559573538,-1.069541048865741e-05,0.0001289494293518086,0.0001301977228037789
44.4226497308,8.422649730800002,8,0.2879310836802055,7.541445908801014,30.19395761013924,0.01555017397547769,-3.165308782840566e-08,0.0001272173318470222,1.747041458385358e-07,0.0001272173918112023,0.0001378711524167946
45.5773502692,8.422649730800002,8,0.2620175403041249,7.670075117133645,30.7094997480503,-0.3478068786778927,-3.165308782840566e-08,0.000124846245177728,-3.7703538788304e-06,0.0001248746976308856,0.0001336890761392356
44.4226497308,9.5773502692,8,0.226267772344718,7.177042614591802,32.55430739313475,-0.2124264928320548,-3.976711112497274e-06,0.0001272173318470222,-2.19638252345561e-06,0.0001272265238768333,0.0001282249909711272
45.5773502692,9.5773502692,8,0.2068235991189846,7.200680148613555,32.74551235389688,-0.6089057137732589,-3.976711112497274e-06,0.000124846245177728,-6.141440548124437e-06,0.0001249193996193012,0.0001253901557913186
46.42264973080001,8.422649730800002,8,0.2425321101559607,7.63779733128916,31.01754820777306,0.4472850682229715,-4.925451112785254e-07,0.0001229701187980668,4.724002949511868e-06,0.0001230152904338753,0.0001306689676577463
47.57735026920001,8.422649730800002,8,0.2151991813682814,7.733254115628188,31.4162037206933,0.1085353448518383,-4.925451112785254e-07,0.0001202155328764879,1.106373411190545e-06,0.0001202180679935201,0.0001265999541191561
46.42264973080001,9.5773502692,8,0.1919236639832925,7.173658629410973,32.84630310669057,0.1989299120026498,-4.110174649599781e-06,0.0001229701187980668,1.969417027933231e-06,0.0001229777485620363,0.0001232789094053361
47.57735026920001,9.5773502692,8,0.1706053064697091,7.172524739352685,32.95129526223672,-0.1708773387407683,-4.110174649599781e-06,0.000120215532876488,-1.64821251038812e-06,0.0001202209953129796,0.000120345712191099
48.4226497308,8.422649730800002,8,0.1949591591489531,7.644470979874657,31.62967934176312,0.8921551182742778,-1.045209503808617e-06,0.000118129903830976,8.865688029751517e-06,0.0001182945606426667,0.0001237048508494611
49.57735026920001,8.422649730800002,8,0.1670358080101269,7.705307993626488,31.90950958675606,0.5793704048433279,-1.045209503808617e-06,0.0001151864452342324,5.564420755799996e-06,0.000115253004249518,0.0001198642951617494
48.4226497308,9.5773502692,8,0.1546119623395968,7.097314141094362,32.98233090673639,0.6258227398681381,-4.346476777760137e-06,0.000118129903830976,5.922229433007751e-06,0.0001182014529822466,0.0001182097066845222
49.57735026920001,9.5773502692,8,0.1322192113482507,7.072452341925739,33.00454567527947,0.2843025761765171,-4.346476777760137e-06,0.0001151864452342324,2.620962159056149e-06,0.000115200810768533,0.0001153072283292964
50.42264973080001,8.422649730800002,8,0.1466388075938188,7.576850302532761,32.03463092207542,1.330500499221179,-1.619224991541212e-06,0.0001130228789015605,1.247303496864797e-05,0.0001133611466404817,0.000117164695993497
51.57735026920001,8.422649730800002,8,0.1189181846454598,7.605091786033115,32.20370426290067,1.042735020341337,-1.619224991541212e-06,0.0001100553643516483,9.467770208574771e-06,0.0001102556744149376,0.000113629809593159
50.42264973080001,9.5773502692,8,0.1157015989578597,6.965686293489676,32.97453129019411,1.050714563420175,-4.624489751614346e-06,0.0001130228789015605,9.505520418735705e-06,0.0001132145702609904,0.0001132292093749342
51.57735026920001,9.5773502692,8,0.09298637081219654,6.920317875096705,32.92436554132873,0.7369775594515071,-4.624489751614346e-06,0.0001100553643516483,6.50025565866253e-06,0.0001101474019642473,0.0001104544343675101
52.4226497308,8.422649730800002,8,0.09894275454372314,7.443143908611871,32.24999307362765,1.743573695507042,-2.199564968084262e-06,0.000107923734256724,1.548024793584902e-05,0.0001084650951480507,0.0001111729929885968
53.5773502692,8.422649730800002,8,0.07220210778991304,7.443201933641216,32.32374741102452,1.479213979283748,-2.199564968084262e-06,0.0001050675270841121,1.275462245994239e-05,0.0001054453442870374,0.0001079957316001065
52.4226497308,9.5773502692,8,0.07649493064317364,6.789530193309162,32.84366870145342,1.457295705077111,-4.925190443990924e-06,0.000107923734256724,1.262404076323733e-05,0.0001082756891306409,0.0001084974687895449
53.5773502692,9.5773502692,8,0.05420470009893143,6.728290449683699,32.73593926504014,1.170234331903266,-4.925190443990924e-06,0.0001050675270841121,9.898415287330558e-06,0.0001052897714679525,0.0001059257144090775
54.42264973080001,8.422649730800002,8,0.05322588567050024,7.249361248386329,32.29911550724386,2.12077855470787,-2.789827447732257e-06,0.0001030421925863078,1.792003835009616e-05,0.0001037954108079963,0.0001058146569335803
55.57735026920001,8.422649730800002,8,0.02825726177952856,7.223755194281777,32.28376398115458,1.878277985927853,-2.789827447732257e-06,0.0001003650830083606,1.546317075128339e-05,0.0001009413553577555,0.0001030331115177662
54.42264973080001,9.5773502692,8,0.03830224816616979,6.576042135916736,32.61133708219192,1.832386291442373,-5.24669504654496e-06,0.0001030421925863078,1.524292877214909e-05,0.0001035759666960204,0.000104140379168561
55.57735026920001,9.5773502692,8,0.01722241072729449,6.500934757345131,32.44915691624615,1.570731797028091,-5.24669504654496e-06,0.0001003650830083606,1.278606117333624e-05,0.0001007506665687365,0.0001018345069631866
56.4226497308,8.422649730800002,8,0.01082710922749726,7.005619580825391,32.23827662768635,2.49104417129128,-3.409554259896809e-06,9.862582209238193e-05,2.014648152636596e-05,9.961077506369624e-05,0.000101148202601007
57.57735026920001,8.422649730800002,8,0,6.909413786705631,31.89959797169354,2.242960506816239,-3.409554259896809e-06,9.655118248005479e-05,1.794368405452991e-05,9.735005368454166e-05,9.878008108837644e-05
56.4226497308,9.5773502692,8,0.002422284569390121,6.332657850870319,32.32907767690013,2.253508346278732,-5.612351731732851e-06,9.862582209238193e-05,1.807184191403869e-05,9.940330489980724e-05,0.0001002554006219439
57.57735026920001,9.5773502692,8,0,6.175147962760286,31.71603151570721,1.983630555275336,-5.612351731732851e-06,9.655118248005482e-05,1.586904444220269e-05,9.716374362724818e-05,9.824707407230559e-05
58.4226497308,8.422649730800002,8,0,6.697976644043356,31.39614403621153,2.881501166217577,-3.683389968030482e-06,9.510927960064219e-05,2.305200932974062e-05,9.643618084931984e-05,9.717297999812461e-05
59.57735026920001,8.422649730800002,8,0,6.542583951212084,30.77457326488644,2.62369635610478,-3.683389968030482e-06,9.324456728666692e-05,2.098957084883824e-05,9.436786268700309e-05,9.515041967910116e-05
58.4226497308,9.5773502692,8,0,6.010497150409229,31.224274162803,2.648412126970679,-5.745828448932861e-06,9.510927960064219e-05,2.118729701576543e-05,9.621000512826579e-05,9.68586842150281e-05
59.57735026920001,9.5773502692,8,0,5.855104457577957,30.60270339147791,2.390607316857878,-5.745828448932861e-06,9.324456728666692e-05,1.912485853486302e-05,9.415983128411177e-05,9.507385913370972e-05
60.4226497308,8.422649730800002,8,0,6.312450049368147,30.31042764553603,3.029980677068095,-4.048501958450756e-06,9.194340842622078e-05,2.423984541654476e-05,9.345002126100052e-05,9.376718473457674e-05
61.5773502692,8.422649730800002,8,0,6.171606732565378,29.74705437832496,2.796378648723665,-4.048501958450756e-06,9.025328862458755e-05,2.237102918978932e-05,9.156188841447018e-05,9.201067690619407e-05
60.4226497308,9.5773502692,8,0,5.689511307116364,30.15469295997309,2.81871570186395,-5.917318185206106e-06,9.194340842622078e-05,2.25497256149116e-05,9.322562307221241e-05,9.383120847134606e-05
61.5773502692,9.5773502692,8,0,5.5486679903136,29.59131969276203,2.585113673519527,-5.917318185206106e-06,9.025328862458763e-05,2.068090938815622e-05,9.135254994096554e-05,9.222104880688344e-05
62.42264973080001,8.422649730800002,8,0,5.898776105737343,29.31620909734447,3.039882816626077,-4.576883739516074e-06,8.909284822691241e-05,2.431906253300862e-05,9.064557230857673e-05,9.080538950525315e-05
63.57735026920001,8.422649730800002,8,0,5.77542091206185,28.82278832264249,2.832914648417485,-4.576883739516074e-06,8.761258590280648e-05,2.266331718733988e-05,8.898500883009979e-05,8.92689909164026e-05
62.42264973080001,9.5773502692,8,0,5.346860990514434,29.17823031853874,2.854850026112842,-6.2326290851848e-06,8.909284822691241e-05,2.283880020890274e-05,9.044173426277067e-05,9.110058717331148e-05
63.57735026920001,9.5773502692,8,0,5.223505796838941,28.68480954383677,2.647881857904249,-6.2326290851848e-06,8.761258590280648e-05,2.1183054863234e-05,8.87931128947284e-05,8.96495887267937e-05
64.4226497308,8.422649730800002,8,0,5.463840302991134,28.42842947721108,2.973759399326993,-5.258454612197235e-06,8.659990208468254e-05,2.379007519461594e-05,8.811523177673316e-05,8.82124545759219e-05
65.57735026920001,8.422649730800002,8,0,5.356636859730345,27.99961570416792,2.792731559752399,-5.258454612197235e-06,8.531346076555307e-05,2.234185247801919e-05,8.667091158030235e-05,8.686234220241355e-05
64.4226497308,9.5773502692,8,0,4.981099397458859,28.30774425082801,2.812954234435819,-6.706677328794058e-06,8.659990208468254e-05,2.250363387548655e-05,8.793757845346037e-05,8.864083412378688e-05
65.57735026920001,9.5773502692,8,0,4.873895954198069,27.87893047778485,2.631926394861216,-6.706677328794058e-06,8.531346076555306e-05,2.105541115888973e-05,8.650253406750649e-05,8.733586374240388e-05
66.4226497308,8.422649730800002,8,0,5.016520612955669,27.63894407207019,2.867185098891674,-6.058289296198009e-06,8.443140454026006e-05,2.293748079113339e-05,8.586233484014366e-05,8.593045946875068e-05
67.57735026920001,8.422649730800002,8,0,4.922905520988508,27.26448370420155,2.710201127700048,-6.058289296198009e-06,8.330802343665413e-05,2.168160902160039e-05,8.460429187424087e-05,8.473462086708769e-05
66.4226497308,9.5773502692,8,0,4.597896689777977,27.53428809127577,2.726762460940929,-7.314161065731083e-06,8.443140454026006e-05,2.181409968752743e-05,8.571024883946693e-05,8.64275815608337e-05
67.57735026920001,9.5773502692,8,0,4.504281597810811,27.1598277234071,2.569778489749304,-7.314161065731083e-06,8.330802343665406e-05,2.055822791799443e-05,8.445933819132092e-05,8.525107887445192e-05
68.42264973080002,8.422649730800002,8,0,4.565643745418498,26.93289274337506,2.740863137938961,-6.936254209360853e-06,8.253274178246538e-05,2.192690510351169e-05,8.385660462148598e-05,8.390432476293192e-05
69.57735026920001,8.422649730800002,8,0,4.48274976492652,26.60131682140715,2.605491658950152,-6.936254209360853e-06,8.153801401656165e-05,2.084393327160121e-05,8.274910784579701e-05,8.283175222261846e-05
68.42264973080002,9.5773502692,8,0,4.204653134781694,26.84264509071586,2.616522167201002,-8.019226041271264e-06,8.253274178246538e-05,2.093217733760801e-05,8.372668073701708e-05,8.442911177574393e-05
69.57735026920001,9.5773502692,8,0,4.121759154289714,26.51106916874794,2.481150688212205,-8.019226041271264e-06,8.153801401656162e-05,1.984920550569764e-05,8.262465918360728e-05,8.335995858621008e-05
70.4226497308,8.422649730800002,8,0,4.118303279283722,26.29364566385716,2.606344835787826,-7.856346037377816e-06,8.084502350091591e-05,2.08507586863026e-05,8.205387970773633e-05,8.208099884740422e-05
71.57735026920001,8.422649730800002,8,0,4.04342348494336,25.99412648649571,2.490069162110958,-7.856346037377816e-06,7.994646596883158e-05,1.992055329688766e-05,8.106217404429673e-05,8.110247502259135e-05
70.4226497308,9.5773502692,8,0,3.808234816145398,26.21612854807258,2.494025144277279,-8.786551426792784e-06,8.084502350091591e-05,1.995220115421823e-05,8.194195092879893e-05,8.260830476538179e-05
71.57735026920001,9.5773502692,8,0,3.733355021805038,25.91660937071113,2.377749470600409,-8.786551426792784e-06,7.994646596883159e-05,1.902199576480327e-05,8.09544674584814e-05,8.162390152662221e-05
72.4226497308,8.422649730800002,8,0,3.679892563890705,25.70535077233167,2.469749751082744,-8.788624413415075e-06,7.931320842034876e-05,1.975799800866195e-05,8.040736768725199e-05,8.041071661191308e-05
73.57735026920001,8.422649730800002,8,0,3.61059804183063,25.42817268409136,2.370187149794291,-8.788624413415075e-06,7.848167415562786e-05,1.896149719835433e-05,7.949975372505686e-05,7.949932131210941e-05
72.4226497308,9.5773502692,8,0,3.414392293788185,25.63897570480604,2.365807967992636,-9.585125223722637e-06,7.931320842034876e-05,1.892646374394109e-05,8.03094064734666e-05,8.092603038400628e-05
73.57735026920001,9.5773502692,8,0,3.345097771728106,25.36179761656572,2.266245366704176,-9.585125223722637e-06,7.848167415562782e-05,1.812996293363341e-05,7.940507792465526e-05,8.000381420392191e-05
74.4226497308,8.422649730800002,8,0,3.25443888474114,25.15362272197991,2.33393376809547,-9.708693746412275e-06,7.788804160254278e-05,1.867147014476376e-05,7.887195792844221e-05,7.884770776999043e-05
75.57735026920001,8.422649730800002,8,0,3.188580548790861,24.89018937817879,2.248928260097867,-9.708693746412275e-06,7.709774157113943e-05,1.799142608078293e-05,7.802016159802062e-05,7.797886176574941e-05
74.4226497308,9.5773502692,8,0,3.027757530080834,25.09695238331483,2.235146264170048,-1.038873781039319e-05,7.788804160254278e-05,1.788117011336038e-05,7.878443297732101e-05,7.934351226484319e-05
75.57735026920001,9.5773502692,8,0,2.961899194130552,24.8335190395137,2.150140756172442,-1.038873781039319e-05,7.70977415711394e-05,1.720112604937954e-05,7.793522308343904e-05,7.846174999895161e-05
76.42264973080002,8.422649730800002,8,0,2.845005056781618,24.62558984693895,2.199774330331553,-1.059645569584998e-05,7.652588346477934e-05,1.759819464265242e-05,7.740568157054349e-05,7.735016462228338e-05
77.57735026920001,8.422649730800002,8,0,2.780667942618381,24.36824139028601,2.127419104629663,-1.059645569584998e-05,7.57538380948205e-05,1.70193528370373e-05,7.658446243669538e-05,7.650137808792875e-05
76.42264973080002,9.5773502692,8,0,2.652057788243263,24.57735302980436,2.1032686590867,-1.117529750146505e-05,7.652588346477934e-05,1.68261492726936e-05,7.73256469618355e-05,7.782351302474045e-05
77.57735026920001,9.5773502692,8,0,2.587720674080027,24.32000457315142,2.030913433384811,-1.117529750146505e-05,7.57538380948205e-05,1.624730746707849e-05,7.650648870604623e-05,7.696157944974398e-05
78.4226497308,8.422649730800002,8,0,2.454043194082889,24.10966831963699,2.066918430897513,-1.143479643464435e-05,7.518770406757206e-05,1.653534744718011e-05,7.596975066659586e-05,7.587976354287169e-05
79.57735026920001,8.422649730800002,8,0,2.389488064379283,23.85144780082257,2.005542413709326,-1.143479643464435e-05,7.441304251112879e-05,1.604433930967461e-05,7.515625105103743e-05,7.503026755733441e-05
78.4226497308,9.5773502692,8,0,2.290373814914389,24.06875097484487,1.970085736342115,-1.192580457214985e-05,7.518770406757206e-05,1.576068589073692e-05,7.5894824993981e-05,7.633071261953696e-05
79.57735026920001,9.5773502692,8,0,2.225818685210788,23.81053045603046,1.908709719153926,-1.192580457214985e-05,7.441304251112885e-05,1.52696777532314e-05,7.508298362717277e-05,7.546908596152463e-05
80.4226497308,8.422649730800002,8,0,2.083683360216954,23.595254955483,1.934208733507948,-1.220841721169214e-05,7.383786916937202e-05,1.547366986806359e-05,7.452799015333829e-05,7.44010359386944e-05
81.57735026920001,8.422649730800002,8,0,2.01728825717843,23.3296745433289,1.882346283583771,-1.220841721169214e-05,7.304112793290973e-05,1.505877026867017e-05,7.370102790576645e-05,7.35314391723053e-05
80.4226497308,9.5773502692,8,0,1.945383493752521,23.56067998886689,1.834616078950154,-1.262331681108544e-05,7.383786916937202e-05,1.467692863160123e-05,7.445630386278859e-05,7.483166690027033e-05
81.57735026920001,9.5773502692,8,0,1.878988390713996,23.29509957671279,1.782753629025997,-1.262331681108544e-05,7.304112793290972e-05,1.426202903220797e-05,7.363068168019513e-05,7.395183229714903e-05
82.4226497308,8.422649730800002,8,0,1.735964710190779,23.07241100451112,1.799913123377918,-1.29028417309984e-05,7.244294344628294e-05,1.439930498702334e-05,7.304603447337297e-05,7.288083341448565e-05
83.57735026920001,8.422649730800002,8,0,1.666170612409865,22.79323461338746,1.756266717232815,-1.29028417309984e-05,7.160541427291197e-05,1.405013373786252e-05,7.21854186622936e-05,7.197294219473901e-05
82.4226497308,9.5773502692,8,0,1.619574293803841,23.04331340041438,1.695221976706537,-1.325201298015921e-05,7.244294344628294e-05,1.356177581365229e-05,7.297618479875597e-05,7.329467088737511e-05
83.57735026920001,9.5773502692,8,0,1.549780196022927,22.76413700929073,1.651575570561435,-1.325201298015921e-05,7.160541427291197e-05,1.321260456449148e-05,7.211664673212469e-05,7.237910713014419e-05
84.42264973080002,8.422649730800002,8,0,1.413024487149825,22.53156250561703,1.661830974873487,-1.350357164561418e-05,7.097058042825462e-05,1.32946477989879e-05,7.149046297322314e-05,7.128814950497556e-05
85.57735026920001,8.422649730800002,8,0,1.338285391760588,22.23260612406008,1.625231472823348,-1.350357164561418e-05,7.007371128358379e-05,1.300185178258679e-05,7.057635252477289e-05,7.032515230355716e-05
84.42264973080002,9.5773502692,8,0,1.315425815016134,22.50716283758361,1.549722331789639,-1.379636766201525e-05,7.097058042825462e-05,1.239777865431711e-05,7.142149795140261e-05,7.168984879103405e-05
85.57735026920001,9.5773502692,8,0,1.240686719626896,22.20820645602666,1.513122829739493,-1.379636766201525e-05,7.007371128358377e-05,1.210498263791595e-05,7.0508238562774e-05,7.072232374619548e-05
86.4226497308,8.422649730800002,8,0,1.117260300945928,21.9632210804468,1.517317960050237,-1.399534390133047e-05,6.938849921667303e-05,1.21385436804019e-05,6.982794820210302e-05,6.959471046424342e-05
87.57735026920002,8.422649730800002,8,0,1.035996547931897,21.63816606839068,1.486684043172848,-1.399534390133047e-05,6.841333418050465e-05,1.189347234538278e-05,6.88402481462704e-05,6.856210344859779e-05
86.4226497308,9.5773502692,8,0,1.035569855939547,21.94279846919521,1.395422330529187,-1.424041523634962e-05,6.938849921667303e-05,1.11633786442335e-05,6.975939595141675e-05,6.998992060565036e-05
87.57735026920002,9.5773502692,8,0,0.954306102925516,21.61774345713908,1.364788413651804,-1.424041523634962e-05,6.841333418050465e-05,1.091830730921443e-05,6.877234355518946e-05,6.89564830588116e-05
88.42264973080002,8.422649730800002,8,0,0.8514793105952041,21.35772012704003,1.363252113912423,-1.436144230772736e-05,6.76635209580519e-05,1.090601691129938e-05,6.80244480668347e-05,6.777712965999083e-05
89.57735026920001,8.422649730800002,8,0,0.7620324119413313,20.99993253242453,1.337548736781665,-1.436144230772736e-05,6.659015817420543e-05,1.070038989425332e-05,6.69422282073407e-05,6.666514840246123e-05
88.42264973080002,9.5773502692,8,0,0.7829369715798347,21.34058454228618,1.229081765931609,-1.456706932477347e-05,6.76635209580519e-05,9.83265412745287e-06,6.795641059166894e-05,6.817245286798335e-05
89.57735026920001,9.5773502692,8,0,0.6934900729259583,20.98279694767068,1.203378388800844,-1.456706932477347e-05,6.659015817420539e-05,9.627027110406755e-06,6.687465500842434e-05,6.706388009872033e-05
90.42264973080002,8.422649730800002,8,0,0.6190460700283733,20.70495782721142,1.195951775808018,-1.458301883767834e-05,6.576062819105383e-05,9.567614206464143e-06,6.604446206685148e-05,6.582224925295653e-05
91.57735026920001,8.422649730800002,8,0,0.5196331303099049,20.30730606833754,1.174146375511405,-1.458301883767834e-05,6.45676729144322e-05,9.393171004091241e-06,6.484538108179285e-05,6.463138720828479e-05
90.42264973080002,9.5773502692,8,0,0.5608983359040929,20.69042089368035,1.046832366230306,-1.475746204005118e-05,6.576062819105383e-05,8.374658929842451e-06,6.597780376943333e-05,6.622519692763884e-05
91.57735026920001,9.5773502692,8,0,0.4614853961856245,20.29276913480647,1.025026965933702,-1.475746204005118e-05,6.45676729144322e-05,8.200215727469616e-06,6.477903355295321e-05,6.50424446619568e-05
92.42264973080002,8.422649730800002,8,0,0.4240395335359475,19.99413707209312,1.011047786745334,-1.463838315035946e-05,6.36420070038692e-05,8.088382293962675e-06,6.385038690359345e-05,6.373902571512829e-05
93.57735026920001,8.422649730800002,8,0,0.312705281704412,19.54880006476698,0.9920621487657785,-1.463838315035946e-05,6.230599598189079e-05,7.936497190126228e-06,6.251010881043735e-05,6.249191082167483e-05
92.42264973080002,9.5773502692,8,0,0.3734111655904711,19.98147998010675,0.8440464089980442,-1.479026825419589e-05,6.36420070038692e-05,6.752371271984354e-06,6.378706955963669e-05,6.415779205394788e-05
93.57735026920001,9.5773502692,8,0,0.2620769137589356,19.53614297278061,0.8250607710184797,-1.479026825419589e-05,6.230599598189079e-05,6.600486168147838e-06,6.244701084596766e-05,6.292362844739846e-05
94.4226497308,8.422649730800002,8,0,0.2714292098941993,19.2134918379757,0.803305962653507,-1.450221999871912e-05,6.126603051360687e-05,6.426447701228055e-06,6.140205457249525e-05,6.15839047687753e-05
95.57735026920002,8.422649730800002,8,0,0.1459935869265898,18.71174934610526,0.7859608222689017,-1.450221999871912e-05,5.976080303799555e-05,6.287686578151214e-06,5.989365651173448e-05,6.035030099202176e-05
94.4226497308,9.5773502692,8,0,0.2251755022019175,19.20192841105263,0.6151525282020879,-1.464098112179596e-05,6.126603051360687e-05,4.921220225616703e-06,6.134571028404084e-05,6.202658045431071e-05
95.57735026920002,9.5773502692,8,0,0.09973987923430894,18.70018591918219,0.5978073878174895,-1.464098112179596e-05,5.976080303799557e-05,4.782459102539916e-06,5.983757652753854e-05,6.080996336681253e-05
96.4226497308,8.422649730800002,8,0,0.1672807091378612,18.34998904007263,0.5663900577760846,-1.414469296281695e-05,5.858614036092212e-05,4.531120462208677e-06,5.865664405454985e-05,5.951404976303275e-05
97.57735026920001,8.422649730800002,8,0,0.02527982246747484,17.78198549339108,0.5493385239790406,-1.414469296281695e-05,5.688212972087749e-05,4.394708191832324e-06,5.695004424187696e-05,5.846297269419929e-05
96.4226497308,9.5773502692,8,0,0.1218099523457381,18.3386213508746,0.3533887277705011,-1.428110523319332e-05,5.858614036092212e-05,2.827109822164009e-06,5.861355166336476e-05,5.99864456097675e-05
97.57735026920001,9.5773502692,8,0,-0.02019093432464825,17.77061780419305,0.3363371939734587,-1.428110523319332e-05,5.688212972087749e-05,2.69069755178767e-06,5.690755460361792e-05,5.895317034398781e-05
98.42264973080002,8.422649730800002,8,0,0.1190019213208684,17.38899416671112,0.2925491536045055,-1.353038918514212e-05,5.554957979641889e-05,2.340393228836044e-06,5.55693969361419e-05,5.789811365920935e-05
99.57735026920002,8.422649730800002,8,0,-0.04238003345853958,16.74346634759349,0.2741937020912941,-1.353038918514212e-05,5.361299633906599e-05,2.193549616730353e-06,5.363090717529836e-05,5.740596714527037e-05
98.42264973080002,9.5773502692,8,0,0.07005405061898085,17.37675719903565,0.05047622143539507,-1.367723279724778e-05,5.554957979641889e-05,4.038097714831605e-07,5.555016866126182e-05,5.839836189747765e-05
99.57735026920002,9.5773502692,8,0,-0.09132790416042624,16.73122937991802,0.03212076992218545,-1.367723279724778e-05,5.3612996339066e-05,2.569661593774836e-07,5.361324166207641e-05,5.791587229885879e-05
0.4226497308,10.4226497308,8,0,-0.07521897606024097,-2.48797970744889,0.1571064852393464,1.749683042566341e-06,-7.901359882988256e-06,1.256851881914771e-06,1.790430843916597e-06,2.420086608741642e-06
1.5773502692,10.4226497308,8,0,0.0476645372631751,-1.996445654155226,0.1862701092721628,1.749683042566341e-06,-6.426757723107263e-06,1.490160874177303e-06,1.817024084660532e-06,2.518545420645216e-06
0.4226497308,11.5773502692,8,0,0.002550688027292192,-2.468537291427007,0.3414317552245111,1.98299203482894e-06,-7.901359882988256e-06,2.731454041796089e-06,2.168224144762257e-06,2.52789691809202e-06
1.5773502692,11.5773502692,8,0,0.1254342013507083,-1.977003238133343,0.370595379257314,1.98299203482894e-06,-6.426757723107263e-06,2.964763034058512e-06,2.236640197161283e-06,2.608569670052121e-06
2.4226497308,10.4226497308,8,0,0.04368949671822392,-1.697536515494023,0.5259607050343232,1.497835601893535e-06,-5.467068446955454e-06,4.207685640274586e-06,2.08399841722243e-06,2.652901696527645e-06
3.5773502692,10.4226497308,8,0,0.1392993052310963,-1.315097281442534,0.550999705298483,1.497835601893535e-06,-4.319750744800985e-06,4.407997642387864e-06,2.238520271900837e-06,2.921511056666214e-06
2.4226497308,11.5773502692,8,0,0.1104601640893391,-1.68084384865138,0.6693754178035234,1.698147604006989e-06,-5.467068446955888e-06,5.355003342428187e-06,2.588133396837054e-06,2.725325782320674e-06
3.5773502692,11.5773502692,8,0,0.2060699726022656,-1.298404614599674,0.6944144180677102,1.698147604006989e-06,-4.319750744800769e-06,5.555315344541682e-06,2.784214580788701e-06,2.963636661186037e-06
4.422649730800001,10.4226497308,8,0,0.2246513319097741,-1.056038025907744,0.6905722881314028,1.563714682837472e-06,-3.559042748432599e-06,5.524578305051223e-06,2.769417368907056e-06,3.157457843488937e-06
5.577350269200001,10.4226497308,8,0,0.3022325980546117,-0.7457129613283933,0.7196616167607039,1.563714682837472e-06,-2.628067554694548e-06,5.757292934085632e-06,3.028633172003389e-06,3.533467092860079e-06
4.422649730800001,11.5773502692,8,0,0.3022228749212121,-1.036645140154749,0.8069441873485915,1.796429311871678e-06,-3.559042748432165e-06,6.455553498788732e-06,3.312595163154828e-06,3.18573336589161e-06
5.577350269200001,11.5773502692,8,0,0.3798041410659956,-0.7263200755756152,0.8360335159778519,1.796429311871678e-06,-2.628067554694765e-06,6.688268127822816e-06,3.593828714493337e-06,3.554201968501293e-06
6.422649730800001,10.4226497308,8,0,0.4711277078256316,-0.507602330290194,0.6927239219767256,1.913690529274176e-06,-2.001229623189126e-06,5.541791375813804e-06,3.348797749840318e-06,3.836583761708524e-06
7.577350269200001,10.4226497308,8,0,0.5362591981022455,-0.247076369183738,0.7288388435747043,1.913690529274176e-06,-1.219651739869758e-06,5.830710748597635e-06,3.656665206923512e-06,4.288704652287572e-06
6.422649730800001,11.5773502692,8,0,0.5674341654202146,-0.4835257158915481,0.7904211573917007,2.202609902057925e-06,-2.001229623189126e-06,6.323369259133606e-06,3.897309212418455e-06,3.867558882542664e-06
7.577350269200001,11.5773502692,8,0,0.6325656556967834,-0.2229997547852729,0.8265360789896253,2.202609902057925e-06,-1.2196517398703e-06,6.612288631917002e-06,4.21418762789116e-06,4.355197290033399e-06
8.4226497308,10.4226497308,8,0,0.7930736981453193,-0.01414504999733851,0.5474909692993483,2.549151874062892e-06,-6.797231185077385e-07,4.379927754394786e-06,3.655440422942991e-06,4.667923293856162e-06
9.5773502692,10.4226497308,8,0,0.8508682433757037,0.2170331309241994,0.5893124366546635,2.549151874062892e-06,1.381142425687515e-08,4.714499493237308e-06,3.957974534829367e-06,5.251846999263798e-06
8.4226497308,11.5773502692,8,0,0.9045976110926235,0.01373592823948755,0.6341827871449656,2.883723612904805e-06,-6.797231185077385e-07,5.073462297159725e-06,4.201926548270704e-06,4.785335332923563e-06
9.5773502692,11.5773502692,8,0,0.9623921563229989,0.2449141091609893,0.6760042545001996,2.883723612904805e-06,1.381142425676673e-08,5.408034036001597e-06,4.509944910741451e-06,5.472855912926957e-06
10.4226497308,10.4226497308,8,0,1.201001711031436,0.4619232948893519,0.2510038484900706,3.473666839389113e-06,5.173531748207776e-07,2.008030787920565e-06,3.788153830190522e-06,5.789011675432835e-06
11.5773502692,10.4226497308,8,0,1.257848969662009,0.6893123294116461,0.2932565247182887,3.473666839389113e-06,1.19952027838766e-06,2.346052197746309e-06,4.032020667929407e-06,6.672649157412685e-06
10.4226497308,11.5773502692,8,0,1.313675514306675,0.4900917457081617,0.3362747364358902,3.81168824921483e-06,5.173531748207776e-07,2.690197891487122e-06,4.291293973195082e-06,6.117585076289631e-06
11.5773502692,11.5773502692,8,0,1.370522772937239,0.7174807802304197,0.378527412664149,3.81168824921483e-06,1.199520278387552e-06,3.028219301313192e-06,4.533527575287068e-06,7.191497327789324e-06
12.4226497308,10.4226497308,8,0,1.702785339821766,0.9678165882553226,-0.2146258599483206,4.674659816825393e-06,1.734784810559619e-06,-1.717006879586565e-06,5.13185922003558e-06,7.522491920309944e-06
13.5773502692,10.4226497308,8,0,1.767802239311678,1.22788418621497,-0.1817728613705814,4.674659816825393e-06,2.514987604438561e-06,-1.454182890964651e-06,5.406933603597217e-06,8.960668045108826e-06
12.4226497308,11.5773502692,8,0,1.790393336029035,0.9897185873071397,-0.1171005107134665,4.937483805447199e-06,1.734784810559619e-06,-9.36804085707732e-07,5.275132758092546e-06,8.195608129982847e-06
13.5773502692,11.5773502692,8,0,1.855410235518974,1.249786185266895,-0.08424751213580856,4.937483805447199e-06,2.514987604438886e-06,-6.739800970864684e-07,5.561567545680708e-06,9.864977606621232e-06
14.4226497308,10.4226497308,8,0,2.297404962272668,1.569149130690342,-0.8787202593139566,6.096376574720263e-06,3.18335324839096e-06,-7.029762074511653e-06,8.485771777331773e-06,1.030879068869214e-05
15.5773502692,10.4226497308,8,0,2.384555470898346,1.917751165193055,-0.8707183573248612,6.096376574720263e-06,4.229159351899097e-06,-6.96574685859889e-06,8.905751558043472e-06,1.255375412115352e-05
14.4226497308,11.5773502692,8,0,2.318743367576872,1.574483732016394,-0.7479944963753853,6.160391790632877e-06,3.18335324839096e-06,-5.983955971003083e-06,8.123301634778187e-06,1.136577010941257e-05
15.5773502692,11.5773502692,8,0,2.405893876202551,1.923085766519106,-0.7399925943862764,6.160391790632877e-06,4.229159351899097e-06,-5.919940755090211e-06,8.564990666062724e-06,1.379664200219292e-05
16.4226497308,10.4226497308,8,0,2.960304204373021,2.361286672096279,-1.776731712590981,7.583944116316645e-06,5.187873987209674e-06,-1.421385370072785e-05,1.35931066536278e-05,1.456769649764116e-05
17.5773502692,10.4226497308,8,0,3.091425120225767,2.885770335507261,-1.814551375599603,7.583944116316645e-06,6.761324977442619e-06,-1.451641100479683e-05,1.444248479822299e-05,1.782492596149394e-05
16.4226497308,11.5773502692,8,0,2.859451769683334,2.336073563423857,-1.58005033881189,7.281386812247584e-06,5.187873987209674e-06,-1.264040271049512e-05,1.264092762652217e-05,1.58992393315791e-05
17.5773502692,11.5773502692,8,0,2.990572685536143,2.860557226835092,-1.617870001820513,7.281386812247584e-06,6.761324977443378e-06,-1.29429600145641e-05,1.350904202116032e-05,1.921277017078469e-05
18.4226497308,10.4226497308,8,0,3.617665406289388,3.482988578171096,-2.932537709778916,8.790138437589167e-06,8.251431125115994e-06,-2.346030167823133e-05,2.025402773036433e-05,2.064281406489911e-05
19.5773502692,10.4226497308,8,0,3.825798299127277,4.315520149522648,-3.038219679623078,8.790138437589167e-06,1.074902583917065e-05,-2.430575743698463e-05,2.196186539909043e-05,2.508419806992048e-05
18.4226497308,11.5773502692,8,0,3.335846820038281,3.412533931608319,-2.620338370522084,7.944682678835842e-06,8.251431125115994e-06,-2.096270696417667e-05,1.858053249072923e-05,2.199434274882058e-05
19.5773502692,11.5773502692,8,0,3.543979712876196,4.245065502959979,-2.72602034036626,7.944682678835842e-06,1.074902583917097e-05,-2.180816272293008e-05,2.034071961554106e-05,2.628020951807248e-05
20.4226497308,10.4226497308,8,0,4.11250143662277,5.118376664072398,-4.305896599962372,9.065303265934943e-06,1.308880417573346e-05,-3.444717279969898e-05,2.841773041944858e-05,2.881764438862268e-05
21.5773502692,10.4226497308,8,0,4.437067984968953,6.416642857457134,-4.485489193206663,9.065303265934943e-06,1.698360275588767e-05,-3.58839135456533e-05,3.139803947466754e-05,3.457622541406036e-05
20.4226497308,11.5773502692,8,0,3.633587854638116,4.998648268576235,-3.81904677744315,7.628562519980983e-06,1.308880417573346e-05,-3.055237421954521e-05,2.587691302612872e-05,2.978614138540708e-05
21.5773502692,11.5773502692,8,0,3.958154402984318,6.296914461961043,-3.998639370687374,7.628562519980983e-06,1.698360275588788e-05,-3.198911496549899e-05,2.897056773417539e-05,3.507865860599535e-05
22.4226497308,10.4226497308,8,0,4.245256297625676,7.454686817308628,-5.710797320377356,7.62107069855526e-06,2.045879277728707e-05,-4.568637856301885e-05,3.776782826486928e-05,3.927416586663424e-05
23.5773502692,10.4226497308,8,0,4.711889391348134,9.321219192198459,-5.936409721641291,7.62107069855526e-06,2.605838990195656e-05,-4.749127777313033e-05,4.231204960932518e-05,4.635059684910721e-05
22.4226497308,11.5773502692,8,0,3.643623227588574,7.304278549799353,-5.010847679793744,5.816171488443956e-06,2.045879277728707e-05,-4.008678143834995e-05,3.44761583118985e-05,3.928984758487602e-05
23.5773502692,11.5773502692,8,0,4.110256321311033,9.170810924689183,-5.236460081057658,5.816171488443956e-06,2.605838990195656e-05,-4.189168064846127e-05,3.9200235762501e-05,4.550251261535296e-05
24.4226497308,10.4226497308,8,0,3.902357285627607,10.54065136969066,-6.761452308354757,4.055022218255814e-06,3.060819855450802e-05,-5.409161846683805e-05,4.746039380816182e-05,5.192559946681662e-05
25.5773502692,10.4226497308,8,0,4.471583225573035,12.81755512947237,-6.96209537637215,4.055022218255814e-06,3.743890983385316e-05,-5.56967630109772e-05,5.321469370382627e-05,6.00803588889028e-05
24.4226497308,11.5773502692,8,0,3.367309104247819,10.40688932434571,-5.907613398436492,2.449877674116452e-06,3.060819855450802e-05,-4.726090718749193e-05,4.403578448219361e-05,5.029099638677768e-05
25.5773502692,11.5773502692,8,0,3.936535044193279,12.68379308412755,-6.108256466453926,2.449877674116452e-06,3.743890983385354e-05,-4.886605173163141e-05,4.999486539468305e-05,5.71607123116083e-05
26.4226497308,10.4226497308,8,0,3.370296746014009,14.13639653227477,-7.116084449508358,-5.241676385749885e-07,4.254023150646806e-05,-5.692867559606686e-05,5.66991252866508e-05,6.626211830181459e-05
27.57735026920001,10.4226497308,8,0,3.962493305729347,16.50518277113612,-7.274872425312208,-5.241676385749885e-07,4.964659022305211e-05,-5.819897940249766e-05,6.298069250913673e-05,7.499623967668857e-05
26.4226497308,11.5773502692,8,0,2.946862143870419,14.03053788173887,-6.227789609935386,-1.794471445005759e-06,4.254023150646806e-05,-4.982231687948309e-05,5.371890357565718e-05,6.227979462852038e-05
27.57735026920001,11.5773502692,8,0,3.539058703585742,16.39932412060017,-6.386577585739236,-1.794471445005759e-06,4.964659022305194e-05,-5.109262068591388e-05,6.017739975766185e-05,6.939567168221555e-05
28.4226497308,10.4226497308,8,0,2.792570854658742,17.67430805238026,-6.631165760118947,-5.203219706996232e-06,5.432372908388983e-05,-5.304932608095157e-05,6.44278123951709e-05,8.138791535373608e-05
29.5773502692,10.4226497308,8,0,3.265222711810609,19.56491548098773,-6.693516288985771,-5.203219706996232e-06,5.999555136971223e-05,-5.354813031188617e-05,6.958112170964408e-05,9.01161766748005e-05
28.4226497308,11.5773502692,8,0,2.62630277768048,17.63274103313569,-5.922187974391127,-5.702023937931018e-06,5.432372908388983e-05,-4.737750379512902e-05,6.254604216219845e-05,7.452762647537756e-05
29.5773502692,11.5773502692,8,0,3.098954634832337,19.52334846174312,-5.984538503257966,-5.702023937931018e-06,5.999555136971212e-05,-4.787630802606372e-05,6.779252693762738e-05,8.14325106593437e-05
30.4226497308,10.4226497308,8,0,2.516318602050153,20.67472584146679,-5.94070417762924,-8.487561146612943e-06,6.41460678110536e-05,-4.752563342103392e-05,7.122951222439305e-05,9.621607697287004e-05
31.5773502692,10.4226497308,8,0.03841640874921339,2.873806568978104,21.69710068631331,-5.725064199367206,-8.487561146612943e-06,6.981366732110945e-05,-4.76302986153937e-05,7.648806734187244e-05,0.0001041530531879446
30.4226497308,11.5773502692,8,0,2.48143020393031,20.6660037419369,-5.232254238872311,-8.592226340972523e-06,6.414606781105382e-05,-4.18580339109785e-05,6.97380766981434e-05,8.6253463326388e-05
31.5773502692,11.5773502692,8,0,2.953730163101591,22.55520357862202,-5.245337388167258,-8.592226340972523e-06,6.981366732110918e-05,-4.196269910533806e-05,7.507517898546329e-05,9.251966677023152e-05
32.4226497308,10.4226497308,8,0.08329243920785001,2.631108191320819,21.98804542856948,-4.881058863476849,-1.000416111186447e-05,7.445870606694158e-05,-4.259643159708646e-05,7.952534832864983e-05,0.0001092983831723086
33.57735026920001,10.4226497308,8,0.1330937219584817,2.995518353614813,22.82291100747691,-4.673263276651632,-1.000416111186447e-05,8.148158841416451e-05,-4.312589164502803e-05,8.630917166894438e-05,0.0001154187098968216
32.4226497308,11.5773502692,8,0,2.693685118976517,23.94176692566337,-4.446693656232921,-1.053362115980584e-05,7.445870606694158e-05,-3.557354924986337e-05,7.803089681328796e-05,9.669796158019657e-05
33.57735026920001,11.5773502692,8,0.01733897025082567,3.222072126094277,25.82701227423024,-4.4346275367031,-1.053362115980584e-05,8.148158841416456e-05,-3.610300929780472e-05,8.489621059364423e-05,0.0001018470718466643
34.42264973080001,10.4226497308,8,0.160894605430932,3.163156146113915,23.45263514816986,-3.777012359666739,-1.029669038823012e-05,8.642288325949187e-05,-3.600989705572293e-05,8.966587885228182e-05,0.0001190423740662112
35.5773502692,10.4226497308,8,0.1886512967474259,3.496446921851933,24.42854568026242,-3.762319484643958,-1.029669038823012e-05,9.289986948545609e-05,-3.709694211193179e-05,9.613249571434064e-05,0.0001228220819624584
34.42264973080001,11.5773502692,8,0.04668868890088623,3.2482447585082,26.55828373621207,-3.519257242961362,-1.138373544443881e-05,8.642288325949208e-05,-2.953291082975914e-05,8.860364061226009e-05,0.0001050768917457706
35.5773502692,11.5773502692,8,0.07866090464966542,3.636596637128917,27.65673719362416,-3.526420306955588,-1.138373544443881e-05,9.289986948545598e-05,-3.061995588596778e-05,9.510107934875781e-05,0.0001087518135433334
36.4226497308,10.4226497308,8,0.2026959956224827,3.908230858661299,25.12693386255605,-2.810660003186667,-9.526113377868363e-06,9.692614517041735e-05,-2.820163940233609e-05,9.876228931240413e-05,0.0001248001057832105
37.5773502692,10.4226497308,8,0.2139914351874239,4.149122744924437,25.95599936017299,-2.941481643189733,-9.526113377868363e-06,0.0001014491486815134,-2.993841822974161e-05,0.0001034328532793495,0.0001264244594640696
36.4226497308,11.5773502692,8,0.09665859086260287,3.905037741483531,28.33794711052737,-2.673736539055501,-1.126289220527375e-05,9.692614517041735e-05,-2.36786358912399e-05,9.820658834700247e-05,0.0001108966906542879
37.5773502692,11.5773502692,8,0.1145131035741493,4.161609829710896,29.11286864837703,-2.813127087573683,-1.126289220527375e-05,0.0001014491486815132,-2.54154147186457e-05,0.0001028641146114401,0.0001130816821000933
38.4226497308,10.4226497308,8,0.2181873768817076,4.618305369636899,26.60267401531972,-2.000111484602316,-8.318568717243232e-06,0.0001041603961682161,-2.046640256715004e-05,0.0001050838194768237,0.0001270356893830388
39.5773502692,10.4226497308,8,0.2184989394353266,4.804302756626353,27.34342387013753,-2.238010366761538,-8.318568717243232e-06,0.0001070446585430015,-2.290986389852845e-05,0.0001081710717199145,0.0001270812468959805
38.4226497308,11.5773502692,8,0.1237159794593291,4.462642574554192,29.63881399844903,-1.925868562184371,-1.076203004862178e-05,0.0001041603961682161,-1.758214019236459e-05,0.0001048289854448658,0.0001142309658057382
39.5773502692,11.5773502692,8,0.1312659373783483,4.632997729435597,30.21866852548676,-2.174615271020502,-1.076203004862178e-05,0.0001070446585430014,-2.002560152374348e-05,0.0001078896209037626,0.0001151858758361993
40.4226497308,10.4226497308,8,0.2161615860141999,5.180477838289381,27.90905554341411,-1.333902354482905,-7.335332448135708e-06,0.0001086507039572527,-1.361405443451073e-05,0.000109048830458139,0.0001267400528040136
41.5773502692,10.4226497308,8,0.2094126956057343,5.324138354259651,28.54557930079785,-1.633973677439737,-7.335332448135708e-06,0.0001101542392536516,-1.653427691902196e-05,0.0001107331033492681,0.0001257623356965363
40.4226497308,11.5773502692,8,0.1341445479189287,4.879707648636407,30.61861578523213,-1.310744877908329,-1.025555493264685e-05,0.0001086507039572527,-1.211051913811224e-05,0.0001089582703687486,0.0001155528654987913
41.5773502692,11.5773502692,8,0.1345179600793237,4.986043440054797,31.03917201475137,-1.626104615133591,-1.025555493264685e-05,0.0001101542392536515,-1.503074162262342e-05,0.0001106214974908365,0.0001156005898724267
42.4226497308,10.4226497308,8,0.2027936698765556,5.565401611004836,29.01718788707969,-0.7470916730390007,-6.779255194337732e-06,0.0001108905895618796,-7.497097248822059e-06,0.0001110098842341876,0.0001248140221296479
43.57735026920001,10.4226497308,8,0.1913660833308491,5.679425484893494,29.57012153944524,-1.074193811656384,-6.779255194337732e-06,0.0001113988007198147,-1.062724468526972e-05,0.0001116372352679921,0.0001232008983907689
42.4226497308,11.5773502692,8,0.1329296516459253,5.148445446365333,31.33396827428122,-0.7574819871790607,-9.909402630785432e-06,0.0001108905895618796,-6.988886090887169e-06,0.0001109915906526582,0.0001153977830387636
43.57735026920001,11.5773502692,8,0.1281937200760019,5.213488022356655,31.65280139419428,-1.102729621986499,-9.909402630785432e-06,0.0001113988007198146,-1.011903352733483e-05,0.0001116094569912892,0.0001147959800914148
44.4226497308,10.4226497308,8,0.1818413639192878,5.809788323285672,29.95241551564076,-0.1984532199262775,-6.564264607320769e-06,0.0001114697015584945,-1.940486464844452e-06,0.0001114776764521773,0.0001218791351310315
45.5773502692,10.4226497308,8,0.1671610061495102,5.892206559978422,30.40254565357545,-0.5272657921842975,-6.564264607320769e-06,0.0001111551950941403,-5.064756055636382e-06,0.0001112096463594768,0.0001198811344885766
44.4226497308,11.5773502692,8,0.1233749898413608,5.312023558477016,31.86460847121166,-0.2470978999332906,-9.688534198112712e-06,0.0001114697015584945,-2.254992929198534e-06,0.0001114801931127585,0.0001141880960033127
45.5773502692,11.5773502692,8,0.1148955705795086,5.340208116463042,32.08003813252901,-0.5951511354323993,-9.688534198112712e-06,0.0001111551950941402,-5.379262519990464e-06,0.0001112150288668708,0.0001131291287367832
46.42264973080001,10.4226497308,8,0.1556086230446375,5.948542014053109,30.6969295366132,0.3373867561654281,-6.539869230110022e-06,0.0001106967023312709,3.196496462405381e-06,0.0001107184866841951,0.0001183412518003837
47.57735026920001,10.4226497308,8,0.1386631723734704,6.000582421475451,31.04361745559595,0.01895769622670815,-6.539869230110022e-06,0.0001097585832725107,1.760769596158783e-07,0.0001097586499180191,0.0001161322147008208
46.42264973080001,11.5773502692,8,0.107702796536258,5.38765686001358,32.21390106589444,0.2518929802048039,-9.560288732899443e-06,0.0001106967023312709,2.258377403645327e-06,0.0001107073042489838,0.0001122413786051113
47.57735026920001,11.5773502692,8,0.09647867910303205,5.384793443478001,32.33657965404414,-0.08606516049971205,-9.560288732899443e-06,0.0001097585832725108,-7.620420991440125e-07,0.0001097597999749269,0.0001108749674073843
48.4226497308,10.4226497308,8,0.1257370085478829,6.008365437106569,31.25616110612003,0.86166900549008,-6.609177721863421e-06,0.0001089066151956789,7.884757917604458e-06,0.0001090410062646686,0.0001144855090016763
49.57735026920001,10.4226497308,8,0.1073302872862368,6.03150169297218,31.50077274470125,0.5583884773251212,-6.609177721863421e-06,0.0001075171141820083,5.004211249668957e-06,0.0001075719440213219,0.0001121956624658721
48.4226497308,11.5773502692,8,0.08756562438020188,5.394594703607877,32.40181724994412,0.7408119597039029,-9.489724389798854e-06,0.0001089066151956789,6.495256903934024e-06,0.0001089956311800704,0.0001098059558792174
49.57735026920001,11.5773502692,8,0.07439611919383256,5.365279604002646,32.44077556973403,0.4182237278037575,-9.489724389798854e-06,0.0001075171141820084,3.614710235998577e-06,0.0001075450249738058,0.0001082517732679917
50.42264973080001,10.4226497308,8,0.09359659281672432,6.006767322628233,31.63803987025895,1.363625855929298,-6.717512771402958e-06,0.0001063944739863787,1.203548746725813e-05,0.0001067137267758938,0.000110527759214175
51.57735026920001,10.4226497308,8,0.07447342148628038,6.004107940098042,31.78797752469066,1.078528500352656,-6.717512771402958e-06,0.0001047168649468396,9.32250699561444e-06,0.000104911503267071,0.0001082608093240397
50.42264973080001,11.5773502692,8,0.0643216441267908,5.354614403555042,32.4483431301293,1.211455332197815,-9.430493243046663e-06,0.0001063944739863787,1.035787842771881e-05,0.0001066255813323662,0.0001070827467391148
51.57735026920001,11.5773502692,8,0.04994108942924658,5.304091173603671,32.41576986520689,0.9078879279466701,-9.430493243046663e-06,0.0001047168649468396,7.644897956075175e-06,0.0001048447239572852,0.0001054430894779172
52.4226497308,10.4226497308,8,0.06047991924789193,5.953353478490079,31.85575329132509,1.833113389012734,-6.848040434368743e-06,0.0001034312408433642,1.560893419155264e-05,0.0001039808242647447,0.0001066414087286105
53.5773502692,10.4226497308,8,0.04139157484048062,5.927738752525275,31.91669158037476,1.56747285595547,-6.848040434368743e-06,0.0001015964595126236,1.308123579819054e-05,0.0001019895194319613,0.000104484073914038
52.4226497308,11.5773502692,8,0.03925380444627816,5.278362458722674,32.37308159645031,1.654183119750125,-9.375738827730818e-06,0.0001034312408433642,1.377415286081248e-05,0.0001038501540491081,0.0001042460825390746
53.5773502692,11.5773502692,8,0.02443136368457301,5.210634374227499,32.27588342518369,1.371461031024246,-9.375738827730818e-06,0.0001015964595126237,1.124645446745024e-05,0.0001018806740016402,0.0001026154560262027
54.42264973080001,10.4226497308,8,0.02769818043097542,5.847785033791563,31.93127685330665,2.261618821642592,-7.026737209584431e-06,0.000100279415240389,1.860836852198887e-05,0.0001010801766502905,0.0001029719399803399
55.57735026920001,10.4226497308,8,0.009420337845227972,5.812144929023042,31.94925842999281,2.006180189216718,-7.026737209584431e-06,9.851596470341326e-05,1.62020704915564e-05,9.913414693299232e-05,0.0001009980480600246
54.42264973080001,11.5773502692,8,0.01368349332037995,5.140950755874872,32.19375098014857,2.076802582785367,-9.433035240016948e-06,0.000100279415240389,1.684491798501322e-05,0.0001009222283980208,0.0001014539825174489
55.57735026920001,11.5773502692,8,0,5.06531864527879,32.05256863113635,1.804827494322587,-9.433035240016948e-06,9.851596470341326e-05,1.44386199545807e-05,9.899663054491443e-05,9.991140439262527e-05
56.4226497308,10.4226497308,8,0,5.707567665114645,31.86114633562835,2.736459497402081,-7.224700540135813e-06,9.738961414191899e-05,2.189167597921665e-05,9.852261097725741e-05,9.963016886544125e-05
57.57735026920001,10.4226497308,8,0,5.598084629757061,31.42321419419801,2.461181823348172,-7.224700540135813e-06,9.607581771762798e-05,1.968945458678538e-05,9.700566816985972e-05,9.786694532737941e-05
56.4226497308,11.5773502692,8,0,4.973493867637563,31.67762788625908,2.572234944365688,-9.42692193256706e-06,9.738961414191899e-05,2.05778795549255e-05,9.837165201006916e-05,9.881480591916099e-05
57.57735026920001,11.5773502692,8,0,4.864010832279977,31.23969574482873,2.296957270311779,-9.42692193256706e-06,9.607581771762795e-05,1.837565816249423e-05,9.686997265091169e-05,9.736142129885037e-05
58.4226497308,10.4226497308,8,0,5.500570133214527,31.07042068295682,3.124590115385796,-7.254512120078964e-06,9.502489007889018e-05,2.499672092308637e-05,9.653001819150668e-05,9.662809947178657e-05
59.57735026920001,10.4226497308,8,0,5.370787526552793,30.55129025630988,2.867169870211622,-7.254512120078964e-06,9.346749879894937e-05,2.293735896169297e-05,9.475687068488744e-05,9.500673318947878e-05
58.4226497308,11.5773502692,8,0,4.814116146083363,30.89880718617403,2.929916205393202,-9.313874081472455e-06,9.502489007889018e-05,2.343932964314562e-05,9.632507850528723e-05,9.631242602087021e-05
59.57735026920001,11.5773502692,8,0,4.68433353942163,30.37967675952709,2.672495960219017,-9.313874081472455e-06,9.346749879894937e-05,2.137996768175214e-05,9.456755827946499e-05,9.489990224471743e-05
60.4226497308,10.4226497308,8,0,5.265611633922498,30.17314345472822,3.304780873993672,-7.288557535230577e-06,9.234156974799229e-05,2.643824699194937e-05,9.406567365514542e-05,9.386209389402113e-05
61.5773502692,10.4226497308,8,0,5.139052959495622,29.66690875702071,3.07009595561761,-7.288557535230577e-06,9.082286565486977e-05,2.456076764494088e-05,9.233661783909981e-05,9.235624746466582e-05
60.4226497308,11.5773502692,8,0,4.639785184919681,30.01668684247752,3.114942862353369,-9.16603688223903e-06,9.234156974799229e-05,2.491954289882695e-05,9.38485974205395e-05,9.38824507012169e-05
61.5773502692,11.5773502692,8,0,4.513226510492804,29.51045214477001,2.880257943977301,-9.16603688223903e-06,9.082286565486976e-05,2.30420635518184e-05,9.213318347092746e-05,9.251524516616872e-05
62.42264973080001,10.4226497308,8,0,4.994009756631177,29.29712026544427,3.353079308749463,-7.456864991135648e-06,8.975557704411671e-05,2.682463446999571e-05,9.157211849768548e-05,9.129727997065983e-05
63.57735026920001,10.4226497308,8,0,4.877577871804646,28.83139272613814,3.141963140001832,-7.456864991135648e-06,8.835839442619834e-05,2.513570512001466e-05,8.997946248229027e-05,8.990997340270388e-05
62.42264973080001,11.5773502692,8,0,4.431033306637463,29.15637615294584,3.17843148150967,-9.14579434111679e-06,8.975557704411671e-05,2.542745185207736e-05,9.136377052439602e-05,9.153945701846292e-05
63.57735026920001,11.5773502692,8,0,4.314601421810932,28.69064861363972,2.967315312762032,-9.14579434111679e-06,8.835839442619834e-05,2.373852250209626e-05,8.978245044727676e-05,9.024075975644201e-05
64.4226497308,10.4226497308,8,0,4.686857357112201,28.48030244918015,3.318441133237109,-7.786298416585072e-06,8.73874819516867e-05,2.654752906589688e-05,8.920408296274034e-05,8.893770613810828e-05
65.57735026920001,10.4226497308,8,0,4.582240724423663,28.06183591842599,3.130771514700068,-7.786298416585072e-06,8.613208235942423e-05,2.504617211760054e-05,8.777323401067878e-05,8.766872914054009e-05
64.4226497308,11.5773502692,8,0,4.186405041013411,28.35518937015545,3.161516184204293,-9.287655364881444e-06,8.73874819516867e-05,2.529212947363434e-05,8.901433560690584e-05,8.932039601674913e-05
65.57735026920001,11.5773502692,8,0,4.081788408324869,27.93672283940128,2.973846565667245,-9.287655364881444e-06,8.613208235942421e-05,2.379077252533796e-05,8.759264974896548e-05,8.810461278037817e-05
66.4226497308,10.4226497308,8,0,4.352517860014737,27.73239814253255,3.233668961202662,-8.25786136197888e-06,8.526165976809237e-05,2.586935168962129e-05,8.701768062838049e-05,8.678005355645564e-05
67.57735026920001,10.4226497308,8,0,4.258964597397002,27.35818509206161,3.06837328782224,-8.25786136197888e-06,8.413902061667954e-05,2.454698630257792e-05,8.574156898927954e-05,8.562112370675592e-05
66.4226497308,11.5773502692,8,0,3.911729397666937,27.6222010269456,3.093339067276052,-9.580226749022282e-06,8.526165976809237e-05,2.474671253820842e-05,8.68493464117624e-05,8.724590286469792e-05
67.57735026920001,11.5773502692,8,0,3.818176135049201,27.24798797647466,2.928043393895631,-9.580226749022282e-06,8.413902061667954e-05,2.342434715116504e-05,8.558052882080386e-05,8.61156469823675e-05
68.42264973080002,10.4226497308,8,0,4.000234064487248,27.04955806298531,3.11975169885685,-8.83889744402905e-06,8.335839854996317e-05,2.49580135908548e-05,8.501758716384462e-05,8.480768787682896e-05
69.57735026920001,10.4226497308,8,0,3.9160623981159,26.71287139749991,2.975200188103056,-8.83889744402905e-06,8.2348338553507e-05,2.380160150482445e-05,8.387591600610882e-05,8.374426971037677e-05
68.42264973080002,11.5773502692,8,0,3.614763369143813,26.95319038914945,2.993494199299827,-9.995309530059354e-06,8.335839854996317e-05,2.394795359439861e-05,8.486976738040422e-05,8.53171900067565e-05
69.57735026920001,11.5773502692,8,0,3.530591702772465,26.61650372366406,2.848942688546036,-9.995309530059354e-06,8.2348338553507e-05,2.279154150836829e-05,8.373385807112909e-05,8.426602086396714e-05
70.4226497308,10.4226497308,8,0,3.638417937844644,26.4225513844994,2.989728624102291,-9.495103706496661e-06,8.164143008012237e-05,2.391782899281833e-05,8.318454804856695e-05,8.299415676760547e-05
71.57735026920001,10.4226497308,8,0,3.561647115410174,26.11546809476152,2.864029194272669,-9.495103706496661e-06,8.072018021090872e-05,2.291223355418135e-05,8.215221997312946e-05,8.200822826290432e-05
70.4226497308,11.5773502692,8,0,3.303219458298974,26.33875176461299,2.874572390450582,-1.050069914513367e-05,8.164143008012237e-05,2.299657912360466e-05,8.305461188025737e-05,8.352101812395e-05
71.57735026920001,11.5773502692,8,0,3.226448635864505,26.03166847487511,2.748872960620967,-1.050069914513367e-05,8.072018021090874e-05,2.199098368496773e-05,8.202682748935299e-05,8.2536801929148e-05
72.4226497308,10.4226497308,8,0,3.274057730287111,25.84025424515468,2.851301700572167,-1.019521865920499e-05,8.006956740026528e-05,2.281041360457734e-05,8.148834667363606e-05,8.130773018232752e-05
73.57735026920001,10.4226497308,8,0,3.20270294815419,25.554835116623,2.742513518964016,-1.019521865920499e-05,7.921331001467023e-05,2.194010815171212e-05,8.053961526288981e-05,8.037986234020697e-05
72.4226497308,11.5773502692,8,0,2.983955912665366,25.76772879074924,2.744269527372798,-1.106552411207022e-05,8.006956740026528e-05,2.195415621898238e-05,8.137309449358874e-05,8.183523965253111e-05
73.57735026920001,11.5773502692,8,0,2.912601130532449,25.48230966221757,2.635481345764656,-1.106552411207022e-05,7.921331001467027e-05,2.108385076611725e-05,8.042795602675067e-05,8.090275206286056e-05
74.4226497308,10.4226497308,8,0,2.912783944837176,25.29132716535083,2.70866736390044,-1.09121531088017e-05,7.86020197732529e-05,2.166933891120352e-05,7.989476339599174e-05,7.971469226387988e-05
75.57735026920001,10.4226497308,8,0,2.844965727153901,25.02005429461773,2.614923223301599,-1.09121531088017e-05,7.77882011610536e-05,2.091938578641279e-05,7.900493512749042e-05,7.88252816617231e-05
74.4226497308,11.5773502692,8,0,2.662799569906858,25.22883107161825,2.606940037375532,-1.166210623359265e-05,7.86020197732529e-05,2.085552029900426e-05,7.979102425192155e-05,8.023297038519181e-05
75.57735026920001,11.5773502692,8,0,2.594981352223581,24.95755820088514,2.513195896776673,-1.166210623359265e-05,7.778820116105359e-05,2.010556717421338e-05,7.890405346379963e-05,7.933558040141483e-05
76.42264973080002,10.4226497308,8,0,2.559125652150537,24.76487419926782,2.563712044330635,-1.162269727253254e-05,7.720029691593659e-05,2.050969635464508e-05,7.836887206046817e-05,7.818124669466947e-05
77.57735026920001,10.4226497308,8,0,2.493095180857727,24.50075231409658,2.483277406794651,-1.162269727253254e-05,7.640793126042288e-05,1.986621925435721e-05,7.751483498954402e-05,7.731112104490997e-05
76.42264973080002,11.5773502692,8,0,2.344633285387946,24.71125110757717,2.464666337391421,-1.226617437282031e-05,7.720029691593659e-05,1.971733069913137e-05,7.827378188862718e-05,7.86852448540781e-05
77.57735026920001,11.5773502692,8,0,2.278602814095136,24.44712922240593,2.384231699855445,-1.226617437282031e-05,7.640793126042286e-05,1.907385359884356e-05,7.742203306241514e-05,7.78058850804875e-05
78.4226497308,10.4226497308,8,0,2.216807366538405,24.25062811894938,2.416774403240166,-1.23067189222366e-05,7.582856408740727e-05,1.933419522592133e-05,7.687643880545499e-05,7.66744286159141e-05
79.57735026920001,10.4226497308,8,0,2.15093279174927,23.98712981979283,2.348065750701689,-1.23067189222366e-05,7.503806918993764e-05,1.878452600561351e-05,7.603661207168568e-05,7.580507820078849e-05
78.4226497308,11.5773502692,8,0,2.033584293102457,24.20482235059039,2.31796254105644,-1.285638814254445e-05,7.582856408740727e-05,1.854370032845152e-05,7.678754924549697e-05,7.71625291047653e-05
79.57735026920001,11.5773502692,8,0,1.967709718313317,23.94132405143383,2.249253888517975,-1.285638814254445e-05,7.503806918993759e-05,1.79940311081438e-05,7.594956538657122e-05,7.6284207665255e-05
80.4226497308,10.4226497308,8,0,1.889023985726197,23.73890791968691,2.267114740330065,-1.29462495814257e-05,7.445328615441715e-05,1.813691792264052e-05,7.538429981274024e-05,7.516244655471994e-05
81.57735026920001,10.4226497308,8,0,1.82176048013917,23.4698538973388,2.208693598249749,-1.29462495814257e-05,7.364612408737283e-05,1.766954878599799e-05,7.453831845181812e-05,7.427609466215997e-05
80.4226497308,11.5773502692,8,0,1.73323427351203,23.69996049163337,2.166219481949528,-1.34136187180682e-05,7.445328615441715e-05,1.732975585559622e-05,7.529960987294373e-05,7.56355224152488e-05
81.57735026920001,11.5773502692,8,0,1.665970767925005,23.43090646928527,2.107798339869207,-1.34136187180682e-05,7.364612408737284e-05,1.686238671895366e-05,7.445511516219309e-05,7.474160279354626e-05
82.4226497308,10.4226497308,8,0,1.57867838759577,23.22047568179532,2.11318929500564,-1.352460970512979e-05,7.30425794716684e-05,1.690551436004512e-05,7.386021688915906e-05,7.361481667150412e-05
83.57735026920001,10.4226497308,8,0,1.508532346948709,22.93989151920707,2.063742188322223,-1.352460970512979e-05,7.220082698390366e-05,1.650993750657778e-05,7.29885053500601e-05,7.269452349558848e-05
82.4226497308,11.5773502692,8,0,1.446819436439998,23.18751094400638,2.007970234035044,-1.39201865585971e-05,7.30425794716684e-05,1.606376187228035e-05,7.377818165771153e-05,7.40756337467213e-05
83.57735026920001,11.5773502692,8,0,1.376673395792937,22.90692678141813,1.958523127351635,-1.39201865585971e-05,7.220082698390366e-05,1.566818501881308e-05,7.29076624765244e-05,7.315009209615247e-05
84.42264973080002,10.4226497308,8,0,1.288583597128048,22.6863526694181,1.952792611985384,-1.402561462472472e-05,7.156546166443546e-05,1.562234089588308e-05,7.227248055793079e-05,7.20026422495974e-05
85.57735026920001,10.4226497308,8,0,1.214075443256093,22.38832005393027,1.911102820331819,-1.402561462472472e-05,7.067136381797199e-05,1.528882256265455e-05,7.135578715397609e-05,7.103268070858097e-05
84.42264973080002,11.5773502692,8,0,1.177410819385217,22.65855947498239,1.841030381177458,-1.435913295795322e-05,7.156546166443546e-05,1.472824304941966e-05,7.219203077674601e-05,7.245551058464548e-05
85.57735026920001,11.5773502692,8,0,1.102902665513262,22.36052685949457,1.799340589523884,-1.435913295795322e-05,7.067136381797201e-05,1.439472471619107e-05,7.127627742418432e-05,7.148342025569859e-05
86.4226497308,10.4226497308,8,0,1.02163773803128,22.12762159022698,1.783107300829737,-1.443285651048148e-05,6.999107889830129e-05,1.42648584066379e-05,7.058941093377319e-05,7.02995079404081e-05
87.57735026920002,10.4226497308,8,0,0.9412648115496998,21.80612988430066,1.748021300404156,-1.443285651048148e-05,6.902660378052232e-05,1.398417040323325e-05,6.960833347137062e-05,6.926640422796523e-05
86.4226497308,11.5773502692,8,0,0.9280750702297151,22.10423092327659,1.662547911107373,-1.471354451388618e-05,6.999107889830129e-05,1.330038328885898e-05,7.051000878558532e-05,7.075010612697514e-05
87.57735026920002,11.5773502692,8,0,0.8477021437481378,21.78273921735028,1.627461910681786,-1.471354451388618e-05,6.902660378052236e-05,1.301969528545428e-05,6.952964877061909e-05,6.971874499825627e-05
88.42264973080002,10.4226497308,8,0,0.7809813947157176,21.53522511858111,1.600684141833232,-1.472903963177459e-05,6.828793526368696e-05,1.280547313466586e-05,6.87788474039156e-05,6.848380078084058e-05
89.57735026920001,10.4226497308,8,0,0.6931809946946919,21.184023518497,1.571073630456098,-1.472903963177459e-05,6.723433046343465e-05,1.256858904364878e-05,6.771336015856081e-05,6.737879211346948e-05
88.42264973080002,11.5773502692,8,0,0.7020200310433422,21.51548477766301,1.468983541801693,-1.496592372279171e-05,6.828793526368696e-05,1.175186833441354e-05,6.870060450036496e-05,6.89390958896407e-05
89.57735026920001,11.5773502692,8,0,0.6142196310223147,21.1642831775789,1.439373030424547,-1.496592372279171e-05,6.723433046343463e-05,1.151498424339638e-05,6.7635639039482e-05,6.784041604145547e-05
90.42264973080002,10.4226497308,8,0,0.5701466862358693,20.89976245483951,1.401364142090285,-1.489534056791683e-05,6.642312250649773e-05,1.121091313672228e-05,6.680769991212633e-05,6.654404157798677e-05
91.57735026920001,10.4226497308,8,0,0.4732586400944125,20.51221027027368,1.376083149459672,-1.489534056791683e-05,6.526046595280025e-05,1.100866519567738e-05,6.563668494338529e-05,6.536846937067688e-05
90.42264973080002,11.5773502692,8,0,0.5027307058875898,20.88290845975244,1.256032072878109,-1.509758850896166e-05,6.642312250649773e-05,1.004825658302487e-05,6.673159272103682e-05,6.701219368781361e-05
91.57735026920001,11.5773502692,8,0,0.4058426597461331,20.49535627518662,1.230751080247503,-1.509758850896166e-05,6.526046595280025e-05,9.846008641980022e-06,6.556094218681323e-05,6.584812798578878e-05
92.42264973080002,10.4226497308,8,0,0.3932065784604406,20.21128163173559,1.180145843792889,-1.491076425431506e-05,6.436153595878552e-05,9.441166750343114e-06,6.464165199363343e-05,6.449043875654416e-05
93.57735026920001,10.4226497308,8,0,0.2854344232518571,19.78019301090125,1.157981332466399,-1.491076425431506e-05,6.306827009628251e-05,9.263850659731195e-06,6.334244074859831e-05,6.326718671534059e-05
92.42264973080002,11.5773502692,8,0,0.3341012149231437,20.19650529085126,1.018487610980032,-1.508808034492695e-05,6.436153595878552e-05,8.147900887840254e-06,6.456989015254499e-05,6.49804801102265e-05
93.57735026920001,11.5773502692,8,0,0.2263290597145602,19.76541667001693,0.9963230996535335,-1.508808034492695e-05,6.306827009628251e-05,7.970584797228268e-06,6.327095960743665e-05,6.377408773303515e-05
94.4226497308,10.4226497308,8,0,0.2549322520613009,19.45906339180598,0.9309944864045503,-1.475146750684862e-05,6.206505705213009e-05,7.447955891236403e-06,6.224516896836833e-05,6.237925276883331e-05
95.57735026920002,10.4226497308,8,0,0.1343019899734728,18.97654234345467,0.9106078245990071,-1.475146750684862e-05,6.061749390707616e-05,7.284862596792057e-06,6.079311610431829e-05,6.117662415431073e-05
94.4226497308,11.5773502692,8,0,0.2005678205798125,19.44547228393561,0.7500490932728138,-1.491456080129309e-05,6.206505705213009e-05,6.00039274618251e-06,6.218180934876339e-05,6.290009576503754e-05
95.57735026920002,11.5773502692,8,0,0.07993755849199236,18.96295123558433,0.729662431467257,-1.491456080129309e-05,6.061749390707625e-05,5.837299451738056e-06,6.073010615807461e-05,6.171869768015079e-05
96.4226497308,10.4226497308,8,0,0.1609658537000289,18.6313917092626,0.6465834243444636,-1.439002263556999e-05,5.949168078668029e-05,5.172667394755709e-06,5.958210838288572e-05,6.036352356724946e-05
97.57735026920001,10.4226497308,8,0,0.02528122871451632,18.08865320932055,0.6264389734997591,-1.439002263556999e-05,5.786346528685414e-05,5.011511787998072e-06,5.795026080798601e-05,5.934472006616216e-05
96.4226497308,11.5773502692,8,0,0.107247318114144,18.61796207536613,0.4430564868661987,-1.455117824232764e-05,5.949168078668029e-05,3.54445189492959e-06,5.953407498352932e-05,6.092132385881354e-05
97.57735026920001,11.5773502692,8,0,-0.02843730687136237,18.0752235754241,0.4229120360214907,-1.455117824232764e-05,5.786346528685421e-05,3.383296288171926e-06,5.790296162824342e-05,5.992425615108894e-05
98.42264973080002,10.4226497308,8,0,0.1180156612847689,17.7153059686778,0.3179515796579837,-1.379459465883098e-05,5.659456657074115e-05,2.543612637263869e-06,5.661753834056562e-05,5.879805965608883e-05
99.57735026920002,10.4226497308,8,0,-0.03519102724861245,17.10247921454428,0.2962272100799812,-1.379459465883098e-05,5.475608630834058e-05,2.369817680639849e-06,5.477656152034079e-05,5.832335914230587e-05
98.42264973080002,11.5773502692,8,0,0.06008400907675693,17.7008230556258,0.08814154685790354,-1.396838961545502e-05,5.659456657074115e-05,7.051323748632284e-07,5.659632811561112e-05,5.938980600206412e-05
99.57735026920002,11.5773502692,8,0,-0.09312267945662889,17.08799630149226,0.06641717727990612,-1.396838961545502e-05,5.475608630834052e-05,5.31337418239249e-07,5.475711329046537e-05,5.892672874847806e-05
0.4226497308,12.4226497308,8,0,-0.07479657300226594,-2.961511173420452,0.06926383471973936,2.12985990512911e-06,-9.416998496543632e-06,5.541106777579149e-07,2.13650374862976e-06,2.596524339501728e-06
1.5773502692,12.4226497308,8,0,0.08291601010816863,-2.330660840978714,0.09025652114649514,2.12985990512911e-06,-7.524447499218418e-06,7.220521691719611e-07,2.143341770539562e-06,2.665249517828493e-06
0.4226497308,13.5773502692,8,0,-0.01881607586423251,-2.947516049135944,0.3058327093854725,2.297801396543211e-06,-9.416998496543632e-06,2.44666167508378e-06,2.424185576440834e-06,2.676207632243086e-06
1.5773502692,13.5773502692,8,0,0.1388965072462021,-2.316665716694205,0.3268253958122282,2.297801396543211e-06,-7.524447499218418e-06,2.614603166497826e-06,2.468820273297952e-06,2.73007749231849e-06
2.4226497308,12.4226497308,8,0,0.07963033512669782,-1.947688708984239,0.3474312043764201,1.812968039592824e-06,-6.296308136850923e-06,2.779449635011361e-06,2.044519995553631e-06,2.770358387444916e-06
3.5773502692,12.4226497308,8,0,0.2015293467583464,-1.460092662457645,0.3616041120848792,1.812968039592824e-06,-4.833519997271139e-06,2.892832896679034e-06,2.114095876816805e-06,2.988795981248559e-06
2.4226497308,13.5773502692,8,0,0.117424755682539,-1.938240103845415,0.5302797218239338,1.926351301260456e-06,-6.296308136851357e-06,4.24223777459147e-06,2.441270320959851e-06,2.820965666853732e-06
3.5773502692,13.5773502692,8,0,0.2393237673142419,-1.450644057318603,0.5444526295323251,1.926351301260456e-06,-4.833519997270923e-06,4.355621036258601e-06,2.567214533566896e-06,3.015406917426356e-06
4.422649730800001,12.4226497308,8,0,0.3164167752887481,-1.128017853347144,0.4412649995903236,1.914947963601709e-06,-3.862790550941859e-06,3.530119996722589e-06,2.411488930132234e-06,3.203277116431453e-06
5.577350269200001,12.4226497308,8,0,0.4155246109811232,-0.7315865105776438,0.4526505432341247,1.914947963601709e-06,-2.673496522633358e-06,3.621204345872998e-06,2.543350556048538e-06,3.570812881237437e-06
4.422649730800001,13.5773502692,8,0,0.3467782250055331,-1.120427490918083,0.5899267531289405,2.006032312752172e-06,-3.862790550942293e-06,4.719414025031524e-06,2.837120533842354e-06,3.222932011860982e-06
5.577350269200001,13.5773502692,8,0,0.4458860606979262,-0.7239961481485108,0.601312296772728,2.006032312752172e-06,-2.673496522633575e-06,4.810498374181824e-06,3.021818696686829e-06,3.59545986315339e-06
6.422649730800001,12.4226497308,8,0,0.623365073546256,-0.4264917230459077,0.3763796667160326,2.335961613784745e-06,-1.863465572583909e-06,3.011037333728261e-06,2.819924399266946e-06,3.897598417424672e-06
7.577350269200001,12.4226497308,8,0,0.7086777137980702,-0.08524116203865117,0.3858052015842184,2.335961613784745e-06,-8.397138895621398e-07,3.086441612673747e-06,2.962341372373202e-06,4.422857340698808e-06
6.422649730800001,13.5773502692,8,0,0.6484998331948284,-0.4202080331337645,0.5043486270937944,2.411365892730462e-06,-1.863465572583909e-06,4.034789016750355e-06,3.213070201281662e-06,3.948692832127402e-06
7.577350269200001,13.5773502692,8,0,0.7338124734466335,-0.07895747212654422,0.5137741619620209,2.411365892730462e-06,-8.397138895622483e-07,4.110193295696167e-06,3.406093577558846e-06,4.541215399021424e-06
8.4226497308,12.4226497308,8,0,0.9971744817059524,0.2128174836640133,0.162855808234991,3.020704354527836e-06,-1.167236376399192e-07,1.302846465879928e-06,3.150582666775597e-06,4.901399362602897e-06
9.5773502692,12.4226497308,8,0,1.076465683263455,0.529982289894023,0.1678141341033542,3.020704354527836e-06,8.347707810501094e-07,1.342513072826834e-06,3.274548477227649e-06,5.683541556783052e-06
8.4226497308,13.5773502692,8,0,1.010396684021479,0.216123034242895,0.2817926105712311,3.060370961474417e-06,-1.167236376399192e-07,2.254340884569848e-06,3.419641859001145e-06,5.101080149564101e-06
9.5773502692,13.5773502692,8,0,1.089687885578945,0.5332878404727601,0.2867509364394994,3.060370961474417e-06,8.347707810496758e-07,2.294007491515995e-06,3.562856699938392e-06,6.038136526584575e-06
10.4226497308,12.4226497308,8,0,1.435217173918215,0.840717859163469,-0.201954083456452,3.920120669207512e-06,1.542123410188528e-06,-1.615632667651616e-06,4.364702181339637e-06,6.416123445447648e-06
11.5773502692,12.4226497308,8,0,1.516969582507109,1.167727493519046,-0.2071763996071405,3.920120669207512e-06,2.523152313255259e-06,-1.657411196857124e-06,4.806989660355741e-06,7.635432191889028e-06
10.4226497308,13.5773502692,8,0,1.421290997516433,0.837236315063159,-0.07932547057306998,3.878342140002059e-06,1.542123410188962e-06,-6.346037645845598e-07,4.197742647683518e-06,6.903172037173983e-06
11.5773502692,13.5773502692,8,0,1.503043406105318,1.1642459494187,-0.08454778672377199,3.878342140002059e-06,2.523152313255585e-06,-6.763822937901759e-07,4.651513931450618e-06,8.329436625535531e-06
12.4226497308,12.4226497308,8,0,1.929233746876931,1.513326221427832,-0.7293278956715921,4.962887012863914e-06,3.299256911067517e-06,-5.834623165372737e-06,7.248224431447481e-06,8.748443285550043e-06
13.5773502692,12.4226497308,8,0,2.024177771063027,1.893102318172215,-0.7535055375817649,4.962887012863914e-06,4.438585201300667e-06,-6.028044300654119e-06,7.905690680578321e-06,1.056993739650764e-05
12.4226497308,13.5773502692,8,0,1.86476003511657,1.497207793487742,-0.5869118593924212,4.76946587758283e-06,3.299256911067517e-06,-4.69529487513937e-06,6.682499375601074e-06,9.585700809161175e-06
13.5773502692,13.5773502692,8,0,1.959704059302666,1.876983890232125,-0.6110895013025532,4.76946587758283e-06,4.438585201300667e-06,-4.888716010420426e-06,7.375541706336067e-06,1.159161379833984e-05
14.4226497308,12.4226497308,8,0,2.457748243533171,2.300034915530722,-1.433625739651973,6.02476644688157e-06,5.393913134871774e-06,-1.146900591721578e-05,1.145251122812292e-05,1.216547900671843e-05
15.5773502692,12.4226497308,8,0,2.580304590390161,2.790260302958681,-1.487944557883333,6.02476644688157e-06,6.86458929715565e-06,-1.190355646306666e-05,1.242045591726817e-05,1.470308564063231e-05
14.4226497308,13.5773502692,8,0,2.312898061582864,2.263822370043146,-1.249791219366488,5.590215901030648e-06,5.393913134871774e-06,-9.998329754931905e-06,1.050371894477649e-05,1.329334492479535e-05
15.5773502692,13.5773502692,8,0,2.435454408439845,2.754047757471068,-1.304110037597835,5.590215901030648e-06,6.864589297155541e-06,-1.043288030078268e-05,1.152369713781076e-05,1.593664783411222e-05
16.4226497308,12.4226497308,8,0,2.975671528832975,3.289783295695329,-2.322172700500869,6.890322255709256e-06,8.146769323158672e-06,-1.857738160400695e-05,1.682845672475174e-05,1.685066027156456e-05
17.5773502692,12.4226497308,8,0,3.145030263279343,3.967218233480803,-2.417904067185644,6.890322255709256e-06,1.017907413651509e-05,-1.934323253748515e-05,1.83451076413485e-05,2.018033664265301e-05
16.4226497308,13.5773502692,8,0,2.720387884340172,3.225962384572128,-2.068134598831302,6.124471322230848e-06,8.146769323158672e-06,-1.654507679065042e-05,1.546972578178687e-05,1.811844778516233e-05
17.5773502692,13.5773502692,8,0,2.889746618786532,3.903397322357566,-2.163865965516105,6.124471322230848e-06,1.017907413651499e-05,-1.731092772412884e-05,1.704148620410894e-05,2.143593319431907e-05
18.4226497308,12.4226497308,8,0,3.403569710085336,4.592078753606785,-3.374666369568912,7.217760069387646e-06,1.197179624347344e-05,-2.699733095655129e-05,2.330113378732382e-05,2.292437954881497e-05
19.5773502692,12.4226497308,8,0,3.642361632328104,5.547246442577859,-3.517233087508184,7.217760069387646e-06,1.483729931038666e-05,-2.813786470006548e-05,2.560316696690111e-05,2.709156781582868e-05
18.4226497308,13.5773502692,8,0,3.023391795580627,4.497034274980608,-3.016478486204759,6.077226325873519e-06,1.197179624347344e-05,-2.413182788963807e-05,2.144517020246633e-05,2.411375865549498e-05
19.5773502692,13.5773502692,8,0,3.26218371782335,5.4522019639515,-3.159045204144059,6.077226325873519e-06,1.483729931038612e-05,-2.527236163315247e-05,2.383103510954806e-05,2.811222846038344e-05
20.4226497308,12.4226497308,8,0,3.634793480744182,6.322971809973107,-4.511477733680331,6.572961690402894e-06,1.73256750073186e-05,-3.609182186944265e-05,3.077908500654503e-05,3.044336607261564e-05
21.5773502692,12.4226497308,8,0,3.962532294553718,7.633927065211253,-4.692379527816308,6.572961690402894e-06,2.125854077303303e-05,-3.753903622253046e-05,3.407043724706336e-05,3.543346094025404e-05
20.4226497308,13.5773502692,8,0,3.152388696381569,6.202370613882454,-4.01986951296604,5.125747337315055e-06,1.73256750073186e-05,-3.215895610372832e-05,2.842336139578372e-05,3.127044031334993e-05
21.5773502692,13.5773502692,8,0,3.480127510191132,7.513325869120709,-4.200771307102057,5.125747337315055e-06,2.125854077303336e-05,-3.360617045681646e-05,3.183109330675596e-05,3.590036575219901e-05
22.4226497308,12.4226497308,8,0,3.576501001458409,8.560404892726934,-5.565056809616919,4.59647929048536e-06,2.453209485555946e-05,-4.452045447693535e-05,3.895434465183563e-05,3.934241341994658e-05
23.5773502692,12.4226497308,8,0,3.994055193912829,10.23062166254462,-5.755977040172971,4.59647929048536e-06,2.954274516501251e-05,-4.604781632138377e-05,4.325509278974405e-05,4.503177533165462e-05
22.4226497308,13.5773502692,8,0,3.067380386642204,8.433124739022814,-4.93872552093528,3.069117446036804e-06,2.453209485555924e-05,-3.950980416748224e-05,3.628217651762554e-05,3.947034423386598e-05
23.5773502692,13.5773502692,8,0,3.484934579096626,10.1033415088405,-5.12964575149138,3.069117446036804e-06,2.954274516501229e-05,-4.103716601193104e-05,4.072366030974244e-05,4.459378138927333e-05
24.4226497308,12.4226497308,8,0,3.24635812323766,11.27593397877204,-6.312120389801829,1.36759881134288e-06,3.34859022334804e-05,-5.049696311841464e-05,4.734968779007898e-05,4.935706311930956e-05
25.5773502692,12.4226497308,8,0,3.726546051927921,13.19668569353308,-6.481082426932042,1.36759881134288e-06,3.924815737776352e-05,-5.184865941545633e-05,5.24140309335497e-05,5.548460720133442e-05
24.4226497308,13.5773502692,8,0,2.795792690890456,11.16329262068524,-5.591838496766372,1.590251430126817e-08,3.34859022334804e-05,-4.473470797413098e-05,4.468580428320774e-05,4.84401130616383e-05
25.5773502692,13.5773502692,8,0,3.27598061958073,13.08404433544633,-5.760800533896576,1.590251430126817e-08,3.924815737776368e-05,-4.608640427117261e-05,4.989391389398599e-05,5.382504945834015e-05
26.4226497308,12.4226497308,8,0,2.756535772776394,14.27618433145867,-6.55934454858819,-2.600032992282472e-06,4.347856124244662e-05,-5.247475638870552e-05,5.53564407889491e-05,6.000102805752356e-05
27.57735026920001,12.4226497308,8,0,3.239487702031181,16.20799204847782,-6.675660957268985,-2.600032992282472e-06,4.927398439350406e-05,-5.340528765815188e-05,6.056276793392274e-05,6.621257522349578e-05
26.4226497308,13.5773502692,8,0,2.446358682960907,14.19864005900486,-5.834916654705969,-3.530564261728991e-06,4.347856124244684e-05,-4.667933323764775e-05,5.309807595743233e-05,5.775764568000029e-05
27.57735026920001,13.5773502692,8,0,2.929310612215694,16.13044777602401,-5.951233063386812,-3.530564261728991e-06,4.927398439350428e-05,-4.760986450709449e-05,5.842104042901401e-05,6.311676196698408e-05
28.4226497308,12.4226497308,8,0,2.393323546121104,17.25524796822345,-6.297958142807531,-6.14556302699123e-06,5.330213466141816e-05,-5.038366514246024e-05,6.254154567069621e-05,7.065406939614748e-05
29.5773502692,12.4226497308,8,0,2.827464216277204,18.99181064884786,-6.387079029754019,-6.14556302699123e-06,5.851182270329137e-05,-5.109663223803215e-05,6.738823678966536e-05,7.657690997189667e-05
28.4226497308,13.5773502692,8,0,2.155667847597044,17.19583404359244,-5.646747137573346,-6.858530122563408e-06,5.330213466141816e-05,-4.517397710058677e-05,6.083826739553584e-05,6.693160352758137e-05
29.5773502692,13.5773502692,8,0,2.589808517753136,18.9323967242168,-5.735868024519869,-6.858530122563408e-06,5.851182270329126e-05,-4.588694419615895e-05,6.576063768941559e-05,7.199482820741781e-05
30.4226497308,12.4226497308,8,0,2.211555528207213,19.93532495261326,-5.707814015190517,-8.871282271827525e-06,6.202379542579665e-05,-4.566251212152414e-05,6.874015421169247e-05,8.070814682670141e-05
31.5773502692,12.4226497308,8,0,2.576988850808543,21.39705824301858,-5.79003023855577,-8.871282271827525e-06,6.640899529701262e-05,-4.632024190844616e-05,7.296355359634512e-05,8.607205523685967e-05
30.4226497308,13.5773502692,8,0,1.992312265899892,19.8805141370365,-5.159664031288528,-9.529012058749544e-06,6.202379542579687e-05,-4.127731225030823e-05,6.754999682390799e-05,7.552067405134558e-05
31.5773502692,13.5773502692,8,0,2.357745588501195,21.34224742744171,-5.241880254653822,-9.529012058749544e-06,6.640899529701251e-05,-4.193504203723057e-05,7.18137414911107e-05,8.009023935718491e-05
32.4226497308,12.4226497308,8,0,2.139730957109191,22.21014203194048,-4.986967026356225,-1.092097456280297e-05,6.936066973652218e-05,-3.989573621084979e-05,7.404398221099117e-05,8.970557137549823e-05
33.57735026920001,12.4226497308,8,0,2.446308012548384,23.43645025369725,-5.053068167553261,-1.092097456280297e-05,7.303959440179249e-05,-4.042454534042609e-05,7.765201591206069e-05,9.426861366664404e-05
32.4226497308,13.5773502692,8,0,1.963461247250382,22.16607460447578,-4.527101443197422,-1.14497836923794e-05,6.936066973652218e-05,-3.621681154557937e-05,7.323293962563029e-05,8.320242766121527e-05
33.57735026920001,13.5773502692,8,0,2.270038302689574,23.39238282623255,-4.593202584394493,-1.14497836923794e-05,7.303959440179249e-05,-3.674562067515594e-05,7.686196421877551e-05,8.713551892507003e-05
34.42264973080001,12.4226497308,8,0,2.294556206413814,24.22683025050501,-4.244492436190629,-1.20388843398798e-05,7.569021183648499e-05,-3.395593948952503e-05,7.886128892363684e-05,9.722666596062987e-05
35.5773502692,12.4226497308,8,0.00704501600401956,2.573190819701234,25.23535103759845,-4.301827842538952,-1.20388843398798e-05,7.925290867453121e-05,-3.465879450226006e-05,8.243175873127613e-05,0.0001007451728284426
34.42264973080001,13.5773502692,8,0,2.060271202168903,24.16825899944385,-3.799155331434911,-1.274173935261459e-05,7.56902118364852e-05,-3.039324265147929e-05,7.822880604527921e-05,8.974493258426713e-05
35.5773502692,13.5773502692,8,0,2.357162605339409,25.35582461212588,-3.88701220802677,-1.274173935261459e-05,7.925290867453127e-05,-3.109609766421416e-05,8.180963329642435e-05,9.294089201560621e-05
36.4226497308,12.4226497308,8,0.02714187818450631,2.636846512556049,25.55762878437482,-3.412805384064792,-1.234321214784276e-05,8.189779487194869e-05,-2.806415700325144e-05,8.394273733889612e-05,0.0001029111199090475
37.5773502692,12.4226497308,8,0.04876158935529736,2.868634844732178,26.15121126113414,-3.481397881358131,-1.234321214784276e-05,8.556106150579227e-05,-2.927886714749973e-05,8.770319750158862e-05,0.0001053100905122045
36.4226497308,13.5773502692,8,0,2.30550880863199,26.16943809964197,-3.050111296175963,-1.35579222920912e-05,8.189779487194869e-05,-2.44008903694077e-05,8.343249151730462e-05,9.499755003361028e-05
37.5773502692,13.5773502692,8,0,2.610781028118951,27.39052697758981,-3.201950064207006,-1.35579222920912e-05,8.556106150579222e-05,-2.561560051365605e-05,8.718929259488811e-05,9.742048480149107e-05
38.4226497308,12.4226497308,8,0.06097417957342723,3.047273203439935,26.60055067167865,-2.555466281566972,-1.227779474806961e-05,8.805289672339229e-05,-2.177121204531817e-05,8.922037022901971e-05,0.0001066980531268652
39.5773502692,12.4226497308,8,0.07301984770260857,3.251094864971176,27.2309695166868,-2.719400201126453,-1.227779474806961e-05,9.119745050841118e-05,-2.346889688532638e-05,9.251149020545266e-05,0.0001080910669061286
38.4226497308,13.5773502692,8,0,2.679248197590055,28.18634227545761,-2.328332282537432,-1.397547958807791e-05,8.805289672339229e-05,-1.862665826029945e-05,8.889606573783354e-05,9.892247653562982e-05
39.5773502692,13.5773502692,8,0.005706694348816255,2.924509278517155,29.06769436118191,-2.526044785799217,-1.397547958807791e-05,9.119745050841118e-05,-2.032434310030766e-05,9.217035473282518e-05,0.000100603059498139
40.4226497308,12.4226497308,8,0.07920322061476857,3.45582862918276,27.70770603541121,-1.803208931478119,-1.206293664749789e-05,9.3288767221059e-05,-1.566650945657763e-05,9.386801134941372e-05,0.0001088156218946123
41.5773502692,12.4226497308,8,0.08416803858782264,3.63326187302096,28.34257615491988,-2.024463224100251,-1.206293664749789e-05,9.585779694995424e-05,-1.768414564592052e-05,9.657743963238674e-05,0.0001094021291568481
40.4226497308,13.5773502692,8,0.01500925201505154,3.034303060099998,29.47375470367021,-1.612612044210946,-1.40805728368406e-05,9.3288767221059e-05,-1.309747972768238e-05,9.368671722776838e-05,0.0001015963173694666
41.5773502692,13.5773502692,8,0.02455910826905815,3.213712403335491,30.02330776840481,-1.842987768589929,-1.40805728368406e-05,9.58577969499543e-05,-1.511511591702501e-05,9.637489838156503e-05,0.0001026293653765574
42.4226497308,12.4226497308,8,0.08585888263717865,3.806989153771184,28.77929746090564,-1.103977309541374,-1.185929882240918e-05,9.741183156575814e-05,-9.661329425602954e-06,9.762497014527766e-05,0.0001096028464975938
43.57735026920001,12.4226497308,8,0.08553793583061907,3.936096816571583,29.3004858672136,-1.355506826734495,-1.185929882240918e-05,9.908850336414013e-05,-1.185839745438294e-05,9.9404467838484e-05,0.0001095647092082587
42.4226497308,13.5773502692,8,0.02966203072461488,3.330391080151892,30.37084740282348,-0.9684770584196,-1.405636685118916e-05,9.741183156575814e-05,-7.984657627220959e-06,9.755463728173397e-05,0.0001031870245306918
43.57735026920001,13.5773502692,8,0.03412054493316583,3.450043817913297,30.77112021471081,-1.229289953532262,-1.405636685118916e-05,9.908850336414024e-05,-1.018172565600084e-05,9.931710080293943e-05,0.0001036775296660672
44.4226497308,12.4226497308,8,0.08384370365329931,4.071541987411014,29.65422519229054,-0.451760696659004,-1.167316738067812e-05,0.0001000225478892774,-3.944835163698264e-06,0.0001000573676555654,0.0001093636846229912
45.5773502692,12.4226497308,8,0.07951741311431504,4.15790143558007,30.06278987696552,-0.7182852698582376,-1.167316738067812e-05,0.0001008977331902094,-6.242684262292876e-06,0.0001009842146663687,0.0001088526125317818
44.4226497308,13.5773502692,8,0.03590028560277598,3.546158155276101,31.02144886798622,-0.3699310694990612,-1.397101647927242e-05,0.0001000225478892774,-3.069649862766323e-06,0.0001000432092370627,0.0001038741867424981
45.5773502692,13.5773502692,8,0.03632291639891332,3.614886633329143,31.28898205292654,-0.6465669681644883,-1.397101647927242e-05,0.0001008977331902094,-5.367498961360664e-06,0.0001009604010962267,0.0001039209587316231
46.42264973080001,12.4226497308,8,0.07525098223448613,4.254776435330775,30.33908441404124,0.1714911709187634,-1.152310814443765e-05,0.0001013045130915963,1.483569423696305e-06,0.0001013093897412233,0.0001083517567098125
47.57735026920001,12.4226497308,8,0.06788650446033331,4.307004289664739,30.65407292365068,-0.1000313248095405,-1.152310814443765e-05,0.0001015406711487985,-8.58533432147125e-07,0.0001015423009126234,0.0001074944652480768
46.42264973080001,13.5773502692,8,0.03545543087134043,3.684855170845539,31.45643814606214,0.2073442252602719,-1.3865211000281e-05,0.0001013045130915963,1.719727480898724e-06,0.0001013109325255998,0.0001038249852644441
47.57735026920001,13.5773502692,8,0.03265545374551549,3.714589123637698,31.62390179928768,-0.07525642808448131,-1.3865211000281e-05,0.0001015406711487986,-6.223753749447052e-07,0.0001015415102487729,0.0001035160088867966
48.4226497308,12.4226497308,8,0.06168432752476025,4.374018216526949,30.86144136423201,0.7613344712031598,-1.139520005063277e-05,0.0001015195638169781,6.491073258489135e-06,0.0001016127741243805,0.0001067795095193894
49.57735026920001,12.4226497308,8,0.05206821147042454,4.395633899162085,31.08487605245913,0.4936074684663437,-1.139520005063277e-05,0.0001012257394568277,4.165763608219311e-06,0.0001012642484027657,0.0001056835056051054
48.4226497308,13.5773502692,8,0.02969515490987134,3.771051373623574,31.72555179435915,0.7516525790359218,-1.372050970090258e-05,0.0001015195638169781,6.197248898338567e-06,0.0001016028208078631,0.0001031906574200648
49.57735026920001,13.5773502692,8,0.0243882028676329,3.767788423337479,31.80351760193697,0.4721887010244517,-1.372050970090258e-05,0.0001012257394568276,3.871939248068662e-06,0.0001012583365693118,0.0001026107570602461
50.42264973080001,12.4226497308,8,0.04448195281384441,4.444326355701147,31.22687648599376,1.314900440971942,-1.126054801605973e-05,0.0001008568534675139,1.100890093991722e-05,0.0001011264484911187,0.0001048293885052267
51.57735026920001,12.4226497308,8,0.03334421713059659,4.438615148103165,31.36080291491607,1.053905987726335,-1.126054801605973e-05,0.0001001428625626163,8.722078790842708e-06,0.0001003133206173683,0.0001035919011069292
50.42264973080001,13.5773502692,8,0.01984872677854232,3.811757072888232,31.84511843675135,1.261321147315611,-1.354737016513426e-05,0.0001008568534675139,1.029491003501967e-05,0.0001010879888987948,0.000102118111797389
51.57735026920001,13.5773502692,8,0.01273284416595308,3.780688720951794,31.84134689876108,0.9882652688532562,-1.354737016513426e-05,0.0001001428625626163,8.008087885945044e-06,0.0001002837060688684,0.0001013520802689168
52.4226497308,12.4226497308,8,0.02491455998411372,4.472755663312769,31.45176957120452,1.825554845119397,-1.112579174004076e-05,9.954764384095696e-05,1.497759905092752e-05,0.0001000520798186057,0.0001026680814381207
53.5773502692,12.4226497308,8,0.01300879762315454,4.452341988408578,31.53569116225582,1.569817399821198,-1.112579174004076e-05,9.863546695659543e-05,1.272406397172178e-05,9.90029953029606e-05,0.0001013816465640947
52.4226497308,13.5773502692,8,0.007111396629504513,3.808583048639557,31.83955859405716,1.745674671347317,-1.337932681924657e-05,9.954764384095696e-05,1.406542216656642e-05,9.998393180393213e-05,0.0001007522284452678
53.5773502692,13.5773502692,8,0,3.759846639967432,31.76354508392795,1.476485885920065,-1.337932681924657e-05,9.863546695659548e-05,1.181188708736052e-05,9.894599505976627e-05,9.987943431444846e-05
54.42264973080001,12.4226497308,8,0.004241096256858484,4.453394864818639,31.62897861728636,2.320414162266208,-1.10993929201766e-05,9.806592270115468e-05,1.864237741520423e-05,9.885610202747298e-05,0.0001004477304650896
55.57735026920001,12.4226497308,8,0,4.418708671809984,31.54907583746069,2.062012699958074,-1.10993929201766e-05,9.742207574242622e-05,1.649610159966459e-05,9.804537945652274e-05,9.918265910651874e-05
54.42264973080001,13.5773502692,8,0,3.756937313190764,31.58483517240853,2.249816307059476,-1.324566873571638e-05,9.806592270115468e-05,1.799853045647581e-05,9.878879645709037e-05,9.921655619559768e-05
55.57735026920001,13.5773502692,8,0,3.703283399963392,31.37021951949905,1.981531830117008,-1.324566873571638e-05,9.742207574242622e-05,1.585225464093606e-05,9.798686995676985e-05,9.827833362641408e-05
56.4226497308,12.4226497308,8,0,4.406725324019202,31.35180245279356,2.850487531702697,-1.09799209253734e-05,9.680038758972401e-05,2.280390025362157e-05,9.799338132315958e-05,9.826019854945641e-05
57.57735026920001,12.4226497308,8,0,4.31883893560336,31.00025689913019,2.595406186677796,-1.09799209253734e-05,9.574575092873391e-05,2.076324949342237e-05,9.674623343018657e-05,9.700506079804757e-05
56.4226497308,13.5773502692,8,0,3.726508403952797,31.18174822277696,2.718657949078951,-1.302057168557261e-05,9.680038758972401e-05,2.174926359263161e-05,9.786685312365533e-05,9.756034598338717e-05
57.57735026920001,13.5773502692,8,0,3.63862201553695,30.83020266911357,2.463576604054034,-1.302057168557261e-05,9.574575092873385e-05,1.970861283243227e-05,9.663134742112346e-05,9.653698983253126e-05
58.4226497308,12.4226497308,8,0,4.321404297426775,30.73178764520062,3.22153588072625,-1.075693636439481e-05,9.488459702670053e-05,2.577228704581e-05,9.643373091224998e-05,9.607941498109778e-05
59.57735026920001,12.4226497308,8,0,4.213231001376657,30.29909446100014,2.986141191450697,-1.075693636439481e-05,9.358651747409913e-05,2.388912953160558e-05,9.493639102775409e-05,9.480564133067875e-05
58.4226497308,13.5773502692,8,0,3.693685126025297,30.57485785235025,3.059275936651078,-1.264009387859924e-05,9.488459702670053e-05,2.447420749320862e-05,9.625968438221847e-05,9.575849043260435e-05
59.57735026920001,13.5773502692,8,0,3.58551182997518,30.14216466814977,2.823881247375538,-1.264009387859924e-05,9.358651747409913e-05,2.259104997900431e-05,9.477433632254937e-05,9.465494666910761e-05
60.4226497308,12.4226497308,8,0,4.219324438143022,29.99758046085142,3.441515271044246,-1.049622616662346e-05,9.261679792421011e-05,2.753212216835397e-05,9.442299169533245e-05,9.387429259969472e-05
61.5773502692,12.4226497308,8,0,4.106720810901247,29.54716595188432,3.221932100823245,-1.049622616662346e-05,9.126555439730881e-05,2.577545680658596e-05,9.287236304835478e-05,9.260357419739245e-05
60.4226497308,13.5773502692,8,0,3.633769317553692,29.85119168070408,3.272609830181611,-1.225289152839145e-05,9.261679792421011e-05,2.618087864145289e-05,9.422612534515287e-05,9.383164744464613e-05
61.5773502692,13.5773502692,8,0,3.521165690311917,29.40077717173698,3.053026659960602,-1.225289152839145e-05,9.126555439730881e-05,2.442421327968482e-05,9.268671043180051e-05,9.268589589698638e-05
62.42264973080001,12.4226497308,8,0,4.072899293111769,29.2357438892168,3.537011329071792,-1.035531737341577e-05,9.029606101100432e-05,2.829609063257434e-05,9.224696484992669e-05,9.168680834328703e-05
63.57735026920001,12.4226497308,8,0,3.964777487928669,28.80325666848439,3.335067700656206,-1.035531737341577e-05,8.899859934880712e-05,2.668054160524964e-05,9.075862201398614e-05,9.045287585342256e-05
62.42264973080001,13.5773502692,8,0,3.534382950670223,29.10111480360641,3.374828621297132,-1.197086640074041e-05,9.029606101100432e-05,2.699862897037706e-05,9.204796959397745e-05,9.184720260148313e-05
63.57735026920001,13.5773502692,8,0,3.426261145487123,28.66862758287401,3.172884992881552,-1.197086640074041e-05,8.899859934880712e-05,2.538307994305242e-05,9.056944677323e-05,9.070160145376316e-05
64.4226497308,12.4226497308,8,0,3.882331494945676,28.49647154515855,3.544995570564755,-1.037371645230067e-05,8.808284374855081e-05,2.835996456451804e-05,9.008439342698683e-05,8.957131641021465e-05
65.57735026920001,12.4226497308,8,0,3.781962397851892,28.09499515678342,3.361768430216936,-1.037371645230067e-05,8.68784145834254e-05,2.689414744173549e-05,8.870349414079292e-05,8.839678371124064e-05
64.4226497308,13.5773502692,8,0,3.39372578735147,28.37432011826,3.394441924924093,-1.183953357508329e-05,8.808284374855081e-05,2.715553539939274e-05,8.989497010720152e-05,8.987415379520591e-05
65.57735026920001,13.5773502692,8,0,3.293356690257691,27.97284372988488,3.211214784576267,-1.183953357508329e-05,8.687841458342546e-05,2.568971827661014e-05,8.852236913027455e-05,8.875912589904748e-05
66.4226497308,12.4226497308,8,0,3.654313197197604,27.79911785743768,3.493934789584313,-1.054549205491781e-05,8.603372658604248e-05,2.795147831667451e-05,8.801545754356252e-05,8.756205932282985e-05
67.57735026920001,12.4226497308,8,0,3.562371417167051,27.43135073731547,3.329586230639453,-1.054549205491781e-05,8.493042522567584e-05,2.663668984511562e-05,8.675344928970916e-05,8.64560825822518e-05
66.4226497308,13.5773502692,8,0,3.21605037334462,27.68955215147443,3.35602211953848,-1.186028052647676e-05,8.603372658604248e-05,2.684817695630784e-05,8.784118400225106e-05,8.795996552138179e-05
67.57735026920001,13.5773502692,8,0,3.124108593314058,27.32178503135219,3.191673560593623,-1.186028052647676e-05,8.493042522567573e-05,2.553338848474898e-05,8.658603299850431e-05,8.689164666226884e-05
68.42264973080002,12.4226497308,8,0,3.397664926482965,27.148443599898,3.404255785435547,-1.084622711517291e-05,8.415688757848721e-05,2.723404628348437e-05,8.607011819656627e-05,8.567106489134043e-05
69.57735026920001,12.4226497308,8,0,3.313494693698825,26.81176266876144,3.258213536728981,-1.084622711517291e-05,8.314684478507754e-05,2.606570829383185e-05,8.49204808515261e-05,8.463233341541706e-05
68.42264973080002,13.5773502692,8,0,3.008218929932091,27.05108210076028,3.27800043625935,-1.201456510482553e-05,8.415688757848721e-05,2.62240034900748e-05,8.591252626194356e-05,8.612836692565985e-05
69.57735026920001,13.5773502692,8,0,2.924048697147948,26.71440116962371,3.131958187552781,-1.201456510482553e-05,8.314684478507751e-05,2.505566550042225e-05,8.476847796013605e-05,8.511136676388061e-05
70.4226497308,12.4226497308,8,0,3.121052334232862,26.54152527721839,3.289809713884384,-1.124585275222955e-05,8.243603901971256e-05,2.631847771107507e-05,8.424938152386759e-05,8.389353302508541e-05
71.57735026920001,12.4226497308,8,0,3.043392778235939,26.2308870532307,3.161034454449546,-1.124585275222955e-05,8.150412434774947e-05,2.528827563559637e-05,8.319693982672651e-05,8.291382429788515e-05
70.4226497308,13.5773502692,8,0,2.777651642406661,26.45567510426184,3.173320379889005,-1.227605482770816e-05,8.243603901971256e-05,2.538656303911204e-05,8.41076840259244e-05,8.438440130526254e-05
71.57735026920001,13.5773502692,8,0,2.69999208640974,26.14503688027416,3.044545120454188,-1.227605482770816e-05,8.15041243477495e-05,2.43563609636335e-05,8.305976296584845e-05,8.341529489866513e-05
72.4226497308,12.4226497308,8,0,2.832199896578912,25.97177696210515,3.159561417298511,-1.171438190063161e-05,8.084392636147335e-05,2.527649133838809e-05,8.253857091971182e-05,8.221372576820552e-05
73.57735026920001,12.4226497308,8,0,2.759551582439355,25.68118370554693,3.046760543242695,-1.171438190063161e-05,7.997214659179868e-05,2.437408434594156e-05,8.156440567645947e-05,8.12807297419354e-05
72.4226497308,13.5773502692,8,0,2.531397565763385,25.89657637940127,3.05058894608919,-1.261678889307818e-05,8.084392636147335e-05,2.440471156871352e-05,8.241081307236988e-05,8.272025959602775e-05
73.57735026920001,13.5773502692,8,0,2.458749251623829,25.60598312284305,2.93778807203336,-1.261678889307818e-05,7.997214659179869e-05,2.350230457626688e-05,8.14402931376776e-05,8.179049424268512e-05
74.4226497308,12.4226497308,8,0,2.537688663561664,25.43102905964324,3.018951327687393,-1.222421952431727e-05,7.934914206000904e-05,2.415161062149914e-05,8.091481297150016e-05,8.060952453408793e-05
75.57735026920001,12.4226497308,8,0,2.468496974845599,25.15426230477898,2.920730209544421,-1.222421952431727e-05,7.851884179541625e-05,2.336584167635537e-05,7.99988472227511e-05,7.970875383013598e-05
74.4226497308,13.5773502692,8,0,2.275765681847065,25.36554831421459,2.915163794613284,-1.300998846946106e-05,7.934914206000904e-05,2.332131035690627e-05,8.079859239743304e-05,8.112001147940478e-05
75.57735026920001,13.5773502692,8,0,2.206573993130998,25.08878155935033,2.816942676470319,-1.300998846946106e-05,7.851884179541623e-05,2.253554141176255e-05,7.988556657168864e-05,8.021798385778846e-05
76.42264973080002,12.4226497308,8,0,2.243046776172505,24.91060067817531,2.870914300778843,-1.275073085878823e-05,7.791948474922299e-05,2.296731440623074e-05,7.93513137955123e-05,7.905546908711389e-05
77.57735026920001,12.4226497308,8,0,2.175782306376564,24.64154279899155,2.785869820957609,-1.275073085878823e-05,7.711231111167171e-05,2.228695856766087e-05,7.847354019160117e-05,7.817143268124403e-05
76.42264973080002,13.5773502692,8,0,2.016261496649211,24.85390435829449,2.770017596084951,-1.343108669735811e-05,7.791948474922299e-05,2.216014076867961e-05,7.92441956815297e-05,7.956294234259524e-05
77.57735026920001,13.5773502692,8,0,1.948997026853275,24.58484647911074,2.684973116263714,-1.343108669735811e-05,7.711231111167176e-05,2.147978493010971e-05,7.836879734113771e-05,7.867536326356067e-05
78.4226497308,12.4226497308,8,0,1.952945867335341,24.40179647579349,2.716591006418317,-1.327201040516169e-05,7.652339202867086e-05,2.173272805134653e-05,7.78196454130001e-05,7.752460994241873e-05
79.57735026920001,12.4226497308,8,0,1.886130599100129,24.13453540285264,2.643362016672382,-1.327201040516169e-05,7.572160880984832e-05,2.114689613337905e-05,7.696060431459131e-05,7.66414937622519e-05
78.4226497308,13.5773502692,8,0,1.75766856134619,24.3529771492962,2.616368104065495,-1.385784232312915e-05,7.652339202867086e-05,2.093094483252396e-05,7.771938923272199e-05,7.80257326985259e-05
79.57735026920001,13.5773502692,8,0,1.690853293110982,24.08571607635537,2.543139114319571,-1.385784232312915e-05,7.572160880984838e-05,2.034511291455657e-05,7.686226993014781e-05,7.713848806766036e-05
80.4226497308,12.4226497308,8,0,1.671422779376915,23.89609340734818,2.555802071301611,-1.376832183187241e-05,7.513036068001262e-05,2.044641657041289e-05,7.629086403825342e-05,7.598958934371683e-05
81.57735026920001,12.4226497308,8,0,1.603628053390466,23.62491450340238,2.493089847312292,-1.376832183187241e-05,7.431682396817524e-05,1.994471877849833e-05,7.543171091082037e-05,7.509166953069155e-05
80.4226497308,13.5773502692,8,0,1.504190182072076,23.85428525802197,2.454109982321929,-1.427001962378693e-05,7.513036068001262e-05,1.963287985857543e-05,7.619554491204323e-05,7.648384232108364e-05
81.57735026920001,13.5773502692,8,0,1.436395456085625,23.58310635407616,2.39139775833261,-1.427001962378693e-05,7.431682396817521e-05,1.913118206666088e-05,7.533794449818065e-05,7.558256151126668e-05
82.4226497308,12.4226497308,8,0,1.4020915708811,23.38516121789014,2.387346205570813,-1.422143594749259e-05,7.371084264054355e-05,1.90987696445665e-05,7.473594866053134e-05,7.442333740640893e-05
83.57735026920001,12.4226497308,8,0,1.331921982234356,23.10448286330316,2.333914732723411,-1.422143594749259e-05,7.286880757678262e-05,1.867131786178729e-05,7.385830332679353e-05,7.349533989948608e-05
82.4226497308,13.5773502692,8,0,1.259607643288046,23.34954023599187,2.282091822600707,-1.464888773027175e-05,7.371084264054355e-05,1.825673458080566e-05,7.46440307456115e-05,7.49124643954764e-05
83.57735026920001,13.5773502692,8,0,1.189438054641301,23.0688618814049,2.228660349753313,-1.464888773027175e-05,7.286880757678262e-05,1.78292827980265e-05,7.376763092430073e-05,7.398300583887115e-05
84.42264973080002,12.4226497308,8,0,1.148334656092493,22.86079641349452,2.209169236152319,-1.461396623129963e-05,7.223588079830845e-05,1.767335388921855e-05,7.312586269567888e-05,7.279976804652752e-05
85.57735026920001,12.4226497308,8,0,1.074405235044543,22.56507872930272,2.163831846521993,-1.461396623129963e-05,7.134872774573304e-05,1.731065477217594e-05,7.221154663031328e-05,7.182742791077203e-05
84.42264973080002,13.5773502692,8,0,1.027434950411658,22.83057148707431,2.098275104580392,-1.497666534834214e-05,7.223588079830845e-05,1.678620083664313e-05,7.303626472567894e-05,7.328742858826586e-05
85.57735026920001,13.5773502692,8,0,0.953505529363702,22.53485380288248,2.052937714950082,-1.497666534834214e-05,7.134872774573297e-05,1.642350171960065e-05,7.21229316969677e-05,7.231653475554763e-05
86.4226497308,12.4226497308,8,0,0.9134725984360239,22.31481231885754,2.018436515660017,-1.492873754009075e-05,7.067662134159529e-05,1.614749212528014e-05,7.143142969331857e-05,7.109496524028597e-05
87.57735026920002,12.4226497308,8,0,0.8343829491277361,21.99845372162439,1.98003273095432,-1.492873754009075e-05,6.972754554989583e-05,1.584026184763456e-05,7.046214939466368e-05,7.006618014554086e-05
86.4226497308,13.5773502692,8,0,0.8110625058874898,22.2892097957204,1.899802041697586,-1.523596781773635e-05,7.067662134159529e-05,1.519841633358069e-05,7.134361422146466e-05,7.158653967277733e-05
87.57735026920002,13.5773502692,8,0,0.7319728565792039,21.97285119848726,1.861398256991887,-1.523596781773635e-05,6.972754554989586e-05,1.489118605593509e-05,7.03750887268597e-05,7.056304985000685e-05
88.42264973080002,12.4226497308,8,0,0.7009165418727124,21.73890734564126,1.811529301839034,-1.514819294252032e-05,6.900377027255385e-05,1.449223441471227e-05,6.96231565966852e-05,6.928966458822043e-05
89.57735026920001,12.4226497308,8,0,0.6152236219272993,21.3961356658596,1.778893717094227,-1.514819294252032e-05,6.797545523320889e-05,1.423114973675382e-05,6.858016559172818e-05,6.819696972740825e-05
88.42264973080002,13.5773502692,8,0,0.6138883158865989,21.71715028914473,1.682989921920913,-1.540927762047866e-05,6.900377027255385e-05,1.34639193753673e-05,6.953727375799472e-05,6.979214097552415e-05
89.57735026920001,13.5773502692,8,0,0.5281953959411805,21.37437860936306,1.650354337176109,-1.540927762047866e-05,6.797545523320882e-05,1.320283469740887e-05,6.849484225587228e-05,6.870946858511263e-05
90.42264973080002,12.4226497308,8,0,0.5143086840524473,21.12452233457386,1.583976334833225,-1.525383007869126e-05,6.71870245233944e-05,1.26718106786658e-05,6.767112123773321e-05,6.737455043415253e-05
91.57735026920001,12.4226497308,8,0,0.4204988742018383,20.74928309517143,1.555899839117127,-1.525383007869126e-05,6.606130680518709e-05,1.244719871293701e-05,6.653488301740024e-05,6.622035400056965e-05
90.42264973080002,13.5773502692,8,0,0.4394380288095183,21.10580467076313,1.443261620057323,-1.547844204442005e-05,6.71870245233944e-05,1.154609296045859e-05,6.758824511857105e-05,6.789637536583107e-05
91.57735026920001,13.5773502692,8,0,0.3456282189589093,20.7305654313607,1.415185124341217,-1.547844204442005e-05,6.606130680518709e-05,1.132148099472973e-05,6.645241686317692e-05,6.675763576978119e-05
92.42264973080002,12.4226497308,8,0,0.3576562254921907,20.46269187489438,1.330324345662949,-1.522565357834049e-05,6.519448901926825e-05,1.064259476530359e-05,6.55450641611895e-05,6.536140231706273e-05
93.57735026920001,12.4226497308,8,0,0.2541168493315142,20.04853437025167,1.305506724056534,-1.522565357834049e-05,6.395201650534013e-05,1.044405379245227e-05,6.429494106503695e-05,6.41688991099581e-05
92.42264973080002,13.5773502692,8,0,0.2914759012084298,20.44614679382344,1.175015281421935,-1.542419455119177e-05,6.519448901926825e-05,9.400122251375484e-06,6.546757704970713e-05,6.59120597862325e-05
93.57735026920001,13.5773502692,8,0,0.1879365250477569,20.03198928918075,1.150197659815518,-1.542419455119177e-05,6.395201650534017e-05,9.201581278524143e-06,6.421779683225851e-05,6.474064283346913e-05
94.4226497308,12.4226497308,8,0,0.2354636188172927,19.74389163184984,1.043944831598657,-1.504162972526454e-05,6.299208232686564e-05,8.35155865278926e-06,6.321490248628196e-05,6.330625848748034e-05
95.57735026920002,12.4226497308,8,0,0.1204539160091675,19.28385282061734,1.020936648858235,-1.504162972526454e-05,6.161196589316815e-05,8.167493190865878e-06,6.182891487333725e-05,6.214198368520268e-05
94.4226497308,13.5773502692,8,0,0.1741084648428268,19.72855284335622,0.87143027738646,-1.522569518718793e-05,6.299208232686564e-05,6.971442219091679e-06,6.314711379519371e-05,6.389507268517751e-05
95.57735026920002,13.5773502692,8,0,0.05909876203469366,19.26851403212369,0.8484220946460423,-1.522569518718793e-05,6.161196589316805e-05,6.787376757168338e-06,6.176156364461027e-05,6.275634903134641e-05
96.4226497308,12.4226497308,8,0,0.1528669693871869,18.95788277790592,0.7167683901755582,-1.467713192028573e-05,6.054293131378918e-05,5.734147121404465e-06,6.065205383675114e-05,6.135721203017154e-05
97.57735026920001,12.4226497308,8,0,0.02448860669238506,18.44436932712671,0.6938988600707526,-1.467713192028573e-05,5.900239096145156e-05,5.551190880566021e-06,5.910680298634381e-05,6.037745079847305e-05
96.4226497308,13.5773502692,8,0,0.09188155577434287,18.94263642450271,0.524200846133355,-1.486008816112426e-05,6.054293131378918e-05,4.19360676906684e-06,6.060119409838209e-05,6.199028036922645e-05
97.57735026920001,13.5773502692,8,0,-0.03649680692045632,18.42912297372351,0.5013313160285411,-1.486008816112426e-05,5.900239096145158e-05,4.010650528228328e-06,5.905679435723732e-05,6.103606551597058e-05
98.42264973080002,12.4226497308,8,0,0.1157730962286516,18.09355512075378,0.3389315073528615,-1.410437018867134e-05,5.780675790942915e-05,2.711452058822892e-06,5.783230806147304e-05,5.985269517568619e-05
99.57735026920002,12.4226497308,8,0,-0.02805939486591313,17.51822515637552,0.3142176475702468,-1.410437018867134e-05,5.608076801629438e-05,2.513741180561974e-06,5.610326875416991e-05,5.939879738431256e-05
98.42264973080002,13.5773502692,8,0,0.04986947014166265,18.07707921423203,0.1231827707110129,-1.43020810669323e-05,5.780675790942915e-05,9.854621656881033e-07,5.781012466152817e-05,6.052558557037375e-05
99.57735026920002,13.5773502692,8,0,-0.09396302095291098,17.50174924985373,0.098468910928388,-1.43020810669323e-05,5.608076801629427e-05,7.87751287427104e-07,5.608297214935408e-05,6.008514327595479e-05
0.4226497308,14.4226497308,8,0,-0.07418910252054345,-3.289990645902601,-0.02244004797574055,2.394587388656342e-06,-1.046861878487189e-05,-1.795203838059244e-07,2.395213709937632e-06,2.729518068989251e-06
1.5773502692,14.4226497308,8,0,0.1106576990620027,-2.550603439572416,-0.01037970341185505,2.394587388656342e-06,-8.250457165881334e-06,-8.303762729484042e-08,2.394749321812705e-06,2.77544207986154e-06
0.4226497308,15.5773502692,8,0,-0.04202818368347938,-3.281950416193335,0.2548301543981736,2.491070145167534e-06,-1.046861878487189e-05,2.038641235185389e-06,2.57075301161738e-06,2.795481598018294e-06
1.5773502692,15.5773502692,8,0,0.1428186178990668,-2.542563209863151,0.2668904989620185,2.491070145167534e-06,-8.250457165881334e-06,2.135123991696148e-06,2.596143490365575e-06,2.834552463408831e-06
2.4226497308,14.4226497308,8,0,0.09329154611221302,-2.101561520917143,0.1448232196705226,1.979782164292796e-06,-6.799630103824627e-06,1.158585757364181e-06,2.017840723923718e-06,2.859774264557761e-06
3.5773502692,14.4226497308,8,0,0.238755848421565,-1.519704311679735,0.148897291024874,1.979782164292796e-06,-5.054058476112403e-06,1.191178328198992e-06,2.029857076922263e-06,3.044250066998624e-06
2.4226497308,15.5773502692,8,0,0.1041557363906639,-2.098845473347395,0.3630196731345099,2.01237473512804e-06,-6.799630103824193e-06,2.90415738507608e-06,2.245487516824705e-06,2.915194045851356e-06
3.5773502692,15.5773502692,8,0,0.2496200386999617,-1.516988264110203,0.3670937444888748,2.01237473512804e-06,-5.05405847611262e-06,2.936749955910999e-06,2.305350055968935e-06,3.096440080905921e-06
4.422649730800001,14.4226497308,8,0,0.3527122585078016,-1.126281446971017,0.1590285874062693,2.029704384801779e-06,-3.886270437113495e-06,1.272228699250155e-06,2.097329472030716e-06,3.253867699870018e-06
5.577350269200001,14.4226497308,8,0,0.473119310794329,-0.6446532378249079,0.1557272067077755,2.029704384801779e-06,-2.441385809675168e-06,1.245817653662204e-06,2.114865492219783e-06,3.642077920620471e-06
4.422649730800001,15.5773502692,8,0,0.3439085766452508,-1.128482367436655,0.3396391658360061,2.003293339214126e-06,-3.886270437113495e-06,2.717113326688048e-06,2.301568122829899e-06,3.318730675851868e-06
5.577350269200001,15.5773502692,8,0,0.4643156289317961,-0.6468541582904733,0.3363377851375122,2.003293339214126e-06,-2.441385809674951e-06,2.690702281100098e-06,2.378791880496133e-06,3.744793840260163e-06
6.422649730800001,14.4226497308,8,0,0.6812315565833494,-0.2816503228002039,0.0303244311964919,2.405261239306881e-06,-1.446266278227332e-06,2.425954495719352e-07,2.409077536567268e-06,4.025214860406917e-06
7.577350269200001,14.4226497308,8,0,0.787384264266624,0.1429605079328943,0.01881411841371408,2.405261239306881e-06,-1.724337860280374e-07,1.505129473097127e-07,2.407456501971076e-06,4.683754225453995e-06
6.422649730800001,15.5773502692,8,0,0.6505373891626176,-0.2893238646553868,0.1895534927212681,2.313178737044686e-06,-1.446266278227332e-06,1.516427941770145e-06,2.460336870038192e-06,4.183182514870933e-06
7.577350269200001,15.5773502692,8,0,0.7566900968458832,0.1352869660776752,0.1780431799385039,2.313178737044686e-06,-1.724337860281458e-07,1.424345439508031e-06,2.502768156343685e-06,4.954819483012961e-06
8.4226497308,14.4226497308,8,0,1.064495864051066,0.4969595111878509,-0.2368855282486586,3.008819156013131e-06,7.386737445602698e-07,-1.895084225989269e-06,3.375544952491513e-06,5.31225313989178e-06
9.5773502692,14.4226497308,8,0,1.165775828437168,0.9020793687322572,-0.2594491230854817,3.008819156013131e-06,1.954033317193488e-06,-2.075592984683854e-06,3.876245869050127e-06,6.370804741663617e-06
8.4226497308,15.5773502692,8,0,1.004326277819448,0.4819171146299462,-0.08496558166938431,2.828310397318275e-06,7.386737445602698e-07,-6.797246533550745e-07,2.962429983420821e-06,5.689507691716575e-06
9.5773502692,15.5773502692,8,0,1.105606242205576,0.887036972174461,-0.107529176506221,2.828310397318275e-06,1.954033317193814e-06,-8.602334120497677e-07,3.491072424038996e-06,6.925076237559923e-06
10.4226497308,14.4226497308,8,0,1.488887848034785,1.267330397340805,-0.6438195331464648,3.750576795838668e-06,2.864346993062747e-06,-5.150556265171718e-06,5.961159695772364e-06,7.330940274927197e-06
11.5773502692,14.4226497308,8,0,1.594859818099051,1.691218277597871,-0.6822298934602438,3.750576795838668e-06,4.136010633833944e-06,-5.45783914768195e-06,6.787298015090816e-06,8.895527732295221e-06
10.4226497308,15.5773502692,8,0,1.386460220531347,1.241723490464945,-0.4848615780500922,3.443293913328355e-06,2.864346993062747e-06,-3.878892624400738e-06,5.252014914872854e-06,8.012576242656529e-06
11.5773502692,15.5773502692,8,0,1.492432190595569,1.665611370721831,-0.5232719383638034,3.443293913328355e-06,4.136010633833402e-06,-4.186175506910427e-06,6.142059070383113e-06,9.74811296409484e-06
12.4226497308,14.4226497308,8,0,1.935186573486714,2.088637936048607,-1.194202181930542,4.521686686318599e-06,5.13549213656617e-06,-9.55361745544434e-06,9.615338434836772e-06,1.024298824839996e-05
13.5773502692,14.4226497308,8,0,2.056767457323088,2.574961471394102,-1.254642707473042,4.521686686318599e-06,6.594462742602657e-06,-1.003714165978434e-05,1.069133741409813e-05,1.235973138237958e-05
12.4226497308,15.5773502692,8,0,1.774011838706733,2.048344252353612,-1.011830856176049,4.038162481978655e-06,5.13549213656617e-06,-8.094646849408395e-06,8.685717559529067e-06,1.120147340404238e-05
13.5773502692,15.5773502692,8,0,1.895592722543098,2.534667787699071,-1.072271381718549,4.038162481978655e-06,6.594462742602549e-06,-8.578171053748394e-06,9.827828061586984e-06,1.343659124642023e-05
14.4226497308,14.4226497308,8,0,2.372765186515836,3.026917032380817,-1.888378451153153,5.171314970946021e-06,7.787922354405945e-06,-1.510702760922523e-05,1.414559735728945e-05,1.412198319726342e-05
15.5773502692,14.4226497308,8,0,2.522900327376753,3.627457595824485,-1.977116960969011,5.171314970946021e-06,9.589544044736947e-06,-1.581693568775209e-05,1.559164444076976e-05,1.681980155748159e-05
14.4226497308,15.5773502692,8,0,2.136129160340286,2.96775802583693,-1.663175739861737,4.461406892419372e-06,7.787922354405945e-06,-1.33054059188939e-05,1.298213375905907e-05,1.52579991407616e-05
15.5773502692,15.5773502692,8,0,2.28626430120124,3.568298589280742,-1.751914249677514,4.461406892419372e-06,9.589544044737381e-06,-1.401531399742011e-05,1.448749290857516e-05,1.799906020724299e-05
16.4226497308,14.4226497308,8,0,2.754943298920026,4.15688648612812,-2.713526297218953,5.490309367641588e-06,1.109808211647396e-05,-2.170821037775163e-05,1.950460957259131e-05,1.901330703980712e-05
17.5773502692,14.4226497308,8,0,2.948258379501745,4.930146808454994,-2.834365265563991,5.490309367641588e-06,1.341786308345458e-05,-2.267492212451193e-05,2.146447965446811e-05,2.230825710423799e-05
16.4226497308,15.5773502692,8,0,2.432706049999881,4.076327173898084,-2.423553676346403,4.523597620881151e-06,1.109808211647396e-05,-1.938842941077122e-05,1.804723378205409e-05,2.01903204756261e-05
17.5773502692,15.5773502692,8,0,2.626021130581599,4.849587496224958,-2.544392644691386,4.523597620881151e-06,1.341786308345458e-05,-2.035514115753109e-05,2.007748201120102e-05,2.343589379522887e-05
18.4226497308,14.4226497308,8,0,3.02014505605326,5.557246204328732,-3.629623748720374,5.218667215907446e-06,1.536707180900933e-05,-2.903698998976299e-05,2.567253875021256e-05,2.493424874531992e-05
19.5773502692,14.4226497308,8,0,3.270608081554815,6.55909830633495,-3.780260419509627,5.218667215907446e-06,1.837262811502799e-05,-3.024208335607702e-05,2.828511622157575e-05,2.881364126488108e-05
18.4226497308,15.5773502692,8,0,2.618447267281899,5.456821757135891,-3.253929210468109,4.013573849593363e-06,1.536707180900933e-05,-2.603143368374488e-05,2.389012437321095e-05,2.598649025124367e-05
19.5773502692,15.5773502692,8,0,2.868910292783409,6.458673859141929,-3.404565881257417,4.013573849593363e-06,1.837262811502744e-05,-2.723652705005934e-05,2.658799335889341e-05,2.970927603937471e-05
20.4226497308,14.4226497308,8,0,3.105536642281955,7.294608479523179,-4.555054883866467,4.102030471683711e-06,2.085831782064861e-05,-3.644043907093174e-05,3.253434307312103e-05,3.184362631828646e-05
21.5773502692,14.4226497308,8,0,3.420992830771833,8.556433233482693,-4.723758900929121,4.102030471683711e-06,2.464379208252715e-05,-3.779007120743296e-05,3.587903512555599e-05,3.624230691115503e-05
20.4226497308,15.5773502692,8,0,2.655659263448257,7.182139134814754,-4.081870601131676,2.752398335182618e-06,2.085831782064861e-05,-3.265496480905341e-05,3.0474658058731e-05,3.258252536529276e-05
21.5773502692,15.5773502692,8,0,2.9711154519381,8.443963888774125,-4.250574618194357,2.752398335182618e-06,2.464379208252671e-05,-3.400459694555486e-05,3.391903567678849e-05,3.670960271871659e-05
22.4226497308,14.4226497308,8,0,2.979946534064836,9.394795346988232,-5.366259107225207,2.019992631416891e-06,2.767938788311047e-05,-4.293007285780166e-05,3.985666788481192e-05,3.960133791304969e-05
23.5773502692,14.4226497308,8,0,3.355607175474176,10.89743791262559,-5.533621663812201,2.019992631416891e-06,3.218731558002254e-05,-4.42689733104976e-05,4.388895498069132e-05,4.437970068194649e-05
22.4226497308,15.5773502692,8,0,2.533646383166178,9.283220309263568,-4.802768145111171,6.810921787209169e-07,2.767938788311047e-05,-3.842214516088936e-05,3.765985464501292e-05,3.983128848614578e-05
23.5773502692,15.5773502692,8,0,2.909307024575536,10.785862874901,-4.970130701698191,6.810921787209169e-07,3.218731558002276e-05,-3.976104561358553e-05,4.179945008997646e-05,4.423281525496569e-05
24.4226497308,14.4226497308,8,0,2.670549971002441,11.80935976432967,-5.923047953390083,-9.01727904255924e-07,3.565351126905299e-05,-4.738438362712066e-05,4.729898194201226e-05,4.793988628128775e-05
25.5773502692,14.4226497308,8,0,3.084041223910638,13.46332477596246,-6.067462532031808,-9.01727904255924e-07,4.061540630395134e-05,-4.853970025625446e-05,5.179339714614697e-05,5.288813145457985e-05
24.4226497308,15.5773502692,8,0,2.285444427957833,11.71308337856852,-5.302811074027816,-2.05704453338975e-06,3.565351126905299e-05,-4.242248859222253e-05,4.517847983120117e-05,4.749019135967663e-05
25.5773502692,15.5773502692,8,0,2.698935680866002,13.3670483902012,-5.447225652669541,-2.05704453338975e-06,4.061540630395102e-05,-4.357780522135633e-05,4.977493127929347e-05,5.198798160866614e-05
26.4226497308,14.4226497308,8,0,2.287390172763217,14.40507107586407,-6.127838385989353,-4.20440830784896e-06,4.426631530455444e-05,-4.902270708791482e-05,5.450063893982977e-05,5.648318128883105e-05
27.57735026920001,14.4226497308,8,0,2.705104660178505,16.07592902552522,-6.241643998615526,-4.20440830784896e-06,4.927888915353789e-05,-4.993315198892421e-05,5.912201449243588e-05,6.135679491887286e-05
26.4226497308,15.5773502692,8,0,1.983908539093331,14.32920066744639,-5.501266654866387,-5.114853208858456e-06,4.426631530455379e-05,-4.40101332389311e-05,5.26491026308088e-05,5.52446621970946e-05
27.57735026920001,15.5773502692,8,0,2.401623026508672,16.00005861710776,-5.615072267492574,-5.114853208858456e-06,4.927888915353789e-05,-4.492057813994059e-05,5.735430719707412e-05,5.964428878009322e-05
28.4226497308,14.4226497308,8,0,1.943661579244043,16.99530958056522,-5.977333154312731,-7.376530610871232e-06,5.283006139441345e-05,-4.781866523450185e-05,6.116977017059974e-05,6.481841111703838e-05
29.5773502692,14.4226497308,8,0,2.334445674238169,18.55844596054172,-6.065112723924037,-7.376530610871232e-06,5.751947053434295e-05,-4.85209017913923e-05,6.558618603901319e-05,6.940210881709029e-05
28.4226497308,15.5773502692,8,0,1.709582726947175,16.936789867491,-5.39115701182153,-8.078767167761839e-06,5.283006139441345e-05,-4.312925609457224e-05,5.969192415193074e-05,6.276752795358664e-05
29.5773502692,15.5773502692,8,0,2.100366821941286,18.49992624746744,-5.47893658143291,-8.078767167761839e-06,5.751947053434279e-05,-4.383149265146328e-05,6.416755861127557e-05,6.690074947712422e-05
30.4226497308,14.4226497308,8,0,1.729873246049655,19.41720986807292,-5.549747367394612,-9.998173507099443e-06,6.075117298099363e-05,-4.43979789391569e-05,6.713967299513614e-05,7.259418427897942e-05
31.5773502692,14.4226497308,8,0,2.074853757686404,20.79713191461992,-5.627752758266757,-9.998173507099443e-06,6.489093912063462e-05,-4.502202206613405e-05,7.113666107634634e-05,7.673139892277329e-05
30.4226497308,15.5773502692,8,0,1.521858870390667,19.36520627415818,-5.032276599939488,-1.062221663407641e-05,6.075117298099363e-05,-4.02582127995159e-05,6.603667741561455e-05,6.978633830806033e-05
31.5773502692,15.5773502692,8,0,1.866839382027425,20.74512832070521,-5.110281990811599,-1.062221663407641e-05,6.489093912063473e-05,-4.088225592649279e-05,7.006918260564924e-05,7.353669208072866e-05
32.4226497308,14.4226497308,8,0,1.674878467977274,21.58799327748814,-4.975455412867925,-1.191078352446323e-05,6.774167571358021e-05,-3.98036433029434e-05,7.243747514438988e-05,7.956184637869709e-05
33.57735026920001,14.4226497308,8,0,1.978927723944953,22.80419030135885,-5.06678864211927,-1.191078352446323e-05,7.139026678519236e-05,-4.053430913695416e-05,7.605954085246271e-05,8.315755799296987e-05
32.4226497308,15.5773502692,8,0,1.431323189973678,21.52710445798724,-4.519381528916345,-1.264144935847402e-05,6.774167571358021e-05,-3.615505223133076e-05,7.162004226247382e-05,7.611873705963322e-05
33.57735026920001,15.5773502692,8,0,1.735372445941375,22.74330148185803,-4.610714758167717,-1.264144935847402e-05,7.139026678519258e-05,-3.688571806534174e-05,7.525982446620399e-05,7.942266135706015e-05
34.42264973080001,14.4226497308,8,0,1.716823385165292,23.52032566850244,-4.316769537109996,-1.332242570227301e-05,7.389158343107556e-05,-3.453415629687997e-05,7.718578178140848e-05,8.557556148880563e-05
35.5773502692,14.4226497308,8,0,1.982251142752708,24.5820366988521,-4.427220736842673,-1.332242570227301e-05,7.707671652212454e-05,-3.541776589474139e-05,8.042202942431384e-05,8.85859582783162e-05
34.42264973080001,15.5773502692,8,0,1.422286852544937,23.44669153534742,-3.918627900728887,-1.420603530013413e-05,7.389158343107578e-05,-3.13490232058311e-05,7.659732379613704e-05,8.166636119627416e-05
35.5773502692,15.5773502692,8,0,1.687714610132335,24.50840256569701,-4.029079100461517,-1.420603530013413e-05,7.707671652212454e-05,-3.223263280369214e-05,7.983855175886669e-05,8.449233885677461e-05
36.4226497308,14.4226497308,8,0,1.81297492280575,25.21613128485252,-3.605412163859449,-1.437138527490362e-05,7.924124017328346e-05,-2.884329731087559e-05,8.141262503458619e-05,9.056853569192968e-05
37.5773502692,14.4226497308,8,0,2.040346214335034,26.12561645096966,-3.731376170730208,-1.437138527490362e-05,8.196969567163487e-05,-2.985100936584166e-05,8.422902392243392e-05,9.297464112657989e-05
36.4226497308,15.5773502692,8,0,1.477070904483673,25.132155280272,-3.264355226565476,-1.537909732986985e-05,7.924124017328346e-05,-2.611484181252381e-05,8.101007210454414e-05,8.638181335792985e-05
37.5773502692,15.5773502692,8,0,1.704442196012948,26.0416404463891,-3.390319233436242,-1.537909732986985e-05,8.196969567163476e-05,-2.712255386748993e-05,8.382355964743331e-05,8.871797603441084e-05
38.4226497308,14.4226497308,8,0,1.975629186323664,26.68694989803724,-2.866845675890558,-1.502754652219407e-05,8.381773632466023e-05,-2.293476540712446e-05,8.513066774059911e-05,9.45155474578842e-05
39.5773502692,14.4226497308,8,0,2.169002974688759,27.46044505149762,-3.01392261052586,-1.502754652219407e-05,8.613822178504138e-05,-2.411138088420688e-05,8.755502841256325e-05,9.631927641024088e-05
38.4226497308,15.5773502692,8,0,1.58342402729621,26.58889860828038,-2.576784993342935,-1.620416199927643e-05,8.381773632466023e-05,-2.061427994674348e-05,8.486882952795241e-05,9.025116990285401e-05
39.5773502692,15.5773502692,8,0,1.7767978156613,27.36239376174074,-2.723861927978258,-1.620416199927643e-05,8.613822178504132e-05,-2.179089542382606e-05,8.728530261386568e-05,9.210377077299084e-05
40.4226497308,14.4226497308,8,0,2.196527896253079,27.94462967824742,-2.105627641933978,-1.532681447458808e-05,8.766559265338926e-05,-1.684502113547182e-05,8.834982283393153e-05,9.743709892210248e-05
41.5773502692,14.4226497308,8,0,2.350892009096641,28.56208612962167,-2.279022552388481,-1.532681447458808e-05,8.951796200751201e-05,-1.823218041910785e-05,9.030468848945006e-05,9.868731786612581e-05
40.4226497308,15.5773502692,8,0,1.734141468374485,27.82903307127777,-1.874081472668607,-1.671397375822386e-05,8.766559265338926e-05,-1.499265178134886e-05,8.820121483178325e-05,9.329320732878863e-05
41.5773502692,15.5773502692,8,0,1.888505581218047,28.44648952265202,-2.047476383123083,-1.671397375822386e-05,8.951796200751201e-05,-1.637981106498466e-05,9.014565046439274e-05,9.469020756160926e-05
42.4226497308,14.4226497308,8,0,2.419922913635888,28.97112953787185,-1.383538695838971,-1.543315030666264e-05,9.077167619028119e-05,-1.106830956671177e-05,9.105927288728153e-05,9.94252458122713e-05
43.57735026920001,14.4226497308,8,0.00181304142604522,2.546367981873672,29.44193363477254,-1.576222538781458,-1.543315030666264e-05,9.234451768179843e-05,-1.26326838894654e-05,9.271342603666059e-05,0.0001001910835095281
42.4226497308,15.5773502692,8,0,1.89846480605132,28.8407650109757,-1.18693350939931,-1.699752462941634e-05,9.077167619028119e-05,-9.495468075194479e-06,9.098043156301292e-05,9.556369719318004e-05
43.57735026920001,15.5773502692,8,0,2.029534930344418,29.3650455081481,-1.382480299743548,-1.699752462941634e-05,9.234451768179837e-05,-1.105984239794838e-05,9.262347907999837e-05,9.655311501379685e-05
44.4226497308,14.4226497308,8,0.005679566109818851,2.621335189517231,29.67098196709608,-0.6812211896707726,-1.543618379356056e-05,9.338043449416689e-05,-5.48089864355346e-06,9.344940654512301e-05,0.0001006001815145232
45.5773502692,14.4226497308,8,0.008988565682564469,2.716447832083996,29.987584630391,-0.8901712007637297,-1.543618379356056e-05,9.463777036657539e-05,-7.185961089353846e-06,9.475492599935454e-05,0.0001009520203522354
44.4226497308,15.5773502692,8,0,2.067954128060344,29.69837431144224,-0.5279453463931161,-1.714124623936069e-05,9.338043449416689e-05,-4.223562771144928e-06,9.342077041382037e-05,9.714493076756218e-05
45.5773502692,15.5773502692,8,0,2.172732117427706,30.11748626891169,-0.7410781521181306,-1.714124623936069e-05,9.463777036657523e-05,-5.928625216945044e-06,9.47163269541167e-05,9.777238365502069e-05
46.42264973080001,14.4226497308,8,0.01020654050056793,2.794975201534792,30.20340400882062,-0.01006509597071301,-1.537573563058475e-05,9.538849924785981e-05,-8.135108086734159e-08,9.538851418498611e-05,0.0001010819290693815
47.57735026920001,14.4226497308,8,0.01023537742086841,2.860357923674125,30.46438066129928,-0.2308722807465766,-1.537573563058475e-05,9.618219282191744e-05,-1.866078261273627e-06,9.618999595292321e-05,0.0001010850074472739
46.42264973080001,15.5773502692,8,0,2.228887333657991,30.36612784837069,0.08904281164881696,-1.716046281099098e-05,9.538849924785981e-05,7.123424931905356e-07,9.538962637230567e-05,9.811453162150368e-05
47.57735026920001,15.5773502692,8,0,2.29502846482947,30.63069237305661,-0.1340480859019958,-1.716046281099098e-05,9.618219282191755e-05,-1.072384687215966e-06,9.618472934088131e-05,9.84218443622228e-05
48.4226497308,14.4226497308,8,0.009297288504078559,2.943166606831044,30.64635601156289,0.6185078209325385,-1.524064837229743e-05,9.661203592247402e-05,4.994497854950787e-06,9.666776231665106e-05,0.00010098492798421
49.57735026920001,14.4226497308,8,0.006699210084572437,2.982394068856932,30.85276135921062,0.3931871193952348,-1.524064837229743e-05,9.69926955384696e-05,3.166711420243303e-06,9.701502862105325e-05,0.0001007084274284213
48.4226497308,15.5773502692,8,0,2.361524724537842,30.7816424069076,0.6718946838683263,-1.706843480700498e-05,9.661203592247402e-05,5.37515747094661e-06,9.667553888640984e-05,9.854761519677321e-05
49.57735026920001,15.5773502692,8,0,2.393246359204142,30.9085289455728,0.4434213795298568,-1.706843480700498e-05,9.699269553846963e-05,3.547371036238854e-06,9.702027022534415e-05,9.858391476617076e-05
50.42264973080001,14.4226497308,8,0.004077063528642633,3.064468200624431,31.00869976697937,1.204873978396766,-1.506207059025468e-05,9.717244291683979e-05,9.678451488752659e-06,9.738070978579052e-05,0.0001004303651641047
51.57735026920001,14.4226497308,8,0,3.086214992506767,31.17244820784543,0.9783793897470047,-1.506207059025468e-05,9.728286227109995e-05,7.827035117976037e-06,9.741902399446379e-05,9.994718548608025e-05
50.42264973080001,15.5773502692,8,0,2.459874589392918,30.98135705886067,1.223608855376569,-1.69134869610312e-05,9.717244291683979e-05,9.788870843012551e-06,9.738203553754453e-05,9.853063231931015e-05
51.57735026920001,15.5773502692,8,0,2.46907620224793,31.01816351028072,0.992181809029508,-1.69134869610312e-05,9.728286227109995e-05,7.937454472236065e-06,9.74206233978998e-05,9.834876239793164e-05
52.4226497308,14.4226497308,8,0,3.148094905877366,31.19912227212104,1.758731655460416,-1.488539411888926e-05,9.731871534608542e-05,1.406985324368333e-05,9.775806789871703e-05,9.954149191267557e-05
53.5773502692,14.4226497308,8,0,3.147055994895031,31.1949666281917,1.526091992559036,-1.488539411888926e-05,9.730624841429743e-05,1.220873594047229e-05,9.763741069183509e-05,9.891629613580705e-05
52.4226497308,15.5773502692,8,0,2.527722471473687,31.04402916352012,1.75717328898695,-1.67465114221003e-05,9.731871534608542e-05,1.40573863118956e-05,9.77501908949938e-05,9.814955118376609e-05
53.5773502692,15.5773502692,8,0,2.52668356049135,31.03987351959078,1.524533626085561,-1.67465114221003e-05,9.73062484142974e-05,1.219626900868449e-05,9.7631374587986e-05,9.778716594658375e-05
54.42264973080001,14.4226497308,8,0,3.196375930593347,31.1540647686012,2.324752140599809,-1.469484883698225e-05,9.713590651504915e-05,1.859801712479847e-05,9.790386872735557e-05,9.841522226829287e-05
55.57735026920001,14.4226497308,8,0,3.158632947956989,31.00309283805577,2.098132409274228,-1.469484883698225e-05,9.668299072341287e-05,1.678505927419383e-05,9.731183315013214e-05,9.767145878070945e-05
54.42264973080001,15.5773502692,8,0,2.592056647058437,31.00298494771748,2.268137666645322,-1.650780668758698e-05,9.713590651504915e-05,1.814510133316257e-05,9.785563977027258e-05,9.745711153446626e-05
55.57735026920001,15.5773502692,8,0,2.55431366442208,30.85201301717204,2.041517935319717,-1.650780668758698e-05,9.668299072341287e-05,1.633214348255774e-05,9.726909149386422e-05,9.691777134844302e-05
56.4226497308,14.4226497308,8,0,3.219423815790936,30.86842113672745,2.828442232259724,-1.439258069885096e-05,9.620340858489508e-05,2.262753785807779e-05,9.734892179638199e-05,9.70778233800429e-05
57.57735026920001,14.4226497308,8,0,3.147979901019838,30.58264547764306,2.614973785674881,-1.439258069885096e-05,9.53460816076419e-05,2.091979028539905e-05,9.633418422646281e-05,9.619974479176492e-05
56.4226497308,15.5773502692,8,0,2.650174624898058,30.72610883900423,2.721276360103086,-1.61003282715296e-05,9.620340858489508e-05,2.177021088082469e-05,9.724872407711858e-05,9.645939967791917e-05
57.57735026920001,15.5773502692,8,0,2.578730710126955,30.44033317991982,2.507807913518253,-1.61003282715296e-05,9.534608160764185e-05,2.006246330814602e-05,9.624178850179545e-05,9.574644517126774e-05
58.4226497308,14.4226497308,8,0,3.242659829864759,30.38334622072051,3.215091295560649,-1.393016552100918e-05,9.463258004241382e-05,2.572073036448519e-05,9.613522310473929e-05,9.551545388617478e-05
59.57735026920001,14.4226497308,8,0,3.151660200672045,30.01934770394966,3.00991832575897,-1.393016552100918e-05,9.354058449210126e-05,2.407934660607176e-05,9.487284299506736e-05,9.452401495314372e-05
58.4226497308,15.5773502692,8,0,2.695531910393621,30.24656424085273,3.078591851771558,-1.55715492794226e-05,9.463258004241382e-05,2.462873481417246e-05,9.599183997216316e-05,9.517239024169835e-05
59.57735026920001,15.5773502692,8,0,2.604532281200907,29.88256572408187,2.873418881969879,-1.55715492794226e-05,9.354058449210126e-05,2.298735105575904e-05,9.473816332734942e-05,9.431699751436414e-05
60.4226497308,14.4226497308,8,0,3.235990704216442,29.78022947274181,3.471851402753168,-1.346901332470083e-05,9.270794174940061e-05,2.777481122202534e-05,9.449428978662142e-05,9.377324226168002e-05
61.5773502692,14.4226497308,8,0,3.137421810266799,29.38595389694324,3.276121255992877,-1.346901332470083e-05,9.15251150220049e-05,2.620897004794302e-05,9.313599180526785e-05,9.271353205660979e-05
60.4226497308,15.5773502692,8,0,2.714043646189046,29.64974270823496,3.323998061828708,-1.503485449878302e-05,9.270794174940061e-05,2.659198449462966e-05,9.432447876156215e-05,9.36563214894331e-05
61.5773502692,15.5773502692,8,0,2.615474752239397,29.25546713243636,3.128267915068414,-1.503485449878302e-05,9.152511502200482e-05,2.502614332054731e-05,9.297477248995871e-05,9.27067137492363e-05
62.42264973080001,14.4226497308,8,0,3.187569329767055,29.1279278159231,3.615551940894334,-1.31021203974839e-05,9.065931354714028e-05,2.892441552715467e-05,9.263734003360217e-05,9.192963172393172e-05
63.57735026920001,14.4226497308,8,0,3.089020422158479,28.7337321854888,3.431165144872432,-1.31021203974839e-05,8.947672665583737e-05,2.744932115897946e-05,9.128128841677188e-05,9.084768639196426e-05
62.42264973080001,15.5773502692,8,0,2.695871207041979,29.00500328524183,3.467728579481467,-1.457721476565913e-05,9.065931354714028e-05,2.774182863585174e-05,9.245689255105464e-05,9.199443801629809e-05
63.57735026920001,15.5773502692,8,0,2.597322299433403,28.61080765480753,3.283341783459555,-1.457721476565913e-05,8.947672665583737e-05,2.626673426767644e-05,9.11087814078129e-05,9.099807226502658e-05
64.4226497308,14.4226497308,8,0,3.093504988117685,28.47000089740874,3.670153273457203,-1.28767847559504e-05,8.862919888121381e-05,2.936122618765763e-05,9.070978141973686e-05,9.006002985833511e-05
65.57735026920001,14.4226497308,8,0,2.999096483959969,28.09236688077788,3.499152547997527,-1.28767847559504e-05,8.749629683132122e-05,2.799322038398022e-05,8.94115215902825e-05,8.899005752142268e-05
64.4226497308,15.5773502692,8,0,2.637503053558567,28.35600041376896,3.528540517220633,-1.424479055962775e-05,8.862919888121381e-05,2.822832413776506e-05,9.053050181618579e-05,9.026501532174529e-05
65.57735026920001,15.5773502692,8,0,2.543094549400855,27.97836639713811,3.357539791760947,-1.424479055962775e-05,8.749629683132127e-05,2.686031833408758e-05,8.923926272345469e-05,8.925863225904604e-05
66.4226497308,14.4226497308,8,0,2.957861262723526,27.83080470558481,3.659138959842758,-1.279948772375256e-05,8.669228604769256e-05,2.927311167874206e-05,8.880083030228944e-05,8.821848310546168e-05
67.57735026920001,14.4226497308,8,0,2.869219907647872,27.47623928528219,3.502742296049997,-1.279948772375256e-05,8.562858978678471e-05,2.802193836839997e-05,8.758415986415896e-05,8.718047493605874e-05
66.4226497308,15.5773502692,8,0,2.540803492609446,27.72654026305629,3.526176927229289,-1.40506610340948e-05,8.669228604769256e-05,2.820941541783431e-05,8.862978043998352e-05,8.852686008129596e-05
67.57735026920001,15.5773502692,8,0,2.452162137533789,27.37197484275366,3.369780263436518,-1.40506610340948e-05,8.562858978678468e-05,2.695824210749214e-05,8.741913932699266e-05,8.75340043747317e-05
68.42264973080002,14.4226497308,8,0,2.787625586387479,27.22069696171296,3.60123563155974,-1.285615569293043e-05,8.487612980837147e-05,2.880988505247792e-05,8.695507785665073e-05,8.643529118309513e-05
69.57735026920001,14.4226497308,8,0,2.704953700481918,26.89000941809071,3.459869349519786,-1.285615569293043e-05,8.388406717750474e-05,2.767895479615829e-05,8.582497655192001e-05,8.543741947834006e-05
68.42264973080002,15.5773502692,8,0,2.410648834280985,27.12645277368634,3.477227802701406,-1.398708594924991e-05,8.487612980837147e-05,2.781782242161125e-05,8.679568227238626e-05,8.681652181419987e-05
69.57735026920001,15.5773502692,8,0,2.327976948375433,26.79576523006413,3.335861520661473,-1.398708594924991e-05,8.388406717750485e-05,2.668689216529178e-05,8.567065743446991e-05,8.584917871176329e-05
70.4226497308,14.4226497308,8,0,2.590584396010118,26.64184780856065,3.510295855656517,-1.302360817961614e-05,8.318144547058597e-05,2.808236684525214e-05,8.518887692592451e-05,8.472148678990342e-05
71.57735026920001,14.4226497308,8,0,2.513289765091924,26.33266928488787,3.383776897732894,-1.302360817961614e-05,8.225390989956765e-05,2.707021518186316e-05,8.413939240217801e-05,8.376339401496707e-05
70.4226497308,15.5773502692,8,0,2.253200508213813,26.55750183661157,3.394353909279245,-1.403575984300505e-05,8.318144547058597e-05,2.715483127423395e-05,8.504206578808695e-05,8.515155318029833e-05
71.57735026920001,15.5773502692,8,0,2.175905877295622,26.24832331293881,3.267834951355622,-1.403575984300505e-05,8.225390989956768e-05,2.614267961084497e-05,8.399679946117415e-05,8.421294788603434e-05
72.4226497308,14.4226497308,8,0,2.374232613910616,26.09172217963089,3.395995628443673,-1.327583337919074e-05,8.159412488369035e-05,2.716796502754939e-05,8.350083022019978e-05,8.307437339444683e-05
73.57735026920001,14.4226497308,8,0,2.301313396034935,25.80004530812817,3.283728624926489,-1.327583337919074e-05,8.071909426918218e-05,2.626982899941191e-05,8.252006878906879e-05,8.215002682657914e-05
72.4226497308,15.5773502692,8,0,2.074853937864795,26.01687751061943,3.286616801630166,-1.41739694073282e-05,8.159412488369035e-05,2.629293441304133e-05,8.336600961993593e-05,8.353529645560784e-05
73.57735026920001,15.5773502692,8,0,2.001934719989112,25.7252006391167,3.174349798112968,-1.41739694073282e-05,8.071909426918215e-05,2.539479838490374e-05,8.238872402495872e-05,8.262252361204619e-05
74.4226497308,14.4226497308,8,0,2.145343620593717,25.56524347593317,3.264709188103463,-1.358709519484664e-05,8.009250422651116e-05,2.611767350482771e-05,8.18788297394475e-05,8.148220039477414e-05
75.57735026920001,14.4226497308,8,0,2.075606519122148,25.28629507004689,3.165844694345165,-1.358709519484664e-05,7.925565900885232e-05,2.532675755476132e-05,8.09519025266005e-05,8.058201122023552e-05
74.4226497308,15.5773502692,8,0,1.881704970571593,25.49933381342764,3.160103535896101,-1.437801114491301e-05,8.009250422651116e-05,2.528082828716881e-05,8.175458428383936e-05,8.19612319682267e-05
75.57735026920001,15.5773502692,8,0,1.811967869100028,25.22038540754138,3.061239042137813,-1.437801114491301e-05,7.925565900885237e-05,2.44899123371025e-05,8.083050708295932e-05,8.106732244217599e-05
76.42264973080002,14.4226497308,8,0,1.909866934529281,25.05604765434119,3.120278608791044,-1.393326393297925e-05,7.865145894626836e-05,2.496222887032835e-05,8.030449296022729e-05,7.992758866631893e-05
77.57735026920001,14.4226497308,8,0,1.842045263585352,24.78476097056547,3.03382637333983,-1.393326393297925e-05,7.783759889494121e-05,2.427061098671864e-05,7.941518946085923e-05,7.903986217386243e-05
76.42264973080002,15.5773502692,8,0,1.679327639992728,24.99841283070705,3.018546102375164,-1.462488181658891e-05,7.865145894626836e-05,2.414836881900131e-05,8.018905908988475e-05,8.04163476940863e-05
77.57735026920001,15.5773502692,8,0,1.611505969048801,24.72712614693134,2.932093866923943,-1.462488181658891e-05,7.783759889494124e-05,2.345675093539155e-05,7.930208555893936e-05,7.953176113383605e-05
78.4226497308,14.4226497308,8,0,1.672991736849662,24.55718332829282,2.964616368212208,-1.429217310471533e-05,7.724459326105727e-05,2.371693094569766e-05,7.875588967254065e-05,7.83898621737535e-05
79.57735026920001,14.4226497308,8,0,1.60580328104236,24.28842950506361,2.889518637628784,-1.429217310471533e-05,7.643833179136965e-05,2.311614910103027e-05,7.788755591831292e-05,7.750175564091718e-05
78.4226497308,15.5773502692,8,0,1.472731121960507,24.50711817457053,2.863833684501258,-1.48929549493828e-05,7.724459326105727e-05,2.291066947601007e-05,7.864745954794437e-05,7.888355964454387e-05
79.57735026920001,15.5773502692,8,0,1.405542666153201,24.2383643513413,2.788735953917824,-1.48929549493828e-05,7.64383317913696e-05,2.230988763134259e-05,7.778102551093061e-05,7.799722680243076e-05
80.4226497308,14.4226497308,8,0,1.439281144492922,24.06147318607469,2.798141596816001,-1.46434788864824e-05,7.584528927984466e-05,2.238513277452801e-05,7.720914302432414e-05,7.684659814557058e-05
81.57735026920001,14.4226497308,8,0,1.371451077583303,23.79015291843621,2.733315110769755,-1.46434788864824e-05,7.503132847692923e-05,2.186652088615804e-05,7.634507811594165e-05,7.594478111408429e-05
80.4226497308,15.5773502692,8,0,1.266410515036278,24.01825552871053,2.696396496451552,-1.516209077485233e-05,7.584528927984466e-05,2.157117197161242e-05,7.710605874004113e-05,7.734341251148573e-05
81.57735026920001,15.5773502692,8,0,1.198580448126655,23.74693526107203,2.63157001040532,-1.516209077485233e-05,7.503132847692918e-05,2.105256008324256e-05,7.624353581739105e-05,7.644349149194636e-05
82.4226497308,14.4226497308,8,0,1.212829025994522,23.56167479668207,2.620074600520055,-1.496828695416318e-05,7.442709612858698e-05,2.096059680416044e-05,7.563931946106631e-05,7.527473581797929e-05
83.57735026920001,14.4226497308,8,0,1.143092969960982,23.28273057254791,2.564429209916622,-1.496828695416318e-05,7.35902634561845e-05,2.051543367933298e-05,7.476288554318429e-05,7.434595505705633e-05
82.4226497308,15.5773502692,8,0,1.064441317718731,23.52457786961312,2.515470516469738,-1.541345007899055e-05,7.442709612858698e-05,2.012376413175791e-05,7.554020663307347e-05,7.5775352761362e-05
83.57735026920001,15.5773502692,8,0,0.9947052616851906,23.24563364547896,2.459825125866319,-1.541345007899055e-05,7.35902634561845e-05,1.967860100693055e-05,7.466501351885988e-05,7.484988482236275e-05
84.42264973080002,14.4226497308,8,0,0.9974161841936162,23.05052449456067,2.428616540381326,-1.524868780622896e-05,7.296374543523925e-05,1.942893232305061e-05,7.402089004236929e-05,7.36516107525889e-05
85.57735026920001,14.4226497308,8,0,0.9245123181311001,22.75890903031061,2.38105653303937,-1.524868780622896e-05,7.208889904248906e-05,1.904845226431496e-05,7.311545663538701e-05,7.26834075956801e-05
84.42264973080002,15.5773502692,8,0,0.8705894979484405,23.01881782299938,2.319260741287559,-1.562916786496449e-05,7.296374543523925e-05,1.855408593030047e-05,7.392476991181519e-05,7.415891438703381e-05
85.57735026920001,15.5773502692,8,0,0.7976856318859316,22.72720235874934,2.271700733945599,-1.562916786496449e-05,7.208889904248914e-05,1.81736058715648e-05,7.30203199634265e-05,7.319661599010613e-05
86.4226497308,14.4226497308,8,0,0.7966564461664989,22.52071470204855,2.221036627305026,-1.546727113390604e-05,7.142896188962216e-05,1.776829301844021e-05,7.23279635211728e-05,7.195639261048602e-05
87.57735026920002,14.4226497308,8,0,0.7193118262697098,22.21133622246139,2.180448860540565,-1.546727113390604e-05,7.050082645086069e-05,1.744359088432452e-05,7.137676131466347e-05,7.093835388989618e-05
86.4226497308,15.5773502692,8,0,0.6884224014612697,22.49365619087224,2.105019697459857,-1.579197326802173e-05,7.142896188962216e-05,1.684015757967886e-05,7.223437670967397e-05,7.247527519518635e-05
87.57735026920002,15.5773502692,8,0,0.6110777815644814,22.18427771128509,2.064431930695379,-1.579197326802173e-05,7.05008264508607e-05,1.651545544556303e-05,7.128393703684084e-05,7.14668338907373e-05
88.42264973080002,14.4226497308,8,0,0.6141300866415529,21.96483456840779,1.993682671418145,-1.560665137747326e-05,6.979616654959167e-05,1.594946137134516e-05,7.053444746731709e-05,7.017269938057708e-05
89.57735026920001,14.4226497308,8,0,0.5310441521712521,21.63249083052659,1.958913864636342,-1.560665137747326e-05,6.879913533594806e-05,1.567131091709073e-05,6.95203809239259e-05,6.909893108057398e-05
88.42264973080002,15.5773502692,8,0,0.5214132685567225,21.94165536388658,1.8690537697127,-1.588480183172775e-05,6.979616654959167e-05,1.49524301577016e-05,7.044362180880015e-05,7.070992789116953e-05
89.57735026920001,15.5773502692,8,0,0.4383273340864218,21.60931162600538,1.834284962930886,-1.588480183172775e-05,6.879913533594806e-05,1.467427970344709e-05,6.943013412415076e-05,6.96504635481578e-05
90.42264973080002,14.4226497308,8,0,0.4535051267506933,21.37529171117916,1.741924351638561,-1.56490169633411e-05,6.803812937437273e-05,1.393539481310848e-05,6.861428537351954e-05,6.829382130461312e-05
91.57735026920001,14.4226497308,8,0,0.3633321485564105,21.01459979840202,1.711748429228537,-1.56490169633411e-05,6.695605363604134e-05,1.36939874338283e-05,6.75197427319378e-05,6.716798879092727e-05
90.42264973080002,15.5773502692,8,0,0.3730360003239701,21.35517442957248,1.606664884347148,-1.589042434262127e-05,6.803812937437273e-05,1.285331907477719e-05,6.852738576183884e-05,6.885783887099523e-05
91.57735026920001,15.5773502692,8,0,0.2828630221296873,20.99448251679534,1.576488961937129,-1.589042434262127e-05,6.695605363604134e-05,1.261191169549703e-05,6.743328967410097e-05,6.775181232457388e-05
92.42264973080002,14.4226497308,8,0,0.3186480401439056,20.74422602788839,1.460032637149652,-1.557570709385021e-05,6.612660485712772e-05,1.168026109719722e-05,6.654194945242137e-05,6.633337819057325e-05
93.57735026920001,14.4226497308,8,0,0.2199796678078059,20.34955253854399,1.43310776318802,-1.557570709385021e-05,6.494258438909452e-05,1.146486210550416e-05,6.534865205672243e-05,6.517901213945945e-05
92.42264973080002,15.5773502692,8,0,0.2468483762462412,20.72627611191398,1.312030078645524,-1.579110608554321e-05,6.612660485712772e-05,1.049624062916419e-05,6.646146087262855e-05,6.693378400827522e-05
93.57735026920001,15.5773502692,8,0,0.1481800039101389,20.33160262256957,1.285105204683885,-1.579110608554321e-05,6.494258438909449e-05,1.028084163747108e-05,6.526856555407094e-05,6.580491563244357e-05
94.4226497308,14.4226497308,8,0,0.2137251268247713,20.06342315619694,1.140993312344962,-1.536681811911828e-05,6.403197399837038e-05,9.127946498759695e-06,6.429345755019144e-05,6.434710326302259e-05
95.57735026920002,14.4226497308,8,0,0.1050740113721673,19.62881869438652,1.11580711756499,-1.536681811911828e-05,6.272816061293914e-05,8.926456940519916e-06,6.298241210107443e-05,6.322865199634675e-05
94.4226497308,15.5773502692,8,0,0.1465619407448226,20.04663235967696,0.9780166391660478,-1.556830767735813e-05,6.403197399837038e-05,7.824133113328382e-06,6.422377579221134e-05,6.499325957062539e-05
95.57735026920002,15.5773502692,8,0,0.03791082529221779,19.61202789786654,0.9528304443860754,-1.556830767735813e-05,6.272816061293913e-05,7.622643555088603e-06,6.291325089346502e-05,6.390464234720427e-05
96.4226497308,14.4226497308,8,0,0.1432946418289465,19.32423416031666,0.7762472049753135,-1.500084447440069e-05,6.172291359955013e-05,6.209977639802508e-06,6.184836648905729e-05,6.247733092881823e-05
97.57735026920001,14.4226497308,8,0,0.0230802643771959,18.84337665050965,0.7510475601584415,-1.500084447440069e-05,6.028034107012913e-05,6.008380481267533e-06,6.040003674021329e-05,6.154313486612202e-05
96.4226497308,15.5773502692,8,0,0.0760955889839483,19.30743439710541,0.5959256387976972,-1.520244163293569e-05,6.172291359955013e-05,4.767405110381578e-06,6.179670711498527e-05,6.317490946447949e-05
97.57735026920001,15.5773502692,8,0,-0.04411878846779427,18.82657688729844,0.5707259939808303,-1.520244163293569e-05,6.028034107012922e-05,4.565807951846643e-06,6.034932225990897e-05,6.226985937625809e-05
98.42264973080002,14.4226497308,8,0,0.1123877136559042,18.5175089500192,0.3553440761324446,-1.445436647631647e-05,5.916611846913672e-05,2.842752609059557e-06,5.919355048191482e-05,6.104381023561331e-05
99.57735026920002,14.4226497308,8,0,-0.02107397197421168,17.98366220749874,0.3280515014517502,-1.445436647631647e-05,5.756457824157533e-05,2.624412011614002e-06,5.758847908264173e-05,6.061382603823116e-05
98.42264973080002,15.5773502692,8,0,0.03960751450738176,18.49931390023207,0.1551515476872761,-1.467270707376203e-05,5.916611846913672e-05,1.241212381498209e-06,5.917133421894203e-05,6.178673595615581e-05
99.57735026920002,15.5773502692,8,0,-0.09385417112273231,17.96546715771161,0.1278589730065749,-1.467270707376203e-05,5.756457824157534e-05,1.022871784052599e-06,5.756819899726458e-05,6.137186831427522e-05
0.4226497308,16.4226497308,8,0,-0.07313874867709136,-3.462567729337497,-0.1092701562214853,2.536010187703306e-06,-1.102170573493832e-05,-8.74161249771882e-07,2.55008640333528e-06,2.843186105873333e-06
1.5773502692,16.4226497308,8,0,0.1308667414416443,-2.646545768862555,-0.1059831908469878,2.536010187703306e-06,-8.57363985351349e-06,-8.478655267759021e-07,2.552163536955163e-06,2.881159731023791e-06
0.4226497308,17.5773502692,8,0,-0.06437350767841332,-3.460376419087828,0.1967380789566183,2.56230591069934e-06,-1.102170573493832e-05,1.573904631652946e-06,2.607743838624609e-06,2.907553716059866e-06
1.5773502692,17.5773502692,8,0,0.1396319824403224,-2.644354458612885,0.2000250443310886,2.56230591069934e-06,-8.57363985351349e-06,1.600200354648709e-06,2.619498120359289e-06,2.949382770607945e-06
2.4226497308,16.4226497308,8,0,0.09075401495255186,-2.150214585406689,-0.05936382336997083,2.010584516173516e-06,-6.953289885263444e-06,-4.749105869597666e-07,2.016870358886125e-06,2.964506542222839e-06
3.5773502692,16.4226497308,8,0,0.2556550614580518,-1.490610399384689,-0.06404926586694418,2.010584516173516e-06,-4.974477327197445e-06,-5.123941269355534e-07,2.019968666881817e-06,3.154240639926711e-06
2.4226497308,17.5773502692,8,0,0.07825950162718109,-2.153338213738167,0.1879877463883332,1.973100976197513e-06,-6.953289885263877e-06,1.503901971106666e-06,2.036001405871233e-06,3.043811006469916e-06
3.5773502692,17.5773502692,8,0,0.2431605481327352,-1.49373402771595,0.1833023038912921,1.973100976197513e-06,-4.974477327197228e-06,1.466418431130337e-06,2.049636714455994e-06,3.259964689976808e-06
4.422649730800001,16.4226497308,8,0,0.3473280469863285,-1.04956011799713,-0.126396194985692,1.951097844753955e-06,-3.636454815179879e-06,-1.011169559885536e-06,1.996476697511856e-06,3.395523462920671e-06
5.577350269200001,16.4226497308,8,0,0.4870557908692542,-0.4906491424654272,-0.1409199071368425,1.951097844753955e-06,-1.95972188858477e-06,-1.12735925709474e-06,2.030721754292544e-06,3.864986296657971e-06
4.422649730800001,17.5773502692,8,0,0.3085981479165485,-1.059242592764304,0.08319542083864247,1.834908147544398e-06,-3.636454815179012e-06,6.655633667091397e-07,1.85507441528671e-06,3.540462282874529e-06
5.577350269200001,17.5773502692,8,0,0.4483258917993839,-0.5003316172329625,0.06867170868746481,1.834908147544398e-06,-1.959721888584987e-06,5.493736694997184e-07,1.854689145582895e-06,4.090642274597561e-06
6.422649730800001,16.4226497308,8,0,0.6680235308711094,-0.08095818503085514,-0.3127061164678071,2.202441846812234e-06,-7.934850167956239e-07,-2.501648931742457e-06,2.656005070589481e-06,4.353888006086189e-06
7.577350269200001,16.4226497308,8,0,0.7938139859484504,0.4222036352785087,-0.3390131549850744,2.202441846812234e-06,7.160004441324674e-07,-2.712105239880596e-06,3.00558970404663e-06,5.220129482470843e-06
6.422649730800001,17.5773502692,8,0,0.5978714281584057,-0.09849621070903108,-0.1240204338517144,1.991985538674123e-06,-7.934850167956239e-07,-9.921634708137152e-07,2.077698312800225e-06,4.662296426773085e-06
7.577350269200001,17.5773502692,8,0,0.7236618832357467,0.4046656096003327,-0.1503274723690224,1.991985538674123e-06,7.160004441324674e-07,-1.202619778952179e-06,2.281186136344033e-06,5.673904623217695e-06
8.4226497308,16.4226497308,8,0,1.031204480743876,0.8213334415922448,-0.619000502842751,2.642787585106608e-06,1.803303428500082e-06,-4.952004022742008e-06,4.734373715662473e-06,6.034013460657846e-06
9.5773502692,16.4226497308,8,0,1.152961275386535,1.308360620162879,-0.6597941266242499,2.642787585106608e-06,3.264384964211985e-06,-5.278353012993999e-06,5.618811322642744e-06,7.391344364240903e-06
8.4226497308,17.5773502692,8,0,0.9224214839931315,0.7941376924045586,-0.4363653108788038,2.316438594854374e-06,1.803303428500082e-06,-3.49092248703043e-06,3.835500087889246e-06,6.597966173121204e-06
9.5773502692,17.5773502692,8,0,1.044178278635781,1.281164870975157,-0.4771589346603297,2.316438594854374e-06,3.264384964211877e-06,-3.817271477282638e-06,4.827823290463442e-06,8.110941080441155e-06
10.4226497308,16.4226497308,8,0,1.416185593961366,1.716145831827616,-1.045563428396428,3.158877235214278e-06,4.358718186679277e-06,-8.364507427171424e-06,7.983859923743718e-06,8.561984554188595e-06
11.5773502692,16.4226497308,8,0,1.543576629678594,2.225709974696528,-1.104283169977682,3.158877235214278e-06,5.887410615286015e-06,-8.834265359821455e-06,9.146160766391519e-06,1.040290212706069e-05
10.4226497308,17.5773502692,8,0,1.259599616411157,1.676999337440063,-0.8544768748205045,2.689119302563651e-06,4.358718186679277e-06,-6.835814998564036e-06,7.042298644732813e-06,9.381360007729313e-06
11.5773502692,17.5773502692,8,0,1.38699065212834,2.186563480308795,-0.9131966164018803,2.689119302563651e-06,5.887410615285473e-06,-7.305572931215042e-06,8.281223599387199e-06,1.133923415680533e-05
12.4226497308,16.4226497308,8,0,1.798416601976498,2.6607729818241,-1.59028524116122,3.626314740865514e-06,7.075740260255921e-06,-1.272228192928976e-05,1.194183537786519e-05,1.19193925669949e-05
13.5773502692,16.4226497308,8,0,1.94157364678734,3.233401161067467,-1.670493334837665,3.626314740865514e-06,8.793624797986022e-06,-1.336394667870132e-05,1.337404968344108e-05,1.422160392539168e-05
12.4226497308,17.5773502692,8,0,1.584528352172636,2.607300919373134,-1.375549673944944,2.984649991453927e-06,7.075740260255921e-06,-1.100439739155955e-05,1.090032675851124e-05,1.292229904034945e-05
13.5773502692,17.5773502692,8,0,1.727685396983478,3.179929098616502,-1.455757767621416,2.984649991453927e-06,8.793624797986022e-06,-1.164606214097133e-05,1.239634400920307e-05,1.528943858497797e-05
14.4226497308,16.4226497308,8,0,2.146149136117029,3.713872282084473,-2.244064533361051,3.896579409906913e-06,1.016747199377669e-05,-1.79525162668884e-05,1.65401397907572e-05,1.607381633985669e-05
15.5773502692,16.4226497308,8,0,2.315777119714231,4.392384216473284,-2.348218196020305,3.896579409906913e-06,1.220300779694312e-05,-1.878574556816244e-05,1.831990788103527e-05,1.883194340440328e-05
14.4226497308,17.5773502692,8,0,1.868406035692295,3.64443650697829,-1.989622557965233,3.063350108632712e-06,1.016747199377669e-05,-1.591698046372186e-05,1.533061063069634e-05,1.716665443406957e-05
15.5773502692,17.5773502692,8,0,2.038034019289498,4.3229484413671,-2.093776220624501,3.063350108632712e-06,1.220300779694312e-05,-1.675020976499601e-05,1.717391883278228e-05,1.99281639661509e-05
16.4226497308,16.4226497308,8,0,2.419905392023431,4.934779285481825,-2.984016991103725,3.795873826089517e-06,1.385536939992309e-05,-2.38721359288298e-05,2.177815346014438e-05,2.101410815365292e-05
17.5773502692,16.4226497308,8,0,2.62647206276025,5.761045968429102,-3.111700320425191,3.795873826089517e-06,1.633416944876493e-05,-2.489360256340153e-05,2.400148734529405e-05,2.421776605479562e-05
16.4226497308,17.5773502692,8,0,2.079416513832892,4.84965706593419,-2.674166984998564,2.774407191517901e-06,1.385536939992309e-05,-2.139333587998851e-05,2.036128343636431e-05,2.20877245089481e-05
17.5773502692,17.5773502692,8,0,2.285983184569711,5.675923748881468,-2.801850314320016,2.774407191517901e-06,1.633416944876493e-05,-2.241480251456013e-05,2.265286194706538e-05,2.522624410206057e-05
18.4226497308,16.4226497308,8,0,2.577117613781235,6.377606472526663,-3.765968633862331,3.144691186078623e-06,1.834664662106033e-05,-3.012774907089864e-05,2.761858146428498e-05,2.67135539670499e-05
19.5773502692,16.4226497308,8,0,2.828733433379264,7.384069750918776,-3.912060910902948,3.144691186078623e-06,2.136603645623667e-05,-3.129648728722359e-05,3.036259676806079e-05,3.032851544739205e-05
18.4226497308,17.5773502692,8,0,2.187538208339615,6.280211621166258,-3.388544904465356,1.975952969753762e-06,1.834664662106033e-05,-2.710835923572285e-05,2.599530395637285e-05,2.764768747313301e-05
19.5773502692,17.5773502692,8,0,2.439154027937634,7.286674899558334,-3.534637181505987,1.975952969753762e-06,2.136603645623656e-05,-2.82770974520479e-05,2.881428478466305e-05,3.112467419772257e-05
20.4226497308,16.4226497308,8,0,2.584464932023673,8.079072462087328,-4.520555108790468,1.807029812805888e-06,2.378545993306051e-05,-3.616444087032374e-05,3.395586546271492e-05,3.309808195946416e-05
21.5773502692,16.4226497308,8,0,2.88368143442484,9.275938471691997,-4.674700446117723,1.807029812805888e-06,2.737605796187452e-05,-3.739760356894178e-05,3.724301157261168e-05,3.704971690536603e-05
20.4226497308,17.5773502692,8,0,2.173410699150929,7.976308903869143,-4.071730355188676,5.738671141876589e-07,2.378545993306051e-05,-3.257384284150941e-05,3.217862148805628e-05,3.376770972197117e-05
21.5773502692,17.5773502692,8,0,2.472627201552115,9.173174913473884,-4.225875692515959,5.738671141876589e-07,2.737605796187474e-05,-3.380700554012767e-05,3.554618791946273e-05,3.751163033614519e-05
22.4226497308,16.4226497308,8,0,2.434364517205128,10.04171732274922,-5.158874431827409,-2.434074031429638e-07,3.018600381903339e-05,-4.127099545461928e-05,4.060937600808224e-05,4.002144370896252e-05
23.5773502692,16.4226497308,8,0,2.774890918854128,11.40382292934522,-5.307234353907362,-2.434074031429638e-07,3.427232063882139e-05,-4.24578748312589e-05,4.43732148930867e-05,4.418871737704566e-05
22.4226497308,17.5773502692,8,0,2.038738058325174,9.942810708029228,-4.648084829353937,-1.430286779782828e-06,3.018600381903339e-05,-3.718467863483149e-05,3.878221344044058e-05,4.031100686594843e-05
23.5773502692,17.5773502692,8,0,2.379264459974191,11.3049163146253,-4.796444751433896,-1.430286779782828e-06,3.427232063882161e-05,-3.837155801147117e-05,4.262718338283093e-05,4.421512516103785e-05
24.4226497308,16.4226497308,8,0,2.160455513982773,12.22022235225071,-5.593100117362519,-2.862720237055693e-06,3.737634711601604e-05,-4.474480093890015e-05,4.734534843417061e-05,4.726077094425856e-05
25.5773502692,16.4226497308,8,0,2.526625616008398,13.68490276035321,-5.723828908337354,-2.862720237055693e-06,4.177038834032355e-05,-4.579063126669883e-05,5.142607315481101e-05,5.14865037057311e-05
24.4226497308,17.5773502692,8,0,1.811845404716465,12.13306982493413,-5.043844964324053,-3.908550564854616e-06,3.737634711601604e-05,-4.035075971459243e-05,4.559835126738681e-05,4.708367763462733e-05
25.5773502692,17.5773502692,8,0,2.178015506742082,13.5977502330366,-5.174573755298929,-3.908550564854616e-06,4.177038834032344e-05,-4.139659004239143e-05,4.97539748955381e-05,5.101659044189494e-05
26.4226497308,16.4226497308,8,0,1.829246949661678,14.52152931366108,-5.766022048041072,-5.76363321201149e-06,4.50054962439861e-05,-4.612817638432857e-05,5.391857415459867e-05,5.454099624751771e-05
27.57735026920001,16.4226497308,8,0,2.199616777731823,16.00300862594165,-5.873778926867887,-5.76363321201149e-06,4.944993418082782e-05,-4.69902314149431e-05,5.809442588498378e-05,5.866029230190118e-05
26.4226497308,17.5773502692,8,0,1.541895272790143,14.44969139444319,-5.210467305935822,-6.625688242626097e-06,4.50054962439861e-05,-4.168373844748658e-05,5.236863688203434e-05,5.385706421337216e-05
27.57735026920001,17.5773502692,8,0,1.912265100860282,15.93117070672375,-5.318224184762638,-6.625688242626097e-06,4.944993418082777e-05,-4.25457934781011e-05,5.660665369781987e-05,5.768447006767702e-05
28.4226497308,16.4226497308,8,0,1.520513017255511,16.82758821362188,-5.671836192745478,-8.596428915679866e-06,5.26318718697856e-05,-4.537468954196383e-05,6.012207578238467e-05,6.158529990998759e-05
29.5773502692,16.4226497308,8,0,1.874577808611922,18.24384737904752,-5.760841397697513,-8.596428915679866e-06,5.688064936606253e-05,-4.60867311815801e-05,6.41772028668871e-05,6.545727325376146e-05
28.4226497308,17.5773502692,8,0,1.283165804050031,16.76825141032051,-5.140739005710787,-9.308470555296306e-06,5.26318718697856e-05,-4.11259120456863e-05,5.883678189900499e-05,6.040627599205669e-05
29.5773502692,17.5773502692,8,0,1.637230595406447,18.18451057574617,-5.22974421066289,-9.308470555296306e-06,5.688064936606259e-05,-4.183795368530312e-05,6.29377623087777e-05,6.401498221181523e-05
30.4226497308,16.4226497308,8,0,1.292263930619534,19.03094118158049,-5.356806715621118,-1.108950836728188e-05,5.986520063656193e-05,-4.285445372496894e-05,6.583381980484608e-05,6.816641530714676e-05
31.5773502692,16.4226497308,8,0,1.617694615025112,20.3326639192028,-5.43838441939009,-1.108950836728188e-05,6.377036884942886e-05,-4.350707535512072e-05,6.963265478214195e-05,7.169595569845765e-05
30.4226497308,17.5773502692,8,0,1.074723387235599,18.97655604573444,-4.868660689012717,-1.174212999743363e-05,5.986520063656171e-05,-3.894928551210174e-05,6.481891698972763e-05,6.654854933503239e-05
31.5773502692,17.5773502692,8,0,1.400154071641199,20.27827878335684,-4.950238392781682,-1.174212999743363e-05,6.377036884942891e-05,-3.960190714225346e-05,6.864758202112672e-05,6.986167722058353e-05
32.4226497308,16.4226497308,8,0,1.155600747280308,21.06594162772991,-4.886403686452715,-1.315483091088695e-05,6.648653261091147e-05,-3.909122949162172e-05,7.102481557749965e-05,7.413632358684683e-05
33.57735026920001,16.4226497308,8,0,1.448561512738221,22.23778468956156,-4.970393517816377,-1.315483091088695e-05,7.000206179640642e-05,-3.976314814253102e-05,7.451096933441088e-05,7.727399225605822e-05
32.4226497308,17.5773502692,8,0,0.9316278636438202,21.00994840682079,-4.446962538265798,-1.382674956179641e-05,6.648653261091147e-05,-3.557570030612639e-05,7.024985778599811e-05,7.216337857641896e-05
33.57735026920001,17.5773502692,8,0,1.224588629101742,22.18179146865248,-4.530952369629488,-1.382674956179641e-05,7.000206179640653e-05,-3.62476189570359e-05,7.375263036941552e-05,7.513861573912772e-05
34.42264973080001,16.4226497308,8,0,1.101857525989423,22.90873033198689,-4.308987776587799,-1.480104018242336e-05,7.242645104156651e-05,-3.447190221270239e-05,7.570872676239187e-05,7.941820906819715e-05
35.5773502692,16.4226497308,8,0,1.360859643479985,23.94473880194914,-4.401734523009555,-1.480104018242336e-05,7.553447645145325e-05,-3.521387618407644e-05,7.884486434860008e-05,8.213864967244172e-05
34.42264973080001,17.5773502692,8,0,0.8545328688648119,22.84689916770574,-3.920484600351983,-1.554301415379719e-05,7.242645104156651e-05,-3.136387680281586e-05,7.513839813007999e-05,7.718534352341699e-05
35.5773502692,17.5773502692,8,0,1.113534986355392,23.88290763766806,-4.013231346773692,-1.554301415379719e-05,7.553447645145347e-05,-3.210585077418953e-05,7.828106781764522e-05,7.980187065688714e-05
36.4226497308,16.4226497308,8,0,1.119025681233065,24.54930615651124,-3.662539669292924,-1.605856274526318e-05,7.766255915584949e-05,-2.930031735434339e-05,7.98992417314537e-05,8.397429316404448e-05
37.5773502692,16.4226497308,8,0,1.344526069689598,25.45130771033737,-3.768617417037054,-1.605856274526318e-05,8.036856381732788e-05,-3.014893933629643e-05,8.267021923352399e-05,8.626892384365497e-05
36.4226497308,17.5773502692,8,0,0.8361516872486892,24.47858765801514,-3.324289086608083,-1.69071847272163e-05,7.766255915584949e-05,-2.659431269286467e-05,7.949665993798653e-05,8.158354800782176e-05
37.5773502692,17.5773502692,8,0,1.061652075705209,25.38058921184122,-3.430366834352241,-1.69071847272163e-05,8.036856381732772e-05,-2.744293467481793e-05,8.226702775447608e-05,8.383465392000668e-05
38.4226497308,16.4226497308,8,0,1.18769749224548,25.98659279402444,-2.97468219046177,-1.698864226003401e-05,8.220693894708179e-05,-2.379745752369416e-05,8.361425180290709e-05,8.779531579751402e-05
39.5773502692,16.4226497308,8,0,1.380741625294884,26.75876932622205,-3.095510247078432,-1.698864226003401e-05,8.452346854367465e-05,-2.476408197662745e-05,8.601195447383305e-05,8.967086548828796e-05
38.4226497308,17.5773502692,8,0,0.8654893412676961,25.90604075627992,-2.685115990887649,-1.79552667129673e-05,8.220693894708158e-05,-2.14809279271012e-05,8.334569971335941e-05,8.535017516049348e-05
39.5773502692,17.5773502692,8,0,1.058533474317146,26.67821728847772,-2.805944047504298,-1.79552667129673e-05,8.452346854367497e-05,-2.244755238003438e-05,8.573832807498169e-05,8.723955027744432e-05
40.4226497308,16.4226497308,8,0,1.298513149367345,27.22382148034619,-2.262069579224103,-1.762381510630144e-05,8.607741821761391e-05,-1.809655663379282e-05,8.686098995754291e-05,9.089705046623088e-05
41.5773502692,16.4226497308,8,0,1.459258138133555,27.86680143541102,-2.399391267504672,-1.762381510630144e-05,8.800635808280842e-05,-1.919513014003737e-05,8.887131086289982e-05,9.237150043481718e-05
40.4226497308,17.5773502692,8,0,0.9323219806191974,27.13227368815915,-2.020952096074761,-1.872238861254589e-05,8.607741821761391e-05,-1.616761676859809e-05,8.669730201357216e-05,8.849451976785382e-05
41.5773502692,17.5773502692,8,0,1.093066969385411,27.775253643224,-2.158273784355337,-1.872238861254589e-05,8.800635808280848e-05,-1.72661902748427e-05,8.870016334338674e-05,9.003378506079632e-05
42.4226497308,16.4226497308,8,0,1.43360683851618,28.25616178918346,-1.540967621248394,-1.801738754809499e-05,8.927283225457412e-05,-1.232774096998716e-05,8.96257882045461e-05,9.331681267785828e-05
43.57735026920001,16.4226497308,8,0,1.561201165073729,28.76653909541365,-1.693710494742235,-1.801738754809499e-05,9.08039641732647e-05,-1.354968395793788e-05,9.122412025462243e-05,9.442500378638698e-05
42.4226497308,17.5773502692,8,0,1.026292509199281,28.15433320685424,-1.349576131412126,-1.923933053604569e-05,8.927283225457412e-05,-1.079660905129701e-05,8.95407277880075e-05,9.103975864208969e-05
43.57735026920001,17.5773502692,8,0,1.153886835756807,28.66471051308434,-1.502319004905946,-1.923933053604569e-05,9.080396417326443e-05,-1.201855203924757e-05,9.113114766353368e-05,9.224886428442956e-05
44.4226497308,16.4226497308,8,0,1.568594879070569,29.07619247514092,-0.8364313920182617,-1.824145036708692e-05,9.178894001719449e-05,-6.691451136146094e-06,9.189058056157081e-05,9.511443566423514e-05
45.5773502692,16.4226497308,8,0,1.665250890009647,29.46281651889723,-0.9990252832648228,-1.824145036708692e-05,9.294881214846342e-05,-7.992202266118582e-06,9.309224423631896e-05,9.588980747442531e-05
44.4226497308,17.5773502692,8,0,1.135011169079767,28.96779654764322,-0.6914473756096591,-1.954220149705932e-05,9.178894001719449e-05,-5.531579004877272e-06,9.185760792256752e-05,9.302227062415101e-05
45.5773502692,17.5773502692,8,0,1.231667180018835,29.3544205913995,-0.8540412668562268,-1.954220149705932e-05,9.294881214846331e-05,-6.832330134849815e-06,9.305245990247612e-05,9.392615039691581e-05
46.42264973080001,16.4226497308,8,0,1.7028000162086,29.70310489309978,-0.1662128893292373,-1.831352386261231e-05,9.368769564495241e-05,-1.329703114633899e-06,9.369164213786029e-05,9.634720701190693e-05
47.57735026920001,16.4226497308,8,0,1.774366276383527,29.98936993379949,-0.336899663952499,-1.831352386261231e-05,9.454649076705155e-05,-2.695197311619992e-06,9.456257939949596e-05,9.682147397752812e-05
46.42264973080001,17.5773502692,8,0,1.247635283879974,29.58931371001763,-0.05886349906683791,-1.967901805959818e-05,9.368769564495241e-05,-4.709079925347033e-07,9.368818466279026e-05,9.448618383269434e-05
47.57735026920001,17.5773502692,8,0,1.319201544054897,29.87557875071732,-0.2295502736900725,-1.967901805959818e-05,9.454649076705149e-05,-1.83640218952058e-06,9.455387124438649e-05,9.511234386047889e-05
48.4226497308,16.4226497308,8,0,1.835523185015004,30.16901442160045,0.4745998770030713,-1.826153734523235e-05,9.507242760110944e-05,3.79679901602457e-06,9.510421780695408e-05,9.707225907398546e-05
49.57735026920001,16.4226497308,8,0,1.88369743752999,30.3617114316604,0.2956210871896296,-1.826153734523235e-05,9.565051863128928e-05,2.364968697517037e-06,9.566279229784882e-05,9.72831497336959e-05
48.4226497308,17.5773502692,8,0,1.35824641217916,30.04969522839149,0.5468612557755506,-1.969336766373988e-05,9.507242760110944e-05,4.374890046204404e-06,9.511410533866399e-05,9.54788239745369e-05
49.57735026920001,17.5773502692,8,0,1.406420664694148,30.24239223845145,0.3678824659621394,-1.969336766373988e-05,9.56505186312893e-05,2.943059727697115e-06,9.566928900467297e-05,9.585390623836505e-05
50.42264973080001,16.4226497308,8,0,1.953602380464245,30.48083440673375,1.08627989544256,-1.813313990790141e-05,9.597578819717657e-05,8.69023916354048e-06,9.614100548333735e-05,9.735547539225645e-05
51.57735026920001,16.4226497308,8,0,1.979482542965719,30.58435505673964,0.9011877144655777,-1.813313990790141e-05,9.628635014719426e-05,7.209501715724621e-06,9.639980421795472e-05,9.734218210643273e-05
50.42264973080001,17.5773502692,8,0,1.460023231192283,30.35743961941575,1.125100139194788,-1.96138773557173e-05,9.597578819717657e-05,9.000801113558305e-06,9.615074324877782e-05,9.604461980533725e-05
51.57735026920001,17.5773502692,8,0,1.485903393693757,30.46096026942165,0.9400079582177855,-1.96138773557173e-05,9.628635014719426e-05,7.520063665742284e-06,9.640820487615825e-05,9.619057669619199e-05
52.4226497308,16.4226497308,8,0,2.044238413968698,30.63383457748332,1.680344213523598,-1.796550473728682e-05,9.639287991677166e-05,1.344275370818878e-05,9.678657132841019e-05,9.72588071688351e-05
53.5773502692,16.4226497308,8,0,2.042611980051885,30.62732884181607,1.496689917510251,-1.796550473728682e-05,9.63733627097699e-05,1.197351934008201e-05,9.66859735185625e-05,9.704431588905447e-05
52.4226497308,17.5773502692,8,0,1.554493624599766,30.51139838014109,1.677904562648409,-1.943473910539362e-05,9.639287991677166e-05,1.342323650118727e-05,9.678048678323226e-05,9.621718999231172e-05
53.5773502692,17.5773502692,8,0,1.552867190682959,30.50489264447386,1.494250266635062,-1.943473910539362e-05,9.637336270976998e-05,1.19540021330805e-05,9.66810258574988e-05,9.614394197861606e-05
54.42264973080001,16.4226497308,8,0,2.121827417707694,30.60331931143054,2.240104534476035,-1.769280771247981e-05,9.623315986241154e-05,1.792083627580828e-05,9.693360135629026e-05,9.681302727385365e-05
55.57735026920001,16.4226497308,8,0,2.091533743094035,30.4821446129759,2.062038889905915,-1.769280771247981e-05,9.586963576704765e-05,1.649631111924732e-05,9.646558032535033e-05,9.639562630566648e-05
54.42264973080001,17.5773502692,8,0,1.64698569885396,30.4846088817171,2.194664022555555,-1.911733286904101e-05,9.623315986241154e-05,1.755731218044444e-05,9.689742708822644e-05,9.601146708325634e-05
55.57735026920001,17.5773502692,8,0,1.616692024240302,30.36343418326247,2.016598377985388,-1.911733286904101e-05,9.586963576704765e-05,1.61327870238831e-05,9.643273973421608e-05,9.572278695208652e-05
56.4226497308,16.4226497308,8,0,2.210507772007405,30.39177348283738,2.740121699626838,-1.723979391584621e-05,9.548526892747369e-05,2.19209735970147e-05,9.654109013907777e-05,9.602001327366246e-05
57.57735026920001,16.4226497308,8,0,2.153292302079006,30.16291160312378,2.564455391976157,-1.723979391584621e-05,9.479868328833289e-05,2.051564313580926e-05,9.573010751712539e-05,9.541122035438601e-05
56.4226497308,17.5773502692,8,0,1.742064284938924,30.27466261107026,2.654298494734239,-1.864512437705165e-05,9.548526892747369e-05,2.123438795787391e-05,9.646455071156003e-05,9.543801099515088e-05
57.57735026920001,17.5773502692,8,0,1.684848815010509,30.0458007313566,2.478632187083538,-1.864512437705165e-05,9.47986832883327e-05,1.98290574966683e-05,9.565865381473657e-05,9.494866874316538e-05
58.4226497308,16.4226497308,8,0,2.291602510333948,30.0154757269832,3.140094745752175,-1.667925254851793e-05,9.421624031807907e-05,2.51207579660174e-05,9.562107258379978e-05,9.490819175801449e-05
59.57735026920001,16.4226497308,8,0,2.216212664653035,29.71391634425955,2.966980014177921,-1.667925254851793e-05,9.331156216990812e-05,2.373584011342337e-05,9.457753016784649e-05,9.41426849942855e-05
58.4226497308,17.5773502692,8,0,1.82996322613591,29.90006590593369,3.027009977230803,-1.806417040111204e-05,9.421624031807907e-05,2.421607981784642e-05,9.550710049146521e-05,9.452945172175331e-05
59.57735026920001,17.5773502692,8,0,1.754573380454998,29.59850652321004,2.853895245656546,-1.806417040111204e-05,9.331156216990812e-05,2.283116196525237e-05,9.446957472010386e-05,9.387347177179463e-05
60.4226497308,16.4226497308,8,0,2.349388055613012,29.52703267191362,3.429543476323685,-1.610358435956926e-05,9.260699410563317e-05,2.743634781058948e-05,9.431136740194522e-05,9.35425954634658e-05
61.5773502692,16.4226497308,8,0,2.264368255537931,29.1869534716133,3.260295588164191,-1.610358435956926e-05,9.15867565047322e-05,2.608236470531353e-05,9.314352481142531e-05,9.266862713983551e-05
60.4226497308,17.5773502692,8,0,1.89806035385447,29.41420074647399,3.302013776211078,-1.745756746484488e-05,9.260699410563317e-05,2.641611020968862e-05,9.416980717205227e-05,9.334881095461398e-05
61.5773502692,17.5773502692,8,0,1.813040553779392,29.07412154617368,3.132765888051611,-1.745756746484488e-05,9.158675650473223e-05,2.506212710441289e-05,9.300825994548547e-05,9.257139089523356e-05
62.42264973080001,16.4226497308,8,0,2.370762746705492,28.97593520306542,3.615615795663903,-1.559430737299476e-05,9.082638245244495e-05,2.892492636531122e-05,9.27567996585087e-05,9.200638579365508e-05
63.57735026920001,16.4226497308,8,0,2.282667501472702,28.62355422213426,3.452659006765611,-1.559430737299476e-05,8.976923950965147e-05,2.762127205412489e-05,9.154940617694818e-05,9.107107711257069e-05
62.42264973080001,17.5773502692,8,0,1.936211309643356,28.86729734379989,3.483472927814742,-1.689796168418117e-05,9.082638245244495e-05,2.786778342251793e-05,9.259951318853527e-05,9.197422143606689e-05
63.57735026920001,17.5773502692,8,0,1.848116064410567,28.51491636286873,3.320516138916439,-1.689796168418117e-05,8.976923950965147e-05,2.656412911133151e-05,9.139822793010464e-05,9.112014419220617e-05
64.4226497308,16.4226497308,8,0,2.350859834161746,28.40020756416273,3.714655519830198,-1.51974145820126e-05,8.899997633799134e-05,2.971724415864159e-05,9.107740771195664e-05,9.037764185546679e-05
65.57735026920001,16.4226497308,8,0,2.263816240273146,28.05203318860833,3.560329091567819,-1.51974145820126e-05,8.795545321132813e-05,2.848263273254255e-05,8.98855014018015e-05,8.941845018230321e-05
64.4226497308,17.5773502692,8,0,1.939322692128724,28.29732327865447,3.584090128997295,-1.643202600811166e-05,8.899997633799134e-05,2.867272103197836e-05,9.09146260170172e-05,9.04803578044772e-05
65.57735026920001,17.5773502692,8,0,1.852279098240126,27.94914890310008,3.429763700734905,-1.643202600811166e-05,8.795545321132816e-05,2.743810960587924e-05,8.972835995964411e-05,8.95865061309971e-05
66.4226497308,16.4226497308,8,0,2.290456360263812,27.82420848720535,3.744607063915372,-1.492990643692008e-05,8.720510207084605e-05,2.995685651132298e-05,8.935642252899851e-05,8.871676901991331e-05
67.57735026920001,16.4226497308,8,0,2.206666834202312,27.48905038295934,3.600735838590329,-1.492990643692008e-05,8.619962775810805e-05,2.880588670872263e-05,8.821090510000366e-05,8.775893210663226e-05
66.4226497308,17.5773502692,8,0,1.90679975939705,27.72829433698866,3.618922774823098,-1.608087623952036e-05,8.720510207084605e-05,2.895138219858478e-05,8.919553497396995e-05,8.892723291321517e-05
67.57735026920001,17.5773502692,8,0,1.823010233335546,27.39313623274264,3.475051549498072,-1.608087623952036e-05,8.619962775810799e-05,2.780041239598457e-05,8.805504640179934e-05,8.801991665956902e-05
68.42264973080002,16.4226497308,8,0,2.193997220934773,27.26149015153365,3.721618544456692,-1.478840101423565e-05,8.548157070815987e-05,2.977294835565354e-05,8.764499706712041e-05,8.706341486702755e-05
69.57735026920001,16.4226497308,8,0,2.114306051723396,26.94272547468815,3.589330642683574,-1.478840101423565e-05,8.452527667762334e-05,2.871464514146859e-05,8.655919479626855e-05,8.612106334408777e-05
68.42264973080002,17.5773502692,8,0,1.841229482873155,27.17329821701825,3.602081790639633,-1.58467042284205e-05,8.548157070815987e-05,2.881665432511707e-05,8.749052615294179e-05,8.735670860031252e-05
69.57735026920001,17.5773502692,8,0,1.761538313661771,26.85453354017271,3.469793888866515,-1.58467042284205e-05,8.452527667762326e-05,2.775835111093212e-05,8.640909659347299e-05,8.645210674000374e-05
70.4226497308,16.4226497308,8,0,2.067530238238671,26.71787101345603,3.65865432065612,-1.475820004840107e-05,8.384316305246834e-05,2.926923456524896e-05,8.596941242685419e-05,8.543886724237201e-05
71.57735026920001,16.4226497308,8,0,1.991923984071923,26.41544599678904,3.538455360247687,-1.475820004840107e-05,8.293588800246737e-05,2.830764288198149e-05,8.494515500532302e-05,8.451742435461966e-05
70.4226497308,17.5773502692,8,0,1.746999677149552,26.63773837318375,3.545244939405978,-1.571979173166843e-05,8.384316305246834e-05,2.836195951524782e-05,8.582359905454677e-05,8.579375746732474e-05
71.57735026920001,17.5773502692,8,0,1.671393422982803,26.33531335651675,3.425045978997575,-1.571979173166843e-05,8.293588800246734e-05,2.74003678319806e-05,8.480307548457713e-05,8.489971566547199e-05
72.4226497308,16.4226497308,8,0,1.917537557382389,26.19417663431816,3.565433771481822,-1.481922112383088e-05,8.228733518391221e-05,2.852347017185457e-05,8.433858160194419e-05,8.385021460808692e-05
73.57735026920001,16.4226497308,8,0,1.84548720723583,25.90597523373193,3.457343215845126,-1.481922112383088e-05,8.142273098215349e-05,2.765874572676101e-05,8.337050656216142e-05,8.294880656892921e-05
72.4226497308,17.5773502692,8,0,1.629296075684575,26.12211626389371,3.457358246261992,-1.568394556892433e-05,8.228733518391221e-05,2.765886597009594e-05,8.420205020680046e-05,8.424966393976108e-05
73.57735026920001,17.5773502692,8,0,1.55724572553802,25.83391486330749,3.349267690625306,-1.568394556892433e-05,8.142273098215354e-05,2.679414152500245e-05,8.323712208480258e-05,8.336773139934828e-05
74.4226497308,16.4226497308,8,0,1.750307105533809,25.68814088006656,3.448807766842331,-1.494952996634506e-05,8.080180513178592e-05,2.759046213473865e-05,8.27497057354607e-05,8.229436309858182e-05
75.57735026920001,16.4226497308,8,0,1.680990708096217,25.41087529031619,3.352494953388036,-1.494952996634506e-05,7.997000836253482e-05,2.681995962710429e-05,8.182815934627023e-05,8.140779832599281e-05
74.4226497308,17.5773502692,8,0,1.49347293632231,25.62393233776368,3.34483317068594,-1.572003247397955e-05,8.080180513178592e-05,2.675866536548752e-05,8.262204872290095e-05,8.272546269888099e-05
75.57735026920001,17.5773502692,8,0,1.424156538884711,25.34666674801329,3.248520357231649,-1.572003247397955e-05,7.997000836253474e-05,2.598816285785319e-05,8.170312960978395e-05,8.185268451743139e-05
76.42264973080002,16.4226497308,8,0,1.571654805755609,25.19566415645713,3.313244624063153,-1.512723594674776e-05,7.936880145605833e-05,2.650595699250522e-05,8.119232960443643e-05,8.076128353635487e-05
77.57735026920001,16.4226497308,8,0,1.504093885324467,24.92542047473257,3.228139733633816,-1.512723594674776e-05,7.855807041088462e-05,2.582511786907053e-05,8.030521384687949e-05,7.988153705573324e-05
76.42264973080002,17.5773502692,8,0,1.34470843127741,25.13892756283758,3.211903243416456,-1.580807507018235e-05,7.936880145605833e-05,2.569522594733165e-05,8.107255948650887e-05,8.121490675505686e-05
77.57735026920001,17.5773502692,8,0,1.277147510846272,24.86868388111303,3.12679835298711,-1.580807507018235e-05,7.855807041088467e-05,2.501438682389688e-05,8.018762145029525e-05,8.034524368568763e-05
78.4226497308,16.4226497308,8,0,1.386846461497632,24.71160156698634,3.16127774267057,-1.533137257679665e-05,7.796764784515818e-05,2.529022194136456e-05,7.965110396550534e-05,7.923643278842124e-05
79.57735026920001,16.4226497308,8,0,1.319985344631387,24.44415709952136,3.086653069119088,-1.533137257679665e-05,7.716531444276325e-05,2.46932245529527e-05,7.878499901127625e-05,7.835372163449204e-05
78.4226497308,17.5773502692,8,0,1.187847332026999,24.66185178461869,3.060986067371217,-1.592836996520855e-05,7.796764784515818e-05,2.448788853896973e-05,7.953798301142296e-05,7.970680267537143e-05
79.57735026920001,17.5773502692,8,0,1.120986215160763,24.39440731715374,2.986361393819738,-1.592836996520855e-05,7.716531444276336e-05,2.38908911505579e-05,7.867367163649834e-05,7.883221246684703e-05
80.4226497308,16.4226497308,8,0,1.200627876242812,24.23023539316652,2.993865399285907,-1.554217911055622e-05,7.657625095713861e-05,2.395092319428725e-05,7.810761240644443e-05,7.770251800527349e-05
81.57735026920001,16.4226497308,8,0,1.133376378802478,23.96122940340518,2.928889304763229,-1.554217911055622e-05,7.576923298785459e-05,2.343111443810583e-05,7.724841609524267e-05,7.680610775802865e-05
80.4226497308,17.5773502692,8,0,1.027358290849037,24.18691799681808,2.892988153125418,-1.606198786673754e-05,7.657625095713861e-05,2.314390522500335e-05,7.799988921967262e-05,7.818679809370535e-05
81.57735026920001,17.5773502692,8,0,0.9601067934086958,23.91791200705671,2.82801205860274,-1.606198786673754e-05,7.576923298785451e-05,2.262409646882192e-05,7.714215939739512e-05,7.729808344279645e-05
82.4226497308,16.4226497308,8,0,1.017307504862941,23.74554180871644,2.810653042773448,-1.574104943141174e-05,7.517188778400225e-05,2.248522434218758e-05,7.654155361757791e-05,7.614085782211237e-05
83.57735026920001,16.4226497308,8,0,0.9485608817489872,23.47055531626063,2.754421173954451,-1.574104943141174e-05,7.434692830663481e-05,2.203536939163561e-05,7.567480924344479e-05,7.521977144462477e-05
82.4226497308,17.5773502692,8,0,0.8673558546789533,23.70805389617045,2.70753310810253,-1.619090438196371e-05,7.517188778400225e-05,2.166026486482024e-05,7.643814038115995e-05,7.663881927516567e-05
83.57735026920001,17.5773502692,8,0,0.7986092315649991,23.43306740371463,2.651301239283517,-1.619090438196371e-05,7.434692830663481e-05,2.121040991426813e-05,7.557258324942223e-05,7.572639072442116e-05
84.42264973080002,16.4226497308,8,0,0.8408600532701938,23.25132760556374,2.610144490704294,-1.591030991398637e-05,7.37315602951878e-05,2.088115592563435e-05,7.493151057807746e-05,7.453265721926599e-05
85.57735026920001,16.4226497308,8,0,0.7695052869926862,22.96590854045371,2.561692702783176,-1.591030991398637e-05,7.287530309985771e-05,2.049354162226541e-05,7.404254028932495e-05,7.357651262239027e-05
84.42264973080002,17.5773502692,8,0,0.711655285480564,23.21902641361633,2.503112341288059,-1.629792421735526e-05,7.37315602951878e-05,2.002489873030448e-05,7.483163304112891e-05,7.504643799148749e-05
85.57735026920001,17.5773502692,8,0,0.6403005192030653,22.93360734850634,2.454660553366942,-1.629792421735526e-05,7.287530309985782e-05,1.963728442693554e-05,7.394361088963328e-05,7.410120112903297e-05
86.4226497308,16.4226497308,8,0,0.6750338792917203,22.74128717998353,2.38979247652986,-1.603292133025332e-05,7.223209187251392e-05,1.911833981223888e-05,7.325549150957522e-05,7.286063547536428e-05
87.57735026920002,16.4226497308,8,0,0.5999481661378407,22.44094432736801,2.348094949790609,-1.603292133025332e-05,7.133106331466736e-05,1.878475959832487e-05,7.232941624099846e-05,7.186096733450442e-05
86.4226497308,17.5773502692,8,0,0.5638404746537331,22.71348882882403,2.277163906799028,-1.636650154416728e-05,7.223209187251392e-05,1.821731125439222e-05,7.315884182081188e-05,7.33945767553738e-05
87.57735026920002,17.5773502692,8,0,0.4887547614998535,22.41314597620852,2.235466380059783,-1.636650154416728e-05,7.133106331466736e-05,1.788373104047827e-05,7.22335119244563e-05,7.240927992704289e-05
88.42264973080002,16.4226497308,8,0,0.5234533632451539,22.20901281300813,2.146017924001214,-1.609215948802201e-05,7.065007831102987e-05,1.716814339200971e-05,7.149140383023029e-05,7.111172682326019e-05
89.57735026920001,16.4226497308,8,0,0.4434986072982561,21.88919378922053,2.109972774238233,-1.609215948802201e-05,6.96906212396671e-05,1.687978219390586e-05,7.051310886750984e-05,7.006443182022496e-05
88.42264973080002,17.5773502692,8,0,0.4273329638772099,22.18498271316614,2.026085790080874,-1.638052068612584e-05,7.065007831102987e-05,1.620868632064699e-05,7.139832666518534e-05,7.167223340961304e-05
89.57735026920001,17.5773502692,8,0,0.3473782079303103,21.86516368937854,1.990040640317893,-1.638052068612584e-05,6.969062123966707e-05,1.592032512254314e-05,7.042061386396055e-05,7.064388170469825e-05
90.42264973080002,16.4226497308,8,0,0.3897117789514422,21.64798021030006,1.87416417313789,-1.607130647559543e-05,6.896176724979905e-05,1.499331338510312e-05,6.96176262942445e-05,6.928217870227007e-05
91.57735026920001,16.4226497308,8,0,0.303727690589727,21.3040438568532,1.842567698361943,-1.607130647559543e-05,6.792995818945846e-05,1.474054158689554e-05,6.857172269271992e-05,6.819231844258248e-05
90.42264973080002,17.5773502692,8,0,0.305454512882287,21.62691589378278,1.745188040595313,-1.63240782738029e-05,6.896176724979905e-05,1.39615043247625e-05,6.952937286270686e-05,6.987747911465533e-05
91.57735026920001,17.5773502692,8,0,0.2194704245205719,21.28297954033592,1.713591565819376,-1.63240782738029e-05,6.792995818945846e-05,1.370873252655501e-05,6.848394278062122e-05,6.881198000443146e-05
92.42264973080002,16.4226497308,8,0,0.2774520484576195,21.05152466059687,1.568388519144929,-1.595337317341311e-05,6.714291727514388e-05,1.254710815315943e-05,6.761388499163919e-05,6.738763358940411e-05
93.57735026920001,16.4226497308,8,0,0.1842498230164695,20.67871575883227,1.539898152047103,-1.595337317341311e-05,6.602449056985007e-05,1.231918521637682e-05,6.648472174255637e-05,6.627905394603382e-05
92.42264973080002,17.5773502692,8,0,0.2014777361967912,21.03253108253166,1.42858518098322,-1.618129611019559e-05,6.714291727514388e-05,1.142868144786576e-05,6.75329784692858e-05,6.802716788639286e-05
93.57735026920001,17.5773502692,8,0,0.1082755107556386,20.65972218076705,1.400094813885401,-1.618129611019559e-05,6.602449056985005e-05,1.120075851108321e-05,6.640426938010212e-05,6.694852041564834e-05
94.4226497308,16.4226497308,8,0,0.19043292411145,20.41281979120991,1.221489343762223,-1.572087047581128e-05,6.516867699258254e-05,9.771914750097784e-06,6.546273365250935e-05,6.548336930576545e-05
95.57735026920002,16.4226497308,8,0,0.08879130163575688,20.00625330130714,1.194574373950133,-1.572087047581128e-05,6.394897752287422e-05,9.556594991601061e-06,6.423453827872587e-05,6.441809808502798e-05
94.4226497308,17.5773502692,8,0,0.118659671279187,20.39487647800184,1.069026910048692,-1.593619023430807e-05,6.516867699258254e-05,8.552215280389539e-06,6.539350381339667e-05,6.61762176959063e-05
95.57735026920002,17.5773502692,8,0,0.01701804880349922,19.98830998809909,1.042111940236609,-1.593619023430807e-05,6.394897752287428e-05,8.33689552189287e-06,6.416590016059916e-05,6.514489489740226e-05
96.4226497308,16.4226497308,8,0,0.132576990946113,19.72486999551966,0.824662899073852,-1.535564962538816e-05,6.301352239290601e-05,6.597303192590817e-06,6.315212144120293e-05,6.370516183659477e-05
97.57735026920001,16.4226497308,8,0,0.02124270147323326,19.27953283762814,0.7975410414502934,-1.535564962538816e-05,6.167751091923145e-05,6.380328331602347e-06,6.180939896428253e-05,6.282265500397236e-05
96.4226497308,17.5773502692,8,0,0.06025203728329664,19.70678875710395,0.6576614648645348,-1.557262448637661e-05,6.301352239290601e-05,5.261291718916278e-06,6.310148395706989e-05,6.445625972244797e-05
97.57735026920001,17.5773502692,8,0,-0.0510822521895804,19.26145159921245,0.6305396072409761,-1.557262448637661e-05,6.167751091923148e-05,5.044316857927809e-06,6.175976988964255e-05,6.360619623501782e-05
98.42264973080002,16.4226497308,8,0,0.1079944668039419,18.98052884526311,0.3671793384949348,-1.483884078243787e-05,6.065129673139878e-05,2.937434707959478e-06,6.067986092301181e-05,6.235202844905309e-05
99.57735026920002,16.4226497308,8,0,-0.01431035211699427,18.49130956957936,0.337736196554199,-1.483884078243787e-05,5.918363890434755e-05,2.701889572433592e-06,5.920828607018611e-05,6.194875962219033e-05
98.42264973080002,17.5773502692,8,0,0.02947942162864869,18.96090008396928,0.1837221101135342,-1.507438591796375e-05,6.065129673139878e-05,1.469776880908273e-06,6.06584278677308e-05,6.315351054030893e-05
99.57735026920002,17.5773502692,8,0,-0.09282539729228478,18.47168080828555,0.1542789681728001,-1.507438591796375e-05,5.918363890434758e-05,1.234231745382401e-06,5.918876704643589e-05,6.276681370988215e-05
0.4226497308,18.4226497308,8,0,-0.07152704966424461,-3.483716250035253,-0.1858825084885812,2.558086441102619e-06,-1.109067036038141e-05,-1.487060067908649e-06,2.598471508092487e-06,2.956779628162796e-06
1.5773502692,18.4226497308,8,0,0.1442527065033463,-2.620597225364889,-0.1906104495280272,2.558086441102619e-06,-8.501313286370321e-06,-1.524883596224218e-06,2.610402170188831e-06,3.005433378582397e-06
0.4226497308,19.5773502692,8,0,-0.08413489243618211,-3.486868210728237,0.1377871257628323,2.520262912786807e-06,-1.109067036038141e-05,1.102297006102659e-06,2.542544134323643e-06,3.026899710896106e-06
1.5773502692,19.5773502692,8,0,0.1316448637314088,-2.623749186057874,0.1330591847233456,2.520262912786807e-06,-8.501313286370321e-06,1.064473477786765e-06,2.545905199719445e-06,3.090343447786082e-06
2.4226497308,18.4226497308,8,0,0.07780539372034079,-2.094511895896026,-0.2495492835177625,1.924586776621911e-06,-6.764682381843554e-06,-1.9963942681421e-06,2.037782066903317e-06,3.113426032827782e-06
3.5773502692,18.4226497308,8,0,0.2574059596664353,-1.376109632111648,-0.2614317482875424,1.924586776621911e-06,-4.60947559049042e-06,-2.091453986300339e-06,2.087867196773387e-06,3.359813700663337e-06
2.4226497308,19.5773502692,8,0,0.04611882100074693,-2.102433539075924,0.019851565401447,1.829527058463129e-06,-6.764682381843554e-06,1.58812523211576e-07,1.830260670581761e-06,3.224313357568727e-06
3.5773502692,19.5773502692,8,0,0.2257193869468594,-1.384031275291474,0.007969100631612883,1.829527058463129e-06,-4.609475590490204e-06,6.375280505290307e-08,1.829684859320236e-06,3.526882220905919e-06
4.422649730800001,18.4226497308,8,0,0.3142062610128197,-0.9013772940231197,-0.3939074200373118,1.726561870459518e-06,-3.135772349684238e-06,-3.151259360298494e-06,2.192493724189613e-06,3.677617994810713e-06
5.577350269200001,18.4226497308,8,0,0.4701250391776255,-0.2777021813638962,-0.4163846496135022,1.726561870459518e-06,-1.264747011706568e-06,-3.331077196908018e-06,2.469433960394496e-06,4.29948780548627e-06
4.422649730800001,19.5773502692,8,0,0.2542669821428701,-0.9163621137407426,-0.1600292527899946,1.546744033849778e-06,-3.135772349684672e-06,-1.280234022319957e-06,1.632673455039887e-06,3.907395548430723e-06
5.577350269200001,19.5773502692,8,0,0.4101857603077301,-0.2926870010813023,-0.1825064823662392,1.546744033849778e-06,-1.264747011706351e-06,-1.460051858929914e-06,1.724999247341034e-06,4.644408428892591e-06
6.422649730800001,18.4226497308,8,0,0.6074892654680363,0.1667985697928057,-0.6302111619243167,1.810526793663472e-06,4.776401096254906e-08,-5.041689295394534e-06,3.599630544537702e-06,4.936301487167555e-06
7.577350269200001,18.4226497308,8,0,0.7503910539348125,0.7384057236599105,-0.6658734372656235,1.810526793663472e-06,1.762585472563864e-06,-5.326987498124988e-06,4.450157744440364e-06,6.05423900987423e-06
6.422649730800001,19.5773502692,8,0,0.5123898645580655,0.143023719565313,-0.415858479224315,1.525228590933559e-06,4.776401096254906e-08,-3.32686783379452e-06,2.606589098623873e-06,5.376488813041158e-06
7.577350269200001,19.5773502692,8,0,0.6552916530248327,0.7146308734323817,-0.4515207545654999,1.525228590933559e-06,1.762585472563755e-06,-3.612166036523999e-06,3.453885054037513e-06,6.639556737382751e-06
8.4226497308,18.4226497308,8,0,0.9325537835260728,1.171490055702038,-0.963269069290839,2.046980062721802e-06,3.002725151425665e-06,-7.706152554326712e-06,6.407449542925357e-06,7.05363916443868e-06
9.5773502692,18.4226497308,8,0,1.071995712665788,1.729257772260899,-1.014497245553083,2.046980062721802e-06,4.676028301102246e-06,-8.115977964424665e-06,7.627093032198641e-06,8.666113641210355e-06
8.4226497308,19.5773502692,8,0,0.7959453134933675,1.137337938193862,-0.7541061755811851,1.637154652623686e-06,3.002725151425665e-06,-6.03284940464948e-06,5.4126755327559e-06,7.734608215944486e-06
9.5773502692,19.5773502692,8,0,0.9353872426330826,1.695105654752723,-0.8053343518434021,1.637154652623686e-06,4.676028301102246e-06,-6.442674814747217e-06,6.718290924458014e-06,9.463276568064168e-06
10.4226497308,18.4226497308,8,0,1.265507341809374,2.168115463859432,-1.393229723713459,2.315131122702452e-06,5.925563610902681e-06,-1.114583778970767e-05,9.978353059577356e-06,9.998699886887711e-06
11.5773502692,18.4226497308,8,0,1.41054824203384,2.748279064757296,-1.462229320738933,2.315131122702452e-06,7.666054413596273e-06,-1.169783456591146e-05,1.142238321864724e-05,1.202691873892882e-05
10.4226497308,19.5773502692,8,0,1.081508416408292,2.122115732509161,-1.175668373376787,1.763134346499206e-06,5.925563610902681e-06,-9.405346987014299e-06,8.986974021597357e-06,1.086592834881788e-05
11.5773502692,19.5773502692,8,0,1.226549316632713,2.702279333406845,-1.244667970402207,1.763134346499206e-06,7.666054413595731e-06,-9.957343763217653e-06,1.050236511102456e-05,1.29693759272072e-05
12.4226497308,18.4226497308,8,0,1.580681457271918,3.208831382277372,-1.914722687977545,2.491115557448241e-06,9.003715257470055e-06,-1.531778150382036e-05,1.406980065826774e-05,1.364847269806858e-05
13.5773502692,18.4226497308,8,0,1.740187006123841,3.846853577685064,-2.00305973793182,2.491115557448241e-06,1.091778184369313e-05,-1.602447790345456e-05,1.575697040419062e-05,1.605042164980014e-05
12.4226497308,19.5773502692,8,0,1.345115990727258,3.149940015641207,-1.675464364699715,1.784419157814261e-06,9.003715257470055e-06,-1.340371491759772e-05,1.300619256405112e-05,1.462950955280518e-05
13.5773502692,19.5773502692,8,0,1.504621539579181,3.787962211048899,-1.763801414653989,1.784419157814261e-06,1.091778184369313e-05,-1.411041131723191e-05,1.475529620131408e-05,1.706163138709587e-05
14.4226497308,18.4226497308,8,0,1.849265369436316,4.343516001427965,-2.514076937382704,2.442836381053839e-06,1.241983890902043e-05,-2.011261549906163e-05,1.865695435032493e-05,1.793838106851957e-05
15.5773502692,18.4226497308,8,0,2.03173450546068,5.073392545525421,-2.621832653549856,2.442836381053839e-06,1.46094685413128e-05,-2.097466122839885e-05,2.065013027138597e-05,2.069443317157699e-05
14.4226497308,19.5773502692,8,0,1.561916792990486,4.271678857316507,-2.240373233346117,1.580790651716348e-06,1.241983890902043e-05,-1.792298586676894e-05,1.747311752730015e-05,1.895393934926784e-05
15.5773502692,19.5773502692,8,0,1.744385929014876,5.001555401414071,-2.348128949513284,1.580790651716348e-06,1.460946854131312e-05,-1.878503159610627e-05,1.952561361533015e-05,2.169169901141788e-05
16.4226497308,18.4226497308,8,0,2.040503609225802,5.618055991851753,-3.165572033708868,2.035166756041162e-06,1.634537628654497e-05,-2.532457626967094e-05,2.373431033488696e-05,2.283397218563104e-05
17.5773502692,18.4226497308,8,0,2.253250152987068,6.469042166896819,-3.290344007989606,2.035166756041162e-06,1.889833481168017e-05,-2.632275206391685e-05,2.60972795104518e-05,2.592324937399361e-05
16.4226497308,19.5773502692,8,0,1.707778344477184,5.534874675664598,-2.846452218066954,1.03699096179531e-06,1.634537628654497e-05,-2.277161774453564e-05,2.241063364917352e-05,2.379914239815056e-05
17.5773502692,19.5773502692,8,0,1.920524888238441,6.385860850709628,-2.971224192347625,1.03699096179531e-06,1.889833481168006e-05,-2.3769793538781e-05,2.483398967750959e-05,2.681902514287402e-05
18.4226497308,18.4226497308,8,0,2.126464998051312,7.069317393464654,-3.828455473462418,1.149234078992475e-06,2.092064366064584e-05,-3.062764378769934e-05,2.926239892896956e-05,2.829214191371192e-05
19.5773502692,18.4226497308,8,0,2.374139331307136,8.060014726487951,-3.964692948075905,1.149234078992475e-06,2.389273565971573e-05,-3.171754358460724e-05,3.203552710837306e-05,3.167479950180582e-05
18.4226497308,19.5773502692,8,0,1.763165065748616,6.978492410388981,-3.456943973578709,5.933428208438826e-08,2.092064366064584e-05,-2.765555178862967e-05,2.781066861826144e-05,2.911869068252861e-05
19.5773502692,19.5773502692,8,0,2.010839399004404,7.969189743412132,-3.593181448192223,5.933428208438826e-08,2.38927356597153e-05,-2.874545158553779e-05,3.064641263234362e-05,3.238161103282389e-05
20.4226497308,18.4226497308,8,0,2.090096666197645,8.717064939235588,-4.447344364945949,-2.853426195560053e-07,2.622253047259576e-05,-3.557875491956759e-05,3.515256977337992e-05,3.423354321213208e-05
21.5773502692,18.4226497308,8,0,2.372848816297583,9.84807353963534,-4.586624608499362,-2.853426195560053e-07,2.961555627379502e-05,-3.66929968679949e-05,3.833174882479782e-05,3.784150344449403e-05
20.4226497308,19.5773502692,8,0,1.718682683388642,8.624211443533337,-4.023216139796028,-1.399584567983014e-06,2.622253047259576e-05,-3.218572911836822e-05,3.361820772098272e-05,3.483659621266594e-05
21.5773502692,19.5773502692,8,0,2.001434833488572,9.755220043933054,-4.162496383349401,-1.399584567983014e-06,2.961555627379491e-05,-3.329997106679521e-05,3.686115615115625e-05,3.828082010581287e-05
22.4226497308,18.4226497308,8,0,1.934462222771129,10.55507436850108,-4.958886152884432,-2.253780381933248e-06,3.222866820098654e-05,-3.967108922307545e-05,4.126878035014036e-05,4.05297870394893e-05
23.5773502692,18.4226497308,8,0,2.246639618609073,11.80378395185285,-5.091754525914278,-2.253780381933248e-06,3.597479695104187e-05,-4.073403620731423e-05,4.479205778794762e-05,4.42663541741206e-05
22.4226497308,19.5773502692,8,0,1.580146561358259,10.46649545314779,-4.490620059127503,-3.316727366171803e-06,3.222866820098633e-05,-3.592496047302002e-05,3.972491346521693e-05,4.083794243233119e-05
23.5773502692,19.5773502692,8,0,1.892323957196239,11.71520503649971,-4.623488432157309,-3.316727366171803e-06,3.597479695104208e-05,-3.698790745725847e-05,4.331018182715611e-05,4.437990665669805e-05
24.4226497308,18.4226497308,8,0,1.686712763195851,12.54578978940362,-5.305029557200828,-4.639150989296174e-06,3.879715711553491e-05,-4.244023645760662e-05,4.744298885367137e-05,4.700660960206357e-05
25.5773502692,18.4226497308,8,0,2.017104647939656,13.86735732837884,-5.42380545118736,-4.639150989296174e-06,4.276185973246056e-05,-4.339044360949888e-05,5.119228345118243e-05,5.075655952260718e-05
24.4226497308,19.5773502692,8,0,1.369977045898576,12.46660586007931,-4.809441730085223,-5.589358141188001e-06,3.879715711553491e-05,-3.847553384068178e-05,4.597450316228007e-05,4.697314913108233e-05
25.5773502692,19.5773502692,8,0,1.700368930642371,13.78817339905449,-4.928217624071667,-5.589358141188001e-06,4.276185973246045e-05,-3.942574099257334e-05,4.978011767150823e-05,5.051605510338014e-05
26.4226497308,18.4226497308,8,0,1.393793139106942,14.62374210617651,-5.448690949773335,-7.238855639798991e-06,4.568094022847926e-05,-4.358952759818668e-05,5.350132712021825e-05,5.346420627708573e-05
27.57735026920001,18.4226497308,8,0,1.727990939933703,15.96053330948355,-5.550334631283071,-7.238855639798991e-06,4.96913138384004e-05,-4.440267705026457e-05,5.732554324114624e-05,5.711168485904099e-05
26.4226497308,19.5773502692,8,0,1.122743321747699,14.5559796518367,-4.947394248533199,-8.052005091876719e-06,4.568094022847926e-05,-3.957915398826559e-05,5.218263669408342e-05,5.307483046909447e-05
27.57735026920001,19.5773502692,8,0,1.456941122574474,15.8927708551438,-5.049037930042949,-8.052005091876719e-06,4.969131383840056e-05,-4.039230344034359e-05,5.605397378736623e-05,5.652262880138105e-05
28.4226497308,18.4226497308,8,0,1.107337010232277,16.70914618240652,-5.384292728579794,-9.823838513181934e-06,5.258339817551506e-05,-4.307434182863835e-05,5.929436183825663e-05,5.970875422076197e-05
29.5773502692,18.4226497308,8,0,1.431582655164462,18.00612876213527,-5.471288954327285,-9.823838513181934e-06,5.647434591470128e-05,-4.377031163461828e-05,6.304706584165153e-05,6.31566010861106e-05
28.4226497308,19.5773502692,8,0,0.8753470749056613,16.65114869857487,-4.897924261181577,-1.051980831916178e-05,5.258339817551506e-05,-3.918339408945262e-05,5.81712383888667e-05,5.898211322004925e-05
29.5773502692,19.5773502692,8,0,1.199592719837828,17.94813127830354,-4.984920486929061,-1.051980831916178e-05,5.647434591470106e-05,-3.987936389543249e-05,6.195989430649765e-05,6.225375128027389e-05
30.4226497308,18.4226497308,8,0,0.866038508385321,18.72747203388281,-5.134992543466621,-1.221065440027322e-05,5.923507970171673e-05,-4.107994034773297e-05,6.471917328950688e-05,6.55830496170505e-05
31.5773502692,18.4226497308,8,0,1.170331611171501,19.94464444502753,-5.213418898847446,-1.221065440027322e-05,6.288659693515089e-05,-4.170735119077957e-05,6.828881614122124e-05,6.876438342046237e-05
30.4226497308,19.5773502692,8,0,0.6569015607031297,18.67518779696226,-4.678552889287425,-1.283806524331979e-05,5.923507970171673e-05,-3.74284231142994e-05,6.380461846596696e-05,6.456312130483275e-05
31.5773502692,19.5773502692,8,0,0.9611946634892963,19.89236020810693,-4.756979244668229,-1.283806524331979e-05,6.288659693515073e-05,-3.805583395734584e-05,6.73989958162426e-05,6.760079948544771e-05
32.4226497308,18.4226497308,8,0,0.6882855583512795,20.62427520840978,-4.738181678755462,-1.429690638000373e-05,6.544705222023025e-05,-3.79054534300437e-05,6.972233312098259e-05,7.098163821108635e-05
33.57735026920001,18.4226497308,8,0,0.9669336163686584,21.73886744047929,-4.814753386757024,-1.429690638000373e-05,6.87908289164388e-05,-3.851802709405619e-05,7.303781780069066e-05,7.385795714924217e-05
32.4226497308,19.5773502692,8,0,0.4840943370138353,20.57322740307541,-4.320209591729428,-1.490948004401606e-05,6.544705222023025e-05,-3.456167673383543e-05,6.900573207256343e-05,6.972600850193325e-05
33.57735026920001,19.5773502692,8,0,0.7627423950312098,21.68781963514491,-4.39678129973093,-1.490948004401606e-05,6.879082891643874e-05,-3.517425039784743e-05,7.233607511493114e-05,7.249450933130707e-05
34.42264973080001,18.4226497308,8,0,0.5764000889395069,22.36720443233335,-4.231191949800768,-1.604928326126025e-05,7.111393411231509e-05,-3.384953559840614e-05,7.428491231422512e-05,7.584497043184078e-05
35.5773502692,18.4226497308,8,0,0.826655483149791,23.36822600917449,-4.311339318872852,-1.604928326126025e-05,7.411699884283851e-05,-3.449071455098281e-05,7.73028121473766e-05,7.839727273728939e-05
34.42264973080001,19.5773502692,8,0,0.3626737714138866,22.31377285295201,-3.855808858485354,-1.669046221383717e-05,7.111393411231531e-05,-3.084647086788283e-05,7.374429653643221e-05,7.441586858918087e-05
35.5773502692,19.5773502692,8,0,0.6129291656241715,23.31479442979315,-3.935956227557472,-1.669046221383717e-05,7.411699884283873e-05,-3.148764982045978e-05,7.67691396383453e-05,7.689661887213426e-05
36.4226497308,18.4226497308,8,0,0.5242597003598606,23.93915022808568,-3.645528072525293,-1.747368914131698e-05,7.618587296958626e-05,-2.916422458020234e-05,7.840368505123623e-05,8.014471648807504e-05
37.5773502692,18.4226497308,8,0,0.7450267418978198,24.82221839423751,-3.732915180043779,-1.747368914131698e-05,7.883507746804177e-05,-2.986332144035023e-05,8.109695268495844e-05,8.236651929334449e-05
36.4226497308,19.5773502692,8,0,0.2912274136440072,23.88089215640671,-3.314377510218347,-1.817278600146455e-05,7.618587296958626e-05,-2.651502008174677e-05,7.801318286269633e-05,7.860450082865106e-05
37.5773502692,19.5773502692,8,0,0.5119944551819708,24.76396032255857,-3.401764617736764,-1.817278600146455e-05,7.883507746804183e-05,-2.721411694189412e-05,8.070756317202053e-05,8.078977082443003e-05
38.4226497308,18.4226497308,8,0,0.5227767826339447,25.33188167383007,-3.006188376008204,-1.859261963463543e-05,8.064379993014906e-05,-2.404950700806563e-05,8.208008494343799e-05,8.387262814408677e-05
39.5773502692,18.4226497308,8,0,0.7138032130524889,26.09598739550425,-3.103020389944494,-1.859261963463543e-05,8.293611709517159e-05,-2.482416311955595e-05,8.443149293299258e-05,8.576559124094931e-05
38.4226497308,19.5773502692,8,0,0.2645580788038009,25.26732699787254,-2.719648730380408,-1.936727574612586e-05,8.064379993014906e-05,-2.175718984304327e-05,8.181342835405665e-05,8.228103526154075e-05
39.5773502692,19.5773502692,8,0,0.4555845092223674,26.0314327195468,-2.816480744316692,-1.936727574612586e-05,8.293611709517186e-05,-2.253184595453353e-05,8.416205967476746e-05,8.41699754756421e-05
40.4226497308,18.4226497308,8,0,0.561126205939404,26.54097810339316,-2.332298631999233,-1.943717862370843e-05,8.448222896610658e-05,-1.865838905599387e-05,8.531309903619635e-05,8.70338466811159e-05
41.5773502692,18.4226497308,8,0,0.7221044576674069,27.18489111030517,-2.439082272133904,-1.943717862370843e-05,8.641396798684262e-05,-1.951265817707123e-05,8.730569921250677e-05,8.860582188391143e-05
40.4226497308,19.5773502692,8,0,0.276369832246921,26.46978900997004,-2.090831254407215,-2.029144774478588e-05,8.448222896610658e-05,-1.672665003525772e-05,8.51456124596795e-05,8.544574429310682e-05
41.5773502692,19.5773502692,8,0,0.4373480839749337,27.11370201688209,-2.197614894541866,-2.029144774478588e-05,8.641396798684273e-05,-1.758091915633492e-05,8.713328261150236e-05,8.704226930717941e-05
42.4226497308,18.4226497308,8,0,0.6318208909437768,27.56251850990546,-1.640886600536298,-2.002818795690428e-05,8.769460251894243e-05,-1.312709280429039e-05,8.80930454520725e-05,8.964382039258829e-05
43.57735026920001,18.4226497308,8,0,0.7624058565301359,28.0848583722509,-1.757543546268084,-2.002818795690428e-05,8.926162210597875e-05,-1.406034837014467e-05,8.971198905832655e-05,9.090770985379921e-05
42.4226497308,19.5773502692,8,0,0.3207357023255373,27.4847472127509,-1.445009152156691,-2.0961443522759e-05,8.769460251894243e-05,-1.156007321725353e-05,8.800121053511027e-05,8.810710020632809e-05
43.57735026920001,19.5773502692,8,0,0.4513206679119284,28.00708707509646,-1.561666097888537,-2.0961443522759e-05,8.926162210597913e-05,-1.24933287831083e-05,8.961450910440527e-05,8.941974731032262e-05
44.4226497308,18.4226497308,8,0,0.7272457828813961,28.39513994066969,-0.9530269788182637,-2.038892544731528e-05,9.028265118383788e-05,-7.62421583054611e-06,9.041380469187358e-05,9.172741747875484e-05
45.5773502692,18.4226497308,8,0,0.8291194270310962,28.80263451726849,-1.079594694094595,-2.038892544731528e-05,9.150513491363427e-05,-8.636757552756761e-06,9.167154858818617e-05,9.270301089636946e-05
44.4226497308,19.5773502692,8,0,0.3897318754779544,28.31076146381883,-0.8002165125936804,-2.140146716952561e-05,9.028265118383788e-05,-6.401732100749444e-06,9.037431275380831e-05,9.028197793712586e-05
45.5773502692,19.5773502692,8,0,0.4916055196276723,28.7182560404177,-0.9267842278700051,-2.140146716952561e-05,9.150513491363449e-05,-7.414273822960041e-06,9.162672284739154e-05,9.132498871349985e-05
46.42264973080001,18.4226497308,8,0,0.8327609378461709,29.04825028860875,-0.2858805327493499,-2.057376522977925e-05,9.228819217327105e-05,-2.287044261994799e-06,9.229977719874245e-05,9.332032041270189e-05
47.57735026920001,18.4226497308,8,0,0.90916664525089,29.35387311822763,-0.4207555992470226,-2.057376522977925e-05,9.320506066212768e-05,-3.366044793976181e-06,9.322995057339966e-05,9.403124795777491e-05
46.42264973080001,19.5773502692,8,0,0.4730940938524313,28.95833357761031,-0.1712719716422378,-2.165276576176047e-05,9.228819217327105e-05,-1.370175773137902e-06,9.229231122277055e-05,9.199614549367365e-05
47.57735026920001,19.5773502692,8,0,0.5494998012571415,29.26395640722916,-0.3061470381399037,-2.165276576176047e-05,9.320506066212757e-05,-2.449176305119229e-06,9.321811546006626e-05,9.278676914065677e-05
48.4226497308,18.4226497308,8,0,0.9380054486156491,29.5384201921289,0.3570091669026395,-2.062911871813304e-05,9.377254025591997e-05,2.856073335221116e-06,9.379036317112958e-05,9.446227904643588e-05
49.57735026920001,18.4226497308,8,0,0.9907983314246422,29.74959172336488,0.2164230287227684,-2.062911871813304e-05,9.440605484962788e-05,1.731384229782147e-06,9.441256920847719e-05,9.492895033527636e-05
48.4226497308,19.5773502692,8,0,0.5631090801359839,29.44469610000899,0.436198491116129,-2.175380782357204e-05,9.377254025591997e-05,3.489587928929032e-06,9.379888586398224e-05,9.327846175401786e-05
49.57735026920001,19.5773502692,8,0,0.6159019629449594,29.65586763124489,0.2956123529362714,-2.175380782357204e-05,9.440605484962766e-05,2.364898823490171e-06,9.441809034731127e-05,9.383116730850068e-05
50.42264973080001,18.4226497308,8,0,1.038753222214716,29.87356185691122,0.9776516916363523,-2.057483917444189e-05,9.476439536434413e-05,7.821213533090818e-06,9.489683343280933e-05,9.518619827436888e-05
51.57735026920001,18.4226497308,8,0,1.067544047127153,29.98872515656097,0.8345693084881752,-2.057483917444189e-05,9.510988526329338e-05,6.676554467905402e-06,9.520613678301473e-05,9.542234142530148e-05
50.42264973080001,19.5773502692,8,0,0.6572002004861348,29.77817360147908,1.020837929005032,-2.171949823962763e-05,9.476439536434413e-05,8.166703432040253e-06,9.490736209763788e-05,9.415180262427175e-05
51.57735026920001,19.5773502692,8,0,0.6859910253985717,29.89333690112883,0.8777555458568342,-2.171949823962763e-05,9.510988526329338e-05,7.022044366854674e-06,9.521530534691627e-05,9.447508904321365e-05
52.4226497308,18.4226497308,8,0,1.139996840987132,30.05075290473345,1.573401806283636,-2.039261243262793e-05,9.525041182235731e-05,1.258721445026909e-05,9.559191850075236e-05,9.551260066066773e-05
53.5773502692,18.4226497308,8,0,1.143199824340662,30.06356483814757,1.429936277630667,-2.039261243262793e-05,9.528884762259967e-05,1.143949022104534e-05,9.557096623694983e-05,9.552305032661858e-05
52.4226497308,19.5773502692,8,0,0.7574220979126594,29.95510921896483,1.57820628131392,-2.154033666185135e-05,9.525041182235731e-05,1.262565025051136e-05,9.559064427617025e-05,9.462924398458689e-05
53.5773502692,19.5773502692,8,0,0.7606250812661983,29.96792115237898,1.434740752660993,-2.154033666185135e-05,9.528884762259978e-05,1.147792602128794e-05,9.557008388052631e-05,9.472711669773241e-05
54.42264973080001,18.4226497308,8,0,1.247632211782357,30.06381327423687,2.1281510165122,-2.005862754168595e-05,9.520609670813209e-05,1.70252081320976e-05,9.583138294017238e-05,9.545033882805208e-05
55.57735026920001,18.4226497308,8,0,1.22558925320311,29.97564143991988,1.984758552248707,-2.005862754168595e-05,9.494158120518112e-05,1.587806841798966e-05,9.548706466689093e-05,9.524123765371471e-05
54.42264973080001,19.5773502692,8,0,0.8652523070796923,29.9682182980612,2.09508657864337,-2.120576725579394e-05,9.520609670813209e-05,1.676069262914696e-05,9.580629299730328e-05,9.471886811580375e-05
55.57735026920001,19.5773502692,8,0,0.8432093485004453,29.88004646374421,1.951694114379874,-2.120576725579394e-05,9.494158120518112e-05,1.561355291503899e-05,9.546395971962234e-05,9.459845985773778e-05
56.4226497308,18.4226497308,8,0,1.360910347408947,29.91823097489358,2.619855646308919,-1.957967166820623e-05,9.464961084173227e-05,2.095884517047135e-05,9.560303777749744e-05,9.501375886364314e-05
57.57735026920001,18.4226497308,8,0,1.316480150381433,29.74051018678352,2.476368118757263,-1.957967166820623e-05,9.41164484774021e-05,1.98109449500581e-05,9.497298370683283e-05,9.460137642583428e-05
56.4226497308,19.5773502692,8,0,0.9782769406045846,29.82257262319249,2.553210350767662,-2.072757188861931e-05,9.464961084173227e-05,2.042568280614129e-05,9.554664658101366e-05,9.443668276360691e-05
57.57735026920001,19.5773502692,8,0,0.9338467435770728,29.64485183508243,2.409722823215992,-2.072757188861931e-05,9.411644847740212e-05,1.927778258572794e-05,9.491982346970335e-05,9.411510778098771e-05
58.4226497308,18.4226497308,8,0,1.47330395897895,29.63441809992324,3.027844114648121,-1.899296181120595e-05,9.36514947525712e-05,2.422275291718496e-05,9.493897779055401e-05,9.423706492073627e-05
59.57735026920001,18.4226497308,8,0,1.411877722718088,29.38871315487979,2.883770680957602,-1.899296181120595e-05,9.291437991744086e-05,2.307016544766081e-05,9.409101114087684e-05,9.365412981679312e-05
58.4226497308,19.5773502692,8,0,1.089108135804229,29.53836914412956,2.935704760256824,-2.014554928073012e-05,9.36514947525712e-05,2.34856380820546e-05,9.485061129988967e-05,9.381698936112242e-05
59.57735026920001,19.5773502692,8,0,1.027681899543366,29.29266419908611,2.791631326566296,-2.014554928073012e-05,9.291437991744086e-05,2.233305061253037e-05,9.400670427835175e-05,9.332408967396289e-05
60.4226497308,18.4226497308,8,0,1.569598243259661,29.24490296011271,3.340829398804433,-1.837320798965925e-05,9.232801087775294e-05,2.672663519043546e-05,9.391832013907082e-05,9.318051239537716e-05
61.5773502692,18.4226497308,8,0,1.497525312147083,28.9566112356624,3.197380232542853,-1.837320798965925e-05,9.1463135704402e-05,2.557904186034282e-05,9.293270582886088e-05,9.246950064060711e-05
60.4226497308,19.5773502692,8,0,1.187067133228886,29.14927018260502,3.232720002135548,-1.952080131975158e-05,9.232801087775294e-05,2.586176001708438e-05,9.380349027795855e-05,9.291449668953377e-05
61.5773502692,19.5773502692,8,0,1.114994202116312,28.86097845815472,3.089270835874002,-1.952080131975158e-05,9.146313570440205e-05,2.471416668699202e-05,9.282234200959203e-05,9.228836753276161e-05
62.42264973080001,18.4226497308,8,0,1.638121286214986,28.78666341071605,3.561064599914308,-1.778734261268488e-05,9.080682588531936e-05,2.848851679931446e-05,9.264415403459072e-05,9.191770384089782e-05
63.57735026920001,18.4226497308,8,0,1.560771569717827,28.47726454472741,3.420292153305364,-1.778734261268488e-05,8.987862928735345e-05,2.736233722644291e-05,9.158990272494657e-05,9.112117870334411e-05
62.42264973080001,19.5773502692,8,0,1.262728095257807,28.69281511297676,3.445040025168569,-1.891352218555642e-05,9.080682588531936e-05,2.756032020134855e-05,9.2511053266309e-05,9.179545925695595e-05
63.57735026920001,19.5773502692,8,0,1.185378378760648,28.38341624698812,3.304267578559605,-1.891352218555642e-05,8.987862928735345e-05,2.643414062847684e-05,9.146133527413418e-05,9.10749379606986e-05
64.4226497308,18.4226497308,8,0,1.672203797015882,28.29086670593587,3.698569983942874,-1.728164121429787e-05,8.919301042138207e-05,2.9588559871543e-05,9.12104000498533e-05,9.051992693288432e-05
65.57735026920001,18.4226497308,8,0,1.593458048801235,27.97588371307728,3.562747423419933,-1.728164121429787e-05,8.82480614428063e-05,2.850197938735946e-05,9.013867866931803e-05,8.967380168533137e-05
64.4226497308,19.5773502692,8,0,1.310010302288092,28.20031833225392,3.580451361620893,-1.836822169848124e-05,8.919301042138207e-05,2.864361089296714e-05,9.10673022765005e-05,9.052531585309804e-05
65.57735026920001,19.5773502692,8,0,1.231264554073445,27.88533533939533,3.444628801097972,-1.836822169848124e-05,8.82480614428063e-05,2.755703040878377e-05,8.999993657170102e-05,8.974424162636369e-05
66.4226497308,18.4226497308,8,0,1.670211104104076,27.78031136616676,3.766514460611421,-1.687957355980036e-05,8.756082748845036e-05,3.013211568489137e-05,8.969074602299662e-05,8.90459545423283e-05
67.57735026920001,18.4226497308,8,0,1.592493678979791,27.46944166566962,3.637625478565591,-1.687957355980036e-05,8.662821838695893e-05,2.910100382852473e-05,8.863474330460613e-05,8.817676949573702e-05
66.4226497308,19.5773502692,8,0,1.326507151981912,27.69438537813621,3.649938322924966,-1.791068541616685e-05,8.756082748845036e-05,2.919950658339973e-05,8.954447166129216e-05,8.915984417173466e-05
67.57735026920001,19.5773502692,8,0,1.248789726857636,27.38351567763911,3.521049340879157,-1.791068541616685e-05,8.662821838695904e-05,2.816839472703325e-05,8.849249180948857e-05,8.834431486054071e-05
68.42264973080002,18.4226497308,8,0,1.634024901125107,27.26963105823217,3.777978394477433,-1.658682516298539e-05,8.595559946544286e-05,3.022382715581946e-05,8.81363014682617e-05,8.753833803426856e-05
69.57735026920001,18.4226497308,8,0,1.558606570600019,26.96795773613182,3.657510296617736,-1.658682516298539e-05,8.50505794991418e-05,2.926008237294188e-05,8.711456442705819e-05,8.666329589090345e-05
68.42264973080002,19.5773502692,8,0,1.312776640166,27.18931899299239,3.664850898689817,-1.755056994586271e-05,8.595559946544286e-05,2.931880718951853e-05,8.799173199061164e-05,8.77412651427226e-05
69.57735026920001,19.5773502692,8,0,1.237358309640922,26.88764567089208,3.544382800830143,-1.755056994586271e-05,8.505057949914193e-05,2.835506240664114e-05,8.697360253064504e-05,8.690923198527732e-05
70.4226497308,18.4226497308,8,0,1.567652365403287,26.7669432398969,3.744367501009042,-1.6397067022627e-05,8.440009647534745e-05,2.995494000807234e-05,8.657852158326632e-05,8.602396538253198e-05
71.57735026920001,18.4226497308,8,0,1.4949746400498,26.47623233848295,3.633272648206391,-1.6397067022627e-05,8.352796377110561e-05,2.906618118565113e-05,8.559874220579851e-05,8.515232409412316e-05
70.4226497308,19.5773502692,8,0,1.271399424596226,26.69288000469514,3.635350912978825,-1.728582584504818e-05,8.440009647534745e-05,2.90828073038306e-05,8.643869277808106e-05,8.629801487825667e-05
71.57735026920001,19.5773502692,8,0,1.198721699242744,26.40216910328121,3.524256060176184,-1.728582584504818e-05,8.352796377110566e-05,2.819404848140947e-05,8.546207713669263e-05,8.546017184479527e-05
72.4226497308,18.4226497308,8,0,1.476115584265282,26.27560898234117,3.674818131493202,-1.629691731622403e-05,8.290105627607952e-05,2.939854505194561e-05,8.503337628729205e-05,8.451660769033393e-05
73.57735026920001,18.4226497308,8,0,1.406064715607942,25.99540550771181,3.573574942467642,-1.629691731622403e-05,8.206044585219144e-05,2.858859953974114e-05,8.409572455491929e-05,8.365143946431177e-05
72.4226497308,19.5773502692,8,0,1.206133746863805,26.2081135229908,3.569741828507198,-1.710686282842846e-05,8.290105627607952e-05,2.855793462805758e-05,8.489983586762983e-05,8.48464622480188e-05
73.57735026920001,19.5773502692,8,0,1.136082878206469,25.92791004836146,3.468498639481636,-1.710686282842846e-05,8.206044585219149e-05,2.774798911585308e-05,8.396491152740272e-05,8.400761948192298e-05
74.4226497308,18.4226497308,8,0,1.364750235246879,25.79573633582074,3.576169141236374,-1.626938831586658e-05,8.145455608642887e-05,2.860935312989099e-05,8.350541231794077e-05,8.301992082247929e-05
75.57735026920001,18.4226497308,8,0,1.296857635244242,25.5241659358102,3.484873445748897,-1.626938831586658e-05,8.063984488639722e-05,2.787898756599118e-05,8.260505927356655e-05,8.215974803301487e-05
74.4226497308,19.5773502692,8,0,1.121295047280286,25.73487253882909,3.474330241232392,-1.699975387976636e-05,8.145455608642887e-05,2.779464192985913e-05,8.337863097840056e-05,8.339329577658625e-05
75.57735026920001,19.5773502692,8,0,1.053402447277638,25.4633021388185,3.383034545744918,-1.699975387976636e-05,8.063984488639709e-05,2.706427636595934e-05,8.248059796386008e-05,8.255377496733677e-05
76.42264973080002,18.4226497308,8,0,1.23880502203743,25.32529562632548,3.453167868566327,-1.629606043054061e-05,8.00499019866116e-05,2.762534294853061e-05,8.199105063956067e-05,8.15301742365084e-05
77.57735026920001,18.4226497308,8,0,1.172384790719483,25.0596147010537,3.371622659257483,-1.629606043054061e-05,7.925285921079624e-05,2.697298127405986e-05,8.111995900361455e-05,8.067031942672999e-05
76.42264973080002,19.5773502692,8,0,1.021351130547258,25.27093215345294,3.353537521589379,-1.694842210501113e-05,8.00499019866116e-05,2.682830017271503e-05,8.187079699248882e-05,8.19378777951429e-05
77.57735026920001,19.5773502692,8,0,0.9549308992293106,25.00525122818116,3.271992312280566,-1.694842210501113e-05,7.925285921079624e-05,2.617593849824453e-05,8.100165757447781e-05,8.109473623764918e-05
78.4226497308,18.4226497308,8,0,1.103245688977876,24.86089800330591,3.308743006666592,-1.635833219791552e-05,7.867227705939659e-05,2.646994405333273e-05,8.048109085672586e-05,8.003848518033854e-05
79.57735026920001,18.4226497308,8,0,1.037484258990871,24.59785228335788,3.236532847075441,-1.635833219791552e-05,7.788313989955253e-05,2.589226277660353e-05,7.962922371560646e-05,7.917213672694012e-05
78.4226497308,19.5773502692,8,0,0.9106852634014864,24.81275789691181,3.210100861686073,-1.693601347464469e-05,7.867227705939659e-05,2.568080689348859e-05,8.03667405140923e-05,8.047428874897875e-05
79.57735026920001,19.5773502692,8,0,0.8449238334144855,24.5497121769638,3.137890702094932,-1.693601347464469e-05,7.788313989955258e-05,2.510312561675946e-05,7.951650042651757e-05,7.96223362439242e-05
80.4226497308,18.4226497308,8,0,0.9626858444089033,24.39831405751449,3.144261876848836,-1.64380565439031e-05,7.730445630851923e-05,2.515409501479068e-05,7.896253949222777e-05,7.853259001439053e-05
81.57735026920001,18.4226497308,8,0,0.8966978600395468,24.13436212003706,3.080808129722115,-1.64380565439031e-05,7.651260049608695e-05,2.464646503777692e-05,7.811864280467848e-05,7.765166435521549e-05
80.4226497308,19.5773502692,8,0,0.7934758520709808,24.35601155943001,3.045279900294818,-1.694568652091686e-05,7.730445630851923e-05,2.436223920235854e-05,7.885332073815745e-05,7.899303102215757e-05
81.57735026920001,19.5773502692,8,0,0.7274878677016225,24.09205962195258,2.981826153168097,-1.694568652091686e-05,7.651260049608693e-05,2.385460922534478e-05,7.801076717964987e-05,7.812568968780412e-05
82.4226497308,18.4226497308,8,0,0.821391376141138,23.93280666608213,2.959737335322559,-1.651779292921406e-05,7.592786823054989e-05,2.367789868258047e-05,7.741992828579469e-05,7.699831128217182e-05
83.57735026920001,18.4226497308,8,0,0.7542528389821284,23.66425251744609,2.904334689199286,-1.651779292921406e-05,7.512220578464177e-05,2.323467751359429e-05,7.657201604081739e-05,7.609424315043443e-05
82.4226497308,19.5773502692,8,0,0.6736509864790499,23.89587156866661,2.859029529584067,-1.696101409820032e-05,7.592786823054989e-05,2.287223623667254e-05,7.731512066662803e-05,7.748250025721597e-05
83.57735026920001,19.5773502692,8,0,0.6065124493200402,23.62731742003057,2.803626883460771,-1.696101409820032e-05,7.512220578464177e-05,2.242901506768616e-05,7.646830548638226e-05,7.659261538823652e-05
84.42264973080002,18.4226497308,8,0,0.6833236467533119,23.45933700189219,2.753972737467397,-1.658083393190315e-05,7.452321948865236e-05,2.203178189973918e-05,7.58362863004543e-05,7.542097180047891e-05
85.57735026920001,18.4226497308,8,0,0.6140904344331242,23.18240415261144,2.705809061121947,-1.658083393190315e-05,7.369242094081011e-05,2.164647248897557e-05,7.497192840528787e-05,7.44856283967791e-05
84.42264973080002,19.5773502692,8,0,0.5548871764987915,23.42722788432856,2.650122918987133,-1.696614334266672e-05,7.452321948865236e-05,2.120098335189706e-05,7.573539381943352e-05,7.593043642361772e-05
85.57735026920001,19.5773502692,8,0,0.4856539641786082,23.15029503504783,2.601959242641683,-1.696614334266672e-05,7.369242094081016e-05,2.081567394113346e-05,7.487192173188156e-05,7.501121471747834e-05
86.4226497308,18.4226497308,8,0,0.5521996201899428,22.97268770498929,2.524643763280868,-1.661111137938362e-05,7.307084095981378e-05,2.019715010624694e-05,7.419391989794123e-05,7.378714083833342e-05
87.57735026920002,18.4226497308,8,0,0.4799171584165967,22.68355785789591,2.482805477786328,-1.661111137938362e-05,7.220345141853362e-05,1.986244382229063e-05,7.330040949124081e-05,7.281418074382374e-05
86.4226497308,19.5773502692,8,0,0.4406308588711623,22.9447955146596,2.416220070620864,-1.694581766333996e-05,7.307084095981378e-05,1.932976056496691e-05,7.409684251438601e-05,7.43257045782418e-05
87.57735026920002,19.5773502692,8,0,0.3683483970978179,22.65566566756622,2.374381785126328,-1.694581766333996e-05,7.220345141853364e-05,1.899505428101063e-05,7.320404113642754e-05,7.337207775480372e-05
88.42264973080002,18.4226497308,8,0,0.4315553451950276,22.46753511806771,2.268319406683414,-1.659305098983008e-05,7.155086810166063e-05,1.814655525346731e-05,7.247515267799285e-05,7.208736282514717e-05
89.57735026920001,18.4226497308,8,0,0.3552635754729865,22.16236803917954,2.231784107959822,-1.659305098983008e-05,7.063536686499614e-05,1.785427286367857e-05,7.153961461834314e-05,7.107461943789656e-05
88.42264973080002,19.5773502692,8,0,0.3341278819321403,22.44317825225199,2.153881752100362,-1.688533337961874e-05,7.155086810166063e-05,1.72310540168029e-05,7.238238155184233e-05,7.266101089379822e-05
89.57735026920001,19.5773502692,8,0,0.2578361122101009,22.13801117336383,2.117346453376764,-1.688533337961874e-05,7.063536686499616e-05,1.693877162701411e-05,7.144741558866702e-05,7.167196692530816e-05
90.42264973080002,18.4226497308,8,0,0.3248040644699985,21.93849387957168,1.980424479657314,-1.651142209735335e-05,6.994333716305338e-05,1.584339583725851e-05,7.066319462015434e-05,7.03210679961529e-05
91.57735026920001,18.4226497308,8,0,0.2435408086807929,21.61344085641486,1.948041848877536,-1.651142209735335e-05,6.896817809358291e-05,1.558433479102028e-05,6.967269160668995e-05,6.927507055835555e-05
90.42264973080002,19.5773502692,8,0,0.2384503823906234,21.91690545905184,1.858529595973515,-1.677048314359148e-05,6.994333716305338e-05,1.486823676778812e-05,7.057605958593037e-05,7.093767494574319e-05
91.57735026920001,19.5773502692,8,0,0.1571871266014178,21.59185243589502,1.826146965193737,-1.677048314359148e-05,6.896817809358291e-05,1.46091757215499e-05,6.958604687322691e-05,6.992059591838615e-05
92.42264973080002,18.4226497308,8,0,0.2352825816948538,21.38015167011691,1.655144350560771,-1.635121707466999e-05,6.822825927901822e-05,1.324115480448617e-05,6.874335727993699e-05,6.850599140366608e-05
93.57735026920001,18.4226497308,8,0,0.1480878545713162,21.03137276162276,1.625605629129212,-1.635121707466999e-05,6.718192255353577e-05,1.30048450330337e-05,6.768505645994216e-05,6.745082551572034e-05
92.42264973080002,19.5773502692,8,0,0.1565126578773848,21.36045918916254,1.524352259875465,-1.65875268461224e-05,6.822825927901822e-05,1.219481807900372e-05,6.866435985617992e-05,6.917462728378221e-05
93.57735026920001,19.5773502692,8,0,0.0693179307538383,21.01168028066836,1.494813538443923,-1.65875268461224e-05,6.718192255353566e-05,1.195850830755139e-05,6.760655430610273e-05,6.815368210046184e-05
94.4226497308,18.4226497308,8,0,0.1662800356781302,20.78710902874639,1.285270210828941,-1.609759110882709e-05,6.638572486344593e-05,1.028216168663153e-05,6.670492665767207e-05,6.669672516649578e-05
95.57735026920002,18.4226497308,8,0,0.0722037176110879,20.41080375647822,1.257065756942207,-1.609759110882709e-05,6.525680904664142e-05,1.005652605553766e-05,6.556641215286444e-05,6.569165058626698e-05
94.4226497308,19.5773502692,8,0,0.09106815864680051,20.76830605948856,1.144155733728364,-1.632322673992108e-05,6.638572486344593e-05,9.153245869826911e-06,6.663819735553184e-05,6.742592963178499e-05
95.57735026920002,19.5773502692,8,0,-0.003008159420235579,20.39200078722041,1.115951279841634,-1.632322673992108e-05,6.52568090466415e-05,8.927610238733071e-06,6.550032763119612e-05,6.645861809526195e-05
96.4226497308,18.4226497308,8,0,0.1210422238624824,20.1540385183488,0.8619803514364515,-1.573589569831909e-05,6.439608947962617e-05,6.895842811491612e-06,6.454417308493916e-05,6.502170600487368e-05
97.57735026920001,18.4226497308,8,0,0.01915774290834271,19.74650059453224,0.8333440532526172,-1.573589569831909e-05,6.317347570817649e-05,6.666752426020937e-06,6.33140374586261e-05,6.419645795040269e-05
96.4226497308,19.5773502692,8,0,0.04467876203892196,20.13494765289291,0.7091536300052318,-1.596498608378978e-05,6.439608947962617e-05,5.673229040041854e-06,6.449609288547493e-05,6.581543609162414e-05
97.57735026920001,19.5773502692,8,0,-0.05720571891521953,19.72740972907634,0.6805173318213975,-1.596498608378978e-05,6.317347570817646e-05,5.44413865457118e-06,6.326699427717841e-05,6.502554171562e-05
98.42264973080002,18.4226497308,8,0,0.1027421340596524,19.47577896391623,0.3745498999888612,-1.525184834214209e-05,6.22402989772842e-05,2.99639919991089e-06,6.226925370034884e-05,6.375745941767497e-05
99.57735026920002,18.4226497308,8,0,-0.007830571765084393,19.03348814061728,0.3433884970158328,-1.525184834214209e-05,6.091342650738735e-05,2.747107976126662e-06,6.093818893861143e-05,6.338334117623464e-05
98.42264973080002,19.5773502692,8,0,0.01964505946493666,19.45500469526755,0.2086908412517538,-1.550113956592624e-05,6.22402989772842e-05,1.66952673001403e-06,6.224926137319652e-05,6.460599634462751e-05
99.57735026920002,19.5773502692,8,0,-0.09092764635981165,19.01271387196856,0.177529438278722,-1.550113956592624e-05,6.091342650738722e-05,1.420235506229776e-06,6.092002503576502e-05,6.424967145095113e-05
0.4226497308,20.4226497308,8,0,-0.06933341230229029,-3.367699413516972,-0.2496254187550644,2.472292611446249e-06,-1.072117139341248e-05,-1.997003350040515e-06,2.547432813045825e-06,3.081497472048431e-06
1.5773502692,20.4226497308,8,0,0.1518850171235616,-2.482825695813565,-0.2612796402809322,2.472292611446249e-06,-8.066550240302256e-06,-2.090237122247458e-06,2.574935497386215e-06,3.159183166199853e-06
0.4226497308,21.5773502692,8,0,-0.1004113363711988,-3.3754688945342,0.08220222538378105,2.379058839239523e-06,-1.072117139341248e-05,6.576178030702484e-07,2.387306577380414e-06,3.160541246769125e-06
1.5773502692,21.5773502692,8,0,0.1208070930546531,-2.490595176830792,0.07054800385791327,2.379058839239523e-06,-8.066550240302256e-06,5.643840308633061e-07,2.386676805750969e-06,3.262346705289323e-06
2.4226497308,20.4226497308,8,0,0.05927083616783579,-1.942163613840919,-0.4163422707746878,1.743397566809809e-06,-6.262340233225208e-06,-3.330738166197503e-06,2.076011755638174e-06,3.31652437125591e-06
3.5773502692,20.4226497308,8,0,0.248818523997525,-1.183972862522162,-0.4338735744095203,1.743397566809809e-06,-3.987767979268938e-06,-3.470988595276163e-06,2.227964803288565e-06,3.668702843460026e-06
2.4226497308,21.5773502692,8,0,0.01252069314175119,-1.95385114959744,-0.1320207390302489,1.603147137731555e-06,-6.262340233225208e-06,-1.056165912241992e-06,1.638443838163526e-06,3.457562220936491e-06
3.5773502692,21.5773502692,8,0,0.2020683809714584,-1.195660398278611,-0.1495520426650137,1.603147137731555e-06,-3.987767979268721e-06,-1.19641634132011e-06,1.666436853269471e-06,3.889095469612784e-06
4.422649730800001,20.4226497308,8,0,0.2653325900913527,-0.6885025573673528,-0.6304480801161416,1.399866334186211e-06,-2.415474255648611e-06,-5.043584640929133e-06,2.654259046494359e-06,4.099930039395469e-06
5.577350269200001,20.4226497308,8,0,0.4337504303897723,-0.01483119617367429,-0.6581305177895483,1.399866334186211e-06,-3.944601720675756e-07,-5.265044142316387e-06,3.283903246077336e-06,4.925886176142531e-06
4.422649730800001,21.5773502692,8,0,0.1915127562956918,-0.7069575158161325,-0.3778213196685529,1.178406832799119e-06,-2.415474255648177e-06,-3.022570557348423e-06,1.729439566322084e-06,4.396166497322919e-06
5.577350269200001,21.5773502692,8,0,0.3599305965940933,-0.03328615462252629,-0.405503757341919,1.178406832799119e-06,-3.944601720673587e-07,-3.244030058735352e-06,2.194585437626906e-06,5.349977059455774e-06
6.422649730800001,20.4226497308,8,0,0.5200004585242162,0.453061992383288,-0.9087909200233618,1.301551873370861e-06,1.033798008807148e-06,-7.270327360186894e-06,4.805303016369343e-06,5.726457938905237e-06
7.577350269200001,20.4226497308,8,0,0.6767554446125467,1.08008193673661,-0.9495156642917648,1.301551873370861e-06,2.914857841867114e-06,-7.596125314334118e-06,5.990983371101737e-06,7.087704533223853e-06
6.422649730800001,21.5773502692,8,0,0.4114011404750783,0.4259121628710035,-0.6736584408909203,9.757539192234476e-07,1.033798008807148e-06,-5.389267527127362e-06,3.699566011277101e-06,6.242404046013415e-06
7.577350269200001,21.5773502692,8,0,0.5681561265633636,1.052932107224145,-0.7143831851593504,9.757539192234476e-07,2.914857841866572e-06,-5.715065481274803e-06,4.962842022750632e-06,7.72674935330528e-06
8.4226497308,20.4226497308,8,0,0.7977842320615958,1.536507882031647,-1.259194893160417,1.323703236971789e-06,4.278597836851993e-06,-1.007355914528333e-05,8.050150345206864e-06,8.245776237058233e-06
9.5773502692,20.4226497308,8,0,0.9515131588710033,2.151423589269277,-1.315012366060931,1.323703236971789e-06,6.123344958564882e-06,-1.052009892848745e-05,9.505155401319693e-06,1.004844037655752e-05
8.4226497308,21.5773502692,8,0,0.6489376376603426,1.499296233431334,-1.028601502946333,8.771634537680295e-07,4.278597836851993e-06,-8.228812023570661e-06,7.029933631901895e-06,8.961344190498998e-06
9.5773502692,21.5773502692,8,0,0.8026665644697772,2.114211940669072,-1.084418975846792,8.771634537680295e-07,6.123344958565207e-06,-8.67535180677434e-06,8.56938010104679e-06,1.0849974705326e-05
10.4226497308,20.4226497308,8,0,1.074527935584433,2.611066469731805,-1.682378596606351,1.349636218084743e-06,7.495790354674226e-06,-1.345902877285081e-05,1.182069723775336e-05,1.14946537674041e-05
11.5773502692,20.4226497308,8,0,1.233264888186858,3.246014280141505,-1.754591236544773,1.349636218084743e-06,9.400633785903328e-06,-1.403672989235818e-05,1.346599941669106e-05,1.364311809045212e-05
10.4226497308,21.5773502692,8,0,0.8819608957485972,2.562924709772846,-1.444273167702619,7.719350985772346e-07,7.495790354674226e-06,-1.155418534162095e-05,1.081797501647903e-05,1.234513509313453e-05
11.5773502692,21.5773502692,8,0,1.040697848351013,3.19787252018251,-1.516485807641094,7.719350985772346e-07,9.400633785903219e-06,-1.213188646112875e-05,1.253002527166162e-05,1.454135872343847e-05
12.4226497308,20.4226497308,8,0,1.325964349373017,3.722077347927312,-2.171979214418796,1.265424039651803e-06,1.084987603386899e-05,-1.737583371535037e-05,1.597961200671574e-05,1.532505402528641e-05
13.5773502692,20.4226497308,8,0,1.497177684610911,4.406930688878889,-2.260882293434623,1.265424039651803e-06,1.290443605672371e-05,-1.808705834747699e-05,1.783909529239176e-05,1.777172413147689e-05
12.4226497308,21.5773502692,8,0,1.088889471997539,3.662808628583443,-1.91515921156186,5.54199407525372e-07,1.084987603386899e-05,-1.532127369249488e-05,1.493164205613017e-05,1.624428000837304e-05
13.5773502692,21.5773502692,8,0,1.260102807235461,4.347661969535127,-2.004062290577647,5.54199407525372e-07,1.290443605672404e-05,-1.603249832462118e-05,1.684822760201917e-05,1.87005238499986e-05
14.4226497308,20.4226497308,8,0,1.527533849361148,4.91074703844033,-2.7133451124032,9.595106872034109e-07,1.449236344352013e-05,-2.17067608992256e-05,2.051579215113482e-05,1.966297278578139e-05
15.5773502692,20.4226497308,8,0,1.717845372426469,5.671993130701611,-2.81776044984182,9.595106872034109e-07,1.677610172030398e-05,-2.254208359873456e-05,2.263652151129687e-05,2.238329009311673e-05
14.4226497308,21.5773502692,8,0,1.249092949524891,4.841136813481265,-2.427877827805125,1.241879876946392e-07,1.449236344352013e-05,-1.9423022622441e-05,1.938819990536579e-05,2.058452987793565e-05
15.5773502692,21.5773502692,8,0,1.439404472590284,5.602382905742836,-2.532293165243731,1.241879876946392e-07,1.677610172030484e-05,-2.025834532194985e-05,2.156203627116054e-05,2.327548622661895e-05
16.4226497308,20.4226497308,8,0,1.65603202159192,6.21222317387344,-3.282034762642906,3.295239299953932e-07,1.855428853912147e-05,-2.625627810114324e-05,2.542263044204218e-05,2.446593064092786e-05
17.5773502692,20.4226497308,8,0,1.870561893073527,7.070342659799866,-3.398867272817077,3.295239299953932e-07,2.112864699690075e-05,-2.719093818253661e-05,2.784596777009786e-05,2.743549312435751e-05
16.4226497308,21.5773502692,8,0,1.344478661127356,6.134334833757299,-2.960239955420428,-6.051361513983002e-07,1.855428853912147e-05,-2.368191964336342e-05,2.42054401915672e-05,2.532245978564294e-05
17.5773502692,21.5773502692,8,0,1.55900853260899,6.992454319683834,-3.077072465594653,-6.051361513983002e-07,2.112864699690107e-05,-2.461657972475722e-05,2.668074844366036e-05,2.822393920220103e-05
18.4226497308,20.4226497308,8,0,1.693250515811847,7.65183695520242,-3.843313134863915,-7.030679135640241e-07,2.313127784399826e-05,-3.074650507891132e-05,3.066547774619679e-05,2.96867658187482e-05
19.5773502692,20.4226497308,8,0,1.934661412939233,8.617480543711961,-3.967440852050677,-7.030679135640241e-07,2.602820860952689e-05,-3.173952681640542e-05,3.341081549716977e-05,3.286779471834789e-05
18.4226497308,21.5773502692,8,0,1.362243269980455,7.569085143744572,-3.48119678917285,-1.696089651058203e-06,2.313127784399826e-05,-2.78495743133828e-05,2.937233187384992e-05,3.041222718466604e-05
19.5773502692,21.5773502692,8,0,1.603654167107831,8.534728732254075,-3.605324506359613,-1.696089651058203e-06,2.602820860952678e-05,-2.88425960508769e-05,3.216938458405083e-05,3.34892617180489e-05
20.4226497308,20.4226497308,8,0,1.63098590898668,9.24013766146709,-4.354152289267425,-2.172955220416294e-06,2.826365178950534e-05,-3.48332183141394e-05,3.617401093717593e-05,3.52530123637578e-05
21.5773502692,20.4226497308,8,0,1.898520373975542,10.31027552142254,-4.478983035166594,-2.172955220416294e-06,3.147406536937168e-05,-3.583186428133276e-05,3.922719282481625e-05,3.858851925880486e-05
20.4226497308,21.5773502692,8,0,1.298103919922346,9.156917164201007,-3.95285059178412,-3.171601187609298e-06,2.826365178950534e-05,-3.162280473427296e-05,3.484051402012003e-05,3.578762944514756e-05
21.5773502692,21.5773502692,8,0,1.565638384911198,10.22705502415642,-4.077681337683275,-3.171601187609298e-06,3.147406536937157e-05,-3.26214507014662e-05,3.79445150560674e-05,3.898985231694176e-05
22.4226497308,20.4226497308,8,0,1.475354215969395,10.96835826260782,-4.768722585316173,-4.053553118984191e-06,3.39184630675695e-05,-3.814978068252938e-05,4.184564774009521e-05,4.105940539161242e-05
23.5773502692,20.4226497308,8,0,1.764337976452716,12.1242933045411,-4.887484886423123,-4.053553118984191e-06,3.738626819336935e-05,-3.909987909138499e-05,4.515345696553345e-05,4.447448495140004e-05
22.4226497308,21.5773502692,8,0,1.15865474635076,10.88918339520316,-4.335246944591192,-5.003651527840094e-06,3.39184630675695e-05,-3.468197555672953e-05,4.052352570118447e-05,4.135629805554716e-05
23.5773502692,21.5773502692,8,0,1.4476385068341,12.04511843713652,-4.454009245698209,-5.003651527840094e-06,3.738626819336957e-05,-3.563207396558568e-05,4.387952779998386e-05,4.46193251752526e-05
24.4226497308,20.4226497308,8,0,1.247965273626069,12.80678290301188,-5.046840062458661,-6.251937446806086e-06,3.998333307073717e-05,-4.037472049966929e-05,4.755697627693348e-05,4.697241196041162e-05
25.5773502692,20.4226497308,8,0,1.550257612794741,14.01595225968657,-5.154339209355922,-6.251937446806086e-06,4.361084114076123e-05,-4.123471367484737e-05,5.103141585350818e-05,5.038179590313235e-05
24.4226497308,21.5773502692,8,0,0.9613008819001849,12.73511680508041,-4.593401553705653,-7.111930621983738e-06,3.998333307073717e-05,-3.674721242964522e-05,4.630341574874394e-05,4.700385844366656e-05
25.5773502692,21.5773502692,8,0,1.263593221068875,13.94428616175517,-4.700900700602866,-7.111930621983738e-06,4.361084114076145e-05,-3.760720560482293e-05,4.98212048494059e-05,5.02554973658833e-05
26.4226497308,20.4226497308,8,0,0.9817044423046513,14.70809307693576,-5.162745602663875,-8.625020246173722e-06,4.62805342923507e-05,-4.1301964821311e-05,5.318060340182285e-05,5.284479305955014e-05
27.57735026920001,20.4226497308,8,0,1.287223547391941,15.93016949728492,-5.256790235543233,-8.625020246173722e-06,4.994676355339817e-05,-4.205432188434587e-05,5.671367961157843e-05,5.616444248734654e-05
26.4226497308,21.5773502692,8,0,0.7309187546263254,14.64539665501618,-4.704466945032975,-9.3773773092087e-06,4.62805342923507e-05,-3.76357355602638e-05,5.204566917359834e-05,5.260569497699804e-05
27.57735026920001,21.5773502692,8,0,1.036437859713588,15.86747307536523,-4.798511577912388,-9.3773773092087e-06,4.994676355339785e-05,-3.83880926232991e-05,5.561527245622584e-05,5.577491533644679e-05
28.4226497308,20.4226497308,8,0,0.712123128216045,16.61589197401105,-5.110121712354466,-1.10139195689175e-05,5.260115581426253e-05,-4.088097369883573e-05,5.860278310476573e-05,5.853559868139611e-05
29.5773502692,20.4226497308,8,0,1.010931899812771,17.81112706039796,-5.191867616479622,-1.10139195689175e-05,5.618686107342324e-05,-4.153494093183697e-05,6.208677529902562e-05,6.169406844870018e-05
28.4226497308,21.5773502692,8,0,0.4941340505489351,16.56139470459427,-4.661908554959363,-1.166788680191883e-05,5.260115581426253e-05,-3.729526843967491e-05,5.761985403957146e-05,5.804233927613839e-05
29.5773502692,21.5773502692,8,0,0.7929428221456569,17.75662979098116,-4.743654459084533,-1.166788680191883e-05,5.618686107342318e-05,-3.794923567267626e-05,6.113239318021507e-05,6.106783632248847e-05
30.4226497308,20.4226497308,8,0,0.4683797523595912,18.47547180297828,-4.900679712881998,-1.328156223483193e-05,5.874680596764281e-05,-3.920543770305598e-05,6.37361344336218e-05,6.392807434256733e-05
31.5773502692,20.4226497308,8,0,0.7523959404196692,19.61153655521859,-4.973710396734522,-1.328156223483193e-05,6.215500022436376e-05,-3.978968317387618e-05,6.708028194023746e-05,6.687302218197613e-05
30.4226497308,21.5773502692,8,0,0.2736312620862034,18.42678468040993,-4.474655430791914,-1.386580770565209e-05,5.874680596764281e-05,-3.579724344633531e-05,6.291899435631029e-05,6.321302208860992e-05
31.5773502692,21.5773502692,8,0,0.557647450146268,19.56284943265019,-4.547686114644438,-1.386580770565209e-05,6.21550002243636e-05,-3.63814889171555e-05,6.628358050839006e-05,6.60482815472264e-05
32.4226497308,20.4226497308,8,0,0.2683320443610642,20.24220346279991,-4.557392307198077,-1.533510022828452e-05,6.456038544547086e-05,-3.645913845758462e-05,6.852322620786504e-05,6.89385349428517e-05
33.57735026920001,20.4226497308,8,0,0.5319520759776388,21.29668358926621,-4.626172595221257,-1.533510022828452e-05,6.772382582486975e-05,-3.700938076177005e-05,7.165995270283753e-05,7.163667291007674e-05
32.4226497308,21.5773502692,8,0,0.08491794296589195,20.19634993745112,-4.161962259773222,-1.588534253247004e-05,6.456038544547086e-05,-3.329569807818578e-05,6.78694599052261e-05,6.804274687888546e-05
33.57735026920001,21.5773502692,8,0,0.3485379745824533,21.25083006391736,-4.230742547796422,-1.588534253247004e-05,6.772382582486959e-05,-3.384594038237138e-05,7.101924362450628e-05,7.065646804052788e-05
34.42264973080001,20.4226497308,8,0,0.1191899823864251,21.88443238135238,-4.106823632231404,-1.712613796144534e-05,6.993483163441846e-05,-3.285458905785124e-05,7.293131871606465e-05,7.351471847025427e-05
35.5773502692,20.4226497308,8,0,0.3589516347511061,22.8434789908111,-4.175462297927072,-1.712613796144534e-05,7.281197146279464e-05,-3.340369838341657e-05,7.581340401236721e-05,7.594749639258145e-05
34.42264973080001,21.5773502692,8,0,-0.06384645946854217,21.83867327088871,-3.747181153684437,-1.76752472870103e-05,6.993483163441868e-05,-2.997744922947549e-05,7.242820842881165e-05,7.248183240265524e-05
35.5773502692,21.5773502692,8,0,0.1759151928961122,22.79771988034732,-3.815819819380056,-1.76752472870103e-05,7.281197146279453e-05,-3.052655855504045e-05,7.531720378664263e-05,7.485509942088232e-05
36.4226497308,20.4226497308,8,0,0.02089100972525593,23.38171574218959,-3.574282253387489,-1.863852136263085e-05,7.480477756722646e-05,-2.859425802709991e-05,7.694334122866229e-05,7.762808946056505e-05
37.5773502692,20.4226497308,8,0,0.234833317958274,24.23748497512166,-3.645946729574296,-1.863852136263085e-05,7.737208526602268e-05,-2.916757383659437e-05,7.953844713413538e-05,7.978677718701227e-05
36.4226497308,21.5773502692,8,0,-0.1702142601061691,23.33393942473173,-3.253368791037982,-1.921183717212512e-05,7.480477756722646e-05,-2.602695032830385e-05,7.657281177428143e-05,7.650069965317683e-05
37.5773502692,21.5773502692,8,0,0.04372804812682674,24.18970865766372,-3.32503326722479,-1.921183717212512e-05,7.737208526602241e-05,-2.660026613779832e-05,7.917011364601873e-05,7.862329607871661e-05
38.4226497308,20.4226497308,8,0,-0.0307200901681064,24.72145644081834,-2.981823978583536,-1.987546944119261e-05,7.913323668275315e-05,-2.385459182866829e-05,8.05498160544323e-05,8.126580798435067e-05
39.5773502692,20.4226497308,8,0,0.1563005308101291,25.46953892473128,-3.058543339030666,-1.987546944119261e-05,8.137748413449198e-05,-2.446834671224532e-05,8.283473944850273e-05,8.314790754236284e-05
38.4226497308,21.5773502692,8,0,-0.2353050513604513,24.67031020052039,-2.701293047116196,-2.048922432476975e-05,7.913323668275359e-05,-2.161034437692957e-05,8.029170727995237e-05,8.008374836426562e-05
39.5773502692,21.5773502692,8,0,-0.04828443038222918,25.41839268443328,-2.778012407563332,-2.048922432476975e-05,8.137748413449225e-05,-2.222409926050666e-05,8.257554289229411e-05,8.195118178504546e-05
40.4226497308,20.4226497308,8,0,-0.04075278377229097,25.89582587865374,-2.348454167289997,-2.084706961099432e-05,8.28992450387098e-05,-1.878763333831998e-05,8.374295638473615e-05,8.442508669336537e-05
41.5773502692,20.4226497308,8,0,0.1186872708721172,26.53358609723137,-2.43141892319811,-2.084706961099432e-05,8.48125256944427e-05,-1.945135138558488e-05,8.570028837080613e-05,8.603230546640817e-05
40.4226497308,21.5773502692,8,0,-0.2619921328606294,25.84051604138166,-2.109294085323398,-2.151078765825934e-05,8.28992450387098e-05,-1.687435268258718e-05,8.357664236962933e-05,8.32247006616309e-05
41.5773502692,21.5773502692,8,0,-0.1025520782162257,26.47827625995927,-2.192258841231498,-2.151078765825934e-05,8.481252569444265e-05,-1.753807072985198e-05,8.553089984404365e-05,8.483658551622844e-05
42.4226497308,20.4226497308,8,0,-0.01450169829806214,26.90008363258489,-1.692171147325306,-2.156647234062171e-05,8.60918689829101e-05,-1.353736917860245e-05,8.651576003385276e-05,8.711046741267681e-05
43.57735026920001,20.4226497308,8,0,0.1173274857711748,27.42740036886184,-1.782135385407797,-2.156647234062171e-05,8.767381919174094e-05,-1.425708308326238e-05,8.813703232849561e-05,8.844884185575257e-05
42.4226497308,21.5773502692,8,0,-0.2544063331846251,26.84010747386325,-1.494427371221443,-2.22861862452814e-05,8.60918689829101e-05,-1.195541896977154e-05,8.642057907359191e-05,8.592433617007669e-05
43.57735026920001,21.5773502692,8,0,-0.1225771491154148,27.36742421014009,-1.584391609303935,-2.22861862452814e-05,8.767381919174062e-05,-1.267513287443148e-05,8.803788071930392e-05,8.728424136788521e-05
44.4226497308,20.4226497308,8,0,0.04072964694294257,27.73358992645176,-1.030531824114927,-2.205653707094399e-05,8.871490404709125e-05,-8.244254592919417e-06,8.88680885483087e-05,8.933419688810415e-05
45.5773502692,20.4226497308,8,0,0.1459251895344336,28.15437209681772,-1.127674640496114,-2.205653707094399e-05,8.997725055818914e-05,-9.021397123968916e-06,9.015856662747488e-05,9.041465737625252e-05
44.4226497308,21.5773502692,8,0,-0.2183178634069272,27.66882804886429,-0.8727385102276768,-2.283367960199359e-05,8.871490404709125e-05,-6.981908081821414e-06,8.882404794947036e-05,8.819025044924477e-05
45.5773502692,21.5773502692,8,0,-0.1131223208154273,28.08961021923029,-0.9698813266088575,-2.283367960199359e-05,8.997725055818925e-05,-7.75905061287086e-06,9.01105085579896e-05,8.930560809393458e-05
46.42264973080001,20.4226497308,8,0,0.1156504007665502,28.40125447313287,-0.3776414504074794,-2.235092229605333e-05,9.079149399341194e-05,-3.021131603259835e-06,9.081165798256308e-05,9.111611715024643e-05
47.57735026920001,20.4226497308,8,0,0.1958343944127012,28.72199044771747,-0.4811912743355199,-2.235092229605333e-05,9.175370191716575e-05,-3.84953019468416e-06,9.178616043626629e-05,9.195208040419662e-05
46.42264973080001,21.5773502692,8,0,-0.1604824630415491,28.33222125718084,-0.2573654599382258,-2.317932088747763e-05,9.079149399341194e-05,-2.058923679505806e-06,9.080079203367832e-05,9.003600992282859e-05
47.57735026920001,21.5773502692,8,0,-0.08029846939538388,28.65295723176551,-0.3609152838662799,-2.317932088747763e-05,9.175370191716591e-05,-2.88732227093024e-06,9.17718327267187e-05,9.091614718470328e-05
48.4226497308,20.4226497308,8,0,0.2020347664531714,28.9109449183897,0.258430952781412,-2.248224468206161e-05,9.235339592568448e-05,2.067447622251296e-06,9.236270051384781e-05,9.247863092918309e-05
49.57735026920001,20.4226497308,8,0,0.2583836478350907,29.13634044391737,0.1502512775132794,-2.248224468206161e-05,9.302958250226751e-05,1.202010220106235e-06,9.303270943198047e-05,9.308123046230913e-05
48.4226497308,21.5773502692,8,0,-0.08644436759525487,28.83882513487759,0.3429542748542775,-2.334768208420688e-05,9.235339592568448e-05,2.74363419883422e-06,9.236965867543225e-05,9.147726977059992e-05
49.57735026920001,21.5773502692,8,0,-0.03009548621332669,29.0642206604053,0.2347745995861584,-2.334768208420688e-05,9.302958250226762e-05,1.878196796689267e-06,9.303715999935388e-05,9.213014792273445e-05
50.42264973080001,20.4226497308,8,0,0.2972380631608411,29.26835442342374,0.8729458189489663,-2.24635217366243e-05,9.34209437044273e-05,6.98356655159173e-06,9.352606133759722e-05,9.343921198992416e-05
51.57735026920001,20.4226497308,8,0,0.3299907391503583,29.39936512738181,0.7619394526088877,-2.24635217366243e-05,9.381397581630151e-05,6.095515620871102e-06,9.389380600706982e-05,9.381463617845507e-05
50.42264973080001,21.5773502692,8,0,0.001221086253910819,29.19435017919701,0.9220748329332823,-2.335157266734509e-05,9.34209437044273e-05,7.376598663466258e-06,9.353732389416847e-05,9.252677382190318e-05
51.57735026920001,21.5773502692,8,0,0.03397376224342796,29.32536088315508,0.8110684665931428,-2.335157266734509e-05,9.381397581630151e-05,6.488547732745142e-06,9.390373987638282e-05,9.295749777794133e-05
52.4226497308,20.4226497308,8,0,0.4029116117521099,29.47517036272547,1.458360944792696,-2.229081913257362e-05,9.399821587131982e-05,1.166688755834157e-05,9.429010809703292e-05,9.400774752918323e-05
53.5773502692,20.4226497308,8,0,0.4121050350226128,29.51194405580749,1.345531943409353,-2.229081913257362e-05,9.410853695056585e-05,1.076425554727482e-05,9.435686848600509e-05,9.415991336238231e-05
52.4226497308,21.5773502692,8,0,0.102034274729971,29.39995102846994,1.472151079698437,-2.319345114364004e-05,9.399821587131982e-05,1.177720863758749e-05,9.429336100454193e-05,9.319314431230507e-05
53.5773502692,21.5773502692,8,0,0.1112276980004694,29.43672472155193,1.359322078315148,-2.319345114364004e-05,9.41085369505658e-05,1.087457662652118e-05,9.436003187391999e-05,9.34062186608036e-05
54.42264973080001,20.4226497308,8,0,0.5204896773290058,29.53335391737977,2.001412888952717,-2.1961116166451e-05,9.409034079375207e-05,1.601130311162173e-05,9.463999641379556e-05,9.419243429208515e-05
55.57735026920001,20.4226497308,8,0,0.5071535186484502,29.48000928265755,1.88684890303566,-2.1961116166451e-05,9.39303068895854e-05,1.509479122428528e-05,9.441976170012134e-05,9.412911729114735e-05
54.42264973080001,21.5773502692,8,0,0.2149857148835768,29.45697792676842,1.981408650931907,-2.287762805378729e-05,9.409034079375207e-05,1.585126920745526e-05,9.462493071697538e-05,9.348566105105036e-05
55.57735026920001,21.5773502692,8,0,0.2016495562030212,29.40363329204619,1.866844665014851,-2.287762805378729e-05,9.39303068895854e-05,1.493475732011881e-05,9.440575144355117e-05,9.348962734898996e-05
56.4226497308,20.4226497308,8,0,0.6473922366490354,29.45120140905791,2.485546145466224,-2.148930596996941e-05,9.372593071966607e-05,1.988436916372979e-05,9.457756934602487e-05,9.401017880594016e-05
57.57735026920001,20.4226497308,8,0,0.614197888654596,29.31842401708015,2.368896646493678,-2.148930596996941e-05,9.332759854373279e-05,1.895117317194942e-05,9.410434313002604e-05,9.374854982230277e-05
56.4226497308,21.5773502692,8,0,0.336326906055552,29.37343507640954,2.435754623474588,-2.242250196174986e-05,9.372593071966607e-05,1.948603698779671e-05,9.453754470306746e-05,9.342202442395205e-05
57.57735026920001,21.5773502692,8,0,0.3031325580611037,29.24065768443174,2.319105124502042,-2.242250196174986e-05,9.332759854373268e-05,1.855284099601634e-05,9.406631304819834e-05,9.323336350006077e-05
58.4226497308,20.4226497308,8,0,0.7755847400275719,29.24600807333835,2.896011194092085,-2.091493529058245e-05,9.296675804266064e-05,2.316808955273668e-05,9.413314081001411e-05,9.349461645082571e-05
59.57735026920001,20.4226497308,8,0,0.7266262061553839,29.0501739378496,2.777334419077738,-2.091493529058245e-05,9.237925563619439e-05,2.22186753526219e-05,9.34583310837935e-05,9.3062486561821e-05
58.4226497308,21.5773502692,8,0,0.4591133399893392,29.16689022332879,2.822573393283776,-2.186434949069714e-05,9.296675804266064e-05,2.258058714627021e-05,9.406630098872734e-05,9.303395284048762e-05
59.57735026920001,21.5773502692,8,0,0.4101548061171512,28.97105608784004,2.703896618269449,-2.186434949069714e-05,9.237925563619439e-05,2.163117294615559e-05,9.339416470020398e-05,9.267781371083105e-05
60.4226497308,20.4226497308,8,0,0.8943953160748741,28.94251191145375,3.224411133811581,-2.029194451772341e-05,9.19005218637921e-05,2.579528907049265e-05,9.33641411115999e-05,9.26965650159064e-05
61.5773502692,20.4226497308,8,0,0.8343601008172383,28.70237105042321,3.104510000465652,-2.029194451772341e-05,9.118009928070047e-05,2.483608000372522e-05,9.254672053079724e-05,9.212897864984582e-05
60.4226497308,21.5773502692,8,0,0.5746589604857988,28.86257782255649,3.134358310925134,-2.125115358449063e-05,9.19005218637921e-05,2.507486648740107e-05,9.327304603650356e-05,9.236718031679601e-05
61.5773502692,21.5773502692,8,0,0.5146237452281586,28.62243696152592,3.014457177579223,-2.125115358449063e-05,9.118009928070042e-05,2.411565742063378e-05,9.245871506779568e-05,9.18746532313852e-05
62.42264973080001,20.4226497308,8,0,0.993365233164802,28.56810368689511,3.470095575823849,-1.967571420338872e-05,9.062323961153251e-05,2.776076460659079e-05,9.234317290017087e-05,9.167711649466106e-05
63.57735026920001,20.4226497308,8,0,0.9266197060125823,28.30112157828624,3.350574607691581,-1.967571420338872e-05,8.982229328570587e-05,2.680459686153265e-05,9.143883765565645e-05,9.101019249468685e-05
62.42264973080001,21.5773502692,8,0,0.6746426514788313,28.48842304147362,3.369977285095529,-2.063188194844663e-05,9.062323961153251e-05,2.695981828076423e-05,9.22331968487001e-05,9.147604263929154e-05
63.57735026920001,21.5773502692,8,0,0.6078971243266116,28.22144093286474,3.250456316963271,-2.063188194844663e-05,8.982229328570587e-05,2.600365053570617e-05,9.133213074357529e-05,9.087954533462104e-05
64.4226497308,20.4226497308,8,0,1.065423792682668,28.14813142053794,3.638798803386035,-1.910914899984581e-05,8.922168151157526e-05,2.911039042708828e-05,9.114321587454107e-05,9.049737592713394e-05
65.57735026920001,20.4226497308,8,0,0.9954274962832868,27.86814623494041,3.521589984892858,-1.910914899984581e-05,8.838172595478268e-05,2.817271987914287e-05,9.019704428563808e-05,8.976325900953091e-05
64.4226497308,21.5773502692,8,0,0.7528669433674677,28.06999220820914,3.533804358787009,-2.004681954779141e-05,8.922168151157526e-05,2.827043487029608e-05,9.102062779794264e-05,9.041565370962337e-05
65.57735026920001,21.5773502692,8,0,0.6828706469680768,27.79000702261157,3.416595540293806,-2.004681954779141e-05,8.838172595478257e-05,2.733276432235045e-05,9.007771497471454e-05,8.974477552554064e-05
66.4226497308,20.4226497308,8,0,1.107252356152483,27.70282237786166,3.739634101945792,-1.861905036260138e-05,8.776322972423533e-05,2.991707281556634e-05,8.982654823921313e-05,8.92105838950475e-05
67.57735026920001,20.4226497308,8,0,1.036435058700416,27.4195531880534,3.626611955986304,-1.861905036260138e-05,8.691342215481053e-05,2.901289564789043e-05,8.887115429550356e-05,8.843476431973878e-05
66.4226497308,21.5773502692,8,0,0.8058599669271045,27.62747428055532,3.633408155767712,-1.952322753027752e-05,8.776322972423533e-05,2.90672652461417e-05,8.969717676090134e-05,8.923531776769974e-05
67.57735026920001,21.5773502692,8,0,0.7350426694750443,27.34420509074708,3.520386009808231,-1.952322753027752e-05,8.691342215481061e-05,2.816308807846585e-05,8.874489278486934e-05,8.851433147299182e-05
68.42264973080002,20.4226497308,8,0,1.118721177217914,27.24665164332093,3.782690347470448,-1.821741354755942e-05,8.629430831685262e-05,3.026152277976358e-05,8.844079055112788e-05,8.785821872501714e-05
69.57735026920001,20.4226497308,8,0,1.048584269583122,26.96610401278176,3.67542712025328,-1.821741354755942e-05,8.545266542523512e-05,2.940341696202624e-05,8.749722830204259e-05,8.70588864425994e-05
68.42264973080002,21.5773502692,8,0,0.8326859046388133,27.17514282517615,3.67748498601829,-1.907551936529672e-05,8.629430831685262e-05,2.941987988814632e-05,8.830932573350168e-05,8.797481474553262e-05
69.57735026920001,21.5773502692,8,0,0.7625489970040258,26.894595194637,3.570221758801109,-1.907551936529672e-05,8.545266542523517e-05,2.856177407040887e-05,8.736863475393891e-05,8.722181392922598e-05
70.4226497308,20.4226497308,8,0,1.101931704898641,26.78888535527875,3.777466164228029,-1.790492682854735e-05,8.484288777297309e-05,3.021972931382423e-05,8.701882978383378e-05,8.646932622127966e-05
71.57735026920001,20.4226497308,8,0,1.0332399852525,26.51411847669419,3.677134099279768,-1.790492682854735e-05,8.40185871372194e-05,2.941707279423815e-05,8.609871660012375e-05,8.565795002486181e-05
70.4226497308,21.5773502692,8,0,0.8343795317033145,26.72199731197992,3.674428584758807,-1.870758334813333e-05,8.484288777297309e-05,2.939542867807046e-05,8.688863161769136e-05,8.666330801862651e-05
71.57735026920001,21.5773502692,8,0,0.7656878120571662,26.44723043339533,3.574096519810567,-1.870758334813333e-05,8.401858713721932e-05,2.859277215848453e-05,8.597110168084555e-05,8.589044231078298e-05
72.4226497308,20.4226497308,8,0,1.060348017230547,26.33461291259575,3.732068207695223,-1.767457667493885e-05,8.342248290652194e-05,2.985654566156179e-05,8.558075717100428e-05,8.506171927071224e-05
73.57735026920001,20.4226497308,8,0,0.9933241497982417,26.06651744286653,3.639433512609216,-1.767457667493885e-05,8.261819649733429e-05,2.911546810087373e-05,8.468854772896556e-05,8.424416275368907e-05
72.4226497308,21.5773502692,8,0,0.8133221636678751,26.27285644920508,3.631532406546794,-1.841565423562686e-05,8.342248290652194e-05,2.905225925237435e-05,8.545395716611707e-05,8.531995783573686e-05
73.57735026920001,21.5773502692,8,0,0.7462982962355724,26.00476097947587,3.538897711460783,-1.841565423562686e-05,8.261819649733431e-05,2.831118169168627e-05,8.456402459154703e-05,8.453423097275886e-05
74.4226497308,20.4226497308,8,0,0.9981313438708712,25.88580192272764,3.652906068370792,-1.751462123779532e-05,8.203606107763173e-05,2.922324854696633e-05,8.413638040994197e-05,8.364394950230261e-05
75.57735026920001,20.4226497308,8,0,0.9326199160047839,25.62375621126329,3.568371291189041,-1.751462123779532e-05,8.124992394323868e-05,2.854697032951233e-05,8.327135963288997e-05,8.282169292109211e-05
74.4226497308,21.5773502692,8,0,0.7727052713861804,25.82944540460646,3.554638926571644,-1.819089945524939e-05,8.203606107763173e-05,2.843711141257315e-05,8.401411784733268e-05,8.39553732619883e-05
75.57735026920001,21.5773502692,8,0,0.7071938435200886,25.5673996931421,3.470104149389897,-1.819089945524939e-05,8.124992394323863e-05,2.776083319511917e-05,8.315107076816287e-05,8.315963144872081e-05
76.42264973080002,20.4226497308,8,0,0.9196953221599165,25.44219904075168,3.544669677328526,-1.741073420168961e-05,8.067928067267743e-05,2.835735741862821e-05,8.268765397032227e-05,8.221738784626822e-05
77.57735026920001,20.4226497308,8,0,0.8552878826728776,25.18456928280353,3.468332369495707,-1.741073420168961e-05,7.990639139883297e-05,2.774665895596565e-05,8.184550645627222e-05,8.13886522597179e-05
76.42264973080002,21.5773502692,8,0,0.7161291679391013,25.39130750219648,3.448058518097999,-1.802143266435205e-05,8.067928067267743e-05,2.758446814478399e-05,8.257034693539352e-05,8.25733199485667e-05
77.57735026920001,21.5773502692,8,0,0.6517217284520651,25.13367774424833,3.371721210265179,-1.802143266435205e-05,7.9906391398833e-05,2.697376968212144e-05,8.172988670561093e-05,8.176722895428314e-05
78.4226497308,20.4226497308,8,0,0.8294359835045455,25.00202647215711,3.410436129124473,-1.734742603051114e-05,7.934293592409911e-05,2.728348903299578e-05,8.123074925513465e-05,8.077811522378035e-05
79.57735026920001,20.4226497308,8,0,0.7655610075881576,24.74652656849156,3.342146288022307,-1.734742603051114e-05,7.857643621310247e-05,2.673717030417846e-05,8.040472406954079e-05,7.993883260817577e-05
78.4226497308,21.5773502692,8,0,0.6473297405653966,24.95649991142233,3.314623665249872,-1.789374475932859e-05,7.934293592409911e-05,2.651698932199897e-05,8.111835212283849e-05,8.117238102101795e-05
79.57735026920001,21.5773502692,8,0,0.5834547646490069,24.70100000775677,3.246333824147716,-1.789374475932859e-05,7.857643621310244e-05,2.597067059318173e-05,8.029375194498905e-05,8.035331723877458e-05
80.4226497308,20.4226497308,8,0,0.7315860892317207,24.56249179408267,3.251816647239209,-1.730891794972463e-05,7.801470486967917e-05,2.601453317791367e-05,7.975772369923813e-05,7.931855775546645e-05
81.57735026920001,20.4226497308,8,0,0.6675711842730152,24.30643217424785,3.191224554559609,-1.730891794972463e-05,7.724652601017471e-05,2.552979643647687e-05,7.893946486031189e-05,7.846321795873974e-05
80.4226497308,21.5773502692,8,0,0.5700071754194234,24.5220970656296,3.155794289801161,-1.779365469116152e-05,7.801470486967917e-05,2.524635431840928e-05,7.96499542545964e-05,7.974747232235898e-05
81.57735026920001,21.5773502692,8,0,0.5059922704607063,24.26603744579473,3.095202197121551,-1.779365469116152e-05,7.724652601017457e-05,2.476161757697241e-05,7.883288547205876e-05,7.891133701137732e-05
82.4226497308,20.4226497308,8,0,0.630150867616142,24.12014805953797,3.069095157163867,-1.727963567125872e-05,7.668035309642859e-05,2.455276125731094e-05,7.825784416689578e-05,7.782894244274516e-05
83.57735026920001,20.4226497308,8,0,0.5652646753840909,23.86060329060977,3.015686512534622,-1.727963567125872e-05,7.590171878964398e-05,2.412549210027698e-05,7.743796798361984e-05,7.695140930370396e-05
82.4226497308,21.5773502692,8,0,0.4877278152715263,24.08454229645182,2.97176586881579,-1.770690482829257e-05,7.668035309642859e-05,2.377412695052632e-05,7.815438169740153e-05,7.829125112049221e-05
83.57735026920001,21.5773502692,8,0,0.4228416230394751,23.82499752752361,2.918357224186539,-1.770690482829257e-05,7.590171878964398e-05,2.334685779349231e-05,7.733548888821546e-05,7.743328027244711e-05
84.42264973080002,20.4226497308,8,0,0.5288930309448165,23.67114307215064,2.861334489131934,-1.724445675869709e-05,7.532454340612618e-05,2.289067591305547e-05,7.671866231396946e-05,7.629875876169403e-05
85.57735026920001,20.4226497308,8,0,0.4623731837838818,23.4050636835069,2.81445236634548,-1.724445675869709e-05,7.452630524019496e-05,2.251561893076384e-05,7.588715650770506e-05,7.539321746030097e-05
84.42264973080002,21.5773502692,8,0,0.403874036847621,23.63988832362634,2.761554718390562,-1.761951374098868e-05,7.532454340612618e-05,2.20924377471245e-05,7.661932748679744e-05,7.679556947978502e-05
85.57735026920001,21.5773502692,8,0,0.3373541896866925,23.37380893498263,2.714672595604092,-1.761951374098868e-05,7.452630524019504e-05,2.171738076483273e-05,7.578862729809623e-05,7.591128204166819e-05
86.4226497308,20.4226497308,8,0,0.4313442266222278,23.21139166502731,2.626439554157583,-1.718881180683071e-05,7.39313779467896e-05,2.101151643326066e-05,7.512695867081146e-05,7.471855034732816e-05
87.57735026920002,20.4226497308,8,0,0.3624164410780155,22.93568052285046,2.585293796403824,-1.718881180683071e-05,7.310424452025904e-05,2.068235037123059e-05,7.427346863864669e-05,7.378086681780532e-05
86.4226497308,21.5773502692,8,0,0.3216222059455518,23.18396115985814,2.523047875841261,-1.751797786886074e-05,7.39313779467896e-05,2.018438300673009e-05,7.503189089938643e-05,7.52532612081478e-05
87.57735026920002,21.5773502692,8,0,0.2526944204013368,22.90825001768128,2.481902118087499,-1.751797786886074e-05,7.310424452025902e-05,1.985521694469999e-05,7.417906015341321e-05,7.433980229657167e-05
88.42264973080002,20.4226497308,8,0,0.3408269181228425,22.73669852550701,2.361173380329983,-1.709871268241251e-05,7.248477374712414e-05,1.888938704263987e-05,7.346968938738157e-05,7.308260846714196e-05
89.57735026920001,20.4226497308,8,0,0.2687192348270235,22.44826779232373,2.324838291985958,-1.709871268241251e-05,7.161948154757431e-05,1.859870633588766e-05,7.258374999825314e-05,7.211261470576214e-05
88.42264973080002,21.5773502692,8,0,0.2439333492054629,22.71247513327766,2.253011855386255,-1.738939338916465e-05,7.248477374712414e-05,1.802409484309004e-05,7.337954022170189e-05,7.366078638926273e-05
89.57735026920001,21.5773502692,8,0,0.171825665909644,22.42404440009438,2.216676767042249,-1.738939338916465e-05,7.161948154757431e-05,1.773341413633799e-05,7.249415214237337e-05,7.271913934284447e-05
90.42264973080002,20.4226497308,8,0,0.2604751229997868,22.24285368207019,2.061124485090387,-1.696076255205683e-05,7.096875168422477e-05,1.64889958807231e-05,7.173509800368919e-05,7.139362924419595e-05
91.57735026920001,20.4226497308,8,0,0.1844305522331835,21.93867539900378,2.028525489422218,-1.696076255205683e-05,7.005621683502553e-05,1.622820391537774e-05,7.080636839935341e-05,7.039931819459008e-05
90.42264973080002,21.5773502692,8,0,0.1735444678847005,22.22112101829142,1.947057628940492,-1.722155451740209e-05,7.096875168422477e-05,1.557646103152394e-05,7.165126111229758e-05,7.2022712603961e-05
91.57735026920001,21.5773502692,8,0,0.09749989711809715,21.91694273522501,1.91445863327232,-1.722155451740209e-05,7.005621683502553e-05,1.531566906617856e-05,7.072302800242128e-05,7.106168641591924e-05
92.42264973080002,20.4226497308,8,0,0.1932448214356111,21.72571896885306,1.720624452782286,-1.676219174648849e-05,6.93677048431813e-05,1.376499562225829e-05,6.991420628069307e-05,6.96713864324351e-05
93.57735026920001,20.4226497308,8,0,0.1125352469172745,21.40288067077971,1.690514001448923,-1.676219174648849e-05,6.839918994896126e-05,1.352411201159138e-05,6.893277323979794e-05,6.86769509233059e-05
92.42264973080002,21.5773502692,8,0,0.1129502845466739,21.70564533463083,1.599560091004794,-1.70030753571553e-05,6.93677048431813e-05,1.279648072803835e-05,6.983910571371397e-05,7.035992178562105e-05
93.57735026920001,21.5773502692,8,0,0.03224071002833284,21.38280703655746,1.569449639671441,-1.70030753571553e-05,6.83991899489612e-05,1.255559711737153e-05,6.885819497637745e-05,6.940369134865187e-05
94.4226497308,20.4226497308,8,0,0.1419055226707355,21.18132176611206,1.332613815961777,-1.649095974034329e-05,6.766670523342198e-05,1.066091052769421e-05,6.800298676004878e-05,6.796947532975947e-05
95.57735026920002,20.4226497308,8,0,0.05584964229691813,20.83709824461679,1.303536384938677,-1.649095974034329e-05,6.663403466893616e-05,1.042829107950942e-05,6.695982326827067e-05,6.703105157212273e-05
94.4226497308,21.5773502692,8,0,0.06436570660911567,21.16193681209665,1.203529995401036,-1.672357918852815e-05,6.766670523342198e-05,9.62823996320829e-06,6.794044312778629e-05,6.872526532763519e-05
95.57735026920002,21.5773502692,8,0,-0.02169017376469995,20.81771329060139,1.174452564377926,-1.672357918852815e-05,6.663403466893619e-05,9.395620515023411e-06,6.689795497888171e-05,6.78280014059312e-05
96.4226497308,20.4226497308,8,0,0.1090036341298912,20.60597207862697,0.888453005308977,-1.613596603368592e-05,6.585190774430238e-05,7.107624042471816e-06,6.600566145321562e-05,6.640824488780251e-05
97.57735026920001,20.4226497308,8,0,0.01699197315724987,20.2379254347364,0.8586985647163851,-1.613596603368592e-05,6.474776781263068e-05,6.869588517731081e-06,6.48933670807879e-05,6.564512914051053e-05
96.4226497308,21.5773502692,8,0,0.02965845921630983,20.58613578489857,0.7504355138500179,-1.637400155842666e-05,6.585190774430238e-05,6.003484110800143e-06,6.596134379911007e-05,6.723409855145394e-05
97.57735026920001,21.5773502692,8,0,-0.06235320175633596,20.21808914100799,0.7206810732574226,-1.637400155842666e-05,6.474776781263062e-05,5.765448586059381e-06,6.485007859699066e-05,6.650878969989689e-05
98.42264973080002,20.4226497308,8,0,0.09678593977111571,19.99642057963153,0.3776736103656984,-1.568742145643765e-05,6.391111710300399e-05,3.021388882925587e-06,6.393977813475173e-05,6.524028272827409e-05
99.57735026920002,20.4226497308,8,0,-0.001683419838353295,19.60254314119365,0.3452185646601289,-1.568742145643765e-05,6.272948478769035e-05,2.761748517281031e-06,6.275379361203113e-05,6.489733750802713e-05
98.42264973080002,21.5773502692,8,0,0.01023915122295271,19.97478388249448,0.229969570951494,-1.594706182208214e-05,6.391111710300399e-05,1.839756567611952e-06,6.392171168233569e-05,6.612464842806678e-05
99.57735026920002,21.5773502692,8,0,-0.08823020838651185,19.58090644405663,0.1975145252459346,-1.594706182208214e-05,6.272948478769041e-05,1.580116201967477e-06,6.273741763298916e-05,6.580046380765527e-05
0.4226497308,22.4226497308,8,0,-0.06661313960550308,-3.134065920618385,-0.2997992909563839,2.294090689757098e-06,-9.975720434294427e-06,-2.398394327651071e-06,2.41019625335748e-06,3.222302205155631e-06
1.5773502692,22.4226497308,8,0,0.1549279817479078,-2.247901435204741,-0.3171622321081766,2.294090689757098e-06,-7.317226978053497e-06,-2.537297856865413e-06,2.458726307039323e-06,3.344381235331826e-06
0.4226497308,23.5773502692,8,0,-0.1129143160102656,-3.145641214719575,0.03251239107370527,2.15518716054281e-06,-9.975720434294427e-06,2.600991285896422e-07,2.156581198515583e-06,3.311992506678195e-06
1.5773502692,23.5773502692,8,0,0.1086268053431453,-2.259476729305932,0.01514944992196676,2.15518716054281e-06,-7.317226978053497e-06,1.211955993757341e-07,2.155574806501264e-06,3.465340200303039e-06
2.4226497308,22.4226497308,8,0,0.03875330752594303,-1.705034601954007,-0.5552685938626704,1.488038265646223e-06,-5.487113372273575e-06,-4.442148750901363e-06,2.135236500280721e-06,3.570157075774974e-06
3.5773502692,22.4226497308,8,0,0.2338757990747285,-0.9245446357588647,-0.5770477010969022,1.488038265646223e-06,-3.14564347368815e-06,-4.616381608775217e-06,2.44159437567733e-06,4.064909112837246e-06
2.4226497308,23.5773502692,8,0,-0.01932431176553145,-1.719554006777011,-0.2625848565394515,1.313805407771908e-06,-5.487113372274009e-06,-2.100678852315612e-06,1.472325783543751e-06,3.73673409019705e-06
3.5773502692,23.5773502692,8,0,0.1757981797832631,-0.9390640405818327,-0.2843639637736968,1.313805407771908e-06,-3.145643473688475e-06,-2.274911710189575e-06,1.587174433910059e-06,4.324848292657923e-06
4.422649730800001,22.4226497308,8,0,0.2098837849803409,-0.4195798231518257,-0.8294715203368831,1.007291970458551e-06,-1.510562462070115e-06,-6.635772162695065e-06,3.297063922150097e-06,4.628841026678881e-06
5.577350269200001,22.4226497308,8,0,0.3870216599666753,0.2889716767935118,-0.8602258948965267,1.007291970458551e-06,6.150920377658974e-07,-6.881807159172214e-06,4.257679004060072e-06,5.67477963030701e-06
4.422649730800001,23.5773502692,8,0,0.1278721194878947,-0.4400827395250728,-0.5637647078572867,7.61256973981321e-07,-1.510562462070549e-06,-4.510117662858294e-06,2.150338586774632e-06,4.968283204606119e-06
5.577350269200001,23.5773502692,8,0,0.3050099944742471,0.268468760420337,-0.5945190824169981,7.61256973981321e-07,6.150920377656806e-07,-4.756152659335985e-06,3.067373546910614e-06,6.138065873026061e-06
6.422649730800001,22.4226497308,8,0,0.4211002797576935,0.7700114960970736,-1.142128853349415,7.315116983469603e-07,2.127156563704481e-06,-9.137030826795317e-06,6.050837049990684e-06,6.630785268248799e-06
7.577350269200001,22.4226497308,8,0,0.5882154972181577,1.43847236593893,-1.184814378683014,7.315116983469603e-07,4.13253917323005e-06,-9.478515029464111e-06,7.46713305749548e-06,8.196702639910977e-06
6.422649730800001,23.5773502692,8,0,0.3072722122013748,0.741554479207994,-0.8914560271586778,3.900274956780041e-07,2.127156563704481e-06,-7.131648217269422e-06,4.928674579643787e-06,7.175916393038503e-06
7.577350269200001,23.5773502692,8,0,0.4743874296618299,1.410015349049814,-0.9341415524922905,3.900274956780041e-07,4.132539173229942e-06,-7.473132419938324e-06,6.440221651256037e-06,8.841594076074882e-06
8.4226497308,22.4226497308,8,0,0.6486195090819306,1.908753395148435,-1.503056789840004,5.485797129434298e-07,5.589115257209447e-06,-1.202445431872003e-05,9.587944436265191e-06,9.481129291998236e-06
9.5773502692,22.4226497308,8,0,0.8131242805122849,2.566772480869852,-1.559452751253565,5.485797129434298e-07,7.563172514373699e-06,-1.247562201002852e-05,1.121209118705779e-05,1.142433079258323e-05
8.4226497308,23.5773502692,8,0,0.4982302786459047,1.871156087539429,-1.256299632694459,9.741202163535221e-08,5.589115257209447e-06,-1.005039706155567e-05,8.569721652944849e-06,1.018564064493111e-05
9.5773502692,23.5773502692,8,0,0.66273505007625,2.52917517326081,-1.312695594107979,9.741202163535221e-08,7.563172514373591e-06,-1.050156475286383e-05,1.02727382707569e-05,1.219196647590468e-05
10.4226497308,22.4226497308,8,0,0.869914174379194,3.038358099928384,-1.913951311705741,3.530388780707133e-07,9.026814580267474e-06,-1.531161049364593e-05,1.348878746282585e-05,1.294974613060583e-05
11.5773502692,22.4226497308,8,0,1.038638110306203,3.71325384363642,-1.984794391463688,3.530388780707133e-07,1.105150181139158e-05,-1.587835513170951e-05,1.527540032954184e-05,1.51740568363206e-05
10.4226497308,23.5773502692,8,0,0.6809992950247037,2.991129380089897,-1.660865407815241,-2.137057599928662e-07,9.026814580267908e-06,-1.328692326252193e-05,1.249867319854701e-05,1.375109287813415e-05
11.5773502692,23.5773502692,8,0,0.8497232309516674,3.666025123797752,-1.731708487573175,-2.137057599928662e-07,1.105150181139147e-05,-1.38536679005854e-05,1.434678993709257e-05,1.600437959365466e-05
12.4226497308,22.4226497308,8,0,1.063350511866778,4.196806358891109,-2.36897225274938,4.527655086080155e-08,1.257909993895813e-05,-1.895177802199504e-05,1.767293886842671e-05,1.688809813953225e-05
13.5773502692,22.4226497308,8,0,1.242416217459509,4.913069181262035,-2.453869561433599,4.527655086080155e-08,1.47278884060709e-05,-1.963095649146879e-05,1.964375939304019e-05,1.934663536066233e-05
12.4226497308,23.5773502692,8,0,0.8369576887089789,4.14020815310166,-2.100373694360392,-6.339019186125949e-07,1.257909993895813e-05,-1.680298955488314e-05,1.666048790449702e-05,1.772781600168139e-05
13.5773502692,23.5773502692,8,0,1.016023394301674,4.85647097547244,-2.185271003044529,-6.339019186125949e-07,1.472788840607047e-05,-1.748216802435624e-05,1.868325983584676e-05,2.018304511670408e-05
14.4226497308,22.4226497308,8,0,1.208630373421523,5.417410195814223,-2.854621090022711,-4.663109617025058e-07,1.636880832786829e-05,-2.283696872018169e-05,2.213705480946003e-05,2.122290176832231e-05
15.5773502692,22.4226497308,8,0,1.403154384303202,6.195506239340941,-2.951864894038799,-4.663109617025058e-07,1.870309645844845e-05,-2.36149191523104e-05,2.432637245813303e-05,2.389041970167194e-05
14.4226497308,23.5773502692,8,0,0.9493135627119447,5.352580993136828,-2.562835073700029,-1.244261393831239e-06,1.636880832786829e-05,-2.050268058960024e-05,2.107689643975272e-05,2.204540911490235e-05
15.5773502692,23.5773502692,8,0,1.14383757359366,6.130677036663691,-2.660078877716185,-1.244261393831239e-06,1.870309645844888e-05,-2.128063102172948e-05,2.331333283281983e-05,2.467825306536076e-05
16.4226497308,22.4226497308,8,0,1.288324527438836,6.726996361834392,-3.349613551719222,-1.258958601663238e-06,2.049572873591898e-05,-2.679690841375377e-05,2.687628703760989e-05,2.591104982047138e-05
17.5773502692,22.4226497308,8,0,1.501930721685827,7.581421138822355,-3.456065560711105,-1.258958601663238e-06,2.305900306688287e-05,-2.764852448568884e-05,2.931064529341776e-05,2.876399603522048e-05
16.4226497308,23.5773502692,8,0,1.00445250346039,6.65602835583978,-3.029204260348694,-2.110574673598576e-06,2.049572873591898e-05,-2.423363408278955e-05,2.57629872154443e-05,2.666257855580468e-05
17.5773502692,23.5773502692,8,0,1.218058697707381,7.510453132827744,-3.135656269340604,-2.110574673598576e-06,2.305900306688287e-05,-2.508525015472484e-05,2.824200400685252e-05,2.945101266422356e-05
18.4226497308,22.4226497308,8,0,1.290410304183127,8.143241838327473,-3.825588268865083,-2.385280497275972e-06,2.502604563930141e-05,-3.060470615092066e-05,3.186319663791949e-05,3.090839913614694e-05
19.5773502692,22.4226497308,8,0,1.524642463996698,9.080170477581754,-3.936823602685588,-2.385280497275972e-06,2.783683155706425e-05,-3.14945888214847e-05,3.455056179493856e-05,3.391407114528625e-05
18.4226497308,23.5773502692,8,0,0.9937827473284566,8.069084949113805,-3.474240029144728,-3.275163167839983e-06,2.502604563930141e-05,-2.779392023315782e-05,3.070887526688475e-05,3.153850475102317e-05
19.5773502692,23.5773502692,8,0,1.228014907141982,9.006013588367905,-3.585475362965259,-3.275163167839983e-06,2.783683155706371e-05,-2.868380290372207e-05,3.343926493026668e-05,3.445320508438122e-05
20.4226497308,22.4226497308,8,0,1.211144731809007,9.671704782548268,-4.24940917021932,-3.861700684249794e-06,2.998053951870725e-05,-3.399527336175455e-05,3.704366337495575e-05,3.615351030322976e-05
21.5773502692,22.4226497308,8,0,1.464972494332651,10.68701583264285,-4.360251785217709,-3.861700684249794e-06,3.302647266899099e-05,-3.488201428174166e-05,3.9966890388214e-05,3.926609985431152e-05
20.4226497308,23.5773502692,8,0,0.9155644251467263,9.597809705882698,-3.868667526433839,-4.748441604236634e-06,2.998053951870725e-05,-3.094934021147071e-05,3.587526105353787e-05,3.661849831567999e-05
21.5773502692,23.5773502692,8,0,1.169392187670362,10.61312075597724,-3.979510141432228,-4.748441604236634e-06,3.302647266899088e-05,-3.183608113145782e-05,3.88396238758899e-05,3.961948910376665e-05
22.4226497308,22.4226497308,8,0,1.057103784189097,11.30361209231192,-4.587340969358517,-5.660157564444426e-06,3.532587566804687e-05,-3.669872775486813e-05,4.234036502272127e-05,4.156273648365591e-05
23.5773502692,22.4226497308,8,0,1.326783173395735,12.38232964913847,-4.69277964919594,-5.660157564444426e-06,3.856202833852653e-05,-3.754223719356752e-05,4.545533720614002e-05,4.472467489073351e-05
22.4226497308,23.5773502692,8,0,0.7759339712892199,11.23331963908682,-4.182821885548532,-6.503667003143949e-06,3.532587566804643e-05,-3.346257508438826e-05,4.119474939506015e-05,4.182984409397292e-05
23.5773502692,23.5773502692,8,0,1.045613360495858,12.31203719591337,-4.288260565385969,-6.503667003143949e-06,3.856202833852609e-05,-3.430608452308775e-05,4.434800979220407e-05,4.486765544214995e-05
24.4226497308,22.4226497308,8,0,0.8450077197138075,13.01567603095817,-4.81047903055611,-7.708516121682354e-06,4.097415712329511e-05,-3.848383224444888e-05,4.76610657722366e-05,4.703401358061967e-05
25.5773502692,22.4226497308,8,0,1.124499863396179,14.13364460568766,-4.906717620697048,-7.708516121682354e-06,4.432806284748356e-05,-3.925374096557638e-05,5.090065295599693e-05,5.018130580646382e-05
24.4226497308,23.5773502692,8,0,0.5883714793380554,12.95151697086424,-4.391240815032567,-8.478424842809609e-06,4.097415712329511e-05,-3.512992652026053e-05,4.657800626699295e-05,4.70849524636333e-05
25.5773502692,23.5773502692,8,0,0.8678636230204182,14.06948554559369,-4.487479405173532,-8.478424842809609e-06,4.432806284748346e-05,-3.589983524138825e-05,4.985177983696654e-05,5.010490923387747e-05
26.4226497308,22.4226497308,8,0,0.5987087975819354,14.77281378082831,-4.899827741388508,-9.902382872400452e-06,4.679403706058503e-05,-3.919862193110807e-05,5.290963417672384e-05,5.245686237851204e-05
27.57735026920001,22.4226497308,8,0,0.8806472239523986,15.90056748631016,-4.985075842628802,-9.902382872400452e-06,5.017729817703058e-05,-3.988060674103041e-05,5.619307742591652e-05,5.552650632326523e-05
26.4226497308,23.5773502692,8,0,0.3713805276078914,14.71598171333473,-4.476920101832834,-1.058436768232253e-05,4.679403706058481e-05,-3.581536081466268e-05,5.192428693604581e-05,5.228934224016059e-05
27.57735026920001,23.5773502692,8,0,0.653318953978363,15.84373541881661,-4.562168203073107,-1.058436768232253e-05,5.017729817703047e-05,-3.649734562458486e-05,5.523668348752593e-05,5.523736742906605e-05
28.4226497308,22.4226497308,8,0,0.3440455304312087,16.5334992905965,-4.84909799392231,-1.212585373509733e-05,5.263196130556383e-05,-3.879278395137848e-05,5.799710860032568e-05,5.772507546434464e-05
29.5773502692,22.4226497308,8,0,0.620962469302742,17.64116704608263,-4.923750706007543,-1.212585373509733e-05,5.595496457202223e-05,-3.939000564806035e-05,6.124193254407703e-05,6.066203411722885e-05
28.4226497308,23.5773502692,8,0,0.144971631537226,16.48373081587301,-4.43372258561499,-1.272307543177928e-05,5.263196130556383e-05,-3.546978068491992e-05,5.713436416050363e-05,5.735155401634201e-05
29.5773502692,23.5773502692,8,0,0.4218885704087549,17.59139857135912,-4.508375297700297,-1.272307543177928e-05,5.595496457202218e-05,-3.606700238160238e-05,6.040222384371981e-05,6.017959400080069e-05
30.4226497308,22.4226497308,8,0,0.1036086190196706,18.2561602990663,-4.664104746141083,-1.427338065839009e-05,5.833682606179642e-05,-3.731283796912867e-05,6.284988654226154e-05,6.274779420057567e-05
31.5773502692,22.4226497308,8,0,0.3689722307257117,19.31761474589047,-4.730262814128395,-1.427338065839009e-05,6.152118940226892e-05,-3.784210251302715e-05,6.598202512016962e-05,6.55092380680363e-05
30.4226497308,23.5773502692,8,0,-0.07281289561308579,18.21205492040811,-4.266059328582008,-1.480264520228836e-05,5.833682606179642e-05,-3.412847462865606e-05,6.212218625812713e-05,6.219182022727149e-05
31.5773502692,23.5773502692,8,0,0.1925507160929962,19.27350936723244,-4.332217396569291,-1.480264520228836e-05,6.15211894022694e-05,-3.465773917255433e-05,6.527134259673613e-05,6.486128453008736e-05
32.4226497308,22.4226497308,8,0,-0.1064859947890158,19.90440847094855,-4.359364594204359,-1.626428196008369e-05,6.377929590286658e-05,-3.487491675363487e-05,6.741307412975953e-05,6.745554613520872e-05
33.57735026920001,22.4226497308,8,0,0.1422555342378118,20.89937458705586,-4.419994527340593,-1.626428196008369e-05,6.676419425118851e-05,-3.535995621872475e-05,7.037216344350029e-05,7.001151479467036e-05
32.4226497308,23.5773502692,8,0,-0.2681658164856966,19.86398851552438,-3.986252300664097,-1.674932142517373e-05,6.377929590286658e-05,-3.189001840531278e-05,6.682154414036291e-05,6.674707193313966e-05
33.57735026920001,23.5773502692,8,0,-0.0194242874588646,20.85895463163171,-4.046882233800345,-1.674932142517373e-05,6.676419425118857e-05,-3.237505787040277e-05,6.979206455910779e-05,6.922967462795513e-05
34.42264973080001,22.4226497308,8,0,-0.2771192951759396,21.44963099061401,-3.953804082667129,-1.804648653705421e-05,6.886051460610557e-05,-3.163043266133704e-05,7.164907042813925e-05,7.180041927995469e-05
35.5773502692,22.4226497308,8,0,-0.04858968096795113,22.36374944744596,-4.011945978587407,-1.804648653705421e-05,7.160286997660143e-05,-3.209556782869926e-05,7.438893787428994e-05,7.413182856438549e-05
34.42264973080001,23.5773502692,8,0,-0.4321643509631663,21.41086972666727,-3.611009661355201,-1.851162170441595e-05,6.886051460610579e-05,-2.888807729084161e-05,7.118643188134452e-05,7.097165007531256e-05
35.5773502692,23.5773502692,8,0,-0.2036347367551699,22.32498818349926,-3.669151557275391,-1.851162170441595e-05,7.160286997660175e-05,-2.935321245820313e-05,7.393294494172778e-05,7.324821280841744e-05
36.4226497308,22.4226497308,8,0,-0.4048289122324649,22.87102241876782,-3.467330613516726,-1.959227045415814e-05,7.3511134869843e-05,-2.773864490813381e-05,7.553328449553108e-05,7.575226963640899e-05
37.5773502692,22.4226497308,8,0,-0.1989021395356962,23.6947295095549,-3.525586519261101,-1.959227045415814e-05,7.598225614220423e-05,-2.820469215408881e-05,7.801967245570166e-05,7.784798769160594e-05
36.4226497308,23.5773502692,8,0,-0.5601779942172564,22.83218514827163,-3.1584404544716,-2.005831770011252e-05,7.3511134869843e-05,-2.52675236357728e-05,7.518693428601064e-05,7.483491061199089e-05
37.5773502692,23.5773502692,8,0,-0.3542512215204736,23.65589223905876,-3.216696360215887,-2.005831770011252e-05,7.598225614220439e-05,-2.57335708817271e-05,7.767617366576777e-05,7.689328689469093e-05
38.4226497308,22.4226497308,8,0,-0.4897711474019948,24.15420003776063,-2.918980584585795,-2.089062770189488e-05,7.768525703875559e-05,-2.335184467668636e-05,7.904934745637997e-05,7.929380172429055e-05
39.5773502692,22.4226497308,8,0,-0.30797417218949,24.88138793861065,-2.979343026723921,-2.089062770189488e-05,7.986682074130564e-05,-2.383474421379137e-05,8.125719552799669e-05,8.114812106485193e-05
38.4226497308,23.5773502692,8,0,-0.6507376597703143,24.11395840966855,-2.646285121767045,-2.137352723899984e-05,7.768525703875559e-05,-2.117028097413636e-05,7.880372650111126e-05,7.831768698860362e-05
39.5773502692,23.5773502692,8,0,-0.4689406845578281,24.84114631051849,-2.706647563905192,-2.137352723899984e-05,7.986682074130543e-05,-2.165318051124154e-05,8.101166458517297e-05,8.015084413294442e-05
40.4226497308,22.4226497308,8,0,-0.53411738999998,25.28961227983383,-2.326528624387507,-2.194086547186699e-05,8.135405320746822e-05,-1.861222899510005e-05,8.21857690069368e-05,8.241660650999138e-05
41.5773502692,22.4226497308,8,0,-0.3773148101795574,25.91682259911552,-2.390438173233668,-2.194086547186699e-05,8.32356841653133e-05,-1.912350538586934e-05,8.409788888579189e-05,8.402785385435995e-05
40.4226497308,23.5773502692,8,0,-0.7045428535897793,25.24700591393638,-2.091324754656832,-2.245214186263639e-05,8.135405320746822e-05,-1.673059803725466e-05,8.202385516829877e-05,8.140923826205354e-05
41.5773502692,23.5773502692,8,0,-0.5477402737693424,25.87421623321812,-2.155234303503,-2.245214186263639e-05,8.323568416531346e-05,-1.7241874428024e-05,8.393427483837661e-05,8.301407781453143e-05
42.4226497308,22.4226497308,8,0,-0.541463760474727,26.27163778824378,-1.706749254748638,-2.274999426411415e-05,8.450241193075987e-05,-1.36539940379891e-05,8.493522794156162e-05,8.511914389079528e-05
43.57735026920001,22.4226497308,8,0,-0.4098692890696931,26.79801567386392,-1.775178400723945,-2.274999426411415e-05,8.608154558762028e-05,-1.420142720579156e-05,8.654287607982603e-05,8.648935637188851e-05
42.4226497308,23.5773502692,8,0,-0.7239414830756177,26.22601835759356,-1.50935754764106,-2.329742743191682e-05,8.450241193075987e-05,-1.207486038112848e-05,8.48394898152959e-05,8.41054489164429e-05
43.57735026920001,23.5773502692,8,0,-0.5923470116705793,26.75239624321371,-1.577786693616475,-2.329742743191682e-05,8.608154558762033e-05,-1.26222935489318e-05,8.644449325029331e-05,8.548229066442636e-05
44.4226497308,22.4226497308,8,0,-0.5169430127965686,27.09850448259473,-1.075167883602567,-2.333302122702481e-05,8.71287687545404e-05,-8.601343068820539e-06,8.729595619564114e-05,8.740615473446435e-05
45.5773502692,22.4226497308,8,0,-0.4101152426174419,27.52581556331124,-1.148553403468528,-2.333302122702481e-05,8.841070199668992e-05,-9.188427227748222e-06,8.859926955465293e-05,8.854068196033079e-05
44.4226497308,23.5773502692,8,0,-0.7126377324391484,27.04958080268409,-0.9149262283338565,-2.392010538595254e-05,8.71287687545404e-05,-7.319409826670852e-06,8.724924656445572e-05,8.640791184245555e-05
45.5773502692,23.5773502692,8,0,-0.6058099622600306,27.47689188340056,-0.988311748199844,-2.392010538595254e-05,8.841070199668981e-05,-7.906493985598752e-06,8.854965633914034e-05,8.75599141815171e-05
46.42264973080001,22.4226497308,8,0,-0.4667402240864087,27.77207218127024,-0.4448984086109309,-2.371122646209269e-05,8.924402315933387e-05,-3.559187268887447e-06,8.927205344404842e-05,8.928750661440035e-05
47.57735026920001,22.4226497308,8,0,-0.3838450146436205,28.10365301904139,-0.5229977165252956,-2.371122646209269e-05,9.023876567264733e-05,-4.183981732202365e-06,9.027715928402453e-05,9.019334228788373e-05
46.42264973080001,23.5773502692,8,0,-0.6750050451913356,27.720005975994,-0.3205555944467485,-2.433602092540748e-05,8.924402315933387e-05,-2.564444755573988e-06,8.925849651828724e-05,8.832266477347186e-05
47.57735026920001,23.5773502692,8,0,-0.5921098357485519,28.05158681376514,-0.3986549023611065,-2.433602092540748e-05,9.023876567264727e-05,-3.189239218888851e-06,9.026095484196695e-05,8.925453580522253e-05
48.4226497308,22.4226497308,8,0,-0.3961311352549455,28.29639068507872,0.1739611702206511,-2.39047321808788e-05,9.086535510045585e-05,1.391689361765209e-06,9.086957381313478e-05,9.077503846647444e-05
49.57735026920001,22.4226497308,8,0,-0.3363701653367919,28.53543456475134,0.09190469967207333,-2.39047321808788e-05,9.15824867394737e-05,7.352375973765867e-07,9.158365693140544e-05,9.145842630753709e-05
48.4226497308,23.5773502692,8,0,-0.6149483900511159,28.24168637137968,0.2636026250978475,-2.456118394526731e-05,9.086535510045585e-05,2.10882100078278e-06,9.087498623688026e-05,8.98578680234399e-05
49.57735026920001,23.5773502692,8,0,-0.5551874201329534,28.48073025105233,0.1815461545492698,-2.456118394526731e-05,9.15824867394738e-05,1.452369236394158e-06,9.158702700828533e-05,9.057433126577239e-05
50.42264973080001,22.4226497308,8,0,-0.3079947882019365,28.67565533115585,0.7728855782246355,-2.392610758717088e-05,9.200849289026027e-05,6.183084625797084e-06,9.209087422550199e-05,9.187896600189315e-05
51.57735026920001,22.4226497308,8,0,-0.2707665540921163,28.82456826759513,0.6876846205956089,-2.392610758717088e-05,9.245523169957811e-05,5.501476964764871e-06,9.25202106728211e-05,9.234451397245952e-05
50.42264973080001,23.5773502692,8,0,-0.5351973418794032,28.61885469273649,0.8287279293893728,-2.460771524820328e-05,9.200849289026027e-05,6.629823435114982e-06,9.210264596785084e-05,9.102156029203108e-05
51.57735026920001,23.5773502692,8,0,-0.4979691077695829,28.76776762917577,0.7435269717603259,-2.460771524820328e-05,9.245523169957811e-05,5.948215774082607e-06,9.253074334477139e-05,9.152694947210885e-05
52.4226497308,22.4226497308,8,0,-0.2032381285459692,28.9137103451299,1.342413960154622,-2.378133028745102e-05,9.268646360725244e-05,1.073931168123698e-05,9.29335033617138e-05,9.260738173203207e-05
53.5773502692,22.4226497308,8,0,-0.1878215859788011,28.97537651539857,1.254478500329188,-2.378133028745102e-05,9.287146211805846e-05,1.003582800263351e-05,9.30869138099964e-05,9.286000183632027e-05
52.4226497308,23.5773502692,8,0,-0.4377326880803789,28.8550867052463,1.365538774005442,-2.448481396605424e-05,9.268646360725244e-05,1.092431019204354e-05,9.294054108719251e-05,9.18216518183637e-05
53.5773502692,23.5773502692,8,0,-0.4223161455132018,28.91675287551501,1.277603314179995,-2.448481396605424e-05,9.287146211805857e-05,1.022082651343996e-05,9.309358050784706e-05,9.212140442139813e-05
54.42264973080001,22.4226497308,8,0,-0.08315928116505855,29.0158331800001,1.870818173918651,-2.347877624372827e-05,9.291719360093236e-05,1.496654539134921e-05,9.339633215323749e-05,9.297025904119016e-05
55.57735026920001,22.4226497308,8,0,-0.08816409583874041,28.99581392130537,1.780086235102372,-2.347877624372827e-05,9.285713582484818e-05,1.424068988081897e-05,9.329131645192498e-05,9.301886722251992e-05
54.42264973080001,23.5773502692,8,0,-0.3251111180083983,28.95534522078927,1.863310951908122,-2.420463175425828e-05,9.291719360093236e-05,1.490648761526497e-05,9.338958793631875e-05,9.226892780490391e-05
55.57735026920001,23.5773502692,8,0,-0.3301159326820802,28.93532596209454,1.772579013091863,-2.420463175425828e-05,9.285713582484818e-05,1.41806321047349e-05,9.328502524936924e-05,9.237221658092892e-05
56.4226497308,22.4226497308,8,0,0.0483142101706191,28.99142333756051,2.345297484871147,-2.303853319750242e-05,9.273390331205711e-05,1.876237987896918e-05,9.348914640094344e-05,9.298559526658055e-05
57.57735026920001,22.4226497308,8,0,0.0252625676689151,28.89921676755369,2.2515684044441,-2.303853319750242e-05,9.245728360203666e-05,1.80125472355528e-05,9.315536641660472e-05,9.284608641115343e-05
56.4226497308,23.5773502692,8,0,-0.2016300043014425,28.92893728394249,2.310720021118611,-2.37883658409186e-05,9.273390331205711e-05,1.848576016894889e-05,9.346251898419806e-05,9.238140301667455e-05
57.57735026920001,23.5773502692,8,0,-0.2246816468031465,28.83673071393567,2.216990940691571,-2.37883658409186e-05,9.245728360203666e-05,1.773592752553257e-05,9.312989692554128e-05,9.230321204984817e-05
58.4226497308,22.4226497308,8,0,0.1841938892524242,28.85535428716922,2.754708568184014,-2.249486298412762e-05,9.218977860753956e-05,2.203766854547211e-05,9.323886525306084e-05,9.268364419363616e-05
59.57735026920001,22.4226497308,8,0,0.1463424287311579,28.70394844508416,2.658060980825472,-2.249486298412762e-05,9.173556108128437e-05,2.126448784660378e-05,9.271675217635862e-05,9.23793526574931e-05
58.4226497308,23.5773502692,8,0,-0.07353301037034399,28.79092256226353,2.697931377402115,-2.326804368299592e-05,9.218977860753956e-05,2.158345101921691e-05,9.318980855176323e-05,9.218724678240465e-05
59.57735026920001,23.5773502692,8,0,-0.1113844708916103,28.63951672017847,2.601283790043573,-2.326804368299592e-05,9.173556108128437e-05,2.081027032034858e-05,9.266939949220982e-05,9.194861474664856e-05
60.4226497308,22.4226497308,8,0,0.3155521621597801,28.62705821743588,3.09207408225443,-2.189187965503741e-05,9.1354144566067e-05,2.473659265803544e-05,9.26892229567911e-05,9.210670923383459e-05
61.5773502692,22.4226497308,8,0,0.2665661811423394,28.43111429336612,2.993163193282543,-2.189187965503741e-05,9.07663127938577e-05,2.394530554626035e-05,9.202464137629844e-05,9.166612508416144e-05
60.4226497308,23.5773502692,8,0,0.05178979156811803,28.56111762478797,3.018595110728333,-2.26831667668124e-05,9.1354144566067e-05,2.414876088582666e-05,9.261857184046207e-05,9.172447370036168e-05
61.5773502692,23.5773502692,8,0,0.002803810550665808,28.36517370071816,2.919684221756446,-2.26831667668124e-05,9.076631279385757e-05,2.335747377405157e-05,9.195607032139096e-05,9.135074100957434e-05
62.42264973080001,22.4226497308,8,0,0.4336936747165856,28.3279943351647,3.355670355509754,-2.127457570903868e-05,9.030262693275376e-05,2.684536284407803e-05,9.189465312584919e-05,9.130465502911719e-05
63.57735026920001,22.4226497308,8,0,0.3771118781221841,28.10166714878709,3.255707322677068,-2.127457570903868e-05,8.962364537362094e-05,2.604565858141655e-05,9.113239594521865e-05,9.075768462295269e-05
62.42264973080001,23.5773502692,8,0,0.1671255871627846,28.26135231327625,3.270797660618195,-2.207427997170009e-05,9.030262693275376e-05,2.616638128494556e-05,9.180569953713553e-05,9.103748922568265e-05
63.57735026920001,23.5773502692,8,0,0.110543790568383,28.03502512689864,3.170834627785502,-2.207427997170009e-05,8.962364537362094e-05,2.536667702228402e-05,9.104573740925477e-05,9.05554021272799e-05
64.4226497308,22.4226497308,8,0,0.531790474743179,27.97871647829432,3.548412062220656,-2.068124366345728e-05,8.910646035074725e-05,2.838729649776525e-05,9.091176740963692e-05,9.03284915307535e-05
65.57735026920001,22.4226497308,8,0,0.4706242913821539,27.73405174485022,3.44896101601141,-2.068124366345728e-05,8.837246615041495e-05,2.759168812809128e-05,9.009063964138727e-05,8.970288460272231e-05
64.4226497308,23.5773502692,8,0,0.2665876848518156,27.91241578082148,3.456662787179119,-2.147685203313137e-05,8.910646035074725e-05,2.765330229743295e-05,9.080904532785873e-05,9.017208224708301e-05
65.57735026920001,23.5773502692,8,0,0.205421501490779,27.66775104737733,3.357211740969853,-2.147685203313137e-05,8.837246615041482e-05,2.685769392775882e-05,8.999028761199901e-05,8.96069199571921e-05
66.4226497308,22.4226497308,8,0,0.6057241123938466,27.59677864488578,3.676321750164065,-2.013910575624831e-05,8.782511237371941e-05,2.941057400131252e-05,8.979220852985985e-05,8.922464571896999e-05
67.57735026920001,22.4226497308,8,0,0.5422737684457095,27.34297726909323,3.579017570536159,-2.013910575624831e-05,8.706370824634177e-05,2.863214056428927e-05,8.894257432333813e-05,8.85436797183793e-05
66.4226497308,23.5773502692,8,0,0.3462463000527363,27.5319091918005,3.581146234241857,-2.091753919327165e-05,8.782511237371941e-05,2.864916987393485e-05,8.968042441493646e-05,8.917075526696605e-05
67.57735026920001,23.5773502692,8,0,0.2827959561045947,27.27810781600794,3.483842054613937,-2.091753919327165e-05,8.706370824634172e-05,2.78707364369115e-05,8.883312341674474e-05,8.854429346264127e-05
68.42264973080002,22.4226497308,8,0,0.6539782941499483,27.19576438320466,3.746837920123428,-1.96638809652839e-05,8.650326339093497e-05,2.997470336098742e-05,8.857842892121904e-05,8.803144806274654e-05
69.57735026920001,22.4226497308,8,0,0.5898316531083196,26.93917781903815,3.653171924283627,-1.96638809652839e-05,8.573350369843542e-05,2.922537539426902e-05,8.772194710453511e-05,8.731297115484389e-05
68.42264973080002,23.5773502692,8,0,0.4042023052438735,27.13332038597815,3.650617958560998,-2.041320893200212e-05,8.650326339093497e-05,2.920494366848798e-05,8.846176835672175e-05,8.806957714226727e-05
69.57735026920001,23.5773502692,8,0,0.3400556642022519,26.87673382181166,3.556951962721208,-2.041320893200212e-05,8.57335036984355e-05,2.845561570176966e-05,8.760750097557704e-05,8.739908984009308e-05
70.4226497308,22.4226497308,8,0,0.6771280362381678,26.78528063561248,3.767517773119732,-1.926141479252784e-05,8.517119560496938e-05,3.014014218495785e-05,8.730237950499359e-05,8.67778390821357e-05
71.57735026920001,22.4226497308,8,0,0.613253487202928,26.52978243947152,3.678712882445594,-1.926141479252784e-05,8.440470101654652e-05,2.942970305956475e-05,8.645292694302661e-05,8.603430797857772e-05
70.4226497308,23.5773502692,8,0,0.4403149944404507,26.72607737516305,3.671705949566856,-1.997185391792099e-05,8.517119560496938e-05,2.937364759653485e-05,8.718417422153981e-05,8.689676196935414e-05
71.57735026920001,23.5773502692,8,0,0.3764404454052093,26.47057917902209,3.582901058892736,-1.997185391792099e-05,8.440470101654649e-05,2.866320847114189e-05,8.633676339453187e-05,8.619486400655334e-05
72.4226497308,22.4226497308,8,0,0.6772202517232255,26.37145184860707,3.745206930851173,-1.893005667337133e-05,8.384686971416402e-05,2.996165544680938e-05,8.598596342985697e-05,8.548364033649117e-05
73.57735026920001,22.4226497308,8,0,0.6140928457396457,26.11894222467275,3.66216992649785,-1.893005667337133e-05,8.308934084236107e-05,2.92973594119828e-05,8.515103913127497e-05,8.472271946372055e-05
72.4226497308,23.5773502692,8,0,0.4557882401143383,26.31609384570485,3.650515821875834,-1.959435270819799e-05,8.384686971416402e-05,2.920412657500667e-05,8.586862425208634e-05,8.567259067985625e-05
73.57735026920001,23.5773502692,8,0,0.3926608341307585,26.06358422177053,3.567478817522498,-1.959435270819799e-05,8.308934084236107e-05,2.853983054017998e-05,8.503553880613937e-05,8.494761137862193e-05
74.4226497308,22.4226497308,8,0,0.6572246033640052,25.95759791240621,3.685598563223837,-1.866295959916015e-05,8.253853363700866e-05,2.948478850579069e-05,8.464237644541901e-05,8.416067756964581e-05
75.57735026920001,22.4226497308,8,0,0.5949492368257765,25.7084964462533,3.60892180322465,-1.866295959916015e-05,8.179122923854991e-05,2.88713744257972e-05,8.382454123860079e-05,8.338607143175673e-05
74.4226497308,23.5773502692,8,0,0.4527532433661241,25.90648007240674,3.592185513416493,-1.927637367915379e-05,8.253853363700866e-05,2.873748410733195e-05,8.452748426272046e-05,8.441015560951708e-05
75.57735026920001,23.5773502692,8,0,0.3904778768279042,25.65737860625386,3.515508753417306,-1.927637367915379e-05,8.179122923855002e-05,2.812407002733845e-05,8.371127338331733e-05,8.366677844267348e-05
76.42264973080002,22.4226497308,8,0,0.6206101158923918,25.5449033608616,3.59305389517486,-1.844997031783362e-05,8.124720266204318e-05,2.874443116139888e-05,8.327772714890322e-05,8.281423699500897e-05
77.57735026920001,22.4226497308,8,0,0.5590264617849998,25.29856874443203,3.523042872717959,-1.844997031783362e-05,8.050819881275448e-05,2.818434298174367e-05,8.247587417214042e-05,8.202656239811924e-05
76.42264973080002,23.5773502692,8,0,0.4339140560073576,25.49822934589034,3.500678414013759,-1.901005849748872e-05,8.124720266204318e-05,2.800542731211007e-05,8.3166200208217e-05,8.311650250402816e-05
77.57735026920001,23.5773502692,8,0,0.3723304018999611,25.25189472946075,3.43066739155684,-1.901005849748872e-05,8.050819881275442e-05,2.744533913245472e-05,8.236575878196058e-05,8.235649784824617e-05
78.4226497308,22.4226497308,8,0,0.5710494011790574,25.13299461884189,3.470574879886034,-1.827903761130053e-05,7.99687432593508e-05,2.776459903908827e-05,8.189262311276757e-05,8.144456044581655e-05
79.57735026920001,22.4226497308,8,0,0.5098147235875379,24.88805590847581,3.407284765060067,-1.827903761130053e-05,7.923392712825257e-05,2.725827812048053e-05,8.110301146738012e-05,8.064217613884344e-05
78.4226497308,23.5773502692,8,0,0.4022757616431356,25.09080120895791,3.378722863498775,-1.878535852990829e-05,7.99687432593508e-05,2.70297829079902e-05,8.178490916210668e-05,8.17939026659352e-05
79.57735026920001,23.5773502692,8,0,0.3410410840516205,24.84586249859185,3.315432748672811,-1.878535852990829e-05,7.923392712825262e-05,2.652346198938249e-05,8.09965070120847e-05,8.101686869948477e-05
80.4226497308,22.4226497308,8,0,0.5122273000855841,24.72040226141514,3.319850078126835,-1.813719444885824e-05,7.869550539645997e-05,2.655880062501468e-05,8.048359165720195e-05,8.004826568390121e-05
81.57735026920001,22.4226497308,8,0,0.4508790170755175,24.47500912937487,3.263121161745583,-1.813719444885824e-05,7.795932600033917e-05,2.610496929396466e-05,7.970064968714169e-05,7.922805645275687e-05
80.4226497308,23.5773502692,8,0,0.3609501897355809,24.68258298382764,3.227827653611744,-1.859102577990825e-05,7.869550539645997e-05,2.582262122889395e-05,8.037985875518558e-05,8.044113386335639e-05
81.57735026920001,23.5773502692,8,0,0.2996019067255169,24.43718985178738,3.171098737230496,-1.859102577990825e-05,7.795932600033919e-05,2.536878989784397e-05,7.959794061386906e-05,7.964523100574985e-05
82.4226497308,22.4226497308,8,0,0.4477261278185356,24.30491629152967,3.141323495097086,-1.801120942420442e-05,7.741755123064011e-05,2.513058796077669e-05,7.904431704762235e-05,7.861970970486907e-05
83.57735026920001,22.4226497308,8,0,0.3857280610669829,24.05692402452346,3.090810187595936,-1.801120942420442e-05,7.667357442962147e-05,2.472648150076749e-05,7.826125296263512e-05,7.777788471209399e-05
82.4226497308,23.5773502692,8,0,0.313023974482153,24.27124075319557,3.048326394969743,-1.841531588421357e-05,7.741755123064011e-05,2.438661115975794e-05,7.89446339905992e-05,7.905476656785988e-05
83.57735026920001,23.5773502692,8,0,0.2510259077306003,24.02324848618936,2.997813087468596,-1.841531588421357e-05,7.667357442962147e-05,2.398250469974876e-05,7.816242814395578e-05,7.823749058101986e-05
84.42264973080002,22.4226497308,8,0,0.3809622862765574,23.88385423583657,2.934256578580498,-1.788800407258427e-05,7.612356372565577e-05,2.347405262864398e-05,7.756673757253744e-05,7.715242405768263e-05
85.57735026920001,22.4226497308,8,0,0.3177389206943504,23.63096077350774,2.889447547955553,-1.788800407258427e-05,7.536488333866929e-05,2.311558038364442e-05,7.677600583650628e-05,7.628545876439796e-05
84.42264973080002,23.5773502692,8,0,0.2614715379433932,23.85398154875328,2.839421530207229,-1.824647631758377e-05,7.612356372565577e-05,2.271537224165783e-05,7.74712455499041e-05,7.763055817736286e-05
85.57735026920001,23.5773502692,8,0,0.1982481723611862,23.60108808642445,2.794612499582277,-1.824647631758377e-05,7.536488333866929e-05,2.235689999665821e-05,7.668122974113944e-05,7.678966400058158e-05
86.4226497308,22.4226497308,8,0,0.315153756316195,23.4542645844046,2.696766760084783,-1.775491964731186e-05,7.480152366504177e-05,2.157413408067826e-05,7.604208371663818e-05,7.564088633193862e-05
87.57735026920002,22.4226497308,8,0,0.2501165176190794,23.19411562961614,2.656995395689613,-1.775491964731186e-05,7.402107680067638e-05,2.125596316551691e-05,7.523575762499903e-05,7.474684699051118e-05
86.4226497308,23.5773502692,8,0,0.2090967845957206,23.42775034147449,2.599210902039112,-1.807309056247328e-05,7.480152366504177e-05,2.07936872163129e-05,7.595116695777592e-05,7.616518700365068e-05
87.57735026920002,23.5773502692,8,0,0.1440595458985978,23.16760138668599,2.559439537643939,-1.807309056247328e-05,7.402107680067629e-05,2.047551630115151e-05,7.514544219084014e-05,7.529997829658615e-05
88.42264973080002,22.4226497308,8,0,0.2533024316899244,23.01308693284886,2.425833669183892,-1.759990176487133e-05,7.343923623976442e-05,1.940666935347114e-05,7.44619691358864e-05,7.408311689195257e-05
89.57735026920001,22.4226497308,8,0,0.1858715058550624,22.74336322950942,2.390278810293689,-1.759990176487133e-05,7.263006512974607e-05,1.912223048234951e-05,7.363207048381036e-05,7.31638118815281e-05
88.42264973080002,23.5773502692,8,0,0.1584894746493637,22.98938369358872,2.324687280431636,-1.788434063599301e-05,7.343923623976442e-05,1.859749824345309e-05,7.437643554383569e-05,7.465876736081561e-05
89.57735026920001,23.5773502692,8,0,0.09105854881450792,22.7196599902493,2.289132421541415,-1.788434063599301e-05,7.263006512974615e-05,1.831305937233132e-05,7.354705903117214e-05,7.377215521291172e-05
90.42264973080002,22.4226497308,8,0,0.1981785642748983,22.55728797280413,2.117268306003785,-1.741165897256362e-05,7.202477866155327e-05,1.693814644803028e-05,7.281968207802271e-05,7.248501875134173e-05
91.57735026920001,22.4226497308,8,0,0.1278033747508012,22.27578721470774,2.084945422888389,-1.741165897256362e-05,7.11802763872641e-05,1.667956338310711e-05,7.195852208221399e-05,7.154982644218951e-05
90.42264973080002,23.5773502692,8,0,0.1119842093004886,22.53573938406052,2.011705521717672,-1.767024203748685e-05,7.202477866155327e-05,1.609364417374138e-05,7.274096581616536e-05,7.311897927492596e-05
91.57735026920001,23.5773502692,8,0,0.04160901977639142,22.25423862596413,1.979382638602256,-1.767024203748685e-05,7.11802763872641e-05,1.583506110881805e-05,7.188029774096103e-05,7.222108157389542e-05
92.42264973080002,22.4226497308,8,0,0.1522965360346946,22.08399056598075,1.765642383544295,-1.717984353747357e-05,7.054693258231064e-05,1.412513906835436e-05,7.111187670490963e-05,7.086822978143699e-05
93.57735026920001,22.4226497308,8,0,0.07847777106998866,21.78871550612192,1.735385378651194,-1.717984353747357e-05,6.966110740273416e-05,1.388308302920955e-05,7.021247165589947e-05,6.994126538306486e-05
92.42264973080002,23.5773502692,8,0,0.07161118965314817,22.06381922938536,1.654914236097249,-1.742189957661821e-05,7.054693258231064e-05,1.323931388877799e-05,7.104227275119864e-05,7.156841769877272e-05
93.57735026920001,23.5773502692,8,0,-0.002207575311569343,21.76854416952649,1.624657231204162,-1.742189957661821e-05,6.966110740273403e-05,1.29972578496333e-05,7.014340093289642e-05,7.068320453262741e-05
94.4226497308,22.4226497308,8,0,0.11787176708836,21.59061215163974,1.364175701875821,-1.689530006662904e-05,6.899566147157649e-05,1.091340561500657e-05,6.934094096397514e-05,6.928496659637026e-05
95.57735026920002,22.4226497308,8,0,0.04018785757887144,21.27987651360179,1.334609362434946,-1.689530006662904e-05,6.806345455746262e-05,1.067687489947957e-05,6.839758459092562e-05,6.841888936447069e-05
94.4226497308,23.5773502692,8,0,0.03902819524601497,21.57090125867916,1.247649837611602,-1.713183078215608e-05,6.899566147157649e-05,9.981198700892814e-06,6.9283873920487e-05,7.005830890180454e-05
95.57735026920002,23.5773502692,8,0,-0.03865571426347802,21.26016562064119,1.218083498170713,-1.713183078215608e-05,6.806345455746257e-05,9.744667985365704e-06,6.834119876125489e-05,6.923627545504143e-05
96.4226497308,22.4226497308,8,0,0.09674784693448757,21.07502896403868,0.9045794422181385,-1.655043006104058e-05,6.736269440737617e-05,7.236635537745108e-06,6.751842655366362e-05,6.784679271900585e-05
97.57735026920001,22.4226497308,8,0,0.01488906194089701,20.74759382406431,0.8740824286776145,-1.655043006104058e-05,6.638038898745309e-05,6.992659429420916e-06,6.652753175800629e-05,6.714987284858927e-05
96.4226497308,23.5773502692,8,0,0.01542247749311265,21.05469762167833,0.7817912647277626,-1.67944061693647e-05,6.736269440737617e-05,6.254330117822101e-06,6.747873566432815e-05,6.869485065067851e-05
97.57735026920001,23.5773502692,8,0,-0.06643630750047791,20.72726248170397,0.7512942511872387,-1.67944061693647e-05,6.638038898745309e-05,6.010354009497909e-06,6.648882724638557e-05,6.803768402338124e-05
98.42264973080002,22.4226497308,8,0,0.09028091057151855,20.53578414690925,0.3768531516603492,-1.613972840369854e-05,6.564228454165237e-05,3.014825213282793e-06,6.567005985821212e-05,6.678124373382594e-05
99.57735026920002,22.4226497308,8,0,0.004094791622913263,20.19103967111483,0.3435113361260426,-1.613972840369854e-05,6.460805111426911e-05,2.74809068900834e-06,6.463142580325667e-05,6.647105013351714e-05
98.42264973080002,23.5773502692,8,0,0.00136940248004791,20.51355626988638,0.247573973237455,-1.640646292797295e-05,6.564228454165237e-05,1.98059178589964e-06,6.565423528027641e-05,6.769072976945476e-05
99.57735026920002,23.5773502692,8,0,-0.08481671646855293,20.16881179409198,0.214232157703145,-1.640646292797295e-05,6.460805111426916e-05,1.71385726162516e-06,6.461711423767094e-05,6.739999974708242e-05
0.4226497308,24.4226497308,8,0,-0.06347468102799836,-2.804315699219527,-0.336981422751774,2.040333580086026e-06,-8.923030492680086e-06,-2.695851382014192e-06,2.203626443246957e-06,3.382814729358164e-06
1.5773502692,24.4226497308,8,0,0.1544782886437018,-1.932503820532726,-0.3588417087565664,2.040333580086026e-06,-6.307594856619684e-06,-2.870733670052531e-06,2.280240139993821e-06,3.561041703374426e-06
0.4226497308,25.5773502692,8,0,-0.1217687770407149,-2.818889223222706,-0.01005196824426435,1.865451292047877e-06,-8.923030492680086e-06,-8.04157459541148e-08,1.86560114173263e-06,3.486614338510461e-06
1.5773502692,25.5773502692,8,0,0.09618419263098532,-1.947077344535905,-0.03191225424902965,1.865451292047877e-06,-6.307594856619684e-06,-2.552980339922371e-07,1.867444465523623e-06,3.701544107166068e-06
2.4226497308,24.4226497308,8,0,0.01866816395739784,-1.396992514676372,-0.6653861743971284,1.17733213640477e-06,-4.485310578130307e-06,-5.323089395177028e-06,2.231908462476415e-06,3.867421602285173e-06
3.5773502692,24.4226497308,8,0,0.2155962971922485,-0.6092799817369687,-0.6902135560710154,1.17733213640477e-06,-2.122172979312099e-06,-5.521708448568124e-06,2.743788457009859e-06,4.526240078546473e-06
2.4226497308,25.5773502692,8,0,-0.04753818717326563,-1.413544102459173,-0.3699939745448796,9.787130830128882e-07,-4.48531057813074e-06,-2.959951796359037e-06,1.353824890402175e-06,4.057889510817797e-06
3.5773502692,25.5773502692,8,0,0.1493899460616031,-0.6258315695196979,-0.3948213562188479,9.787130830128882e-07,-2.122172979312316e-06,-3.158570849750783e-06,1.641416239092449e-06,4.816513490023741e-06
4.422649730800001,24.4226497308,8,0,0.1542072985790852,-0.1040719013565365,-0.9891774997229142,5.76720876538302e-07,-4.56395923204185e-07,-7.913419997783314e-06,4.050449007206783e-06,5.227109288075413e-06
5.577350269200001,24.4226497308,8,0,0.3365281279744001,0.6252114162247228,-1.02144337442153,5.76720876538302e-07,1.731454029539592e-06,-8.171546995372242e-06,5.280453558712843e-06,6.483101101789217e-06
4.422649730800001,25.5773502692,8,0,0.06816496604952385,-0.1255824844889269,-0.7156962556298472,3.185938789496178e-07,-4.56395923204185e-07,-5.725570045038778e-06,2.819989834849133e-06,5.594793120540409e-06
5.577350269200001,25.5773502692,8,0,0.2504857954448929,0.6037008330925493,-0.7479621303284225,3.185938789496178e-07,1.731454029540243e-06,-5.98369704262738e-06,4.099141880702641e-06,6.962468634492336e-06
6.422649730800001,24.4226497308,8,0,0.3215409025685706,1.110683967421702,-1.328908309462812,1.403837142820641e-07,3.296955973694591e-06,-1.063126647570249e-05,7.263662524467906e-06,7.576435045722523e-06
7.577350269200001,24.4226497308,8,0,0.4956393107532591,1.807077600160456,-1.371477720953668,1.403837142820641e-07,5.386136871910851e-06,-1.097182176762934e-05,8.843942801898356e-06,9.307487116601169e-06
6.422649730800001,25.5773502692,8,0,0.2080224719261074,1.082304359761087,-1.067760697185847,-2.001715776453255e-07,3.296955973694591e-06,-8.542085577486775e-06,6.163506690738987e-06,8.125541229491118e-06
7.577350269200001,25.5773502692,8,0,0.3821208801107506,1.77869799249966,-1.110330108676798,-2.001715776453255e-07,5.386136871910309e-06,-8.882640869414381e-06,7.839604200774591e-06,9.93543913810194e-06
8.4226497308,24.4226497308,8,0,0.4997937930061943,2.283119739101422,-1.695484698303171,-2.27155653661316e-07,6.906148130719596e-06,-1.356387758642537e-05,1.100211325329302e-05,1.068989798699204e-05
9.5773502692,24.4226497308,8,0,0.6717577170982428,2.970975435469617,-1.749930659320008,-2.27155653661316e-07,8.969715219824177e-06,-1.399944527456006e-05,1.274634548221132e-05,1.273566265111733e-05
8.4226497308,25.5773502692,8,0,0.3546045636280449,2.246822431756885,-1.437538812165098,-6.62723341795764e-07,6.906148130719596e-06,-1.150031049732079e-05,1.000547874912278e-05,1.136304331271783e-05
9.5773502692,25.5773502692,8,0,0.5265684877200573,2.934678128124934,-1.491984773181894,-6.62723341795764e-07,8.969715219823743e-06,-1.193587818545516e-05,1.182241145395805e-05,1.345343254242085e-05
10.4226497308,24.4226497308,8,0,0.669093824598995,3.447142582127473,-2.0916692622261,-6.166138269851943e-07,1.049558120312872e-05,-1.67333540978088e-05,1.498296438141138e-05,1.431511424761308e-05
11.5773502692,24.4226497308,8,0,0.8445251831824954,4.148868016461474,-2.158421846199332,-6.166138269851943e-07,1.260075750613072e-05,-1.726737476959465e-05,1.686475706898031e-05,1.658449159339342e-05
10.4226497308,25.5773502692,8,0,0.4910869340037211,3.402640859478654,-1.828522224350891,-1.150634498771016e-06,1.049558120312872e-05,-1.462817779480713e-05,1.402150974332184e-05,1.505470253812128e-05
11.5773502692,25.5773502692,8,0,0.6665182925872576,4.1043662938128,-1.895274808324068,-1.150634498771016e-06,1.260075750613115e-05,-1.516219846659254e-05,1.59597212978895e-05,1.733906429349341e-05
12.4226497308,24.4226497308,8,0,0.8108889807047741,4.633544730929835,-2.512926495136151,-1.111991046488591e-06,1.417863195441165e-05,-2.01034119610892e-05,1.916215971409272e-05,1.831177849665849e-05
13.5773502692,24.4226497308,8,0,0.9946937188586908,5.368763683545502,-2.591299659946843,-1.111991046488591e-06,1.638428881225865e-05,-2.073039727957474e-05,2.119960327570661e-05,2.076143673004723e-05
12.4226497308,25.5773502692,8,0,0.6018938745428828,4.581295954389363,-2.237219387905235,-1.738976364974265e-06,1.417863195441165e-05,-1.789775510324188e-05,1.819584437312451e-05,1.906747584056927e-05
13.5773502692,25.5773502692,8,0,0.7856986126967995,5.316514907005029,-2.3155925527159,-1.738976364974265e-06,1.638428881225865e-05,-1.85247404217272e-05,2.028046032364962e-05,2.150522224839789e-05
14.4226497308,24.4226497308,8,0,0.9086735908470845,5.868720448719051,-2.947917950222247,-1.78722086826457e-06,1.805296656322329e-05,-2.358334360177798e-05,2.354234341557555e-05,2.261214187153601e-05
15.5773502692,24.4226497308,8,0,1.104778219133882,6.653138961866242,-3.03609825503947,-1.78722086826457e-06,2.040622210266487e-05,-2.428878604031576e-05,2.576013919307415e-05,2.521870411473849e-05
14.4226497308,25.5773502692,8,0,0.673526111334663,5.809933578840946,-2.653761007792132,-2.492663306801835e-06,1.805296656322329e-05,-2.123008806233706e-05,2.255208063131198e-05,2.33379772104585e-05
15.5773502692,25.5773502692,8,0,0.8696307396214157,6.594352091987957,-2.741941312609246,-2.492663306801835e-06,2.040622210266432e-05,-2.193553050087397e-05,2.48117979358472e-05,2.59074104770163e-05
16.4226497308,24.4226497308,8,0,0.949269266866976,7.173047684584127,-3.379099712211682,-2.700776493692978e-06,2.219433717717562e-05,-2.703279769769346e-05,2.812161936178371e-05,2.717668071780976e-05
17.5773502692,24.4226497308,8,0,1.160266408042857,8.017036249287649,-3.474205373130504,-2.700776493692978e-06,2.472630287128619e-05,-2.779364298504403e-05,3.053666695362393e-05,2.99194100344565e-05
16.4226497308,25.5773502692,8,0,0.6956541710833979,7.109643910638232,-3.062604000447875,-3.461621781043712e-06,2.219433717717562e-05,-2.4500832003583e-05,2.710416336092651e-05,2.782970520941503e-05
17.5773502692,25.5773502692,8,0,0.9066513122593149,7.9536324753419,-3.157709661366669,-3.461621781043712e-06,2.472630287128662e-05,-2.526167729093335e-05,2.955792795844043e-05,3.051207881911586e-05
18.4226497308,24.4226497308,8,0,0.9245120346713114,8.558999424241025,-3.783911690923914,-3.888761028444622e-06,2.664918852983422e-05,-3.027129352739131e-05,3.287973453050212e-05,3.196721879203381e-05
19.5773502692,24.4226497308,8,0,1.151300003205599,9.466151298378175,-3.882223923435798,-3.888761028444622e-06,2.937064415224567e-05,-3.105779138748638e-05,3.549382291153376e-05,3.481920704551063e-05
18.4226497308,25.5773502692,8,0,0.6623460813064592,8.49345793589981,-3.443729738122523,-4.675258888539179e-06,2.664918852983422e-05,-2.754983790498019e-05,3.184490440403592e-05,3.250838171916665e-05
19.5773502692,25.5773502692,8,0,0.8891340498407376,9.400609810036924,-3.542041970634312,-4.675258888539179e-06,2.937064415224557e-05,-2.83363357650745e-05,3.449533042041631e-05,3.528000905993353e-05
20.4226497308,24.4226497308,8,0,0.8328806586426438,10.02936565682531,-4.136916642238488,-5.358274417803787e-06,3.142766557492687e-05,-3.309533313790791e-05,3.777588823705057e-05,3.693379097040623e-05
21.5773502692,24.4226497308,8,0,1.074416610046778,10.99550946244185,-4.234335806097502,-5.358274417803787e-06,3.432609699177648e-05,-3.387468644878002e-05,4.057195316529082e-05,3.985895343685823e-05
20.4226497308,25.5773502692,8,0,0.5730962216853013,9.964419547585974,-3.774612715132274,-6.137627728675815e-06,3.142766557492687e-05,-3.019690172105819e-05,3.674379552348922e-05,3.733019850995797e-05
21.5773502692,25.5773502692,8,0,0.81463217308939,10.93056335320233,-3.872031878991288,-6.137627728675815e-06,3.432609699177594e-05,-3.09762550319303e-05,3.957384115351035e-05,4.01597929120377e-05
22.4226497308,24.4226497308,8,0,0.6803645791397188,11.57620809941336,-4.412901435709657,-7.083799826283586e-06,3.649957425481097e-05,-3.530321148567726e-05,4.275172449402571e-05,4.201090567235846e-05
23.5773502692,24.4226497308,8,0,0.9336661537321826,12.58941439778321,-4.505581799375127,-7.083799826283586e-06,3.953919314992054e-05,-3.604465439500102e-05,4.569344196256662e-05,4.496498604900446e-05
22.4226497308,25.5773502692,8,0,0.4332169426982766,11.51442119030286,-4.032949073820894,-7.825242735607805e-06,3.649957425481054e-05,-3.226359259056715e-05,4.174897347126176e-05,4.223846749351037e-05
23.5773502692,25.5773502692,8,0,0.6865185172908039,12.52762748867297,-4.12562943748635,-7.825242735607805e-06,3.953919314992086e-05,-3.30050354998908e-05,4.472184206594962e-05,4.508791766065739e-05
24.4226497308,24.4226497308,8,0,0.4799374335627391,13.18119466214045,-4.590453910460456,-9.009155942311589e-06,4.179587297199923e-05,-3.672363128368365e-05,4.773732148079592e-05,4.7120250311732e-05
25.5773502692,24.4226497308,8,0,0.740416186519913,14.22310967396914,-4.675463361451779,-9.009155942311589e-06,4.492161800748531e-05,-3.740370689161423e-05,5.077225481692842e-05,5.005446140484541e-05
24.4226497308,25.5773502692,8,0,0.2532455642524258,13.12452169481287,-4.199735781024682,-9.68923155024253e-06,4.179587297199923e-05,-3.359788624819745e-05,4.679227786630644e-05,4.716574694312596e-05
25.5773502692,25.5773502692,8,0,0.5137243172095909,14.16643670664153,-4.284745232016006,-9.68923155024253e-06,4.492161800748521e-05,-3.427796185612804e-05,4.985484843641087e-05,4.99930319453788e-05
26.4226497308,24.4226497308,8,0,0.2494358165658954,14.81764369977292,-4.655102822069776,-1.105592034680747e-05,4.721691118602061e-05,-3.724082257655821e-05,5.265867409139338e-05,5.217743897246833e-05
27.57735026920001,24.4226497308,8,0,0.5115285287996962,15.86601454870812,-4.730892950563539,-1.105592034680747e-05,5.036202373282623e-05,-3.784714360450831e-05,5.572440505682595e-05,5.504331045767626e-05
26.4226497308,25.5773502692,8,0,0.04732880724924016,14.76711694744382,-4.261963753719169,-1.166224137475749e-05,4.721691118602083e-05,-3.409571002975335e-05,5.179671191605189e-05,5.203923369793853e-05
27.57735026920001,25.5773502692,8,0,0.3094215194830321,15.81548779637899,-4.337753882212877,-1.166224137475749e-05,5.036202373282634e-05,-3.470203105770302e-05,5.488593070817169e-05,5.480227584645306e-05
28.4226497308,24.4226497308,8,0,0.008355952953093215,16.45400652262457,-4.601050452047514,-1.313646616864976e-05,5.264613611003616e-05,-3.680840361638011e-05,5.744505034332711e-05,5.710029168353401e-05
29.5773502692,24.4226497308,8,0,0.2662891628024955,17.48573936202218,-4.667573302031839,-1.313646616864976e-05,5.574133462822898e-05,-3.734058641625471e-05,6.047663121110722e-05,5.985419741782366e-05
28.4226497308,25.5773502692,8,0,-0.1690383136717211,16.40965795596837,-4.214150637273377,-1.36686489685242e-05,5.264613611003616e-05,-3.371320509818702e-05,5.668494941896069e-05,5.67873516722477e-05
29.5773502692,25.5773502692,8,0,0.08889489617771229,17.4413907953661,-4.280673487257669,-1.36686489685242e-05,5.574133462822936e-05,-3.424538789806135e-05,5.973547852818015e-05,5.944763753691148e-05
30.4226497308,24.4226497308,8,0,-0.2253810657691098,18.05789911923608,-4.431004830665353,-1.516753870585001e-05,5.796558203417074e-05,-3.544803864532283e-05,6.203464886792934e-05,6.181610496173786e-05
31.5773502692,24.4226497308,8,0,0.02308213453927443,19.05175192046962,-4.489460211568639,-1.516753870585001e-05,6.094714043787134e-05,-3.591568169254911e-05,6.497121176379355e-05,6.442223031740236e-05
30.4226497308,25.5773502692,8,0,-0.3812620815112417,18.01892886530041,-4.058310030202771,-1.56351817530763e-05,5.796558203417031e-05,-3.246648024162217e-05,6.138691308687027e-05,6.134560574038129e-05
31.5773502692,25.5773502692,8,0,-0.1327988812028043,19.01278166653416,-4.116765411106077,-1.56351817530763e-05,6.094714043787156e-05,-3.293412328884862e-05,6.433783555395336e-05,6.387066543896773e-05
32.4226497308,24.4226497308,8,0,-0.4376605289032884,19.59956343031746,-4.154405737592972,-1.708016443674449e-05,6.306873140013848e-05,-3.323524590074378e-05,6.637753795261705e-05,6.626604298740631e-05
33.57735026920001,24.4226497308,8,0,-0.2030992040418163,20.53780872976334,-4.206760794079143,-1.708016443674449e-05,6.588346729847615e-05,-3.365408635263315e-05,6.916648617569596e-05,6.869730752604601e-05
32.4226497308,25.5773502692,8,0,-0.5772740128662841,19.56466005932671,-3.802563750300797,-1.749900488863347e-05,6.306873140013848e-05,-3.042051000240638e-05,6.584461116346675e-05,6.566032166976467e-05
33.57735026920001,25.5773502692,8,0,-0.3427126880048297,20.50290535877252,-3.854918806786887,-1.749900488863347e-05,6.588346729847594e-05,-3.083935045429509e-05,6.864361533544326e-05,6.802469372200552e-05
34.42264973080001,24.4226497308,8,0,-0.6189581973667302,21.05397539049107,-3.784935448373713,-1.882384654396639e-05,6.78678878074648e-05,-3.027948358698971e-05,7.043580922285191e-05,7.040612313421383e-05
35.5773502692,24.4226497308,8,0,-0.4017247176973786,21.92290930916847,-3.833420318087615,-1.882384654396639e-05,7.047468956349702e-05,-3.066736254470092e-05,7.303430752814133e-05,7.264342965805379e-05
34.42264973080001,25.5773502692,8,0,-0.7482511832705043,21.02165214401512,-3.459085228869706,-1.921172550167771e-05,6.78678878074648e-05,-2.767268183095765e-05,7.001351749147743e-05,6.968984400265957e-05
35.5773502692,25.5773502692,8,0,-0.5310177036011439,21.89058606269257,-3.507570098583635,-1.921172550167771e-05,7.047468956349713e-05,-2.806056078866908e-05,7.261831028899022e-05,7.187474711959657e-05
36.4226497308,24.4226497308,8,0,-0.7639231940793483,22.40149944017268,-3.338250562228579,-2.036575377319206e-05,7.229593676381604e-05,-2.670600449782863e-05,7.418178873136886e-05,7.420561563951453e-05
37.5773502692,24.4226497308,8,0,-0.5665116833632906,23.19114548303691,-3.384986027955344,-2.036575377319206e-05,7.466487489240874e-05,-2.707988822364275e-05,7.655639391994498e-05,7.623628058807862e-05
36.4226497308,25.5773502692,8,0,-0.8885511026841169,22.37034246302149,-3.042133296154444,-2.073963749900636e-05,7.229593676381604e-05,-2.433706636923555e-05,7.386117906554716e-05,7.340370882610647e-05
37.5773502692,25.5773502692,8,0,-0.691139591968045,23.15998850588577,-3.088868761881249,-2.073963749900636e-05,7.46648748924089e-05,-2.471095009505e-05,7.623901273899032e-05,7.539600677435929e-05
38.4226497308,24.4226497308,8,0,-0.8704040216748776,23.62755109782675,-2.830465037171936,-2.168733374762101e-05,7.630448673038551e-05,-2.264372029737549e-05,7.759559009703305e-05,7.764433435172949e-05
39.5773502692,24.4226497308,8,0,-0.6945236285380938,24.33107267037389,-2.877269510700703,-2.168733374762101e-05,7.841505144802691e-05,-2.301815608560562e-05,7.972124155084098e-05,7.946054382541173e-05
38.4226497308,25.5773502692,8,0,-0.9952159510849947,23.59634811547422,-2.566644447466761,-2.206176953585136e-05,7.630448673038551e-05,-2.053315557973409e-05,7.736459408697391e-05,7.678081547198759e-05
39.5773502692,25.5773502692,8,0,-0.8193355579481976,24.29986968802141,-2.613448920995507,-2.206176953585136e-05,7.841505144802707e-05,-2.090759136796406e-05,7.949115871626007e-05,7.85718852445794e-05
40.4226497308,24.4226497308,8,0,-0.938523611865298,24.72191285280722,-2.277398980803669,-2.278080584021473e-05,7.986094001847534e-05,-1.821919184642935e-05,8.066315924715783e-05,8.071014738638567e-05
41.5773502692,24.4226497308,8,0,-0.7852172519424059,25.33513829249879,-2.325730267632507,-2.278080584021473e-05,8.170061633755004e-05,-1.860584214106005e-05,8.252247431120543e-05,8.230791833074834e-05
40.4226497308,25.5773502692,8,0,-1.067407043408794,24.68969199492135,-2.047439440919365,-2.316745613484522e-05,7.986094001847534e-05,-1.637951552735492e-05,8.050788395106467e-05,7.980756384280989e-05
41.5773502692,25.5773502692,8,0,-0.9141006834859207,25.30291743461284,-2.095770727748197,-2.316745613484522e-05,8.170061633754982e-05,-1.676616582198557e-05,8.236652581800492e-05,8.13924307825528e-05
42.4226497308,24.4226497308,8,0,-0.9701277759047242,25.67817195859399,-1.694225497917439,-2.364694644977031e-05,8.294625248822453e-05,-1.355380398333951e-05,8.337538163749188e-05,8.339734170138775e-05
43.57735026920001,24.4226497308,8,0,-0.839839031533212,26.19932693608003,-1.745159316320591,-2.364694644977031e-05,8.450971742068268e-05,-1.396127453056473e-05,8.495839972175916e-05,8.47759307566915e-05
42.4226497308,25.5773502692,8,0,-1.1059512916464,25.64421607965857,-1.498792381360211,-2.405441699699533e-05,8.294625248822453e-05,-1.199033905088169e-05,8.328110953695208e-05,8.247645178692115e-05
43.57735026920001,25.5773502692,8,0,-0.9756625472748839,26.16537105714463,-1.549726199763323,-2.405441699699533e-05,8.450971742068273e-05,-1.239780959810658e-05,8.486252223670199e-05,8.385318530771031e-05
44.4226497308,24.4226497308,8,0,-0.9684296110688697,26.49335290252704,-1.095062538043417,-2.429365707744201e-05,8.555347297694161e-05,-8.760500304347339e-06,8.572786241896567e-05,8.570558205573379e-05
45.5773502692,24.4226497308,8,0,-0.8610855878984678,26.92272899520865,-1.149247293233151,-2.429365707744201e-05,8.684160125498644e-05,-9.19397834586521e-06,8.703142648376734e-05,8.686684758284395e-05
44.4226497308,25.5773502692,8,0,-1.112922291574816,26.45722973240055,-0.9340465032878079,-2.472713511895985e-05,8.555347297694161e-05,-7.472372026302463e-06,8.567990590907068e-05,8.478502428666814e-05
45.5773502692,25.5773502692,8,0,-1.005578268404401,26.88660582508221,-0.9882312584775349,-2.472713511895985e-05,8.68416012549866e-05,-7.90585006782028e-06,8.698147960154749e-05,8.595412220097316e-05
46.42264973080001,24.4226497308,8,0,-0.9373665464039966,27.16743203484544,-0.4924802111543169,-2.473351857636914e-05,8.76856757486286e-05,-3.939841689234536e-06,8.772018406665505e-05,8.763865376710809e-05
47.57735026920001,24.4226497308,8,0,-0.8525393693992225,27.50674074286454,-0.5501288755352705,-2.473351857636914e-05,8.870360187268589e-05,-4.401031004282164e-06,8.874627262863059e-05,8.858600194909305e-05
46.42264973080001,25.5773502692,8,0,-1.091096318086656,27.12899959192478,-0.3652394456471757,-2.519470789141712e-05,8.76856757486286e-05,-2.921915565177405e-06,8.770458107267529e-05,8.6734742785635e-05
47.57735026920001,25.5773502692,8,0,-1.006269141081873,27.46830829994391,-0.4228881100281766,-2.519470789141712e-05,8.8703601872686e-05,-3.383104880225413e-06,8.872871830179338e-05,8.769833997015091e-05
48.4226497308,24.4226497308,8,0,-0.8806608525514878,27.70249351866466,0.1025828872300804,-2.498010954309649e-05,8.935250794176808e-05,8.206630978406428e-07,8.935398057324543e-05,8.920262901090942e-05
49.57735026920001,24.4226497308,8,0,-0.8177510003772488,27.95413292736161,0.04157360554004155,-2.498010954309649e-05,9.010742616785895e-05,3.325888443203324e-07,9.010766645258599e-05,8.993993729120028e-05
48.4226497308,25.5773502692,8,0,-1.043352270391692,27.6618206642046,0.1969476654914589,-2.546818379661709e-05,8.935250794176808e-05,1.575581323931671e-06,8.935791275953769e-05,8.832965318053328e-05
49.57735026920001,25.5773502692,8,0,-0.9804424182174571,27.91346007290154,0.1359383838013929,-2.546818379661709e-05,9.010742616785889e-05,1.087507070411144e-06,9.010998433184295e-05,8.909083576234475e-05
50.42264973080001,24.4226497308,8,0,-0.8011506890991642,28.10188214692317,0.6801350456931682,-2.504518792265586e-05,9.056694342143346e-05,5.441080365545345e-06,9.063092671573081e-05,9.040433284164412e-05
51.57735026920001,24.4226497308,8,0,-0.7594418342921729,28.26871756615114,0.6159363066249448,-2.504518792265586e-05,9.106744967911736e-05,4.927490452999559e-06,9.111970333747536e-05,9.09357768000287e-05
50.42264973080001,25.5773502692,8,0,-0.972347326614444,28.05908298754435,0.7426983279036419,-2.55587778352017e-05,9.056694342143346e-05,5.941586623229135e-06,9.064289424677192e-05,8.957544179715112e-05
51.57735026920001,25.5773502692,8,0,-0.9306384718074527,28.22591840677232,0.6784995888354118,-2.55587778352017e-05,9.106744967911736e-05,5.427996710683294e-06,9.113057272365845e-05,9.013822752414148e-05
52.4226497308,24.4226497308,8,0,-0.7011017204017289,28.37004335370106,1.230086753562044,-2.493956018824638e-05,9.134502010816475e-05,9.840694028496349e-06,9.155284322821895e-05,9.125155150120554e-05
53.5773502692,24.4226497308,8,0,-0.679615865636265,28.45598677276291,1.162723490433477,-2.493956018824638e-05,9.160285036535033e-05,9.301787923467815e-06,9.178816037174402e-05,9.15828200702176e-05
52.4226497308,25.5773502692,8,0,-0.8807370887445103,28.32513451161536,1.262315535710193,-2.547846629327472e-05,9.134502010816475e-05,1.009852428568154e-05,9.156284958142886e-05,9.047973838292047e-05
53.5773502692,25.5773502692,8,0,-0.859251233979073,28.41107793067711,1.194952272581633,-2.547846629327472e-05,9.160285036535e-05,9.559618180653064e-06,9.179766047350953e-05,9.084997767349045e-05
54.42264973080001,24.4226497308,8,0,-0.5833192388882367,28.51330962582438,1.74179604424648,-2.467726926510185e-05,9.170924619374859e-05,1.393436835397184e-05,9.212483507061098e-05,9.175542996103754e-05
55.57735026920001,24.4226497308,8,0,-0.5805818595777614,28.52425914306628,1.67111927140748,-2.467726926510185e-05,9.174209474547429e-05,1.336895417125984e-05,9.212464185860317e-05,9.189574038365453e-05
54.42264973080001,25.5773502692,8,0,-0.7717906331254891,28.46619177726506,1.745902113212139,-2.524268344781362e-05,9.170924619374859e-05,1.396721690569711e-05,9.212478541849112e-05,9.105385899824413e-05
55.57735026920001,25.5773502692,8,0,-0.7690532538150139,28.47714129450696,1.675225340373152,-2.524268344781362e-05,9.174209474547429e-05,1.340180272298521e-05,9.212467198673702e-05,9.124063384563933e-05
56.4226497308,24.4226497308,8,0,-0.4522221890356866,28.5410230894983,2.204725338478537,-2.427992947651284e-05,9.169305163762311e-05,1.76378027078283e-05,9.235983130664741e-05,9.193379534334158e-05
57.57735026920001,24.4226497308,8,0,-0.4661252568807424,28.48541081811808,2.13058231544888,-2.427992947651284e-05,9.152621482348244e-05,1.704465852359104e-05,9.215002419346919e-05,9.189745300407408e-05
56.4226497308,25.5773502692,8,0,-0.6499369171149008,28.4915944074785,2.183870736710927,-2.487307366075048e-05,9.169305163762311e-05,1.747096589368741e-05,9.234405429945681e-05,9.131510068779225e-05
57.57735026920001,25.5773502692,8,0,-0.6638399849599521,28.43598213609829,2.109727713681228,-2.487307366075048e-05,9.152621482348249e-05,1.687782170944983e-05,9.213485066438592e-05,9.133177303664668e-05
58.4226497308,24.4226497308,8,0,-0.3141195773408514,28.46606222565537,2.609895057047842,-2.377803242801501e-05,9.134269478396984e-05,2.087916045638273e-05,9.228173539541284e-05,9.181333310650238e-05
59.57735026920001,24.4226497308,8,0,-0.3419986821771195,28.35454580631029,2.532378249063834,-2.377803242801501e-05,9.100814552593463e-05,2.025902599251067e-05,9.189518777616497e-05,9.161985561166678e-05
58.4226497308,25.5773502692,8,0,-0.5208310652981591,28.41438435366604,2.56807639979344,-2.439816689188694e-05,9.134269478396984e-05,2.054461119834752e-05,9.224731841381944e-05,9.128817935748059e-05
59.57735026920001,25.5773502692,8,0,-0.5487101701344272,28.30286793432097,2.490559591809453,-2.439816689188694e-05,9.100814552593463e-05,1.992447673447562e-05,9.18618030089899e-05,9.115240686225047e-05
60.4226497308,24.4226497308,8,0,-0.1764926024204403,28.30426423022342,2.951308966362964,-2.320818771192414e-05,9.071483961865128e-05,2.361047173090371e-05,9.19252919926828e-05,9.142922760520645e-05
61.5773502692,24.4226497308,8,0,-0.2153907176585506,28.14867176927098,2.870921868191848,-2.320818771192414e-05,9.024806223579396e-05,2.296737494553478e-05,9.139873511591564e-05,9.110189970102471e-05
60.4226497308,25.5773502692,8,0,-0.3908581975433902,28.25067283144268,2.892961793505826,-2.385128449729299e-05,9.071483961865128e-05,2.314369434804661e-05,9.187197644600497e-05,9.100483580594461e-05
61.5773502692,25.5773502692,8,0,-0.4297563127814916,28.09508037049028,2.812574695334723,-2.385128449729299e-05,9.024806223579407e-05,2.250059756267778e-05,9.134677194134208e-05,9.073743667760339e-05
62.42264973080001,24.4226497308,8,0,-0.04678716847956199,28.07291910799685,3.226653005625687,-2.260805422553208e-05,8.987077088037356e-05,2.581322404500549e-05,9.133276349402512e-05,9.082231134982985e-05
63.57735026920001,24.4226497308,8,0,-0.09378731593386647,27.88491851817963,3.144328740795486,-2.260805422553208e-05,8.930676911092191e-05,2.515462992636389e-05,9.070282963305587e-05,9.038578967331031e-05
62.42264973080001,25.5773502692,8,0,-0.2663185413601328,28.01803626477671,3.156152784444203,-2.326664834417379e-05,8.987077088037356e-05,2.524922227555362e-05,9.126239005924653e-05,9.050160026374479e-05
63.57735026920001,25.5773502692,8,0,-0.3133186888144373,27.83003567495949,3.073828519614002,-2.326664834417379e-05,8.930676911092191e-05,2.459062815691202e-05,9.063401986948898e-05,9.012468232712207e-05
64.4226497308,24.4226497308,8,0,0.06875386465408351,27.78897221973712,3.437087287472258,-2.201116540889663e-05,8.88697080114355e-05,2.749669829977806e-05,9.054896253784023e-05,9.00348984128775e-05
65.57735026920001,24.4226497308,8,0,0.016247917953506,27.57894843293481,3.354066922454502,-2.201116540889663e-05,8.823963665102857e-05,2.683253537963601e-05,8.984875842190618e-05,8.951276733792194e-05
64.4226497308,25.5773502692,8,0,-0.1526337753932756,27.73362530972528,3.358328367421406,-2.26753283290387e-05,8.88697080114355e-05,2.686662693937125e-05,9.046466925091506e-05,8.981651449150552e-05
65.57735026920001,25.5773502692,8,0,-0.2051397220938576,27.52360152292295,3.275308002403636,-2.26753283290387e-05,8.823963665102852e-05,2.620246401922909e-05,8.976614001932298e-05,8.935150224392946e-05
66.4226497308,24.4226497308,8,0,0.1657600455513215,27.46752904018051,3.586373049039457,-2.144359108638018e-05,8.776348489213657e-05,2.869098439231565e-05,8.961647449087644e-05,8.910677359615778e-05
67.57735026920001,24.4226497308,8,0,0.1098600924634834,27.24392922782916,3.504027166235962,-2.144359108638018e-05,8.709268545508252e-05,2.803221732988769e-05,8.887347343168199e-05,8.851970914101155e-05
66.4226497308,25.5773502692,8,0,-0.05382897525809671,27.41263178497816,3.50252311940769,-2.210235814880843e-05,8.776348489213657e-05,2.802018495526152e-05,8.95219080197332e-05,8.898586287275293e-05
67.57735026920001,25.5773502692,8,0,-0.1097289283459233,27.18903197262685,3.420177236604182,-2.210235814880843e-05,8.709268545508265e-05,2.736141789283345e-05,8.878060745693496e-05,8.845192978098469e-05
68.42264973080002,24.4226497308,8,0,0.2418916238293756,27.12098929375668,3.679776279663725,-2.092273823875134e-05,8.659365244095786e-05,2.943821023730981e-05,8.857229968921528e-05,8.807232047101406e-05
69.57735026920001,24.4226497308,8,0,0.1841762811421761,26.89012792300788,3.599434781248067,-2.092273823875134e-05,8.590106832871147e-05,2.879547824998453e-05,8.780757341237628e-05,8.743709634894455e-05
68.42264973080002,25.5773502692,8,0,0.02764762805431165,27.06742829481291,3.593203265632913,-2.156547022607653e-05,8.659365244095786e-05,2.874562612506331e-05,8.847100944070959e-05,8.804168630501169e-05
69.57735026920001,25.5773502692,8,0,-0.0300677146328967,26.83656692406408,3.512861767217268,-2.156547022607653e-05,8.590106832871136e-05,2.810289413773814e-05,8.770794121863777e-05,8.745481337690036e-05
70.4226497308,24.4226497308,8,0,0.2966156905904915,26.75878576042258,3.723069432241757,-2.045785839844848e-05,8.539082188087983e-05,2.978455545793405e-05,8.744616630902267e-05,8.695906844439073e-05
71.57735026920001,24.4226497308,8,0,0.2381627649512543,26.52497405786563,3.645900706220477,-2.045785839844848e-05,8.468938677320899e-05,2.916720564976382e-05,8.667460639605497e-05,8.628829604372794e-05
70.4226497308,25.5773502692,8,0,0.09083242120033663,26.70733994307504,3.635390043782918,-2.107520820661895e-05,8.539082188087983e-05,2.908312035026334e-05,8.734123607974842e-05,8.701037001261997e-05
71.57735026920001,25.5773502692,8,0,0.03237949556111008,26.47352824051813,3.558221317761625,-2.107520820661895e-05,8.468938677320912e-05,2.8465770542093e-05,8.657124189200931e-05,8.638300108837887e-05
72.4226497308,24.4226497308,8,0,0.3308176788315418,26.38755381219442,3.721790073474194,-2.00514264774946e-05,8.417551805595688e-05,2.977432058779355e-05,8.626021488479165e-05,8.578742533225542e-05
73.57735026920001,24.4226497308,8,0,0.2722776508030904,26.15339370008061,3.648733482755249,-2.00514264774946e-05,8.347303771961547e-05,2.918986786204199e-05,8.549129249386169e-05,8.508979350109389e-05
72.4226497308,25.5773502692,8,0,0.1360001035810257,26.33884941838179,3.63398003143152,-2.063587920324614e-05,8.417551805595688e-05,2.907184025145216e-05,8.615410229151878e-05,8.59122090937277e-05
73.57735026920001,25.5773502692,8,0,0.07746007555257162,26.10468930626797,3.560923440712582,-2.063587920324614e-05,8.347303771961544e-05,2.848738752570066e-05,8.538662033549896e-05,8.525335036873039e-05
74.4226497308,24.4226497308,8,0,0.3463884637546304,26.01152299890951,3.680764195708222,-1.970077531511279e-05,8.295976282550672e-05,2.944611356566577e-05,8.502953985874373e-05,8.457119428762783e-05
75.57735026920001,24.4226497308,8,0,0.2880707343652844,25.77825208135213,3.612505101669341,-1.970077531511279e-05,8.225995007283456e-05,2.890004081335473e-05,8.426826985127658e-05,8.385198671877457e-05
74.4226497308,25.5773502692,8,0,0.1643642129842329,25.96601693621691,3.593287601624175,-2.024684806742398e-05,8.295976282550672e-05,2.87463008129934e-05,8.49240649941755e-05,8.476168209835758e-05
75.57735026920001,25.5773502692,8,0,0.1060464835948816,25.7327460186595,3.525028507585294,-2.024684806742398e-05,8.22599500728345e-05,2.820022806068235e-05,8.416409168989799e-05,8.407727812816976e-05
76.42264973080002,24.4226497308,8,0,0.3458632045963013,25.63298179342143,3.603841607683466,-1.939962318002898e-05,8.174885117527152e-05,2.883073286146773e-05,8.376317031392975e-05,8.331851450450877e-05
77.57735026920001,24.4226497308,8,0,0.2878185876611941,25.400803325681,3.540813816942967,-1.939962318002898e-05,8.105231577205024e-05,2.832651053554373e-05,8.301107403879118e-05,8.25802488794996e-05
76.42264973080002,25.5773502692,8,0,0.1777890959548882,25.59096326626108,3.516774682280833,-1.990384550595322e-05,8.174885117527152e-05,2.813419745824667e-05,8.36595955901019e-05,8.356815604456468e-05
77.57735026920001,25.5773502692,8,0,0.1197444790197792,25.35878479852064,3.453746891540283,-1.990384550595322e-05,8.105231577205021e-05,2.762997513232226e-05,8.290864548083732e-05,8.286161261502893e-05
78.4226497308,24.4226497308,8,0,0.3321374834678474,25.25272723281787,3.493775682834979,-1.913934183915718e-05,8.05430171582429e-05,2.795020546267983e-05,8.246520955679412e-05,8.203298233481361e-05
79.57735026920001,24.4226497308,8,0,0.2742296263025752,25.02109580415678,3.436178249418436,-1.913934183915718e-05,7.984812287225963e-05,2.748942599534748e-05,8.172117626266268e-05,8.127608795439444e-05
78.4226497308,25.5773502692,8,0,0.1785443276903091,25.21432894387349,3.406913897087064,-1.96001213064898e-05,8.05430171582429e-05,2.725531117669651e-05,8.236436692477558e-05,8.233681791715532e-05
79.57735026920001,25.5773502692,8,0,0.1206364705250458,24.98269751521243,3.349316463670506,-1.96001213064898e-05,7.984812287225974e-05,2.679453170936405e-05,8.162133129564143e-05,8.160959556849663e-05
80.4226497308,24.4226497308,8,0,0.3082596797427177,24.8704592619303,3.352188682071525,-1.890993643436754e-05,7.933886189438277e-05,2.68175094565722e-05,8.113598368749865e-05,8.071483166815848e-05
81.57735026920001,24.4226497308,8,0,0.2502236314137543,24.63831506861445,3.300007584565929,-1.890993643436754e-05,7.864242931443521e-05,2.640006067652743e-05,8.039699763896346e-05,7.993834535844837e-05
80.4226497308,25.5773502692,8,0,0.169110086394495,24.83567186359324,3.265134609578058,-1.932738521441221e-05,7.933886189438277e-05,2.612107687662447e-05,8.103842143554748e-05,8.10697197973745e-05
81.57735026920001,25.5773502692,8,0,0.1110740380655333,24.60352767027739,3.212953512072477,-1.932738521441221e-05,7.864242931443524e-05,2.570362809657981e-05,8.030029314358433e-05,8.032197410948946e-05
82.4226497308,24.4226497308,8,0,0.2772863557840894,24.48510892181278,3.179578819628202,-1.870077079894113e-05,7.813051946517361e-05,2.543663055702561e-05,7.97731427517997e-05,7.936215924169611e-05
83.57735026920001,24.4226497308,8,0,0.2187754276850002,24.25106520941642,3.132607460836963,-1.870077079894113e-05,7.742838832798453e-05,2.50608596866957e-05,7.903488164070902e-05,7.856447580575631e-05
82.4226497308,25.5773502692,8,0,0.1520293990074695,24.45379468261862,3.091812427479567,-1.907654166927099e-05,7.813051946517361e-05,2.473449941983654e-05,7.967927746972423e-05,7.976691478153602e-05
83.57735026920001,25.5773502692,8,0,0.09351847090838028,24.21975097022226,3.044841068688349,-1.907654166927099e-05,7.742838832798453e-05,2.435872854950679e-05,7.894174787372594e-05,7.899821018417277e-05
84.42264973080002,24.4226497308,8,0,0.2421840731414431,24.09510541704455,2.975339402090174,-1.850109529958302e-05,7.69105900760294e-05,2.380271521672139e-05,7.837272212255406e-05,7.797228119633039e-05
85.57735026920001,24.4226497308,8,0,0.1828074068678447,23.85759875195016,2.933194433287203,-1.850109529958302e-05,7.619807008074622e-05,2.346555546629763e-05,7.763005208738288e-05,7.715205887128133e-05
84.42264973080002,25.5773502692,8,0,0.1297974896669585,24.06700877117593,2.886274402679777,-1.883825505000648e-05,7.69105900760294e-05,2.309019522143821e-05,7.828299090887562e-05,7.842775172662493e-05
85.57735026920001,25.5773502692,8,0,0.07042082339336186,23.82950210608155,2.84412943387684,-1.883825505000648e-05,7.619807008074625e-05,2.275303547101472e-05,7.754094444026383e-05,7.763793483429388e-05
86.4226497308,24.4226497308,8,0,0.2057615932106005,23.69859429096622,2.73777115422225,-1.830043833449905e-05,7.567089245652341e-05,2.1902169233778e-05,7.693021651012704e-05,7.654343052561513e-05
87.57735026920002,24.4226497308,8,0,0.1451152549799097,23.45600893804346,2.699901810593895,-1.830043833449905e-05,7.494313639775513e-05,2.159921448475116e-05,7.617761898449773e-05,7.570084928730685e-05
86.4226497308,25.5773502692,8,0,0.1047766768683296,23.67334806188065,2.646801646876215,-1.860339308352586e-05,7.567089245652341e-05,2.117441317500972e-05,7.684523043226139e-05,7.705251037358769e-05
87.57735026920002,25.5773502692,8,0,0.04413033863763705,23.43076270895788,2.608932303247867,-1.860339308352586e-05,7.49431363977551e-05,2.087145842598294e-05,7.609317223945063e-05,7.624291789520782e-05
88.42264973080002,24.4226497308,8,0,0.1706182701155861,23.29362149927193,2.464076240921591,-1.808891873504767e-05,7.44030941815777e-05,1.971260992737273e-05,7.544175607231328e-05,7.507720247800325e-05
89.57735026920001,24.4226497308,8,0,0.1083127106053503,23.04439926123099,2.429766379717215,-1.808891873504767e-05,7.365542746745488e-05,1.943813103773772e-05,7.467372780795109e-05,7.421594894724349e-05
88.42264973080002,25.5773502692,8,0,0.07912530690392039,23.27074825846902,2.370617901656225,-1.836339762468266e-05,7.44030941815777e-05,1.89649432132498e-05,7.536245877132898e-05,7.564473800901651e-05
89.57735026920001,25.5773502692,8,0,0.01681974739369618,23.02152602042812,2.336308040451856,-1.836339762468266e-05,7.365542746745501e-05,1.869046432361485e-05,7.459491700644495e-05,7.482007264618648e-05
90.42264973080002,24.4226497308,8,0,0.1390962753608855,22.87829861446097,2.150327201333076,-1.785753081041394e-05,7.309927854598638e-05,1.720261761066461e-05,7.39055128448683e-05,7.358252000876806e-05
91.57735026920001,24.4226497308,8,0,0.07478290903018969,22.62104514913818,2.118689779030307,-1.785753081041394e-05,7.232751815001802e-05,1.694951823224245e-05,7.311698693595338e-05,7.271321349655501e-05
90.42264973080002,25.5773502692,8,0,0.05472981588677062,22.85720699959244,2.053857151837045,-1.811063018883628e-05,7.309927854598638e-05,1.643085721469636e-05,7.383334801438869e-05,7.421497632147204e-05
91.57735026920001,25.5773502692,8,0,-0.009583550443925226,22.59995353426966,2.022219729534239,-1.811063018883628e-05,7.232751815001802e-05,1.617775783627391e-05,7.304529880210031e-05,7.338648778163873e-05
92.42264973080002,24.4226497308,8,0,0.1132255003635434,22.45096420916172,1.791406852144443,-1.759844976616603e-05,7.175250506902665e-05,1.433125481715554e-05,7.232351368790304e-05,7.208260466462949e-05
93.57735026920001,24.4226497308,8,0,0.04662512066491153,22.18456269036719,1.761370846043668,-1.759844976616603e-05,7.095330051264307e-05,1.409096676834934e-05,7.151035919957676e-05,7.122905580824711e-05
92.42264973080002,25.5773502692,8,0,0.03312948409483774,22.43094020509454,1.691506282596529,-1.783873781497215e-05,7.175250506902665e-05,1.353205026077223e-05,7.226060087451075e-05,7.278720166266383e-05
93.57735026920001,25.5773502692,8,0,-0.03347089560378524,22.16453868630005,1.661470276495747,-1.783873781497215e-05,7.095330051264318e-05,1.329176221196598e-05,7.144797362761463e-05,7.197841007711728e-05
94.4226497308,24.4226497308,8,0,0.09465030921607998,22.01035647987265,1.380916907674753,-1.730540419440666e-05,7.035742048821961e-05,1.104733526139802e-05,7.070409787392669e-05,7.062786040228494e-05
95.57735026920002,24.4226497308,8,0,0.02558614708056695,21.7340998313306,1.351206824474157,-1.730540419440666e-05,6.952865054259344e-05,1.080965459579326e-05,6.986377082009096e-05,6.983891286423188e-05
94.4226497308,25.5773502692,8,0,0.01542342068111324,21.99054975773891,1.277320664471452,-1.754308486001156e-05,7.035742048821961e-05,1.021856531577161e-05,7.065340470942402e-05,7.141056173375638e-05
95.57735026920002,25.5773502692,8,0,-0.05364074145439091,21.71429310919689,1.247610581270856,-1.754308486001156e-05,6.952865054259355e-05,9.980884650166852e-06,6.981374005476709e-05,7.066796279418117e-05
96.4226497308,24.4226497308,8,0,0.08452664917682728,21.55581283780855,0.9110541877630636,-1.697416499288099e-05,6.891097976164588e-05,7.288433502104509e-06,6.906533115053029e-05,6.932043945338653e-05
97.57735026920001,24.4226497308,8,0,0.01296514831476525,21.2695668343603,0.8801624214315916,-1.697416499288099e-05,6.805224175130114e-05,7.041299371452733e-06,6.819777060564151e-05,6.869289129057635e-05
96.4226497308,25.5773502692,8,0,0.002148605626226541,21.5352183269209,0.8037119364699539,-1.722129912353279e-05,6.891097976164588e-05,6.429695491759631e-06,6.903080577680378e-05,7.018152191543102e-05
97.57735026920001,25.5773502692,8,0,-0.0694128952358426,21.24897232347262,0.7728201701384956,-1.722129912353279e-05,6.805224175130106e-05,6.182561361107964e-06,6.816415795545192e-05,6.959513965932589e-05
98.42264973080002,24.4226497308,8,0,0.08337629383200618,21.08751377338108,0.3724543346715345,-1.660320687844244e-05,6.741334303975383e-05,2.979634677372276e-06,6.743975281531073e-05,6.83620521573116e-05
99.57735026920002,24.4226497308,8,0,0.009479149618121241,20.79192519652554,0.3386068416074304,-1.660320687844244e-05,6.652657730918721e-05,2.708854732859443e-06,6.654863903819287e-05,6.808573099887199e-05
98.42264973080002,25.5773502692,8,0,-0.00688368767226688,21.06494877800501,0.2616086183507071,-1.687398682295526e-05,6.741334303975383e-05,2.092868946805657e-06,6.742633261220697e-05,6.92866529936441e-05
99.57735026920002,25.5773502692,8,0,-0.08078083188615182,20.76936020114947,0.2277611252865996,-1.687398682295526e-05,6.652657730918721e-05,1.822089002292797e-06,6.653652811795104e-05,6.903023400561326e-05
0.4226497308,26.4226497308,8,0,-0.06005455102512436,-2.39965772811358,-0.3624800064406901,1.727551619210466e-06,-7.630861089143355e-06,-2.899840051525521e-06,1.947043070172944e-06,3.570531539034362e-06
1.5773502692,26.4226497308,8,0,0.1514844747803089,-1.553501624891847,-0.3877133345051882,1.727551619210466e-06,-5.092392779478157e-06,-3.101706676041506e-06,2.063651559634847e-06,3.81400838779743e-06
0.4226497308,27.5773502692,8,0,-0.127343425864039,-2.416479946823308,-0.0451714677325403,1.525684994693722e-06,-7.630861089143355e-06,-3.613717418603224e-07,1.529249076714861e-06,3.695997985352056e-06
1.5773502692,27.5773502692,8,0,0.08419559994139419,-1.570323843601576,-0.07040479579710621,1.525684994693722e-06,-5.092392779478157e-06,-5.632383663768496e-07,1.537647119439406e-06,3.980764112740413e-06
2.4226497308,26.4226497308,8,0,0.0004423723966892612,-1.032346499021424,-0.748045453377553,8.272927908865445e-07,-3.303862694785907e-06,-5.984363627020424e-06,2.39761430639091e-06,4.207705980624597e-06
3.5773502692,26.4226497308,8,0,0.1960996017957561,-0.2497175814251563,-0.7749290631290446,8.272927908865445e-07,-9.559759419971049e-07,-6.199432505032357e-06,3.161065792442297e-06,5.039830958328643e-06
2.4226497308,27.5773502692,8,0,-0.0712472536071983,-1.050268905522396,-0.4545596092789391,6.122239128748819e-07,-3.303862694785907e-06,-3.636476874231513e-06,1.326244342169166e-06,4.426544279432161e-06
3.5773502692,27.5773502692,8,0,0.1244099757918866,-0.2676399879260559,-0.4814432190304173,6.122239128748819e-07,-9.55975941996888e-07,-3.851545752243338e-06,1.90740604100791e-06,5.359672216503961e-06
4.422649730800001,26.4226497308,8,0,0.1022458554698779,0.2484851292222279,-1.110910796936699,1.28398634125827e-07,7.133557291352267e-07,-8.887286375493589e-06,4.874135368706474e-06,5.872723546389965e-06
5.577350269200001,26.4226497308,8,0,0.2866468711051783,0.9860891917634296,-1.143597806267947,1.28398634125827e-07,2.926167916758832e-06,-9.148782450143578e-06,6.310789658810599e-06,7.316103436613727e-06
4.422649730800001,27.5773502692,8,0,0.01508049725326902,0.2266937896682112,-0.8343092734838429,-1.330974405241081e-07,7.133557291356604e-07,-6.674474187870743e-06,3.654095874706802e-06,6.264359758347491e-06
5.577350269200001,27.5773502692,8,0,0.1994815128885514,0.9642978522093406,-0.8669962828151186,-1.330974405241081e-07,2.926167916759048e-06,-6.935970262520949e-06,5.186877835061966e-06,7.80288415067189e-06
6.422649730800001,26.4226497308,8,0,0.2280522424516601,1.468915710928699,-1.471047494591295,-4.453653928976472e-07,4.518088481010509e-06,-1.176837995673036e-05,8.422491850517197e-06,8.52542333213894e-06
7.577350269200001,26.4226497308,8,0,0.4060852154277095,2.181047602832897,-1.512213328225387,-4.453653928976472e-07,6.654484156723103e-06,-1.209770662580309e-05,1.011815990573874e-05,1.038596683923441e-05
6.422649730800001,27.5773502692,8,0,0.1182766860942621,1.44147182183935,-1.203998035127221,-7.746920619698412e-07,4.518088481010509e-06,-9.631984281017764e-06,7.366892634331995e-06,9.068815369888109e-06
7.577350269200001,27.5773502692,8,0,0.2963096590703025,2.153603713743512,-1.245163868761312,-7.746920619698412e-07,6.654484156722994e-06,-9.9613109500905e-06,9.153195797364181e-06,1.098887938749708e-05
8.4226497308,26.4226497308,8,0,0.3604091494350477,2.656210225463358,-1.839701051784733,-9.716589021785339e-07,8.211545401934708e-06,-1.471760841427786e-05,1.229374343674985e-05,1.184195490777397e-05
9.5773502692,26.4226497308,8,0,0.5368737125085028,3.362068477757179,-1.89075854667622,-9.716589021785339e-07,1.032912015881617e-05,-1.512606837340976e-05,1.4119407932179e-05,1.395924477931176e-05
8.4226497308,27.5773502692,8,0,0.2242558297243605,2.622171895535687,-1.57500420717451,-1.380118861310595e-06,8.211545401934708e-06,-1.260003365739608e-05,1.133342871585459e-05,1.247722039213103e-05
9.5773502692,27.5773502692,8,0,0.4007203927978517,3.328030147829651,-1.626061702066051,-1.380118861310595e-06,1.03291201588166e-05,-1.300849361652841e-05,1.322560321645454e-05,1.4623379618343e-05
10.4226497308,26.4226497308,8,0,0.482518305867391,3.836854717212213,-2.220556035927427,-1.525425194994119e-06,1.189192045038517e-05,-1.776444828741942e-05,1.631429415445995e-05,1.557287954339236e-05
11.5773502692,26.4226497308,8,0,0.6618578926964248,4.554213064528348,-2.281796854995428,-1.525425194994119e-06,1.404399549233357e-05,-1.825437483996342e-05,1.825542058197571e-05,1.78641218323696e-05
10.4226497308,27.5773502692,8,0,0.3192094550194811,3.796027504500235,-1.951546655683863,-2.015351747537849e-06,1.189192045038517e-05,-1.561237324547091e-05,1.53924512042032e-05,1.62489771586588e-05
11.5773502692,27.5773502692,8,0,0.4985490418485058,4.513385851816334,-2.012787474751823,-2.015351747537849e-06,1.404399549233346e-05,-1.610229979801458e-05,1.738519137032873e-05,1.854403300543741e-05
12.4226497308,26.4226497308,8,0,0.5789308372124606,5.03502068019267,-2.610624015296335,-2.175437865074262e-06,1.564892150684657e-05,-2.088499212237068e-05,2.046527672970716e-05,1.959102154259432e-05
13.5773502692,26.4226497308,8,0,0.7649862015686371,5.779242137617376,-2.681305224719614,-2.175437865074262e-06,1.788158587912069e-05,-2.145044179775691e-05,2.253644602092177e-05,2.201775700172756e-05
12.4226497308,27.5773502692,8,0,0.3904476120837883,4.987899873910503,-2.331540968761975,-2.740887540460279e-06,1.564892150684657e-05,-1.86523277500958e-05,1.955071892770386e-05,2.026567765676107e-05
13.5773502692,27.5773502692,8,0,0.5765029764400007,5.732121331335352,-2.402222178185228,-2.740887540460279e-06,1.788158587912112e-05,-1.921777742548182e-05,2.166475744989243e-05,2.267424247017788e-05
14.4226497308,26.4226497308,8,0,0.6363771020794925,6.271156486766755,-3.001010871462402,-2.980518462759028e-06,1.955859907599002e-05,-2.400808697169922e-05,2.475415539478159e-05,2.383638038774009e-05
15.5773502692,26.4226497308,8,0,0.8321288426401966,7.054163449009572,-3.079436200753512,-2.980518462759028e-06,2.190761996271847e-05,-2.463548960602809e-05,2.697302520250433e-05,2.637821641923725e-05
14.4226497308,27.5773502692,8,0,0.4272428906365329,6.218872933906015,-2.707383260621332,-3.607921097087906e-06,1.955859907599002e-05,-2.165906608497066e-05,2.383253609835678e-05,2.447220785186256e-05
15.5773502692,27.5773502692,8,0,0.622994631197237,7.001879896148831,-2.785808589912469,-3.607921097087906e-06,2.190761996271847e-05,-2.228646871929975e-05,2.60889279463516e-05,2.697577581166712e-05
16.4226497308,26.4226497308,8,0,0.6448048214917887,7.560566194208979,-3.377818384424971,-3.985077526593459e-06,2.36779679642753e-05,-2.702254707539977e-05,2.918204797820732e-05,2.827476796112613e-05
17.5773502692,26.4226497308,8,0,0.8521098048924713,8.389786127811709,-3.461476185058262,-3.985077526593459e-06,2.616562776508349e-05,-2.76918094804661e-05,3.155916213031617e-05,3.091440710146275e-05
16.4226497308,27.5773502692,8,0,0.4217173531364344,7.50479432712014,-3.066860909323947,-4.654339931659522e-06,2.36779679642753e-05,-2.453488727459157e-05,2.825134685658279e-05,2.883767751980368e-05
17.5773502692,27.5773502692,8,0,0.6290223365371534,8.334014260723016,-3.150518709957252,-4.654339931659522e-06,2.616562776508393e-05,-2.520414967965802e-05,3.066242397968895e-05,3.142091962554373e-05
18.4226497308,26.4226497308,8,0,0.598505846783389,8.912028948713733,-3.723439080666646,-5.21440444926414e-06,2.803968795845723e-05,-2.978751264533317e-05,3.373488722552283e-05,3.287468868654863e-05
19.5773502692,26.4226497308,8,0,0.8178698354624543,9.789484903429994,-3.809248481234656,-5.21440444926414e-06,3.067205582260601e-05,-3.047398784987725e-05,3.626869594076846e-05,3.559063843403597e-05
18.4226497308,27.5773502692,8,0,0.3696807786021024,8.854822681668411,-3.394393097648117,-5.900879653808e-06,2.803968795845723e-05,-2.715514478118493e-05,3.280281171953473e-05,3.333429500551239e-05
19.5773502692,27.5773502692,8,0,0.5890447672811223,9.732278636384491,-3.480202498216045,-5.900879653808e-06,3.067205582260547e-05,-2.784161998572836e-05,3.536783891406951e-05,3.597849165202034e-05
20.4226497308,26.4226497308,8,0,0.4970332050076194,10.32669460093523,-4.018393437016609,-6.670849424723798e-06,3.264779615898663e-05,-3.214714749613288e-05,3.838234557419917e-05,3.759648395191551e-05
21.5773502692,26.4226497308,8,0,0.7274877981440264,11.24851297348085,-4.103072868827913,-6.670849424723798e-06,3.541325127662351e-05,-3.28245829506233e-05,4.105698730055146e-05,4.036060607164238e-05
20.4226497308,27.5773502692,8,0,0.271221386844045,10.27024164639433,-3.672711547311931,-7.348284879214522e-06,3.264779615898663e-05,-2.938169237849545e-05,3.746391664443591e-05,3.792758176913864e-05
21.5773502692,27.5773502692,8,0,0.5016759799804431,11.19206001893993,-3.757390979123275,-7.348284879214522e-06,3.54132512766234e-05,-3.00591278329862e-05,4.016723085621416e-05,4.060839835135466e-05
22.4226497308,26.4226497308,8,0,0.3455262206315783,11.79760174471729,-4.243639872091138,-8.332397489752783e-06,3.747590460659008e-05,-3.39491189767291e-05,4.308027518023341e-05,4.238921256407323e-05
23.5773502692,26.4226497308,8,0,0.5846777688376781,12.75420793754169,-4.324156077886056,-8.332397489752783e-06,4.034572318506327e-05,-3.459324862308845e-05,4.586571626002402e-05,4.516734645046716e-05
22.4226497308,27.5773502692,8,0,0.1308163385117136,11.74392427418719,-3.884912549782056,-8.976527136112271e-06,3.747590460658964e-05,-3.107930039825645e-05,4.219495366534556e-05,4.257349393470711e-05
23.5773502692,27.5773502692,8,0,0.3699678867178675,12.70053046701181,-3.965428755576974,-8.976527136112271e-06,4.034572318506349e-05,-3.17234300446158e-05,4.50063492961014e-05,4.526141832816746e-05
24.4226497308,26.4226497308,8,0,0.1541432979342678,13.31013317835068,-4.383023386417763,-1.015484798929089e-05,4.246911153237476e-05,-3.506418709134211e-05,4.777507893812182e-05,4.719240649679143e-05
25.5773502692,26.4226497308,8,0,0.3984254871699435,14.28726193529338,-4.457024906473085,-1.015484798929089e-05,4.540049780320287e-05,-3.565619925178468e-05,5.062949465416967e-05,4.994683954556843e-05
24.4226497308,27.5773502692,8,0,-0.04319408887986853,13.26079883164715,-4.016600102564182,-1.074686014973329e-05,4.246911153237476e-05,-3.213280082051346e-05,4.694350225200909e-05,4.721974512052176e-05
25.5773502692,27.5773502692,8,0,0.2010881003557894,14.23792758858978,-4.090601622619503,-1.074686014973329e-05,4.540049780320265e-05,-3.272481298095603e-05,4.982081515580164e-05,4.98820690218242e-05
26.4226497308,26.4226497308,8,0,-0.06342650460231347,14.8435201050705,-4.425340330160333,-1.20777808987838e-05,4.755000553990744e-05,-3.540272264128267e-05,5.240896079740953e-05,5.194063849352986e-05
27.57735026920001,26.4226497308,8,0,0.1816716685111324,15.82391279752428,-4.491459588196677,-1.20777808987838e-05,5.04911836172688e-05,-3.593167670557342e-05,5.528287324417541e-05,5.46333654708925e-05
26.4226497308,27.5773502692,8,0,-0.2397445260327173,14.79944059971283,-4.057693070490178,-1.260673496307496e-05,4.755000553990723e-05,-3.246154456392142e-05,5.164979097087871e-05,5.180947666022108e-05
27.57735026920001,27.5773502692,8,0,0.005353647080765356,15.77983329216676,-4.123812328526549,-1.260673496307496e-05,5.049118361726901e-05,-3.299049862821239e-05,5.454320861443732e-05,5.441292835413911e-05
28.4226497308,26.4226497308,8,0,-0.2920496863009712,16.37318250326256,-4.36551563758738,-1.403310499877315e-05,5.262782375948095e-05,-3.492412510069904e-05,5.692505508764611e-05,5.656910344690588e-05
29.5773502692,26.4226497308,8,0,-0.05069707389257783,17.33859295289613,-4.423456836579004,-1.403310499877315e-05,5.552405510838166e-05,-3.538765469263204e-05,5.976625357989692e-05,5.916491097037717e-05
28.4226497308,27.5773502692,8,0,-0.4465595502786455,16.33455503726814,-4.003486718974784,-1.449663459070617e-05,5.262782375948095e-05,-3.202789375179827e-05,5.625255092321164e-05,5.628577821787123e-05
29.5773502692,27.5773502692,8,0,-0.2052069378702797,17.2999654869016,-4.061427917966443,-1.449663459070617e-05,5.552405510838134e-05,-3.249142334373154e-05,5.910966074861527e-05,5.879904750683531e-05
30.4226497308,26.4226497308,8,0,-0.517260251397996,17.87339844018595,-4.204650639557337,-1.595395155662234e-05,5.760868320971342e-05,-3.363720511645869e-05,6.127153352045422e-05,6.101863098083139e-05
31.5773502692,26.4226497308,8,0,-0.2840037064757857,18.80642461987479,-4.255057171059526,-1.595395155662234e-05,6.040776174877995e-05,-3.40404573684762e-05,6.402960834835514e-05,6.348728070914347e-05
30.4226497308,27.5773502692,8,0,-0.6516776687370482,17.83979408585119,-3.854765822174008,-1.63572038086395e-05,5.760868320971342e-05,-3.083812657739206e-05,6.069425131881087e-05,6.059581854626707e-05
31.5773502692,27.5773502692,8,0,-0.418421123814861,18.77282026553993,-3.905172353676182,-1.63572038086395e-05,6.040776174877967e-05,-3.124137882940946e-05,6.346464337215288e-05,6.299141902680758e-05
32.4226497308,26.4226497308,8,0,-0.7268446129186232,19.31969477505599,-3.949088546871128,-1.778165858138439e-05,6.240449897051406e-05,-3.159270837496903e-05,6.540410833711321e-05,6.523902385501257e-05
33.57735026920001,26.4226497308,8,0,-0.5055021962264172,20.20506444182481,-3.993261521581924,-1.778165858138439e-05,6.506060797082053e-05,-3.194609217265539e-05,6.803371399614761e-05,6.755622540322892e-05
32.4226497308,27.5773502692,8,0,-0.8446392121475039,19.29024612524877,-3.617074921832765,-1.813504237907103e-05,6.240449897051406e-05,-2.893659937466212e-05,6.49247519699707e-05,6.469373813758483e-05
33.57735026920001,27.5773502692,8,0,-0.6232967954552979,20.1756157920176,-3.661247896543561,-1.813504237907103e-05,6.506060797082053e-05,-2.928998317234849e-05,6.75632911585282e-05,6.694895995858094e-05
34.42264973080001,26.4226497308,8,0,-0.9116178609273202,20.69051369578355,-3.608945753660015,-1.946958811159427e-05,6.693893811524922e-05,-2.887156602928012e-05,6.928684489986356e-05,6.919035234796372e-05
35.5773502692,26.4226497308,8,0,-0.705319161937358,21.5157084917434,-3.648522602907865,-1.946958811159427e-05,6.941452250312877e-05,-2.918818082326292e-05,7.174942471638261e-05,7.133766863896994e-05
34.42264973080001,27.5773502692,8,0,-1.017156125588246,20.66412912961846,-3.29949770517507,-1.978620290557715e-05,6.693893811524966e-05,-2.639598164140057e-05,6.890295453760523e-05,6.854199490087423e-05
35.5773502692,27.5773502692,8,0,-0.8108574265983322,21.48932392557811,-3.339074554422928,-1.978620290557715e-05,6.941452250312861e-05,-2.671259643538342e-05,7.13714691651872e-05,7.063902548064095e-05
36.4226497308,26.4226497308,8,0,-1.065462364459265,21.9680343934809,-3.196616230142531,-2.098390708105436e-05,7.115007995070629e-05,-2.557292984114025e-05,7.289167956155508e-05,7.284255919004449e-05
37.5773502692,26.4226497308,8,0,-0.8766251362461821,22.72338330633323,-3.233300378031599,-2.098390708105436e-05,7.341612668926328e-05,-2.586640302425279e-05,7.51559636587345e-05,7.480668034457907e-05
36.4226497308,27.5773502692,8,0,-1.163286758830158,21.94357829488818,-2.91336038782286,-2.127738026416704e-05,7.115007995070629e-05,-2.330688310258288e-05,7.259672699696369e-05,7.211137668701731e-05
37.5773502692,27.5773502692,8,0,-0.9744495306170666,22.69892720774054,-2.950044535711941,-2.127738026416704e-05,7.341612668926339e-05,-2.360035628569553e-05,7.486444744128345e-05,7.403688440982719e-05
38.4226497308,26.4226497308,8,0,-1.184926756724525,23.13832824250019,-2.725587043866079,-2.230242821551863e-05,7.499059178138023e-05,-2.180469635092863e-05,7.61973076641944e-05,7.617414446050101e-05
39.5773502692,26.4226497308,8,0,-1.015304099388578,23.81681887184398,-2.760969037857499,-2.230242821551863e-05,7.70260636694116e-05,-2.208775230285999e-05,7.823916558905293e-05,7.794600474835125e-05
38.4226497308,27.5773502692,8,0,-1.279278740701626,23.11474024650578,-2.471153057862158,-2.258548416744983e-05,7.49905917813798e-05,-1.976922446289726e-05,7.598184878348153e-05,7.538020731331189e-05
39.5773502692,27.5773502692,8,0,-1.109656083365647,23.7932308758497,-2.506535051853537,-2.258548416744983e-05,7.702606366941154e-05,-2.00522804148283e-05,7.802519702451652e-05,7.712472601394921e-05
40.4226497308,26.4226497308,8,0,-1.268713266656466,24.19115630493932,-2.20964332223212,-2.341280749725214e-05,7.842667078913098e-05,-1.767714657785696e-05,7.918807145723263e-05,7.917068690991635e-05
41.5773502692,26.4226497308,8,0,-1.119458439602543,24.78817561315501,-2.245101083882079,-2.341280749725214e-05,8.021772871377806e-05,-1.796080867105663e-05,8.099019369190126e-05,8.074472051072744e-05
40.4226497308,27.5773502692,8,0,-1.36326729772303,24.16751779717268,-1.985761081651236,-2.369646959045184e-05,7.842667078913098e-05,-1.588608865320989e-05,7.904078059894292e-05,7.833329031458435e-05
41.5773502692,27.5773502692,8,0,-1.214012470669084,24.76453710538846,-2.021218843301228,-2.369646959045184e-05,8.021772871377833e-05,-1.616975074640982e-05,8.08429969684563e-05,7.989063068763661e-05
42.4226497308,26.4226497308,8,0,-1.317227694563843,25.11966079142229,-1.662339315939453,-2.431085725574213e-05,8.143669668820241e-05,-1.329871452751563e-05,8.185316500843116e-05,8.182361398289577e-05
43.57735026920001,26.4226497308,8,0,-1.188958985028796,25.63273562956248,-1.698981474540308,-2.431085725574213e-05,8.297592120262297e-05,-1.359185179632247e-05,8.34046857756229e-05,8.319717216412825e-05
42.4226497308,27.5773502692,8,0,-1.414940117499529,25.09523268568837,-1.46993625163691,-2.460399452454919e-05,8.143669668820241e-05,-1.175949001309528e-05,8.176172060497786e-05,8.096091784758751e-05
43.57735026920001,27.5773502692,8,0,-1.2866714079645,25.60830752382849,-1.506578410237752,-2.460399452454919e-05,8.297592120262275e-05,-1.205262728190201e-05,8.331244505608049e-05,8.232765637433408e-05
44.4226497308,26.4226497308,8,0,-1.332157246131591,25.92003127322168,-1.096587070911616,-2.499892820619843e-05,8.400982587121464e-05,-8.772696567292931e-06,8.418604107182943e-05,8.412919466402097e-05
45.5773502692,26.4226497308,8,0,-1.225035948592029,26.34851646337993,-1.13522138116097,-2.499892820619843e-05,8.529528144168939e-05,-9.081771049287762e-06,8.548191688361741e-05,8.530196930640103e-05
44.4226497308,27.5773502692,8,0,-1.435182073463301,25.89427506638875,-0.9359051246022525,-2.530800268819356e-05,8.400982587121464e-05,-7.48724099681802e-06,8.4137877237293e-05,8.325799258282961e-05
45.5773502692,27.5773502692,8,0,-1.328060775923739,26.322760256547,-0.9745394348516266,-2.530800268819356e-05,8.529528144168939e-05,-7.796315478813013e-06,8.543249983437455e-05,8.443297984592191e-05
46.42264973080001,26.4226497308,8,0,-1.315973963790331,26.59109336276201,-0.5243617883380207,-2.548399137433866e-05,8.614427793187068e-05,-4.194894306704165e-06,8.618367415762813e-05,8.60875187936196e-05
47.57735026920001,26.4226497308,8,0,-1.229803465769732,26.9357753548444,-0.5655052706028221,-2.548399137433866e-05,8.717832390811787e-05,-4.524042164822577e-06,8.722372221506882e-05,8.706090526227158e-05
46.42264973080001,27.5773502692,8,0,-1.425689916496378,26.5636643745855,-0.3951060413071223,-2.58131392324568e-05,8.614427793187068e-05,-3.160848330456979e-06,8.616658322507217e-05,8.522318094495391e-05
47.57735026920001,27.5773502692,8,0,-1.339519418475792,26.90834636666784,-0.4362495235719238,-2.58131392324568e-05,8.717832390811771e-05,-3.48999618857539e-06,8.720526658464064e-05,8.620706323270554e-05
48.4226497308,26.4226497308,8,0,-1.271404797655167,27.13381241411268,0.0433332652945243,-2.577554528378667e-05,8.78453235632847e-05,3.466661223561944e-07,8.784558798900579e-05,8.770145052513278e-05
49.57735026920001,26.4226497308,8,0,-1.205718883457153,27.39655607090474,-0.0006233529245013611,-2.577554528378667e-05,8.863355453366087e-05,-4.986823396010889e-09,8.863355458800184e-05,8.847806625923957e-05
48.4226497308,27.5773502692,8,0,-1.388622446239145,27.10450800196669,0.1418621365915527,-2.612719822953861e-05,8.78453235632847e-05,1.134897092732422e-06,8.784814871680606e-05,8.685814478343211e-05
49.57735026920001,27.5773502692,8,0,-1.322936532041144,27.36725165875869,0.09790551837256094,-2.612719822953861e-05,8.863355453366071e-05,7.832441469804875e-07,8.863489093185252e-05,8.765305037221181e-05
50.42264973080001,26.4226497308,8,0,-1.201136357146114,27.55088293526476,0.5961836288848426,-2.588434269107937e-05,8.91237344785641e-05,4.769469031078741e-06,8.917316157804562e-05,8.897598734735545e-05
51.57735026920001,26.4226497308,8,0,-1.155222561812113,27.73453811660076,0.5491999020212643,-2.588434269107937e-05,8.967470002257212e-05,4.393599216170115e-06,8.971644652405232e-05,8.955971732419913e-05
50.42264973080001,27.5773502692,8,0,-1.326426295449036,27.51956045068903,0.6650543218858648,-2.626021250598813e-05,8.91237344785641e-05,5.320434575086918e-06,8.91850341528405e-05,8.816713837811383e-05
51.57735026920001,27.5773502692,8,0,-1.280512500115035,27.70321563202503,0.6180705950222323,-2.626021250598813e-05,8.967470002257212e-05,4.944564760177858e-06,8.972739685976292e-05,8.877674734107988e-05
52.4226497308,26.4226497308,8,0,-1.107965719578797,27.84665303742648,1.124187246992445,-2.582281273259333e-05,8.999566229542775e-05,8.993497975939564e-06,9.016998993469351e-05,8.991858284281247e-05
53.5773502692,26.4226497308,8,0,-1.080805745180146,27.95529293502108,1.073954014162964,-2.582281273259333e-05,9.032158198821156e-05,8.591632113303716e-06,9.048025394862657e-05,9.031529169594663e-05
52.4226497308,27.5773502692,8,0,-1.241921007123979,27.81316421554018,1.164927208590401,-2.622467859522888e-05,8.999566229542775e-05,9.319417668723212e-06,9.018218811675022e-05,8.915729051450855e-05
53.5773502692,27.5773502692,8,0,-1.214761032725342,27.92180411313473,1.114693975760948,-2.622467859522888e-05,9.03215819882114e-05,8.917551806087581e-06,9.049191494559513e-05,8.958734483586729e-05
54.42264973080001,26.4226497308,8,0,-0.9953105910247046,28.02743030095145,1.617569115874925,-2.560693813204022e-05,9.04840254358644e-05,1.29405529269994e-05,9.084353002332784e-05,9.054050346644181e-05
55.57735026920001,26.4226497308,8,0,-0.9854869193930886,28.06672498747792,1.563850600683366,-2.560693813204022e-05,9.06019094954438e-05,1.251080480546693e-05,9.093766129700152e-05,9.07590846127892e-05
54.42264973080001,27.5773502692,8,0,-1.138559964868991,27.99161795749038,1.63230462332239,-2.603668625357307e-05,9.04840254358644e-05,1.305843698657912e-05,9.084874747839769e-05,8.983956103394511e-05
55.57735026920001,27.5773502692,8,0,-1.128736293237375,28.03091264401685,1.578586108130797,-2.603668625357307e-05,9.06019094954438e-05,1.262868886504637e-05,9.094274672296338e-05,9.009857418025608e-05
56.4226497308,26.4226497308,8,0,-0.8676925409860745,28.10189735638909,2.067213195580262,-2.525813401626671e-05,9.062022557323394e-05,1.653770556464209e-05,9.120730041368219e-05,9.085853947870132e-05
57.57735026920001,26.4226497308,8,0,-0.8733461746910312,28.07928282156927,2.009855661698031,-2.525813401626671e-05,9.055238196877446e-05,1.607884529358425e-05,9.110780494794735e-05,9.091167407909739e-05
56.4226497308,27.5773502692,8,0,-1.020645964672013,28.06365900046761,2.058732745022793,-2.571699428732452e-05,9.062022557323394e-05,1.646986196018234e-05,9.120024345218823e-05,9.022988571419615e-05
57.57735026920001,27.5773502692,8,0,-1.026299598376964,28.0410444656478,2.001375211140596,-2.571699428732452e-05,9.055238196877452e-05,1.601100168912477e-05,9.110099647033056e-05,9.032962235024458e-05
58.4226497308,26.4226497308,8,0,-0.7308117558790883,28.08122040130299,2.465474957956202,-2.480357393985547e-05,9.044455468887281e-05,1.972379966364962e-05,9.128235706039992e-05,9.089602489366732e-05
59.57735026920001,26.4226497308,8,0,-0.7497072561029343,28.0056384004076,2.404542684334759,-2.480357393985547e-05,9.021780868618667e-05,1.923634147467807e-05,9.101654048499378e-05,9.080013592357743e-05
58.4226497308,27.5773502692,8,0,-0.8932978188696836,28.04059888555534,2.437131707620467,-2.529103212882725e-05,9.044455468887281e-05,1.949705366096374e-05,9.125993850632821e-05,9.034979272309077e-05
59.57735026920001,27.5773502692,8,0,-0.9121933190935296,27.96501688465995,2.376199433998971,-2.529103212882725e-05,9.021780868618667e-05,1.900959547199176e-05,9.099469833243854e-05,9.03051625704681e-05
60.4226497308,26.4226497308,8,0,-0.5911148688929346,27.97859506365316,2.806990064564939,-2.427444363137991e-05,9.000439609880445e-05,2.245592051651951e-05,9.109710133730394e-05,9.068242493501312e-05
61.5773502692,26.4226497308,8,0,-0.6208072046464501,27.8598257206391,2.74286563097831,-2.427444363137991e-05,8.964808806976226e-05,2.194292504782648e-05,9.069508712353966e-05,9.045672150372247e-05
60.4226497308,27.5773502692,8,0,-0.7621133584571504,27.93584544126211,2.76245156093468,-2.478743910007256e-05,9.000439609880445e-05,2.209961248747744e-05,9.105836793558046e-05,9.022597385394013e-05
61.5773502692,27.5773502692,8,0,-0.7918056942106482,27.81707609824812,2.698327127348058,-2.478743910007256e-05,8.964808806976248e-05,2.158661701878446e-05,9.06571909490334e-05,9.005425640961295e-05
62.42264973080001,26.4226497308,8,0,-0.4550316307526581,27.80828919702113,3.089115240318709,-2.370273257602541e-05,8.935055073506972e-05,2.471292192254967e-05,9.068532406690554e-05,9.025145873550291e-05
63.57735026920001,26.4226497308,8,0,-0.4930798879627867,27.65609616818061,3.02251397041782,-2.370273257602541e-05,8.889397164854818e-05,2.418011176334256e-05,9.017750819737566e-05,8.991637385509163e-05
62.42264973080001,27.5773502692,8,0,-0.6326350171550468,27.76388835042053,3.032042854503564,-2.423554273523257e-05,8.935055073506972e-05,2.425634283602851e-05,9.063110126585175e-05,8.988877045731914e-05
63.57735026920001,27.5773502692,8,0,-0.6706832743651754,27.61169532158002,2.965441584602661,-2.423554273523257e-05,8.889397164854818e-05,2.372353267682129e-05,9.012431162626697e-05,8.960837187202148e-05
64.4226497308,26.4226497308,8,0,-0.3282055349603317,27.584472664108,3.311850675387447,-2.311783584315946e-05,8.853287695311386e-05,2.649480540309958e-05,9.008316081559657e-05,8.963834883123388e-05
65.57735026920001,26.4226497308,8,0,-0.3723680322762704,27.40782267484425,3.24375191398522,-2.311783584315946e-05,8.80029269853226e-05,2.595001531188176e-05,8.949784161419807e-05,8.921385522065794e-05
64.4226497308,27.5773502692,8,0,-0.5098022320329019,27.53907348983986,3.24560692941356,-2.366262593437717e-05,8.853287695311386e-05,2.596485543530848e-05,9.001551406735194e-05,8.936997511655902e-05
65.57735026920001,27.5773502692,8,0,-0.5539647293488263,27.36242350057616,3.177508168011333,-2.366262593437717e-05,8.800292698532276e-05,2.542006534409066e-05,8.943134032921365e-05,8.8999061653546e-05
66.4226497308,26.4226497308,8,0,-0.2149521806841612,27.32016984990314,3.47733463207973,-2.254398285811182e-05,8.759650526423736e-05,2.781867705663784e-05,8.932592211096532e-05,8.887701148184185e-05
67.57735026920001,26.4226497308,8,0,-0.2633200826475548,27.12669824204956,3.408862871914977,-2.254398285811182e-05,8.701609044067663e-05,2.727090297531982e-05,8.868760782287043e-05,8.838123088372165e-05
66.4226497308,27.5773502692,8,0,-0.3975435411235946,27.27452200979328,3.404782779134653,-2.309175693943012e-05,8.759650526423736e-05,2.723826223307723e-05,8.924758080108887e-05,8.870053467479045e-05
67.57735026920001,27.5773502692,8,0,-0.4459114430870015,27.08105040193965,3.33631101896988,-2.309175693943012e-05,8.701609044067647e-05,2.669048815175904e-05,8.86104681648316e-05,8.825585726437857e-05
68.42264973080002,26.4226497308,8,0,-0.1180412631255452,27.0265459868374,3.589120055837189,-2.199896883147166e-05,8.657938016838011e-05,2.871296044669751e-05,8.844555262924511e-05,8.799783089752227e-05
69.57735026920001,26.4226497308,8,0,-0.1690995821748542,26.82231271064016,3.521419027377821,-2.199896883147166e-05,8.59666803397884e-05,2.817135221902257e-05,8.777410240807592e-05,8.744614325368003e-05
68.42264973080002,27.5773502692,8,0,-0.2985773390171911,26.98141196786449,3.512532577263258,-2.25405770591466e-05,8.657938016838011e-05,2.810026061810607e-05,8.835941777786331e-05,8.790864986207183e-05
69.57735026920001,27.5773502692,8,0,-0.3496356580664912,26.77717869166729,3.444831548803871,-2.25405770591466e-05,8.59666803397885e-05,2.755865239043097e-05,8.768917206192431e-05,8.740473900857741e-05
70.4226497308,26.4226497308,8,0,-0.0387486754124744,26.71258016387722,3.651441859547387,-2.149405989242169e-05,8.551125546473707e-05,2.92115348763791e-05,8.746905956867197e-05,8.702630244967936e-05
71.57735026920001,26.4226497308,8,0,-0.09137734784024421,26.50206547416614,3.585570074756498,-2.149405989242169e-05,8.487971139560383e-05,2.868456059805199e-05,8.677953747669879e-05,8.64309636858525e-05
70.4226497308,27.5773502692,8,0,-0.2144067681881605,26.6686656406833,3.572498850905746,-2.202103417074875e-05,8.551125546473707e-05,2.857999080724597e-05,8.737785547589927e-05,8.701852910898662e-05
71.57735026920001,27.5773502692,8,0,-0.2670354406159214,26.45815095097225,3.506627066114857,-2.202103417074875e-05,8.487971139560394e-05,2.805301652891886e-05,8.66894986262519e-05,8.646729489436802e-05
72.4226497308,26.4226497308,8,0,0.02292313684260527,26.38505644292886,3.668602212714953,-2.103469111644675e-05,8.441384210789826e-05,2.934881770171963e-05,8.641787315711516e-05,8.598251808749267e-05
73.57735026920001,26.4226497308,8,0,-0.03051307104222012,26.17131161138956,3.605462002237106,-2.103469111644675e-05,8.377260761328035e-05,2.884369601789685e-05,8.572088707112534e-05,8.535268069211776e-05
72.4226497308,27.5773502692,8,0,-0.1454507577648609,26.34296296927699,3.588447900887678,-2.153981280026915e-05,8.441384210789826e-05,2.870758320710142e-05,8.632394916921558e-05,8.604982206922349e-05
73.57735026920001,27.5773502692,8,0,-0.1988869656496819,26.12921813773771,3.525307690409885,-2.153981280026915e-05,8.377260761328041e-05,2.820246152327908e-05,8.562805838223687e-05,8.546049931471938e-05
74.4226497308,26.4226497308,8,0,0.06795861154812499,26.04876291588945,3.644520529267091,-2.062154277575756e-05,8.330167444160774e-05,2.915616423413672e-05,8.530791966660938e-05,8.488130054830441e-05
75.57735026920001,26.4226497308,8,0,0.01417704009677401,25.83363663008405,3.584819000738693,-2.062154277575756e-05,8.265629558419153e-05,2.867855200590954e-05,8.461021930664993e-05,8.422330344104734e-05
74.4226497308,27.5773502692,8,0,-0.09124546452757087,26.00896189687053,3.563848172090064,-2.109915500398465e-05,8.330167444160774e-05,2.851078537672051e-05,8.521317631701819e-05,8.501761642036593e-05
75.57735026920001,27.5773502692,8,0,-0.1450270359789103,25.79383561106517,3.504146643561699,-2.109915500398465e-05,8.265629558419166e-05,2.80331731484936e-05,8.451648131092967e-05,8.439696060564179e-05
76.42264973080002,26.4226497308,8,0,0.09804350445861054,25.70679483434831,3.58243846213862,-2.025169665321109e-05,8.218330866634769e-05,2.865950769710896e-05,8.415014979367044e-05,8.373276331363015e-05
77.57735026920001,26.4226497308,8,0,0.04413971833327679,25.49117968984697,3.526672876901658,-2.025169665321109e-05,8.153646323284369e-05,2.821338301521326e-05,8.345531843394594e-05,8.305057986957518e-05
76.42264973080002,27.5773502692,8,0,-0.050664722839878,25.66961777752369,3.501582782950647,-2.069782133510656e-05,8.218330866634769e-05,2.801266226360518e-05,8.405605381766172e-05,8.393283719597541e-05
77.57735026920001,27.5773502692,8,0,-0.1045685089652233,25.45400263302231,3.445817197713692,-2.069782133510656e-05,8.153646323284355e-05,2.756653758170954e-05,8.336212720090903e-05,8.328548427445493e-05
78.4226497308,26.4226497308,8,0,0.1153154099505942,25.3608883611616,3.48474622390287,-1.991970137708737e-05,8.106259042775662e-05,2.787796979122296e-05,8.295131770635474e-05,8.25431189908397e-05
79.57735026920001,26.4226497308,8,0,0.06133214775277995,25.14495531237034,3.433205033569962,-1.991970137708737e-05,8.041479128138284e-05,2.74656402685597e-05,8.226045635978415e-05,8.183889353127687e-05
78.4226497308,27.5773502692,8,0,-0.02212776427051999,25.32652756760632,3.403771330606138,-2.033203089975072e-05,8.106259042775662e-05,2.72301706448491e-05,8.285897326021306e-05,8.280290842348371e-05
79.57735026920001,27.5773502692,8,0,-0.07611102646833867,25.11059451881504,3.352230140273217,-2.033203089975072e-05,8.041479128138279e-05,2.681784112218573e-05,8.216891317975512e-05,8.213183960158898e-05
80.4226497308,26.4226497308,8,0,0.1221619325702825,25.0117417868862,3.352891844524834,-1.961847524528406e-05,7.993984417197961e-05,2.682313475619867e-05,8.171487809330163e-05,8.131563184209289e-05
81.57735026920001,26.4226497308,8,0,0.06801355861369363,24.79514829105985,3.305663847786353,-1.961847524528406e-05,7.929006368450055e-05,2.644531078229082e-05,8.102723279969864e-05,8.059027978109005e-05
80.4226497308,27.5773502692,8,0,-0.003779392065609066,24.98025645572723,3.271669283589965,-1.999629921919173e-05,7.993984417197961e-05,2.617335426871972e-05,8.162512965087164e-05,8.163258791326922e-05
81.57735026920001,27.5773502692,8,0,-0.05792776602220062,24.76366295990087,3.224441286851497,-1.999629921919173e-05,7.929006368450053e-05,2.579553029481197e-05,8.093818569102402e-05,8.093967575685185e-05
82.4226497308,26.4226497308,8,0,0.1210645461067665,24.65930447095994,3.187339912485439,-1.93400370292263e-05,7.881292267018639e-05,2.549871929988351e-05,8.044193607241673e-05,8.005168835385477e-05
83.57735026920001,26.4226497308,8,0,0.06658179560192501,24.44137346894058,3.144325932403312,-1.93400370292263e-05,7.815912966412829e-05,2.51546074592265e-05,7.975545425028681e-05,7.930558127106725e-05
82.4226497308,27.5773502692,8,0,0.006360599221051366,24.63062848423851,3.1056157867282,-1.968414886988344e-05,7.881292267018639e-05,2.48449262938256e-05,8.035548716514687e-05,8.04249486822757e-05
83.57735026920001,27.5773502692,8,0,-0.04812215128379016,24.41269748221915,3.062601806646053,-1.968414886988344e-05,7.815912966412829e-05,2.450081445316843e-05,7.966961573195437e-05,7.97116003188599e-05
84.42264973080002,26.4226497308,8,0,0.1144795806425796,24.30302895453387,2.987554148776776,-1.907608850557084e-05,7.76781089899943e-05,2.390043319021421e-05,7.913223900413049e-05,7.875204287056622e-05
85.57735026920001,26.4226497308,8,0,0.05944792104066376,24.08290231612621,2.948477482033566,-1.907608850557084e-05,7.701772907477131e-05,2.358781985626853e-05,7.844406311023238e-05,7.798585491918024e-05
84.42264973080002,27.5773502692,8,0,0.01027513599403385,24.27697784337173,2.905006659373926,-1.938870183951647e-05,7.76781089899943e-05,2.324005327499141e-05,7.904977806881238e-05,7.918255222200158e-05
85.57735026920001,27.5773502692,8,0,-0.0447565236078864,24.05685120496405,2.865929992630696,-1.938870183951647e-05,7.701772907477126e-05,2.292743994104557e-05,7.836213571970607e-05,7.845051430509135e-05
86.4226497308,26.4226497308,8,0,0.1047453837664536,23.942090522626,2.751985686120759,-1.881848719004815e-05,7.653089336539002e-05,2.201588548896607e-05,7.778524248701189e-05,7.7418400866121e-05
87.57735026920002,26.4226497308,8,0,0.04893871894957513,23.71886386335849,2.716399026317592,-1.881848719004815e-05,7.586121338758748e-05,2.173119221054074e-05,7.709216301075949e-05,7.663427551352233e-05
86.4226497308,27.5773502692,8,0,0.009847624291255741,23.9183660827572,2.668275688895495,-1.910318046847374e-05,7.653089336539002e-05,2.134620551116396e-05,7.770757177957422e-05,7.790895243379837e-05
87.57735026920002,27.5773502692,8,0,-0.04595904052562272,23.69513942348969,2.632689029092298,-1.910318046847374e-05,7.586121338758748e-05,2.106151223273838e-05,7.701496869136504e-05,7.71614158028312e-05
88.42264973080002,26.4226497308,8,0,0.09400436260263501,23.57558312071484,2.478054976587623,-1.855965253624343e-05,7.536666249620535e-05,1.982443981270098e-05,7.640132021531802e-05,7.605566846768396e-05
89.57735026920001,26.4226497308,8,0,0.0372161805659994,23.34843039256829,2.445342539086845,-1.855965253624343e-05,7.468520431176573e-05,1.956274031269476e-05,7.570021950396407e-05,7.525900997336769e-05
88.42264973080002,27.5773502692,8,0,0.006771195933849228,23.55377482904764,2.392872703532703,-1.882135203624979e-05,7.536666249620535e-05,1.914298162826163e-05,7.632948572051769e-05,7.66108158281755e-05
89.57735026920001,27.5773502692,8,0,-0.05001698610279526,23.32662210090106,2.360160266031902,-1.882135203624979e-05,7.468520431176562e-05,1.888128212825522e-05,7.562883089810728e-05,7.585408535367319e-05
90.42264973080002,26.4226497308,8,0,0.08412901285269569,23.20270277981767,2.162119710432787,-1.82929493827255e-05,7.418134568513437e-05,1.72969576834623e-05,7.498322448413648e-05,7.467549682650967e-05
91.57735026920001,26.4226497308,8,0,0.02620324756870751,22.97099971868171,2.131493970120396,-1.82929493827255e-05,7.348623650172651e-05,1.705195176096317e-05,7.427155122001712e-05,7.387796775665771e-05
90.42264973080002,27.5773502692,8,0,0.002460372019653434,23.18228561960941,2.075231062506838,-1.853795530522463e-05,7.418134568513437e-05,1.660184850005471e-05,7.491864347155682e-05,7.53012059315493e-05
91.57735026920001,27.5773502692,8,0,-0.05546539326433475,22.95058255847345,2.044605322194438,-1.853795530522463e-05,7.348623650172651e-05,1.63568425775555e-05,7.420742150391138e-05,7.454744173428556e-05
92.42264973080002,26.4226497308,8,0,0.07664142636297822,22.82293083480573,1.799424296912218,-1.801309210348305e-05,7.297206553028793e-05,1.439539437529775e-05,7.353794491833616e-05,7.330232769713434e-05
93.57735026920001,26.4226497308,8,0,0.01750542349637119,22.5863868233393,1.769917206169332,-1.801309210348305e-05,7.226243349588865e-05,1.415933764935465e-05,7.281426843165907e-05,7.252717887742967e-05
92.42264973080002,27.5773502692,8,0,-0.002044148951434899,22.80325944097712,1.710720292612348,-1.824914882942629e-05,7.297206553028793e-05,1.368576234089878e-05,7.348252197680574e-05,7.400508119763478e-05
93.57735026920001,27.5773502692,8,0,-0.06118015181804903,22.56671542951067,1.681213201869448,-1.824914882942629e-05,7.226243349588857e-05,1.344970561495558e-05,7.275935022074643e-05,7.327708885268527e-05
94.4226497308,26.4226497308,8,0,0.07261573957235257,22.43623004190799,1.384028763498631,-1.771661366689487e-05,7.173784354244769e-05,1.107223010798905e-05,7.207915772036025e-05,7.19842901050252e-05
95.57735026920002,26.4226497308,8,0,0.0123178752721218,22.19503858470707,1.354477657073993,-1.771661366689487e-05,7.101426917084492e-05,1.083582125659195e-05,7.134386268727158e-05,7.127623921559914e-05
94.4226497308,27.5773502692,8,0,-0.006187210893375372,22.41652930429156,1.293581967048285,-1.795302251829205e-05,7.173784354244769e-05,1.034865573638628e-05,7.203536713400223e-05,7.276904383367056e-05
95.57735026920002,27.5773502692,8,0,-0.06648507519360347,22.17533784709065,1.264030860623661,-1.795302251829205e-05,7.101426917084495e-05,1.011224688498929e-05,7.13006929251808e-05,7.210903137408059e-05
96.4226497308,26.4226497308,8,0,0.07255233357560442,22.04326770411607,0.9087168159514839,-1.740244669585092e-05,7.048041478631092e-05,7.269734527611872e-06,7.063049791806837e-05,7.081359140325833e-05
97.57735026920001,26.4226497308,8,0,0.01130708933814262,21.79828672716622,0.8777455358752313,-1.740244669585092e-05,6.974547185546138e-05,7.02196428700185e-06,6.988669212385518e-05,7.025766496330495e-05
96.4226497308,27.5773502692,8,0,-0.01003774662770418,22.02262018406524,0.8168489495953015,-1.765021693646084e-05,7.048041478631092e-05,6.534791596762412e-06,7.06013856807386e-05,7.167935489594548e-05
97.57735026920001,27.5773502692,8,0,-0.07128299086516776,21.77763920711539,0.7858776695190522,-1.765021693646084e-05,6.974547185546135e-05,6.287021356152418e-06,6.985839399281725e-05,7.116546938640317e-05
98.42264973080002,26.4226497308,8,0,0.07621121161126077,21.64568138610294,0.3648847034700921,-1.707266923172631e-05,6.920521146624038e-05,2.919077627760736e-06,6.922989501496015e-05,6.996568324295959e-05
99.57735026920002,26.4226497308,8,0,0.01445488645442161,21.39865608547558,0.3308808921147537,-1.707266923172631e-05,6.846413556435831e-05,2.64704713691803e-06,6.848460973858813e-05,6.972390078801415e-05
98.42264973080002,27.5773502692,8,0,-0.0144656186696821,21.6230121785327,0.2722502157348369,-1.734469972256914e-05,6.920521146624038e-05,2.178001725878695e-06,6.921891148248247e-05,7.0896227547712e-05
99.57735026920002,27.5773502692,8,0,-0.07622194382652303,21.37598687790534,0.2382464043795054,-1.734469972256914e-05,6.846413556435828e-05,1.905971235036043e-06,6.847471803637817e-05,7.067453067439551e-05
0.4226497308,28.4226497308,8,0,-0.05649447508081373,-1.939662806415968,-0.3779359944654058,1.37094792487417e-06,-6.161725400466445e-06,-3.023487955723246e-06,1.66301756408831e-06,3.800573274116919e-06
1.5773502692,28.4226497308,8,0,0.1467219332048622,-1.126797173273264,-0.4055463584732953,1.37094792487417e-06,-3.723128501038333e-06,-3.244370867786363e-06,1.843659575763364e-06,4.1170872728497e-06
0.4226497308,29.5773502692,8,0,-0.1301221124350594,-1.958069715754529,-0.07311138203685121,1.150065012811433e-06,-6.161725400466445e-06,-5.848910562948097e-07,1.161743138617121e-06,3.960811829933163e-06
1.5773502692,29.5773502692,8,0,0.07309429585061655,-1.145204082611825,-0.1007217460447137,1.150065012811433e-06,-3.723128501038333e-06,-8.057739683577092e-07,1.183148736814719e-06,4.322773347589469e-06
2.4226497308,28.4226497308,8,0,-0.01523087940046974,-0.6248138877835161,-0.8059082310015044,4.511122961453097e-07,-1.987219737386876e-06,-6.447265848012035e-06,2.678419114782521e-06,4.601063928416072e-06
3.5773502692,28.4226497308,8,0,0.1767686239641061,0.1431841256747873,-0.8340452615768071,4.511122961453097e-07,3.167743029880345e-07,-6.672362092614457e-06,3.72080045081558e-06,5.606798742424098e-06
2.4226497308,29.5773502692,8,0,-0.09026296093439351,-0.6435719081668616,-0.517908975954844,2.2601605154343e-07,-1.987219737386442e-06,-4.143271807638751e-06,1.468074056887476e-06,4.859022177571911e-06
3.5773502692,29.5773502692,8,0,0.1017365424301282,0.1244261052912251,-0.5460460065299976,2.2601605154343e-07,3.167743029878177e-07,-4.368368052239981e-06,2.45605055626915e-06,5.962119708989286e-06
4.422649730800001,28.4226497308,8,0,0.05611633477794366,0.6289756895225964,-1.197883726343089,-3.236082803286574e-07,1.967829138649953e-06,-9.583069810744716e-06,5.748719619128484e-06,6.56092386100377e-06
5.577350269200001,28.4226497308,8,0,0.2400139728553818,1.364566241832349,-1.230257378731988,-3.236082803286574e-07,4.174600795579212e-06,-9.842059029855905e-06,7.336134178373349e-06,8.161907347843908e-06
4.422649730800001,29.5773502692,8,0,-0.03021340492567776,0.6073932545966911,-0.9220372692269186,-5.825974994395217e-07,1.967829138649953e-06,-7.376298153815349e-06,4.59500132369935e-06,6.979515845238716e-06
5.577350269200001,29.5773502692,8,0,0.1536842331518146,1.342983806906661,-0.9544109216158038,-5.825974994395217e-07,4.174600795579862e-06,-7.63528737292643e-06,6.294016456997135e-06,8.655996249597222e-06
6.422649730800001,28.4226497308,8,0,0.1443277301230867,1.839239737841023,-1.572357223766671,-1.009543053878941e-06,5.770104976992804e-06,-1.257885779013337e-05,9.525056862991876e-06,9.46417571079741e-06
7.577350269200001,28.4226497308,8,0,0.3236799660036587,2.556648681363312,-1.611394495398962,-1.009543053878941e-06,7.922331807559669e-06,-1.28911559631917e-05,1.129795497737984e-05,1.142105555678705e-05
6.422649730800001,29.5773502692,8,0,0.04022833910353618,1.813214890086136,-1.303328869945949,-1.321841226937593e-06,5.770104976992804e-06,-1.042663095956759e-05,8.529096865542147e-06,1.000092821175612e-05
7.577350269200001,29.5773502692,8,0,0.2195805749841082,2.530623833608424,-1.342366141578199,-1.321841226937593e-06,7.922331807559669e-06,-1.073892913262559e-05,1.038507651637565e-05,1.199887026089525e-05
8.4226497308,28.4226497308,8,0,0.235423624641438,3.025679005217532,-1.940328415470151,-1.667187605321424e-06,9.493833916982952e-06,-1.552262732376121e-05,1.347261654569122e-05,1.292873259557553e-05
9.5773502692,28.4226497308,8,0,0.4138566893717653,3.739411264138842,-1.987306719820678,-1.667187605321424e-06,1.163503069374688e-05,-1.589845375856542e-05,1.534864348439654e-05,1.509090302113616e-05
8.4226497308,29.5773502692,8,0,0.1101481463735297,2.994360135650555,-1.672678818374646,-2.043014040125149e-06,9.493833916982952e-06,-1.338143054699717e-05,1.25594569197045e-05,1.352702139131867e-05
9.5773502692,29.5773502692,8,0,0.2885812111038119,3.708092394571684,-1.719657122725119,-2.043014040125149e-06,1.163503069374634e-05,-1.375725698180095e-05,1.449589269989851e-05,1.570406587231763e-05
10.4226497308,28.4226497308,8,0,0.315711614455865,4.208116030254468,-2.306133375978164,-2.356215657944806e-06,1.32134020052496e-05,-1.844906700782531e-05,1.749902261544613e-05,1.672212395122298e-05
11.5773502692,28.4226497308,8,0,0.4966277677603498,4.931780643472407,-2.361299747127455,-2.356215657944806e-06,1.538439584490342e-05,-1.889039797701964e-05,1.947148597599732e-05,1.901653198521876e-05
10.4226497308,29.5773502692,8,0,0.1686012913909256,4.171338449488097,-2.034759146021424,-2.797546627139515e-06,1.321340200524917e-05,-1.627807316817139e-05,1.662421147776351e-05,1.733868741273508e-05
11.5773502692,29.5773502692,8,0,0.3495174446954374,4.895003062706144,-2.089925517170701,-2.797546627139515e-06,1.538439584490331e-05,-1.671940413736561e-05,1.86437434991498e-05,1.962751203149295e-05
12.4226497308,28.4226497308,8,0,0.3726551927500641,5.404860890907359,-2.668243821820951,-3.131392095925682e-06,1.699743069670349e-05,-2.134595057456761e-05,2.160287881700452e-05,2.073240992054765e-05
13.5773502692,28.4226497308,8,0,0.558980136919357,6.15016066758453,-2.730922398168164,-3.131392095925682e-06,1.923333002673501e-05,-2.184737918534531e-05,2.368337739222815e-05,2.312586758565608e-05
12.4226497308,29.5773502692,8,0,0.2055123224906852,5.363075173342514,-2.388756405567066,-3.632820706703818e-06,1.699743069670349e-05,-1.911005124453653e-05,2.074290003518752e-05,2.133289006463169e-05
13.5773502692,29.5773502692,8,0,0.3918372666599059,6.108374950019397,-2.451434981914414,-3.632820706703818e-06,1.923333002673414e-05,-1.961147985531531e-05,2.286238425280302e-05,2.370324487871881e-05
14.4226497308,28.4226497308,8,0,0.3957126819297503,6.631311181090082,-3.020087254004608,-4.038768362696864e-06,2.090362563394446e-05,-2.416069803203686e-05,2.579519301574886e-05,2.490796844251809e-05
15.5773502692,28.4226497308,8,0,0.5896654429897688,7.407122225330156,-3.088799002213006,-4.038768362696864e-06,2.323105876666468e-05,-2.471039201770405e-05,2.799619238489811e-05,2.738330086277572e-05
14.4226497308,29.5773502692,8,0,0.212481353374093,6.585503348951167,-2.729158112414634,-4.588462348363836e-06,2.090362563394446e-05,-2.183326489931707e-05,2.493955117754321e-05,2.546266105205336e-05
15.5773502692,29.5773502692,8,0,0.4064341144341115,7.361314393191241,-2.797869860622897,-4.588462348363836e-06,2.323105876666468e-05,-2.238295888498318e-05,2.717432738851075e-05,2.789912061537896e-05
16.4226497308,28.4226497308,8,0,0.377185652969714,7.89870574265555,-3.351008321838514,-5.111970504621355e-06,2.497410985412198e-05,-2.680806657470811e-05,3.007954768691505e-05,2.922021883251239e-05
17.5773502692,28.4226497308,8,0,0.5800749028533134,8.710262742189947,-3.423634268265457,-5.111970504621355e-06,2.740878085272518e-05,-2.738907414612365e-05,3.240728950171723e-05,3.176343963512496e-05
16.4226497308,29.5773502692,8,0,0.1835164624978671,7.850288445037588,-3.046674447013088,-5.692978076036895e-06,2.497410985412198e-05,-2.43733955761047e-05,2.922712182688787e-05,2.970243157619354e-05
17.5773502692,29.5773502692,8,0,0.3864057123814937,8.661845444572094,-3.119300393439989,-5.692978076036895e-06,2.74087808527255e-05,-2.495440314751992e-05,3.158498922423465e-05,3.219270917986867e-05
18.4226497308,28.4226497308,8,0,0.3129965046822991,9.213066752418557,-3.647489554233429,-6.368864586951488e-06,2.923141640399354e-05,-2.917991643386743e-05,3.444674641056448e-05,3.364387460899589e-05
19.5773502692,28.4226497308,8,0,0.5250683322951439,10.06135406286994,-3.721499980487852,-6.368864586951488e-06,3.177627833534768e-05,-2.977199984390282e-05,3.689783789428218e-05,3.623809769554655e-05
18.4226497308,29.5773502692,8,0,0.1156353680039093,9.16372646824896,-3.32938181281427,-6.960947996986658e-06,2.923141640399354e-05,-2.663505450251416e-05,3.360361959990675e-05,3.403005549577206e-05
19.5773502692,29.5773502692,8,0,0.3277071956167541,10.01201377870034,-3.403392239068666,-6.960947996986658e-06,3.177627833534768e-05,-2.722713791254933e-05,3.60819642233842e-05,3.655950137845791e-05
20.4226497308,28.4226497308,8,0,0.2032207674718292,10.57446525535007,-3.8946758985055,-7.809265748370201e-06,3.367571220314275e-05,-3.1157407188044e-05,3.887444244660905e-05,3.814786545424702e-05
21.5773502692,28.4226497308,8,0,0.4235947592467189,11.45596122244963,-3.96742436118211,-7.809265748370201e-06,3.632020010444143e-05,-3.173939488945688e-05,4.143449836203549e-05,4.077122491534478e-05
20.4226497308,29.5773502692,8,0,0.009224867000668269,10.52596628023228,-3.564114910843111,-8.391253449783684e-06,3.367571220314275e-05,-2.851291928674489e-05,3.805195273948359e-05,3.841859385684407e-05
21.5773502692,29.5773502692,8,0,0.2295988587755491,11.4074622473318,-3.636863373519816,-8.391253449783684e-06,3.632020010444132e-05,-2.909490698815853e-05,4.063668588825642e-05,4.096828308129431e-05
22.4226497308,28.4226497308,8,0,0.05217139268157389,11.97679287821485,-4.078119258568417,-9.414485845990841e-06,3.828400009614225e-05,-3.262495406854734e-05,4.332910427614789e-05,4.269261308279974e-05
23.5773502692,28.4226497308,8,0,0.2788975136950325,12.88369736226868,-4.14716873365556,-9.414485845990841e-06,4.100471354830375e-05,-3.317734986924448e-05,4.597305369099597e-05,4.531858371647376e-05
22.4226497308,29.5773502692,8,0,-0.1319605408842111,11.93075989482354,-3.738030077048257,-9.966881646688306e-06,3.828400009614269e-05,-2.990424061638606e-05,4.254170209071093e-05,4.283377127692308e-05
23.5773502692,29.5773502692,8,0,0.09476558012920178,12.83766437887719,-3.807079552135427,-9.966881646688306e-06,4.100471354830364e-05,-3.045663641708342e-05,4.520776157742533e-05,4.538069058406731e-05
24.4226497308,28.4226497308,8,0,-0.1320988970110775,13.40818600469888,-4.185521278440038,-1.114926527419455e-05,4.301187433264526e-05,-3.348417022752031e-05,4.776924847719862e-05,4.723108466910439e-05
25.5773502692,28.4226497308,8,0,0.09814708547686202,14.32916993465064,-4.248943664047407,-1.114926527419455e-05,4.577482612250054e-05,-3.399154931237925e-05,5.046311076185554e-05,4.983016380776325e-05
24.4226497308,29.5773502692,8,0,-0.3012252586306192,13.36590441429399,-3.840152304708251,-1.165664435905317e-05,4.301187433264526e-05,-3.072121843766601e-05,4.703220076878083e-05,4.7234726268238e-05
25.5773502692,29.5773502692,8,0,-0.07097927614271571,14.28688834424561,-3.903574690315552,-1.165664435905317e-05,4.577482612250011e-05,-3.122859752252441e-05,4.974547606308508e-05,4.975312664950918e-05
26.4226497308,28.4226497308,8,0,-0.3388550871619298,14.85212349282746,-4.208170726825713,-1.296603507318014e-05,4.779787924677741e-05,-3.366536581460571e-05,5.214922792900996e-05,5.171191536612252e-05
27.57735026920001,28.4226497308,8,0,-0.1085107428022196,15.7735008702663,-4.264754738291055,-1.296603507318014e-05,5.056201137909394e-05,-3.411803790632844e-05,5.485299195485643e-05,5.425387709234168e-05
26.4226497308,29.5773502692,8,0,-0.4897457844029489,14.81440081851721,-3.862654210286161,-1.34187071649032e-05,4.779787924677741e-05,-3.090123368228929e-05,5.147645194825725e-05,5.157653478709056e-05
27.57735026920001,29.5773502692,8,0,-0.2594014400432751,15.7357781959559,-3.91923822175153,-1.34187071649032e-05,5.05620113790935e-05,-3.135390577401224e-05,5.419678281805452e-05,5.403977808083808e-05
28.4226497308,28.4226497308,8,0,-0.556091234195482,16.28904451899594,-4.141801298364426,-1.481072756462229e-05,5.256981544814339e-05,-3.313441038691541e-05,5.642294125867799e-05,5.608328810122629e-05
29.5773502692,28.4226497308,8,0,-0.3293170178450202,17.19614138439779,-4.191124844757268,-1.481072756462229e-05,5.529110604434893e-05,-3.352899875805814e-05,5.909395621636687e-05,5.853937019941822e-05
28.4226497308,29.5773502692,8,0,-0.6876206912430796,16.25616215473404,-3.801639973838788,-1.520531593576509e-05,5.256981544814339e-05,-3.041311979071031e-05,5.582530526293951e-05,5.581340004353292e-05
29.5773502692,29.5773502692,8,0,-0.4608464748926266,17.16325902013585,-3.85096352023163,-1.520531593576509e-05,5.529110604434882e-05,-3.080770816185304e-05,5.850996016908908e-05,5.819578206549372e-05
30.4226497308,28.4226497308,8,0,-0.7719708250002482,17.69818479265438,-3.986742338136862,-1.66288544741243e-05,5.725176799649422e-05,-3.18939387050949e-05,6.054691905121716e-05,6.029652959776631e-05
31.5773502692,28.4226497308,8,0,-0.5523593688542272,18.57663061723847,-4.029106234140434,-1.66288544741243e-05,5.988710547024647e-05,-3.223284987312347e-05,6.314312535699983e-05,6.264109625306262e-05
30.4226497308,29.5773502692,8,0,-0.8849412143430504,17.66994219531875,-3.657325153917879,-1.696776564215276e-05,5.725176799649444e-05,-2.925860123134303e-05,6.003123819529715e-05,5.990166941884792e-05
31.5773502692,29.5773502692,8,0,-0.6653297581970294,18.54838801990284,-3.699689049921443,-1.696776564215276e-05,5.988710547024669e-05,-2.959751239937154e-05,6.263819573131755e-05,6.217985831843815e-05
32.4226497308,28.4226497308,8,0,-0.9759823140046437,19.05928264956495,-3.747437343430002,-1.837056952446681e-05,6.177049032981153e-05,-2.997949874744001e-05,6.448243292272074e-05,6.430872127614933e-05
33.57735026920001,28.4226497308,8,0,-0.7668018429209758,19.89600453389962,-3.783698384695466,-1.837056952446681e-05,6.428065598281554e-05,-3.026958707756373e-05,6.696490854282266e-05,6.652019091209281e-05
32.4226497308,29.5773502692,8,0,-1.072678424046001,19.0351086220546,-3.433666636804467,-1.866065785459088e-05,6.177049032981153e-05,-2.746933309443573e-05,6.405119213007636e-05,6.380212136631988e-05
33.57735026920001,29.5773502692,8,0,-0.8634979529623017,19.8718305063894,-3.469927678069945,-1.866065785459088e-05,6.428065598281592e-05,-2.775942142455956e-05,6.654170100590042e-05,6.595603753697253e-05
34.42264973080001,28.4226497308,8,0,-1.159631160376303,20.35388678169324,-3.431565581937154,-1.999392913855876e-05,6.60601426297194e-05,-2.745252465549724e-05,6.819654433025895e-05,6.808405297362236e-05
35.5773502692,28.4226497308,8,0,-0.9636743038817137,21.1377142076716,-3.462928560513631,-1.999392913855876e-05,6.841162490765448e-05,-2.770342848410905e-05,7.05311479569538e-05,7.014513394598869e-05
34.42264973080001,29.5773502692,8,0,-1.243265769913584,20.33297812930892,-3.13763029719533,-2.02448329671706e-05,6.60601426297194e-05,-2.510104237756264e-05,6.784820206097547e-05,6.748128980849056e-05
35.5773502692,29.5773502692,8,0,-1.047308913418994,21.11680555528728,-3.16899327577178,-2.02448329671706e-05,6.841162490765448e-05,-2.535194620617424e-05,7.01884084400141e-05,6.949444033816217e-05
36.4226497308,28.4226497308,8,0,-1.316669417503773,21.56616052011543,-3.049049073547347,-2.146627055210442e-05,7.006504919837239e-05,-2.439239258837878e-05,7.166227381998874e-05,7.159405716987133e-05
37.5773502692,28.4226497308,8,0,-1.136189676589948,22.28807948377073,-3.076872158623624,-2.146627055210442e-05,7.22308060893383e-05,-2.461497726898899e-05,7.382047396245023e-05,7.349150806158719e-05
36.4226497308,29.5773502692,8,0,-1.390864311040565,21.54761179673123,-2.778329462176554,-2.168885523271479e-05,7.006504919837239e-05,-2.222663569741243e-05,7.139191651254104e-05,7.091189646824858e-05
37.5773502692,29.5773502692,8,0,-1.210384570126736,22.26953076038655,-2.806152547252797,-2.168885523271479e-05,7.223080608933835e-05,-2.244922037802238e-05,7.355365938029962e-05,7.277130810363765e-05
38.4226497308,28.4226497308,8,0,-1.442996789975159,22.68323776358769,-2.611158879274204,-2.276417993879066e-05,7.374075827546074e-05,-2.088927103419363e-05,7.485823129934347e-05,7.48171150359825e-05
39.5773502692,28.4226497308,8,0,-1.279704356750501,23.33640749648633,-2.636802626085522,-2.276417993879066e-05,7.570026747415664e-05,-2.109442100868417e-05,7.681737842572162e-05,7.65412897493363e-05
38.4226497308,29.5773502692,8,0,-1.51138011480533,22.66614193238022,-2.366220229437237,-2.296932991328123e-05,7.374075827546096e-05,-1.892976183549789e-05,7.465836643521295e-05,7.407265547209268e-05
39.5773502692,29.5773502692,8,0,-1.34808768158068,23.31931166527882,-2.391863976248588,-2.296932991328123e-05,7.570026747415675e-05,-1.91349118099887e-05,7.661940966713628e-05,7.576859096576996e-05
40.4226497308,28.4226497308,8,0,-1.536398843037723,23.69527240672566,-2.129810244699235,-2.387269422310124e-05,7.705399077595227e-05,-1.703848195759388e-05,7.776804956917734e-05,7.773765761716526e-05
41.5773502692,28.4226497308,8,0,-1.391487872924637,24.274916287178,-2.154534314294659,-2.387269422310124e-05,7.879292241730931e-05,-1.723627451435727e-05,7.951133406188974e-05,7.9282020703402e-05
40.4226497308,29.5773502692,8,0,-1.602329695292297,23.67878969366202,-1.912443789529557,-2.407048677986496e-05,7.705399077595227e-05,-1.529955031623646e-05,7.762940006875579e-05,7.69477554204298e-05
41.5773502692,29.5773502692,8,0,-1.457418725179202,24.2584335741144,-1.937167859125015,-2.407048677986496e-05,7.879292241730942e-05,-1.549734287300012e-05,7.937335243120633e-05,7.847335712749949e-05
42.4226497308,28.4226497308,8,0,-1.596232175667629,24.59531777505307,-1.617034770893957,-2.478419718217887e-05,7.998200262070393e-05,-1.293627816715165e-05,8.037982710003546e-05,8.034533851025328e-05
43.57735026920001,28.4226497308,8,0,-1.470424184940115,25.09854973796313,-1.641932964333664,-2.478419718217887e-05,8.14916985094341e-05,-1.313546371466931e-05,8.189603865184772e-05,8.170601369705054e-05
42.4226497308,29.5773502692,8,0,-1.662627358173535,24.5787189794266,-1.428322784802726,-2.498338272969658e-05,7.998200262070393e-05,-1.14265822784218e-05,8.029206253599571e-05,7.952624061980338e-05
43.57735026920001,29.5773502692,8,0,-1.536819367446043,25.08195094233657,-1.453220978242379,-2.498338272969658e-05,8.149169850943383e-05,-1.162576782593903e-05,8.180810592925704e-05,8.087717010828071e-05
44.4226497308,28.4226497308,8,0,-1.623087282565556,25.37911281655869,-1.084590625380213,-2.549716955745673e-05,8.251163083904025e-05,-8.676725003041702e-06,8.268560852318303e-05,8.263426009249634e-05
45.5773502692,28.4226497308,8,0,-1.516686361219351,25.80471650194351,-1.110558002375556,-2.549716955745673e-05,8.37884418951947e-05,-8.884464019004445e-06,8.396871199348157e-05,8.380960122010751e-05
44.4226497308,29.5773502692,8,0,-1.692333621219739,25.36180123189515,-0.9249892433609399,-2.570490857341928e-05,8.251163083904025e-05,-7.399913946887519e-06,8.263798597900478e-05,8.180139331969326e-05
45.5773502692,29.5773502692,8,0,-1.58593269987353,25.78740491727998,-0.9509566203562219,-2.570490857341928e-05,8.378844189519476e-05,-7.607652962849775e-06,8.392042868094317e-05,8.297548860243679e-05
46.42264973080001,28.4226497308,8,0,-1.618433367865517,26.04480472113933,-0.5437096047866176,-2.601483055408112e-05,8.463812180193827e-05,-4.349676838292941e-06,8.468085085955815e-05,8.460224639471878e-05
47.57735026920001,28.4226497308,8,0,-1.531386899587379,26.39299059425188,-0.5714449897901993,-2.601483055408112e-05,8.568267942127592e-05,-4.571559918321595e-06,8.572943609325973e-05,8.559245215661196e-05
46.42264973080001,29.5773502692,8,0,-1.692394394541573,26.02631446447032,-0.4131399023693907,-2.623671363410928e-05,8.463812180193827e-05,-3.305119218955125e-06,8.46627472892052e-05,8.377015950389506e-05
47.57735026920001,29.5773502692,8,0,-1.605347926263416,26.37450033758294,-0.4408752873728979,-2.623671363410928e-05,8.568267942127614e-05,-3.527002298983183e-06,8.571045981276351e-05,8.476714549932438e-05
48.4226497308,28.4226497308,8,0,-1.584302541811857,26.59264973781735,-0.005008610906086871,-2.634388792405182e-05,8.6363921194465e-05,-4.006888724869496e-08,8.636392475569932e-05,8.625023392699587e-05
49.57735026920001,28.4226497308,8,0,-1.51625008203415,26.86485957692818,-0.03505289955103413,-2.634388792405182e-05,8.718055071179747e-05,-2.80423196408273e-07,8.718072388386965e-05,8.705712138216054e-05
48.4226497308,29.5773502692,8,0,-1.664420644865022,26.57262021205406,0.097070078760431,-2.658424223321131e-05,8.6363921194465e-05,7.76560630083448e-07,8.636525596447686e-05,8.543269632236943e-05
49.57735026920001,29.5773502692,8,0,-1.596368185087343,26.84483005116477,0.06702579011548375,-2.658424223321131e-05,8.718055071179714e-05,5.3620632092387e-07,8.718118253209578e-05,8.625402899059578e-05
50.42264973080001,28.4226497308,8,0,-1.523121665039932,27.02478149405415,0.5214558842931222,-2.649381452337111e-05,8.769779811300523e-05,4.171647074344977e-06,8.773588505400499e-05,8.758198914764052e-05
51.57735026920001,28.4226497308,8,0,-1.47341194313068,27.22362038169116,0.4886630386232316,-2.649381452337111e-05,8.829431477591626e-05,3.909304308985853e-06,8.832758962630986e-05,8.820906709508327e-05
50.42264973080001,29.5773502692,8,0,-1.610569253493029,27.00291959694088,0.5960204671570277,-2.675615728873039e-05,8.769779811300523e-05,4.768163737256222e-06,8.774743713425138e-05,8.679218068915131e-05
51.57735026920001,29.5773502692,8,0,-1.560859531583777,27.20175848457789,0.5632276214870898,-2.675615728873039e-05,8.829431477591626e-05,4.505820971896718e-06,8.833841421163708e-05,8.744110580362067e-05
52.4226497308,28.4226497308,8,0,-1.437763657967296,27.34513498622388,1.026112404339844,-2.647695169447444e-05,8.865464288229023e-05,8.208899234718751e-06,8.880078131008856e-05,8.860435167468042e-05
53.5773502692,28.4226497308,8,0,-1.405437155372218,27.47444099660419,0.9901927716004087,-2.647695169447444e-05,8.904256091343116e-05,7.92154217280327e-06,8.917820300944527e-05,8.905721128219147e-05
52.4226497308,29.5773502692,8,0,-1.53354934527252,27.32118856439757,1.07460215823248,-2.676430875639011e-05,8.865464288229023e-05,8.596817265859842e-06,8.881450191413575e-05,8.785498699903147e-05
53.5773502692,29.5773502692,8,0,-1.501222842677424,27.45049457477795,1.038682525493018,-2.676430875639011e-05,8.904256091343138e-05,8.309460203944144e-06,8.919142618713811e-05,8.833680633876985e-05
54.42264973080001,28.4226497308,8,0,-1.331753313200607,27.5595212124502,1.499948025807847,-2.63092275722021e-05,8.925587053040113e-05,1.199958420646278e-05,8.956652659078254e-05,8.932795730701165e-05
55.57735026920001,28.4226497308,8,0,-1.31551542318488,27.62447277251311,1.460591949788438,-2.63092275722021e-05,8.945072521058986e-05,1.168473559830751e-05,8.9744840376941e-05,8.961478959528804e-05
54.42264973080001,29.5773502692,8,0,-1.436702849252309,27.53328382843728,1.524304860831411,-2.662407618035721e-05,8.925587053040113e-05,1.219443888665129e-05,8.957580274791244e-05,8.86311723641251e-05
55.57735026920001,29.5773502692,8,0,-1.420464959236582,27.59823538850019,1.484948784812029,-2.662407618035721e-05,8.945072521058986e-05,1.187959027849623e-05,8.975388541217308e-05,8.895357596171363e-05
56.4226497308,28.4226497308,8,0,-1.209444356148808,27.67571672325692,1.934821506848027,-2.601079531828172e-05,8.952984899934118e-05,1.547857205478422e-05,9.004594610391087e-05,8.976806327225782e-05
57.57735026920001,28.4226497308,8,0,-1.207668061917439,27.6828219001824,1.891844122739649,-2.601079531828172e-05,8.955116453011761e-05,1.51347529819172e-05,9.00445943237064e-05,8.989998245694364e-05
56.4226497308,29.5773502692,8,0,-1.324050713771193,27.64706513385133,1.937485948195046,-2.635461439114888e-05,8.952984899934118e-05,1.549988758556037e-05,9.004584035797206e-05,8.91349946612583e-05
57.57735026920001,29.5773502692,8,0,-1.322274419539847,27.65417031077671,1.894508564086682,-2.635461439114888e-05,8.955116453011734e-05,1.515606851269346e-05,9.004452388005141e-05,8.930823616828997e-05
58.4226497308,28.4226497308,8,0,-1.075985687172421,27.70337658073231,2.323949561614605,-2.56058554635376e-05,8.951159360808133e-05,1.859159649291684e-05,9.025740264581187e-05,8.994493913688316e-05
59.57735026920001,28.4226497308,8,0,-1.086771128862872,27.66023481397051,2.277367667001904,-2.56058554635376e-05,8.938216830779592e-05,1.821894133601523e-05,9.009935687840287e-05,8.993584388593693e-05
58.4226497308,29.5773502692,8,0,-1.200204072806372,27.67232198432382,2.307771399078895,-2.597851062043945e-05,8.951159360808133e-05,1.846217119263116e-05,9.024477663276091e-05,8.938509074026705e-05
59.57735026920001,29.5773502692,8,0,-1.210989514496823,27.62918021756202,2.261189504466194,-2.597851062043945e-05,8.938216830779592e-05,1.808951603572955e-05,9.00870085410773e-05,8.942181982867967e-05
60.4226497308,28.4226497308,8,0,-0.9370124160455502,27.65364816784066,2.662379677994084,-2.512135826561828e-05,8.924128406992654e-05,2.129903742395268e-05,9.022452031720433e-05,8.988343211805685e-05
61.5773502692,28.4226497308,8,0,-0.9583022156767287,27.56848896931594,2.612468595839372,-2.512135826561828e-05,8.898580647435239e-05,2.089974876671498e-05,8.993490624818393e-05,8.974933575623413e-05
60.4226497308,29.5773502692,8,0,-1.070108635124757,27.62037411307086,2.630444978547248,-2.55206469228559e-05,8.924128406992654e-05,2.104355982837799e-05,9.019798268395948e-05,8.940404177294414e-05
61.5773502692,29.5773502692,8,0,-1.091398434755976,27.53521491454598,2.580533896392556,-2.55206469228559e-05,8.89858064743519e-05,2.064427117114045e-05,8.990885028571302e-05,8.931874213300021e-05
62.42264973080001,28.4226497308,8,0,-0.7981463712441785,27.53850684725405,2.947257562749622,-2.458487386578461e-05,8.876173900820828e-05,2.357806050199698e-05,8.99749154213614e-05,8.961166628604616e-05
63.57735026920001,28.4226497308,8,0,-0.8278702134341556,27.41961147849414,2.894560032978776,-2.458487386578461e-05,8.840505290192856e-05,2.31564802638302e-05,8.957928868275247e-05,8.936964266064825e-05
62.42264973080001,29.5773502692,8,0,-0.9386731172997509,27.50337516074015,2.90267179946463,-2.500645410395132e-05,8.876173900820828e-05,2.322137439571704e-05,8.993458431275291e-05,8.92172918892907e-05
63.57735026920001,29.5773502692,8,0,-0.9683969594897279,27.38447979198024,2.849974269693783,-2.500645410395132e-05,8.840505290192856e-05,2.279979415755026e-05,8.953959792642406e-05,8.902542430896821e-05
64.4226497308,28.4226497308,8,0,-0.6644658798598826,27.36995788536236,3.177792577080606,-2.402225712384151e-05,8.811543793704746e-05,2.542234061664485e-05,8.953823774775514e-05,8.915917323371548e-05
65.57735026920001,28.4226497308,8,0,-0.7006789375632865,27.22510565454875,3.123075003277261,-2.402225712384151e-05,8.768088124460661e-05,2.498460002621809e-05,8.906090595709044e-05,8.882618369126865e-05
64.4226497308,29.5773502692,8,0,-0.8103794100021471,27.3334795028268,3.123472990525467,-2.44599977142683e-05,8.811543793704746e-05,2.498778392420373e-05,8.948536933837037e-05,8.885162549410608e-05
65.57735026920001,29.5773502692,8,0,-0.846592467705551,27.18862727201318,3.068755416722128,-2.44599977142683e-05,8.768088124460661e-05,2.455004333377702e-05,8.900878965376123e-05,8.856866588190979e-05
66.4226497308,28.4226497308,8,0,-0.5400942953526044,27.15928646714496,3.354945159508793,-2.34557309188443e-05,8.734179213114594e-05,2.683956127607034e-05,8.894402437710418e-05,8.85549100932938e-05
67.57735026920001,28.4226497308,8,0,-0.5810819615081231,26.99533580252289,3.299117494119255,-2.34557309188443e-05,8.684994013727972e-05,2.639293995295404e-05,8.840673418502714e-05,8.814676638328979e-05
66.4226497308,29.5773502692,8,0,-0.6889680697248322,27.1220680235519,3.293463660275508,-2.390235224196098e-05,8.734179213114594e-05,2.634770928220407e-05,8.888059257991052e-05,8.833353314484848e-05
67.57735026920001,29.5773502692,8,0,-0.7299557358803463,26.95811735892985,3.237635994885943,-2.390235224196098e-05,8.684994013727977e-05,2.590108795908755e-05,8.834412150237201e-05,8.797409817284322e-05
68.42264973080002,28.4226497308,8,0,-0.4279800482364591,26.91649459581648,3.480942124032313,-2.290273183100985e-05,8.647516674520188e-05,2.78475369922585e-05,8.821982892553577e-05,8.782557126842175e-05
69.57735026920001,28.4226497308,8,0,-0.4723173777913168,26.73914527759705,3.424964997869705,-2.290273183100985e-05,8.594311879054359e-05,2.739971998295764e-05,8.764096470725895e-05,8.735619360542604e-05
68.42264973080002,29.5773502692,8,0,-0.5772523846700253,26.87917651170808,3.41443612970004,-2.335054884031055e-05,8.647516674520188e-05,2.731548903760032e-05,8.814813700424925e-05,8.768777736498911e-05
69.57735026920001,29.5773502692,8,0,-0.6215897142249007,26.70182719348858,3.358459003537426,-2.335054884031055e-05,8.594311879054337e-05,2.686767202829941e-05,8.757011900218406e-05,8.726496934263953e-05
70.4226497308,28.4226497308,8,0,-0.3298666577530982,26.64998105698363,3.558742364601326,-2.237555815039682e-05,8.554383270855011e-05,2.846993891681061e-05,8.738989940381848e-05,8.69944282741926e-05
71.57735026920001,28.4226497308,8,0,-0.3764351500988408,26.46370708760066,3.503541958774574,-2.237555815039682e-05,8.49850108004012e-05,2.802833567019659e-05,8.678418055330248e-05,8.647544467179957e-05
70.4226497308,29.5773502692,8,0,-0.477067739957806,26.61318078643246,3.488889626082685,-2.281716139701094e-05,8.554383270855011e-05,2.791111700866148e-05,8.731227553897164e-05,8.693635690972051e-05
71.57735026920001,29.5773502692,8,0,-0.5236362323035442,26.42690681704951,3.43368922025596,-2.281716139701094e-05,8.498501080040125e-05,2.746951376204768e-05,8.670739662858011e-05,8.646137906929836e-05
72.4226497308,28.4226497308,8,0,-0.2464020874385007,26.36644902400195,3.591547348266103,-2.188164589900476e-05,8.456975854675703e-05,2.873237878612883e-05,8.647447238249286e-05,8.608074785640532e-05
73.57735026920001,28.4226497308,8,0,-0.2943744496728682,26.17455957506448,3.537949384557179,-2.188164589900476e-05,8.399409019994462e-05,2.830359507645743e-05,8.585304000686202e-05,8.552139970550979e-05
72.4226497308,29.5773502692,8,0,-0.3893299906623531,26.33071704819599,3.519588804914552,-2.231042960867632e-05,8.456975854675703e-05,2.815671043931642e-05,8.63930677367191e-05,8.609793469652294e-05
73.57735026920001,29.5773502692,8,0,-0.4373023528967117,26.13882759925855,3.465990841205601,-2.231042960867632e-05,8.399409019994473e-05,2.772792672964481e-05,8.577244300946176e-05,8.557996404475544e-05
74.4226497308,28.4226497308,8,0,-0.1773260495156332,26.07098521063034,3.582405663985077,-2.14242315269543e-05,8.356901351362959e-05,2.865924531188062e-05,8.548960758422605e-05,8.509971453132403e-05
75.57735026920001,28.4226497308,8,0,-0.2261312792958412,25.87576429150951,3.531091495371152,-2.14242315269543e-05,8.298335075626709e-05,2.824873196296922e-05,8.486036511841929e-05,8.450699736149657e-05
74.4226497308,29.5773502692,8,0,-0.3141638324861811,26.0367757648877,3.509197819314745,-2.183474487586594e-05,8.356901351362959e-05,2.807358255451796e-05,8.540629071150603e-05,8.518769486961502e-05
75.57735026920001,29.5773502692,8,0,-0.3629690622663979,25.84155484576684,3.457883650700806,-2.183474487586594e-05,8.298335075626698e-05,2.766306920560645e-05,8.477780506372833e-05,8.463396620461016e-05
76.42264973080002,28.4226497308,8,0,-0.1216836014127711,25.76724601615647,3.5339231713388,-2.100318433744604e-05,8.255253413283091e-05,2.82713853707104e-05,8.444742882991225e-05,8.406273443660288e-05
77.57735026920001,28.4226497308,8,0,-0.1709627803010836,25.57012930060322,3.485405351928413,-2.100318433744604e-05,8.196118398617116e-05,2.78832428154273e-05,8.38155172729774e-05,8.344170272365001e-05
76.42264973080002,29.5773502692,8,0,-0.2510644531738224,25.73490080321621,3.460004403006331,-2.139132689272919e-05,8.255253413283091e-05,2.768003522405065e-05,8.436375756927931e-05,8.421754641542995e-05
77.57735026920001,29.5773502692,8,0,-0.3003436320621526,25.53778408766289,3.411486583595924,-2.139132689272919e-05,8.196118398617094e-05,2.729189266876739e-05,8.373254053831665e-05,8.3633595059069e-05
78.4226497308,28.4226497308,8,0,-0.07803171799250741,25.45769599660256,3.448066927676757,-2.061585829485807e-05,8.152705256352219e-05,2.758453542141406e-05,8.335663879004585e-05,8.297800460713961e-05
79.57735026920001,28.4226497308,8,0,-0.1275916310949619,25.25945634419274,3.402679260003902,-2.061585829485807e-05,8.093233360629274e-05,2.722143408003121e-05,8.272496133088667e-05,8.233218950635823e-05
78.4226497308,29.5773502692,8,0,-0.1990654984534377,25.42743755148733,3.373727058023063,-2.097895963624086e-05,8.152705256352219e-05,2.69898164641845e-05,8.327388780743228e-05,8.319658684447531e-05
79.57735026920001,29.5773502692,8,0,-0.2486254115558832,25.22919789907755,3.328339390350221,-2.097895963624086e-05,8.093233360629285e-05,2.662671512280177e-05,8.264283751977777e-05,8.258660955519058e-05
80.4226497308,28.4226497308,8,0,-0.04462204146356097,25.14386086348551,3.326041299271645,-2.02578792234718e-05,8.049605239632447e-05,2.660833039417316e-05,8.222320826411144e-05,8.185126978653323e-05
81.57735026920001,28.4226497308,8,0,-0.0943906643670589,24.94478637187152,3.283938063264191,-2.02578792234718e-05,7.989882892148249e-05,2.627150450611353e-05,8.159295338598554e-05,8.118318777833508e-05
80.4226497308,29.5773502692,8,0,-0.1568973374834703,25.11579203948053,3.251388364916438,-2.059470511153153e-05,8.049605239632447e-05,2.601110691933151e-05,8.214243289776417e-05,8.213176370383393e-05
81.57735026920001,29.5773502692,8,0,-0.2066659603869549,24.91671754786659,3.209285128908957,-2.059470511153153e-05,7.989882892148266e-05,2.567428103127166e-05,8.151273845502959e-05,8.149907901754756e-05
82.4226497308,28.4226497308,8,0,-0.01955495724600631,24.82657319993336,3.168213396380744,-1.992383442313391e-05,7.946067820558355e-05,2.534570717104595e-05,8.105118269455938e-05,8.06867413369001e-05
83.57735026920001,28.4226497308,8,0,-0.06954050244748622,24.62663101912744,3.129373237794356,-1.992383442313391e-05,7.886085166316579e-05,2.503498590235485e-05,8.042232281556925e-05,7.999850644380344e-05
82.4226497308,29.5773502692,8,0,-0.1231287134763219,24.80067976087578,3.093235078578503,-2.023455569182485e-05,7.946067820558355e-05,2.474588062862802e-05,8.097330431983924e-05,8.102871184199179e-05
83.57735026920001,29.5773502692,8,0,-0.1731142586778018,24.60073758006986,3.054394919992123,-2.023455569182485e-05,7.886085166316579e-05,2.443515935993698e-05,8.034494388733615e-05,8.037632950639255e-05
84.42264973080002,28.4226497308,8,0,-0.0009074375863082906,24.506201455018,2.974067964023155,-1.960786496429059e-05,7.842057060612664e-05,2.379254371218524e-05,7.984358935475205e-05,7.948821635437759e-05
85.57735026920001,28.4226497308,8,0,-0.0511610771758253,24.30518689665993,2.938299031759621,-1.960786496429059e-05,7.781752693105244e-05,2.350639225407697e-05,7.921535249025536e-05,7.878231279650471e-05
84.42264973080002,29.5773502692,8,0,-0.09629125695573926,24.48235550017564,2.898687504638883,-1.989401642239888e-05,7.842057060612664e-05,2.318950003711107e-05,7.976949189400653e-05,7.989279694268048e-05
85.57735026920001,29.5773502692,8,0,-0.1465448965452492,24.2813409418176,2.86291857237535,-1.989401642239888e-05,7.781752693105252e-05,2.29033485790028e-05,7.914170413992434e-05,7.922414374704815e-05
86.4226497308,28.4226497308,8,0,0.01315900845583595,24.18286120437914,2.742176260717212,-1.930418013644464e-05,7.737462864724858e-05,2.19374100857377e-05,7.860346516907506e-05,7.826051976176764e-05
87.57735026920002,28.4226497308,8,0,-0.03742240312040668,23.98053555807417,2.709120257367409,-1.930418013644464e-05,7.676765170833367e-05,2.167296205893927e-05,7.79747915360185e-05,7.754085823764266e-05
86.4226497308,29.5773502692,8,0,-0.07499033381038256,24.16082386881259,2.666304143352855,-1.956862816324329e-05,7.737462864724858e-05,2.133043314682284e-05,7.853409538218683e-05,7.873046799642436e-05
87.57735026920002,29.5773502692,8,0,-0.1255717453866207,23.95849822250764,2.633248140003039,-1.956862816324329e-05,7.676765170833372e-05,2.106598512002431e-05,7.790583628718507e-05,7.805037395883043e-05
88.42264973080002,28.4226497308,8,0,0.02430214781844153,23.85661296151668,2.470167810868173,-1.900752349619433e-05,7.63217197585986e-05,1.976134248694538e-05,7.733505843259992e-05,7.701152467707881e-05
89.57735026920001,28.4226497308,8,0,-0.02664216922584028,23.65283569333955,2.439301512430337,-1.900752349619433e-05,7.571038795406722e-05,1.951441209944269e-05,7.670506453584403e-05,7.62850200195305e-05
88.42264973080002,29.5773502692,8,0,-0.05800798134910679,23.83603542922479,2.393751335301797,-1.925445388369697e-05,7.63217197585986e-05,1.915001068241438e-05,7.727152342636821e-05,7.755113425088011e-05
89.57735026920001,29.5773502692,8,0,-0.1089522983933824,23.63225816104769,2.362885036863974,-1.925445388369697e-05,7.57103879540673e-05,1.89030802949118e-05,7.664193100713097e-05,7.686728004113988e-05
90.42264973080002,28.4226497308,8,0,0.0339057523220534,23.52765400176425,2.154697651845372,-1.871362479398083e-05,7.526136820378796e-05,1.723758121476297e-05,7.604528971574516e-05,7.575524144543058e-05
91.57735026920001,28.4226497308,8,0,-0.01737866158509416,23.32251634613566,2.125331146077509,-1.871362479398083e-05,7.464595523690219e-05,1.700264916862007e-05,7.54137712261213e-05,7.503436412171501e-05
90.42264973080002,29.5773502692,8,0,-0.04440492972556154,23.50807633125235,2.077771030984624,-1.894855684012368e-05,7.526136820378796e-05,1.662216824787699e-05,7.59889428663684e-05,7.636998043280801e-05
91.57735026920001,29.5773502692,8,0,-0.09568934363270909,23.30293867562376,2.048404525216782,-1.894855684012368e-05,7.464595523690219e-05,1.638723620173426e-05,7.5357840953603e-05,7.569518684594369e-05
92.42264973080002,28.4226497308,8,0,0.04298006749707728,23.19651360170318,1.791404746132477,-1.84196746653719e-05,7.41944594714525e-05,1.433123796905982e-05,7.474558865417529e-05,7.451691235210842e-05
93.57735026920001,28.4226497308,8,0,-0.008527966151051558,22.99048146711067,1.762676180897097,-1.84196746653719e-05,7.357636306767497e-05,1.410140944717677e-05,7.411360155237155e-05,7.382408515073227e-05
92.42264973080002,29.5773502692,8,0,-0.0336294397973349,23.17736122487958,1.714142695660319,-1.864950318725513e-05,7.41944594714525e-05,1.371314156528255e-05,7.46980885637037e-05,7.521250757058605e-05
93.57735026920001,29.5773502692,8,0,-0.08513747344546552,22.97132909028706,1.685414130424921,-1.864950318725513e-05,7.357636306767494e-05,1.348331304339937e-05,7.406656861428033e-05,7.456859685335668e-05
94.4226497308,28.4226497308,8,0,0.05204647726525202,22.86426244832265,1.374859766754147,-1.812486123140931e-05,7.312400265282028e-05,1.099887813403317e-05,7.345425077805546e-05,7.334192641103994e-05
95.57735026920002,28.4226497308,8,0,0.0005652078493723067,22.65833737065913,1.345726861308374,-1.812486123140931e-05,7.250622741982973e-05,1.076581489046699e-05,7.282481779720569e-05,7.271747143820727e-05
94.4226497308,29.5773502692,8,0,-0.02564127059021892,22.84484051135879,1.297637862630294,-1.835792447497573e-05,7.312400265282028e-05,1.038110290104235e-05,7.34175649593421e-05,7.412231699060527e-05
95.57735026920002,29.5773502692,8,0,-0.0771225400060942,22.63891543369528,1.268504957184534,-1.835792447497573e-05,7.250622741982978e-05,1.014803965747628e-05,7.278869185197147e-05,7.354696844835106e-05
96.4226497308,28.4226497308,8,0,0.06099617261464552,22.53274816622728,0.8985027738713205,-1.783101078061495e-05,7.205599719383555e-05,7.188022190970564e-06,7.219946988950847e-05,7.23121221781475e-05
97.57735026920001,28.4226497308,8,0,0.009973120982968098,22.32865595970057,0.8677318079543368,-1.783101078061495e-05,7.144372057425543e-05,6.941854463634695e-06,7.157846396563272e-05,7.182914237763937e-05
96.4226497308,29.5773502692,8,0,-0.02105973649728377,22.51223418894929,0.8219681964237749,-1.807717850795074e-05,7.205599719383555e-05,6.5757455713902e-06,7.217577286090194e-05,7.317511104987707e-05
97.57735026920001,29.5773502692,8,0,-0.07208278812896118,22.30814198242258,0.791197230506815,-1.807717850795074e-05,7.144372057425543e-05,6.32957784405452e-06,7.155546433861293e-05,7.273452628628675e-05
98.42264973080002,28.4226497308,8,0,0.06891158498465266,22.20487020569042,0.3545737188701922,-1.754337909260144e-05,7.100045539022162e-05,2.836589750961538e-06,7.102316780731617e-05,7.157658740093816e-05
99.57735026920002,28.4226497308,8,0,0.01901605294489439,22.00528807753139,0.32072726355468,-1.754337909260144e-05,7.040170900574451e-05,2.56581810843744e-06,7.042041960789802e-05,7.136957417336487e-05
98.42264973080002,29.5773502692,8,0,-0.02134562919012328,22.18230590214673,0.2797304208105477,-1.781415073512577e-05,7.100045539022162e-05,2.237843366484382e-06,7.101454977329898e-05,7.250482078270874e-05
99.57735026920002,29.5773502692,8,0,-0.071241161229886,21.98272377398768,0.2458839654950219,-1.781415073512577e-05,7.040170900574446e-05,1.967071723960176e-06,7.041267327656159e-05,7.2317838439719e-05
0.4226497308,30.4226497308,8,0,-0.05292449393263976,-1.441578725235921,-0.3850596842619447,9.839045996042897e-07,-4.570712325608836e-06,-3.080477474095558e-06,1.382407476414564e-06,4.098349739121473e-06
1.5773502692,30.4226497308,8,0,0.1407997985129811,-0.6666815554534378,-0.4141941566426267,9.839045996042897e-07,-2.246020816261385e-06,-3.313553253141014e-06,1.682599891109596e-06,4.494648424524683e-06
0.4226497308,31.5773502692,8,0,-0.1306164202810167,-1.461001706823016,-0.09447324559349983,7.508288205591591e-07,-4.570712325608836e-06,-7.557859647479986e-07,7.775297633646344e-07,4.313871739190466e-06
1.5773502692,31.5773502692,8,0,0.06310787216460423,-0.686104537040532,-0.1236077179741276,7.508288205591591e-07,-2.246020816261385e-06,-9.888617437930208e-07,8.302946268476336e-07,4.75853379254669e-06
2.4226497308,30.4226497308,8,0,-0.02815202017027651,-0.1869074133276793,-0.8422412927565576,5.943946611725861e-08,-5.755821065123526e-07,-6.737930342052461e-06,3.125822800931842e-06,5.068160232257624e-06
3.5773502692,30.4226497308,8,0,0.1584339728972172,0.5594365589422954,-0.8709912240257076,5.943946611725861e-08,1.663449810297571e-06,-6.967929792205661e-06,4.436528370560571e-06,6.238724944388098e-06
2.4226497308,31.5773502692,8,0,-0.1048185035546946,-0.2060740341737839,-0.5623623031553713,-1.705599840359957e-07,-5.755821065123526e-07,-4.49889842524297e-06,1.885475498432028e-06,5.381577774323564e-06
3.5773502692,31.5773502692,8,0,0.08176748951281712,0.5402699380962631,-0.5911122344244265,-1.705599840359957e-07,1.663449810297788e-06,-4.728897875395412e-06,3.2824884380744e-06,6.63910353460414e-06
4.422649730800001,30.4226497308,8,0,0.01666812002337109,1.029009144707866,-1.254244898130257,-7.698693316915048e-07,3.279494767046472e-06,-1.003395918504205e-05,6.664934863508338e-06,7.298086148425197e-06
5.577350269200001,30.4226497308,8,0,0.1980085377341504,1.754370815550983,-1.285825765811536,-7.698693316915048e-07,5.455579779575824e-06,-1.028660612649229e-05,8.354728522643818e-06,9.021750069414464e-06
4.422649730800001,31.5773502692,8,0,-0.06754752712658135,1.007955232920242,-0.9822342715641282,-1.022516273141254e-06,3.279494767046039e-06,-7.857874172513026e-06,5.607704733534295e-06,7.749844418315341e-06
5.577350269200001,31.5773502692,8,0,0.1137928905842522,1.733316903763576,-1.013815139245286,-1.022516273141254e-06,5.455579779576041e-06,-8.110521113962287e-06,7.406577061503715e-06,9.526919186506732e-06
6.422649730800001,30.4226497308,8,0,0.0719478089989265,2.216798848902012,-1.637590788134164,-1.543206090325044e-06,7.036198069287295e-06,-1.310072630507331e-05,1.057648969085812e-05,1.039255834077568e-05
7.577350269200001,30.4226497308,8,0,0.2504681808755483,2.930880336408499,-1.674151023228155,-1.543206090325044e-06,9.178442531806758e-06,-1.339320818582524e-05,1.239566832967175e-05,1.241401226474014e-05
6.422649730800001,31.5773502692,8,0,-0.02554615125171522,2.192425358839351,-1.369810230319177,-1.83568797107697e-06,7.036198069287295e-06,-1.095848184255342e-05,9.650054447080671e-06,1.092575925011864e-05
7.577350269200001,31.5773502692,8,0,0.1529742206248976,2.906506846345803,-1.406370465413249,-1.83568797107697e-06,9.178442531806649e-06,-1.125096372330599e-05,1.154372215717408e-05,1.297038660754034e-05
8.4226497308,30.4226497308,8,0,0.1269497010647116,3.389778759515614,-2.002610192953334,-2.305583964205414e-06,1.07457322695982e-05,-1.602088154362667e-05,1.455212986380325e-05,1.395305296281974e-05
9.5773502692,30.4226497308,8,0,0.3052555953556582,4.103002336679401,-2.045301185247503,-2.305583964205414e-06,1.288540300108955e-05,-1.636240948198002e-05,1.645340503995942e-05,1.613633642110377e-05
8.4226497308,31.5773502692,8,0,0.01310705494692643,3.361318097986168,-1.735151351516982,-2.64711190255877e-06,1.07457322695982e-05,-1.388121081213585e-05,1.369369052430154e-05,1.451870406609541e-05
9.5773502692,31.5773502692,8,0,0.1914129492378639,4.074541675149918,-1.777842343811137,-2.64711190255877e-06,1.288540300108945e-05,-1.42227387504891e-05,1.564940334284188e-05,1.67041586718719e-05
10.4226497308,30.4226497308,8,0,0.1708942778750617,4.562030471567798,-2.353984129389061,-3.102762688054041e-06,1.44617820867169e-05,-1.883187303511249e-05,1.855538515651424e-05,1.777065229973059e-05
11.5773502692,30.4226497308,8,0,0.3514840297595305,5.284389479105673,-2.403050981457239,-3.102762688054041e-06,1.662885910933053e-05,-1.922440785165791e-05,2.053725196259708e-05,2.005240285766144e-05
10.4226497308,31.5773502692,8,0,0.04004933902655017,4.52931923685567,-2.083099501562263,-3.495297504599575e-06,1.44617820867169e-05,-1.666479601249811e-05,1.77324477100547e-05,1.833423885662614e-05
11.5773502692,31.5773502692,8,0,0.2206390909110461,5.251678244393654,-2.132166353630374,-3.495297504599575e-06,1.662885910933085e-05,-1.705733082904299e-05,1.975706334704052e-05,2.060224613619883e-05
12.4226497308,30.4226497308,8,0,0.1938707760461975,5.746825878767303,-2.691392870633017,-3.977074219666009e-06,1.823474619121841e-05,-2.153114296506414e-05,2.259618129248133e-05,2.174844973326382e-05
13.5773502692,30.4226497308,8,0,0.3788947824219369,6.48692190427026,-2.746279055302836,-3.977074219666009e-06,2.045503426772728e-05,-2.197023244242269e-05,2.466775842287878e-05,2.410038541169412e-05
12.4226497308,31.5773502692,8,0,0.04750761692666372,5.710235088987419,-2.413856861069395,-4.416163697024611e-06,1.823474619121841e-05,-1.931085488855516e-05,2.179193915743312e-05,2.228329971750752e-05
13.5773502692,31.5773502692,8,0,0.2325316233024393,6.450331114490521,-2.468743045739186,-4.416163697024611e-06,2.045503426772771e-05,-1.974994436591349e-05,2.389895661518529e-05,2.460801623251104e-05
14.4226497308,30.4226497308,8,0,0.1876363654177169,6.955314215750207,-3.010268295085706,-4.963815003263471e-06,2.210689639806649e-05,-2.408214636068565e-05,2.668764671602193e-05,2.584258647638438e-05
15.5773502692,30.4226497308,8,0,0.3786932979899789,7.719541946039255,-3.06974186237548,-4.963815003263471e-06,2.439957958893363e-05,-2.455793489900384e-05,2.88575081282634e-05,2.825043262389081e-05
14.4226497308,31.5773502692,8,0,0.02904018597826585,6.915665170890344,-2.723682896227299,-5.439603541581824e-06,2.210689639806649e-05,-2.178946316981839e-05,2.58948989757823e-05,2.632586942925277e-05
15.5773502692,31.5773502692,8,0,0.2200971185505278,7.679892901179392,-2.783156463517073,-5.439603541581824e-06,2.439957958893363e-05,-2.226525170813658e-05,2.809529277220955e-05,2.869441512789179e-05
16.4226497308,30.4226497308,8,0,0.14632349064857,8.195429872231927,-3.302686937150585,-6.088108727710117e-06,2.610831679862331e-05,-2.642149549720468e-05,3.083500043964995e-05,3.002947005535217e-05
17.5773502692,30.4226497308,8,0,0.3442962975641435,8.987321099894221,-3.365000617729262,-6.088108727710117e-06,2.848399048161019e-05,-2.69200049418341e-05,3.31063679645313e-05,3.248204455937167e-05
16.4226497308,31.5773502692,8,0,-0.01984632422790344,8.153887418512809,-3.005727726777319,-6.586618172339537e-06,2.610831679862331e-05,-2.404582181421856e-05,3.005346077320684e-05,3.044074305280043e-05
17.5773502692,31.5773502692,8,0,0.1781264826876336,8.945778646174958,-3.068041407355957,-6.586618172339537e-06,2.848399048160975e-05,-2.454433125884765e-05,3.235179216931501e-05,3.2843253971891e-05
18.4226497308,30.4226497308,8,0,0.06700703417735587,9.471042756951887,-3.558441111444107,-7.36241169619397e-06,3.025373119490415e-05,-2.846752889155285e-05,3.503259685018968e-05,3.428899152337839e-05
19.5773502692,30.4226497308,8,0,0.2719526893576982,10.29082537767326,-3.621533088149115,-7.36241169619397e-06,3.271307905706826e-05,-2.897226470519293e-05,3.740101406168537e-05,3.677308793181748e-05
18.4226497308,31.5773502692,8,0,-0.1012382370360378,9.428981439148538,-3.251022628673579,-7.867147509834152e-06,3.025373119490415e-05,-2.600818102938864e-05,3.42672320873156e-05,3.461023701996286e-05
19.5773502692,31.5773502692,8,0,0.1037074181443316,10.24876405987002,-3.314114605378602,-7.867147509834152e-06,3.271307905706859e-05,-2.651291684302882e-05,3.66597639725673e-05,3.703521356452279e-05
20.4226497308,30.4226497308,8,0,-0.04996527687697894,10.78142458613038,-3.766281911383415,-8.785028554910638e-06,3.454053089711881e-05,-3.013025529106732e-05,3.926399941586327e-05,3.859687534060917e-05
21.5773502692,30.4226497308,8,0,0.1611466742441436,11.62587239061487,-3.828010147957769,-8.785028554910638e-06,3.707387431057228e-05,-3.062408118366215e-05,4.171647993007725e-05,4.109545879540522e-05
20.4226497308,31.5773502692,8,0,-0.2145739077420123,10.74027242841413,-3.449613984701718,-9.278854447505739e-06,3.454053089711881e-05,-2.759691187761374e-05,3.852354027172255e-05,3.881322100972782e-05
21.5773502692,31.5773502692,8,0,-0.003461956620889772,11.58472023289861,-3.511342221276044,-9.278854447505739e-06,3.707387431057228e-05,-2.809073777020835e-05,4.099762529934381e-05,4.12458511419103e-05
22.4226497308,30.4226497308,8,0,-0.200981470153581,12.12112252979359,-3.915256660317964,-1.034003872832633e-05,3.894837727146236e-05,-3.132205328254371e-05,4.350356555643464e-05,4.292225279824959e-05
23.5773502692,30.4226497308,8,0,0.01467635608425244,12.98375383474493,-3.97364269851604,-1.034003872832633e-05,4.153627118631635e-05,-3.178914158812832e-05,4.601891936299414e-05,4.541456337439869e-05
22.4226497308,31.5773502692,8,0,-0.3566775720151729,12.08219850432806,-3.591769920961187,-1.0807127033911e-05,3.894837727146192e-05,-2.87341593676895e-05,4.279893051280176e-05,4.302283061593154e-05
23.5773502692,31.5773502692,8,0,-0.1410197457772764,12.94482980927964,-3.650155959159277,-1.0807127033911e-05,4.153627118631668e-05,-2.920124767327422e-05,4.533349015359277e-05,4.544499869098854e-05
24.4226497308,30.4226497308,8,0,-0.3795675770145621,13.48030164114757,-3.995993278562012,-1.199885755936465e-05,4.344061931328387e-05,-3.19679462284961e-05,4.771886980587884e-05,4.722822383189966e-05
25.5773502692,30.4226497308,8,0,-0.1616607500529486,14.35192894899403,-4.049438874243684,-1.199885755936465e-05,4.605550123682324e-05,-3.239551099394947e-05,5.02690262077541e-05,4.969092577353247e-05
24.4226497308,31.5773502692,8,0,-0.5220891654990014,13.44467124402646,-3.669133038119673,-1.242642232481797e-05,4.344061931328387e-05,-2.935306430495738e-05,4.706153053429814e-05,4.720681724631594e-05
25.5773502692,31.5773502692,8,0,-0.3041823385374238,14.31629855187277,-3.722578633801304,-1.242642232481797e-05,4.60555012368228e-05,-2.978062907041043e-05,4.962848942891398e-05,4.959802697833566e-05
26.4226497308,30.4226497308,8,0,-0.5771480597614596,14.8455422744301,-4.001749557508026,-1.372330761078075e-05,4.796745372598549e-05,-3.201399646006421e-05,5.187349750198614e-05,5.147401130817095e-05
27.57735026920001,30.4226497308,8,0,-0.3597589415338192,15.71509874734066,-4.049188532815188,-1.372330761078075e-05,5.057612314471717e-05,-3.239350826252151e-05,5.442556113560704e-05,5.388278964161872e-05
26.4226497308,31.5773502692,8,0,-0.7036519939139825,14.81391629089197,-3.675665880166457,-1.410281941323832e-05,4.796745372598549e-05,-2.940532704133166e-05,5.12739539329802e-05,5.132929253381391e-05
27.57735026920001,31.5773502692,8,0,-0.4862628756863598,15.68347276380246,-3.723104855473715,-1.410281941323832e-05,5.057612314471696e-05,-2.978483884378972e-05,5.384038142938828e-05,5.366798826095586e-05
28.4226497308,30.4226497308,8,0,-0.7840313968874435,16.20098270065765,-3.929071093012495,-1.546968663056593e-05,5.247036975961441e-05,-3.143256874409996e-05,5.592980068482631e-05,5.56177273217919e-05
29.5773502692,30.4226497308,8,0,-0.5701556822663711,17.05648555914194,-3.970031817901969,-1.546968663056593e-05,5.503687833506728e-05,-3.176025454321575e-05,5.844846838502554e-05,5.794888687874446e-05
28.4226497308,31.5773502692,8,0,-0.893259996592815,16.1736755507313,-3.608257521080845,-1.579737242968205e-05,5.247036975961441e-05,-2.886606016864676e-05,5.539636257892363e-05,5.535302756201082e-05
29.5773502692,31.5773502692,8,0,-0.6793842819717701,17.02917840921548,-3.649218245970387,-1.579737242968205e-05,5.503687833506696e-05,-2.91937459677631e-05,5.792695163986361e-05,5.761794481829711e-05
30.4226497308,30.4226497308,8,0,-0.9904272940400958,17.52961969744497,-3.777985750479196,-1.719306309888428e-05,5.688712486705597e-05,-3.022388600383357e-05,5.985127295365194e-05,5.961903180422426e-05
31.5773502692,30.4226497308,8,0,-0.7830557143164114,18.35910601633971,-3.812562366804698,-1.719306309888428e-05,5.937558382374019e-05,-3.050049893443758e-05,6.230120493534372e-05,6.185079303987983e-05
30.4226497308,31.5773502692,8,0,-1.082631604241488,17.50656861989462,-3.466928380893629,-1.746967602948846e-05,5.688712486705597e-05,-2.773542704714903e-05,5.938928563285959e-05,5.924171165982791e-05
31.5773502692,31.5773502692,8,0,-0.8752600245178126,18.33605493878932,-3.501504997219191,-1.746967602948846e-05,5.937558382374008e-05,-2.801203997775353e-05,6.184876158454495e-05,6.141300791443797e-05
32.4226497308,30.4226497308,8,0,-1.187308602856129,18.81455630492303,-3.551772929356803,-1.885103257307804e-05,6.11564270580386e-05,-2.841418343485443e-05,6.360431504703019e-05,6.344121046315254e-05
33.57735026920001,30.4226497308,8,0,-0.9892339995277801,19.60685471823643,-3.580526063516997,-1.885103257307804e-05,6.353332229797878e-05,-2.864420850813597e-05,6.59521314615225e-05,6.555455043330552e-05
32.4226497308,31.5773502692,8,0,-1.263983627283348,18.79538754881623,-3.25466102436424,-1.908105764635969e-05,6.11564270580386e-05,-2.603728819491392e-05,6.321586131482042e-05,6.296178344848132e-05
33.57735026920001,31.5773502692,8,0,-1.065909023955022,19.58768596212953,-3.283414158524454,-1.908105764635969e-05,6.353332229797851e-05,-2.626731326819563e-05,6.557099222844663e-05,6.502182064257722e-05
34.42264973080001,30.4226497308,8,0,-1.367000128697059,20.0400271854746,-3.256435631719572,-2.040642216021027e-05,6.522168709647636e-05,-2.605148505375657e-05,6.71593167056597e-05,6.705246396475897e-05
35.5773502692,30.4226497308,8,0,-1.180683197741958,20.785294909295,-3.280256388812764,-2.040642216021027e-05,6.745749026793756e-05,-2.624205111050211e-05,6.937504973742195e-05,6.903149986805569e-05
34.42264973080001,31.5773502692,8,0,-1.430522147612275,20.02414668074573,-2.976960235286866,-2.059698821695586e-05,6.522168709647614e-05,-2.381568188229493e-05,6.684332668052742e-05,6.648365313716763e-05
35.5773502692,31.5773502692,8,0,-1.244205216657138,20.76941440456627,-3.00078099238008,-2.059698821695586e-05,6.745749026793778e-05,-2.400624793904064e-05,6.906436962483855e-05,6.841741659061771e-05
36.4226497308,30.4226497308,8,0,-1.523472117266488,21.19211706389299,-2.900037629935303,-2.182880442636715e-05,6.903355229827073e-05,-2.320030103948243e-05,7.049113015180261e-05,7.042644277230574e-05
37.5773502692,30.4226497308,8,0,-1.35096558631054,21.88214318771678,-2.920008083303089,-2.182880442636715e-05,7.110363066974211e-05,-2.336006466642471e-05,7.254912910565142e-05,7.225846175723985e-05
36.4226497308,31.5773502692,8,0,-1.576726659580674,21.17880342831444,-2.6412778335013,-2.198856805330971e-05,6.903355229827073e-05,-2.11302226680104e-05,7.024377395233107e-05,6.978231931183415e-05
37.5773502692,31.5773502692,8,0,-1.404220128624708,21.8688295521383,-2.66124828686914,-2.198856805330971e-05,7.110363066974233e-05,-2.128998629495312e-05,7.230536104824612e-05,7.157753944029496e-05
38.4226497308,30.4226497308,8,0,-1.652392666500099,22.25917644389266,-2.492043243366769,-2.309499768791444e-05,7.255127875365657e-05,-1.993634594693415e-05,7.357910799220922e-05,7.354222136952217e-05
39.5773502692,30.4226497308,8,0,-1.495311854380827,22.88749969236974,-2.509315839703775,-2.309499768791444e-05,7.443624849908783e-05,-2.00745267176302e-05,7.545850195632566e-05,7.521749887019738e-05
38.4226497308,31.5773502692,8,0,-1.698452923398666,22.24766137966808,-2.256422025187867,-2.323317845861019e-05,7.255127875365678e-05,-1.805137620150294e-05,7.339434132911159e-05,7.283750801506057e-05
39.5773502692,31.5773502692,8,0,-1.541372111279389,22.87598462814519,-2.273694621524887,-2.323317845861019e-05,7.44362484990881e-05,-1.81895569721991e-05,7.527591711274726e-05,7.448458604894588e-05
40.4226497308,30.4226497308,8,0,-1.751023395930976,23.23199579259433,-2.042739646770052,-2.418887150105458e-05,7.574320525304662e-05,-1.634191717416042e-05,7.640689683111897e-05,7.63839497689551e-05
41.5773502692,30.4226497308,8,0,-1.610548186778439,23.79389662920448,-2.058444711317494,-2.418887150105458e-05,7.742890776287707e-05,-1.646755769053995e-05,7.809174221031332e-05,7.789547538835585e-05
40.4226497308,31.5773502692,8,0,-1.792903568057443,23.22152574956271,-1.832026833041247,-2.431451201743398e-05,7.574320525304662e-05,-1.465621466432998e-05,7.627705870306327e-05,7.563350628020171e-05
41.5773502692,31.5773502692,8,0,-1.652428358904915,23.78342658617282,-1.847731897588675,-2.431451201743398e-05,7.742890776287696e-05,-1.47818551807094e-05,7.796300180373698e-05,7.712533669208451e-05
42.4226497308,30.4226497308,8,0,-1.818029713162,24.10381308968132,-1.562768074671752,-2.510074555386345e-05,7.858662565750981e-05,-1.250214459737402e-05,7.896212849883651e-05,7.894037012940072e-05
43.57735026920001,30.4226497308,8,0,-1.694926246556018,24.59622695610524,-1.577950031051781,-2.510074555386345e-05,8.006386725678159e-05,-1.262360024841425e-05,8.044133584825417e-05,8.028355003121743e-05
42.4226497308,31.5773502692,8,0,-1.858514930175394,24.09369178542797,-1.378112874762745,-2.522220120490363e-05,7.858662565750981e-05,-1.102490299810196e-05,7.887852680086881e-05,7.815884007334725e-05
43.57735026920001,31.5773502692,8,0,-1.735411463569402,24.58610565185193,-1.393294831142768,-2.522220120490363e-05,8.00638672567817e-05,-1.114635864914214e-05,8.035805415449373e-05,7.949059340898849e-05
44.4226497308,30.4226497308,8,0,-1.853249547520354,24.87021477914313,-1.062764942030654,-2.582657037537964e-05,8.10672869312743e-05,-8.502119536245236e-06,8.123608070734274e-05,8.120430574722702e-05
45.5773502692,30.4226497308,8,0,-1.747903553114377,25.29159875676704,-1.078345843074135,-2.582657037537964e-05,8.233143886414603e-05,-8.626766744593078e-06,8.250318554591573e-05,8.237667724301485e-05
44.4226497308,31.5773502692,8,0,-1.894798616969455,24.85982751178086,-0.9047459504217157,-2.595121758372694e-05,8.10672869312743e-05,-7.237967603373726e-06,8.11895284149861e-05,8.040589893541501e-05
45.5773502692,31.5773502692,8,0,-1.789452622563491,25.28121148940471,-0.9203268514651486,-2.595121758372694e-05,8.233143886414587e-05,-7.362614811721188e-06,8.245644869676582e-05,8.157480680252591e-05
46.42264973080001,30.4226497308,8,0,-1.857453862804997,25.52897416809846,-0.5531125248726455,-2.636703169545476e-05,8.317868042815907e-05,-4.424900198981164e-06,8.322334616924064e-05,8.317218599322094e-05
47.57735026920001,30.4226497308,8,0,-1.769907607272128,25.87915919022994,-0.5698815854634581,-2.636703169545476e-05,8.42292354945535e-05,-4.559052683707665e-06,8.427619941896956e-05,8.417318482095416e-05
46.42264973080001,31.5773502692,8,0,-1.902171357713831,25.51779479437126,-0.4217931415733485,-2.650118418018126e-05,8.317868042815907e-05,-3.374345132586788e-06,8.32046275609798e-05,8.23705788712332e-05
47.57735026920001,31.5773502692,8,0,-1.814625102180962,25.86797981650273,-0.4385622021641476,-2.650118418018126e-05,8.42292354945535e-05,-3.508497617313181e-06,8.425702024331041e-05,8.337576072716725e-05
48.4226497308,30.4226497308,8,0,-1.83214286730469,26.07987105080957,-0.04379491789647383,-2.672675401602266e-05,8.492130165643438e-05,-3.503593431717906e-07,8.49215765187381e-05,8.48436850215492e-05
49.57735026920001,30.4226497308,8,0,-1.762125796459382,26.3599393341908,-0.06241930816842803,-2.672675401602266e-05,8.576150650657806e-05,-4.993544653474243e-07,8.57620606836372e-05,8.567452680840459e-05
48.4226497308,31.5773502692,8,0,-1.881807908029757,26.06745479062831,0.06123068837146618,-2.687574913819786e-05,8.492130165643438e-05,4.898455069717294e-07,8.492183822575211e-05,8.405201382603411e-05
49.57735026920001,31.5773502692,8,0,-1.811790837184431,26.34752307400961,0.04260629809960007,-2.687574913819786e-05,8.576150650657828e-05,3.408503847968005e-07,8.57617643669065e-05,8.489438979505872e-05
50.42264973080001,30.4226497308,8,0,-1.779428157801705,26.52454157305933,0.4556718013542328,-2.691380336341292e-05,8.630207556003123e-05,3.645374410833862e-06,8.633141179860022e-05,8.622157680838641e-05
51.57735026920001,30.4226497308,8,0,-1.726373385389008,26.73676066271012,0.4346275113159903,-2.691380336341292e-05,8.693873282898359e-05,3.477020090527922e-06,8.696527341275934e-05,8.688530341582538e-05
50.42264973080001,31.5773502692,8,0,-1.835546264570235,26.5105120463672,0.5352539599732435,-2.708215768371851e-05,8.630207556003123e-05,4.282031679785948e-06,8.63424896052695e-05,8.545246647356363e-05
51.57735026920001,31.5773502692,8,0,-1.782491492157538,26.72273113601799,0.5142096699350756,-2.708215768371851e-05,8.693873282898359e-05,4.113677359480605e-06,8.697582436154109e-05,8.613478434479861e-05
52.4226497308,30.4226497308,8,0,-1.702020498295996,26.86639181073985,0.9363034654074855,-2.693957904313906e-05,8.73340701930043e-05,7.490427723259884e-06,8.74566845724082e-05,8.731186932332249e-05
53.5773502692,30.4226497308,8,0,-1.665068456985298,27.01419997598264,0.9123671820875312,-2.693957904313906e-05,8.777749468873267e-05,7.29893745670025e-06,8.789347716311082e-05,8.781354244799194e-05
52.4226497308,31.5773502692,8,0,-1.765850587149217,26.85043428852654,0.9917315273735253,-2.713106930969872e-05,8.73340701930043e-05,7.933852218988202e-06,8.74713840314031e-05,8.657740891438275e-05
53.5773502692,31.5773502692,8,0,-1.728898545838528,26.9982424537693,0.9677952440535439,-2.713106930969872e-05,8.777749468873256e-05,7.742361952428351e-06,8.790776410911205e-05,8.710436385598141e-05
54.42264973080001,30.4226497308,8,0,-1.6032819789096,27.11056072589525,1.389783266620363,-2.681895091322692e-05,8.803641990599246e-05,1.11182661329629e-05,8.83048609864336e-05,8.81241524305948e-05
55.57735026920001,30.4226497308,8,0,-1.581284282808192,27.19855151030088,1.362588383723028,-2.681895091322692e-05,8.830039225920936e-05,1.090070706978423e-05,8.855786472878664e-05,8.847108155977052e-05
54.42264973080001,31.5773502692,8,0,-1.67580166663588,27.09243080396368,1.422779810772488,-2.703650997640575e-05,8.803641990599246e-05,1.138223848617991e-05,8.831719838030828e-05,8.743573315456746e-05
55.57735026920001,31.5773502692,8,0,-1.653803970534471,27.18042158836931,1.395584927875134,-2.703650997640575e-05,8.830039225920936e-05,1.116467942300107e-05,8.856994914117303e-05,8.781409597281276e-05
56.4226497308,30.4226497308,8,0,-1.48725093261382,27.263863025918,1.808704762008294,-2.657029340509862e-05,8.843416242902864e-05,1.446963809606636e-05,8.888751079314537e-05,8.867194350464165e-05
57.57735026920001,30.4226497308,8,0,-1.478793053673609,27.29769454167884,1.778026393083915,-2.657029340509862e-05,8.853565697631118e-05,1.422421114467132e-05,8.897343103903411e-05,8.887377941418429e-05
56.4226497308,31.5773502692,8,0,-1.569059916412167,27.24341077996841,1.821391580418585,-2.681572035649366e-05,8.843416242902864e-05,1.457113264334868e-05,8.889289642915798e-05,8.803993282920719e-05
57.57735026920001,31.5773502692,8,0,-1.560602037471956,27.27724229572926,1.790713211494225,-2.681572035649366e-05,8.853565697631118e-05,1.43257056919538e-05,8.897873915063542e-05,8.827856777687934e-05
58.4226497308,30.4226497308,8,0,-1.358550133472392,27.3346212322199,2.18688506142644,-2.621505741288757e-05,8.855762804988159e-05,1.749508049141152e-05,8.922050402498932e-05,8.897274870808719e-05
59.57735026920001,30.4226497308,8,0,-1.362005838304784,27.32079841289033,2.152684724118716,-2.621505741288757e-05,8.851615959189289e-05,1.722147779294973e-05,8.91588079430987e-05,8.904130193788798e-05
58.4226497308,31.5773502692,8,0,-1.449751032959647,27.31182100734809,2.181701504177852,-2.648866011134934e-05,8.855762804988159e-05,1.745361203342281e-05,8.921583190975782e-05,8.840605772264381e-05
59.57735026920001,31.5773502692,8,0,-1.453206737792039,27.29799818801852,2.147501166870134,-2.648866011134934e-05,8.851615959189289e-05,1.718000933496108e-05,8.915422891727159e-05,8.851573178426917e-05
60.4226497308,30.4226497308,8,0,-1.222145245685963,27.33232966446898,2.519653187198192,-2.577672851777026e-05,8.844117112284948e-05,2.015722549758553e-05,8.932369123147656e-05,8.90476330049098e-05
61.5773502692,30.4226497308,8,0,-1.235762233138399,27.27786171465923,2.482110778325492,-2.577672851777026e-05,8.827776727342025e-05,1.985688622660394e-05,8.913558640896652e-05,8.899637657187953e-05
60.4226497308,31.5773502692,8,0,-1.322258336013117,27.30730139188719,2.499227706019558,-2.607706778875172e-05,8.844117112284948e-05,1.999382164815646e-05,8.930730424179658e-05,8.855329648744828e-05
61.5773502692,31.5773502692,8,0,-1.335875323465531,27.25283344207753,2.461685297146845,-2.607706778875172e-05,8.827776727342052e-05,1.969348237717476e-05,8.911944476767221e-05,8.854625110348387e-05
62.42264973080001,30.4226497308,8,0,-1.082992701103779,27.26716223128621,2.804011791366517,-2.527930642856106e-05,8.812131330099889e-05,2.243209433093214e-05,8.922000734441811e-05,8.892027038955894e-05
63.57735026920001,30.4226497308,8,0,-1.104995730461276,27.17915011385622,2.763528519408767,-2.527930642856106e-05,8.785727694870892e-05,2.210822815527013e-05,8.892721096673374e-05,8.876360086571044e-05
62.42264973080001,31.5773502692,8,0,-1.190948092991068,27.24017338331439,2.771007247330277,-2.560317260422293e-05,8.812131330099889e-05,2.216805797864221e-05,8.919153423728071e-05,8.850316695807245e-05
63.57735026920001,31.5773502692,8,0,-1.212951122348565,27.1521612658844,2.730523975372527,-2.560317260422293e-05,8.785727694870892e-05,2.184419180298021e-05,8.889910927660527e-05,8.839250426776719e-05
64.4226497308,30.4226497308,8,0,-0.9456633867832398,27.14939970420582,3.038613180420685,-2.474564260107102e-05,8.763460976288521e-05,2.430890544336548e-05,8.89341435321561e-05,8.861562956637693e-05
65.57735026920001,30.4226497308,8,0,-0.9743551961653667,27.03463246667732,2.995781211261446,-2.474564260107102e-05,8.729030805029969e-05,2.396624969009157e-05,8.855766104383625e-05,8.836803398236712e-05
64.4226497308,31.5773502692,8,0,-1.059881971207778,27.12084505809969,2.995575466347529,-2.508829835434464e-05,8.763460976288521e-05,2.396460373078023e-05,8.889423745040459e-05,8.82784244410235e-05
65.57735026920001,31.5773502692,8,0,-1.088573780589896,27.00607782057122,2.952743497188317,-2.508829835434464e-05,8.72903080502998e-05,2.362194797750653e-05,8.851822265697198e-05,8.807741524853303e-05
66.4226497308,30.4226497308,8,0,-0.8140293018567002,26.98887917227793,3.223553412031146,-2.419599710376378e-05,8.701563679277473e-05,2.578842729624917e-05,8.849105690264841e-05,8.815855365864872e-05
67.57735026920001,30.4226497308,8,0,-0.8478721450554483,26.85350779948294,3.179099492188093,-2.419599710376378e-05,8.660952267438974e-05,2.543279593750474e-05,8.805016680571259e-05,8.783383835504956e-05
66.4226497308,31.5773502692,8,0,-0.9325730881048413,26.95924322571589,3.17278914723301,-2.455162846250821e-05,8.701563679277473e-05,2.538231317786408e-05,8.844108670191635e-05,8.790187776049369e-05
67.57735026920001,31.5773502692,8,0,-0.9664159313036036,26.82387185292085,3.128335227389929,-2.455162846250821e-05,8.660952267438958e-05,2.502668181911943e-05,8.800073030814455e-05,8.762330961700721e-05
68.42264973080002,30.4226497308,8,0,-0.691068110430817,26.79455285132146,3.360037428418649,-2.364706023443578e-05,8.629542361257331e-05,2.688029942734919e-05,8.791459662780597e-05,8.757248880510502e-05
69.57735026920001,30.4226497308,8,0,-0.7287364835261663,26.64387935894006,3.314754030355342,-2.364706023443578e-05,8.584340313542912e-05,2.651803224284273e-05,8.742615650894735e-05,8.718318385969005e-05
68.42264973080002,31.5773502692,8,0,-0.8118238385996195,26.76436391927926,3.303534868775727,-2.400932741894219e-05,8.629542361257331e-05,2.642827895020581e-05,8.785634466030787e-05,8.739530850538946e-05
69.57735026920001,31.5773502692,8,0,-0.8494922116949732,26.61369042689784,3.258251470712378,-2.400932741894219e-05,8.584340313542906e-05,2.606601176569903e-05,8.736847579303135e-05,8.705096602772754e-05
70.4226497308,30.4226497308,8,0,-0.5787971331685124,26.57420310618257,3.449987656332309,-2.311151331108529e-05,8.550048764631901e-05,2.759990125065847e-05,8.722644523847427e-05,8.687853585161292e-05
71.57735026920001,30.4226497308,8,0,-0.6192006383224555,26.4125890855668,3.404665014085306,-2.311151331108529e-05,8.50156455844717e-05,2.723732011268245e-05,8.670454163721642e-05,8.643552696050116e-05
70.4226497308,31.5773502692,8,0,-0.6996575124938156,26.54398801135124,3.389382398601382,-2.34740944490612e-05,8.550048764631901e-05,2.711505918881105e-05,8.716185192018467e-05,8.677863714758101e-05
71.57735026920001,31.5773502692,8,0,-0.7400610176477631,26.38237399073545,3.34405975635442,-2.34740944490612e-05,8.501564558447165e-05,2.675247805083536e-05,8.664053208767757e-05,8.637896328828266e-05
72.4226497308,30.4226497308,8,0,-0.4783161471587452,26.334317681289,3.495660356825428,-2.259806581593918e-05,8.465246949785179e-05,2.796528285460342e-05,8.644546230227153e-05,8.609489553792463e-05
73.57735026920001,30.4226497308,8,0,-0.5205972687366227,26.16519319497749,3.451028728987889,-2.259806581593918e-05,8.414509603891726e-05,2.760822983190311e-05,8.590135961230203e-05,8.560728207586326e-05
72.4226497308,31.5773502692,8,0,-0.5973338213921906,26.30456326273064,3.432238674458632,-2.295511883863952e-05,8.465246949785179e-05,2.745790939566906e-05,8.637643833149679e-05,8.606940556210382e-05
73.57735026920001,31.5773502692,8,0,-0.6396149429700317,26.13543877641927,3.3876070466211,-2.295511883863952e-05,8.414509603891769e-05,2.71008563729688e-05,8.583291135925271e-05,8.562335198557006e-05
74.4226497308,30.4226497308,8,0,-0.3899233259712176,26.08009961859922,3.499311802555992,-2.211183433798727e-05,8.376825744029447e-05,2.799449442044793e-05,8.55874243669754e-05,8.523669363889259e-05
75.57735026920001,30.4226497308,8,0,-0.4334373875378823,25.90604337233256,3.455998160071226,-2.211183433798727e-05,8.324608870149448e-05,2.764798528056981e-05,8.502973600025395e-05,8.471184066240953e-05
74.4226497308,31.5773502692,8,0,-0.5054263725972774,26.0512238569427,3.434040710205953,-2.245834347786545e-05,8.376825744029447e-05,2.747232568164762e-05,8.551573400128717e-05,8.528258042778197e-05
75.57735026920001,31.5773502692,8,0,-0.5489404341639563,25.87716761067599,3.390727067721221,-2.245834347786545e-05,8.324608870149432e-05,2.712581654176977e-05,8.49585977220416e-05,8.479762879462469e-05
76.42264973080002,30.4226497308,8,0,-0.313268958665601,25.8155736724015,3.462932544831322,-2.165491960565112e-05,8.286045091861725e-05,2.770346035865058e-05,8.466510095488751e-05,8.431612703736097e-05
77.57735026920001,30.4226497308,8,0,-0.3575533984474841,25.63843591327396,3.421431778711912,-2.165491960565112e-05,8.232903764123466e-05,2.73714542296953e-05,8.410010364737555e-05,8.375987028491821e-05
76.42264973080002,31.5773502692,8,0,-0.4239376683172784,25.78790649498858,3.396505885158436,-2.198692573460615e-05,8.286045091861725e-05,2.717204708126749e-05,8.459230832291273e-05,8.443064232630264e-05
77.57735026920001,31.5773502692,8,0,-0.4682221080991615,25.61076873586104,3.355005119039061,-2.198692573460615e-05,8.232903764123466e-05,2.684004095231248e-05,8.402782900311638e-05,8.391296828227117e-05
78.4226497308,30.4226497308,8,0,-0.2475197119920871,25.54375173500849,3.388050164030443,-2.122706446638147e-05,8.193802132162083e-05,2.710440131224354e-05,8.36885907879091e-05,8.334286251835503e-05
79.57735026920001,30.4226497308,8,0,-0.2922583098617668,25.36479734352977,3.348708456506292,-2.122706446638147e-05,8.140115814718468e-05,2.678966765205034e-05,8.312061726925121e-05,8.275983286534795e-05
78.4226497308,31.5773502692,8,0,-0.3524309320565084,25.51752392999239,3.320942267225931,-2.154179812657473e-05,8.193802132162083e-05,2.656753813780745e-05,8.361605595083706e-05,8.352391285398712e-05
79.57735026920001,31.5773502692,8,0,-0.3971695299261926,25.33856953851365,3.281600559701766,-2.154179812657473e-05,8.140115814718463e-05,2.625280447761413e-05,8.304856080922844e-05,8.297866770094094e-05
80.4226497308,30.4226497308,8,0,-0.191516501031983,25.26682751995684,3.275590590631221,-2.082631481926782e-05,8.100706126468746e-05,2.620472472504977e-05,8.266585249435296e-05,8.232463650480605e-05
81.57735026920001,30.4226497308,8,0,-0.236502295340058,25.08688434272454,3.23859764050263,-2.082631481926782e-05,8.046723173299057e-05,2.590878112402104e-05,8.209771812219522e-05,8.171868758949307e-05
80.4226497308,31.5773502692,8,0,-0.2901643680415784,25.24216555320444,3.208111899169171,-2.11222584202966e-05,8.100706126468746e-05,2.566489519335337e-05,8.25947631560329e-05,8.257108087918171e-05
81.57735026920001,31.5773502692,8,0,-0.3351501623496436,25.06222237597218,3.171118949040559,-2.11222584202966e-05,8.046723173299068e-05,2.536895159232447e-05,8.202706671983946e-05,8.200277812663884e-05
82.4226497308,30.4226497308,8,0,-0.1439179862966347,24.98638056806625,3.125784055436449,-2.044964201060223e-05,8.007155220684928e-05,2.500627244349159e-05,8.160338733590498e-05,8.12680363889256e-05
83.57735026920001,30.4226497308,8,0,-0.1890169060701661,24.80598488897212,3.091170870155618,-2.044964201060223e-05,7.953036516956691e-05,2.472936696124495e-05,8.103682608446216e-05,8.064278332774408e-05
82.4226497308,31.5773502692,8,0,-0.2362198137121378,24.96330511121237,3.058135675776193,-2.072654749284874e-05,8.007155220684928e-05,2.446508540620955e-05,8.153481359310743e-05,8.157991270558326e-05
83.57735026920001,31.5773502692,8,0,-0.2813187334856693,24.78290943211825,3.023522490495356,-2.072654749284874e-05,7.953036516956691e-05,2.418817992396285e-05,8.096865341428039e-05,8.099292564298922e-05
84.42264973080002,30.4226497308,8,0,-0.1033282495043242,24.70357860163606,2.938101679329051,-2.009351327972268e-05,7.913411412483883e-05,2.350481343463241e-05,8.050705923044702e-05,8.017948923135046e-05
85.57735026920001,30.4226497308,8,0,-0.1484441619638313,24.52311495179803,2.905741167819806,-2.009351327972268e-05,7.859272317532474e-05,2.324592934255845e-05,7.994316098962144e-05,7.953899928228406e-05
84.42264973080002,31.5773502692,8,0,-0.1896229468622108,24.68200492729659,2.870427810639824,-2.035239737179634e-05,7.913411412483883e-05,2.296342248511859e-05,8.044202080696981e-05,8.055816654186549e-05
85.57735026920001,31.5773502692,8,0,-0.2347388593217223,24.50154127745854,2.838067299130612,-2.035239737179634e-05,7.859272317532469e-05,2.27045383930449e-05,7.987849459156059e-05,7.995736965108605e-05
86.4226497308,30.4226497308,8,0,-0.06841141763116365,24.41937426847909,2.71121071098304,-1.975441595120299e-05,7.8196726793238e-05,2.168968568786432e-05,7.938306534822273e-05,7.906654677527584e-05
87.57735026920002,30.4226497308,8,0,-0.1134523581316689,24.23921050647707,2.680819004813737,-1.975441595120299e-05,7.765623550723194e-05,2.14465520385099e-05,7.882271948023303e-05,7.841627247097757e-05
86.4226497308,31.5773502692,8,0,-0.1494559674160563,24.39911313103287,2.643649300232268,-1.999754960055767e-05,7.8196726793238e-05,2.114919440185815e-05,7.932260209699723e-05,7.951478283982612e-05
87.57735026920002,31.5773502692,8,0,-0.1944969079165713,24.21894936903081,2.613257594062953,-1.999754960055767e-05,7.765623550723183e-05,2.090606075250362e-05,7.876261122726868e-05,7.890641007543215e-05
88.42264973080002,30.4226497308,8,0,-0.03799849784610032,24.13469732612513,2.442939181170498,-1.942935305400763e-05,7.72614302418773e-05,1.954351344936398e-05,7.823909732997951e-05,7.793965439840958e-05
89.57735026920001,30.4226497308,8,0,-0.08284322768643193,23.95531840676381,2.414076302169513,-1.942935305400763e-05,7.672329348379332e-05,1.93126104173561e-05,7.768345754156585e-05,7.728778391259117e-05
88.42264973080002,31.5773502692,8,0,-0.1149661751819941,24.11545540679116,2.375672086410047,-1.966025608601531e-05,7.72614302418773e-05,1.900537669128038e-05,7.8184333452168e-05,7.846150160746809e-05
89.57735026920001,31.5773502692,8,0,-0.1598109050223124,23.93607648742989,2.346809207409042,-1.966025608601531e-05,7.672329348379348e-05,1.877447365927233e-05,7.76290478853423e-05,7.785436183261491e-05
90.42264973080002,30.4226497308,8,0,-0.01119308847119882,23.85064671215169,2.130243584508722,-1.911633525282918e-05,7.633102394966236e-05,1.704194867606978e-05,7.708575808434458e-05,7.681476349253189e-05
91.57735026920001,30.4226497308,8,0,-0.05565671676020845,23.67279219899565,2.102312696783565,-1.911633525282918e-05,7.579746041019424e-05,1.681850157426852e-05,7.65367517495232e-05,7.617431815767586e-05
90.42264973080002,31.5773502692,8,0,-0.08567545573827218,23.83202612033492,2.063548142075184,-1.933978235463041e-05,7.633102394966236e-05,1.650838513660147e-05,7.703794758232274e-05,7.741519442271769e-05
91.57735026920001,31.5773502692,8,0,-0.1301390840272818,23.65417160717888,2.035617254350026,-1.933978235463041e-05,7.579746041019424e-05,1.628493803480021e-05,7.648931500888487e-05,7.682250652065221e-05
92.42264973080002,30.4226497308,8,0,0.01251654008555203,23.56868922380894,1.769175862315351,-1.881489845077339e-05,7.540979228412017e-05,1.415340689852281e-05,7.593832031053942e-05,7.571746829400144e-05
93.57735026920001,30.4226497308,8,0,-0.03128058303831871,23.39350073131346,1.741420894640473,-1.881489845077339e-05,7.488422680663372e-05,1.393136715712378e-05,7.539923180202511e-05,7.5109776589815e-05
92.42264973080002,31.5773502692,8,0,-0.06149670704746679,23.55018591202569,1.703480177629599,-1.903693819217244e-05,7.540979228412017e-05,1.362784142103679e-05,7.58988545661137e-05,7.640145142778006e-05
93.57735026920001,31.5773502692,8,0,-0.1052938301713464,23.37499741953017,1.675725209954724,-1.903693819217244e-05,7.488422680663361e-05,1.340580167963779e-05,7.536018284401342e-05,7.584379542328431e-05
94.4226497308,30.4226497308,8,0,0.03313088512612428,23.29087312428907,1.354848440220211,-1.852667966702766e-05,7.450428928962413e-05,1.083878752176169e-05,7.481892465941364e-05,7.468997408584869e-05
95.57735026920002,30.4226497308,8,0,-0.009572708434700594,23.12005875004578,1.326350375822676,-1.852667966702766e-05,7.399184616689423e-05,1.06108030065814e-05,7.429508630476956e-05,7.415074402000575e-05
94.4226497308,31.5773502692,8,0,-0.0428639532673003,23.27187441469072,1.29079304987895,-1.875466418220793e-05,7.450428928962413e-05,1.03263443990316e-05,7.478927138920132e-05,7.546045153183129e-05
95.57735026920002,31.5773502692,8,0,-0.08556754682813406,23.10106004044738,1.262294985481397,-1.875466418220793e-05,7.399184616689412e-05,1.009835988385118e-05,7.426591689179812e-05,7.497079254806167e-05
96.4226497308,30.4226497308,8,0,0.0499894409133157,23.02006622294578,0.8813985145017061,-1.825608676743401e-05,7.362422036069583e-05,7.051188116013649e-06,7.37593044297861e-05,7.38034488036755e-05
97.57735026920001,30.4226497308,8,0,0.008995336078368332,22.85608980360599,0.8510711735658465,-1.825608676743401e-05,7.313229110267647e-05,6.808569388526772e-06,7.325892774630457e-05,7.33938506932382e-05
96.4226497308,31.5773502692,8,0,-0.03088346824895449,22.99984799565521,0.8199073572492926,-1.849870549492082e-05,7.362422036069583e-05,6.559258857994341e-06,7.374082946108511e-05,7.465711059970992e-05
97.57735026920001,31.5773502692,8,0,-0.07187757308389742,22.83587157631544,0.7895800163134297,-1.849870549492082e-05,7.313229110267653e-05,6.316640130507437e-06,7.324102246537362e-05,7.428977456312896e-05
98.42264973080002,30.4226497308,8,0,0.06158825350890496,22.76022903547898,0.3419554101248875,-1.801110081715469e-05,7.27834623107256e-05,2.7356432809991e-06,7.280406389247905e-05,7.318081821703475e-05
99.57735026920002,30.4226497308,8,0,0.02316419311105555,22.60653279388758,0.3085421616053216,-1.801110081715469e-05,7.232237358595142e-05,2.468337292842572e-06,7.233923209879416e-05,7.300840077879725e-05
98.42264973080002,31.5773502692,8,0,-0.02751374254319927,22.73795353646596,0.2843193195281347,-1.8278406805311e-05,7.27834623107256e-05,2.274554556225077e-06,7.279766362179718e-05,7.409944417170758e-05
99.57735026920002,31.5773502692,8,0,-0.06593780294104867,22.58425729487456,0.2509060710085924,-1.8278406805311e-05,7.232237358595142e-05,2.007248568068739e-06,7.233348980513655e-05,7.39467879086787e-05
0.4226497308,32.4226497308,8,0,-0.04945309446296692,-0.920093913896573,-0.3854738679910338,5.778252288357643e-07,-2.90473804889866e-06,-3.08379094392827e-06,1.162377503282138e-06,4.50322088517884e-06
1.5773502692,32.4226497308,8,0,0.134182616298932,-0.1855510708489773,-0.415421220922876,5.778252288357643e-07,-7.01109519755873e-07,-3.323369767383008e-06,1.718839580219161e-06,4.983092477389301e-06
0.4226497308,33.5773502692,8,0,-0.1293127022813575,-0.9400588158511707,-0.1100203018481989,3.382464053805923e-07,-2.90473804889866e-06,-8.801624147855916e-07,3.969055142147606e-07,4.805010372341855e-06
1.5773502692,33.5773502692,8,0,0.05432300848054137,-0.205515972803575,-0.139967654780109,3.382464053805923e-07,-7.01109519755873e-07,-1.119741238240872e-06,5.82453443930571e-07,5.332712845664236e-06
2.4226497308,32.4226497308,8,0,-0.03842176159651531,0.2703695549817996,-0.8604491085464016,-3.392452810942886e-07,8.959199852189709e-07,-6.883592868371213e-06,3.775103143926222e-06,5.639432775913904e-06
3.5773502692,32.4226497308,8,0,0.1415396733886483,0.990215294922454,-0.8893062775362353,-3.392452810942886e-07,3.055457205040934e-06,-7.114450220289882e-06,5.299533587414243e-06,6.952716226403817e-06
2.4226497308,33.5773502692,8,0,-0.1153742122361803,0.2511314423218833,-0.5905069560686698,-5.701026330132836e-07,8.959199852189709e-07,-4.724055648549358e-06,2.636060717919099e-06,6.03048819920848e-06
3.5773502692,33.5773502692,8,0,0.06458722274899234,0.9709771822625739,-0.6193641250585983,-5.701026330132836e-07,3.055457205041042e-06,-4.954913000468786e-06,4.312524472012195e-06,7.409143444119358e-06
4.422649730800001,32.4226497308,8,0,-0.01605860534990139,1.441086901760579,-1.284449285748074,-1.204257058528147e-06,4.624324969913773e-06,-1.027559428598459e-05,7.616814093645201e-06,8.094956927196668e-06
5.577350269200001,32.4226497308,8,0,0.1611654966792277,2.149983309877095,-1.314934050505013,-1.204257058528147e-06,6.751014194263322e-06,-1.051947240404011e-05,9.367801218199678e-06,9.902333105878573e-06
4.422649730800001,33.5773502692,8,0,-0.09735131136867725,1.420763725255749,-1.018613132704313,-1.448135176584367e-06,4.62432496991334e-06,-8.148905061634501e-06,6.669419181098991e-06,8.586063565937958e-06
5.577350269200001,33.5773502692,8,0,0.07987279066050601,2.129660133372482,-1.049097897461279,-1.448135176584367e-06,6.751014194263539e-06,-8.392783179690232e-06,8.517972980719868e-06,1.042281389042235e-05
6.422649730800001,32.4226497308,8,0,0.0111274883189032,2.597288686839424,-1.671808798921179,-2.042222986851049e-06,8.302421807231033e-06,-1.337447039136944e-05,1.158421281972838e-05,1.131617780914013e-05
7.577350269200001,32.4226497308,8,0,0.187113754794537,3.301233752741959,-1.70578158340982,-2.042222986851049e-06,1.041425700493864e-05,-1.364625266727856e-05,1.342430832352755e-05,1.337149719394518e-05
6.422649730800001,33.5773502692,8,0,-0.07946660365084224,2.574640163846988,-1.407829399207715,-2.314005262760285e-06,8.302421807231033e-06,-1.126263519366172e-05,1.073299815240967e-05,1.184962023930707e-05
7.577350269200001,33.5773502692,8,0,0.09651966282481861,3.278585229749631,-1.441802183696343,-2.314005262760285e-06,1.041425700493896e-05,-1.153441746957074e-05,1.263865669302965e-05,1.391097735270331e-05
8.4226497308,32.4226497308,8,0,0.03526614239505987,3.74708840604789,-2.031914283843114,-2.88481906917412e-06,1.19624699854372e-05,-1.625531427074491e-05,1.554651861237444e-05,1.492276887972289e-05
9.5773502692,32.4226497308,8,0,0.2117629195725753,4.453075514757951,-2.070401798616946,-2.88481906917412e-06,1.408043131156738e-05,-1.656321438893557e-05,1.745276069064872e-05,1.710560255698576e-05
8.4226497308,33.5773502692,8,0,-0.06736723033523195,3.721430062865317,-1.76716911807676,-3.192719187364995e-06,1.19624699854372e-05,-1.413735294461408e-05,1.474760316666574e-05,1.546104337687527e-05
9.5773502692,33.5773502692,8,0,0.1091295468423465,4.42741717157563,-1.805656632850646,-3.192719187364995e-06,1.408043131156814e-05,-1.444525306280517e-05,1.670248679819995e-05,1.763454539678316e-05
10.4226497308,32.4226497308,8,0,0.04818175283926585,4.899778972419695,-2.369507443969023,-3.765641568850104e-06,1.564074730947161e-05,-1.895605955175219e-05,1.950166105170462e-05,1.873008436887351e-05
11.5773502692,32.4226497308,8,0,0.2269235241882741,5.614746057815728,-2.412764806786888,-3.765641568850104e-06,1.778564856565971e-05,-1.930211845429511e-05,2.147573786695191e-05,2.098541753784821e-05
10.4226497308,33.5773502692,8,0,-0.06717121467507603,4.870940730541109,-2.101394786945552,-4.111700471393131e-06,1.564074730947161e-05,-1.681115829556441e-05,1.873346937249198e-05,1.924796786343189e-05
11.5773502692,33.5773502692,8,0,0.1115705566738872,5.585907815936962,-2.144652149763538,-4.111700471393131e-06,1.778564856565917e-05,-1.715721719810831e-05,2.074617960346835e-05,2.148241799666881e-05
12.4226497308,32.4226497308,8,0,0.04226831839256229,6.064405091825221,-2.685170515680303,-4.716265454603977e-06,1.937228163912666e-05,-2.148136412544242e-05,2.346575193841842e-05,2.265406656568649e-05
13.5773502692,32.4226497308,8,0,0.2247567278659557,6.794358729718795,-2.732770987158272,-4.716265454603977e-06,2.156214255280738e-05,-2.186216789726617e-05,2.551466982896505e-05,2.49575673209602e-05
12.4226497308,33.5773502692,8,0,-0.08466627221533618,6.032671444173246,-2.411437901470416,-5.097069226427673e-06,1.937228163912666e-05,-1.929150321176333e-05,2.271733043329811e-05,2.313217044847297e-05
13.5773502692,33.5773502692,8,0,0.09782213725802102,6.762625082066675,-2.459038372948331,-5.097069226427673e-06,2.156214255280694e-05,-1.967230698358665e-05,2.479841450550872e-05,2.540492783366796e-05
14.4226497308,32.4226497308,8,0,0.01122349755350083,7.248579515934807,-2.975956755839909,-5.762948420576642e-06,2.318647565294858e-05,-2.380765404671927e-05,2.745258500558263e-05,2.665707365493214e-05
15.5773502692,32.4226497308,8,0,0.1985484679295482,7.997879397438997,-3.026907518277453,-5.762948420576642e-06,2.543437529746115e-05,-2.421526014621963e-05,2.958192719650949e-05,2.899671055205229e-05
14.4226497308,33.5773502692,8,0,-0.1246452022798779,7.214612340976462,-2.694969300275865,-6.170554520076778e-06,2.318647565294858e-05,-2.155975440220692e-05,2.671962050219822e-05,2.707865747433976e-05
15.5773502692,33.5773502692,8,0,0.06267976809613307,7.963912222480506,-2.745920062713423,-6.170554520076778e-06,2.543437529746071e-05,-2.196736050170739e-05,2.887662730128543e-05,2.937861450578852e-05
16.4226497308,32.4226497308,8,0,-0.04935043480477663,8.457529713255049,-3.236158310572518,-6.923945161979323e-06,2.710357543025997e-05,-2.588926648458014e-05,3.146811182006034e-05,3.071935755408842e-05
17.5773502692,32.4226497308,8,0,0.1433528924025755,9.228343022084458,-3.289043939306338,-6.923945161979323e-06,2.94160153567482e-05,-2.63123515144507e-05,3.367889365755623e-05,3.308607979023726e-05
16.4226497308,33.5773502692,8,0,-0.1903787780948911,8.42227262743252,-2.947103319761544,-7.347030191849667e-06,2.710357543025997e-05,-2.357682655809235e-05,3.075116759259409e-05,3.106927352991677e-05
17.5773502692,33.5773502692,8,0,0.002324549112451724,9.193085936261891,-2.99998894849531,-7.347030191849667e-06,2.941601535674809e-05,-2.399991158796248e-05,3.298624236599886e-05,3.33882828508576e-05
18.4226497308,32.4226497308,8,0,-0.1415068167566371,9.693390573502878,-3.458205655528665,-8.207534272423541e-06,3.113205528861452e-05,-2.766564524422932e-05,3.550904425151159e-05,3.482473847292141e-05
19.5773502692,32.4226497308,8,0,0.05648221285906763,10.4853466919657,-3.511357920030881,-8.207534272423541e-06,3.350792364400297e-05,-2.809086336024705e-05,3.779614880121961e-05,3.720812009508841e-05
18.4226497308,33.5773502692,8,0,-0.2832461887623126,9.65795573050146,-3.161222111105176,-8.632752388440567e-06,3.113205528861452e-05,-2.528977688884141e-05,3.481240142054117e-05,3.508952184414194e-05
19.5773502692,33.5773502692,8,0,-0.08525715914657184,10.44991184896442,-3.214374375607311,-8.632752388440567e-06,3.350792364400341e-05,-2.571499500485849e-05,3.712106970403824e-05,3.741838388886889e-05
20.4226497308,32.4226497308,8,0,-0.2647268538366863,10.95478204850566,-3.633669509989302,-9.610951571081925e-06,3.526708403828746e-05,-2.906935607991442e-05,3.956318145243381e-05,3.895406985368559e-05
21.5773502692,32.4226497308,8,0,-0.06220625211471686,11.76486445539354,-3.68535455025194,-9.610951571081925e-06,3.76973312589511e-05,-2.948283640201552e-05,4.191482088086176e-05,4.134071167967149e-05
20.4226497308,33.5773502692,8,0,-0.4025536278704767,10.92032535499722,-3.329888607406348,-1.00244318931833e-05,3.526708403828746e-05,-2.663910885925078e-05,3.889376189503381e-05,3.912253038246323e-05
21.5773502692,33.5773502692,8,0,-0.2000330261484802,11.7304077618852,-3.381573647668972,-1.00244318931833e-05,3.769733125895142e-05,-2.705258918135178e-05,4.126457967639362e-05,4.144948314197429e-05
22.4226497308,32.4226497308,8,0,-0.4159522797638804,12.23671448104282,-3.754298702674105,-1.112041888007867e-05,3.949024816314812e-05,-3.003438962139284e-05,4.361068641769207e-05,4.308303635146769e-05
23.5773502692,32.4226497308,8,0,-0.210277875133746,13.05941209956335,-3.802903819646338,-1.112041888007867e-05,4.195834101870972e-05,-3.04232305571707e-05,4.600869672495659e-05,4.545651405231216e-05
22.4226497308,33.5773502692,8,0,-0.5455659250233671,12.20431106972808,-3.445787095728958,-1.150925981585724e-05,3.949024816314855e-05,-2.756629676583166e-05,4.297691569943327e-05,4.314694366218453e-05
23.5773502692,33.5773502692,8,0,-0.339891520393242,13.02700868824858,-3.494392212701218,-1.150925981585724e-05,4.195834101871005e-05,-2.795513770160974e-05,4.539188247521678e-05,4.545753928792731e-05
24.4226497308,32.4226497308,8,0,-0.5898952824035009,13.5308418254275,-3.812993199219032,-1.27123383640332e-05,4.377061006729079e-05,-3.050394559375226e-05,4.762591980377189e-05,4.718236880114754e-05
25.5773502692,32.4226497308,8,0,-0.382968760540336,14.35854791288016,-3.857189746770854,-1.27123383640332e-05,4.625372832964877e-05,-3.085751797416683e-05,5.004675032613904e-05,4.952401396080579e-05
24.4226497308,33.5773502692,8,0,-0.707752742541766,13.50137746039293,-3.502603416424312,-1.306591074444799e-05,4.377061006729079e-05,-2.802082733139449e-05,4.703656048605391e-05,4.713698099236227e-05
25.5773502692,33.5773502692,8,0,-0.5008262206786012,14.32908354784559,-3.54679996397608,-1.306591074444799e-05,4.625372832964877e-05,-2.837439971180864e-05,4.947219242665964e-05,4.941470543168094e-05
26.4226497308,32.4226497308,8,0,-0.77959042902354,14.82603745612094,-3.804598705768453,-1.435551933777208e-05,4.806699220280585e-05,-3.043678964614763e-05,5.157953270754067e-05,5.1219331926322e-05
27.57735026920001,32.4226497308,8,0,-0.5736895317862478,15.64964104507011,-3.843458359576785,-1.435551933777208e-05,5.053780296965335e-05,-3.074766687661428e-05,5.399574562398538e-05,5.350938158363522e-05
26.4226497308,33.5773502692,8,0,-0.8832161725125696,14.80013102024869,-3.495747359912569,-1.466639656823917e-05,4.806699220280585e-05,-2.796597887930055e-05,5.104259695907261e-05,5.106363273416719e-05
27.57735026920001,33.5773502692,8,0,-0.6773152752752774,15.62373460919786,-3.534607013720888,-1.466639656823917e-05,5.053780296965335e-05,-2.82768561097671e-05,5.347148878661253e-05,5.329086146341999e-05
28.4226497308,32.4226497308,8,0,-0.977099999026751,16.10921323427003,-3.726429160362505,-1.601409058430163e-05,5.23311623488855e-05,-2.981143328290004e-05,5.544055283712595e-05,5.515973190799305e-05
29.5773502692,32.4226497308,8,0,-0.7747051512221974,16.91879262548825,-3.759479061644062,-1.601409058430163e-05,5.475990052254015e-05,-3.00758324931525e-05,5.782259130512038e-05,5.737852318730487e-05
28.4226497308,33.5773502692,8,0,-1.065233069110831,16.08717996674901,-3.422836888655701,-1.627848979455387e-05,5.23311623488855e-05,-2.738269510924561e-05,5.496241741299308e-05,5.489633812009284e-05
29.5773502692,33.5773502692,8,0,-0.8628382213062595,16.8967593579673,-3.455886789937299,-1.627848979455387e-05,5.475990052254036e-05,-2.764709431949839e-05,5.735505542783097e-05,5.705535318742258e-05
30.4226497308,32.4226497308,8,0,-1.174252224601971,17.3662605163364,-3.578473353938429,-1.765061553179542e-05,5.651143543195804e-05,-2.862778683150743e-05,5.917824002299408e-05,5.896992309656269e-05
31.5773502692,32.4226497308,8,0,-0.9778735420762628,18.15177524643923,-3.605688726790337,-1.765061553179542e-05,5.886797962226654e-05,-2.88455098143227e-05,6.149620716231566e-05,6.109891722468858e-05
30.4226497308,33.5773502692,8,0,-1.246826552207243,17.34811693443501,-3.28390533014988,-1.786833851461118e-05,5.651143543195783e-05,-2.627124264119904e-05,5.876305249393883e-05,5.860470307717077e-05
31.5773502692,33.5773502692,8,0,-1.050447869681543,18.13363166453781,-3.311120703001802,-1.786833851461118e-05,5.886797962226622e-05,-2.648896562401442e-05,6.108962167749119e-05,6.067859062751429e-05
32.4226497308,32.4226497308,8,0,-1.363295519726866,18.58297920330509,-3.363304892651994,-1.922892902577004e-05,6.055616986635776e-05,-2.690643914121595e-05,6.276355650245013e-05,6.261847741408293e-05
33.57735026920001,32.4226497308,8,0,-1.175322408927931,19.33487164650083,-3.385050773685714,-1.922892902577004e-05,6.281184719594498e-05,-2.708040618948571e-05,6.498878933375288e-05,6.464099892871792e-05
32.4226497308,33.5773502692,8,0,-1.421284535816786,18.56848194928261,-3.081345226453564,-1.94028960740398e-05,6.055616986635776e-05,-2.465076181162851e-05,6.241296167485604e-05,6.215997490019291e-05
33.57735026920001,33.5773502692,8,0,-1.233311425017842,19.32037439247839,-3.103091107487291,-1.94028960740398e-05,6.281184719594509e-05,-2.482472885989833e-05,6.464493193346048e-05,6.413330444851294e-05
34.42264973080001,32.4226497308,8,0,-1.537388524020018,19.74588275561576,-3.085767327722197,-2.071634948135666e-05,6.441673563718645e-05,-2.468613862177758e-05,6.617018749875933e-05,6.607735244679443e-05
35.5773502692,32.4226497308,8,0,-1.359975237974075,20.45553589979954,-3.102709200480601,-2.071634948135666e-05,6.654569506973776e-05,-2.482167360384481e-05,6.827649567349346e-05,6.797902172134158e-05
34.42264973080001,33.5773502692,8,0,-1.582566851375689,19.73458817377691,-2.81964739865331,-2.085188446342373e-05,6.441673563718667e-05,-2.255717918922648e-05,6.588334368060457e-05,6.553612914508864e-05
35.5773502692,33.5773502692,8,0,-1.405153565329787,20.44424131796052,-2.836589271411707,-2.085188446342373e-05,6.654569506973749e-05,-2.269271417129366e-05,6.799470753293124e-05,6.739538794208877e-05
36.4226497308,32.4226497308,8,0,-1.690898139754799,20.84281322164536,-2.752530905987816,-2.208512462453164e-05,6.8049720821069e-05,-2.202024724790253e-05,6.937513604864921e-05,6.932254512942348e-05
37.5773502692,32.4226497308,8,0,-1.525888528408719,21.50285166702968,-2.765535134919292,-2.208512462453164e-05,7.002983615722196e-05,-2.212428107935434e-05,7.133966995319314e-05,7.109145006707017e-05
36.4226497308,33.5773502692,8,0,-1.725576083572014,20.83414373569106,-2.505016488968777,-2.218915845598329e-05,6.8049720821069e-05,-2.004013191175022e-05,6.914895224797583e-05,6.871054216348724e-05
37.5773502692,33.5773502692,8,0,-1.560566472225953,21.49418218107531,-2.518020717900233,-2.218915845598329e-05,7.002983615722174e-05,-2.014416574320187e-05,7.11170823319229e-05,7.04443515192892e-05
38.4226497308,32.4226497308,8,0,-1.819523502920881,21.86335127235846,-2.371610957828865,-2.331315622723358e-05,7.141834287388376e-05,-1.897288766263092e-05,7.235897848151046e-05,7.233432213247979e-05
39.5773502692,32.4226497308,8,0,-1.668410539539216,22.46780312588512,-2.381651277412429,-2.331315622723358e-05,7.323169843446374e-05,-1.905321021929943e-05,7.416276127786257e-05,7.396100682498461e-05
38.4226497308,33.5773502692,8,0,-1.846297688477087,21.85665772596941,-2.144941512756361,-2.33934787839022e-05,7.141834287388376e-05,-1.715953210205089e-05,7.218849214756954e-05,7.166430609002092e-05
39.5773502692,33.5773502692,8,0,-1.695184725095404,22.46110957949614,-2.154981832339965,-2.33934787839022e-05,7.323169843446395e-05,-1.723985465871972e-05,7.399465735440796e-05,7.326347460452558e-05
40.4226497308,32.4226497308,8,0,-1.920288375076829,22.79904410601045,-1.951911628679794,-2.43841580850542e-05,7.449317183929488e-05,-1.561529302943835e-05,7.510588984843244e-05,7.509716130404674e-05
41.5773502692,32.4226497308,8,0,-1.7842005522466,23.34339539733136,-1.95999113854408,-2.43841580850542e-05,7.612622571325764e-05,-1.567992910835264e-05,7.673407891594091e-05,7.657450837371859e-05
40.4226497308,33.5773502692,8,0,-1.941833734714915,22.79365776610092,-1.74777989443451,-2.444879416396847e-05,7.449317183929488e-05,-1.398223915547608e-05,7.498471391494449e-05,7.438228306749815e-05
41.5773502692,33.5773502692,8,0,-1.805745911884672,23.3380090574219,-1.755859404298796,-2.444879416396847e-05,7.61262257132578e-05,-1.404687523439037e-05,7.661432342033166e-05,7.583975611790255e-05
42.4226497308,32.4226497308,8,0,-1.991447578942601,23.64349141649087,-1.502829467356074,-2.528742538580902e-05,7.725233059592486e-05,-1.20226357388486e-05,7.760353678318849e-05,7.759953044321907e-05
43.57735026920001,32.4226497308,8,0,-1.871154088920439,24.12466537657952,-1.509921982991447,-2.528742538580902e-05,7.869585247619081e-05,-1.207937586393158e-05,7.904548167127855e-05,7.892259574642096e-05
42.4226497308,33.5773502692,8,0,-2.010360953970316,23.63876307273394,-1.322389232322803,-2.534416551089216e-05,7.725233059592486e-05,-1.057911385858243e-05,7.752432266079816e-05,7.685299817253484e-05
43.57735026920001,33.5773502692,8,0,-1.890067463948126,24.1199370328227,-1.32948174795823,-2.534416551089216e-05,7.869585247619114e-05,-1.063585398366584e-05,7.896696780770697e-05,7.816375389586906e-05
44.4226497308,32.4226497308,8,0,-2.032346062085537,24.39233102454938,-1.03393097174982,-2.601737221831322e-05,7.968133612822645e-05,-8.27144777399856e-06,7.984290958880594e-05,7.983359923211734e-05
45.5773502692,32.4226497308,8,0,-1.928273601482375,24.80862086696203,-1.040942298563095,-2.601737221831322e-05,8.093020565546439e-05,-8.327538388504762e-06,8.109206789547412e-05,8.099944173781611e-05
44.4226497308,33.5773502692,8,0,-2.051042933587604,24.38765680667387,-0.8778222808451515,-2.607346283281943e-05,7.968133612822645e-05,-7.022578246761212e-06,7.979779032084921e-05,7.906845417729704e-05
45.5773502692,33.5773502692,8,0,-1.946970472984433,24.80394664908655,-0.8848336076583657,-2.607346283281943e-05,8.09302056554645e-05,-7.078668861266926e-06,8.104714756016344e-05,8.022938558855094e-05
46.42264973080001,32.4226497308,8,0,-2.043263829183863,25.04316165477918,-0.5547066673406263,-2.65729735772117e-05,8.177272835864047e-05,-4.437653338725011e-06,8.181814897679322e-05,8.179495659119885e-05
47.57735026920001,32.4226497308,8,0,-1.955518387144901,25.39414342293503,-0.562454141767309,-2.65729735772117e-05,8.282567366310801e-05,-4.499633134138472e-06,8.287192227567249e-05,8.280250108320985e-05
46.42264973080001,33.5773502692,8,0,-2.063923760988395,25.03799667182805,-0.4230885042821561,-2.66349533726253e-05,8.177272835864047e-05,-3.384708034257248e-06,8.17991412883398e-05,8.102393439809729e-05
47.57735026920001,33.5773502692,8,0,-1.976178318949401,25.38897843998403,-0.4308359787088319,-2.66349533726253e-05,8.282567366310839e-05,-3.446687829670655e-06,8.285279920161815e-05,8.203375070370969e-05
48.4226497308,32.4226497308,8,0,-2.025278592191995,25.59543713708696,-0.07439349662836779,-2.695724120468395e-05,8.352562171243185e-05,-5.951479730269423e-07,8.352642319089415e-05,8.348239759076764e-05
49.57735026920001,32.4226497308,8,0,-1.953666231439967,25.88188658009507,-0.08359916461434566,-2.695724120468395e-05,8.438497004145619e-05,-6.687933169147653e-07,8.438597433367684e-05,8.433236490137212e-05
48.4226497308,33.5773502692,8,0,-2.049827040154684,25.58930002509629,0.03302504449968183,-2.703088654857201e-05,8.352562171243185e-05,2.642003559974546e-07,8.35257795541762e-05,8.271784829065246e-05
49.57735026920001,33.5773502692,8,0,-1.978214679402669,25.87574946810435,0.02381937651364297,-2.703088654857201e-05,8.438497004145603e-05,1.905550121091438e-07,8.438505151815782e-05,8.357702134998247e-05
50.42264973080001,32.4226497308,8,0,-1.980171310949472,26.05036117353829,0.3981581144866917,-2.717683713386894e-05,8.494529280408209e-05,3.185264915893534e-06,8.49679106992142e-05,8.489783357190566e-05
51.57735026920001,32.4226497308,8,0,-1.924214483685107,26.27418848259575,0.3868687709930924,-2.717683713386894e-05,8.561677473125447e-05,3.094950167944739e-06,8.563800136391558e-05,8.559275539935294e-05
50.42264973080001,33.5773502692,8,0,-2.010276226932484,26.04283494454254,0.4820933553832652,-2.726715188181798e-05,8.494529280408209e-05,3.856746843066122e-06,8.497842216427715e-05,8.415165863978507e-05
51.57735026920001,33.5773502692,8,0,-1.954319399668119,26.2666622536,0.4708040118896455,-2.726715188181798e-05,8.561677473125447e-05,3.766432095117164e-06,8.564818324346273e-05,8.486242385218622e-05
52.4226497308,32.4226497308,8,0,-1.910379444259339,26.41079709328874,0.8546100053680588,-2.724185189626087e-05,8.604285425393141e-05,6.83688004294447e-06,8.614591415701577e-05,8.604634073226084e-05
53.5773502692,32.4226497308,8,0,-1.869330362851438,26.57499341892034,0.8407133318011649,-2.724185189626087e-05,8.653544323082622e-05,6.725706654409319e-06,8.66347505710109e-05,8.659063707993874e-05
52.4226497308,33.5773502692,8,0,-1.947437240437749,26.40153264424413,0.9161836274799235,-2.73530252847961e-05,8.604285425393141e-05,7.329469019839389e-06,8.616116790837762e-05,8.532989588529863e-05
53.5773502692,33.5773502692,8,0,-1.906388159029861,26.56572896987568,0.9022869539130501,-2.73530252847961e-05,8.653544323082606e-05,7.218295631304401e-06,8.664970319748337e-05,8.589628801853241e-05
54.42264973080001,32.4226497308,8,0,-1.818972815124086,26.6811817118813,1.287291173789137,-2.716565837790211e-05,8.683495973011942e-05,1.02983293903131e-05,8.706706395137242e-05,8.693629253198779e-05
55.57735026920001,32.4226497308,8,0,-1.791830705381221,26.78975015085276,1.270381057359189,-2.716565837790211e-05,8.71606650470338e-05,1.016304845887351e-05,8.738608186252832e-05,8.733634444126126e-05
54.42264973080001,33.5773502692,8,0,-1.86406645893755,26.66990830092793,1.328004338403455,-2.730093930934251e-05,8.683495973011942e-05,1.062403470722764e-05,8.708165398274087e-05,8.626021465170568e-05
55.57735026920001,33.5773502692,8,0,-1.836924349194685,26.77847673989939,1.311094221973473,-2.730093930934251e-05,8.71606650470338e-05,1.048875377578778e-05,8.740044844878541e-05,8.668808857057101e-05
56.4226497308,32.4226497308,8,0,-1.709605332308713,26.8674077354723,1.689394974479633,-2.696466325176572e-05,8.734338901935832e-05,1.351515979583707e-05,8.774149220653517e-05,8.757945059548246e-05
57.57735026920001,32.4226497308,8,0,-1.695146510703909,26.92524302189152,1.669208398738106,-2.696466325176572e-05,8.751689487861597e-05,1.335366718990485e-05,8.790498787287702e-05,8.784357705120217e-05
56.4226497308,33.5773502692,8,0,-1.763436200952694,26.85395001831131,1.711083206886908,-2.712615585769766e-05,8.734338901935832e-05,1.368866565509526e-05,8.775117089571413e-05,8.695340041234463e-05
57.57735026920001,33.5773502692,8,0,-1.74897737934788,26.91178530473056,1.690896631145354,-2.712615585769766e-05,8.751689487861608e-05,1.352717304916283e-05,8.791454633417831e-05,8.725037192508533e-05
58.4226497308,32.4226497308,8,0,-1.586398636813779,26.97663173614546,2.055196023179303,-2.665778102672046e-05,8.759434046511647e-05,1.644156818543443e-05,8.81828195462246e-05,8.799086242929042e-05
59.57735026920001,32.4226497308,8,0,-1.583225351989448,26.98932487544278,2.031640493807522,-2.665778102672046e-05,8.763241988300844e-05,1.625312395046017e-05,8.820736374148287e-05,8.81291271097369e-05
58.4226497308,33.5773502692,8,0,-1.64921338180526,26.96092804989759,2.059955950415806,-2.68462252616949e-05,8.759434046511647e-05,1.647964760332645e-05,8.818457106812633e-05,8.742321877818068e-05
59.57735026920001,33.5773502692,8,0,-1.646040096980929,26.97362118919491,2.036400421043971,-2.68462252616949e-05,8.763241988300844e-05,1.629120336835176e-05,8.820910612602707e-05,8.7598473650045e-05
60.4226497308,32.4226497308,8,0,-1.453741622447599,27.01698241575582,2.380236040084228,-2.626555912443697e-05,8.761733702837668e-05,1.904188832067382e-05,8.840782887037541e-05,8.818845632001018e-05
61.5773502692,32.4226497308,8,0,-1.460348834370214,26.99055356806535,2.35340746071937,-2.626555912443697e-05,8.75380504853053e-05,1.882725968575496e-05,8.831147274431637e-05,8.821228205641013e-05
60.4226497308,33.5773502692,8,0,-1.525284500753899,26.99909669617924,2.370325222200291,-2.648018775935586e-05,8.761733702837668e-05,1.896260177760233e-05,8.839984954018574e-05,8.768603096334647e-05
61.5773502692,33.5773502692,8,0,-1.531891712676514,26.97266784848878,2.343496642835446,-2.648018775935586e-05,8.75380504853053e-05,1.874797314268357e-05,8.830359092357944e-05,8.774998712000617e-05
62.42264973080001,32.4226497308,8,0,-1.316027113662547,26.99717866013637,2.661423451083301,-2.580902969182925e-05,8.744379340336643e-05,2.129138760866641e-05,8.843579281384291e-05,8.819231787078092e-05
63.57735026920001,32.4226497308,8,0,-1.330879496476708,26.93776912887973,2.631605220233273,-2.580902969182925e-05,8.72655648095965e-05,2.105284176186618e-05,8.823714962920394e-05,8.811394896490794e-05
62.42264973080001,33.5773502692,8,0,-1.395542395929232,26.9772998395697,2.63914487686208,-2.60475755386293e-05,8.744379340336643e-05,2.111315901489664e-05,8.841737847884779e-05,8.776016580226443e-05
63.57735026920001,33.5773502692,8,0,-1.410394778743393,26.91789030831306,2.609326646012039,-2.60475755386293e-05,8.72655648095965e-05,2.087461316809631e-05,8.821892704842429e-05,8.772401832268957e-05
64.4226497308,32.4226497308,8,0,-1.177373333398132,26.92610064034866,2.897012103111695,-2.530847517915295e-05,8.710542071583421e-05,2.317609682489356e-05,8.82875297703638e-05,8.802373395963784e-05
65.57735026920001,32.4226497308,8,0,-1.198981100643066,26.83966957136893,2.864652288264504,-2.530847517915295e-05,8.684612750889501e-05,2.291721830611603e-05,8.80048589567323e-05,8.785563088749729e-05
64.4226497308,33.5773502692,8,0,-1.263666172990695,26.90452743045052,2.864600452244233,-2.556735369793064e-05,8.710542071583421e-05,2.291680361795386e-05,8.825888909704448e-05,8.766511174961185e-05
65.57735026920001,33.5773502692,8,0,-1.285273940235652,26.81809636147069,2.832240637397056,-2.556735369793064e-05,8.684612750889473e-05,2.265792509917645e-05,8.797648730050806e-05,8.754032347863177e-05
66.4226497308,32.4226497308,8,0,-1.041382602274996,26.81237402418785,3.086457447856691,-2.478232354663026e-05,8.663270295922111e-05,2.469165958285353e-05,8.79843392448556e-05,8.770415485021907e-05
67.57735026920001,32.4226497308,8,0,-1.068365394472932,26.70444285539611,3.052127531336651,-2.478232354663026e-05,8.630890945284588e-05,2.441702025069321e-05,8.763475532059633e-05,8.745841769236868e-05
66.4226497308,33.5773502692,8,0,-1.132929046328464,26.78948741317448,3.04598325955976,-2.505696287879067e-05,8.663270295922111e-05,2.436786607647808e-05,8.794636536708659e-05,8.742064171166049e-05
67.57735026920001,33.5773502692,8,0,-1.159911838526405,26.68155624438272,3.011653343039746,-2.505696287879067e-05,8.630890945284582e-05,2.409322674431797e-05,8.759710873108267e-05,8.721845331452156e-05
68.42264973080002,32.4226497308,8,0,-0.9109748433872831,26.66402254997548,3.230177921525008,-2.424633753881969e-05,8.605365203463136e-05,2.584142337220006e-05,8.75469862059674e-05,8.725423484688311e-05
69.57735026920001,32.4226497308,8,0,-0.9421067374892917,26.53949497356745,3.194520858408308,-2.424633753881969e-05,8.568006930540726e-05,2.555616686726646e-05,8.714587568018389e-05,8.694213409680924e-05
68.42264973080002,33.5773502692,8,0,-1.006060345031772,26.64025117456436,3.183480080371968,-2.453159404375315e-05,8.605365203463136e-05,2.546784064297574e-05,8.750102273273358e-05,8.704599474393333e-05
69.57735026920001,33.5773502692,8,0,-1.037192239133789,26.51572359815629,3.147823017255261,-2.453159404375315e-05,8.568006930540715e-05,2.518258413804209e-05,8.710027871380532e-05,8.677701756400454e-05
70.4226497308,32.4226497308,8,0,-0.7883101648973581,26.48822387742139,3.329264503605808,-2.371317162960866e-05,8.539296453966634e-05,2.663411602884646e-05,8.699487193901074e-05,8.669307563947837e-05
71.57735026920001,32.4226497308,8,0,-0.8225436713896324,26.3512898514523,3.292940770326138,-2.371317162960866e-05,8.498216246175905e-05,2.63435261626091e-05,8.655554919708444e-05,8.632473603004062e-05
70.4226497308,33.5773502692,8,0,-0.8851734536430538,26.46400805523497,3.277914243867341,-2.400376149584574e-05,8.539296453966634e-05,2.622331395093873e-05,8.694250339802117e-05,8.655921595619173e-05
71.57735026920001,33.5773502692,8,0,-0.9194069601353378,26.32707402926583,3.241590510587658,-2.400376149584574e-05,8.498216246175894e-05,2.593272408470126e-05,8.650356872751068e-05,8.623314807758043e-05
72.4226497308,32.4226497308,8,0,-0.674793686903767,26.29117886208804,3.385181352728491,-2.319228288776248e-05,8.467160730820473e-05,2.708145082182793e-05,8.634547078006111e-05,8.60377393328763e-05
73.57735026920001,32.4226497308,8,0,-0.7112645519196468,26.14529540202452,3.348819951571066,-2.319228288776248e-05,8.423395692801417e-05,2.679055961256853e-05,8.587905927597358e-05,8.562198938402326e-05
72.4226497308,33.5773502692,8,0,-0.7717574233236739,26.26693792798306,3.330475055204684,-2.34831740970222e-05,8.467160730820473e-05,2.664380044163747e-05,8.628835642924377e-05,8.597671556155973e-05
73.57735026920001,33.5773502692,8,0,-0.8082282883395493,26.12105446791956,3.294113654047205,-2.34831740970222e-05,8.423395692801422e-05,2.635290923237764e-05,8.582233935060512e-05,8.560219677766e-05
74.4226497308,32.4226497308,8,0,-0.5711432548191411,26.07808421205404,3.399489979319873,-2.269012578506448e-05,8.390678408242824e-05,2.719591983455898e-05,8.561405441648043e-05,8.530304471575094e-05
75.57735026920001,32.4226497308,8,0,-0.6091601262228492,25.92601672643921,3.363648491855824,-2.269012578506448e-05,8.345058162558374e-05,2.69091879348466e-05,8.512955249359507e-05,8.484742162604373e-05
74.4226497308,33.5773502692,8,0,-0.6667205547232431,26.05418988707802,3.342464672214263,-2.297685768477679e-05,8.390678408242824e-05,2.673971737771411e-05,8.555381271227135e-05,8.531306740133587e-05
75.57735026920001,33.5773502692,8,0,-0.7047374261269512,25.90212240146318,3.306623184750235,-2.297685768477679e-05,8.345058162558374e-05,2.645298547800188e-05,8.506969948329315e-05,8.489767003912386e-05
76.42264973080002,32.4226497308,8,0,-0.4774970561816438,25.85318708267466,3.37361545389928,-2.221054024592099e-05,8.311219630950423e-05,2.698892363119424e-05,8.481368491563727e-05,8.450162503661599e-05
77.57735026920001,32.4226497308,8,0,-0.5165206744531217,25.69709260958875,3.338750444237684,-2.221054024592099e-05,8.26439128902465e-05,2.671000355390147e-05,8.431816650601303e-05,8.401251427488245e-05
76.42264973080002,33.5773502692,8,0,-0.5704704152792432,25.82994374290026,3.315080026492043,-2.248946032321379e-05,8.311219630950423e-05,2.652064021193635e-05,8.475182684689078e-05,8.458103811871762e-05
77.57735026920001,33.5773502692,8,0,-0.6094940335507255,25.67384926981433,3.28021501683044,-2.248946032321379e-05,8.264391289024644e-05,2.624172013464352e-05,8.425668281194986e-05,8.413138098704494e-05
78.4226497308,32.4226497308,8,0,-0.3935408725198393,25.6198971087974,3.308660658855425,-2.17552484791014e-05,8.229850344616753e-05,2.64692852708434e-05,8.395543871297795e-05,8.364421187396989e-05
79.57735026920001,32.4226497308,8,0,-0.4331569334714134,25.4614328649911,3.275107715376994,-2.17552484791014e-05,8.182311071474864e-05,2.620086172301596e-05,8.34543430600738e-05,8.312710176381795e-05
78.4226497308,33.5773502692,8,0,-0.4830153884623485,25.59752847981177,3.249236567428037,-2.202367202692893e-05,8.229850344616753e-05,2.599389253942429e-05,8.389334269630298e-05,8.379182457304542e-05
79.57735026920001,33.5773502692,8,0,-0.522631449413927,25.43906423600545,3.215683623949593,-2.202367202692893e-05,8.182311071474859e-05,2.572546899159674e-05,8.339260214301399e-05,8.331379632959605e-05
80.4226497308,32.4226497308,8,0,-0.318640316133731,25.38093403050714,3.20526591991427,-2.132439623603365e-05,8.147390115052983e-05,2.564212735931416e-05,8.304882309819382e-05,8.27401143280296e-05
81.57735026920001,32.4226497308,8,0,-0.3585291111800215,25.22137885032198,3.173227522199403,-2.132439623603365e-05,8.099523560997434e-05,2.538582017759522e-05,8.254629837247467e-05,8.219995510167204e-05
80.4226497308,33.5773502692,8,0,-0.4040760433733945,25.35957509869722,3.14543272734484,-2.158070341775264e-05,8.147390115052983e-05,2.516346181875872e-05,8.298774170246726e-05,8.295547792410458e-05
81.57735026920001,33.5773502692,8,0,-0.4439648384196806,25.20001991851208,3.113394329629966,-2.158070341775264e-05,8.099523560997439e-05,2.490715463703973e-05,8.248555144987495e-05,8.24545620784226e-05
82.4226497308,32.4226497308,8,0,-0.2519694512587751,25.13849445824579,3.063506665421249,-2.091709781062472e-05,8.064475782739355e-05,2.450805332336999e-05,8.210235793160124e-05,8.179788097574199e-05
83.57735026920001,32.4226497308,8,0,-0.2918742486269883,24.97887526877294,3.033045707003987,-2.091709781062472e-05,8.0165900258975e-05,2.42643656560319e-05,8.160163648017043e-05,8.123955326160313e-05
82.4226497308,33.5773502692,8,0,-0.333198673704814,25.11818715263428,3.003649469368895,-2.116078547796283e-05,8.064475782739355e-05,2.402919575495116e-05,8.20434462316023e-05,8.208150504762117e-05
83.57735026920001,33.5773502692,8,0,-0.3731034710730272,24.95856796316143,2.973188510951613,-2.116078547796283e-05,8.0165900258975e-05,2.378550808761291e-05,8.154304076023003e-05,8.156321013098961e-05
84.42264973080002,32.4226497308,8,0,-0.1926323355478248,24.89442727704948,2.882820186873547,-2.053196529539262e-05,7.981627315499658e-05,2.306256149498838e-05,8.112431273944761e-05,8.08261613603418e-05
85.57735026920001,32.4226497308,8,0,-0.2323274558306201,24.7356467959183,2.853857112045863,-2.053196529539262e-05,7.933993171160305e-05,2.28308568963669e-05,8.062810798930165e-05,8.025508139674915e-05
84.42264973080002,33.5773502692,8,0,-0.2698672017550203,24.87511856049768,2.823277506449376,-2.076366989401421e-05,7.981627315499658e-05,2.2586220051595e-05,8.106866837853965e-05,8.117965951010036e-05
85.57735026920001,33.5773502692,8,0,-0.3095623220377925,24.71633807936659,2.794314431621664,-2.076366989401421e-05,7.933993171160332e-05,2.235451545297331e-05,8.057276656011175e-05,8.065007464314336e-05
86.4226497308,32.4226497308,8,0,-0.1397778394879667,24.65041249969454,2.661952998255445,-2.016761908611713e-05,7.89931422706129e-05,2.129562398604356e-05,8.012360903587014e-05,7.983482654751348e-05
87.57735026920002,32.4226497308,8,0,-0.1790365835680063,24.49337752337438,2.634264895001674,-2.016761908611713e-05,7.852203734165243e-05,2.107411916001339e-05,7.963453462219323e-05,7.925774891081825e-05
86.4226497308,33.5773502692,8,0,-0.2136127814980444,24.63195376419202,2.603064882135365,-2.038912391214736e-05,7.89931422706129e-05,2.082451905708292e-05,8.007231404728488e-05,8.026096615304493e-05
87.57735026920002,33.5773502692,8,0,-0.2528715255780885,24.47491878787185,2.575376778881608,-2.038912391214736e-05,7.852203734165237e-05,2.060301423105287e-05,7.958353802390016e-05,7.972748685535139e-05
88.42264973080002,32.4226497308,8,0,-0.09271070701482209,24.40814260355438,2.398921800674603,-1.982318834529093e-05,7.818022489698587e-05,1.919137440539682e-05,7.911091722358629e-05,7.883647424100212e-05
89.57735026920001,32.4226497308,8,0,-0.131272710062059,24.25389459136543,2.372142278356608,-1.982318834529093e-05,7.771748086041902e-05,1.897713822685286e-05,7.863193750292104e-05,7.826260807576891e-05
88.42264973080002,33.5773502692,8,0,-0.1641227665294265,24.39028958867573,2.341078796103726,-2.003742452383474e-05,7.818022489698587e-05,1.872863036882981e-05,7.906507041902469e-05,7.933907131825005e-05
89.57735026920001,33.5773502692,8,0,-0.2026847695766687,24.23604157648676,2.314299273785744,-2.003742452383474e-05,7.771748086041896e-05,1.851439419028596e-05,7.858639567115026e-05,7.881137963408844e-05
90.42264973080002,32.4226497308,8,0,-0.05100350872505199,24.16950852549911,2.090983052697258,-1.949881804831945e-05,7.738323008857719e-05,1.672786442157806e-05,7.809999456707903e-05,7.784855556491397e-05
91.57735026920001,32.4226497308,8,0,-0.08854067994272441,24.01935984062843,2.064602240998186,-1.949881804831945e-05,7.693278403396513e-05,1.651681792798549e-05,7.763492232652304e-05,7.729120923344185e-05
90.42264973080002,33.5773502692,8,0,-0.1213523399226171,24.15192131769972,2.034677295870743,-1.970986454191215e-05,7.738323008857719e-05,1.627741836696594e-05,7.806072002551856e-05,7.843208929328479e-05
91.57735026920001,33.5773502692,8,0,-0.1588895111402895,24.00177263282903,2.008296484171671,-1.970986454191215e-05,7.693278403396513e-05,1.606637187337337e-05,7.759597216815343e-05,7.792354049550663e-05
92.42264973080002,32.4226497308,8,0,-0.01461522578328545,23.93679473836514,1.734608313018272,-1.919620451319862e-05,7.660943534339507e-05,1.387686650414617e-05,7.710932208607177e-05,7.689656438326871e-05
93.57735026920001,32.4226497308,8,0,-0.05069514216854198,23.79247507282411,1.70797282056859,-1.919620451319862e-05,7.617647634677199e-05,1.366378256454872e-05,7.666338370118739e-05,7.637572093307656e-05
92.42264973080002,33.5773502692,8,0,-0.0856432056491343,23.91903774339868,1.680488438440366,-1.940928845279617e-05,7.660943534339507e-05,1.344390750752293e-05,7.707773316738198e-05,7.75652549994282e-05
93.57735026920001,33.5773502692,8,0,-0.1217231220343908,23.77471807785765,1.653852945990671,-1.940928845279617e-05,7.617647634677199e-05,1.323082356792537e-05,7.663215124304582e-05,7.709494961826342e-05
94.4226497308,32.4226497308,8,0,0.01597705792135162,23.7128894263011,1.325464759904205,-1.891918495569255e-05,7.586846451782643e-05,1.060371807923364e-05,7.616409702745046e-05,7.601912052866499e-05
95.57735026920002,32.4226497308,8,0,-0.01806835619731295,23.57670776982644,1.297777935291764,-1.891918495569255e-05,7.545991954840245e-05,1.038222348233412e-05,7.574458643535716e-05,7.556571355596369e-05
94.4226497308,33.5773502692,8,0,-0.05785447437846258,23.69443154322614,1.274396638726178,-1.9140679552592e-05,7.586846451782643e-05,1.019517310980943e-05,7.614118576021014e-05,7.677495516671048e-05
95.57735026920002,33.5773502692,8,0,-0.09189988849711384,23.55824988675154,1.246709814113758,-1.9140679552592e-05,7.545991954840262e-05,9.973678512910063e-06,7.57220726610775e-05,7.63710194480553e-05
96.4226497308,32.4226497308,8,0,0.03962632019648904,23.5015169090573,0.8584026417425394,-1.867440930261707e-05,7.517315305282616e-05,6.867221133940315e-06,7.529861120519691e-05,7.527654804624187e-05
97.57735026920001,32.4226497308,8,0,0.008383347993896173,23.37654502024693,0.8287260164621824,-1.867440930261707e-05,7.479823738639504e-05,6.629808131697459e-06,7.491564931164099e-05,7.493994015455305e-05
96.4226497308,33.5773502692,8,0,-0.03951134721785099,23.48173249220372,0.8115381834386401,-1.891182230486009e-05,7.517315305282616e-05,6.492305467509121e-06,7.52850199405018e-05,7.611522082631543e-05
97.57735026920001,33.5773502692,8,0,-0.0707543194204554,23.3567606033933,0.7818615581582627,-1.891182230486009e-05,7.479823738639491e-05,6.254892465266102e-06,7.490249567179271e-05,7.582030171384147e-05
98.42264973080002,32.4226497308,8,0,0.05433613891035449,23.3075002530519,0.3274540055271888,-1.847212455792838e-05,7.454053189863777e-05,2.619632044217511e-06,7.455897323763543e-05,7.476609073253431e-05
99.57735026920002,32.4226497308,8,0,0.02690707061535846,23.19778397987191,0.2947114112341156,-1.847212455792838e-05,7.421138307909782e-05,2.357691289872925e-06,7.422637444432534e-05,7.462773317038126e-05
98.42264973080002,33.5773502692,8,0,-0.03297744587122864,23.2856718568565,0.2863104030846955,-1.873406531227313e-05,7.454053189863777e-05,2.290483224677564e-06,7.45545912537503e-05,7.566877705280862e-05
99.57735026920002,33.5773502692,8,0,-0.06040651416623533,23.17595558367647,0.253567808791602,-1.873406531227313e-05,7.421138307909768e-05,2.028542470332816e-06,7.422245004018788e-05,7.554972309272359e-05
0.4226497308,34.4226497308,8,0,-0.04616340290577295,-0.3873787432694122,-0.3806329090702521,1.621801053170563e-07,-1.202681256137501e-06,-3.045063272562017e-06,1.148226040390677e-06,5.071786911540089e-06
1.5773502692,34.4226497308,8,0,0.1272163231097193,0.3061401607925567,-0.4108133158000883,1.621801053170563e-07,8.778754560484058e-07,-3.286506526400707e-06,2.201793592495787e-06,5.630857893672335e-06
0.4226497308,35.5773502692,8,0,-0.1266444875186876,-0.4074990144226409,-0.1205633200470138,-7.926314852168756e-08,-1.202681256137501e-06,-9.645065603761105e-07,9.935562193605686e-08,5.498844483765029e-06
1.5773502692,35.5773502692,8,0,0.04673523849680464,0.286019889639328,-0.1507437267768636,-7.926314852168756e-08,8.778754560484058e-07,-1.205949814214909e-06,1.169116075556291e-06,6.095784944615217e-06
2.4226497308,34.4226497308,8,0,-0.04630136810437371,0.7376178515038763,-0.8637911347689512,-7.382586591370968e-07,2.397418219295903e-06,-6.91032907815161e-06,4.623822703716706e-06,6.352864605599422e-06
3.5773502692,34.4226497308,8,0,0.1262745753504353,1.427921625323112,-0.8923603166526988,-7.382586591370968e-07,4.468329540753611e-06,-7.13888253322159e-06,6.282959288793232e-06,7.76635264394159e-06
2.4226497308,35.5773502692,8,0,-0.1224858531275559,0.7185717302480807,-0.6049272195867783,-9.668121142066433e-07,2.397418219295903e-06,-4.839417756694227e-06,3.662251048381426e-06,6.842557903763817e-06
3.5773502692,35.5773502692,8,0,0.05009009032727124,1.408875504067389,-0.633496401470431,-9.668121142066433e-07,4.468329540753828e-06,-5.067971211763448e-06,5.46643822760033e-06,8.2858391091129e-06
4.422649730800001,34.4226497308,8,0,-0.04249327653701412,1.858672083822364,-1.292862608631322,-1.622916151976337e-06,5.981745289461177e-06,-1.034290086905057e-05,8.598263258848255e-06,8.960656468793509e-06
5.577350269200001,34.4226497308,8,0,0.1294915065598157,2.546611216209684,-1.322066656997805,-1.622916151976337e-06,8.045562686623134e-06,-1.057653325598244e-05,1.03762122889229e-05,1.081006715975934e-05
4.422649730800001,35.5773502692,8,0,-0.1203707388476901,1.83920271824456,-1.034885433986023,-1.856548538908256e-06,5.981745289460744e-06,-8.279083471888181e-06,7.763082417757628e-06,9.492956672851806e-06
5.577350269200001,35.5773502692,8,0,0.0516140442491938,2.527141850632096,-1.064089482352465,-1.856548538908256e-06,8.045562686623351e-06,-8.512715858819721e-06,9.623636763483107e-06,1.134758198248638e-05
6.422649730800001,34.4226497308,8,0,-0.0387310166617203,2.976924164744544,-1.679978331161806,-2.50547858511314e-06,9.557142140511916e-06,-1.343982664929444e-05,1.255544637541844e-05,1.224101955581106e-05
7.577350269200001,34.4226497308,8,0,0.1334268558977489,3.665555654982421,-1.711394902296137,-2.50547858511314e-06,1.162303661122555e-05,-1.369115921836909e-05,1.439573461928807e-05,1.430104351423712e-05
6.422649730800001,35.5773502692,8,0,-0.1225085396866398,2.955979783988314,-1.421741522322642,-2.756811154187898e-06,9.557142140511916e-06,-1.137393217858114e-05,1.178168950355254e-05,1.27768999444262e-05
7.577350269200001,35.5773502692,8,0,0.04964933287282047,3.644611274226155,-1.453158093457001,-2.756811154187898e-06,1.162303661122544e-05,-1.162526474765601e-05,1.367874415922101e-05,1.482724392714804e-05
8.4226497308,34.4226497308,8,0,-0.04044785416168528,4.096370362038989,-2.033426481618615,-3.406529422948583e-06,1.314074344185411e-05,-1.626741185294892e-05,1.646927197612707e-05,1.584676390956701e-05
9.5773502692,34.4226497308,8,0,0.1329319543160106,4.789889595949773,-2.067956520196971,-3.406529422948583e-06,1.522130114358646e-05,-1.654365216157577e-05,1.836419623114369e-05,1.800972660565717e-05
8.4226497308,35.5773502692,8,0,-0.1325279570373734,4.073350336320066,-1.773356768902017,-3.682769731575648e-06,1.314074344185411e-05,-1.418685415121614e-05,1.573236617928828e-05,1.636229750529577e-05
9.5773502692,35.5773502692,8,0,0.04085185144034975,4.766869570230959,-1.807886807480359,-3.682769731575648e-06,1.522130114358679e-05,-1.446309445984287e-05,1.767036856464332e-05,1.850579789059222e-05
10.4226497308,34.4226497308,8,0,-0.05357056597061272,5.222416653584346,-2.357777463690206,-4.349359133973437e-06,1.675458974424639e-05,-1.886221970952165e-05,2.035500018035082e-05,1.961287250270618e-05
11.5773502692,34.4226497308,8,0,0.1221348222055609,5.92523820628904,-2.395682043504323,-4.349359133973437e-06,1.886305440236048e-05,-1.916545634803458e-05,2.230785141475743e-05,2.182978584948573e-05
10.4226497308,35.5773502692,8,0,-0.1546494454749048,5.197146933708137,-2.094219381425851,-4.652595772486204e-06,1.675458974424596e-05,-1.675375505140681e-05,1.964286863836327e-05,2.009192702260516e-05
11.5773502692,35.5773502692,8,0,0.02105594270125977,5.899968486412795,-2.132123961239994,-4.652595772486204e-06,1.886305440235994e-05,-1.705699168991996e-05,2.163043816589439e-05,2.228181201351741e-05
12.4226497308,34.4226497308,8,0,-0.08372337425391274,6.360636045890839,-2.654217782423042,-5.356423634325191e-06,2.042101404625381e-05,-2.123374225938433e-05,2.423070908059697e-05,2.346448027876002e-05
13.5773502692,34.4226497308,8,0,0.0952733128566996,7.076622794333288,-2.695188488391671,-5.356423634325191e-06,2.256897429158116e-05,-2.156150790713336e-05,2.624661597549185e-05,2.57136351677975e-05
12.4226497308,35.5773502692,8,0,-0.1929785901704368,6.333322241911707,-2.385722751757082,-5.684189282074764e-06,2.042101404625381e-05,-1.908578201405666e-05,2.35374314919603e-05,2.389426373621094e-05
13.5773502692,35.5773502692,8,0,-0.0139819030597883,7.049308990354302,-2.426693457725738,-5.684189282074764e-06,2.256897429158159e-05,-1.94135476618059e-05,2.558245584139975e-05,2.610967877663663e-05
14.4226497308,34.4226497308,8,0,-0.1355711993904243,7.515732202803975,-2.9210449245317,-6.446413600292536e-06,2.415880000848506e-05,-2.33683593962536e-05,2.810950019868409e-05,2.73680476289969e-05
15.5773502692,34.4226497308,8,0,0.04738916632755341,8.247573665675885,-2.964301789957981,-6.446413600292536e-06,2.635432439710079e-05,-2.371441431966385e-05,3.019167920629764e-05,2.963883164082342e-05
14.4226497308,35.5773502692,8,0,-0.2509228405272275,7.486894292519774,-2.646604375954639,-6.792468523702947e-06,2.415880000848506e-05,-2.117283500763711e-05,2.743329884866683e-05,2.773709241535643e-05
15.5773502692,35.5773502692,8,0,-0.0679624748092138,8.21873575539183,-2.689861241381001,-6.792468523702947e-06,2.635432439710122e-05,-2.151888993104801e-05,2.954056169342166e-05,2.996785412103279e-05
16.4226497308,34.4226497308,8,0,-0.2123031260362027,8.690713612536817,-3.154294050091355,-7.6319408933453e-06,2.798012606094677e-05,-2.523435240073084e-05,3.199719876647585e-05,3.130628475262996e-05
17.5773502692,34.4226497308,8,0,-0.02511576268382276,9.439463065946336,-3.198707235374911,-7.6319408933453e-06,3.022637442117533e-05,-2.558965788299929e-05,3.41449881487931e-05,3.359106736169144e-05
16.4226497308,35.5773502692,8,0,-0.330738286792442,8.661104822347756,-2.873513005062825,-7.987246375614019e-06,2.798012606094677e-05,-2.29881040405026e-05,3.133949964771333e-05,3.160389547924561e-05
17.5773502692,35.5773502692,8,0,-0.143550923440062,9.409854275757276,-2.917926190346381,-7.987246375614019e-06,3.022637442117533e-05,-2.334340952277105e-05,3.350926914895756e-05,3.384288188768071e-05
18.4226497308,34.4226497308,8,0,-0.3152730508799655,9.886292149398738,-3.348470073551992,-8.917907482334879e-06,3.188835331877993e-05,-2.678776058841594e-05,3.589185643203845e-05,3.526567417031226e-05
19.5773502692,34.4226497308,8,0,-0.1240761817692722,10.65107962584151,-3.392700084623584,-8.917907482334879e-06,3.418271574810825e-05,-2.714160067698868e-05,3.809968809762135e-05,3.755600244529815e-05
18.4226497308,35.5773502692,8,0,-0.4332197470706793,9.856805475351059,-3.06167476988602,-9.27174757090702e-06,3.188835331877993e-05,-2.449339815908816e-05,3.525658286764807e-05,3.548214790408093e-05
19.5773502692,35.5773502692,8,0,-0.2420228779600224,10.62159295179369,-3.105904780957504,-9.27174757090702e-06,3.418271574810782e-05,-2.484723824766003e-05,3.748384615486227e-05,3.772171953976267e-05
20.4226497308,34.4226497308,8,0,-0.4438233029579992,11.10052727140161,-3.497347488760528,-1.030065638658688e-05,3.587674591085154e-05,-2.797877991008422e-05,3.978417693044675e-05,3.923073943488957e-05
21.5773502692,34.4226497308,8,0,-0.2493387992047369,11.87846528641466,-3.539994867286149,-1.030065638658688e-05,3.821055995589069e-05,-2.831995893828919e-05,4.204123929872649e-05,4.15158777049769e-05
20.4226497308,35.5773502692,8,0,-0.557549645692772,11.07209568571791,-3.205620733130689,-1.06418354147912e-05,3.587674591085154e-05,-2.564496586504551e-05,3.917702359340142e-05,3.935791153519214e-05
21.5773502692,35.5773502692,8,0,-0.3630651419394826,11.85003370073107,-3.248268111656269,-1.06418354147912e-05,3.821055995589101e-05,-2.598614489325015e-05,4.145129316225907e-05,4.158849956215129e-05
22.4226497308,34.4226497308,8,0,-0.5953117229301013,12.32873413928384,-3.594781928092567,-1.17679848248034e-05,3.992819862405237e-05,-2.875825542474053e-05,4.365853078534044e-05,4.318198741864748e-05
23.5773502692,34.4226497308,8,0,-0.398739884128064,13.11502149449199,-3.634533044827692,-1.17679848248034e-05,4.228706068967682e-05,-2.907626435862153e-05,4.594901941479876e-05,4.54487455374857e-05
22.4226497308,35.5773502692,8,0,-0.701314700890507,12.30223339479388,-3.299924169889443,-1.208599375868472e-05,3.992819862405281e-05,-2.639939335911555e-05,4.30861679176e-05,4.321382143107954e-05
23.5773502692,35.5773502692,8,0,-0.5047428620884697,13.08852075000203,-3.339675286624622,-1.208599375868472e-05,4.228706068967725e-05,-2.671740229299698e-05,4.539182196289423e-05,4.542369532887397e-05
24.4226497308,34.4226497308,8,0,-0.7653419475732948,13.56365708330637,-3.635461943574364,-1.330001989887963e-05,4.4015976224639e-05,-2.908369554859491e-05,4.749434680649965e-05,4.709586269815617e-05
25.5773502692,34.4226497308,8,0,-0.5682900293991593,14.35186475600291,-3.671215159078948,-1.330001989887963e-05,4.638059924272863e-05,-2.936972127263158e-05,4.97982091376614e-05,4.932911234847955e-05
24.4226497308,35.5773502692,8,0,-0.8606838555853926,13.53982160630334,-3.339884066313255,-1.358604562291593e-05,4.4015976224639e-05,-2.671907253050604e-05,4.696359423904026e-05,4.702891323804501e-05
25.5773502692,35.5773502692,8,0,-0.663631937411266,14.32802927899985,-3.375637281817772,-1.358604562291593e-05,4.638059924272852e-05,-2.700509825454217e-05,4.928068382689512e-05,4.92045762255118e-05
26.4226497308,34.4226497308,8,0,-0.9481659187647304,14.79588161585823,-3.615526595966714,-1.487083623273372e-05,4.810535390575811e-05,-2.892421276773371e-05,5.126769392971342e-05,5.09457576381577e-05
27.57735026920001,34.4226497308,8,0,-0.752541389423115,15.57837973322469,-3.646484385971599,-1.487083623273372e-05,5.045284825785749e-05,-2.917187508777279e-05,5.356174143819622e-05,5.312926505723968e-05
26.4226497308,35.5773502692,8,0,-1.03072002544435,14.77524308918832,-3.322089801954277,-1.511849855277258e-05,4.810535390575811e-05,-2.657671841563422e-05,5.078474392945238e-05,5.07794160790538e-05
27.57735026920001,35.5773502692,8,0,-0.8350954961027348,15.55774120655479,-3.353047591959121,-1.511849855277258e-05,5.045284825785749e-05,-2.682438073567297e-05,5.309015088651041e-05,5.2906295585431e-05
28.4226497308,34.4226497308,8,0,-1.137197697414424,16.0144268058241,-3.532989443241904,-1.645057407638543e-05,5.215592393656866e-05,-2.826391554593523e-05,5.495287874216397e-05,5.470348067680272e-05
29.5773502692,34.4226497308,8,0,-0.9450814531249785,16.78289178298188,-3.558707417106402,-1.645057407638543e-05,5.4461318868042e-05,-2.846965933685122e-05,5.721210630399654e-05,5.682081031261831e-05
28.4226497308,35.5773502692,8,0,-1.20577896105285,15.9972814899145,-3.244815076807763,-1.665631786730072e-05,5.215592393656866e-05,-2.59585206144621e-05,5.452265108372326e-05,5.443997813099405e-05
29.5773502692,35.5773502692,8,0,-1.013662716763405,16.76574646707228,-3.27053305067222,-1.665631786730072e-05,5.4461318868042e-05,-2.616426440537776e-05,5.679144013548938e-05,5.65031972619548e-05
30.4226497308,34.4226497308,8,0,-1.325560165743842,17.20743619260586,-3.387940367720013,-1.800774148446498e-05,5.612424394893381e-05,-2.71035229417601e-05,5.852390788505145e-05,5.834078892739778e-05
31.5773502692,34.4226497308,8,0,-1.139076759169089,17.95336981890487,-3.408331994416,-1.800774148446498e-05,5.836204482783085e-05,-2.7266655955328e-05,6.072285054459654e-05,6.037611809375439e-05
30.4226497308,35.5773502692,8,0,-1.379937836933015,17.1938417748085,-3.108215257857883,-1.817087449803244e-05,5.61242439489336e-05,-2.486572206286306e-05,5.814959870550913e-05,5.798498208074286e-05
31.5773502692,35.5773502692,8,0,-1.193454430358217,17.93977540110769,-3.128606884553788,-1.817087449803244e-05,5.836204482783118e-05,-2.502885507643031e-05,6.035639528769776e-05,5.99700743607674e-05
32.4226497308,34.4226497308,8,0,-1.506588162163129,18.36287832373769,-3.182534281147005,-1.951138477791217e-05,5.996648116569111e-05,-2.546027424917604e-05,6.195570637212876e-05,6.183073398084582e-05
33.57735026920001,34.4226497308,8,0,-1.327788102677244,19.07807856168123,-3.197837981493139,-1.951138477791217e-05,6.211208187952174e-05,-2.558270385194511e-05,6.406968641554601e-05,6.376948932368886e-05
32.4226497308,35.5773502692,8,0,-1.547398029752946,18.35267585684024,-2.914334191918083,-1.963381438068162e-05,5.996648116569111e-05,-2.331467353534466e-05,6.163855618418059e-05,6.138973357511068e-05
33.57735026920001,35.5773502692,8,0,-1.36859797026707,19.06787609478375,-2.929637892264277,-1.963381438068162e-05,6.211208187952163e-05,-2.343710313811422e-05,6.375880378250737e-05,6.328322239827021e-05
34.42264973080001,34.4226497308,8,0,-1.674231791149003,19.46917994505803,-2.920808028157424,-2.093288568772323e-05,6.364076125710489e-05,-2.33664642252594e-05,6.522503706411042e-05,6.514868853150139e-05
35.5773502692,34.4226497308,8,0,-1.504996039950028,20.14612294985393,-2.931528587932955,-2.093288568772323e-05,6.56715902714926e-05,-2.345222870346364e-05,6.723120214041956e-05,6.697797549832114e-05
34.42264973080001,35.5773502692,8,0,-1.702819950550293,19.46203290520784,-2.666954401358987,-2.101865016592721e-05,6.364076125710532e-05,-2.13356352108719e-05,6.496430649080987e-05,6.463140439192617e-05
35.5773502692,35.5773502692,8,0,-1.533584199351361,20.13897591000357,-2.677674961134484,-2.101865016592721e-05,6.567159027149249e-05,-2.142139968907587e-05,6.697530584873812e-05,6.642121727344081e-05
36.4226497308,34.4226497308,8,0,-1.823333481431225,20.51574087550523,-2.608384491873859,-2.22472598409841e-05,6.71090375867617e-05,-2.086707593499087e-05,6.831112085811433e-05,6.827302046513478e-05
37.5773502692,34.4226497308,8,0,-1.665304307739865,21.14785757027067,-2.615222254919826,-2.22472598409841e-05,6.900538767105804e-05,-2.092177803935861e-05,7.018922967602631e-05,6.998186214588668e-05
36.4226497308,35.5773502692,8,0,-1.841567516220381,20.51118236680794,-2.371340731336763,-2.230196194535157e-05,6.71090375867617e-05,-1.89707258506941e-05,6.810423605561651e-05,6.768969192170742e-05
37.5773502692,35.5773502692,8,0,-1.683538342529024,21.14329906157337,-2.378178494382696,-2.230196194535157e-05,6.900538767105798e-05,-1.902542795506157e-05,6.998592509713053e-05,6.936541622751754e-05
38.4226497308,34.4226497308,8,0,-1.949780613132335,21.49330996339474,-2.252123613963309,-2.343394593273926e-05,7.033841637336903e-05,-1.801698891170647e-05,7.119599874476012e-05,7.118545206971831e-05
39.5773502692,34.4226497308,8,0,-1.804317941588963,22.07516064956823,-2.255903082712938,-2.343394593273926e-05,7.20839684318895e-05,-1.804722466170351e-05,7.292895728937355e-05,7.276487921249218e-05
38.4226497308,35.5773502692,8,0,-1.959859196464482,21.49079031756177,-2.033929606648331,-2.346418168273575e-05,7.033841637336924e-05,-1.627143685318665e-05,7.103881652544694e-05,7.054721459924624e-05
39.5773502692,35.5773502692,8,0,-1.814396524921127,22.07264100373519,-2.037709075397907,-2.346418168273575e-05,7.20839684318895e-05,-1.630167260318325e-05,7.277429660000701e-05,7.210022348943835e-05
40.4226497308,34.4226497308,8,0,-2.050554234244459,22.39422685196169,-1.859768374767591,-2.447715503115162e-05,7.330196931367296e-05,-1.487814699814073e-05,7.386469833120188e-05,7.387117931041511e-05
41.5773502692,34.4226497308,8,0,-1.918713548051294,22.92158959673435,-1.86137428116509,-2.447715503115162e-05,7.488405754799095e-05,-1.489099424932072e-05,7.543887768970136e-05,7.531422024371358e-05
40.4226497308,35.5773502692,8,0,-2.054836651304348,22.39315624769672,-1.662007345477862,-2.449000228233128e-05,7.330196931367296e-05,-1.32960587638229e-05,7.37518417189809e-05,7.318969611461413e-05
41.5773502692,35.5773502692,8,0,-1.922995965111165,22.92051899246945,-1.663613251875334,-2.449000228233128e-05,7.488405754799116e-05,-1.330890601500268e-05,7.532768378871093e-05,7.461318178998426e-05
42.4226497308,34.4226497308,8,0,-2.123702029073868,23.21254971667311,-1.439617534181584,-2.536588626637486e-05,7.597912071661303e-05,-1.151694027345268e-05,7.63052700348849e-05,7.631883391600373e-05
43.57735026920001,34.4226497308,8,0,-2.006228697408719,23.68244304333371,-1.439942794491258,-2.536588626637486e-05,7.738880069659481e-05,-1.151954235593006e-05,7.771064857471432e-05,7.762044857749692e-05
42.4226497308,35.5773502692,8,0,-2.124569389899591,23.21233287646668,-1.263407536683915,-2.536848834885203e-05,7.597912071661303e-05,-1.010726029347132e-05,7.623049309551802e-05,7.560600229819562e-05
43.57735026920001,35.5773502692,8,0,-2.007096058234437,23.68222620312729,-1.263732796993541,-2.536848834885203e-05,7.738880069659487e-05,-1.010986237594833e-05,7.76368686617641e-05,7.689495269417061e-05
44.4226497308,34.4226497308,8,0,-2.168264039231182,23.9440953034003,-1.000242180509178,-2.609372116826002e-05,7.83557162022659e-05,-8.001937444073424e-06,7.850875035606212e-05,7.852036202212717e-05
45.5773502692,34.4226497308,8,0,-2.065598846877018,24.35475607281695,-1.000149203908713,-2.609372116826002e-05,7.958769851051586e-05,-8.001193631269703e-06,7.973892571075365e-05,7.967735661388265e-05
44.4226497308,35.5773502692,8,0,-2.16801610162996,23.94415728780061,-0.8462443919779395,-2.609297735545635e-05,7.83557162022659e-05,-6.769955135823517e-06,7.846530171989869e-05,7.778809146172983e-05
45.5773502692,35.5773502692,8,0,-2.065350909275823,24.35481805721716,-0.8461514153775083,-2.609297735545635e-05,7.958769851051554e-05,-6.769211323020066e-06,7.969598537889793e-05,7.893924155703979e-05
46.42264973080001,34.4226497308,8,0,-2.184177256328612,24.58641807288021,-0.5502514581641866,-2.665850167855573e-05,8.042387963827957e-05,-4.402011665313493e-06,8.046910072571797e-05,8.047088010825545e-05
47.57735026920001,34.4226497308,8,0,-2.096468338226284,24.93725374528952,-0.5505458797670749,-2.665850167855573e-05,8.14763866555075e-05,-4.404367038136599e-06,8.152121587452702e-05,8.148183202021819e-05
46.42264973080001,35.5773502692,8,0,-2.184962380603016,24.58622179181161,-0.418688081010594,-2.666085705137894e-05,8.042387963827957e-05,-3.349504648084752e-06,8.04500655330437e-05,7.973092988210088e-05
47.57735026920001,35.5773502692,8,0,-2.097253462500661,24.93705746422103,-0.4189825026134687,-2.666085705137894e-05,8.147638665550783e-05,-3.351860020907749e-06,8.15023542776358e-05,8.07427125147089e-05
48.4226497308,34.4226497308,8,0,-2.17218127734543,25.13875269522485,-0.09810267408523536,-2.706198224368525e-05,8.218175364659583e-05,-7.848213926818829e-07,8.218316319348222e-05,8.216855641900994e-05
49.57735026920001,34.4226497308,8,0,-2.099298657304769,25.43028317538749,-0.09951638346793434,-2.706198224368525e-05,8.305634508708377e-05,-7.961310677434747e-07,8.305778403101379e-05,8.303377045542324e-05
48.4226497308,35.5773502692,8,0,-2.175951169032556,25.13781022230306,0.01122125597576387,-2.707329191874662e-05,8.218175364659583e-05,8.977004780611093e-08,8.218177208661405e-05,8.143241241754931e-05
49.57735026920001,35.5773502692,8,0,-2.103068548991899,25.42934070246569,0.009807546593105544,-2.707329191874662e-05,8.305634508708372e-05,7.846037274484435e-08,8.305635906159022e-05,8.230492496155676e-05
50.42264973080001,34.4226497308,8,0,-2.1337395015743,25.60193828981506,0.3480583532973366,-2.73095170368898e-05,8.363319412866763e-05,2.784466826378693e-06,8.365066268253715e-05,8.361454864894411e-05
51.57735026920001,34.4226497308,8,0,-2.075290380784036,25.83573477297612,0.3448797272745434,-2.73095170368898e-05,8.433458357815079e-05,2.759037818196347e-06,8.435162686065832e-05,8.433605014522536e-05
50.42264973080001,35.5773502692,8,0,-2.142215837635027,25.59981920579988,0.4357320344827459,-2.733494604507199e-05,8.363319412866763e-05,3.485856275861968e-06,8.366056279002945e-05,8.289331179677196e-05
51.57735026920001,35.5773502692,8,0,-2.083766716844764,25.83361568896093,0.4325534084599527,-2.733494604507199e-05,8.433458357815079e-05,3.460427267679622e-06,8.43613851676589e-05,8.36283019811455e-05
52.4226497308,34.4226497308,8,0,-2.070977165341647,25.97833233679364,0.7805463977188074,-2.740979279852818e-05,8.478744521001297e-05,6.24437118175046e-06,8.487426112485801e-05,8.481299919686327e-05
53.5773502692,34.4226497308,8,0,-2.026322870540368,26.15694951599876,0.7750566048179925,-2.740979279852818e-05,8.532329674762831e-05,6.20045283854394e-06,8.54084904199353e-05,8.539454674233396e-05
52.4226497308,35.5773502692,8,0,-2.08561661307718,25.97467247485976,0.8475278399206984,-2.745371114173478e-05,8.478744521001297e-05,6.780222719365587e-06,8.488974627226972e-05,8.411725602869592e-05
53.5773502692,35.5773502692,8,0,-2.04096231827591,26.15328965406484,0.8420380470199106,-2.745371114173478e-05,8.53232967476282e-05,6.736304376159285e-06,8.54237990455903e-05,8.471811314485336e-05
54.42264973080001,34.4226497308,8,0,-1.986622213838747,26.27170841473138,1.192292089836562,-2.737455781606909e-05,8.56587646982114e-05,9.538336718692495e-06,8.585963130057969e-05,8.577104979282731e-05
55.57735026920001,34.4226497308,8,0,-1.954900218194849,26.39859639730697,1.184061018671176,-2.737455781606909e-05,8.603942864593818e-05,9.472488149369403e-06,8.623687363583325e-05,8.621812771055286e-05
54.42264973080001,35.5773502692,8,0,-2.008571736946245,26.2662210339545,1.239875083302417,-2.744040638539159e-05,8.56587646982114e-05,9.919000666419337e-06,8.587582665742612e-05,8.511070442531963e-05
55.57735026920001,35.5773502692,8,0,-1.976849741302347,26.3931090165301,1.231644012137078,-2.744040638539159e-05,8.603942864593818e-05,9.853152097096625e-06,8.625290779146099e-05,8.558242663405019e-05
56.4226497308,34.4226497308,8,0,-1.883925290697645,26.48712046768425,1.577007030986357,-2.721825730437987e-05,8.626592572914772e-05,1.261605624789086e-05,8.661548131166881e-05,8.649880281117771e-05
57.57735026920001,34.4226497308,8,0,-1.864080491414923,26.56649966481514,1.56574037775333,-2.721825730437987e-05,8.650406332054038e-05,1.252592302202664e-05,8.684793984023101e-05,8.681854352881132e-05
56.4226497308,35.5773502692,8,0,-1.913969699319123,26.47960936552888,1.606774229910514,-2.73083905302443e-05,8.626592572914772e-05,1.285419383928411e-05,8.662847366397642e-05,8.588286925087575e-05
57.57735026920001,35.5773502692,8,0,-1.89412490003637,26.5589885626599,1.595507576677453,-2.73083905302443e-05,8.650406332054076e-05,1.276406061341963e-05,8.686081722674685e-05,8.623197153610646e-05
58.4226497308,34.4226497308,8,0,-1.766537621504341,26.63071407913746,1.929344347748491,-2.695749165212386e-05,8.663151515044334e-05,1.543475478198793e-05,8.71534450854503e-05,8.700914674943858e-05
59.57735026920001,34.4226497308,8,0,-1.757365347884843,26.66740317361545,1.914901698140337,-2.695749165212386e-05,8.674158243387732e-05,1.53192135851227e-05,8.725526913414405e-05,8.721014371466703e-05
58.4226497308,35.5773502692,8,0,-1.80505135379294,26.62108564606531,1.943102758177718,-2.707303284898966e-05,8.663151515044334e-05,1.554482206542174e-05,8.71603480780095e-05,8.644552457998366e-05
59.57735026920001,35.5773502692,8,0,-1.795879080173442,26.65777474054331,1.92866010856953,-2.707303284898966e-05,8.674158243387732e-05,1.542928086855624e-05,8.726211943271353e-05,8.667986006076126e-05
60.4226497308,34.4226497308,8,0,-1.638340236768876,26.7094751803258,2.245026355861195,-2.661026890192104e-05,8.678099276645764e-05,1.796021084688956e-05,8.748777345916204e-05,8.731738816262978e-05
61.5773502692,34.4226497308,8,0,-1.638539924475229,26.70867642950039,2.227431398899809,-2.661026890192104e-05,8.677859651398141e-05,1.781945119119847e-05,8.747442352198971e-05,8.740938847807771e-05
60.4226497308,35.5773502692,8,0,-1.685260121999157,26.69774520901823,2.244726824301686,-2.675102855761188e-05,8.678099276645764e-05,1.795781459441349e-05,8.748672074816044e-05,8.681266265784819e-05
61.5773502692,35.5773502692,8,0,-1.685459809705518,26.69694645819278,2.227131867340307,-2.675102855761188e-05,8.677859651398131e-05,1.781705493872246e-05,8.747338547259549e-05,8.694115061970462e-05
62.42264973080001,34.4226497308,8,0,-1.50323756242831,26.730924910142,2.520908774976098,-2.619510012788419e-05,8.674154976239705e-05,2.016727019980879e-05,8.763480968847504e-05,8.744068397897433e-05
63.57735026920001,34.4226497308,8,0,-1.511472342020967,26.69798579177137,2.50034642167274,-2.619510012788419e-05,8.664273240728516e-05,2.000277137338192e-05,8.752234865548729e-05,8.743418456202791e-05
62.42264973080001,35.5773502692,8,0,-1.558070504570598,26.71721667460643,2.508556605587166,-2.635959895431106e-05,8.674154976239705e-05,2.006845284469733e-05,8.762487793690846e-05,8.699999547413044e-05
63.57735026920001,35.5773502692,8,0,-1.566305284163256,26.6842775562358,2.487994252283767,-2.635959895431106e-05,8.664273240728516e-05,1.990395401827013e-05,8.751249638323352e-05,8.703227464433618e-05
64.4226497308,34.4226497308,8,0,-1.364943361863994,26.702787488797,2.754961494327625,-2.573004874900238e-05,8.654087465364158e-05,2.2039691954621e-05,8.761229248428003e-05,8.739732520761075e-05
65.57735026920001,34.4226497308,8,0,-1.379898628780601,26.64296642113057,2.731759915963961,-2.573004874900238e-05,8.63614114506423e-05,2.185407932771169e-05,8.741668010073334e-05,8.730312299555108e-05
64.4226497308,35.5773502692,8,0,-1.426814237500422,26.68731976988789,2.732528593952761,-2.591566137591166e-05,8.654087465364158e-05,2.186022875162209e-05,8.759336714542478e-05,8.702434097927549e-05
65.57735026920001,35.5773502692,8,0,-1.441769504417024,26.62749870222148,2.709327015589078,-2.591566137591166e-05,8.636141145064235e-05,2.167461612471262e-05,8.739789158011103e-05,8.697038663303279e-05
66.4226497308,34.4226497308,8,0,-1.226791116217652,26.63266803185639,2.94616386097154,-2.52318659973816e-05,8.620597059491456e-05,2.356931088777232e-05,8.743857519345245e-05,8.720596325246681e-05
67.57735026920001,34.4226497308,8,0,-1.247225208920967,26.55093166104313,2.920763251689999,-2.52318659973816e-05,8.596076148247478e-05,2.336610601351999e-05,8.717504384069796e-05,8.703472010995858e-05
66.4226497308,35.5773502692,8,0,-1.294526074301879,26.61573429233533,2.915512721916581,-2.543507087163427e-05,8.620597059491456e-05,2.332410177533265e-05,8.741118059646228e-05,8.690296393319267e-05
67.57735026920001,35.5773502692,8,0,-1.314960167005185,26.53399792152211,2.890112112635006,-2.543507087163427e-05,8.596076148247489e-05,2.312089690108005e-05,8.714783308641391e-05,8.677271603788086e-05
68.42264973080002,34.4226497308,8,0,-1.09159426051072,26.52777594789312,3.094329876580656,-2.47153223919488e-05,8.576215844166655e-05,2.475463901264525e-05,8.713186687303927e-05,8.688488144714188e-05
69.57735026920001,34.4226497308,8,0,-1.116376300978205,26.42864778602318,3.067242541937038,-2.47153223919488e-05,8.546477395605673e-05,2.45379403354963e-05,8.681443730497939e-05,8.664675774987932e-05
68.42264973080002,35.5773502692,8,0,-1.163827152893657,26.50971772479739,3.057156815879423,-2.493202106909761e-05,8.576215844166655e-05,2.445725452703538e-05,8.709698528355884e-05,8.665295183746376e-05
69.57735026920001,35.5773502692,8,0,-1.18860919336116,26.41058956292738,3.030069481235818,-2.493202106909761e-05,8.546477395605652e-05,2.424055584988654e-05,8.677977507543522e-05,8.645599785229427e-05
70.4226497308,34.4226497308,8,0,-0.9615688349853615,26.39471910007111,3.199889512866957,-2.419279555201004e-05,8.523235618821583e-05,2.559911610293565e-05,8.670958939996186e-05,8.64513989564067e-05
71.57735026920001,34.4226497308,8,0,-0.9897015570470717,26.28218821182427,3.171656915418723,-2.419279555201004e-05,8.489476352347531e-05,2.537325532334979e-05,8.63507554824794e-05,8.615579250417404e-05
70.4226497308,35.5773502692,8,0,-1.036855761514,26.37589736843895,3.157690429774358,-2.441865633159596e-05,8.523235618821583e-05,2.526152343819486e-05,8.666849119711401e-05,8.629069711834846e-05
71.57735026920001,35.5773502692,8,0,-1.064988483575724,26.26336648019205,3.129457832326131,-2.441865633159596e-05,8.489476352347515e-05,2.503566265860905e-05,8.630990073237412e-05,8.603604109983038e-05
72.4226497308,34.4226497308,8,0,-0.8383179649923926,26.23937946631538,3.263654664235954,-2.367412106102796e-05,8.463666866420313e-05,2.610923731388763e-05,8.618791488686602e-05,8.59214632758251e-05
73.57735026920001,34.4226497308,8,0,-0.8689459319918091,26.11686759831772,3.234806464488861,-2.367412106102796e-05,8.426913306021014e-05,2.587845171591089e-05,8.579849782292456e-05,8.557687037048282e-05
72.4226497308,35.5773502692,8,0,-0.9152464976512888,26.22014733315066,3.217712713736844,-2.390490665900465e-05,8.463666866420313e-05,2.574170170989475e-05,8.614201564046382e-05,8.58315349952739e-05
73.57735026920001,35.5773502692,8,0,-0.9458744646507276,26.0976354651529,3.188864513989798,-2.390490665900465e-05,8.426913306020987e-05,2.551091611191839e-05,8.575285575017526e-05,8.552746994566194e-05
74.4226497308,34.4226497308,8,0,-0.7228681638814258,26.06686778911083,3.286593786260967,-2.316667235570922e-05,8.399227145625978e-05,2.629275029008773e-05,8.558151341219532e-05,8.530945464770384e-05
75.57735026920001,34.4226497308,8,0,-0.7552735276062066,25.9372463342117,3.257612358096114,-2.316667235570922e-05,8.360340709156241e-05,2.606089886476892e-05,8.517066557923075e-05,8.492345421164009e-05
74.4226497308,35.5773502692,8,0,-0.8001519723211219,26.0475468370009,3.237985740673802,-2.339852378102831e-05,8.399227145625978e-05,2.590388592539042e-05,8.553226604164732e-05,8.528956173564048e-05
75.57735026920001,35.5773502692,8,0,-0.8325573360459249,25.91792538210169,3.20900431250893,-2.339852378102831e-05,8.360340709156214e-05,2.567203450007144e-05,8.512168048550585e-05,8.494364946790843e-05
76.42264973080002,34.4226497308,8,0,-0.615743149010652,25.88154575019584,3.269631365234066,-2.267561467699075e-05,8.331354091983519e-05,2.615705092187253e-05,8.490351317236982e-05,8.462820059253481e-05
77.57735026920001,34.4226497308,8,0,-0.6493318776682013,25.74719083556564,3.240923480821885,-2.267561467699075e-05,8.29104761759446e-05,2.592738784657508e-05,8.447884174604472e-05,8.420755314005004e-05
76.42264973080002,35.5773502692,8,0,-0.6922975074431417,25.86240716058771,3.219248272247783,-2.290527775228822e-05,8.331354091983519e-05,2.575398617798226e-05,8.485233659582565e-05,8.467763778511785e-05
77.57735026920001,35.5773502692,8,0,-0.7258862361006866,25.72805224595754,3.190540387835582,-2.290527775228822e-05,8.291047617594465e-05,2.552432310268466e-05,8.442792614986914e-05,8.429679262002825e-05
78.4226497308,34.4226497308,8,0,-0.5170608769289045,25.6871002478693,3.21348015799891,-2.220427500446793e-05,8.261236949472488e-05,2.570784126399128e-05,8.416565875397043e-05,8.388918566401237e-05
79.57735026920001,34.4226497308,8,0,-0.5513423648715348,25.54997429609878,3.185356037645435,-2.220427500446793e-05,8.220099163941332e-05,2.548284830116348e-05,8.37334382479056e-05,8.344003699644774e-05
78.4226497308,35.5773502692,8,0,-0.5920585312049091,25.6683508343003,3.16205792608493,-2.242926796729595e-05,8.261236949472488e-05,2.529646340867944e-05,8.411389952255982e-05,8.400756841215019e-05
79.57735026920001,35.5773502692,8,0,-0.626340019147535,25.5312248825298,3.133933805731415,-2.242926796729595e-05,8.220099163941337e-05,2.507147044585132e-05,8.368193477750256e-05,8.359823834650449e-05
80.4226497308,34.4226497308,8,0,-0.4266421902715134,25.48665444675671,3.118507557361699,-2.17545785662742e-05,8.189860798183866e-05,2.494806045889359e-05,8.337864844655459e-05,8.310294033641948e-05
81.57735026920001,34.4226497308,8,0,-0.4612046619877779,25.34840455989165,3.091166487582294,-2.17545785662742e-05,8.148385832124349e-05,2.472933190065835e-05,8.294409613701808e-05,8.263112380168599e-05
80.4226497308,35.5773502692,8,0,-0.4995517096832156,25.46842706690378,3.06666384978729,-2.197330712450931e-05,8.189860798183866e-05,2.453331079829832e-05,8.332756888308158e-05,8.329045154301257e-05
81.57735026920001,35.5773502692,8,0,-0.534114181399489,25.33017718003869,3.039322780007864,-2.197330712450931e-05,8.148385832124338e-05,2.431458224006291e-05,8.289326575507748e-05,8.285889242358344e-05
82.4226497308,34.4226497308,8,0,-0.3441232079161498,25.28290286289387,2.984633171077503,-2.132751655564678e-05,8.11805877275933e-05,2.387706536862002e-05,8.255263579860771e-05,8.227960150351878e-05
83.57735026920001,34.4226497308,8,0,-0.3786066253939078,25.14496919298284,2.958154407563146,-2.132751655564678e-05,8.07667867178602e-05,2.366523526050517e-05,8.212023174001385e-05,8.179104125962529e-05
82.4226497308,35.5773502692,8,0,-0.4147332439544273,25.2652503538843,2.932908044860826,-2.153934666376161e-05,8.11805877275933e-05,2.34632643588866e-05,8.250342060874181e-05,8.25371870139742e-05
83.57735026920001,35.5773502692,8,0,-0.4492166614321853,25.12731668397327,2.906429281346475,-2.153934666376161e-05,8.07667867178602e-05,2.32514342507718e-05,8.207126029109561e-05,8.208983060924374e-05
84.42264973080002,34.4226497308,8,0,-0.2690672872950648,25.07826140598005,2.811252603625948,-2.092362444412824e-05,8.04656903289722e-05,2.249002082900758e-05,8.169789060550429e-05,8.142965351680269e-05
85.57735026920001,34.4226497308,8,0,-0.3031347558550666,24.94199153174004,2.785590183724667,-2.092362444412824e-05,8.005688070625218e-05,2.228472146979734e-05,8.127173240378454e-05,8.093088408603024e-05
84.42264973080002,35.5773502692,8,0,-0.3375004070317953,25.06115312604587,2.760151400785959,-2.112892380333844e-05,8.04656903289722e-05,2.208121120628767e-05,8.165166304831566e-05,8.175915169497168e-05
85.57735026920001,35.5773502692,8,0,-0.3715678755917837,24.92488325180591,2.734488980884678,-2.112892380333844e-05,8.005688070625235e-05,2.187591184707742e-05,8.122574656604668e-05,8.130307650488072e-05
86.4226497308,34.4226497308,8,0,-0.2010754902791323,24.87502703740498,2.597181984980188,-2.05434631988172e-05,7.976094691191922e-05,2.077745587984151e-05,8.082562715940197e-05,8.056488297249721e-05
87.57735026920002,34.4226497308,8,0,-0.2343835352048504,24.7417948577021,2.5721622416335,-2.05434631988172e-05,7.936125037281061e-05,2.0577297933068e-05,8.04098175591544e-05,8.006371876542811e-05
86.4226497308,35.5773502692,8,0,-0.2677948058702375,24.8583472085072,2.547219917591558,-2.074362114559052e-05,7.976094691191922e-05,2.037775934073246e-05,8.078346487248318e-05,8.096905955901944e-05
87.57735026920002,35.5773502692,8,0,-0.3011028507959645,24.72511502880429,2.52220017424491,-2.074362114559052e-05,7.93612503728105e-05,2.017760139395928e-05,8.036790023930712e-05,8.051258348238955e-05
88.42264973080002,34.4226497308,8,0,-0.1398968393433968,24.67554498526059,2.340618439114462,-2.018810587410734e-05,7.907366142430859e-05,1.872494751291569e-05,7.994902022731221e-05,7.96996158257732e-05
89.57735026920001,34.4226497308,8,0,-0.1720644293373148,24.54687462528491,2.31593932334304,-2.018810587410734e-05,7.868765034438157e-05,1.852751458674432e-05,7.954809219848198e-05,7.920603230247763e-05
88.42264973080002,35.5773502692,8,0,-0.2057078147338292,24.65909224141298,2.292367054123543,-2.038553880027863e-05,7.907366142430859e-05,1.833893643298835e-05,7.991195898140527e-05,8.018204466151032e-05
89.57735026920001,35.5773502692,8,0,-0.2378754047277658,24.53042188143723,2.267687938352142,-2.038553880027863e-05,7.868765034438135e-05,1.814150350681713e-05,7.951128550936846e-05,7.97354718855858e-05
90.42264973080002,34.4226497308,8,0,-0.08554132344883136,24.48238409271334,2.039112984634566,-1.985963950920693e-05,7.841206215544174e-05,1.631290387707653e-05,7.90844390093352e-05,7.885236068094786e-05
91.57735026920001,34.4226497308,8,0,-0.1161171446366849,24.36008080796193,2.014344693787535,-1.985963950920693e-05,7.804515230118751e-05,1.611475755030028e-05,7.87038279182363e-05,7.837969536498779e-05
90.42264973080002,35.5773502692,8,0,-0.1515900990408579,24.46587189881533,1.993249252852779,-2.005778583598301e-05,7.841206215544174e-05,1.594599402282224e-05,7.905344939269392e-05,7.941702973668884e-05
91.57735026920001,35.5773502692,8,0,-0.1821659202287114,24.34356861406392,1.968480962005796,-2.005778583598301e-05,7.804515230118751e-05,1.574784769604637e-05,7.86731084964964e-05,7.899360238251845e-05
92.42264973080002,34.4226497308,8,0,-0.03839974979274441,24.29852286450527,1.689554029094178,-1.956169749094099e-05,7.778599296625103e-05,1.351643223275342e-05,7.825293216783046e-05,7.804807627421925e-05
93.57735026920001,34.4226497308,8,0,-0.06682696779931963,24.18481399247896,1.664140867073638,-1.956169749094099e-05,7.744486635017213e-05,1.33131269365891e-05,7.789950712117208e-05,7.761474138540133e-05
92.42264973080002,35.5773502692,8,0,-0.1061681818474876,24.28158075649158,1.64691320208435,-1.976500278710522e-05,7.778599296625103e-05,1.31753056166748e-05,7.822884901004679e-05,7.869847791182014e-05
93.57735026920001,35.5773502692,8,0,-0.1345953998540672,24.16787188446526,1.621500040063816,-1.976500278710522e-05,7.744486635017208e-05,1.297200032051053e-05,7.78757132324339e-05,7.831561021745163e-05
94.4226497308,34.4226497308,8,0,0.0006247167480273319,24.12755019895488,1.288161522244024,-1.930004106557021e-05,7.720766086325717e-05,1.030529217795219e-05,7.748198619482731e-05,7.732145306967886e-05
95.57735026920002,34.4226497308,8,0,-0.02495285208824605,24.02523992360978,1.261425378075707,-1.930004106557021e-05,7.690073003722189e-05,1.009140302460565e-05,7.716465151016152e-05,7.695350937864263e-05
94.4226497308,35.5773502692,8,0,-0.07067166770086875,24.10972610284265,1.249795168989655,-1.95139302189169e-05,7.720766086325717e-05,9.998361351917242e-06,7.746536337381403e-05,7.805867846883633e-05
95.57735026920002,35.5773502692,8,0,-0.09624923653712347,24.00741582749763,1.223059024821324,-1.95139302189169e-05,7.690073003722211e-05,9.784472198570596e-06,7.714833414837976e-05,7.773959557188049e-05
96.4226497308,34.4226497308,8,0,0.02996802996144243,23.97388573545116,0.8304939484570103,-1.908321089248431e-05,7.669245992947455e-05,6.643951587656082e-06,7.680754425806758e-05,7.672192683511431e-05
97.57735026920001,34.4226497308,8,0,0.008128555790383629,23.88652783876692,0.8016402825815536,-1.908321089248431e-05,7.643038623942185e-05,6.413122260652429e-06,7.653791513716074e-05,7.645717525105826e-05
96.4226497308,35.5773502692,8,0,-0.04697507903974785,23.95464995820086,0.7977347372004013,-1.931404021948788e-05,7.669245992947455e-05,6.381877897603211e-06,7.679839930033901e-05,7.754080569640707e-05
97.57735026920001,35.5773502692,8,0,-0.06881455321081109,23.86729206151661,0.768881071324938,-1.931404021948788e-05,7.643038623942179e-05,6.151048570599504e-06,7.652907720319495e-05,7.731678455351616e-05
98.42264973080002,34.4226497308,8,0,0.04723426051763191,23.84302525519429,0.3114727186008875,-1.892327057049901e-05,7.625989340820762e-05,2.4917817488071e-06,7.627619858390565e-05,7.63217825123597e-05
99.57735026920002,34.4226497308,8,0,0.03025747825346947,23.77511812613764,0.2796005155747009,-1.892327057049901e-05,7.605617202103768e-05,2.236804124597608e-06,7.606933960502808e-05,7.621663425529971e-05
98.42264973080002,35.5773502692,8,0,-0.03775828088547861,23.82177711984351,0.2860075452046043,-1.917824819470834e-05,7.625989340820762e-05,2.288060361636834e-06,7.627360508597646e-05,7.720314028527466e-05
99.57735026920002,35.5773502692,8,0,-0.05473506314964549,23.75386999078685,0.2541353421784651,-1.917824819470834e-05,7.605617202103762e-05,2.033082737427721e-06,7.606702144545745e-05,7.711667951332763e-05
0.4226497308,36.4226497308,8,0,-0.04311362200417488,0.1467190216240866,-0.3717913481711963,-2.553388077126289e-07,5.039917668004171e-07,-2.97433078536957e-06,1.65919019842804e-06,5.863619785871144e-06
1.5773502692,36.4226497308,8,0,0.1201530765293632,0.7997858157582388,-0.4017418973045208,-2.553388077126289e-07,2.463192149202873e-06,-3.213935178436166e-06,3.208670710699709e-06,6.47813225106622e-06
0.4226497308,37.5773502692,8,0,-0.1229817530265723,0.1267519888684873,-0.1268913003708892,-4.94943200779821e-07,5.039917668004171e-07,-1.015130402967114e-06,7.166269449353021e-07,6.433146872388764e-06
1.5773502692,37.5773502692,8,0,0.04028494550696579,0.7798187830026395,-0.1568418495041866,-4.94943200779821e-07,2.463192149202873e-06,-1.254734796033493e-06,2.590745474727396e-06,7.057797467529e-06
2.4226497308,36.4226497308,8,0,-0.05212003869941795,1.207004461066394,-0.8552299264033201,-1.132387692691253e-06,3.904110306371996e-06,-6.84183941122656e-06,5.633716019032783e-06,7.234577761058777e-06
3.5773502692,36.4226497308,8,0,0.1126683973589556,1.866158205299889,-0.8832058561360229,-1.132387692691253e-06,5.881571539072478e-06,-7.065646849088183e-06,7.352517934615286e-06,8.686712862408576e-06
2.4226497308,37.5773502692,8,0,-0.1267225179867338,1.188353841244701,-0.6080472723157598,-1.356195130553309e-06,3.90411030637243e-06,-4.864378178526078e-06,4.85630976048665e-06,7.815902630645648e-06
3.5773502692,37.5773502692,8,0,0.03806591807158549,1.847507585477978,-0.6360232020486116,-1.356195130553309e-06,5.881571539072261e-06,-5.088185616388893e-06,6.686343345394735e-06,9.262433858708443e-06
4.422649730800001,36.4226497308,8,0,-0.06330195033754327,2.276191968062471,-1.283534596903605,-2.023519815530115e-06,7.334455858069942e-06,-1.026827677522884e-05,9.601855871087874e-06,9.89563534423218e-06
5.577350269200001,36.4226497308,8,0,0.1026890950366995,2.940156149559443,-1.311352299931566,-2.023519815530115e-06,9.326348402560855e-06,-1.049081839945253e-05,1.137923383168917e-05,1.174633788577715e-05
4.422649730800001,37.5773502692,8,0,-0.1374824917452945,2.257646832710398,-1.034548028842105,-2.24606143975326e-06,7.334455858069508e-06,-8.276384230736841e-06,8.874379821624188e-06,1.046347372955617e-05
5.577350269200001,37.5773502692,8,0,0.02850855362903859,2.921611014207731,-1.062365731870052,-2.24606143975326e-06,9.326348402561506e-06,-8.498925854960419e-06,1.07191477690233e-05,1.229824445070484e-05
6.422649730800001,36.4226497308,8,0,-0.07865620138939533,3.352417674185602,-1.666737875732961,-2.933633983794547e-06,1.079066151850544e-05,-1.333390300586369e-05,1.349602724270829e-05,1.316984254016784e-05
7.577350269200001,36.4226497308,8,0,0.08873423916290801,4.021979436394816,-1.695707423904087,-2.933633983794547e-06,1.279934680513308e-05,-1.356565939123269e-05,1.531979290830544e-05,1.520822703939438e-05
6.422649730800001,37.5773502692,8,0,-0.1559083298457117,3.333104642071524,-1.415652214904533,-3.165390369163495e-06,1.079066151850544e-05,-1.132521771923627e-05,1.279918024822892e-05,1.370750128762251e-05
7.577350269200001,37.5773502692,8,0,0.01148211070658278,4.002666404280701,-1.444621763075618,-3.165390369163495e-06,1.279934680513298e-05,-1.155697410460494e-05,1.467137423573835e-05,1.572289184601042e-05
8.4226497308,36.4226497308,8,0,-0.1016075601688053,4.436509418478128,-2.011970832246115,-3.874351727322679e-06,1.427811618726505e-05,-1.609576665796892e-05,1.733227583135446e-05,1.673255400745425e-05
9.5773502692,36.4226497308,8,0,0.06767475634829601,5.113638684546533,-2.042867261944963,-3.874351727322679e-06,1.630950398547027e-05,-1.63429380955597e-05,1.920294921795866e-05,1.885870823249174e-05
8.4226497308,37.5773502692,8,0,-0.1839980393659491,4.415911798678842,-1.758047357470409,-4.12152316491411e-06,1.427811618726505e-05,-1.406437885976327e-05,1.665794979831253e-05,1.722857998749819e-05
9.5773502692,37.5773502692,8,0,-0.01471572284878442,5.093041064747501,-1.788943787169365,-4.12152316491411e-06,1.630950398547103e-05,-1.431155029735492e-05,1.856643345818907e-05,1.932680593218369e-05
10.4226497308,36.4226497308,8,0,-0.1361924720817749,5.530795502757856,-2.323462434781506,-4.860452312867964e-06,1.780749958649056e-05,-1.858769947825204e-05,2.113076259240456e-05,2.043056441143035e-05
11.5773502692,36.4226497308,8,0,0.03557521904082916,6.217866267248272,-2.356542183596402,-4.860452312867964e-06,1.986871187996181e-05,-1.885233746877122e-05,2.30519768186863e-05,2.259880112962677e-05
10.4226497308,37.5773502692,8,0,-0.2244051355883654,5.50874233688148,-2.065810898097626,-5.125090303387952e-06,1.780749958649143e-05,-1.652648718478101e-05,2.047475035490804e-05,2.087668444318358e-05
11.5773502692,37.5773502692,8,0,-0.05263744446580665,6.195813101371715,-2.098890646912632,-5.125090303387952e-06,1.986871187996213e-05,-1.679112517530106e-05,2.242697628250422e-05,2.3012805336289e-05
12.4226497308,36.4226497308,8,0,-0.1863609786303615,6.638054994687781,-2.602746411888338,-5.906799127367382e-06,2.139086476590519e-05,-2.08219712951067e-05,2.490825650594738e-05,2.419395935891029e-05
13.5773502692,36.4226497308,8,0,-0.01157875129775565,7.337183904018205,-2.637798381873385,-5.906799127367382e-06,2.348825149389646e-05,-2.110238705498708e-05,2.688340246708964e-05,2.638377596941336e-05
12.4226497308,37.5773502692,8,0,-0.2798328985905396,6.614687014697737,-2.340573070889552,-6.187214887247916e-06,2.139086476590519e-05,-1.872458456711641e-05,2.426886235278901e-05,2.458295956951483e-05
13.5773502692,37.5773502692,8,0,-0.10505067125797,7.313815924028016,-2.375625040874571,-6.187214887247916e-06,2.348825149389602e-05,-1.900500032699657e-05,2.627027527077074e-05,2.673657981748409e-05
14.4226497308,36.4226497308,8,0,-0.2554014328309906,7.760631300573118,-2.849028575457822,-7.025789625517663e-06,2.503834130809877e-05,-2.279222860366258e-05,2.867601260395284e-05,2.799106076031712e-05
15.5773502692,36.4226497308,8,0,-0.07727331609036581,8.473143767535618,-2.885452348114448,-7.025789625517663e-06,2.717587870898627e-05,-2.308361878491558e-05,3.070637734569244e-05,3.019242786098255e-05
14.4226497308,37.5773502692,8,0,-0.3525314932486223,7.73634878546871,-2.581836400346966,-7.317179806770558e-06,2.503834130809877e-05,-2.065469120277573e-05,2.805365251690814e-05,2.83158703959339e-05
15.5773502692,37.5773502692,8,0,-0.1744033765079975,8.448861252431209,-2.618260173003551,-7.317179806770558e-06,2.717587870898627e-05,-2.094608138402841e-05,3.010674652752585e-05,3.047695224838777e-05
16.4226497308,36.4226497308,8,0,-0.3454948732134731,8.899723993923043,-3.05967808834658,-8.225362789421548e-06,2.875551267912451e-05,-2.447742470677264e-05,3.243898681610143e-05,3.180565237199859e-05
17.5773502692,36.4226497308,8,0,-0.1639863012904592,9.625758281615099,-3.096583170646239,-8.225362789421548e-06,3.093361554220068e-05,-2.477266536516992e-05,3.452258841679671e-05,3.401169659963184e-05
16.4226497308,37.5773502692,8,0,-0.4439084260125461,8.875120605723275,-2.787415230462074,-8.520603447818766e-06,2.875551267912451e-05,-2.229932184369659e-05,3.183592940209981e-05,3.205925172718474e-05
17.5773502692,37.5773502692,8,0,-0.2623998540894963,9.601154893415474,-2.824320312761733,-8.520603447818766e-06,3.093361554220111e-05,-2.259456250209386e-05,3.393946477880743e-05,3.422109244377774e-05
18.4226497308,36.4226497308,8,0,-0.457410730219443,10.05487304346464,-3.230808654406262,-9.507612771473932e-06,3.254152232326241e-05,-2.58464692352501e-05,3.619573986625129e-05,3.562572150954981e-05
19.5773502692,36.4226497308,8,0,-0.2728457171522249,10.79313309573352,-3.26712810729896,-9.507612771473932e-06,3.475630248006903e-05,-2.613702485839168e-05,3.83266709253167e-05,3.782927534068171e-05
18.4226497308,37.5773502692,8,0,-0.5542626045998627,10.03066007486954,-2.953961134805462,-9.798168394615191e-06,3.254152232326241e-05,-2.36316890784437e-05,3.561578005551759e-05,3.580149816056464e-05
19.5773502692,37.5773502692,8,0,-0.3696975915326446,10.76892012713841,-2.990280587698119,-9.798168394615191e-06,3.475630248006903e-05,-2.392224470158496e-05,3.776431306924204e-05,3.795740615898931e-05
20.4226497308,36.4226497308,8,0,-0.5903568543044448,11.22364850138479,-3.357910848959545,-1.086806073488205e-05,3.638796068787488e-05,-2.686328679167636e-05,3.993883763750967e-05,3.943823764385187e-05
21.5773502692,36.4226497308,8,0,-0.4034407736630503,11.97131282395037,-3.392520853993125,-1.086806073488205e-05,3.863095365557161e-05,-2.7140166831945e-05,4.21070601883585e-05,4.163045057263075e-05
20.4226497308,37.5773502692,8,0,-0.6826502010606039,11.20057516469575,-3.07753672799748,-1.114494077515053e-05,3.638796068787488e-05,-2.462029382397984e-05,3.938685877471676e-05,3.95305205535913e-05
21.5773502692,37.5773502692,8,0,-0.4957341204191823,11.94823948726144,-3.112146733031047,-1.114494077515053e-05,3.863095365557194e-05,-2.489717386424837e-05,4.157064078453218e-05,4.167244100751996e-05
22.4226497308,36.4226497308,8,0,-0.7419907508610843,12.40155265639311,-3.436488682875401,-1.229561252786995e-05,4.027856110114681e-05,-2.749190946300321e-05,4.365563118809092e-05,4.322715457649522e-05
23.5773502692,36.4226497308,8,0,-0.5537945604665007,13.15433741797144,-3.468323707097614,-1.229561252786995e-05,4.253691538588181e-05,-2.774658965678091e-05,4.584718456811125e-05,4.539721811110819e-05
22.4226497308,37.5773502692,8,0,-0.8268841487869483,12.38032930691164,-3.154194397283594,-1.255029272164755e-05,4.027856110114681e-05,-2.523355517826875e-05,4.313707435282903e-05,4.323174739476502e-05
23.5773502692,37.5773502692,8,0,-0.6386879583923646,13.13311406848998,-3.186029421505779,-1.255029272164755e-05,4.253691538588181e-05,-2.548823537204623e-05,4.534232548193375e-05,4.534993121553769e-05
24.4226497308,36.4226497308,8,0,-0.9085848881116703,13.58212870729739,-3.462647578022593,-1.377317460779526e-05,4.418967977384098e-05,-2.770118062418074e-05,4.7329304465084e-05,4.697315059922111e-05
25.5773502692,36.4226497308,8,0,-0.7204947217532265,14.33448937273117,-3.490800099303118,-1.377317460779526e-05,4.644676177014231e-05,-2.792640079442494e-05,4.952686965329825e-05,4.910861469161407e-05
24.4226497308,37.5773502692,8,0,-0.9836582781931775,13.56336035977701,-3.180512328484955,-1.399839477803978e-05,4.418967977384098e-05,-2.544409862787964e-05,4.684959569683514e-05,4.688775369689476e-05
25.5773502692,37.5773502692,8,0,-0.7955681118347426,14.31572102521075,-3.208664849765452,-1.399839477803978e-05,4.64467617701422e-05,-2.566931879812362e-05,4.905911488662187e-05,4.897097902838984e-05
26.4226497308,36.4226497308,8,0,-1.085320283611163,14.75725174926558,-3.433582387689228,-1.527882630696819e-05,4.809146182453879e-05,-2.746865910151382e-05,5.094007172032774e-05,5.065427988061146e-05
27.57735026920001,36.4226497308,8,0,-0.8989601073018392,15.50269245450288,-3.457377543977395,-1.527882630696819e-05,5.032778394025068e-05,-2.765902035181916e-05,5.312380716337003e-05,5.274165161622943e-05
26.4226497308,37.5773502692,8,0,-1.148774033713143,14.74138831174009,-3.154042123225214,-1.546918755727412e-05,4.809146182453879e-05,-2.523233698580171e-05,5.050407127068326e-05,5.047874298769032e-05
27.57735026920001,37.5773502692,8,0,-0.9624138574038277,15.48682901697735,-3.177837279513503,-1.546918755727412e-05,5.032778394025057e-05,-2.542269823610803e-05,5.269810538655185e-05,5.251480539900047e-05
28.4226497308,36.4226497308,8,0,-1.266665194585018,15.91755887109509,-3.347925474077236,-1.678737571954813e-05,5.194952054317229e-05,-2.678340379261789e-05,5.446640698583487e-05,5.424704132175256e-05
29.5773502692,36.4226497308,8,0,-1.083803137905585,16.64900709781282,-3.366964589098586,-1.678737571954813e-05,5.414386522332548e-05,-2.693571671278869e-05,5.661494787870108e-05,5.627247074698979e-05
28.4226497308,37.5773502692,8,0,-1.31743616797521,15.90486612774754,-3.073632389058141,-1.69396886397187e-05,5.194952054317229e-05,-2.458905911246513e-05,5.407794211131748e-05,5.398343070204083e-05
29.5773502692,37.5773502692,8,0,-1.134574111295778,16.63631435446527,-3.092671504079396,-1.69396886397187e-05,5.414386522332548e-05,-2.474137203263517e-05,5.623520907608584e-05,5.595972723608876e-05
30.4226497308,36.4226497308,8,0,-1.446785783962782,17.05296125685857,-3.20593477322113,-1.827208351416775e-05,5.572690464911764e-05,-2.564747818576904e-05,5.788620072524013e-05,5.772755283371316e-05
31.5773502692,36.4226497308,8,0,-1.269235828822747,17.7631610774187,-3.220106668309927,-1.827208351416775e-05,5.785750411079805e-05,-2.576085334647941e-05,5.99777064943028e-05,5.967748159875654e-05
30.4226497308,37.5773502692,8,0,-1.484577504199484,17.04351332679946,-2.939609840511186,-1.838545867487791e-05,5.572690464911785e-05,-2.351687872408949e-05,5.754772770196228e-05,5.738004989809885e-05
31.5773502692,37.5773502692,8,0,-1.307027549059476,17.75371314735949,-2.953781735599902,-1.838545867487791e-05,5.785750411079794e-05,-2.363025388479921e-05,5.964647959644621e-05,5.928414703996896e-05
32.4226497308,36.4226497308,8,0,-1.619936713359742,18.15317695220958,-3.009525286702764,-1.970633904451884e-05,5.938611561775845e-05,-2.407620229362211e-05,6.117776408287899e-05,6.107263486568757e-05
33.57735026920001,36.4226497308,8,0,-1.449466309980757,18.83505856572552,-3.018989219658339,-1.970633904451884e-05,6.143176045830627e-05,-2.415191375726672e-05,6.319091090802677e-05,6.293433571040752e-05
32.4226497308,37.5773502692,8,0,-1.645173867907817,18.14686766357256,-2.753819681634314,-1.978205050816306e-05,5.938611561775845e-05,-2.203055745307451e-05,6.089018166568709e-05,6.064730548622741e-05
33.57735026920001,37.5773502692,8,0,-1.474703464528814,18.82874927708858,-2.763283614589849,-1.978205050816306e-05,6.143176045830649e-05,-2.210626891671879e-05,6.290920544266161e-05,6.246742647846039e-05
34.42264973080001,36.4226497308,8,0,-1.780791147636498,19.20822969624913,-2.762168117444782,-2.10651154294361e-05,6.289096794610642e-05,-2.209734493955826e-05,6.432063464388251e-05,6.426069382996567e-05
35.5773502692,36.4226497308,8,0,-1.619042468046797,19.85522441460794,-2.767315740256568,-2.10651154294361e-05,6.483195210118284e-05,-2.213852592205254e-05,6.62354773082624e-05,6.602267075706418e-05
34.42264973080001,37.5773502692,8,0,-1.794518141801459,19.20479794770783,-2.519545098060203,-2.110629641193093e-05,6.28909679461062e-05,-2.015636078448162e-05,6.408324713657649e-05,6.376517787931938e-05
35.5773502692,37.5773502692,8,0,-1.632769462211712,19.85179266606681,-2.524692720872043,-2.110629641193093e-05,6.483195210118316e-05,-2.019754176697634e-05,6.600272830591655e-05,6.549057964997763e-05
36.4226497308,36.4226497308,8,0,-1.924687299125571,20.20887443451631,-2.46869392821211,-2.232609890481487e-05,6.620814802975263e-05,-1.974955142569688e-05,6.729617218042736e-05,6.727236471238088e-05
37.5773502692,36.4226497308,8,0,-1.773116212200171,20.81515878221791,-2.470099090115808,-2.232609890481487e-05,6.802700107285742e-05,-1.976079272092646e-05,6.909483345781525e-05,6.892461516526449e-05
36.4226497308,37.5773502692,8,0,-1.928434397535358,20.20793765991386,-2.241337297824024,-2.233734020004423e-05,6.620814802975263e-05,-1.793069838259219e-05,6.7106781551419e-05,6.671553411649872e-05
37.5773502692,37.5773502692,8,0,-1.776863310609967,20.81422200761542,-2.242742459727687,-2.233734020004423e-05,6.802700107285732e-05,-1.79419396778215e-05,6.890899050985194e-05,6.833677018547679e-05
38.4226497308,36.4226497308,8,0,-2.047786570497188,21.14692881965439,-2.135040811631356,-2.347046008131451e-05,6.930840147929178e-05,-1.708032649305085e-05,7.008796132204353e-05,7.009092240876131e-05
39.5773502692,36.4226497308,8,0,-1.907620072808586,21.70759481040879,-2.133405455870241,-2.347046008131451e-05,7.0990399451555e-05,-1.706724364696193e-05,7.175513816433613e-05,7.162508260248208e-05
38.4226497308,37.5773502692,8,0,-2.043425621801026,21.1480190568285,-1.924791065098454,-2.345737723522608e-05,6.9308401479292e-05,-1.539832852078763e-05,6.994305730929533e-05,6.948254643167868e-05
39.5773502692,37.5773502692,8,0,-1.903259124112411,21.70868504758296,-1.92315570933738,-2.345737723522608e-05,7.099039945155538e-05,-1.538524567469904e-05,7.161284927930108e-05,7.099162928156288e-05
40.4226497308,36.4226497308,8,0,-2.147152024344425,22.01550704949771,-1.767981781920253,-2.448329211750033e-05,7.216734417786821e-05,-1.414385425536202e-05,7.268205599919741e-05,7.270250164652855e-05
41.5773502692,36.4226497308,8,0,-2.019362456189438,22.52666532211766,-1.764084311616999,-2.448329211750033e-05,7.370081899572806e-05,-1.411267449293599e-05,7.420535418998692e-05,7.411190502231015e-05
40.4226497308,37.5773502692,8,0,-2.136758770202434,22.01810536303321,-1.576297429687772,-2.445211235507436e-05,7.216734417786821e-05,-1.261037943750217e-05,7.257707057346945e-05,7.205294480229661e-05
41.5773502692,37.5773502692,8,0,-2.008969202047482,22.52926363565302,-1.572399959384518,-2.445211235507436e-05,7.370081899572763e-05,-1.257919967507615e-05,7.410221250304765e-05,7.344342987804169e-05
42.4226497308,36.4226497308,8,0,-2.220763654911611,22.80916458599485,-1.37485807516621,-2.535377536451303e-05,7.476593759911279e-05,-1.099886460132968e-05,7.506710758230853e-05,7.509617771257553e-05
43.57735026920001,36.4226497308,8,0,-2.106056711345085,23.26799236026095,-1.369508237263181,-2.535377536451303e-05,7.614242092191111e-05,-1.095606589810545e-05,7.643722933919961e-05,7.637585733521576e-05
42.4226497308,37.5773502692,8,0,-2.206497420503643,22.81273114459684,-1.20279765981646,-2.531097666128913e-05,7.476593759911279e-05,-9.62238127853168e-06,7.499670313386179e-05,7.441614265946256e-05
43.57735026920001,37.5773502692,8,0,-2.091790476937135,23.27155891886287,-1.197447821913431,-2.531097666128913e-05,7.61424209219109e-05,-9.579582575307451e-06,7.636805348887579e-05,7.56831583238439e-05
44.4226497308,36.4226497308,8,0,-2.267489644414033,23.5239689900344,-0.9633345066067646,-2.607514205415243e-05,7.709069248364132e-05,-7.706676052854117e-06,7.72344179427987e-05,7.726396010608712e-05
45.5773502692,36.4226497308,8,0,-2.166302747469782,23.92871657781141,-0.9573366145406486,-2.607514205415243e-05,7.830493524697233e-05,-7.658692916325189e-06,7.844523224069793e-05,7.841062237591326e-05
44.4226497308,37.5773502692,8,0,-2.251495265570984,23.52796758474517,-0.8115541611903546,-2.602715891762328e-05,7.709069248364132e-05,-6.492433289522837e-06,7.719278440662971e-05,7.656427717296773e-05
45.5773502692,37.5773502692,8,0,-2.150308368626719,23.93271517252223,-0.8055562691242318,-2.602715891762328e-05,7.830493524697249e-05,-6.444450152993855e-06,7.840435671357528e-05,7.770452297200163e-05
46.42264973080001,36.4226497308,8,0,-2.287032104352304,24.15751428360952,-0.5411840091193164,-2.664451416081498e-05,7.913367139103229e-05,-4.329472072954531e-06,7.917795387843265e-05,7.920074445505454e-05
47.57735026920001,36.4226497308,8,0,-2.19953989698514,24.50748311307817,-0.5353083865956865,-2.664451416081498e-05,8.018357787943826e-05,-4.282467092765491e-06,8.022647896013623e-05,8.021273584971609e-05
46.42264973080001,37.5773502692,8,0,-2.27136377762275,24.16143136529191,-0.4099456980684822,-2.659750918062632e-05,7.913367139103229e-05,-3.279565584547858e-06,7.915909663596215e-05,7.849220115702433e-05
47.57735026920001,37.5773502692,8,0,-2.183871570255582,24.51140019476058,-0.4040700755449133,-2.659750918062632e-05,8.018357787943831e-05,-3.232560604359306e-06,8.020803692777802e-05,7.950393217957756e-05
48.4226497308,36.4226497308,8,0,-2.279862556354129,24.70889503716172,-0.1161006430489385,-2.706267621006259e-05,8.08923541640008e-05,-9.288051443915083e-07,8.089435190099706e-05,8.09042573537575e-05
49.57735026920001,36.4226497308,8,0,-2.205987028662413,25.00439714792859,-0.1110616017307485,-2.706267621006259e-05,8.17788604963014e-05,-8.884928138459878e-07,8.178067369729377e-05,8.178153784274382e-05
48.4226497308,37.5773502692,8,0,-2.266425112838946,24.71225439804052,-0.005287351511343774,-2.702236387951704e-05,8.08923541640008e-05,-4.229881209075019e-08,8.089235830891604e-05,8.019745488660274e-05
49.57735026920001,37.5773502692,8,0,-2.192549585147243,25.00775650880733,-0.0002483101931537168,-2.702236387951704e-05,8.177886049630124e-05,-1.986481545229735e-09,8.177886050536847e-05,8.108046313592547e-05
50.42264973080001,36.4226497308,8,0,-2.247156494419934,25.17865227389855,0.3044655993840486,-2.733382260126262e-05,8.23694124720113e-05,2.435724795072389e-06,8.238293081604844e-05,8.237501358429864e-05
51.57735026920001,36.4226497308,8,0,-2.186580521926769,25.42095616387121,0.3080278886026595,-2.733382260126262e-05,8.309632414192929e-05,2.464223108821276e-06,8.311006957277774e-05,8.311913897436865e-05
50.42264973080001,37.5773502692,8,0,-2.237657056503575,25.18102713337764,0.3953295581236957,-2.730532428751355e-05,8.23694124720113e-05,3.162636464989566e-06,8.239220758243717e-05,8.168023338646132e-05
51.57735026920001,37.5773502692,8,0,-2.17708108401041,25.4233310233503,0.3988918473423744,-2.730532428751355e-05,8.309632414192929e-05,3.191134778738995e-06,8.311937908539987e-05,8.243582793454049e-05
52.4226497308,36.4226497308,8,0,-2.190728220002723,25.56869671685221,0.7134614781428473,-2.746528767749048e-05,8.357241206992925e-05,5.707691825142778e-06,8.364571207182893e-05,8.361628464254558e-05
53.5773502692,36.4226497308,8,0,-2.142912825144156,25.75995829628648,0.7149978105609562,-2.746528767749048e-05,8.414619680823204e-05,5.71998248448765e-06,8.421943466685779e-05,8.423038647675548e-05
52.4226497308,37.5773502692,8,0,-2.186631333554369,25.5697209384643,0.7851845704307436,-2.745299701814542e-05,8.357241206992925e-05,6.281476563445949e-06,8.366118774672654e-05,8.294334853055383e-05
53.5773502692,37.5773502692,8,0,-2.138815938695794,25.7609825178986,0.7867209028488797,-2.745299701814542e-05,8.414619680823215e-05,6.293767222791038e-06,8.423486245649734e-05,8.35743260367297e-05
54.42264973080001,36.4226497308,8,0,-2.112959000429312,25.88220742919456,1.104377602608722,-2.746723474472945e-05,8.451343097376604e-05,8.835020820869774e-06,8.468742640139143e-05,8.463405458564253e-05
55.57735026920001,36.4226497308,8,0,-2.077165862074857,26.02537998261238,1.103446618674301,-2.746723474472945e-05,8.49429486340195e-05,8.827572949394406e-06,8.511598961020261e-05,8.512279453435421e-05
54.42264973080001,37.5773502692,8,0,-2.11544162425438,25.8815867732383,1.15806731014039,-2.747468261620465e-05,8.451343097376604e-05,9.26453848112312e-06,8.470471314436047e-05,8.399216837367741e-05
55.57735026920001,37.5773502692,8,0,-2.079648485899925,26.02475932665612,1.157136326205996,-2.747468261620465e-05,8.49429486340195e-05,9.257090609647968e-06,8.513319670341082e-05,8.450275736164453e-05
56.4226497308,36.4226497308,8,0,-2.016707102502259,26.12349847258124,1.471389637327706,-2.735226150607221e-05,8.520856079426175e-05,1.177111709862164e-05,8.55154669393086e-05,8.543692173884378e-05
57.57735026920001,36.4226497308,8,0,-1.992028081113273,26.22221455813718,1.467674073692769,-2.735226150607221e-05,8.55047090509296e-05,1.174139258954216e-05,8.580927433214593e-05,8.580639327287364e-05
56.4226497308,37.5773502692,8,0,-2.02661527219543,26.12102143015795,1.508408169411247,-2.738198601515173e-05,8.520856079426175e-05,1.206726535528998e-05,8.553097482907719e-05,8.483450403871367e-05
57.57735026920001,37.5773502692,8,0,-2.001936250806434,26.21973751571393,1.504692605776325,-2.738198601515173e-05,8.550470905092971e-05,1.20375408462106e-05,8.58247042501635e-05,8.523026382778012e-05
58.4226497308,36.4226497308,8,0,-1.905190149529323,26.2978458794277,1.809484023269506,-2.713488518203599e-05,8.567725893379209e-05,1.447587218615605e-05,8.613974307251516e-05,8.603590160786749e-05
59.57735026920001,36.4226497308,8,0,-1.890584583681613,26.35626814281854,1.802803708320688,-2.713488518203599e-05,8.585252572396461e-05,1.44224296665655e-05,8.631090868905581e-05,8.629345850582803e-05
58.4226497308,37.5773502692,8,0,-1.923004322726198,26.29339233612848,1.831392372041044,-2.718832770162662e-05,8.567725893379209e-05,1.465113897632835e-05,8.615074057733129e-05,8.548041300550611e-05
59.57735026920001,37.5773502692,8,0,-1.908398756878488,26.35181459951932,1.824712057092232,-2.718832770162662e-05,8.585252572396461e-05,1.459769645673786e-05,8.632185090795536e-05,8.576807347948772e-05
60.4226497308,36.4226497308,8,0,-1.781838252224313,26.4112730577548,2.114551745745324,-2.683090085332164e-05,8.59415443865948e-05,1.69164139659626e-05,8.657240137191312e-05,8.644410151471165e-05
61.5773502692,36.4226497308,8,0,-1.776176858977156,26.43391863074342,2.104869806455911,-2.683090085332164e-05,8.600948110556067e-05,1.683895845164729e-05,8.663423364077899e-05,8.659810897084367e-05
60.4226497308,37.5773502692,8,0,-1.807656756995984,26.40481843156188,2.123043835615971,-2.690835636763665e-05,8.59415443865948e-05,1.698435068492776e-05,8.657701871090523e-05,8.59418992507057e-05
61.5773502692,37.5773502692,8,0,-1.801995363748841,26.42746400455045,2.113361896326639,-2.690835636763665e-05,8.600948110556051e-05,1.690689517061311e-05,8.663882982369703e-05,8.612913961537663e-05
62.42264973080001,36.4226497308,8,0,-1.650126961611955,26.47030271650718,2.383432842218496,-2.645664845036399e-05,8.602507026211252e-05,1.906746273774797e-05,8.682740765134097e-05,8.667626687036817e-05
63.57735026920001,36.4226497308,8,0,-1.652239157546703,26.46185393276818,2.370852176262369,-2.645664845036399e-05,8.599972391089554e-05,1.896681741009895e-05,8.679384881838789e-05,8.673579076675893e-05
62.42264973080001,37.5773502692,8,0,-1.683675404161896,26.46191560586969,2.380264548316481,-2.655729377801382e-05,8.602507026211252e-05,1.904211638653185e-05,8.682458557826552e-05,8.623251238183256e-05
63.57735026920001,37.5773502692,8,0,-1.685787600096645,26.4534668221307,2.367683882360247,-2.655729377801382e-05,8.599972391089554e-05,1.894147105888197e-05,8.679104412894971e-05,8.632769166725017e-05
64.4226497308,36.4226497308,8,0,-1.513407515895655,26.48169335690542,2.613900236352705,-2.602825873639043e-05,8.595214475481385e-05,2.091120189082164e-05,8.692001778920147e-05,8.674823196474246e-05
65.57735026920001,36.4226497308,8,0,-1.522127709277704,26.44681258337722,2.598649101011538,-2.602825873639043e-05,8.584750243422926e-05,2.078919280809231e-05,8.680508844142917e-05,8.67226980533511e-05
64.4226497308,37.5773502692,8,0,-1.554077210138783,26.47152593334464,2.600819946279584,-2.615026781911981e-05,8.595214475481385e-05,2.080655957023667e-05,8.690941114087661e-05,8.636687233691363e-05
65.57735026920001,37.5773502692,8,0,-1.562797403520837,26.43664515981642,2.585568810938417,-2.615026781911981e-05,8.584750243422921e-05,2.068455048750734e-05,8.679453720220604e-05,8.637873663169571e-05
66.4226497308,36.4226497308,8,0,-1.374754748647753,26.45218424219104,2.804581663511277,-2.556096258942564e-05,8.574679337392953e-05,2.243665330809022e-05,8.686619244507246e-05,8.667633302823836e-05
67.57735026920001,36.4226497308,8,0,-1.388963077726743,26.39535092587509,2.786989451633728,-2.556096258942564e-05,8.557629342498165e-05,2.229591561306982e-05,8.66834925565085e-05,8.657519533532214e-05
66.4226497308,37.5773502692,8,0,-1.421667313654732,26.4404561009393,2.783269169892827,-2.570170028444658e-05,8.574679337392953e-05,2.226615335914261e-05,8.684804329605452e-05,8.636016520058572e-05
67.57735026920001,37.5773502692,8,0,-1.435875642733713,26.38362278462338,2.76567695801523,-2.570170028444658e-05,8.557629342498176e-05,2.212541566412184e-05,8.66654331126963e-05,8.629756281243978e-05
68.42264973080002,36.4226497308,8,0,-1.236849869662076,26.38827253981173,2.954828927610179,-2.506853761476802e-05,8.543195202312718e-05,2.363863142088143e-05,8.668202380875019e-05,8.647685092240803e-05
69.57735026920001,36.4226497308,8,0,-1.255503877542909,26.3136565082884,2.935294994896117,-2.506853761476802e-05,8.520810392855719e-05,2.348235995916893e-05,8.644433171235314e-05,8.630930668259099e-05
68.42264973080002,37.5773502692,8,0,-1.288940356899432,26.37524991800239,2.926847915788898,-2.522480907648009e-05,8.543195202312718e-05,2.341478332631118e-05,8.665702153446848e-05,8.622766388487409e-05
69.57735026920001,37.5773502692,8,0,-1.307594364780291,26.30063388647895,2.907313983074883,-2.522480907648009e-05,8.520810392855687e-05,2.325851186459906e-05,8.641944786370775e-05,8.609929885150788e-05
70.4226497308,36.4226497308,8,0,-1.101908152570954,26.29604069386063,3.064551059377786,-2.456293864331555e-05,8.502885674241075e-05,2.451640847502229e-05,8.638323932574267e-05,8.616554479070022e-05
71.57735026920001,36.4226497308,8,0,-1.124063512997286,26.2074192521553,3.043510331042525,-2.456293864331555e-05,8.476299241729477e-05,2.43480826483402e-05,8.610223293934019e-05,8.594032423766281e-05
70.4226497308,37.5773502692,8,0,-1.158016761464938,26.28201354163713,3.031318018738316,-2.47312644699975e-05,8.502885674241075e-05,2.425054414990652e-05,8.63523838778471e-05,8.598432411092341e-05
71.57735026920001,37.5773502692,8,0,-1.180172121891252,26.19339209993188,3.010277290403082,-2.47312644699975e-05,8.476299241729499e-05,2.408221832322466e-05,8.60715183063471e-05,8.579857231141248e-05
72.4226497308,36.4226497308,8,0,-0.9716533840113026,26.18104353030206,3.134030580954423,-2.405412565307781e-05,8.455666200417561e-05,2.507224464763538e-05,8.598483222630711e-05,8.575732143984353e-05
73.57735026920001,36.4226497308,8,0,-0.9964734545692888,26.08176324807011,3.111919546541591,-2.405412565307781e-05,8.425882115747977e-05,2.489535637233272e-05,8.567093873598453e-05,8.548256905129021e-05
72.4226497308,37.5773502692,8,0,-1.030616142445414,26.16630284069353,3.096800475117437,-2.423101392838014e-05,8.455666200417561e-05,2.477440380093949e-05,8.594931325907649e-05,8.564449451634005e-05
73.57735026920001,37.5773502692,8,0,-1.055436213003396,26.0670225584616,3.074689440704605,-2.423101392838014e-05,8.425882115747983e-05,2.459751552563684e-05,8.563557674425495e-05,8.540929795137703e-05
74.4226497308,36.4226497308,8,0,-0.847334288791898,26.04825598501999,3.163740432102766,-2.355007451215006e-05,8.403228658309747e-05,2.530992345682213e-05,8.55008487154266e-05,8.526606531108439e-05
75.57735026920001,36.4226497308,8,0,-0.8740895488096756,25.94123494494888,3.140966323096879,-2.355007451215006e-05,8.371122346288414e-05,2.512773058477503e-05,8.516321440763181e-05,8.494931848134159e-05
74.4226497308,37.5773502692,8,0,-0.9080652461409766,26.03307324568272,3.123607542076086,-2.37322673841973e-05,8.403228658309747e-05,2.498886033660869e-05,8.546194825805372e-05,8.522176479746157e-05
75.57735026920001,37.5773502692,8,0,-0.9348205061587453,25.92605220561164,3.100833433070219,-2.37322673841973e-05,8.371122346288425e-05,2.480666746456175e-05,8.512448161262766e-05,8.494461125780211e-05
76.42264973080002,36.4226497308,8,0,-0.7297742839059111,25.90207575611808,3.154174779254923,-2.305693831339338e-05,8.347046184670258e-05,2.523339823403938e-05,8.494434339780367e-05,8.470463676188649e-05
77.57735026920001,36.4226497308,8,0,-0.757833437883809,25.78983914020649,3.131089618859508,-2.305693831339338e-05,8.313375199896781e-05,2.504871695087606e-05,8.459090662487994e-05,8.435290070236619e-05
76.42264973080002,37.5773502692,8,0,-0.7913347116270169,25.8866856491878,3.112086048288008,-2.32416195965567e-05,8.347046184670258e-05,2.489668838630407e-05,8.490336485133382e-05,8.472896214559087e-05
77.57735026920001,37.5773502692,8,0,-0.8193938656049324,25.77444903327614,3.08900088789258,-2.32416195965567e-05,8.313375199896759e-05,2.471200710314064e-05,8.455010217189068e-05,8.441695135405699e-05
78.4226497308,36.4226497308,8,0,-0.6194448478886931,25.74637147119663,3.105701723233779,-2.257932069020112e-05,8.288394458614017e-05,2.484561378587023e-05,8.432750195027722e-05,8.408503547226059e-05
79.57735026920001,36.4226497308,8,0,-0.6482595725758564,25.63111257244798,3.082581885736245,-2.257932069020112e-05,8.253816788989421e-05,2.466065508588996e-05,8.396514929343082e-05,8.37049501135202e-05
78.4226497308,37.5773502692,8,0,-0.6810977478821334,25.73095824619827,3.062479636203007,-2.276427939018144e-05,8.288394458614017e-05,2.449983708962405e-05,8.428572412308278e-05,8.417829666826639e-05
79.57735026920001,37.5773502692,8,0,-0.70991247256931,25.61569934744956,3.03935979870546,-2.276427939018144e-05,8.253816788989405e-05,2.431487838964368e-05,8.392354923730032e-05,8.383829073272822e-05
80.4226497308,36.4226497308,8,0,-0.5165537875294808,25.58456595451081,3.018441223992913,-2.212062488370298e-05,8.228385408445816e-05,2.41475297919433e-05,8.366192447178928e-05,8.341872188975832e-05
81.57735026920001,36.4226497308,8,0,-0.5456389159710895,25.46822544074437,2.995472343398465,-2.212062488370298e-05,8.193483254315885e-05,2.396377874718772e-05,8.32967116952986e-05,8.301681719858787e-05
80.4226497308,37.5773502692,8,0,-0.5778041357813963,25.56925336744783,2.974813531330425,-2.230437592845873e-05,8.228385408445816e-05,2.37985082506434e-05,8.362057641108344e-05,8.358165178759397e-05
81.57735026920001,37.5773502692,8,0,-0.606889264223005,25.45291285368139,2.95184465073597,-2.230437592845873e-05,8.193483254315885e-05,2.361475720588776e-05,8.325554394237035e-05,8.322050708579472e-05
82.4226497308,36.4226497308,8,0,-0.4211418134061038,25.41974514013161,2.892168095303334,-2.168344991500482e-05,8.168009789914603e-05,2.313734476242667e-05,8.295906355305021e-05,8.271709168942798e-05
83.57735026920001,36.4226497308,8,0,-0.450052350791144,25.30410299059145,2.869434683324053,-2.168344991500482e-05,8.133317145052555e-05,2.295547746659243e-05,8.259648719543521e-05,8.230013106121435e-05
82.4226497308,37.5773502692,8,0,-0.4817642453507984,25.40458953214544,2.848802289225787,-2.18653172108389e-05,8.168009789914603e-05,2.27904183138063e-05,8.29193139020131e-05,8.295101489285239e-05
83.57735026920001,37.5773502692,8,0,-0.5106747827358387,25.28894738260528,2.826068877246506,-2.18653172108389e-05,8.133317145052555e-05,2.260855101797205e-05,8.255692079002925e-05,8.257589323125875e-05
84.42264973080002,36.4226497308,8,0,-0.3331833167220397,25.25478524742454,2.726237860260365,-2.127001481145015e-05,8.108185944513614e-05,2.180990288208292e-05,8.223081607584154e-05,8.199210435030435e-05
85.57735026920001,36.4226497308,8,0,-0.3614892099458116,25.14156167452945,2.70371680482805,-2.127001481145015e-05,8.074218872645088e-05,2.16297344386244e-05,8.187612695207547e-05,8.156752035418773e-05
84.42264973080002,37.5773502692,8,0,-0.3932394645415025,25.23977121046967,2.683779020424708,-2.145018325490854e-05,8.108185944513614e-05,2.147023216339766e-05,8.219376915723667e-05,8.229904466228938e-05
85.57735026920001,37.5773502692,8,0,-0.4215453577652832,25.12654763757455,2.661257964992406,-2.145018325490854e-05,8.074218872645077e-05,2.129006371993925e-05,8.183926787691645e-05,8.191780196742382e-05
86.4226497308,36.4226497308,8,0,-0.2526895699879628,25.0924933006493,2.519532436147547,-2.088260126448092e-05,8.049813021806813e-05,2.015625948918038e-05,8.14902748466757e-05,8.125707495832318e-05
87.57735026920002,36.4226497308,8,0,-0.2799486971766507,24.98345679189455,2.497089586235897,-2.088260126448092e-05,8.017102069180388e-05,1.997671668988718e-05,8.114883018646892e-05,8.083350635992594e-05
86.4226497308,37.5773502692,8,0,-0.3125371697524697,25.07753140070818,2.478643745364536,-2.106214406377444e-05,8.049813021806813e-05,1.982914996291629e-05,8.145696412522364e-05,8.163977107609452e-05
87.57735026920002,37.5773502692,8,0,-0.339796296941171,24.96849489195337,2.456200895452852,-2.106214406377444e-05,8.017102069180371e-05,1.964960716362282e-05,8.111571425855157e-05,8.126141924974242e-05
88.42264973080002,36.4226497308,8,0,-0.1798145087889829,24.93575846049669,2.270422742598201,-2.052401319652209e-05,7.993827868062056e-05,1.816338194078561e-05,8.075265294885842e-05,8.052764576825209e-05
89.57735026920001,36.4226497308,8,0,-0.2055439649032431,24.83284063603964,2.247811972607051,-2.052401319652209e-05,7.962952520724944e-05,1.798249578085641e-05,8.04303085440429e-05,8.011558769012774e-05
88.42264973080002,37.5773502692,8,0,-0.2401098954320036,24.92068461383593,2.231828558426811,-2.070489935645115e-05,7.993827868062056e-05,1.785462846741448e-05,8.072402045501285e-05,8.098941671532569e-05
89.57735026920001,37.5773502692,8,0,-0.265839351546278,24.81776678937883,2.209217788435701,-2.070489935645115e-05,7.962952520724928e-05,1.767374230748561e-05,8.040187986427355e-05,8.062464379783219e-05
90.42264973080002,36.4226497308,8,0,-0.1149647254883295,24.78771368612732,1.976746113725256,-2.019805807046451e-05,7.941265557599806e-05,1.581396890980205e-05,8.003639721247986e-05,7.982295743736586e-05
91.57735026920001,36.4226497308,8,0,-0.1386101736425873,24.69313189351028,1.953610545633385,-2.019805807046451e-05,7.912891019814697e-05,1.562888436506708e-05,7.973994409218833e-05,7.943553479707907e-05
90.42264973080002,37.5773502692,8,0,-0.1766595737332919,24.77228997406608,1.941277941493809,-2.038314261519939e-05,7.941265557599806e-05,1.553022353195047e-05,8.001324452600956e-05,8.036730348412127e-05
91.57735026920001,37.5773502692,8,0,-0.2003050218875497,24.67770818144905,1.918142373401972,-2.038314261519939e-05,7.912891019814697e-05,1.534513898721578e-05,7.971700446525061e-05,8.002900958969094e-05
92.42264973080002,36.4226497308,8,0,-0.05891634583664018,24.65190885941757,1.635797626335356,-1.99100593942113e-05,7.893324142680552e-05,1.308638101068285e-05,7.936450338145082e-05,7.9167033003961e-05
93.57735026920001,36.4226497308,8,0,-0.0798189830807452,24.56829831044115,1.611673035780355,-1.99100593942113e-05,7.868240977987627e-05,1.289338428624284e-05,7.910215435495937e-05,7.88208951034947e-05
92.42264973080002,37.5773502692,8,0,-0.1232485873165237,24.6358257990476,1.604443670469118,-2.010305611865095e-05,7.893324142680552e-05,1.283554936375294e-05,7.934739572278604e-05,7.979674768428846e-05
93.57735026920001,37.5773502692,8,0,-0.1441512245606331,24.55221525007116,1.580319079914178,-2.010305611865095e-05,7.868240977987621e-05,1.264255263931343e-05,7.908526501377119e-05,7.950049025246942e-05
94.4226497308,36.4226497308,8,0,-0.01294212173769171,24.53249765899421,1.244336001276671,-1.966741291675598e-05,7.85143462061716e-05,9.954688010213369e-06,7.876602849006922e-05,7.85903579198358e-05
95.57735026920002,36.4226497308,8,0,-0.0303026696837474,24.46305546720998,1.218656829370415,-1.966741291675598e-05,7.830601963081893e-05,9.74925463496332e-06,7.854795723638198e-05,7.830665652148536e-05
94.4226497308,37.5773502692,8,0,-0.08141991348781641,24.51537821105667,1.218295179357588,-1.987284629200635e-05,7.85143462061716e-05,9.746361434860703e-06,7.87551287053092e-05,7.930570779421096e-05
95.57735026920002,37.5773502692,8,0,-0.09878046143385433,24.44593601927252,1.192616007451305,-1.987284629200635e-05,7.830601963081915e-05,9.540928059610437e-06,7.853726950665736e-05,7.906980965362213e-05
96.4226497308,36.4226497308,8,0,0.02104760144317819,24.43444117606407,0.7986065378173485,-1.948020061623308e-05,7.817337368225047e-05,6.388852302538787e-06,7.827775759760999e-05,7.813155889626271e-05
97.57735026920001,36.4226497308,8,0,0.008208526812416572,24.38308487754102,0.7707153729261673,-1.948020061623308e-05,7.801930478668133e-05,6.165722983409339e-06,7.811668530131234e-05,7.793688468619989e-05
96.4226497308,37.5773502692,8,0,-0.05332883826660595,24.41584706613662,0.7793479258712059,-1.970332993536243e-05,7.817337368225047e-05,6.234783406969648e-06,7.827256268449474e-05,7.892664779177807e-05
97.57735026920001,37.5773502692,8,0,-0.06616791289738089,24.36449076761352,0.7514567609800384,-1.970332993536243e-05,7.801930478668116e-05,6.011654087840308e-06,7.811167299143115e-05,7.877142045208615e-05
98.42264973080002,36.4226497308,8,0,0.04034639756879788,24.36373150740171,0.2943856016552959,-1.936187673370122e-05,7.793166370563044e-05,2.355084813242367e-06,7.794591339846087e-05,7.783888965075774e-05
99.57735026920002,36.4226497308,8,0,0.03323214834369814,24.33527451050131,0.26354749239782,-1.936187673370122e-05,7.784629271492924e-05,2.10837993918256e-06,7.785772370710517e-05,7.776583644509172e-05
98.42264973080002,37.5773502692,8,0,-0.04188856045117806,24.34317276789672,0.2837142278176735,-1.960858160776114e-05,7.793166370563044e-05,2.269713822541388e-06,7.794486570150637e-05,7.869443144529605e-05
99.57735026920002,37.5773502692,8,0,-0.04900280967628667,24.31471577099629,0.2528761185601706,-1.960858160776114e-05,7.784629271492913e-05,2.023008948481364e-06,7.785679020016342e-05,7.863932090680425e-05
0.4226497308,38.4226497308,8,0,-0.04033990806299276,0.6744070935798213,-0.3600021367665293,-6.686133806654338e-07,2.190374625905822e-06,-2.880017094132234e-06,2.789938956195905e-06,6.885816163441074e-06
1.5773502692,38.4226497308,8,0,0.1131726487812661,1.288457320956857,-0.3893610570365492,-6.686133806654338e-07,4.032525308036929e-06,-3.114888456292393e-06,4.501673815952078e-06,7.509381829466169e-06
0.4226497308,39.5773502692,8,0,-0.118630362116361,0.6548344800664793,-0.1297333015001139,-9.034847428255385e-07,2.190374625905822e-06,-1.037866412000911e-06,2.275095369990309e-06,7.553004579157127e-06
1.5773502692,39.5773502692,8,0,0.03488219472789789,1.268884707443515,-0.1590922217701608,-9.034847428255385e-07,4.032525308036929e-06,-1.272737774161287e-06,4.113248233172032e-06,8.163468033771766e-06
2.4226497308,38.4226497308,8,0,-0.05621834021723132,1.672147744204627,-0.8373655726110477,-1.517616884058842e-06,5.395847453628592e-06,-6.698924580888382e-06,6.752419235526676e-06,8.262704683362042e-06
3.5773502692,38.4226497308,8,0,0.100657883688239,2.299652639826509,-0.8645161968835746,-1.517616884058842e-06,7.278362140494235e-06,-6.916129575068597e-06,8.475059735186152e-06,9.697255328770761e-06
2.4226497308,39.5773502692,8,0,-0.1286200049439697,1.654047328022943,-0.6020512367528965,-1.734821878239057e-06,5.395847453628592e-06,-4.816409894023172e-06,6.132961200740592e-06,8.902065722774329e-06
3.5773502692,39.5773502692,8,0,0.02825621896151864,2.281552223644896,-0.629201861025437,-1.734821878239057e-06,7.278362140494452e-06,-5.033614888203496e-06,7.933522861506619e-06,1.030948868095344e-05
4.422649730800001,38.4226497308,8,0,-0.07923782231385024,2.688995997440789,-1.260086875251389,-2.404757829356952e-06,8.668177449661606e-06,-1.008069500201111e-05,1.061887061076469e-05,1.088758964323955e-05
5.577350269200001,38.4226497308,8,0,0.08030645694272553,3.327173114467092,-1.28646499714764,-2.404757829356952e-06,1.058270880074051e-05,-1.029171997718112e-05,1.237441134563005e-05,1.270509282309049e-05
4.422649730800001,39.5773502692,8,0,-0.1495794807038701,2.671410582843285,-1.02077045636658,-2.615782804527012e-06,8.668177449661606e-06,-8.166163650932638e-06,9.990642522867208e-06,1.147845748244631e-05
5.577350269200001,39.5773502692,8,0,0.009964798552687615,3.309587699869515,-1.047148578262817,-2.615782804527012e-06,1.05827088007403e-05,-8.377188626102535e-06,1.179975159838896e-05,1.326471668254437e-05
6.422649730800001,38.4226497308,8,0,-0.1098578563351574,3.720959590160301,-1.636275116008069,-3.328312812400744e-06,1.199495697358109e-05,-1.309020092806455e-05,1.440997774195776e-05,1.410051442755916e-05
7.577350269200001,38.4226497308,8,0,0.05212567784681532,4.368893726888192,-1.662944616916438,-3.328312812400744e-06,1.393875938376476e-05,-1.33035569353315e-05,1.620403525487387e-05,1.609537396925798e-05
6.422649730800001,39.5773502692,8,0,-0.180976525424232,3.703179922888033,-1.393299814735191,-3.541668819667968e-06,1.199495697358109e-05,-1.114639851788153e-05,1.378735719051252e-05,1.463658754649925e-05
7.577350269200001,39.5773502692,8,0,-0.01899299124229548,4.351114059615779,-1.419969315643546,-3.541668819667968e-06,1.393875938376433e-05,-1.135975452514837e-05,1.562218899534465e-05,1.659834924830866e-05
8.4226497308,38.4226497308,8,0,-0.1498910381425902,4.766496735531833,-1.971914950924146,-4.292848710481755e-06,1.537270238421594e-05,-1.577531960739317e-05,1.81454277052734e-05,1.758518457220154e-05
9.5773502692,38.4226497308,8,0,0.01459252205525052,5.424430976323196,-1.99952728311831,-4.292848710481755e-06,1.734650510659002e-05,-1.599621826494648e-05,1.998175882218062e-05,1.966056329157239e-05
8.4226497308,39.5773502692,8,0,-0.2235239239936408,4.74808851406907,-1.725189610627439,-4.513747368034907e-06,1.537270238421594e-05,-1.380151688501951e-05,1.753270798673005e-05,1.806342043582058e-05
9.5773502692,39.5773502692,8,0,-0.05904036379573685,5.406022754860686,-1.752801942821549,-4.513747368034907e-06,1.734650510659078e-05,-1.402241554257239e-05,1.940193599924886e-05,2.010430765516916e-05
10.4226497308,38.4226497308,8,0,-0.2018208615301185,5.825557859577161,-2.27078294432346,-5.306273044558107e-06,1.880324183987101e-05,-1.816626355458767e-05,2.184220692969977e-05,2.119294263691528e-05
11.5773502692,38.4226497308,8,0,-0.03464785766581846,6.494249875034361,-2.299578252302635,-5.306273044558107e-06,2.080931788624261e-05,-1.839662601842108e-05,2.372384174621394e-05,2.330410214566833e-05
10.4226497308,39.5773502692,8,0,-0.2786083494743157,5.806360987591112,-2.020023438527145,-5.536635508390699e-06,1.880324183987101e-05,-1.616018750821716e-05,2.124135992929671e-05,2.161085605878373e-05
11.5773502692,39.5773502692,8,0,-0.1114353456100248,6.475053003048275,-2.048818746506239,-5.536635508390699e-06,2.08093178862425e-05,-1.639054997204991e-05,2.315052331898395e-05,2.368593562234694e-05
12.4226497308,38.4226497308,8,0,-0.2682061231253954,6.898719389078338,-2.534555137713481,-6.377235105263935e-06,2.2290466943551e-05,-2.027644110170785e-05,2.55134607703024e-05,2.485516869071375e-05
13.5773502692,38.4226497308,8,0,-0.09816458712954068,7.578885533061757,-2.564396278991878,-6.377235105263935e-06,2.433096537550125e-05,-2.051517023193502e-05,2.74421419162296e-05,2.698160178912529e-05
12.4226497308,39.5773502692,8,0,-0.3477824998674262,6.87882529489283,-2.27949283371974,-6.615964235490027e-06,2.2290466943551e-05,-1.823594266975792e-05,2.492621978810611e-05,2.520985762953998e-05
13.5773502692,39.5773502692,8,0,-0.1777409638715715,7.558991438876249,-2.309333974997974,-6.615964235490027e-06,2.433096537550125e-05,-1.847467179998379e-05,2.687850186339082e-05,2.729821041657749e-05
14.4226497308,38.4226497308,8,0,-0.3511860282590922,7.98644015222191,-2.763064794327239,-7.512947412206621e-06,2.583755730971738e-05,-2.210451835461791e-05,2.916771607235339e-05,2.854012994490888e-05
15.5773502692,38.4226497308,8,0,-0.178220421694363,8.678302578480826,-2.793496902239419,-7.512947412206621e-06,2.791314458849413e-05,-2.234797521791535e-05,3.114311646274025e-05,3.067167495330572e-05
14.4226497308,39.5773502692,8,0,-0.4323383160247976,7.966152080280484,-2.503616384480131,-7.756404275503738e-06,2.583755730971738e-05,-2.002893107584105e-05,2.85963450716159e-05,2.882800879120028e-05
15.5773502692,39.5773502692,8,0,-0.259372709460032,8.658014506539546,-2.534048492392285,-7.756404275503738e-06,2.791314458849457e-05,-2.027238793913828e-05,3.059230705873386e-05,3.091914288914622e-05
16.4226497308,38.4226497308,8,0,-0.4520967088011387,9.088461098985999,-2.954674207653125,-8.717478347352442e-06,2.94447528837961e-05,-2.3637393661225e-05,3.280847114840108e-05,3.2231503039111e-05
17.5773502692,38.4226497308,8,0,-0.2763596753461108,9.79140923280611,-2.985003153888988,-8.717478347352442e-06,3.155359728525644e-05,-2.38800252311119e-05,3.48275401212745e-05,3.436148761238824e-05
16.4226497308,39.5773502692,8,0,-0.5329738987634203,9.068241801495429,-2.691068657470638,-8.960109917239287e-06,2.94447528837961e-05,-2.15285492597651e-05,3.225602130859449e-05,3.244850301979778e-05
17.5773502692,39.5773502692,8,0,-0.3572368653083924,9.77118993531554,-2.721397603706486,-8.960109917239287e-06,3.155359728525644e-05,-2.177118082965189e-05,3.429318246269209e-05,3.453565850203973e-05
18.4226497308,38.4226497308,8,0,-0.5712086884388814,10.20336325643861,-3.106726052412291,-9.990558408155305e-06,3.310772937135465e-05,-2.485380841929833e-05,3.643414679420446e-05,3.591781670794296e-05
19.5773502692,38.4226497308,8,0,-0.3931150701376533,10.91573772964352,-3.136109011004954,-9.990558408155305e-06,3.524485279096938e-05,-2.508887208803963e-05,3.849070228831854e-05,3.803980229719966e-05
18.4226497308,39.5773502692,8,0,-0.6495632446860897,10.18377461737681,-2.839585624960395,-1.022562207689693e-05,3.310772937135465e-05,-2.271668499968316e-05,3.590442997344616e-05,3.60598282382418e-05
19.5773502692,39.5773502692,8,0,-0.4714696263848257,10.89614909058186,-2.868968583553098,-1.022562207689693e-05,3.524485279096982e-05,-2.295174866842479e-05,3.797698100234731e-05,3.813678191483979e-05
20.4226497308,38.4226497308,8,0,-0.7075923126671579,11.32829367617222,-3.216038068924455,-1.132693034147268e-05,3.681661361388481e-05,-2.572830455139564e-05,4.003836870614888e-05,3.958750234178592e-05
21.5773502692,38.4226497308,8,0,-0.5278417288239243,12.04729601154515,-3.243578656598504,-1.132693034147268e-05,3.897362062000361e-05,-2.594862925278804e-05,4.21229775888518e-05,4.169391190939528e-05
20.4226497308,39.5773502692,8,0,-0.7810338797977399,11.30993328438957,-2.946412193159632,-1.154725504286442e-05,3.681661361388481e-05,-2.357129754527705e-05,3.953574738426454e-05,3.965089657250695e-05
21.5773502692,39.5773502692,8,0,-0.6012832959545062,12.0289356197625,-2.973952780833586,-1.154725504286442e-05,3.897362062000361e-05,-2.379162224666869e-05,4.163450155609539e-05,4.171058106931624e-05
22.4226497308,38.4226497308,8,0,-0.8591120568160378,12.45886193166878,-3.279401915209061,-1.271624812714634e-05,4.055564782679292e-05,-2.623521532167249e-05,4.361052933260235e-05,4.322688368386126e-05
23.5773502692,38.4226497308,8,0,-0.678681081651793,13.18058583232576,-3.304241715940958,-1.271624812714634e-05,4.272081952876386e-05,-2.643393372752767e-05,4.57106775611671e-05,4.530863089084005e-05
22.4226497308,39.5773502692,8,0,-0.925351525434448,12.44230206451418,-3.008755452462884,-1.291496653300158e-05,4.055564782679292e-05,-2.407004361970307e-05,4.313959029566853e-05,4.320900296028845e-05
23.5773502692,39.5773502692,8,0,-0.7449205502702396,13.16402596517101,-3.033595253194713,-1.291496653300158e-05,4.272081952876343e-05,-2.42687620255577e-05,4.525219955739438e-05,4.524308320096271e-05
24.4226497308,38.4226497308,8,0,-1.022540718404577,13.58919943358485,-3.294045769613101,-1.414348984576252e-05,4.430347076219516e-05,-2.635236615690481e-05,4.713655923271143e-05,4.68197283186339e-05
25.5773502692,38.4226497308,8,0,-0.8426480618537502,14.30877005978815,-3.315444135452867,-1.414348984576252e-05,4.646218264080508e-05,-2.652355308362293e-05,4.923708213369608e-05,4.886637605975006e-05
24.4226497308,39.5773502692,8,0,-1.079603027310743,13.5749338563583,-3.024206784786902,-1.431467677248102e-05,4.430347076219516e-05,-2.419365427829522e-05,4.670173103500753e-05,4.671927643133962e-05
25.5773502692,39.5773502692,8,0,-0.8997103707598888,14.29450448256172,-3.04560515062668,-1.431467677248102e-05,4.646218264080541e-05,-2.436484120501344e-05,4.881314864898833e-05,4.871823109801575e-05
26.4226497308,38.4226497308,8,0,-1.193772664781449,14.71216136862973,-3.25802340455755,-1.558980162220442e-05,4.80339345114403e-05,-2.60641872364604e-05,5.059982690069228e-05,5.034761769925853e-05
27.57735026920001,38.4226497308,8,0,-1.015823157361572,15.42395939830924,-3.275418717458247,-1.558980162220442e-05,5.016932860047883e-05,-2.620334973966597e-05,5.268354382277445e-05,5.234779737573815e-05
26.4226497308,39.5773502692,8,0,-1.240160165849884,14.70056449336262,-2.99109914342772,-1.572896412540973e-05,4.80339345114403e-05,-2.392879314742176e-05,5.020499752347818e-05,5.016491364201167e-05
27.57735026920001,39.5773502692,8,0,-1.06221065842997,15.41236252304228,-3.008494456328348,-1.572896412540973e-05,5.016932860047927e-05,-2.406795565062679e-05,5.229813640175126e-05,5.211836918812338e-05
28.4226497308,38.4226497308,8,0,-1.368104789927387,15.81963895945918,-3.170501188338686,-1.703364649533498e-05,5.171732850221128e-05,-2.536400950670949e-05,5.398208370654289e-05,5.379070925421281e-05
29.5773502692,38.4226497308,8,0,-1.193619765528648,16.51757905705414,-3.183549277732957,-1.703364649533498e-05,5.381114879499614e-05,-2.546839422186366e-05,5.603056342012776e-05,5.573263814073825e-05
28.4226497308,39.5773502692,8,0,-1.40289969497892,15.81094023319629,-2.908773651740686,-1.713803121048958e-05,5.171732850221128e-05,-2.327018921392549e-05,5.363026733630599e-05,5.352779508672778e-05
29.5773502692,39.5773502692,8,0,-1.228414670580182,16.50888033079125,-2.921821741134957,-1.713803121048958e-05,5.381114879499614e-05,-2.337457392907966e-05,5.56867825192165e-05,5.542496270527046e-05
30.4226497308,38.4226497308,8,0,-1.54054791688399,16.90294111639162,-3.031927905196736,-1.845210622714206e-05,5.532184990596038e-05,-2.425542324157389e-05,5.726437788879384e-05,5.712863134694625e-05
31.5773502692,38.4226497308,8,0,-1.371090258750916,17.58077174892392,-3.040516572482189,-1.845210622714206e-05,5.735534180355728e-05,-2.432413257985751e-05,5.925875471957228e-05,5.90006268269642e-05
30.4226497308,39.5773502692,8,0,-1.563451029645127,16.89721533820134,-2.777741417997232,-1.852081556542548e-05,5.532184990596038e-05,-2.222193134397785e-05,5.695746685698238e-05,5.678924602681708e-05
31.5773502692,39.5773502692,8,0,-1.393993371512088,17.57504597073349,-2.786330085282577,-1.852081556542548e-05,5.735534180355685e-05,-2.229064068226061e-05,5.89585830234019e-05,5.861936975881709e-05
32.4226497308,38.4226497308,8,0,-1.70613197243581,17.9532018327056,-2.844087656293562,-1.982218377795907e-05,5.881515144260654e-05,-2.275270125034849e-05,6.042787736094434e-05,6.034135086145247e-05
33.57735026920001,38.4226497308,8,0,-1.543233455282901,18.60479590131723,-2.848329489858192,-1.982218377795907e-05,6.076993364844145e-05,-2.278663591886553e-05,6.234964408569879e-05,6.213228156274094e-05
32.4226497308,39.5773502692,8,0,-1.71744352860794,17.95037394366256,-2.599739880564198,-1.985611844647545e-05,5.881515144260654e-05,-2.079791904451359e-05,6.016649888353781e-05,5.993079666118128e-05
33.57735026920001,39.5773502692,8,0,-1.554545011455049,18.60196801227412,-2.603981714128774,-1.985611844647545e-05,6.076993364844123e-05,-2.083185371303019e-05,6.209380951963346e-05,6.168355785700526e-05
34.42264973080001,38.4226497308,8,0,-1.860175081263518,18.9617735583613,-2.610049887538548,-2.11219791067323e-05,6.216581545176697e-05,-2.088039910030839e-05,6.345456248022024e-05,6.340992079388708e-05
35.5773502692,38.4226497308,8,0,-1.705271931065766,19.58138615915231,-2.61025800460152,-2.11219791067323e-05,6.402465325414e-05,-2.088206403681216e-05,6.52862820401204e-05,6.510956538598148e-05
34.42264973080001,39.5773502692,8,0,-1.860730060098127,18.96163481365265,-2.377695162241974,-2.112364404323612e-05,6.216581545176697e-05,-1.902156129793579e-05,6.32380432772858e-05,6.29348563373422e-05
35.5773502692,39.5773502692,8,0,-1.705826909900347,19.58124741444377,-2.377903279304918,-2.112364404323612e-05,6.402465325414033e-05,-1.902322623443934e-05,6.507422426863839e-05,6.460070616537784e-05
36.4226497308,38.4226497308,8,0,-1.998497524253927,19.92057597218748,-2.334039894928257,-2.233165285536254e-05,6.534464113040306e-05,-1.867231915942606e-05,6.632777264971206e-05,6.631706557987318e-05
37.5773502692,38.4226497308,8,0,-1.85287784582854,20.50305468588903,-2.330692468695665,-2.233165285536254e-05,6.70920772715077e-05,-1.864553974956532e-05,6.805367184919223e-05,6.791637286778038e-05
36.4226497308,39.5773502692,8,0,-1.989571054300492,19.92280758967584,-2.115610377290123,-2.230487344550224e-05,6.534464113040306e-05,-1.692488301832098e-05,6.615420099465877e-05,6.578525988843045e-05
37.5773502692,39.5773502692,8,0,-1.843951375875114,20.50528630337735,-2.112262951057544,-2.230487344550224e-05,6.709207727150759e-05,-1.689810360846035e-05,6.788360274577292e-05,6.735567101620702e-05
38.4226497308,38.4226497308,8,0,-2.117573137424161,20.8223813855221,-2.021256758533705,-2.343413914817499e-05,6.832567894361004e-05,-1.617005406826964e-05,6.903261048818964e-05,6.904759875998329e-05
39.5773502692,38.4226497308,8,0,-1.982337612130536,21.3633234866966,-2.014956159982622,-2.343413914817499e-05,6.994850524713353e-05,-1.611964927986098e-05,7.063903972259406e-05,7.053885808454329e-05
38.4226497308,39.5773502692,8,0,-2.100771541288122,20.82658178455611,-1.818403470593173,-2.338373435976687e-05,6.832567894361004e-05,-1.454722776474539e-05,6.889897656759821e-05,6.846767559930978e-05
39.5773502692,39.5773502692,8,0,-1.965536015994506,21.36752388573057,-1.812102872042172,-2.338373435976687e-05,6.994850524713343e-05,-1.449682297633738e-05,7.050807979127099e-05,6.993531749094858e-05
40.4226497308,38.4226497308,8,0,-2.214620501320828,21.66102954316708,-1.677664147386912,-2.441560923876031e-05,7.108699093919132e-05,-1.342131317909529e-05,7.15562214575228e-05,7.15886916627908e-05
41.5773502692,38.4226497308,8,0,-2.090655963737495,22.15688769350042,-1.669095571639084,-2.441560923876031e-05,7.257456539019132e-05,-1.335276457311267e-05,7.303198132197327e-05,7.296563101361677e-05
40.4226497308,39.5773502692,8,0,-2.191770965993088,21.66674192699902,-1.491717341011952,-2.434706063277709e-05,7.108699093919132e-05,-1.193373872809562e-05,7.145861329253302e-05,7.096988534226553e-05
41.5773502692,39.5773502692,8,0,-2.06780642840975,22.16260007733237,-1.483148765264063,-2.434706063277709e-05,7.257456539019137e-05,-1.186519012211251e-05,7.293635044448512e-05,7.232873538442216e-05
42.4226497308,38.4226497308,8,0,-2.287642789786617,22.43157373179699,-1.309774559668334,-2.526571591275476e-05,7.361115017357964e-05,-1.047819647734667e-05,7.388797446775503e-05,7.393002427108337e-05
43.57735026920001,38.4226497308,8,0,-2.175607136145873,22.87971634635996,-1.299667564497708,-2.526571591275476e-05,7.495557801726857e-05,-1.039734051598167e-05,7.522452128186627e-05,7.518785629824504e-05
42.4226497308,39.5773502692,8,0,-2.260690802665093,22.43831172857737,-1.141721079207081,-2.518485995139019e-05,7.361115017357964e-05,-9.13376863365665e-06,7.38218070212549e-05,7.328195918859448e-05
43.57735026920001,39.5773502692,8,0,-2.148655149024317,22.88645434314047,-1.131614084036496,-2.518485995139019e-05,7.495557801726895e-05,-9.05291267229197e-06,7.515976242175896e-05,7.452736501053147e-05
44.4226497308,38.4226497308,8,0,-2.33542829890769,23.13036597195128,-0.9244412175051721,-2.597766333406563e-05,7.588551374937023e-05,-7.395529740041376e-06,7.601957096306023e-05,7.606385282077299e-05
45.5773502692,38.4226497308,8,0,-2.235744646883393,23.52910058004846,-0.9135360534419132,-2.597766333406563e-05,7.708171757366179e-05,-7.308288427535306e-06,7.721111894501336e-05,7.719928780051311e-05
44.4226497308,39.5773502692,8,0,-2.306347861405467,23.13763608132683,-0.774915739468646,-2.589042202155896e-05,7.588551374937023e-05,-6.199325915749168e-06,7.597982892345972e-05,7.539635099829349e-05
45.5773502692,39.5773502692,8,0,-2.206664209381152,23.53637068942409,-0.7640105754053736,-2.589042202155896e-05,7.708171757366201e-05,-6.112084603242989e-06,7.717233609309761e-05,7.652505904608865e-05
46.42264973080001,38.4226497308,8,0,-2.357523991690186,23.75509172676784,-0.5286654323582625,-2.654815015482286e-05,7.790231271900924e-05,-4.229323458866099e-06,7.794510776931933e-05,7.798502574326537e-05
47.57735026920001,38.4226497308,8,0,-2.27038200791221,24.10365966187975,-0.5176846340927942,-2.654815015482286e-05,7.894801652434495e-05,-4.141477072742354e-06,7.898864650575138e-05,7.899626674465039e-05
46.42264973080001,39.5773502692,8,0,-2.328241862982215,23.76241225894484,-0.3979524566912785,-2.646030376869896e-05,7.790231271900924e-05,-3.183619653530229e-06,7.792658644264884e-05,7.730794004249748e-05
47.57735026920001,39.5773502692,8,0,-2.241099879204199,24.1109801940569,-0.3869716584257901,-2.646030376869896e-05,7.894801652434544e-05,-3.095773267406321e-06,7.897074183278877e-05,7.831810265326232e-05
48.4226497308,38.4226497308,8,0,-2.354192409735174,24.30476448262716,-0.1294216944561536,-2.697722729725428e-05,7.965860027219504e-05,-1.035373555649229e-06,7.966111343582917e-05,7.969097217657955e-05
49.57735026920001,38.4226497308,8,0,-2.279555151659777,24.60331351492875,-0.1190463062709617,-2.697722729725428e-05,8.05542473690998e-05,-9.523704501676936e-07,8.055635603470511e-05,8.057770171159971e-05
48.4226497308,39.5773502692,8,0,-2.326524707907995,24.31168140808396,-0.01746580734307925,-2.689422419177275e-05,7.965860027219504e-05,-1.39726458744634e-07,7.96586460792278e-05,7.901403814673691e-05
49.57735026920001,39.5773502692,8,0,-2.25188744983259,24.61023044038558,-0.007090419157921224,-2.689422419177275e-05,8.055424736909991e-05,-5.672335326336979e-08,8.055425485533618e-05,7.990520666301601e-05
50.42264973080001,38.4226497308,8,0,-2.326358485599563,24.77968829244294,0.266501220556203,-2.726809778787296e-05,8.115608932429707e-05,2.132009764449624e-06,8.116656905778069e-05,8.118167630659927e-05
51.57735026920001,38.4226497308,8,0,-2.263973843692004,25.02922686007318,0.2756520173888106,-2.726809778787296e-05,8.190470502718777e-05,2.205216139110485e-06,8.191583985691891e-05,8.194503605166885e-05
50.42264973080001,39.5773502692,8,0,-2.301956360712447,24.78578882366472,0.3600781834175342,-2.719489141321161e-05,8.115608932429707e-05,2.880625467340274e-06,8.117523206128269e-05,8.051437323172239e-05
51.57735026920001,39.5773502692,8,0,-2.239571718804888,25.03532739129496,0.3692289802501622,-2.719489141321161e-05,8.190470502718777e-05,2.953831842001297e-06,8.192469484489608e-05,8.128747873149228e-05
52.4226497308,38.4226497308,8,0,-2.275547945359611,25.18139266367481,0.6526463826088551,-2.74268675560906e-05,8.240089488004707e-05,5.221171060870841e-06,8.246291299290225e-05,8.245963730111195e-05
53.5773502692,38.4226497308,8,0,-2.224964596578157,25.38372605880062,0.660033427429665,-2.74268675560906e-05,8.300789506542451e-05,5.280267419437319e-06,8.307097598883058e-05,8.310219431521913e-05
52.4226497308,39.5773502692,8,0,-2.255849159170838,25.18631736022201,0.7285214057810697,-2.736777119752428e-05,8.240089488004707e-05,5.828171246248558e-06,8.24782021745997e-05,8.181104975802071e-05
53.5773502692,39.5773502692,8,0,-2.205265810389385,25.38865075534782,0.7359084506018525,-2.736777119752428e-05,8.300789506542451e-05,5.88726760481482e-06,8.308634374944897e-05,8.246836690415823e-05
54.42264973080001,38.4226497308,8,0,-2.203814602590263,25.51254024159849,1.023023958259767,-2.746223892156763e-05,8.340318045518737e-05,8.184191666078138e-06,8.355401645888241e-05,8.352980116619681e-05
55.57735026920001,38.4226497308,8,0,-2.16440297067454,25.67018676926138,1.028204542942206,-2.746223892156763e-05,8.387612003817605e-05,8.225636343537647e-06,8.402784002504709e-05,8.405548779467489e-05
54.42264973080001,39.5773502692,8,0,-2.189999710103824,25.5159939647201,1.082141406133399,-2.742079424410831e-05,8.340318045518737e-05,8.657131249067192e-06,8.357198855147956e-05,8.290847667551751e-05
55.57735026920001,39.5773502692,8,0,-2.150588078188101,25.67364049238299,1.087321990815777,-2.742079424410831e-05,8.387612003817605e-05,8.698575926526213e-06,8.404582381242881e-05,8.345356178569217e-05
56.4226497308,38.4226497308,8,0,-2.113651724555899,25.77680522335887,1.372233604460082,-2.738512969726597e-05,8.41766980943931e-05,1.097786883568066e-05,8.444610762401136e-05,8.439944173830223e-05
57.57735026920001,38.4226497308,8,0,-2.084630479700057,25.89289020278224,1.374875580687649,-2.738512969726597e-05,8.45249530326632e-05,1.09990046455012e-05,8.479456088806135e-05,8.481345475931769e-05
56.4226497308,39.5773502692,8,0,-2.106606454615747,25.77856654084391,1.415765471743879,-2.736399388744552e-05,8.41766980943931e-05,1.132612377395103e-05,8.446348155087382e-05,8.381324712919991e-05
57.57735026920001,39.5773502692,8,0,-2.077585209759914,25.89465152026724,1.418407447971459,-2.736399388744552e-05,8.452495303266309e-05,1.134725958377167e-05,8.481191371524909e-05,8.425084065226803e-05
58.4226497308,38.4226497308,8,0,-2.007883989365184,25.97872076096732,1.695567313555078,-2.720820537474244e-05,8.473821362658756e-05,1.356453850844062e-05,8.514761986909357e-05,8.507796740885022e-05
59.57735026920001,38.4226497308,8,0,-1.988352002731117,26.05684870750359,1.695459276892508,-2.720820537474244e-05,8.497259746619636e-05,1.356367421514006e-05,8.538110263747446e-05,8.538661638563302e-05
58.4226497308,39.5773502692,8,0,-2.008172087132064,25.9786487365256,1.724865293506185,-2.720906966804308e-05,8.473821362658756e-05,1.379892234804948e-05,8.516183364820389e-05,8.453395419381862e-05
59.57735026920001,39.5773502692,8,0,-1.988640100497997,26.05677668306187,1.724757256843534,-2.720906966804308e-05,8.497259746619636e-05,1.379805805474827e-05,8.53952862789007e-05,8.486984125061041e-05
60.4226497308,38.4226497308,8,0,-1.889541056268752,26.12349712802513,1.989082730448378,-2.69453290824801e-05,8.510682365469539e-05,1.591266184358702e-05,8.566894777875376e-05,8.557663968968303e-05
61.5773502692,38.4226497308,8,0,-1.878513645677687,26.16760677038938,1.986138252806478,-2.69453290824801e-05,8.523915258178816e-05,1.588910602245183e-05,8.579896735329753e-05,8.578714403420898e-05
60.4226497308,39.5773502692,8,0,-1.89739299664707,26.12153414293055,2.005623846334961,-2.696888490361505e-05,8.510682365469539e-05,1.604499077067969e-05,8.567816955024353e-05,8.508093427498227e-05
61.5773502692,39.5773502692,8,0,-1.88636558605601,26.16564378529479,2.002679368693055,-2.696888490361505e-05,8.523915258178811e-05,1.602143494954444e-05,8.580816546385521e-05,8.532176408592221e-05
62.42264973080001,38.4226497308,8,0,-1.761719626746259,26.2168180305799,2.249636910346144,-2.661095723005194e-05,8.530319339925267e-05,1.799709528276915e-05,8.602211068661783e-05,8.590820702171289e-05
63.57735026920001,38.4226497308,8,0,-1.758166806747453,26.23102931057512,2.243891166616913,-2.661095723005194e-05,8.534582723923834e-05,1.79511293329353e-05,8.606083107730807e-05,8.602845290997776e-05
62.42264973080001,39.5773502692,8,0,-1.777041610024262,26.2129875347604,2.254966140344359,-2.665692317988595e-05,8.530319339925267e-05,1.803972912275487e-05,8.602520634882921e-05,8.546594278919698e-05
63.57735026920001,39.5773502692,8,0,-1.773488790025456,26.22719881475562,2.249220396615114,-2.665692317988595e-05,8.534582723923834e-05,1.799376317292091e-05,8.606391873770293e-05,8.561901652098978e-05
64.4226497308,38.4226497308,8,0,-1.627445641837066,26.26462800220946,2.474874062719078,-2.621952845564617e-05,8.53487661205399e-05,1.979899250175262e-05,8.622034329768314e-05,8.608647675335896e-05
65.57735026920001,38.4226497308,8,0,-1.630329364082995,26.25309311322574,2.466472250815005,-2.621952845564617e-05,8.531416145358874e-05,1.973177800652004e-05,8.618014056785372e-05,8.612475495326869e-05
64.4226497308,39.5773502692,8,0,-1.649850473581387,26.25902679427337,2.47054847935023,-2.628674295087913e-05,8.53487661205399e-05,1.976438783480184e-05,8.62168076719441e-05,8.570178140066595e-05
65.57735026920001,39.5773502692,8,0,-1.652734195827317,26.24749190528966,2.462146667446096,-2.628674295087913e-05,8.531416145358874e-05,1.969717333956877e-05,8.617661709560553e-05,8.577482552524033e-05
66.4226497308,38.4226497308,8,0,-1.489550086345795,26.27292719387531,2.663166866345053,-2.578490203140679e-05,8.526500708947761e-05,2.130533493076043e-05,8.627764978136955e-05,8.612586371958612e-05
67.57735026920001,38.4226497308,8,0,-1.497857382447549,26.23969800946829,2.652345153224721,-2.578490203140679e-05,8.516531953625656e-05,2.121876122579777e-05,8.617070869238426e-05,8.609061472558951e-05
66.4226497308,39.5773502692,8,0,-1.518407988000095,26.26571271846174,2.650705922192456,-2.587147573636969e-05,8.526500708947761e-05,2.120564737753965e-05,8.62675118613101e-05,8.580190799683198e-05
67.57735026920001,39.5773502692,8,0,-1.526715284101827,26.23248353405481,2.639884209072117,-2.587147573636969e-05,8.516531953625683e-05,2.111907367257694e-05,8.61606042636042e-05,8.580285456064369e-05
68.42264973080002,38.4226497308,8,0,-1.35057027555829,26.24758986719391,2.813517383937859,-2.531989677554165e-05,8.507274379546711e-05,2.250813907150287e-05,8.620836697169243e-05,8.604096107870517e-05
69.57735026920001,38.4226497308,8,0,-1.363339781739617,26.1965118424686,2.800578263524223,-2.531989677554165e-05,8.491950972129119e-05,2.240462610819379e-05,8.604634862397484e-05,8.594055378662691e-05
68.42264973080002,39.5773502692,8,0,-1.385074596661418,26.23896378691812,2.794363124665889,-2.542340973885103e-05,8.507274379546711e-05,2.235490499732712e-05,8.619208164730384e-05,8.578006656384825e-05
69.57735026920001,39.5773502692,8,0,-1.397844102842758,26.18788576219276,2.781424004252213,-2.542340973885103e-05,8.491950972129103e-05,2.22513920340177e-05,8.603011712285383e-05,8.571686203498599e-05
70.4226497308,38.4226497308,8,0,-1.21268435153748,26.19421968880402,2.925428509958951,-2.483596567596315e-05,8.479165048540281e-05,2.340342807967161e-05,8.602678233917388e-05,8.584617715485913e-05
71.57735026920001,38.4226497308,8,0,-1.229024672746058,26.1288584039697,2.910713111503717,-2.483596567596315e-05,8.459556663089989e-05,2.328570489202973e-05,8.582058237079443e-05,8.568874269388965e-05
70.4226497308,39.5773502692,8,0,-1.251925414084737,26.1844094231672,2.900918028146085,-2.495368886360491e-05,8.479165048540281e-05,2.320734422516868e-05,8.600512066473078e-05,8.564997333174133e-05
71.57735026920001,39.5773502692,8,0,-1.268265735293301,26.11904813833294,2.886202629690871,-2.495368886360491e-05,8.459556663090005e-05,2.308962103752697e-05,8.579899257225158e-05,8.553043452487901e-05
72.4226497308,38.4226497308,8,0,-1.077681596047071,26.11804971317898,2.998759166164829,-2.434302087789381e-05,8.443990435901038e-05,2.399007332931863e-05,8.574684486273938e-05,8.555547319634134e-05
73.57735026920001,38.4226497308,8,0,-1.096781044475257,26.04165191946624,2.982619115967009,-2.434302087789381e-05,8.421071097787215e-05,2.386095292773607e-05,8.550645020404232e-05,8.534880861889421e-05
72.4226497308,39.5773502692,8,0,-1.120721729907968,26.10728967971376,2.970109993522517,-2.44721412794765e-05,8.443990435901038e-05,2.376087994818013e-05,8.572079278597719e-05,8.54250893506412e-05
73.57735026920001,39.5773502692,8,0,-1.139821178336181,26.03089188600091,2.953969943324724,-2.44721412794765e-05,8.421071097787183e-05,2.36317595465978e-05,8.54804852364866e-05,8.525681978914142e-05
74.4226497308,38.4226497308,8,0,-0.9469665875414215,26.02388931605969,3.033576080694578,-2.38494045329803e-05,8.403401908142413e-05,2.426860864555662e-05,8.538199540943439e-05,8.51822249587486e-05
75.57735026920001,38.4226497308,8,0,-0.968094742313359,25.93937669697194,3.016347109457645,-2.38494045329803e-05,8.378048122416088e-05,2.413077687566116e-05,8.511643747860127e-05,8.493377451294769e-05
74.4226497308,39.5773502692,8,0,-0.9929105108398719,26.01240333523508,3.001883848536657,-2.398723630287565e-05,8.403401908142413e-05,2.401507078829326e-05,8.535266763559535e-05,8.511850062407988e-05
75.57735026920001,39.5773502692,8,0,-1.014038665611824,25.92789071614727,2.984654877299724,-2.398723630287565e-05,8.378048122416071e-05,2.38772390183978e-05,8.50872092579597e-05,8.4908875198955e-05
76.42264973080002,38.4226497308,8,0,-0.8215921321414754,25.91611562092363,3.030012676134085,-2.336198731959162e-05,8.358884369266879e-05,2.424010140907268e-05,8.494513153992532e-05,8.473921949273043e-05
77.57735026920001,38.4226497308,8,0,-0.8440942667607594,25.8261070824465,3.011991494662376,-2.336198731959162e-05,8.331881807723739e-05,2.4095931957299e-05,8.466252682128596e-05,8.445613573840755e-05
76.42264973080002,39.5773502692,8,0,-0.8696486160660246,25.9041014999425,2.99625947420518,-2.350615677136527e-05,8.358884369266879e-05,2.397007579364144e-05,8.49137036658233e-05,8.474291770256342e-05
77.57735026920001,39.5773502692,8,0,-0.8921507506853175,25.81409296146532,2.978238292733443,-2.350615677136527e-05,8.331881807723728e-05,2.382590634186755e-05,8.463120859801691e-05,8.449913881563034e-05
78.4226497308,38.4226497308,8,0,-0.7023145346937767,25.79870386827736,2.98814236942447,-2.288636960564197e-05,8.311770400624258e-05,2.390513895539576e-05,8.444871260268553e-05,8.423878982738876e-05
79.57735026920001,38.4226497308,8,0,-0.7256002217492696,25.70556112005539,2.969567622952125,-2.288636960564197e-05,8.283827576157667e-05,2.3756540983617e-05,8.415637822748611e-05,8.392807350996571e-05
78.4226497308,39.5773502692,8,0,-0.7518471919534431,25.78632070396245,2.953213838841257,-2.303496757742097e-05,8.311770400624258e-05,2.362571071073006e-05,8.441637141196528e-05,8.431079901562267e-05
79.57735026920001,39.5773502692,8,0,-0.7751328790089174,25.69317795574055,2.934639092368907,-2.303496757742097e-05,8.283827576157689e-05,2.347711273895125e-05,8.41241551356394e-05,8.404002399982555e-05
80.4226497308,38.4226497308,8,0,-0.589664887861578,25.67528982444115,2.907870360830802,-2.242715950070997e-05,8.263265934850095e-05,2.326296288664642e-05,8.390500586845254e-05,8.369308509837535e-05
81.57735026920001,38.4226497308,8,0,-0.6131920747574142,25.58118107685781,2.888907871707821,-2.242715950070997e-05,8.23503331057509e-05,2.311126297366257e-05,8.360963763648542e-05,8.336180113611641e-05
80.4226497308,39.5773502692,8,0,-0.6402315255228324,25.66264816502584,2.872579580487047,-2.257885941369373e-05,8.263265934850095e-05,2.298063664389637e-05,8.387291500288798e-05,8.383459666726299e-05
81.57735026920001,39.5773502692,8,0,-0.6637587124186872,25.56853941744242,2.853617091364073,-2.257885941369373e-05,8.235033310575069e-05,2.282893673091258e-05,8.357767244870218e-05,8.354413377321197e-05
82.4226497308,38.4226497308,8,0,-0.484031147548512,25.54925740977326,2.788845357046958,-2.198830559997384e-05,8.214484862931323e-05,2.231076285637567e-05,8.332647324246027e-05,8.311447119749003e-05
83.57735026920001,38.4226497308,8,0,-0.5072867964708045,25.45623481408409,2.769577453042258,-2.198830559997384e-05,8.186578084224571e-05,2.215661962433807e-05,8.30343755397202e-05,8.277003720116012e-05
82.4226497308,39.5773502692,8,0,-0.5354122248943058,25.53641214043681,2.753961883663464,-2.214244883201122e-05,8.214484862931323e-05,2.203169506930771e-05,8.329574933715767e-05,8.332711892317207e-05
83.57735026920001,39.5773502692,8,0,-0.5586678738165984,25.44338954474764,2.734693979658819,-2.214244883201122e-05,8.186578084224571e-05,2.187755183727055e-05,8.300378469257042e-05,8.302468622089196e-05
84.42264973080002,38.4226497308,8,0,-0.3857473253881958,25.42384576509681,2.630390898032341,-2.157346805331967e-05,8.166490430862035e-05,2.104312718425873e-05,8.272629977220763e-05,8.251605485065273e-05
85.57735026920001,38.4226497308,8,0,-0.4082254177939371,25.33393339547385,2.610809411830336,-2.157346805331967e-05,8.139516719975144e-05,2.088647529464269e-05,8.2443660025622e-05,8.216659616114118e-05
84.42264973080002,39.5773502692,8,0,-0.4379646219268203,25.41079144096215,2.596673759423768,-2.173011994293554e-05,8.166490430862035e-05,2.077339007539015e-05,8.26979923482211e-05,8.280199739906167e-05
85.57735026920001,39.5773502692,8,0,-0.4604427143325616,25.32087907133919,2.57709227322175,-2.173011994293554e-05,8.139516719975144e-05,2.0616738185774e-05,8.241549316627828e-05,8.249603292579794e-05
86.4226497308,38.4226497308,8,0,-0.2951877713400988,25.30227149509894,2.431455053735928,-2.118641806436746e-05,8.120341900138867e-05,1.945164042988743e-05,8.211906813420995e-05,8.1912317907057e-05
87.57735026920002,38.4226497308,8,0,-0.3163651639518896,25.21756192465178,2.411457543185842,-2.118641806436746e-05,8.094929029004718e-05,1.929166034548674e-05,8.185227187662106e-05,8.156707548712111e-05
86.4226497308,39.5773502692,8,0,-0.3485144661402657,25.2889398213989,2.399688964818236,-2.134639814876796e-05,8.120341900138867e-05,1.919751171854589e-05,8.20941347725076e-05,8.227423357894874e-05
87.57735026920002,39.5773502692,8,0,-0.3696918587520743,25.20423025095166,2.379691454268136,-2.134639814876796e-05,8.094929029004696e-05,1.903753163414509e-05,8.182748638674508e-05,8.197423096750905e-05
88.42264973080002,38.4226497308,8,0,-0.2128659964558102,25.18786345650898,2.190577104987968,-2.083146195386578e-05,8.077145585799338e-05,1.752461683990374e-05,8.152158544182046e-05,8.131983091534139e-05
89.57735026920001,38.4226497308,8,0,-0.2321763291546084,25.11062212571379,2.169965944167906,-2.083146195386578e-05,8.05397318656078e-05,1.735972755334325e-05,8.127757094840165e-05,8.098958860325074e-05
88.42264973080002,39.5773502692,8,0,-0.2678290919759485,25.17412268262895,2.161611605939811,-2.099635124042619e-05,8.077145585799338e-05,1.729289284751849e-05,8.150085172050715e-05,8.176076835029126e-05
89.57735026920001,39.5773502692,8,0,-0.2871394246747556,25.09688135183372,2.141000445119736,-2.099635124042619e-05,8.053973186560769e-05,1.712800356095789e-05,8.125699083249547e-05,8.147758024595054e-05
90.42264973080002,38.4226497308,8,0,-0.1395386758477448,25.08420895001768,1.905870258986188,-2.051389092272692e-05,8.038109958073475e-05,1.52469620718895e-05,8.095386736516253e-05,8.075797120735209e-05
91.57735026920001,38.4226497308,8,0,-0.1563442983166796,25.01698646014194,1.884354449680047,-2.051389092272692e-05,8.017943211110752e-05,1.507483559744037e-05,8.074052042632781e-05,8.04554230259039e-05
90.42264973080002,39.5773502692,8,0,-0.196914167330716,25.06986507714693,1.880661825282812,-2.068601739717583e-05,8.038109958073475e-05,1.50452946022625e-05,8.093795854920372e-05,8.128094922938591e-05
91.57735026920001,39.5773502692,8,0,-0.2137197897996508,25.00264258727119,1.859146015976678,-2.068601739717583e-05,8.017943211110752e-05,1.487316812781342e-05,8.072476644778025e-05,8.102693140610537e-05
92.42264973080002,38.4226497308,8,0,-0.07631633261561444,24.99531138597235,1.575020324513608,-2.024046137314784e-05,8.004604950120398e-05,1.260016259610887e-05,8.044027609667358e-05,8.024947149175457e-05
93.57735026920001,38.4226497308,8,0,-0.08987804907321095,24.94106452014196,1.552220148002511,-2.024046137314784e-05,7.988330890371282e-05,1.241776118402008e-05,8.026686500449886e-05,7.99893496179861e-05
92.42264973080002,39.5773502692,8,0,-0.1371168033118932,24.98011126829828,1.554677749827254,-2.042286278523668e-05,8.004604950120398e-05,1.243742199861803e-05,8.042950471847001e-05,8.085662125527315e-05
93.57735026920001,39.5773502692,8,0,-0.1506785197694809,24.92586440246793,1.531877573316163,-2.042286278523668e-05,7.988330890371293e-05,1.22550205865293e-05,8.025624014071134e-05,8.06453430934156e-05
94.4226497308,38.4226497308,8,0,-0.02478272890386179,24.92576035038238,1.195301475367041,-2.001991301279826e-05,7.978225930434669e-05,9.562411802936329e-06,8.001078844130095e-05,7.982041013911189e-05
95.57735026920002,38.4226497308,8,0,-0.03422706574337564,24.88798300302432,1.17075642810796,-2.001991301279826e-05,7.966892726227252e-05,9.36605142486368e-06,7.988843574275952e-05,7.961898077317219e-05
94.4226497308,39.5773502692,8,0,-0.09023618826141089,24.90939698554299,1.181134970107791,-2.021627339087091e-05,7.978225930434669e-05,9.449079760862327e-06,8.000497930117583e-05,8.051125322184066e-05
95.57735026920002,39.5773502692,8,0,-0.09968052510090697,24.87161963818501,1.156589922848703,-2.021627339087091e-05,7.966892726227274e-05,9.252719382789624e-06,7.988274757527461e-05,8.035619104175947e-05
96.4226497308,38.4226497308,8,0,0.01287482377830429,24.88091545540284,0.7636116953909061,-1.986353292823169e-05,7.960862959826643e-05,6.108893563127249e-06,7.970233284755483e-05,7.94987977328713e-05
97.57735026920001,38.4226497308,8,0,0.008591137147030636,24.86378070887774,0.7367925207743696,-1.986353292823169e-05,7.955722535869114e-05,5.894340166194957e-06,7.964451288833187e-05,7.937188092648688e-05
96.4226497308,39.5773502692,8,0,-0.05864297519915329,24.86303600565847,0.7571861654440017,-2.007808632516406e-05,7.960862959826643e-05,6.057489323552014e-06,7.970056603966769e-05,8.026685154603663e-05
97.57735026920001,39.5773502692,8,0,-0.06292666183043139,24.84590125913336,0.7303669908274586,-2.007808632516406e-05,7.955722535869108e-05,5.842935926619669e-06,7.964281398689177e-05,8.01778336846701e-05
98.42264973080002,38.4226497308,8,0,0.03372220301378714,24.86710537217462,0.2765321914426978,-1.978577324809557e-05,7.954775942854773e-05,2.212257531541582e-06,7.956007520082779e-05,7.930994887689428e-05
99.57735026920002,38.4226497308,8,0,0.03585077280392301,24.87561965133516,0.2468582301888718,-1.978577324809557e-05,7.957330226602936e-05,1.974865841510975e-06,7.958311442953224e-05,7.926766417716758e-05
98.42264973080002,39.5773502692,8,0,-0.04540836032980344,24.84732273133872,0.2797250461279016,-2.002316493812634e-05,7.954775942854773e-05,2.237800369023213e-06,7.956033116655524e-05,8.013603197849806e-05
99.57735026920002,39.5773502692,8,0,-0.04327979053968978,24.85583701049917,0.2500510848740486,-2.002316493812634e-05,7.957330226602909e-05,2.000408678992389e-06,7.958334587374703e-05,8.011084545475464e-05
0.4226497308,40.4226497308,8,0,-0.03786029806371255,1.189661051482403,-0.3461308297486186,-1.072881794989802e-06,3.837203603194658e-06,-2.769046637988949e-06,4.20069589150378e-06,8.054325765331656e-06
1.5773502692,40.4226497308,8,0,0.1063998382505507,1.766701596739456,-0.3746220786266685,-1.072881794989802e-06,5.568325238965817e-06,-2.996976629013348e-06,5.890780182358695e-06,8.653369334768847e-06
0.4226497308,41.5773502692,8,0,-0.1138369617385663,1.170666885563689,-0.129740625277278,-1.300811786014364e-06,3.837203603194658e-06,-1.037925002218224e-06,3.889097015555958e-06,8.756772301213341e-06
1.5773502692,41.5773502692,8,0,0.03042317457569688,1.747707430820742,-0.1582318741552872,-1.300811786014364e-06,5.568325238965817e-06,-1.265854993242298e-06,5.626156772714344e-06,9.337718375538276e-06
2.4226497308,40.4226497308,8,0,-0.05891679455159871,2.127964510480794,-0.8124233152614029,-1.890905350949751e-06,6.85661986917982e-06,-6.499386522091223e-06,7.931738397485184e-06,9.379210397358445e-06
3.5773502692,40.4226497308,8,0,0.09013026788521805,2.724152760228061,-0.8385761881994961,-1.890905350949751e-06,8.645184618421621e-06,-6.708609505595969e-06,9.622430526505875e-06,1.076320148922012e-05
2.4226497308,41.5773502692,8,0,-0.1286577890535782,2.110529261855164,-0.5888527216062048,-2.100128334455581e-06,6.856619869179386e-06,-4.710821772849639e-06,7.438265040024617e-06,1.00434328515263e-05
3.5773502692,41.5773502692,8,0,0.02038927338329277,2.706717511602648,-0.6150055945443388,-2.100128334455581e-06,8.645184618421837e-06,-4.92004475635471e-06,9.181601480075337e-06,1.139053458131948e-05
4.422649730800001,40.4226497308,8,0,-0.09105177692754962,3.093286476335634,-1.22567444225579,-2.765994867236666e-06,9.971358145816067e-06,-9.805395538046318e-06,1.163987554382912e-05,1.191402801145521e-05
5.577350269200001,40.4226497308,8,0,0.06183228202309687,3.70482271213822,-1.25059469376582,-2.765994867236666e-06,1.180596685322383e-05,-1.000475755012656e-05,1.335793318138779e-05,1.367415344917126e-05
4.422649730800001,41.5773502692,8,0,-0.157505780954098,3.076672975329132,-0.9963483538299014,-2.965356879316419e-06,9.971358145816501e-06,-7.970786830639211e-06,1.110056666358159e-05,1.251316098783104e-05
5.577350269200001,41.5773502692,8,0,-0.004621722003433359,3.688209211131791,-1.021268605339877,-2.965356879316419e-06,1.180596685322448e-05,-8.170148842719018e-06,1.286043734556827e-05,1.423313163867631e-05
6.422649730800001,40.4226497308,8,0,-0.1335734641968447,4.080195555455403,-1.592278614100088,-3.691591529794225e-06,1.316348454881476e-05,-1.27382289128007e-05,1.529951675647944e-05,1.502669040347064e-05
7.577350269200001,40.4226497308,8,0,0.02260975324300829,4.704928425214815,-1.616808670853106,-3.691591529794225e-06,1.5037683158093e-05,-1.293446936682485e-05,1.705379961316973e-05,1.696176464417208e-05
6.422649730800001,41.5773502692,8,0,-0.1989869488714879,4.063842184286742,-1.358003787940308,-3.887831983818155e-06,1.316348454881476e-05,-1.086403030352246e-05,1.474691315931234e-05,1.555639810999949e-05
7.577350269200001,41.5773502692,8,0,-0.04280373143164384,4.688575054046119,-1.382533844693353,-3.887831983818155e-06,1.503768315809289e-05,-1.106027075754683e-05,1.653513444254872e-05,1.745165869091523e-05
8.4226497308,40.4226497308,8,0,-0.1870316263654432,5.085434657599014,-1.917131775360618,-4.666848930448629e-06,1.64230162054092e-05,-1.533705420288494e-05,1.891656172227705e-05,1.840720731161195e-05
9.5773502692,40.4226497308,8,0,-0.02781482123577561,5.722301878117684,-1.941804599072726,-4.666848930448629e-06,1.833361786696521e-05,-1.55344367925818e-05,2.071088603880095e-05,2.042115587795201e-05
8.4226497308,41.5773502692,8,0,-0.2528258229311537,5.068986108457586,-1.67830656766613,-4.86423152014576e-06,1.64230162054092e-05,-1.342645254132904e-05,1.836327631751906e-05,1.886821465967025e-05
9.5773502692,41.5773502692,8,0,-0.093609017801495,5.705853328976221,-1.702979391378292,-4.86423152014576e-06,1.83336178669651e-05,-1.362383513102633e-05,2.018598586095895e-05,2.084305695732269e-05
10.4226497308,40.4226497308,8,0,-0.2526604398301862,6.107165030382139,-2.203497528293391,-5.694245431762306e-06,1.974505644908699e-05,-1.762798022634713e-05,2.250041574327502e-05,2.19077968972376e-05
11.5773502692,40.4226497308,8,0,-0.09053375176956058,6.755671782624641,-2.228527010120107,-5.694245431762306e-06,2.16905767058145e-05,-1.782821608096086e-05,2.433656956868469e-05,2.395542712837441e-05
10.4226497308,41.5773502692,8,0,-0.3194057247011586,6.09047870916426,-1.960307496202507,-5.894481286375115e-06,1.974505644908656e-05,-1.568245996962005e-05,2.195297407983993e-05,2.230114093290168e-05
11.5773502692,41.5773502692,8,0,-0.1572790366405421,6.738985461406726,-1.985336978029115,-5.894481286375115e-06,2.169057670581395e-05,-1.588269582423292e-05,2.381341332818339e-05,2.43098581384024e-05
12.4226497308,40.4226497308,8,0,-0.3318811821549568,7.144265054749027,-2.453041400666964,-6.777431826695082e-06,2.312715312092085e-05,-1.962433120533571e-05,2.605920139639611e-05,2.545892509934379e-05
13.5773502692,40.4226497308,8,0,-0.1669412239493959,7.80402488757127,-2.478342467259615,-6.777431826695082e-06,2.510643261938758e-05,-1.982673973807692e-05,2.793735593737684e-05,2.751892771414666e-05
12.4226497308,41.5773502692,8,0,-0.3993506930684372,7.127397677020657,-2.205631463358677,-6.979840359435524e-06,2.312715312092085e-05,-1.764505170686942e-05,2.55220009022461e-05,2.578470114256313e-05
13.5773502692,41.5773502692,8,0,-0.2344107348629123,7.787157509842756,-2.2309325299513,-6.979840359435524e-06,2.510643261938715e-05,-1.78474602396104e-05,2.742126953852502e-05,2.780532995778837e-05
14.4226497308,40.4226497308,8,0,-0.4258832696106518,8.195716870732001,-2.66599992578207,-7.919399959339685e-06,2.656700060203092e-05,-2.132799940625656e-05,2.959813990585849e-05,2.902752950401974e-05
15.5773502692,40.4226497308,8,0,-0.2582943997610405,8.866072350130446,-2.691231879078959,-7.919399959339685e-06,2.857806704022626e-05,-2.152985503263167e-05,3.151659241877947e-05,3.108910362771469e-05
14.4226497308,41.5773502692,8,0,-0.4931684784026986,8.178895568533989,-2.414616621007625,-8.121255585715826e-06,2.656700060203092e-05,-1.9316932968061e-05,2.907494429323399e-05,2.92847513823366e-05
15.5773502692,41.5773502692,8,0,-0.3255796085530509,8.849251047932579,-2.439848574304704,-8.121255585715826e-06,2.857806704022669e-05,-1.951878859443763e-05,3.101195324324368e-05,3.130597706495492e-05
16.4226497308,40.4226497308,8,0,-0.5352964561032132,9.260103760014342,-2.841452507372768,-9.121031667541754e-06,3.006056919692846e-05,-2.273162005898214e-05,3.311885482135673e-05,3.259633517859684e-05
17.5773502692,40.4226497308,8,0,-0.3653627247349966,9.939838685487208,-2.866079360872958,-9.121031667541754e-06,3.209977397334706e-05,-2.292863488698367e-05,3.507367268731604e-05,3.465259423085785e-05
16.4226497308,41.5773502692,8,0,-0.600968065436819,9.243685857680941,-2.586551910320565,-9.318046495542572e-06,3.006056919692846e-05,-2.069241528256452e-05,3.26134027948156e-05,3.278322016675886e-05
17.5773502692,41.5773502692,8,0,-0.4310343340686384,9.923420783153663,-2.61117876382066,-9.318046495542572e-06,3.209977397334663e-05,-2.088943011056528e-05,3.458463522359878e-05,3.479789769357115e-05
18.4226497308,40.4226497308,8,0,-0.659963032730388,10.33523366550937,-2.977664583021965,-1.038006863714473e-05,3.360071815581428e-05,-2.382131666417572e-05,3.661914687545339e-05,3.615368963409505e-05
19.5773502692,40.4226497308,8,0,-0.4881754502651869,11.02238399537017,-3.001026105637909,-1.038006863714473e-05,3.566216914539669e-05,-2.400820884510327e-05,3.860391677524697e-05,3.819849949066049e-05
18.4226497308,41.5773502692,8,0,-0.7222604263729062,10.31965931709874,-2.719983209324218,-1.056696081807229e-05,3.360071815581428e-05,-2.175986567459374e-05,3.613534541700879e-05,3.62681122061475e-05
19.5773502692,41.5773502692,8,0,-0.5504728439077051,11.00680964695954,-2.743344731940135,-1.056696081807229e-05,3.566216914539669e-05,-2.194675785552108e-05,3.813467432394131e-05,3.827013542588967e-05
20.4226497308,40.4226497308,8,0,-0.7988146250562558,11.41789752669562,-3.072470120068241,-1.169052482153651e-05,3.717632378547097e-05,-2.457976096054593e-05,4.009309848333542e-05,3.968873463141559e-05
21.5773502692,40.4226497308,8,0,-0.625873256906702,12.10966299929383,-3.093857071711473,-1.169052482153651e-05,3.925162020326561e-05,-2.475085657369178e-05,4.209885908499359e-05,4.171532289479067e-05
20.4226497308,41.5773502692,8,0,-0.855846496104856,11.40363955893346,-2.813058067843938,-1.186162043468231e-05,3.717632378547097e-05,-2.25044645427515e-05,3.963498545643054e-05,3.972871590009713e-05
21.5773502692,41.5773502692,8,0,-0.6829051279552751,12.09540503153179,-2.834445019487197,-1.186162043468231e-05,3.925162020326594e-05,-2.267556015589757e-05,4.165364969475536e-05,4.171160864298704e-05
22.4226497308,40.4226497308,8,0,-0.9498524339638914,12.50376383041136,-3.123660891445591,-1.304253885301354e-05,4.077192620448745e-05,-2.498928713156473e-05,4.353143060773194e-05,4.318933795792227e-05
23.5773502692,40.4226497308,8,0,-0.776664365566154,13.19651610400231,-3.142387848204485,-1.304253885301354e-05,4.28501830252603e-05,-2.513910278563588e-05,4.554681005983784e-05,4.518983373831575e-05
22.4226497308,41.5773502692,8,0,-0.999790985320943,12.49127919257209,-2.863878788849012,-1.319235450708469e-05,4.077192620448745e-05,-2.29110303107921e-05,4.310300344170621e-05,4.315349289589744e-05
23.5773502692,41.5773502692,8,0,-0.8266029169232056,13.18403146616304,-2.882605745607811,-1.319235450708469e-05,4.28501830252603e-05,-2.306084596486249e-05,4.512977493036004e-05,4.51099011907597e-05
24.4226497308,40.4226497308,8,0,-1.110222403608716,13.58740237633598,-3.129350777820802,-1.442263359261668e-05,4.436786552716211e-05,-2.503480622256641e-05,4.692204596748618e-05,4.664147577276202e-05
25.5773502692,40.4226497308,8,0,-0.9378783299122366,14.2767786711219,-3.144820351686886,-1.442263359261668e-05,4.643599441151987e-05,-2.515856281349509e-05,4.893359146024123e-05,4.860693978504703e-05
24.4226497308,41.5773502692,8,0,-1.151474600584905,13.57708932709193,-2.870834667276136,-1.454639018354524e-05,4.436786552716211e-05,-2.296667733820909e-05,4.652702221752957e-05,4.6529372307951e-05
25.5773502692,41.5773502692,8,0,-0.9791305268884702,14.26646562187767,-2.886304241142166,-1.454639018354524e-05,4.643599441151933e-05,-2.309043392913733e-05,4.854855715054773e-05,4.845103122529679e-05
26.4226497308,40.4226497308,8,0,-1.276368878514699,14.66242126528698,-3.088286863291186,-1.581431742347662e-05,4.794084315173008e-05,-2.470629490632949e-05,5.025069296631821e-05,5.002937541750204e-05
27.57735026920001,40.4226497308,8,0,-1.10610268419968,15.34348604254705,-3.100040243755859,-1.581431742347662e-05,4.998403748351032e-05,-2.480032195004687e-05,5.224335643306212e-05,5.195007782374574e-05
26.4226497308,41.5773502692,8,0,-1.307711226420438,14.65458567831068,-2.832887571818752,-1.590834446719394e-05,4.794084315173051e-05,-2.266310057455001e-05,4.989225444635629e-05,4.984178215900521e-05
27.57735026920001,41.5773502692,8,0,-1.137445032105464,15.33565045557057,-2.844640952283383,-1.590834446719394e-05,4.998403748351021e-05,-2.275712761826707e-05,5.18935951608968e-05,5.171972545338614e-05
28.4226497308,40.4226497308,8,0,-1.444243606681724,15.72169292695577,-3.000085862999631,-1.719893388294613e-05,5.146481225160385e-05,-2.400068690399705e-05,5.350168608703924e-05,5.333603547452872e-05
29.5773502692,40.4226497308,8,0,-1.277380475899145,16.38914545008609,-3.007836423039751,-1.719893388294613e-05,5.34671698209948e-05,-2.4062691384318e-05,5.545941545395091e-05,5.520183978752393e-05
28.4226497308,41.5773502692,8,0,-1.464911766788655,15.71652588692904,-2.749791166825762,-1.726093836326693e-05,5.146481225160385e-05,-2.19983293346061e-05,5.318224767970399e-05,5.307505263862392e-05
29.5773502692,41.5773502692,8,0,-1.298048636006085,16.38397841005932,-2.757541726865827,-1.726093836326693e-05,5.346716982099469e-05,-2.206033381492662e-05,5.514742573509362e-05,5.489993207534931e-05
30.4226497308,40.4226497308,8,0,-1.609543224672384,16.7576393015753,-2.865383837741831,-1.855664976021187e-05,5.491208034477885e-05,-2.292307070193465e-05,5.665862443449927e-05,5.654389802227712e-05
31.5773502692,40.4226497308,8,0,-1.447442275160177,17.40604309962412,-2.869032775557485,-1.855664976021187e-05,5.685729173892534e-05,-2.295226220445988e-05,5.856500389033148e-05,5.834466499349967e-05
30.4226497308,41.5773502692,8,0,-1.619273725514237,16.75520667636484,-2.622232413473588,-1.858584126273742e-05,5.491208034477885e-05,-2.09778593077887e-05,5.637965739363756e-05,5.621298012843896e-05
31.5773502692,41.5773502692,8,0,-1.45717277600203,17.40361047441366,-2.625881351289228,-1.858584126273742e-05,5.685729173892534e-05,-2.100705081031383e-05,5.829234185921459e-05,5.797541468568642e-05
32.4226497308,40.4226497308,8,0,-1.767948645292198,17.76254437294336,-2.685897624767896,-1.986747116328972e-05,5.82545009096525e-05,-2.148718099814317e-05,5.970506096751273e-05,5.96355366354106e-05
33.57735026920001,40.4226497308,8,0,-1.611945724521884,18.38655605602462,-2.685532816096127,-1.986747116328972e-05,6.012653595889627e-05,-2.148426252876901e-05,6.154394628919322e-05,6.136149657608851e-05
32.4226497308,41.5773502692,8,0,-1.766975822167226,17.7627875787246,-2.45189324361248,-1.98645526939148e-05,5.82545009096525e-05,-1.961514594889984e-05,5.946698823217627e-05,5.923942544379791e-05
33.57735026920001,41.5773502692,8,0,-1.610972901396876,18.386799261806,-2.451528434940602,-1.98645526939148e-05,6.01265359588967e-05,-1.961222747952482e-05,6.131112558859464e-05,6.093033249917153e-05
34.42264973080001,40.4226497308,8,0,-1.915343915950345,18.72886448304512,-2.464405940509081,-2.11121921174772e-05,6.146464147850465e-05,-1.971524752407265e-05,6.262508930512391e-05,6.259427961036923e-05
35.5773502692,40.4226497308,8,0,-1.76669914791946,19.32344355516866,-2.460286918068704,-2.11121921174772e-05,6.324837869487528e-05,-1.968229534454963e-05,6.438119366784534e-05,6.423634555419836e-05
34.42264973080001,41.5773502692,8,0,-1.904359856109484,18.73161049800547,-2.241438788462752,-2.107923993795472e-05,6.146464147850509e-05,-1.793151030770202e-05,6.242725836595091e-05,6.213887114490887e-05
35.5773502692,41.5773502692,8,0,-1.755715088078644,19.32618957012883,-2.237319766022348,-2.107923993795472e-05,6.324837869487517e-05,-1.789855812817879e-05,6.418765989222673e-05,6.374975307274055e-05
36.4226497308,40.4226497308,8,0,-2.047998909487311,19.64951253008071,-2.204664992605992,-2.227320653442396e-05,6.451683922384811e-05,-1.763731994084794e-05,6.540383046280181e-05,6.540472697675023e-05
37.5773502692,40.4226497308,8,0,-1.907852126460009,20.21009966218991,-2.197197967590054,-2.227320653442396e-05,6.619860062017572e-05,-1.757758374072043e-05,6.706322949916378e-05,6.695473844208806e-05
36.4226497308,41.5773502692,8,0,-2.028086842777961,19.65449054675804,-1.994444818065094,-2.221347033429591e-05,6.451683922384811e-05,-1.595555854452075e-05,6.524455927880999e-05,6.489689741948625e-05
37.5773502692,41.5773502692,8,0,-1.887940059750668,20.21507767886722,-1.986977793049156,-2.221347033429591e-05,6.619860062017562e-05,-1.589582234439325e-05,6.690740528086926e-05,6.642007213071251e-05
38.4226497308,40.4226497308,8,0,-2.162707886116348,20.51809976930006,-1.911276829468449,-2.333514505101236e-05,6.738808557065325e-05,-1.52902146357476e-05,6.802781599567678e-05,6.805314795203536e-05
39.5773502692,40.4226497308,8,0,-2.03204355917017,21.04075707708477,-1.900983870490984,-2.333514505101236e-05,6.895605749400739e-05,-1.520787096392787e-05,6.957835495145261e-05,6.950404707551793e-05
38.4226497308,41.5773502692,8,0,-2.13525999550981,20.52496174195162,-1.715280339049154,-2.325280137919269e-05,6.738808557065303e-05,-1.372224271239324e-05,6.790450044169598e-05,6.750056051916499e-05
39.5773502692,41.5773502692,8,0,-2.004595668563586,21.04761904973652,-1.704987380071662,-2.325280137919269e-05,6.895605749400772e-05,-1.363989904057329e-05,6.945774487841831e-05,6.892933498230463e-05
40.4226497308,40.4226497308,8,0,-2.256882883267864,21.32912678910328,-1.589528693649991,-2.428532665773979e-05,7.005871203174478e-05,-1.271622954919993e-05,7.048527494055e-05,7.052776457684102e-05
41.5773502692,40.4226497308,8,0,-2.136504858512285,21.8106388881256,-1.577014724852626,-2.428532665773979e-05,7.150324832881172e-05,-1.261611779882101e-05,7.191687304013226e-05,7.187371367968949e-05
40.4226497308,41.5773502692,8,0,-2.223512299808244,21.33746943496818,-1.408961656516595,-2.418521490736092e-05,7.005871203174478e-05,-1.127169325213276e-05,7.039454253134326e-05,6.99386745030939e-05
41.5773502692,41.5773502692,8,0,-2.103134275052665,21.8189815339905,-1.396447687719197,-2.418521490736092e-05,7.150324832881172e-05,-1.117158150175357e-05,7.182821389562429e-05,7.126746689295504e-05
42.4226497308,40.4226497308,8,0,-2.328605996896299,22.07812193538071,-1.245219181511014,-2.511403673837272e-05,7.25128749907353e-05,-9.961753452088109e-06,7.276633880126188e-05,7.281893842982669e-05
43.57735026920001,40.4226497308,8,0,-2.219121410221114,22.51606028208145,-1.231139599640708,-2.511403673837272e-05,7.382669003083752e-05,-9.849116797125662e-06,7.407119493355399e-05,7.405539136903441e-05
42.4226497308,41.5773502692,8,0,-2.291060445242041,22.08750832329427,-1.080992301498278,-2.500140008340995e-05,7.25128749907353e-05,-8.64793841198622e-06,7.270423253270871e-05,7.22020072743491e-05
43.57735026920001,41.5773502692,8,0,-2.181575858566861,22.525446669995,-1.066912719627938,-2.500140008340995e-05,7.382669003083746e-05,-8.535301757023502e-06,7.401063578915218e-05,7.34264266882899e-05
44.4226497308,40.4226497308,8,0,-2.376647540572438,22.76173022067406,-0.8844831584115138,-2.581465630637105e-05,7.473885473861493e-05,-7.075865267292111e-06,7.486318167660832e-05,7.491928187663497e-05
45.5773502692,40.4226497308,8,0,-2.278458766695429,23.15448531618209,-0.8695138495530783,-2.581465630637105e-05,7.591712002513902e-05,-6.956110796424626e-06,7.603589080934788e-05,7.604302169646874e-05
44.4226497308,41.5773502692,8,0,-2.33672938361661,22.77170975991302,-0.73719999759607,-2.569490183550356e-05,7.473885473861493e-05,-5.89759998076856e-06,7.482535890522984e-05,7.428340661996573e-05
45.5773502692,41.5773502692,8,0,-2.238540609739597,23.16446485542107,-0.7222306887375735,-2.569490183550356e-05,7.591712002513908e-05,-5.777845509900587e-06,7.599918845861375e-05,7.540029992052977e-05
46.42264973080001,40.4226497308,8,0,-2.400457910445515,23.37775837362963,-0.5136231565241645,-2.638367201232935e-05,7.672919312397123e-05,-4.108985252193316e-06,7.67701120295634e-05,7.682371473385494e-05
47.57735026920001,40.4226497308,8,0,-2.313761270525567,23.72454493330942,-0.4984337233042142,-2.638367201232935e-05,7.776955280301061e-05,-3.987469786433714e-06,7.78077035501619e-05,7.78328679573662e-05
46.42264973080001,41.5773502692,8,0,-2.359952755192242,23.38788466244295,-0.3835781966442491,-2.626215654656953e-05,7.672919312397123e-05,-3.068625573153993e-06,7.67520454655035e-05,7.617787228904443e-05
47.57735026920001,41.5773502692,8,0,-2.273256115272262,23.73467122212287,-0.3683887634242243,-2.626215654656953e-05,7.776955280301099e-05,-2.947110107393795e-06,7.779042075796726e-05,7.718534620591447e-05
48.4226497308,40.4226497308,8,0,-2.400140078463302,23.92518233720632,-0.1389512038021639,-2.682059412084762e-05,7.848069554183086e-05,-1.111609630417311e-06,7.848362912780756e-05,7.852948283728093e-05
49.57735026920001,40.4226497308,8,0,-2.324930210552218,24.22602180885065,-0.1241814551447069,-2.682059412084762e-05,7.938321395676385e-05,-9.93451641157655e-07,7.938553714223248e-05,7.942351685908608e-05
48.4226497308,41.5773502692,8,0,-2.360754082043488,23.93502883631127,-0.02613640193553927,-2.670243613158818e-05,7.848069554183086e-05,-2.090912154843142e-07,7.84807994536761e-05,7.788258714255624e-05
49.57735026920001,41.5773502692,8,0,-2.285544214132373,24.23586830795573,-0.01136665327811613,-2.670243613158818e-05,7.938321395676423e-05,-9.093322622492905e-08,7.938323344302393e-05,7.87800108897894e-05
50.42264973080001,40.4226497308,8,0,-2.376407466948859,24.40412262575816,0.2333576565058683,-2.712780199484288e-05,7.99943183759852e-05,1.866861252046946e-06,8.000245139822685e-05,8.003614791867091e-05
51.57735026920001,40.4226497308,8,0,-2.312486641350468,24.65980592815173,0.2471183221283737,-2.712780199484288e-05,8.076136828316589e-05,1.976946577026989e-06,8.07704238485792e-05,8.081585307801742e-05
50.42264973080001,41.5773502692,8,0,-2.339712358622215,24.41329640283982,0.3292388949034555,-2.701771666986294e-05,7.99943183759852e-05,2.633911159227644e-06,8.001052318324967e-05,7.939691514077009e-05
51.57735026920001,41.5773502692,8,0,-2.275791533023824,24.66897970523339,0.3429995605260016,-2.701771666986294e-05,8.076136828316589e-05,2.743996484208013e-06,8.077883061590041e-05,8.018490515069299e-05
52.4226497308,40.4226497308,8,0,-2.330529233890314,24.81579112789287,0.5974000194945941,-2.731032645076329e-05,8.127495499636941e-05,4.779200155956753e-06,8.132751668544415e-05,8.134554975700061e-05
53.5773502692,40.4226497308,8,0,-2.277521309936807,25.02782282370689,0.6096307205220549,-2.731032645076329e-05,8.19110500838115e-05,4.877045764176439e-06,8.196546647089488e-05,8.201300283729817e-05
52.4226497308,41.5773502692,8,0,-2.297914031150526,24.82394492857781,0.6769119054249155,-2.721248084254393e-05,8.127495499636941e-05,5.415295243399324e-06,8.134249087728897e-05,8.072236764632753e-05
53.5773502692,41.5773502692,8,0,-2.244906107197011,25.03597662439187,0.6891426064523424,-2.721248084254393e-05,8.191105008381161e-05,5.513140851618739e-06,8.198063945438536e-05,8.140275248170334e-05
54.42264973080001,40.4226497308,8,0,-2.264262670035186,25.16241104111635,0.9476662188645161,-2.737556937700567e-05,8.233112546760044e-05,7.581329750916128e-06,8.246194725453353e-05,8.246173373784233e-05
55.57735026920001,40.4226497308,8,0,-2.221631653024599,25.33293510915869,0.9579302135190575,-2.737556937700567e-05,8.284269767172748e-05,7.66344170815246e-06,8.297574624139143e-05,8.302023627680964e-05
54.42264973080001,41.5773502692,8,0,-2.236892017623112,25.16925370421936,1.011612744380416,-2.729345741976945e-05,8.233112546760044e-05,8.09290195504333e-06,8.248028468545594e-05,8.186253382481857e-05
55.57735026920001,41.5773502692,8,0,-2.194261000612525,25.33977777226171,1.021876739034917,-2.729345741976945e-05,8.284269767172748e-05,8.175013912279337e-06,8.299418982460177e-05,8.243829497925928e-05
56.4226497308,40.4226497308,8,0,-2.179771436964857,25.44711058316907,1.279147237558408,-2.733295706482279e-05,8.317457101571289e-05,1.023317790046726e-05,8.341096757264686e-05,8.339083216621185e-05
57.57735026920001,40.4226497308,8,0,-2.146844550851664,25.57881812762184,1.287104533370136,-2.733295706482279e-05,8.35696936490712e-05,1.029683626696109e-05,8.380818507328398e-05,8.384481642621063e-05
56.4226497308,41.5773502692,8,0,-2.158551981466815,25.45241544704358,1.32853756672815,-2.726929869832867e-05,8.317457101571289e-05,1.06283005338252e-05,8.342967899996451e-05,8.282296763450441e-05
57.57735026920001,41.5773502692,8,0,-2.125625095353623,25.58412299149635,1.336494862539918,-2.726929869832867e-05,8.35696936490712e-05,1.069195890031935e-05,8.382694354074646e-05,8.329815171852051e-05
58.4226497308,40.4226497308,8,0,-2.079529300626432,25.6737916476617,1.587421520998563,-2.719352708013394e-05,8.381975671301859e-05,1.269937216798851e-05,8.418176262538813e-05,8.414088801445406e-05
59.57735026920001,40.4226497308,8,0,-2.05552410375373,25.76981243515251,1.59283745014243,-2.719352708013394e-05,8.410781907549101e-05,1.274269960113944e-05,8.447135412646299e-05,8.449578637624836e-05
58.4226497308,41.5773502692,8,0,-2.065086822909545,25.67740226709093,1.623429316307596,-2.715019964698328e-05,8.381975671301859e-05,1.298743453046077e-05,8.419846233167106e-05,8.361102445667906e-05
59.57735026920001,41.5773502692,8,0,-2.041081626036843,25.77342305458173,1.628845245451476,-2.715019964698328e-05,8.410781907549101e-05,1.303076196361181e-05,8.448806673352425e-05,8.399062458965162e-05
60.4226497308,40.4226497308,8,0,-1.966211611270048,25.84697676699719,1.86871536196391,-2.69694585696619e-05,8.428329494340704e-05,1.494972289571128e-05,8.478326979397915e-05,8.472161588687117e-05
61.5773502692,40.4226497308,8,0,-1.950266059253701,25.91075897506258,1.871463929007559,-2.69694585696619e-05,8.447464156760321e-05,1.497171143206047e-05,8.497522839597519e-05,8.498369522197298e-05
60.4226497308,41.5773502692,8,0,-1.95888209915385,25.84880914502624,1.892633689988478,-2.694747003331331e-05,8.428329494340704e-05,1.514106951990783e-05,8.479619201070641e-05,8.423564520911695e-05
61.5773502692,41.5773502692,8,0,-1.942936547137498,25.91259135309165,1.895382257032066,-2.694747003331331e-05,8.447464156760326e-05,1.516305805625653e-05,8.49881473110657e-05,8.452545385745406e-05
62.42264973080001,40.4226497308,8,0,-1.842580075784625,25.97164098752289,2.119930884627531,-2.667356903252911e-05,8.458331522070094e-05,1.695944707702025e-05,8.52259072477579e-05,8.51441054644895e-05
63.57735026920001,40.4226497308,8,0,-1.833783799324284,26.00682609336425,2.119991963962067,-2.667356903252911e-05,8.468887053822503e-05,1.695993571169653e-05,8.533089721133689e-05,8.532027506201592e-05
62.42264973080001,41.5773502692,8,0,-1.842417197559305,25.97168170707922,2.133125299318015,-2.667308039785315e-05,8.458331522070094e-05,1.706500239454412e-05,8.52338875489234e-05,8.470709377409518e-05
63.57735026920001,41.5773502692,8,0,-1.833620921098965,26.00686681292058,2.133186378652503,-2.667308039785315e-05,8.468887053822503e-05,1.706549102922002e-05,8.533887034213972e-05,8.491353460672534e-05
64.4226497308,40.4226497308,8,0,-1.711369067180732,26.05303841473769,2.338638011601582,-2.631881174676849e-05,8.473881818090519e-05,1.870910409281266e-05,8.552125373840694e-05,8.542048454420308e-05
65.57735026920001,40.4226497308,8,0,-1.708793718847086,26.06333980807227,2.336088126041857,-2.631881174676849e-05,8.476972236090894e-05,1.868870500833485e-05,8.555025025805334e-05,8.551809234342382e-05
64.4226497308,41.5773502692,8,0,-1.718168762006792,26.05133849103118,2.342501034102105,-2.633921083124667e-05,8.473881818090519e-05,1.874000827281684e-05,8.552368058171861e-05,8.503666259299749e-05
65.57735026920001,41.5773502692,8,0,-1.715593413673155,26.06163988436573,2.339951148542325,-2.633921083124667e-05,8.476972236090883e-05,1.87196091883386e-05,8.555267406577696e-05,8.516661367471084e-05
66.4226497308,40.4226497308,8,0,-1.575182789769049,26.09653509519557,2.523030564423933,-2.591781300341741e-05,8.476905853644105e-05,2.018424451539146e-05,8.568170523307324e-05,8.556356856266858e-05
67.57735026920001,40.4226497308,8,0,-1.577909271617031,26.08562916780364,2.518027806561312,-2.591781300341741e-05,8.473634075426527e-05,2.01442224524905e-05,8.564566543625528e-05,8.559020410496596e-05
66.4226497308,41.5773502692,8,0,-1.588523477402696,26.09319992328716,2.51894084165192,-2.595783506631835e-05,8.476905853644105e-05,2.015152673321536e-05,8.567844931367535e-05,8.523636884181341e-05
67.57735026920001,41.5773502692,8,0,-1.591249959250656,26.08229399589532,2.513938083789353,-2.595783506631835e-05,8.473634075426554e-05,2.011150467031483e-05,8.564241537885343e-05,8.529699242072285e-05
68.42264973080002,40.4226497308,8,0,-1.436411716734837,26.10745987670681,2.671850733703999,-2.548248539491693e-05,8.469300097884965e-05,2.137480586963199e-05,8.572014022893774e-05,8.558652866752256e-05
69.57735026920001,40.4226497308,8,0,-1.443552440589252,26.07889698128915,2.664615142384045,-2.548248539491693e-05,8.460731229259667e-05,2.131692113907236e-05,8.562972719251567e-05,8.554985164338932e-05
68.42264973080002,41.5773502692,8,0,-1.455706626921434,26.10263614916016,2.661139647922397,-2.554037012547671e-05,8.469300097884965e-05,2.128911718337918e-05,8.571147066712334e-05,8.531866781640526e-05
69.57735026920001,41.5773502692,8,0,-1.462847350775853,26.07407325374248,2.653904056602424,-2.554037012547671e-05,8.460731229259662e-05,2.123123245281939e-05,8.562107482435635e-05,8.531726251977679e-05
70.4226497308,40.4226497308,8,0,-1.297174216572794,26.09098293390156,2.784289454192209,-2.502374384015418e-05,8.45288847617432e-05,2.227431563353767e-05,8.564962666800395e-05,8.550261016272034e-05
71.57735026920001,40.4226497308,8,0,-1.30788915930282,26.04812316298145,2.775080633239485,-2.502374384015418e-05,8.440030544898288e-05,2.220064506591588e-05,8.551500201427557e-05,8.541022106143562e-05
70.4226497308,41.5773502692,8,0,-1.321731072446758,26.08484371993307,2.768217040097183,-2.509741440777607e-05,8.45288847617432e-05,2.214573632077746e-05,8.563612302165598e-05,8.529621032089131e-05
71.57735026920001,41.5773502692,8,0,-1.332446015176789,26.04198394901294,2.75900821914446,-2.509741440777607e-05,8.440030544898283e-05,2.207206575315568e-05,8.550152775071491e-05,8.524009994055113e-05
72.4226497308,40.4226497308,8,0,-1.159286016682431,26.05202836313459,2.85987202158864,-2.455133794389145e-05,8.429391957537661e-05,2.287897617270912e-05,8.548319969133139e-05,8.532492841204211e-05
73.57735026920001,40.4226497308,8,0,-1.172792041611698,25.99800426341752,2.848965907913979,-2.455133794389145e-05,8.41318472762254e-05,2.279172726331183e-05,8.531389283324725e-05,8.518429366166171e-05
72.4226497308,41.5773502692,8,0,-1.188368986481708,26.04475762068477,2.839612984194793,-2.463858685328927e-05,8.429391957537661e-05,2.271690387355835e-05,8.546566748984013e-05,8.51816674845441e-05
73.57735026920001,41.5773502692,8,0,-1.201875011410993,25.99073352096762,2.828706870520038,-2.463858685328927e-05,8.413184727622518e-05,2.26296549641603e-05,8.529640209335777e-05,8.507813742625526e-05
74.4226497308,40.4226497308,8,0,-1.024257010164693,25.99522352105586,2.898338438357104,-2.40738012493717e-05,8.400412087551049e-05,2.318670750685683e-05,8.523373283572086e-05,8.50663619642615e-05
75.57735026920001,40.4226497308,8,0,-1.039830569921647,25.93292928202804,2.886004930594994,-2.40738012493717e-05,8.381723815842704e-05,2.308803944475995e-05,8.503858792774041e-05,8.488480132550807e-05
74.4226497308,41.5773502692,8,0,-1.057146364196932,25.9870011825478,2.874978098721631,-2.417246931146842e-05,8.400412087551049e-05,2.299982478977305e-05,8.521312816839845e-05,8.49876408312618e-05
75.57735026920001,41.5773502692,8,0,-1.072719923953882,25.92470694352,2.862644590959589,-2.417246931146842e-05,8.381723815842709e-05,2.290115672767671e-05,8.501803619719069e-05,8.4843929594106e-05
76.42264973080002,40.4226497308,8,0,-0.8933125438929315,25.92488442558652,2.899526791271867,-2.359850768092659e-05,8.36742801969912e-05,2.319621433017493e-05,8.491391786189412e-05,8.473955481428584e-05
77.57735026920001,40.4226497308,8,0,-0.910286351969714,25.85698919327939,2.886009550611413,-2.359850768092659e-05,8.347059450006982e-05,2.30880764048913e-05,8.470111419817452e-05,8.452429460474119e-05
76.42264973080002,41.5773502692,8,0,-0.9293585189873834,25.91587293181291,2.874066079156673,-2.370664560620995e-05,8.36742801969912e-05,2.299252863325338e-05,8.489128399916319e-05,8.472666902281795e-05
77.57735026920001,41.5773502692,8,0,-0.9463323270641615,25.8479776995058,2.86054883849628,-2.370664560620995e-05,8.347059450006987e-05,2.288439070797024e-05,8.467854399027408e-05,8.455001842147665e-05
78.4226497308,40.4226497308,8,0,-0.7674350127787521,25.84503409064708,2.863266004376732,-2.313181931340967e-05,8.331805710029365e-05,2.290612803501385e-05,8.453636202344198e-05,8.435703274284383e-05
79.57735026920001,40.4226497308,8,0,-0.7851895318902997,25.77401601420089,2.848765267907404,-2.313181931340967e-05,8.310500287095509e-05,2.279012214325923e-05,8.431350052374229e-05,8.41153250474969e-05
78.4226497308,41.5773502692,8,0,-0.8061036433635911,25.83536693300087,2.83663422570937,-2.324782520516419e-05,8.331805710029365e-05,2.269307380567496e-05,8.451277850363102e-05,8.441133644640679e-05
79.57735026920001,41.5773502692,8,0,-0.8238581624751253,25.76434885655474,2.822133489240096,-2.324782520516419e-05,8.310500287095525e-05,2.257706791392077e-05,8.428999066217696e-05,8.420910084574711e-05
80.4226497308,40.4226497308,8,0,-0.6474212805169239,25.75944931463747,2.789282153200513,-2.267930754936413e-05,8.294817483125343e-05,2.23142572256041e-05,8.411380727013309e-05,8.393143286635513e-05
81.57735026920001,40.4226497308,8,0,-0.6653719424499291,25.68764666690545,2.77394096604994,-2.267930754936413e-05,8.273276688805736e-05,2.219152772839952e-05,8.388805470902795e-05,8.367073777968666e-05
80.4226497308,41.5773502692,8,0,-0.6883311129184335,25.74922185653709,2.762356160300997,-2.280203704656866e-05,8.294817483125343e-05,2.209884928240798e-05,8.409034958058799e-05,8.405448271341031e-05
81.57735026920001,41.5773502692,8,0,-0.7062817748514432,25.67741920880505,2.747014973150425,-2.280203704656866e-05,8.273276688805731e-05,2.19761197852034e-05,8.38646800423986e-05,8.383429372073642e-05
82.4226497308,40.4226497308,8,0,-0.5339519065729519,25.67173109481682,2.677120610560014,-2.22460309768869e-05,8.257670102867218e-05,2.141696488448011e-05,8.365947379354715e-05,8.34758397167513e-05
83.57735026920001,40.4226497308,8,0,-0.5515328994054238,25.60140712348693,2.66101455424356,-2.22460309768869e-05,8.236572911468252e-05,2.128811643394848e-05,8.343775707108872e-05,8.3204063393161e-05
82.4226497308,41.5773502692,8,0,-0.5769013900834858,25.66099372393919,2.650749121311299,-2.23748794274185e-05,8.257670102867218e-05,2.120599297049039e-05,8.363717976404958e-05,8.366950475528697e-05
83.57735026920001,41.5773502692,8,0,-0.5944823829159578,25.5906697526093,2.634643064994892,-2.23748794274185e-05,8.236572911468252e-05,2.107714451995914e-05,8.341555470795582e-05,8.343948192180708e-05
84.42264973080002,40.4226497308,8,0,-0.4276690737370803,25.58539424285954,2.526084875797982,-2.183685643024629e-05,8.221539683614019e-05,2.020867900638385e-05,8.318752988426879e-05,8.300421224743261e-05
85.57735026920001,40.4226497308,8,0,-0.4443143661556279,25.51881307318535,2.509215173704144,-2.183685643024629e-05,8.201565332711762e-05,2.007372138963315e-05,8.29767742420312e-05,8.272998508691891e-05
84.42264973080002,41.5773502692,8,0,-0.4726549459873501,25.57414777479697,2.501116937170147,-2.19718140469971e-05,8.221539683614019e-05,2.000893549736118e-05,8.316736710863295e-05,8.327073093884143e-05
85.57735026920001,41.5773502692,8,0,-0.4893002384059022,25.50756660512276,2.484247235076323,-2.19718140469971e-05,8.201565332711756e-05,1.987397788061058e-05,8.295671058061643e-05,8.303971751301233e-05
86.4226497308,40.4226497308,8,0,-0.3292612002389221,25.50397263179257,2.335192106479017,-2.14568139461986e-05,8.187612138192734e-05,1.868153685183213e-05,8.271369009287325e-05,8.25318678352161e-05
87.57735026920002,40.4226497308,8,0,-0.3443832714498969,25.44348434694867,2.317481920960201,-2.14568139461986e-05,8.169465652739565e-05,1.853985536768161e-05,8.252109705153267e-05,8.226482859819876e-05
86.4226497308,41.5773502692,8,0,-0.376488361622366,25.49216584144671,2.312508999662569,-2.159849543034893e-05,8.187612138192734e-05,1.850007199730055e-05,8.269651695045097e-05,8.28738220412469e-05
87.57735026920002,41.5773502692,8,0,-0.3916104328333265,25.43167755660286,2.294798814143808,-2.159849543034893e-05,8.169465652739581e-05,1.835839051315047e-05,8.250402812265244e-05,8.2651600609448e-05
88.42264973080002,40.4226497308,8,0,-0.2395532770664914,25.43113754078518,2.103145100567294,-2.111148051924092e-05,8.157128275216577e-05,1.682516080453835e-05,8.22559424543115e-05,8.207594927389037e-05
89.57735026920001,40.4226497308,8,0,-0.25251982437746,25.37927135154131,2.08443888149058,-2.111148051924092e-05,8.141568418443414e-05,1.667551105192464e-05,8.208930471024822e-05,8.182696060037596e-05
88.42264973080002,41.5773502692,8,0,-0.2894365279377453,25.41866672806737,2.083695279600847,-2.126113027185468e-05,8.157128275216577e-05,1.666956223680678e-05,8.2242453486254e-05,8.249610213582636e-05
89.57735026920001,41.5773502692,8,0,-0.3024030752486908,25.36680053882359,2.064989060524127,-2.126113027185468e-05,8.141568418443441e-05,1.651991248419302e-05,8.207592053325401e-05,8.229349383717343e-05
90.42264973080002,40.4226497308,8,0,-0.1596028621702787,25.37082757335894,1.828320687755881,-2.080739121763204e-05,8.131433052448482e-05,1.462656550204705e-05,8.183540076781958e-05,8.165571426223874e-05
91.57735026920001,40.4226497308,8,0,-0.1697115939031599,25.33039264642741,1.808386566535862,-2.080739121763204e-05,8.119302574369024e-05,1.44670925322869e-05,8.170345166657084e-05,8.143684923933231e-05
90.42264973080002,41.5773502692,8,0,-0.2127605187569603,25.35753815921227,1.813157590156505,-2.096686418739209e-05,8.131433052448482e-05,1.450526072125204e-05,8.182604526655504e-05,8.215661335090261e-05
91.57735026920001,41.5773502692,8,0,-0.2228692504898415,25.31710323228074,1.793223468936513,-2.096686418739209e-05,8.119302574369024e-05,1.43457877514921e-05,8.169419344776323e-05,8.198525720648301e-05
92.42264973080002,40.4226497308,8,0,-0.09080231386548032,25.32738946175943,1.508775086449016,-2.055247897377708e-05,8.112028812872255e-05,1.207020069159213e-05,8.147726673267416e-05,8.12923036802723e-05
93.57735026920001,40.4226497308,8,0,-0.0972538204426554,25.30158343545073,1.487310511386217,-2.055247897377708e-05,8.104287004979645e-05,1.189848409108974e-05,8.139006054635544e-05,8.11162628918016e-05
92.42264973080002,41.5773502692,8,0,-0.148041180699547,25.31307974505091,1.499097826583226,-2.072419557427928e-05,8.112028812872255e-05,1.199278261266581e-05,8.147212768178135e-05,8.187546043786683e-05
93.57735026920001,41.5773502692,8,0,-0.1544926872767221,25.28727371874221,1.477633251520475,-2.072419557427928e-05,8.104287004979645e-05,1.18210660121638e-05,8.138499791529126e-05,8.174684623190741e-05
94.4226497308,40.4226497308,8,0,-0.03498821406064234,25.3057296390885,1.142267683252195,-2.035654599626485e-05,8.100632541633169e-05,9.138141466017563e-06,8.121186577085749e-05,8.100726105422429e-05
95.57735026920002,40.4226497308,8,0,-0.03685685709801323,25.29825506693901,1.118908744903483,-2.035654599626485e-05,8.098390169988324e-05,8.951269959227867e-06,8.118118116467757e-05,8.088550328430271e-05
94.4226497308,41.5773502692,8,0,-0.09727871632393725,25.29015701352267,1.139464718696187,-2.054341750305473e-05,8.100632541633169e-05,9.115717749569492e-06,8.121048542322111e-05,8.16715365705773e-05
95.57735026920002,41.5773502692,8,0,-0.09914735936131258,25.28268244137317,1.116105780347434,-2.054341750305473e-05,8.098390169988318e-05,8.928846242779471e-06,8.117983599338762e-05,8.159440095547327e-05
96.4226497308,40.4226497308,8,0,0.005441014608447148,25.3114766919115,0.7263058281242586,-2.023177010678217e-05,8.099237260243003e-05,5.810446624994069e-06,8.107568653385578e-05,8.081827417065848e-05
97.57735026920001,40.4226497308,8,0,0.009238235657955229,25.32666557610953,0.7006410152785399,-2.023177010678217e-05,8.103793925502413e-05,5.605128122228319e-06,8.111543882703284e-05,8.075635858634842e-05
96.4226497308,41.5773502692,8,0,-0.06299848631345117,25.29436681668103,0.7320016596984804,-2.043708860954786e-05,8.099237260243003e-05,5.856013277587844e-06,8.107682627448687e-05,8.155673498446708e-05
97.57735026920001,41.5773502692,8,0,-0.05920126526393865,25.30955570087907,0.7063368468527957,-2.043708860954786e-05,8.103793925502418e-05,5.650694774822365e-06,8.111654390620014e-05,8.153096525306141e-05
98.42264973080002,40.4226497308,8,0,0.02739859700307878,25.35115463645645,0.258214559051776,-2.01932481987553e-05,8.110177595905817e-05,2.065716472414208e-06,8.111230643924666e-05,8.072893559584056e-05
99.57735026920002,40.4226497308,8,0,0.03813513585508144,25.39410079186446,0.2298040066087814,-2.01932481987553e-05,8.12306144252822e-05,1.838432052870252e-06,8.12389447007017e-05,8.071593017678444e-05
98.42264973080002,41.5773502692,8,0,-0.04836287617826684,25.33221426816111,0.2743193673297598,-2.042053261829934e-05,8.110177595905817e-05,2.194554938638078e-06,8.111363421211979e-05,8.152269530087671e-05
99.57735026920002,41.5773502692,8,0,-0.03762633732624199,25.37516042356921,0.2459088148867449,-2.042053261829934e-05,8.123061442528247e-05,1.967270519093959e-06,8.124013175757382e-05,8.152587110273673e-05
0.4226497308,42.4226497308,8,0,-0.03567878415103859,1.687945574120206,-0.3308770292079162,-1.464528568579488e-06,5.429968864505488e-06,-2.647016233663329e-06,5.675306971454512e-06,9.272376199392637e-06
1.5773502692,42.4226497308,8,0,0.09991817174167661,2.230333397691067,-0.3582961013346803,-1.464528568579488e-06,7.057132335218071e-06,-2.866368810677442e-06,7.291709949283277e-06,9.839738253450693e-06
0.4226497308,43.57735026920001,8,0,-0.1087963098223734,1.669666192702372,-0.127481595368884,-1.683881145593492e-06,5.429968864505488e-06,-1.019852762951072e-06,5.466334886644173e-06,9.978585709977247e-06
1.5773502692,43.57735026920001,8,0,0.02680064607034183,2.212054016273233,-0.1549006674957023,-1.683881145593492e-06,7.057132335218071e-06,-1.239205339965618e-06,7.100834089727567e-06,1.052693302560582e-05
2.4226497308,42.4226497308,8,0,-0.0605007939048311,2.570503972142571,-0.7822714064682837,-2.250005718209516e-06,8.274013345980092e-06,-6.25817125174627e-06,9.134088521719903e-06,1.053020640401878e-05
3.5773502692,42.4226497308,8,0,0.08095064589515089,3.136309731342499,-0.8073026119474573,-2.250005718209516e-06,9.971430623579875e-06,-6.458420895579658e-06,1.077220119826074e-05,1.184923841840107e-05
2.4226497308,43.57735026920001,8,0,-0.127250675182591,2.553816501823267,-0.5700942467682973,-2.450255362042904e-06,8.274013345980526e-06,-4.560753974146379e-06,8.738765298877984e-06,1.119587402709772e-05
3.5773502692,43.57735026920001,8,0,0.01420076461736386,3.119622261023086,-0.5951254522475387,-2.450255362042904e-06,9.971430623579984e-06,-4.761003617980309e-06,1.04120054904403e-05,1.247510751488871e-05
4.422649730800001,42.4226497308,8,0,-0.09944343350563123,3.486034524135595,-1.182991616852287,-3.107046606526495e-06,1.123486522403841e-05,-9.463932934818294e-06,1.265542345863716e-05,1.295027540712078e-05
5.577350269200001,42.4226497308,8,0,0.0467524200812115,4.070817938482966,-1.206459307050403,-3.107046606526495e-06,1.298921546708052e-05,-9.651674456403222e-06,1.432517299223424e-05,1.463933238706126e-05
4.422649730800001,43.57735026920001,8,0,-0.1620239407004991,3.470389397337013,-0.9636978364721852,-3.294788128111207e-06,1.123486522403884e-05,-7.709582691777482e-06,1.219421771392014e-05,1.354536123301628e-05
5.577350269200001,43.57735026920001,8,0,-0.01582808711367445,4.055172811684312,-0.9871655266702065,-3.294788128111207e-06,1.298921546708074e-05,-7.897324213361652e-06,1.389619845811123e-05,1.519011528026361e-05
6.422649730800001,42.4226497308,8,0,-0.1509801309984202,4.428198477394777,-1.537935824232419,-4.025695201110766e-06,1.429101923246202e-05,-1.230348659385936e-05,1.616531593490932e-05,1.594010972185352e-05
7.577350269200001,42.4226497308,8,0,-0.0007931488638068807,5.028946405933231,-1.560486931748644,-4.025695201110766e-06,1.609326301807738e-05,-1.248389545398915e-05,1.787249293366389e-05,1.780484251005059e-05
6.422649730800001,43.57735026920001,8,0,-0.2111164177085147,4.413164405717254,-1.312655351030391,-4.206104061241049e-06,1.429101923246202e-05,-1.050124280824313e-05,1.567753716523906e-05,1.645872163440861e-05
7.577350269200001,43.57735026920001,8,0,-0.06092943557386543,5.013912334255851,-1.335206458546643,-4.206104061241049e-06,1.609326301807781e-05,-1.068165166837314e-05,1.741269001700629e-05,1.827986460163747e-05
8.4226497308,42.4226497308,8,0,-0.2146956794552224,5.392547859614673,-1.85099802879038,-5.001064461948449e-06,1.742790969433113e-05,-1.480798423032304e-05,1.965157054167342e-05,1.91993657974304e-05
9.5773502692,42.4226497308,8,0,-0.06102245077048463,6.007240774353624,-1.873054523724498,-5.001064461948449e-06,1.927198843854798e-05,-1.498443618979598e-05,2.139830203715019e-05,2.114454148285492e-05
8.4226497308,43.57735026920001,8,0,-0.2735129992795917,5.37784352965858,-1.620488185763327,-5.177516421421557e-06,1.742790969433113e-05,-1.296390548610662e-05,1.915466453932268e-05,1.964308018275554e-05
9.5773502692,43.57735026920001,8,0,-0.1198397705948899,5.992536444397388,-1.642544680697459,-5.177516421421557e-06,1.927198843854755e-05,-1.314035744557967e-05,2.092570207739832e-05,2.154631144496909e-05
10.4226497308,42.4226497308,8,0,-0.2908397622665004,6.375939331819763,-2.12490793664493,-6.031438704708612e-06,2.063567767163644e-05,-1.699926349315944e-05,2.311437782264015e-05,2.258110268696988e-05
11.5773502692,42.4226497308,8,0,-0.1340406350603709,7.003135840644282,-2.146650282990368,-6.031438704708612e-06,2.251726719810999e-05,-1.717320226392294e-05,2.490085142934157e-05,2.45606851995366e-05
10.4226497308,43.57735026920001,8,0,-0.3488193525208936,6.361444434256029,-1.889709245835654,-6.205377475471683e-06,2.063567767163601e-05,-1.511767396668523e-05,2.261796077968398e-05,2.295262838762873e-05
11.5773502692,43.57735026920001,8,0,-0.1920202253147369,6.988640943080656,-1.911451592181079,-6.205377475471683e-06,2.251726719810988e-05,-1.529161273744863e-05,2.442573079381468e-05,2.489152646446958e-05
12.4226497308,42.4226497308,8,0,-0.3799190914476289,7.375975982161268,-2.361214013645307,-7.116521878361426e-06,2.390705841607416e-05,-1.888971210916245e-05,2.655624124562946e-05,2.601421818843261e-05
13.5773502692,42.4226497308,8,0,-0.220303200357737,8.014439546520835,-2.382590553824936,-7.116521878361426e-06,2.582244910915286e-05,-1.906072443059949e-05,2.838114682830099e-05,2.800576165217606e-05
12.4226497308,43.57735026920001,8,0,-0.4369231985931636,7.361724955374884,-2.121790177010523,-7.287534199798031e-06,2.390705841607416e-05,-1.697432141608418e-05,2.606666355522872e-05,2.631549437575844e-05
13.5773502692,43.57735026920001,8,0,-0.2773073075032628,8.000188519734488,-2.143166717190153,-7.287534199798031e-06,2.582244910915297e-05,-1.714533373752122e-05,2.79103747672254e-05,2.82669489810719e-05
14.4226497308,42.4226497308,8,0,-0.4823478719784022,8.390509005421952,-2.560384006647365,-8.255920394668447e-06,2.723550711493297e-05,-2.048307205317892e-05,2.997880057988922e-05,2.946376382206162e-05
15.5773502692,42.4226497308,8,0,-0.3202515742351912,9.038894196394796,-2.581140940858412,-8.255920394668447e-06,2.918066268785149e-05,-2.064912752686729e-05,3.183925247032095e-05,3.145555636416055e-05
14.4226497308,43.57735026920001,8,0,-0.5376996965414094,8.3766710492812,-2.317239560032454,-8.421975868357469e-06,2.723550711493297e-05,-1.853791648025963e-05,2.950098394680514e-05,2.969561302428114e-05
15.5773502692,43.57735026920001,8,0,-0.3756033987981624,9.025056240254187,-2.337996494243609,-8.421975868357469e-06,2.918066268785193e-05,-1.870397195394887e-05,3.137813500142597e-05,3.164734117212804e-05
16.4226497308,42.4226497308,8,0,-0.5981701701335194,9.417222127414368,-2.721996305235635,-9.447922246358755e-06,3.061364694383279e-05,-2.177597044188508e-05,3.338155866380269e-05,3.291104433864712e-05
17.5773502692,42.4226497308,8,0,-0.4340176517141048,10.07383220109203,-2.741722845475147,-9.447922246358755e-06,3.258347716486576e-05,-2.193378276380117e-05,3.527288958087985e-05,3.489571889282008e-05
16.4226497308,43.57735026920001,8,0,-0.650774277438829,9.404071100588039,-2.475767527606568,-9.605734568274684e-06,3.061364694383279e-05,-1.980614022085254e-05,3.291980905837336e-05,3.307338148253412e-05
17.5773502692,43.57735026920001,8,0,-0.4866217590194144,10.0606811742657,-2.495494067846079,-9.605734568274684e-06,3.258347716486576e-05,-1.996395254276863e-05,3.48260143742682e-05,3.501766791652355e-05
18.4226497308,42.4226497308,8,0,-0.7268628116635254,10.45331404626095,-2.844995143920531,-1.068861223433204e-05,3.403209519736586e-05,-2.275996115136424e-05,3.676136834603569e-05,3.63437522309278e-05
19.5773502692,42.4226497308,8,0,-0.5612071579396796,11.11593666115633,-2.863178352560669,-1.068861223433204e-05,3.601996304205201e-05,-2.290542682048535e-05,3.867696901922178e-05,3.831517832768686e-05
18.4226497308,43.57735026920001,8,0,-0.775351368037156,10.44119190716754,-2.596511663334803,-1.083407790345293e-05,3.403209519736586e-05,-2.077209330667842e-05,3.631971529671665e-05,3.643598204966967e-05
19.5773502692,43.57735026920001,8,0,-0.6096957143133102,11.10381452206293,-2.61469487197486,-1.083407790345293e-05,3.601996304205201e-05,-2.091755897579888e-05,3.824857268448614e-05,3.836660188869317e-05
20.4226497308,42.4226497308,8,0,-0.8672226685303603,11.49528730980954,-2.927982452633049,-1.197134238714478e-05,3.747869752621482e-05,-2.342385962106439e-05,4.011233089430682e-05,3.975120161053282e-05
21.5773502692,42.4226497308,8,0,-0.7007669284496743,12.16111027013229,-2.944066244595466,-1.197134238714478e-05,3.947616640718305e-05,-2.355252995676373e-05,4.204361129754799e-05,4.170306408352756e-05
20.4226497308,43.57735026920001,8,0,-0.9101127804301576,11.48456478183459,-2.678298842511979,-1.210001272284418e-05,3.747869752621482e-05,-2.142639074009583e-05,3.96946137857476e-05,3.977265244520849e-05
21.5773502692,43.57735026920001,8,0,-0.7436570403494804,12.1503877421573,-2.694382634474423,-1.210001272284418e-05,3.947616640718294e-05,-2.155506107579539e-05,4.163768735660193e-05,4.168343416475863e-05
22.4226497308,42.4226497308,8,0,-1.017336964979794,12.5388452575688,-2.969519479292351,-1.328655449399038e-05,4.093817439620399e-05,-2.375615583433881e-05,4.342596266709996e-05,4.31221891423776e-05
23.5773502692,42.4226497308,8,0,-0.8509360294564932,13.204448999662,-2.98296241632218,-1.328655449399038e-05,4.293498562248359e-05,-2.386369933057744e-05,4.536246092481249e-05,4.504744843262018e-05
22.4226497308,43.57735026920001,8,0,-1.053184797059157,12.52988329954896,-2.719918076007455,-1.339409799022847e-05,4.093817439620399e-05,-2.175934460805964e-05,4.303577386867894e-05,4.307251075931502e-05
23.5773502692,43.57735026920001,8,0,-0.8867838615358563,13.19548704164216,-2.733361013037216,-1.339409799022847e-05,4.293498562248359e-05,-2.186688810429773e-05,4.498271969867977e-05,4.495675687185903e-05
24.4226497308,42.4226497308,8,0,-1.174629514476408,13.57889169029778,-2.968412809704771,-1.462192779856273e-05,4.439215702053403e-05,-2.374730247763817e-05,4.669154706575801e-05,4.644422932495152e-05
25.5773502692,42.4226497308,8,0,-1.009274925418273,14.24031004653033,-2.978739811103639,-1.462192779856273e-05,4.637641208923165e-05,-2.382991848882911e-05,4.862118236429378e-05,4.833504639976179e-05
24.4226497308,43.57735026920001,8,0,-1.20216818487346,13.57200702269852,-2.720380926117582,-1.470454380975389e-05,4.439215702053403e-05,-2.176304740894065e-05,4.63320991978297e-05,4.632371783429012e-05
25.5773502692,43.57735026920001,8,0,-1.036813595815343,14.23342537893099,-2.730707927516463,-1.470454380975389e-05,4.637641208923144e-05,-2.18456634201317e-05,4.827093137960096e-05,4.817407852322992e-05
26.4226497308,42.4226497308,8,0,-1.335970180942858,14.60962111755366,-2.923962705362015,-1.596280147306007e-05,4.7819563720926e-05,-2.339170164289612e-05,4.989660824682413e-05,4.970351218381296e-05
27.57735026920001,42.4226497308,8,0,-1.172761138252355,15.26245728831567,-2.930806738254976,-1.596280147306007e-05,4.977807223321203e-05,-2.344645390603981e-05,5.180605467247398e-05,5.155141315960896e-05
26.4226497308,43.57735026920001,8,0,-1.354220935324069,14.60505842895836,-2.679149141326302,-1.601755373620371e-05,4.7819563720926e-05,-2.143319313061042e-05,4.957057334796017e-05,4.951334484490723e-05
27.57735026920001,43.57735026920001,8,0,-1.191011892633576,15.25789459972033,-2.685993174219182,-1.601755373620371e-05,4.977807223321192e-05,-2.148794539375345e-05,5.148804808986239e-05,5.132192779181129e-05
28.4226497308,42.4226497308,8,0,-1.497830314890852,15.62468154868309,-2.836156945543256,-1.729280224659719e-05,5.119724520769855e-05,-2.268925556434605e-05,5.30274516196499e-05,5.288522937842071e-05
29.5773502692,42.4226497308,8,0,-1.337934968315632,16.26426293498396,-2.839288104026765,-1.729280224659719e-05,5.311598936660119e-05,-2.271430483221412e-05,5.490259780576944e-05,5.468138208053269e-05
28.4226497308,43.57735026920001,8,0,-1.506180070846729,15.62259410969412,-2.596313925680536,-1.731785151446483e-05,5.119724520769855e-05,-2.077051140544428e-05,5.273680784349444e-05,5.26276054229699e-05
29.5773502692,43.57735026920001,8,0,-1.346284724271518,16.26217549599496,-2.599445084163962,-1.731785151446483e-05,5.311598936660108e-05,-2.07955606733117e-05,5.461889083800248e-05,5.438620010284901e-05
30.4226497308,42.4226497308,8,0,-1.656464404781593,16.61738775635762,-2.705800167306392,-1.859459630038719e-05,5.450081234416966e-05,-2.164640133845114e-05,5.606972334847832e-05,5.597406640149169e-05
31.5773502692,42.4226497308,8,0,-1.501075856826244,17.23894194817902,-2.705141130451003,-1.859459630038719e-05,5.636547491963385e-05,-2.164112904360803e-05,5.789617739413258e-05,5.770959294253753e-05
30.4226497308,43.57735026920001,8,0,-1.654706973167241,16.61782711426107,-2.472717345373314,-1.858932400554403e-05,5.450081234416922e-05,-1.978173876298651e-05,5.581563462117047e-05,5.565225985465651e-05
31.5773502692,43.57735026920001,8,0,-1.499318425211856,17.23938130608261,-2.472058308518007,-1.858932400554403e-05,5.636547491963385e-05,-1.977646646814405e-05,5.764801130541633e-05,5.735260474228061e-05
32.4226497308,42.4226497308,8,0,-1.80809825287172,17.58096144825565,-2.534576090856212,-1.985068356779402e-05,5.770555523671545e-05,-2.02766087268497e-05,5.900894977469212e-05,5.895474048149215e-05
33.57735026920001,42.4226497308,8,0,-1.658389508106589,18.17979642731618,-2.530204504875563,-1.985068356779402e-05,5.950206017389702e-05,-2.02416360390045e-05,6.077254950409477e-05,6.062102027993434e-05
32.4226497308,43.57735026920001,8,0,-1.79644069025662,17.58387583890943,-2.310012973708476,-1.981571087994872e-05,5.770555523671545e-05,-1.84801037896678e-05,5.87916941191804e-05,5.857307789190162e-05
33.57735026920001,43.57735026920001,8,0,-1.646731945491489,18.18271081796995,-2.30564138772784,-1.981571087994872e-05,5.950206017389702e-05,-1.844513110182272e-05,6.056028304846097e-05,6.020712765845751e-05
34.42264973080001,42.4226497308,8,0,-1.949106544511174,18.50877601372071,-2.32504681604147,-2.104416175341232e-05,6.078736847951521e-05,-1.860037452833176e-05,6.183102802800826e-05,6.181251246510682e-05
35.5773502692,42.4226497308,8,0,-1.806187989735607,19.08045023282298,-2.317186415680403,-2.104416175341232e-05,6.250239113682202e-05,-1.853749132544322e-05,6.351832210572925e-05,6.340144985351548e-05
34.42264973080001,43.57735026920001,8,0,-1.928145476881735,18.51401628062807,-2.110668983878159,-2.0981278550524e-05,6.078736847951521e-05,-1.688535187102528e-05,6.164998121415193e-05,6.137629243581892e-05
35.5773502692,43.57735026920001,8,0,-1.785226922106167,19.08569049973034,-2.102808583517065,-2.0981278550524e-05,6.250239113682202e-05,-1.682246866813652e-05,6.334141630253684e-05,6.293646024357017e-05
36.4226497308,42.4226497308,8,0,-2.076167042026277,19.39458705359135,-2.080598549639709,-2.215940417735717e-05,6.372361220511333e-05,-1.664478839711768e-05,6.452265008882014e-05,6.453363293412647e-05
37.5773502692,42.4226497308,8,0,-1.941049096302992,19.93505883648449,-2.069601638689087,-2.215940417735717e-05,6.534502755379276e-05,-1.65568131095127e-05,6.612132399475801e-05,6.603787724554837e-05
36.4226497308,43.57735026920001,8,0,-2.046841946157771,19.40191832755848,-1.877921631054794,-2.207142888975165e-05,6.372361220511333e-05,-1.502337304843835e-05,6.437632361522073e-05,6.404900546075993e-05
37.5773502692,43.57735026920001,8,0,-1.911724000434495,19.94239011045158,-1.866924720104091,-2.207142888975165e-05,6.534502755379265e-05,-1.493539776083273e-05,6.597837960218105e-05,6.552836771221815e-05
38.4226497308,42.4226497308,8,0,-2.186383770158027,20.23273488249491,-1.805346095463012,-2.318261597050161e-05,6.649385864011012e-05,-1.44427687637041e-05,6.707165283291491e-05,6.710570507726978e-05
39.5773502692,42.4226497308,8,0,-2.05994630777573,20.73848473202409,-1.79167029162766,-2.318261597050161e-05,6.801110818869768e-05,-1.433336233302128e-05,6.857088323149302e-05,6.851882065597088e-05
38.4226497308,43.57735026920001,8,0,-2.14991495993044,20.2418520850518,-1.615689901889608,-2.307320953981885e-05,6.649385864011012e-05,-1.292551921511687e-05,6.695777958722037e-05,6.657952738119148e-05
39.5773502692,43.57735026920001,8,0,-2.023477497548153,20.74760193458095,-1.602014098054256,-2.307320953981885e-05,6.801110818869757e-05,-1.281611278443405e-05,6.845972471193599e-05,6.797198675235779e-05
40.4226497308,42.4226497308,8,0,-2.277376444645222,21.01831057412353,-1.504009184733504,-2.410225308216354e-05,6.908049499291147e-05,-1.203207347786803e-05,6.946729495937212e-05,6.951796214188111e-05
41.5773502692,42.4226497308,8,0,-2.160345650179144,21.48643375198785,-1.488191163338587,-2.410225308216354e-05,7.048486452650442e-05,-1.190552930670869e-05,7.085802483936185e-05,7.083455186675266e-05
40.4226497308,43.57735026920001,8,0,-2.235195054258849,21.02885592172013,-1.328462993034412,-2.397570891100442e-05,6.908049499291147e-05,-1.06277039442753e-05,6.938295244433439e-05,6.895764466937374e-05
41.5773502692,43.57735026920001,8,0,-2.118164259792761,21.49697909958448,-1.312644971639522,-2.397570891100442e-05,7.048486452650453e-05,-1.050115977311618e-05,7.077582119090328e-05,7.025805280649193e-05
42.4226497308,42.4226497308,8,0,-2.347337276626478,21.74728198606558,-1.181772665766005,-2.490930487405719e-05,7.146917217671104e-05,-9.454181326128044e-06,7.170046747524496e-05,7.176146686889286e-05
43.57735026920001,42.4226497308,8,0,-2.240269861862743,22.17555164512052,-1.164401148749314,-2.490930487405719e-05,7.275398115387586e-05,-9.315209189994511e-06,7.297560143611426e-05,7.297725602427379e-05
42.4226497308,43.57735026920001,8,0,-2.301013231248724,21.75886299741002,-1.02117154362043,-2.477033273792393e-05,7.146917217671104e-05,-8.169372348963439e-06,7.164222702749602e-05,7.117481925382581e-05
43.57735026920001,43.57735026920001,8,0,-2.193945816485017,22.18713265646485,-1.00380002660382,-2.477033273792393e-05,7.275398115387554e-05,-8.030400212830557e-06,7.291901278356346e-05,7.237906362960467e-05
44.4226497308,42.4226497308,8,0,-2.395058785075564,22.41657994597295,-0.8441403688103937,-2.559745206902016e-05,7.364910285517388e-05,-6.75312295048315e-06,7.376384740316841e-05,7.382924506867934e-05
45.5773502692,42.4226497308,8,0,-2.298333035921957,22.80348294258738,-0.8258299635152113,-2.559745206902016e-05,7.480981184501716e-05,-6.606639708121691e-06,7.491837109186099e-05,7.494113327020539e-05
44.4226497308,43.57735026920001,8,0,-2.346231037621655,22.42878688283643,-0.699051745079929,-2.545096882665843e-05,7.364910285517388e-05,-5.592413960639432e-06,7.372793789918583e-05,7.32243278923371e-05
45.5773502692,43.57735026920001,8,0,-2.249505288468026,22.81568987945094,-0.6807413397847263,-2.545096882665843e-05,7.480981184501744e-05,-5.44593071827781e-06,7.488370992730713e-05,7.432938842826366e-05
46.42264973080001,42.4226497308,8,0,-2.419937320412706,23.02414715046833,-0.4967898090176427,-2.616311714569533e-05,7.561322073782882e-05,-3.974318472141141e-06,7.565200477849853e-05,7.571636633479647e-05
47.57735026920001,42.4226497308,8,0,-2.333750243357454,23.36889545868934,-0.4781566578437724,-2.616311714569533e-05,7.664746566249186e-05,-3.825253262750179e-06,7.6683034719425e-05,7.67224542535306e-05
46.42264973080001,43.57735026920001,8,0,-2.370248917282333,23.03656925125092,-0.3675091934347635,-2.60140519363042e-05,7.561322073782882e-05,-2.940073547478108e-06,7.563448034746207e-05,7.510135106455237e-05
47.57735026920001,43.57735026920001,8,0,-2.284061840227102,23.38131755947185,-0.3488760422608458,-2.60140519363042e-05,7.664746566249159e-05,-2.791008338086766e-06,7.666643160245118e-05,7.610533167260108e-05
48.4226497308,42.4226497308,8,0,-2.421956834844059,23.56895336449541,-0.1454324015800833,-2.660542456309732e-05,7.735821623426056e-05,-1.163459212640667e-06,7.736147120626261e-05,7.74199827517465e-05
49.57735026920001,42.4226497308,8,0,-2.346326689094038,23.8714739474955,-0.1270720834812338,-2.660542456309732e-05,7.826577798326082e-05,-1.01657666784987e-06,7.826824149045119e-05,7.831957812994646e-05
48.4226497308,43.57735026920001,8,0,-2.372995986580551,23.58119357656129,-0.03198718295506454,-2.645854201830679e-05,7.735821623426056e-05,-2.558974636405163e-07,7.735837392414978e-05,7.680301974692083e-05
49.57735026920001,43.57735026920001,8,0,-2.297365840830507,23.88371415956147,-0.01362686485620822,-2.645854201830679e-05,7.826577798326109e-05,-1.090149188496658e-07,7.826580635357973e-05,7.770515840582958e-05
50.42264973080001,42.4226497308,8,0,-2.401656394874509,24.05098047842128,0.2043179805262144,-2.692608484633545e-05,7.888446264684768e-05,1.634543844209716e-06,7.889077481106069e-05,7.893933231747692e-05
51.57735026920001,42.4226497308,8,0,-2.336430046053328,24.311885873706,0.2218501645884173,-2.692608484633545e-05,7.966717883270186e-05,1.774801316707338e-06,7.967456602895236e-05,7.973293686788573e-05
50.42264973080001,43.57735026920001,8,0,-2.354903904042004,24.0626686011294,0.3021575037579318,-2.678582737383793e-05,7.888446264684768e-05,2.417260030063454e-06,7.889828484284854e-05,7.832842557341688e-05
51.57735026920001,43.57735026920001,8,0,-2.289677555220823,24.32357399641413,0.3196896878201008,-2.678582737383793e-05,7.966717883270186e-05,2.557517502560806e-06,7.968253761034646e-05,7.912908448311855e-05
52.4226497308,42.4226497308,8,0,-2.360083532470896,24.4711803210847,0.5470661734604423,-2.712921156077463e-05,8.019584385344776e-05,4.376529387683538e-06,8.024044213802216e-05,8.027570882358807e-05
53.5773502692,42.4226497308,8,0,-2.304948239881637,24.69172149144174,0.5632724609972261,-2.712921156077463e-05,8.085746736451887e-05,4.506179687977809e-06,8.090445654792769e-05,8.096498483314462e-05
52.4226497308,43.57735026920001,8,0,-2.316866765706139,24.48198451277589,0.6297691123442707,-2.699956126048036e-05,8.019584385344776e-05,5.038152898754165e-06,8.025500912850123e-05,7.967859633683617e-05
53.5773502692,43.57735026920001,8,0,-2.261731473116897,24.70252568313286,0.6459753998810545,-2.699956126048036e-05,8.085746736451866e-05,5.167803199048436e-06,8.09193337084795e-05,8.037923173091623e-05
54.42264973080001,42.4226497308,8,0,-2.298734372901508,24.8314073889331,0.8777445901969185,-2.72210759044313e-05,8.129949114290711e-05,7.021956721575348e-06,8.141296357851377e-05,8.143239550336616e-05
55.57735026920001,42.4226497308,8,0,-2.253233713760523,25.01341002549704,0.8921993427224751,-2.72210759044313e-05,8.184549905259893e-05,7.137594741779801e-06,8.196214988959195e-05,8.202010919290902e-05
54.42264973080001,43.57735026920001,8,0,-2.260188366166473,24.84104389061686,0.9459955789083748,-2.71054378842262e-05,8.129949114290711e-05,7.567964631266999e-06,8.143141428126381e-05,8.085643566784957e-05
55.57735026920001,43.57735026920001,8,0,-2.214687707025489,25.0230465271808,0.9604503314340264,-2.71054378842262e-05,8.184549905259893e-05,7.683602651472211e-06,8.19807996895509e-05,8.145954567509876e-05
56.4226497308,42.4226497308,8,0,-2.21948109303185,25.13432838070507,1.191706962404534,-2.720980220226598e-05,8.220543569268171e-05,9.533655699236272e-06,8.241271653251417e-05,8.24145573264945e-05
57.57735026920001,42.4226497308,8,0,-2.18303465315178,25.28011414022535,1.204068097858059,-2.720980220226598e-05,8.264279297124256e-05,9.632544782864469e-06,8.285354868204092e-05,8.290449597890372e-05
56.4226497308,43.57735026920001,8,0,-2.186518065155748,25.1425691376741,1.24637662222464,-2.711091311863767e-05,8.220543569268171e-05,9.971012977797117e-06,8.243233488914414e-05,8.186662414633658e-05
57.57735026920001,43.57735026920001,8,0,-2.150071625275668,25.28835489719442,1.258737757678157,-2.711091311863767e-05,8.264279297124266e-05,1.006990206142526e-05,8.287328727670244e-05,8.23756732052239e-05
58.4226497308,42.4226497308,8,0,-2.124487915878449,25.38331099180026,1.484803174770678,-2.710501012425124e-05,8.292618550646358e-05,1.187842539816542e-05,8.324584092506277e-05,8.322908748714368e-05
59.57735026920001,42.4226497308,8,0,-2.096414122030018,25.49560616719398,1.494819754636706,-2.710501012425124e-05,8.326307103264475e-05,1.195855803709365e-05,8.358605804661455e-05,8.362594932698917e-05
58.4226497308,43.57735026920001,8,0,-2.097777036235687,25.38998871171095,1.526913865543283,-2.702487748532296e-05,8.292618550646358e-05,1.221531092434626e-05,8.326441828765207e-05,8.271547983881481e-05
59.57735026920001,43.57735026920001,8,0,-2.069703242387257,25.50228388710467,1.536930445409312,-2.702487748532296e-05,8.326307103264475e-05,1.229544356327449e-05,8.360470193553951e-05,8.313479976768622e-05
60.4226497308,42.4226497308,8,0,-2.016118382690752,25.5822958498844,1.753430961399483,-2.691741550451792e-05,8.347624142578266e-05,1.402744769119586e-05,8.39200653183603e-05,8.388440764952397e-05
61.5773502692,42.4226497308,8,0,-1.995659481143638,25.66413145607285,1.760946206814659,-2.691741550451792e-05,8.372174824434803e-05,1.408756965451727e-05,8.416838413169994e-05,8.419366707851257e-05
60.4226497308,43.57735026920001,8,0,-1.996077728250309,25.58730601349451,1.784119313720208,-2.685729354119659e-05,8.347624142578266e-05,1.427295450976166e-05,8.393592037011043e-05,8.34107794689029e-05
61.5773502692,43.57735026920001,8,0,-1.975618826703181,25.66914161968302,1.791634559135418,-2.685729354119659e-05,8.372174824434819e-05,1.433307647308335e-05,8.418427117822065e-05,8.374545010564517e-05
62.42264973080001,42.4226497308,8,0,-1.896838525992034,25.73565740460081,1.994560786264398,-2.665840920685516e-05,8.387157451551623e-05,1.595648629011519e-05,8.444448814064494e-05,8.439022805265217e-05
63.57735026920001,42.4226497308,8,0,-1.88318634544269,25.79026612679819,1.999510011831899,-2.665840920685516e-05,8.403540068210836e-05,1.599608009465519e-05,8.46103030361408e-05,8.461798319182108e-05
62.42264973080001,43.57735026920001,8,0,-1.883640591145373,25.73895688831248,2.015039057088361,-2.661881540231518e-05,8.387157451551623e-05,1.612031245670689e-05,8.445645822817388e-05,8.396154649285042e-05
63.57735026920001,43.57735026920001,8,0,-1.869988410596029,25.79356561050986,2.019988282655848,-2.661881540231518e-05,8.403540068210836e-05,1.615990626124678e-05,8.462228486820779e-05,8.421726216531009e-05
64.4226497308,42.4226497308,8,0,-1.769122091249796,25.84806139897478,2.205731898435328,-2.633963981117917e-05,8.412909414971912e-05,1.764585518748262e-05,8.482932600626292e-05,8.47572809440271e-05
65.57735026920001,42.4226497308,8,0,-1.761442995643969,25.87877778139809,2.208135284623744,-2.633963981117917e-05,8.422124329698905e-05,1.766508227698995e-05,8.492241480806871e-05,8.49100943412813e-05
64.4226497308,43.57735026920001,8,0,-1.762713061414066,25.84966365643371,2.217250541844022,-2.632041272167198e-05,8.412909414971912e-05,1.773800433475217e-05,8.483673375668078e-05,8.437781803551074e-05
65.57735026920001,43.57735026920001,8,0,-1.755033965808239,25.88038003885702,2.219653928032438,-2.632041272167198e-05,8.422124329698905e-05,1.77572314242595e-05,8.492982441101989e-05,8.456074915791131e-05
66.4226497308,42.4226497308,8,0,-1.635364542502424,25.92432761337538,2.385020027377704,-2.597262862670806e-05,8.426613999680315e-05,1.908016021902163e-05,8.508564783892288e-05,8.499704706014166e-05
67.57735026920001,42.4226497308,8,0,-1.632821966025789,25.93449791928192,2.384970690413848,-2.597262862670806e-05,8.429665091452278e-05,1.907976552331078e-05,8.511590167657415e-05,8.508179290868029e-05
66.4226497308,43.57735026920001,8,0,-1.63549610773932,25.92429472206616,2.388833892092617,-2.597302332241875e-05,8.426613999680315e-05,1.911067113674093e-05,8.508824869558846e-05,8.467040751408391e-05
67.57735026920001,43.57735026920001,8,0,-1.632953531262684,25.9344650279727,2.388784555128822,-2.597302332241875e-05,8.429665091452278e-05,1.911027644103057e-05,8.511850178322164e-05,8.478706859223409e-05
68.42264973080002,42.4226497308,8,0,-1.49781200684528,25.96930648450612,2.530979867754235,-2.556844360950979e-05,8.430003035589579e-05,2.024783894203388e-05,8.522511791554123e-05,8.512149848187234e-05
69.57735026920001,42.4226497308,8,0,-1.499585182860875,25.96221378044374,2.528628185983341,-2.556844360950979e-05,8.427875224370864e-05,2.022902548786673e-05,8.52023116059984e-05,8.514523027664267e-05
68.42264973080002,43.57735026920001,8,0,-1.504083158234341,25.96773869665886,2.528320103730808,-2.558725706367697e-05,8.430003035589579e-05,2.022656082984646e-05,8.522303523772281e-05,8.485068269332832e-05
69.57735026920001,43.57735026920001,8,0,-1.50585633424995,25.96064599259642,2.525968421959913,-2.558725706367697e-05,8.427875224370848e-05,2.020774737567931e-05,8.520023052363931e-05,8.490781857145275e-05
70.4226497308,42.4226497308,8,0,-1.358509729133626,25.98777692943722,2.64256775989775,-2.513745267677738e-05,8.424769395750601e-05,2.1140542079182e-05,8.525977220467567e-05,8.514288153642255e-05
71.57735026920001,42.4226497308,8,0,-1.363807621110154,25.96658536153111,2.638103257705139,-2.513745267677738e-05,8.418411925378768e-05,2.110482606164111e-05,8.519338756470878e-05,8.511273286403678e-05
70.4226497308,43.57735026920001,8,0,-1.370415068313989,25.98480059464213,2.634620921932905,-2.517316869431847e-05,8.424769395750601e-05,2.107696737546324e-05,8.525342666236625e-05,8.49303793488023e-05
71.57735026920001,43.57735026920001,8,0,-1.37571296029053,25.96360902673597,2.630156419740299,-2.517316869431847e-05,8.418411925378751e-05,2.10412513579224e-05,8.518704917557604e-05,8.493488066065777e-05
72.4226497308,42.4226497308,8,0,-1.219272466644156,25.98437055592398,2.719051348655626,-2.468916833800049e-05,8.412540375227207e-05,2.1752410789245e-05,8.520185062574263e-05,8.507356080929052e-05
73.57735026920001,42.4226497308,8,0,-1.227342385779249,25.95209087938361,2.71268356406036,-2.468916833800049e-05,8.402856472265096e-05,2.170146851248288e-05,8.510096016931199e-05,8.499668943786804e-05
72.4226497308,43.57735026920001,8,0,-1.236253225564738,25.98012536619384,2.706946469952973,-2.474011061476223e-05,8.412540375227207e-05,2.165557175962379e-05,8.519188982178307e-05,8.492146880734579e-05
73.57735026920001,43.57735026920001,8,0,-1.24432314469984,25.94784568965343,2.700578685357782,-2.474011061476223e-05,8.402856472265085e-05,2.160462948286226e-05,8.509101404324454e-05,8.488032563081683e-05
74.4226497308,42.4226497308,8,0,-1.081677080447851,25.96352491421809,2.759913344870233,-2.423218658880759e-05,8.394862138985616e-05,2.207930675896186e-05,8.506370399803753e-05,8.492594071346512e-05
75.57735026920001,42.4226497308,8,0,-1.09180793189037,25.92300150844802,2.751853023158898,-2.423218658880759e-05,8.382705117254593e-05,2.201482418527119e-05,8.493691757572254e-05,8.480952297523993e-05
74.4226497308,43.57735026920001,8,0,-1.103171271678067,25.95815136641054,2.744717067706428,-2.429666916249824e-05,8.394862138985616e-05,2.195773654165142e-05,8.505093677639968e-05,8.483609398980415e-05
75.57735026920001,43.57735026920001,8,0,-1.113302123120604,25.91762796064039,2.736656745995079,-2.429666916249824e-05,8.382705117254572e-05,2.189325396796064e-05,8.492417365607619e-05,8.475639407577925e-05
76.42264973080002,42.4226497308,8,0,-0.9470758056250448,25.92946604870012,2.764755947361697,-2.377421541696024e-05,8.37319520003404e-05,2.211804757889358e-05,8.485778970387455e-05,8.471247550594607e-05
77.57735026920001,42.4226497308,8,0,-0.9585962683686597,25.88338419772566,2.755197668517754,-2.377421541696024e-05,8.359370644741703e-05,2.204158134814203e-05,8.471326263274965e-05,8.456375462730317e-05
76.42264973080002,43.57735026920001,8,0,-0.9725645492089212,25.92309386280415,2.747475253246309,-2.385068164771186e-05,8.37319520003404e-05,2.197980202597047e-05,8.484312774211651e-05,8.468658388818023e-05
77.57735026920001,43.57735026920001,8,0,-0.9840850119525584,25.8770120118296,2.737916974402332,-2.385068164771186e-05,8.359370644741676e-05,2.190333579521865e-05,8.469863308864734e-05,8.457555882279065e-05
78.4226497308,42.4226497308,8,0,-0.8166275425034861,25.88621871317812,2.733211314065783,-2.332218310655365e-05,8.348920191617276e-05,2.186569051252626e-05,8.459676557260484e-05,8.444577281156512e-05
79.57735026920001,42.4226497308,8,0,-0.8288997205092548,25.83713000115504,2.72231835496658,-2.332218310655365e-05,8.334193578010354e-05,2.177854683973264e-05,8.444226412271854e-05,8.427216137522866e-05
78.4226497308,43.57735026920001,8,0,-0.8456754334347556,25.8789567404453,2.714803047057117,-2.340932677934746e-05,8.348920191617276e-05,2.171842437645693e-05,8.45811728740574e-05,8.448555100724672e-05
79.57735026920001,43.57735026920001,8,0,-0.8579476114405331,25.82986802842219,2.703910087957853,-2.340932677934746e-05,8.334193578010343e-05,2.163128070366283e-05,8.44267129704709e-05,8.435067014748155e-05
80.4226497308,42.4226497308,8,0,-0.6913440428550972,25.83764140150322,2.664862055386771,-2.288241405833889e-05,8.323352771909438e-05,2.131889644309417e-05,8.429368790690094e-05,8.413878940156076e-05
81.57735026920001,42.4226497308,8,0,-0.7037532257359391,25.78800466997986,2.652753982546598,-2.288241405833889e-05,8.308461752452428e-05,2.122203186037279e-05,8.413670670510674e-05,8.394802182951525e-05
80.4226497308,43.57735026920001,8,0,-0.7236322370956119,25.8295693529431,2.646248281065494,-2.297927864106043e-05,8.323352771909438e-05,2.116998624852396e-05,8.427813688565375e-05,8.424606970996025e-05
81.57735026920001,43.57735026920001,8,0,-0.7360414199764538,25.77993262141973,2.634140208225322,-2.297927864106043e-05,8.308461752452428e-05,2.107312166580257e-05,8.41212058713544e-05,8.409517685991114e-05
82.4226497308,42.4226497308,8,0,-0.5721479603325159,25.78748281531487,2.55917436951341,-2.246085972531595e-05,8.297766337727361e-05,2.047339495610728e-05,8.3962317081489e-05,8.380510955050934e-05
83.57735026920001,42.4226497308,8,0,-0.5840891244834623,25.73971815871109,2.545917608040404,-2.246085972531595e-05,8.283436940746225e-05,2.036734086432323e-05,8.381024281977469e-05,8.360543351526867e-05
82.4226497308,43.57735026920001,8,0,-0.6074993242605764,25.77864497433286,2.541262623286997,-2.256691381710013e-05,8.297766337727361e-05,2.033010098629598e-05,8.394774814890092e-05,8.398192370228695e-05
83.57735026920001,43.57735026920001,8,0,-0.6194404884115228,25.73088031772907,2.528005861813951,-2.256691381710013e-05,8.283436940746225e-05,2.02240468945116e-05,8.379573152728144e-05,8.382340317157592e-05
84.42264973080002,42.4226497308,8,0,-0.4599402135298609,25.73945641981686,2.415445358852081,-2.206337381914904e-05,8.273421271423782e-05,1.932356287081665e-05,8.361753235902039e-05,8.345928178627082e-05
85.57735026920001,42.4226497308,8,0,-0.470801813930505,25.69601001821428,2.401046817263532,-2.206337381914904e-05,8.260387350943009e-05,1.920837453810826e-05,8.34778487285195e-05,8.325966387225832e-05
84.42264973080002,43.57735026920001,8,0,-0.498336324432568,25.72985739209118,2.399152958251142,-2.217856215185716e-05,8.273421271423782e-05,1.919322366600914e-05,8.360481226901242e-05,8.370789358987117e-05
85.57735026920001,43.57735026920001,8,0,-0.5091979248332255,25.68641099048855,2.3847544166626,-2.217856215185716e-05,8.260387350942993e-05,1.90780353333008e-05,8.346519142895147e-05,8.355083607459034e-05
86.4226497308,42.4226497308,8,0,-0.3556747833838072,25.69733014490961,2.232765365057764,-2.169602342275587e-05,8.251599629041781e-05,1.786212292046211e-05,8.327585559325318e-05,8.311716100184776e-05
87.57735026920002,42.4226497308,8,0,-0.3648202685815498,25.66074820411864,2.217169121773263,-2.169602342275587e-05,8.240625046804489e-05,1.77373529741861e-05,8.315638509768844e-05,8.292745383365763e-05
86.4226497308,43.57735026920001,8,0,-0.3972647654759269,25.68693264938658,2.219047137261217,-2.182079336903223e-05,8.251599629041781e-05,1.775237709808974e-05,8.326572824413322e-05,8.344002119966775e-05
87.57735026920002,43.57735026920001,8,0,-0.4064102506736562,25.65035070859567,2.203450893976662,-2.182079336903223e-05,8.240625046804505e-05,1.762760715181329e-05,8.314632161779905e-05,8.329432684641284e-05
88.42264973080002,42.4226497308,8,0,-0.2604397723759595,25.6650288850968,2.009995860358953,-2.136543037968051e-05,8.233644425021053e-05,1.607996688287162e-05,8.295607996603124e-05,8.279614304011466e-05
89.57735026920001,42.4226497308,8,0,-0.2671871316628653,25.63803944794918,1.99308293020727,-2.136543037968051e-05,8.225547593876766e-05,1.594466344165816e-05,8.286525865874476e-05,8.262710244874796e-05
88.42264973080002,43.57735026920001,8,0,-0.3055409194471057,25.65375359832902,1.99987482142852,-2.150073382089395e-05,8.233644425021053e-05,1.599899857142816e-05,8.294910188047334e-05,8.31957171730781e-05
89.57735026920001,43.57735026920001,8,0,-0.3122882787340204,25.62676416118136,1.982961891276898,-2.150073382089395e-05,8.225547593876755e-05,1.586369513021518e-05,8.28583387683724e-05,8.307200488865336e-05
90.42264973080002,42.4226497308,8,0,-0.1755441703471838,25.6467480738652,1.745763505186054,-2.107913980420315e-05,8.221002917264638e-05,1.396610804148843e-05,8.267999304107371e-05,8.251505410497327e-05
91.57735026920001,42.4226497308,8,0,-0.1791437172342478,25.63234988631694,1.727354790207053,-2.107913980420315e-05,8.216683461000161e-05,1.381883832165642e-05,8.262717373028231e-05,8.237797292823054e-05
90.42264973080002,43.57735026920001,8,0,-0.2246340769578632,25.63447559721253,1.740364184855497,-2.122640952403518e-05,8.221002917264638e-05,1.392291347884398e-05,8.267644446418725e-05,8.299343336797537e-05
91.57735026920001,43.57735026920001,8,0,-0.2282336238449272,25.62007740966427,1.721955469876496,-2.122640952403518e-05,8.216683461000161e-05,1.377564375901197e-05,8.262366711105506e-05,8.29024842658708e-05
92.42264973080002,42.4226497308,8,0,-0.1026102173142309,25.6470771278093,1.438471371259979,-2.084601439765297e-05,8.215273498284113e-05,1.150777097007983e-05,8.24731710956201e-05,8.229319811399505e-05
93.57735026920001,42.4226497308,8,0,-0.1022207452416009,25.64863501609982,1.418334044474054,-2.084601439765297e-05,8.215740864771269e-05,1.134667235579243e-05,8.246894864578532e-05,8.219867019103437e-05
92.42264973080002,43.57735026920001,8,0,-0.1563097554099961,25.63365224328536,1.439055579368904,-2.100711301194027e-05,8.215273498284113e-05,1.151244463495123e-05,8.247293290192386e-05,8.28513219118671e-05
93.57735026920001,43.57735026920001,8,0,-0.1559202833373519,25.63521013157593,1.418918252582986,-2.100711301194027e-05,8.215740864771286e-05,1.135134602066388e-05,8.246872060331387e-05,8.280249286339281e-05
94.4226497308,42.4226497308,8,0,-0.04367146960858381,25.67113187491011,1.086328973124237,-2.067665420267556e-05,8.218255917539921e-05,8.690631784993895e-06,8.236580180118522e-05,8.214752730895229e-05
95.57735026920002,42.4226497308,8,0,-0.0383348983912839,25.69247815977931,1.06418673237143,-2.067665420267556e-05,8.224659803000682e-05,8.513493858971436e-06,8.24223504001823e-05,8.21023302796133e-05
94.4226497308,43.57735026920001,8,0,-0.1027174449493495,25.65637038107492,1.094333829950242,-2.085379212869785e-05,8.218255917539921e-05,8.754670639601935e-06,8.236818886703214e-05,8.278368267382728e-05
95.57735026920002,43.57735026920001,8,0,-0.09738087373203985,25.67771666594416,1.072191589197407,-2.085379212869785e-05,8.224659803000693e-05,8.577532713579259e-06,8.242469433537378e-05,8.278112132870642e-05
96.4226497308,42.4226497308,8,0,-0.001276615359992128,25.72469512340567,0.6874035891581417,-2.05838412678765e-05,8.232004568718611e-05,5.499228713265133e-06,8.239346360310141e-05,8.208578496734476e-05
97.57735026920001,42.4226497308,8,0,0.01010870768267491,25.77023641557633,0.6629514371642238,-2.05838412678765e-05,8.245666956369812e-05,5.30361149731379e-06,8.252487014183033e-05,8.208577936293711e-05
96.4226497308,43.57735026920001,8,0,-0.06648235401038516,25.70839368874307,0.7044815737221148,-2.077945848382768e-05,8.232004568718611e-05,5.635852589776918e-06,8.239700808827662e-05,8.279271558656292e-05
97.57735026920001,43.57735026920001,8,0,-0.05509703096771368,25.75393498091375,0.6800294217282105,-2.077945848382768e-05,8.245666956369817e-05,5.440235373825684e-06,8.252829091131224e-05,8.28269530332251e-05
98.42264973080002,42.4226497308,8,0,0.02140129893261111,25.81436422521529,0.2396963267568367,-2.058300722358787e-05,8.258884448154283e-05,1.917570614054693e-06,8.259775379037073e-05,8.209114623408128e-05
99.57735026920002,42.4226497308,8,0,0.04010835847780925,25.88919246339608,0.2126207696240631,-2.058300722358787e-05,8.281332919608521e-05,1.700966156992505e-06,8.282032434271978e-05,8.210581440313313e-05
98.42264973080002,43.57735026920001,8,0,-0.05080018675479359,25.79631385379344,0.2677569160746069,-2.079961168065009e-05,8.258884448154283e-05,2.142055328596855e-06,8.259993834275822e-05,8.285042336023596e-05
99.57735026920002,43.57735026920001,8,0,-0.03209312720959989,25.87114209197421,0.2406813589417994,-2.079961168065009e-05,8.281332919608515e-05,1.925450871534395e-06,8.282227364118759e-05,8.288030803944041e-05
0.4226497308,44.42264973080001,8,0,-0.03378903674957989,2.1659595583037,-0.3147979101939555,-1.840892564241615e-06,6.958101815971503e-06,-2.518383281551644e-06,7.134753565088319e-06,1.049074117263574e-05
1.5773502692,44.42264973080001,8,0,0.09378047144809498,2.6762375910944,-0.3409992347087973,-1.840892564241615e-06,8.488935914343601e-06,-2.727993877670379e-06,8.666008828573484e-06,1.10253682614085e-05
0.4226497308,45.5773502692,8,0,-0.1036592354560417,2.148492008627084,-0.1234436478973755,-2.050503160361001e-06,6.958101815971503e-06,-9.87549183179004e-07,6.985085486524437e-06,1.118376640746758e-05
1.5773502692,45.5773502692,8,0,0.02391027274163315,2.658770041417784,-0.1496449724123529,-2.050503160361001e-06,8.488935914343601e-06,-1.197159779298823e-06,8.52282287508722e-06,1.169992387780675e-05
2.4226497308,44.42264973080001,8,0,-0.06121543729935053,2.996783853156041,-0.7484542250021075,-2.593316481882754e-06,9.63868067993881e-06,-5.987633800016859e-06,1.033211513508021e-05,1.167863172711634e-05
3.5773502692,44.42264973080001,8,0,0.07297848079258806,3.533559525523795,-0.7722793005236528,-2.593316481882754e-06,1.124900769704207e-05,-6.178234404189222e-06,1.190710215138978e-05,1.292875361746181e-05
2.4226497308,45.5773502692,8,0,-0.1247489720237246,2.980900469474947,-0.547163347864091,-2.783917086055876e-06,9.63868067993881e-06,-4.377306782912729e-06,1.001300534235139e-05,1.233188266828944e-05
3.5773502692,45.5773502692,8,0,0.009444946068195903,3.517676141842629,-0.5709884233858127,-2.783917086055876e-06,1.124900769704186e-05,-4.567907387086501e-06,1.161137915416241e-05,1.354226872191217e-05
4.422649730800001,44.42264973080001,8,0,-0.1050380792265213,3.864890229556326,-1.134302755201246,-3.428034037169928e-06,1.245167919796146e-05,-9.074422041609968e-06,1.365663569794037e-05,1.397632651365466e-05
5.577350269200001,44.42264973080001,8,0,0.03458130647046409,4.423367772344267,-1.156339389186148,-3.428034037169928e-06,1.412711182632528e-05,-9.250715113489185e-06,1.527121814256199e-05,1.558822700046182e-05
4.422649730800001,45.5773502692,8,0,-0.1638024365198287,3.850199140232728,-0.9248736766557272,-3.604327109049633e-06,1.245167919796059e-05,-7.398989413245818e-06,1.326308189083559e-05,1.455865973081147e-05
5.577350269200001,45.5773502692,8,0,-0.02418305082282535,4.408676683020741,-0.9469103106406564,-3.604327109049633e-06,1.412711182632463e-05,-7.575282485125252e-06,1.490230558623622e-05,1.612510555397589e-05
6.422649730800001,44.42264973080001,8,0,-0.1631493535285504,4.763435426377074,-1.475958447344787,-4.332826272393021e-06,1.537351284722948e-05,-1.18076675787583e-05,1.700686598956817e-05,1.683291679377212e-05
7.577350269200001,44.42264973080001,8,0,-0.01899949623721597,5.340034855542412,-1.496683779744564,-4.332826272393021e-06,1.710331113472549e-05,-1.197347023795651e-05,1.866196813955542e-05,1.862157206209565e-05
6.422649730800001,45.5773502692,8,0,-0.218416906594894,4.749618538110489,-1.259733661407704,-4.498628931592051e-06,1.537351284722948e-05,-1.007786929126163e-05,1.657819449444453e-05,1.733662506858794e-05
7.577350269200001,45.5773502692,8,0,-0.07426704930355954,5.326217967275826,-1.280458993807576,-4.498628931592051e-06,1.710331113472549e-05,-1.024367195046061e-05,1.825617552464441e-05,1.908011211384554e-05
8.4226497308,44.42264973080001,8,0,-0.2344167859053381,5.687193201116425,-1.776415613511872,-5.299888275790221e-06,1.838655167229683e-05,-1.421132490809498e-05,2.03546422176951e-05,1.996147427479204e-05
9.5773502692,44.42264973080001,8,0,-0.08641011426935741,6.279219887660348,-1.796149884023495,-5.299888275790221e-06,2.01626317319286e-05,-1.436919907218796e-05,2.204997124306761e-05,2.183349992888464e-05
8.4226497308,45.5773502692,8,0,-0.2870415072697003,5.674037020775335,-1.554405606057983,-5.457762439883308e-06,1.838655167229683e-05,-1.243524484846386e-05,1.991045937435775e-05,2.038762872577739e-05
9.5773502692,45.5773502692,8,0,-0.1390348356336926,6.266063707319366,-1.574139876569592,-5.457762439883308e-06,2.016263173192892e-05,-1.259311901255673e-05,2.162646039196645e-05,2.221634349620977e-05
10.4226497308,44.42264973080001,8,0,-0.3183311441070913,6.632107355370909,-2.037878240343332,-6.324345545439419e-06,2.147740845247258e-05,-1.630302592274665e-05,2.369116905104081e-05,2.321738110690027e-05
11.5773502692,44.42264973080001,8,0,-0.1670014156358561,7.23742626925585,-2.056764245453538,-6.324345545439419e-06,2.32933651941274e-05,-1.64541139636283e-05,2.542519056465605e-05,2.512618914294538e-05
10.4226497308,45.5773502692,8,0,-0.3686938244007945,6.619516685297348,-1.810883647636438,-6.47543358632042e-06,2.147740845247215e-05,-1.44870691810915e-05,2.324294213622042e-05,2.356917328676402e-05
11.5773502692,45.5773502692,8,0,-0.2173640959295231,7.224835599182433,-1.829769652746496,-6.47543358632042e-06,2.32933651941274e-05,-1.463815722197196e-05,2.499553437372801e-05,2.543645823827574e-05
12.4226497308,44.42264973080001,8,0,-0.4146771451046867,7.594854234898637,-2.261709434872214,-7.402850252253906e-06,2.463527526775939e-05,-1.809367547897772e-05,2.701337654989988e-05,2.65283777605114e-05
13.5773502692,44.42264973080001,8,0,-0.2604929985337621,8.211590821182336,-2.279714058973987,-7.402850252253906e-06,2.648548502661048e-05,-1.82377124717919e-05,2.878341592252831e-05,2.845042026961429e-05
12.4226497308,45.5773502692,8,0,-0.462689476042784,7.582851152164113,-2.03043321501576,-7.546887245068199e-06,2.463527526775939e-05,-1.624346572012608e-05,2.656877280394819e-05,2.680870979644259e-05
13.5773502692,45.5773502692,8,0,-0.3085053294718594,8.199587738447812,-2.048437839117546,-7.546887245068199e-06,2.648548502661048e-05,-1.638750271294037e-05,2.835548833970943e-05,2.869048582276767e-05
14.4226497308,44.42264973080001,8,0,-0.5232458028759321,8.572443663605501,-2.448480956723681,-8.532341500087383e-06,2.785041636583835e-05,-1.958784765378945e-05,3.031931844281485e-05,2.985765312643631e-05
15.5773502692,44.42264973080001,8,0,-0.3666748021323563,9.198727666579805,-2.465414586676036,-8.532341500087383e-06,2.972926837476126e-05,-1.972331669340829e-05,3.212147444650799e-05,3.178024228041494e-05
14.4226497308,45.5773502692,8,0,-0.5684021494155642,8.561154576970594,-2.213624455608466,-8.667810539706279e-06,2.785041636583835e-05,-1.770899564486773e-05,2.988409364693743e-05,3.006850571618718e-05
15.5773502692,45.5773502692,8,0,-0.4118311486719435,9.187438579945077,-2.230558085560767,-8.667810539706279e-06,2.97292683747618e-05,-1.784446468448614e-05,3.170123073633074e-05,3.195155005268491e-05
16.4226497308,44.42264973080001,8,0,-0.6436017904987317,9.561879731601294,-2.598101655113978,-9.709029514876977e-06,3.111289657352313e-05,-2.078481324091182e-05,3.360628961624672e-05,3.318495481140623e-05
17.5773502692,44.42264973080001,8,0,-0.4851609130785359,10.19564324128208,-2.613650995161339,-9.709029514876977e-06,3.301418710256548e-05,-2.090920796129071e-05,3.543528372678561e-05,3.510011166228763e-05
16.4226497308,45.5773502692,8,0,-0.6850666972917305,9.551513504903046,-2.360440338983617,-9.833424235255973e-06,3.111289657352313e-05,-1.888352271186894e-05,3.318518259288579e-05,3.332744167078039e-05
17.5773502692,45.5773502692,8,0,-0.5266258198715348,10.18527701458383,-2.375989679031046,-9.833424235255973e-06,3.301418710256548e-05,-1.900791743224836e-05,3.502763128548344e-05,3.520340314078751e-05
18.4226497308,44.42264973080001,8,0,-0.7749142515390659,10.55989604587276,-2.710002588117023,-1.092764244162321e-05,3.441159874802407e-05,-2.168002070493619e-05,3.687000080431381e-05,3.649707042369565e-05
19.5773502692,44.42264973080001,8,0,-0.6152051610723555,11.1987324077396,-2.723772263486701,-1.092764244162321e-05,3.632810783362459e-05,-2.179017810789361e-05,3.871906143621452e-05,3.839847588522171e-05
18.4226497308,45.5773502692,8,0,-0.8116333858583138,10.55071626229294,-2.470438952416971,-1.103779984458096e-05,3.441159874802407e-05,-1.976351161933577e-05,3.646715481742101e-05,3.657173714655164e-05
19.5773502692,45.5773502692,8,0,-0.651924295391531,11.18955262416008,-2.48420862778673,-1.103779984458096e-05,3.632810783362546e-05,-1.987366902229384e-05,3.832828041337971e-05,3.843413370217535e-05
20.4226497308,44.42264973080001,8,0,-0.9158548568644278,11.56277375164759,-2.783356311318033,-1.218095454328424e-05,3.773355989076382e-05,-2.226685049054426e-05,4.010427086547993e-05,3.978313370513614e-05
21.5773502692,44.42264973080001,8,0,-0.7555834116753313,12.20385953240397,-2.794914665094181,-1.218095454328424e-05,3.965681723303298e-05,-2.235931732075345e-05,4.196510643282683e-05,4.166468375887471e-05
20.4226497308,45.5773502692,8,0,-0.9466771336008595,11.55506818246348,-2.542949143534456,-1.227342137349353e-05,3.773355989076382e-05,-2.034359314827565e-05,3.972340157120057e-05,3.979031820511139e-05
21.5773502692,45.5773502692,8,0,-0.7864056884118082,12.19615396321969,-2.55450749731055,-1.227342137349353e-05,3.965681723303244e-05,-2.04360599784844e-05,4.159502313114524e-05,4.163308661610404e-05
22.4226497308,44.42264973080001,8,0,-1.064562278173297,12.56624460391808,-2.817308327110815,-1.345959497328901e-05,4.10636325550765e-05,-2.253846661688652e-05,4.330102223825796e-05,4.303242960227824e-05
23.5773502692,44.42264973080001,8,0,-0.904542811958001,13.20632246877927,-2.826233025764934,-1.345959497328901e-05,4.298386614966004e-05,-2.260986420611947e-05,4.516390471005169e-05,4.488763068471814e-05
22.4226497308,45.5773502692,8,0,-1.088361474584351,12.56029480481518,-2.577279127787804,-1.353099256252207e-05,4.106363255507606e-05,-2.061823302230243e-05,4.294544191886507e-05,4.297260422788553e-05
23.5773502692,45.5773502692,8,0,-0.9283420083690195,13.20037266967651,-2.586203826441896,-1.353099256252207e-05,4.298386614966004e-05,-2.068963061153516e-05,4.481792259146404e-05,4.478946599006885e-05
24.4226497308,44.42264973080001,8,0,-1.218667662101826,13.5654755629785,-2.811200234609422,-1.475211696910864e-05,4.438445593121267e-05,-2.248960187687537e-05,4.645047225104906e-05,4.623350983255457e-05
25.5773502692,44.42264973080001,8,0,-1.059813591323304,14.20089184609259,-2.817119769265547,-1.475211696910864e-05,4.629070478055493e-05,-2.253695815412438e-05,4.830443095016308e-05,4.805531896300766e-05
24.4226497308,45.5773502692,8,0,-1.234453087851512,13.56152920654108,-2.572919128441598,-1.47994732463577e-05,4.438445593121267e-05,-2.058335302753279e-05,4.612303512462071e-05,4.610756847921471e-05
25.5773502692,45.5773502692,8,0,-1.075599017072963,14.19694548965528,-2.578838663097724,-1.47994732463577e-05,4.629070478055525e-05,-2.063070930478179e-05,4.798548246106298e-05,4.789182968711396e-05
26.4226497308,44.42264973080001,8,0,-1.375371485434429,14.55512603232563,-2.764766937856026,-1.604528957925067e-05,4.767670049178954e-05,-2.211813550284821e-05,4.954145206303895e-05,4.937400150368908e-05
27.57735026920001,44.42264973080001,8,0,-1.218674664352402,15.18191331665373,-2.76739487151283,-1.604528957925067e-05,4.955706234477386e-05,-2.213915897210264e-05,5.137456247658268e-05,5.115490007358483e-05
26.4226497308,45.5773502692,8,0,-1.382379308519349,14.55337407655412,-2.529721706233,-1.606631304850521e-05,4.767670049178867e-05,-2.0237773649864e-05,4.924446426355554e-05,4.91834757546742e-05
27.57735026920001,45.5773502692,8,0,-1.225682487437223,15.18016136088263,-2.532349639889817,-1.606631304850521e-05,4.955706234477419e-05,-2.025879711911854e-05,5.108502468537597e-05,5.092805722889609e-05
28.4226497308,44.42264973080001,8,0,-1.531558894200073,15.52946440071007,-2.678294355343652,-1.732455998200829e-05,5.091953319763228e-05,-2.142635484274921e-05,5.256180169897118e-05,5.244077734552791e-05
29.5773502692,44.42264973080001,8,0,-1.378060749115504,16.14345698104835,-2.677454181131494,-1.732455998200829e-05,5.27615109386471e-05,-2.141963344905195e-05,5.436154451663442e-05,5.417296081502805e-05
28.4226497308,45.5773502692,8,0,-1.529318429634445,15.53002451685148,-2.448047137716745,-1.731783858831141e-05,5.091953319763228e-05,-1.958437710173396e-05,5.229692714003108e-05,5.218797750110502e-05
29.5773502692,45.5773502692,8,0,-1.375820284549886,16.14401709718971,-2.447206963504696,-1.731783858831141e-05,5.276151093864699e-05,-1.957765570803757e-05,5.410314948689439e-05,5.388556222419027e-05
30.4226497308,44.42264973080001,8,0,-1.683938798598366,16.48252750272551,-2.55272910332326,-1.857462615769518e-05,5.409123904760033e-05,-2.042183282658608e-05,5.549879936049094e-05,5.542030153222877e-05
31.5773502692,44.42264973080001,8,0,-1.534696547510392,17.07949650707741,-2.548368731792797,-1.857462615769518e-05,5.588214606065602e-05,-2.038694985434237e-05,5.725246023250965e-05,5.709591627661531e-05
30.4226497308,45.5773502692,8,0,-1.672311141183798,16.48543441707942,-2.328865726691353,-1.853974318545169e-05,5.409123904760119e-05,-1.863092581353082e-05,5.526698349622829e-05,5.510838615692599e-05
31.5773502692,45.5773502692,8,0,-1.523068890095895,17.08240342143104,-2.32450535516093,-1.853974318545169e-05,5.588214606065602e-05,-1.859604284128744e-05,5.70262219965685e-05,5.675161854692795e-05
32.4226497308,44.42264973080001,8,0,-1.829191900929387,17.40830534721141,-2.389736995241074,-1.978005836074316e-05,5.716993063182001e-05,-1.911789596192859e-05,5.833959136157968e-05,5.829904208912352e-05
33.57735026920001,44.42264973080001,8,0,-1.685243078869456,17.98410063545113,-2.381933019485175,-1.978005836074316e-05,5.889731649653918e-05,-1.90554641558814e-05,6.00346714529602e-05,5.991042819254672e-05
32.4226497308,45.5773502692,8,0,-1.808381298913801,17.4135079977153,-2.173813762151259,-1.971762655469641e-05,5.716993063182001e-05,-1.739051009721007e-05,5.814101691068523e-05,5.793202494239953e-05
33.57735026920001,45.5773502692,8,0,-1.664432476853842,17.98930328595514,-2.166009786395442,-1.971762655469641e-05,5.889731649653951e-05,-1.732807829116353e-05,5.984084361758173e-05,5.951372279854227e-05
34.42264973080001,44.42264973080001,8,0,-1.964114408720603,18.30093406205685,-2.191712183663503,-2.092591335755141e-05,6.013428052555839e-05,-1.753369746930803e-05,6.107159723409918e-05,6.106388473551176e-05
35.5773502692,44.42264973080001,8,0,-1.826442516233826,18.85162163200396,-2.180665019002373,-2.092591335755141e-05,6.178634323539972e-05,-1.744532015201898e-05,6.269620772835425e-05,6.26038005119258e-05
34.42264973080001,45.5773502692,8,0,-1.934655302957391,18.30829883849765,-1.985204344933365,-2.083753604026177e-05,6.013428052555839e-05,-1.588163475946692e-05,6.090567887008685e-05,6.064659105484848e-05
35.5773502692,45.5773502692,8,0,-1.796983410470614,18.85898640844476,-1.97415718027218,-2.083753604026177e-05,6.178634323539972e-05,-1.579325744217744e-05,6.25342787970806e-05,6.215994683334784e-05
36.4226497308,44.42264973080001,8,0,-2.085747019971357,19.15488220941979,-1.961742725485881,-2.199829623144418e-05,6.296422068612041e-05,-1.569394180388705e-05,6.36828727894887e-05,6.3702510360115e-05
37.5773502692,44.42264973080001,8,0,-1.955250492408391,19.67686831967166,-1.947764369161865,-2.199829623144418e-05,6.453017901687601e-05,-1.558211495329492e-05,6.522609191343426e-05,6.51643257118578e-05
36.4226497308,45.5773502692,8,0,-2.048471403107278,19.16420111363581,-1.765997934141553,-2.188646938085194e-05,6.296422068612041e-05,-1.412798347313242e-05,6.354829183635644e-05,6.324049561390563e-05
37.5773502692,45.5773502692,8,0,-1.917974875544266,19.68618722388786,-1.752019577817441,-2.188646938085194e-05,6.453017901687655e-05,-1.401615662253953e-05,6.509481955300652e-05,6.467925400407226e-05
38.4226497308,44.42264973080001,8,0,-2.191482238565525,19.96511890734954,-1.703540882143768,-2.298483828928931e-05,6.564156629437095e-05,-1.362832705715015e-05,6.616242161448156e-05,6.620371665541598e-05
39.5773502692,44.42264973080001,8,0,-2.068948223700847,20.45525496680825,-1.687037342680989,-2.298483828928931e-05,6.711197447274708e-05,-1.349629874144791e-05,6.761459922603982e-05,6.758157017052179e-05
38.4226497308,45.5773502692,8,0,-2.147472799998059,19.97612126699148,-1.519739859846792,-2.285280997358697e-05,6.564156629437117e-05,-1.215791887877434e-05,6.605719721191921e-05,6.570316035460259e-05
39.5773502692,45.5773502692,8,0,-2.024938785133427,20.46625732645001,-1.503236320383973,-2.285280997358697e-05,6.711197447274676e-05,-1.202589056307178e-05,6.751208020944947e-05,6.706176613639617e-05
40.4226497308,44.42264973080001,8,0,-2.279146532603195,20.72725590167308,-1.421347500351084,-2.387507362566868e-05,6.815053611143639e-05,-1.137078000280867e-05,6.850045194971426e-05,6.855767696764028e-05
41.5773502692,44.42264973080001,8,0,-2.165230283816854,21.18292089681844,-1.402797932672991,-2.387507362566868e-05,6.951753109687249e-05,-1.122238346138392e-05,6.985345308076541e-05,6.98465968159889e-05
40.4226497308,45.5773502692,8,0,-2.229681018795144,20.73962228012509,-1.250473127171586,-2.372667708424453e-05,6.815053611143639e-05,-1.000378501737269e-05,6.842204209536317e-05,6.802526235757889e-05
41.5773502692,45.5773502692,8,0,-2.115764770008822,21.19528727527038,-1.23192355949356,-2.372667708424453e-05,6.951753109687227e-05,-9.855388475948478e-06,6.977722262395022e-05,6.929897720506898e-05
42.4226497308,44.42264973080001,8,0,-2.347056762617357,21.43765925880439,-1.119819566386559,-2.466070904741906e-05,7.047815503826793e-05,-8.958556531092469e-06,7.068858066221641e-05,7.075613756766419e-05
43.57735026920001,44.42264973080001,8,0,-2.242266893489352,21.85681873531642,-1.099753896880007,-2.466070904741906e-05,7.1735633467804e-05,-8.798031175040054e-06,7.193596477708284e-05,7.19521292645525e-05
42.4226497308,45.5773502692,8,0,-2.293548310599868,21.45103637180877,-0.9626347626945505,-2.450018369136659e-05,7.047815503826793e-05,-7.701078101556404e-06,7.063400490885308e-05,7.019892554389045e-05
43.57735026920001,45.5773502692,8,0,-2.188758441471836,21.87019584832089,-0.9425690931880257,-2.450018369136659e-05,7.173563346780432e-05,-7.540552745504206e-06,7.188311735528864e-05,7.138391528235233e-05
44.4226497308,44.42264973080001,8,0,-2.39405236883641,22.09352925290109,-0.8039088799811223,-2.533579098259737e-05,7.261453550435259e-05,-6.431271039848978e-06,7.271998886786436e-05,7.279255911062218e-05
45.5773502692,44.42264973080001,8,0,-2.298741819728725,22.47477144933182,-0.7828853200394809,-2.533579098259737e-05,7.37582620936448e-05,-6.263082560315847e-06,7.385712551187971e-05,7.389266445349115e-05
44.4226497308,45.5773502692,8,0,-2.337989542325546,22.1075449595288,-0.6609430563195967,-2.516760250306478e-05,7.261453550435259e-05,-5.287544450556774e-06,7.26859639849896e-05,7.221786203814699e-05
45.5773502692,45.5773502692,8,0,-2.242678993217889,22.48878715595943,-0.6399194963780231,-2.516760250306478e-05,7.375826209364447e-05,-5.119355971024185e-06,7.382444873497147e-05,7.331125720742023e-05
46.42264973080001,44.42264973080001,8,0,-2.419505926303885,22.69294907130813,-0.47873820892131,-2.589677822121894e-05,7.455304176922912e-05,-3.82990567137048e-06,7.45895347427967e-05,7.466220968780881e-05
47.57735026920001,44.42264973080001,8,0,-2.333868270860417,23.035499693082,-0.4573216415928484,-2.589677822121894e-05,7.558069363455073e-05,-3.658573132742787e-06,7.561365861279606e-05,7.566454102390757e-05
46.42264973080001,45.5773502692,8,0,-2.362395080094637,22.70722678286045,-0.3502817257561492,-2.572544568259119e-05,7.455304176922912e-05,-2.802253806049194e-06,7.457261499512316e-05,7.407746840503271e-05
47.57735026920001,45.5773502692,8,0,-2.276757424651169,23.04977740463431,-0.3288651584276606,-2.572544568259119e-05,7.558069363455073e-05,-2.630921267421284e-06,7.559777201715767e-05,7.5077401157054e-05
48.4226497308,44.42264973080001,8,0,-2.423314950783159,23.23490414049489,-0.1494796918729421,-2.634253115490202e-05,7.629034521021015e-05,-1.195837534983537e-06,7.62938284480598e-05,7.636221626808334e-05
49.57735026920001,44.42264973080001,8,0,-2.347385592855236,23.53862157220658,-0.1282215633385949,-2.634253115490202e-05,7.720149750534524e-05,-1.025772506708759e-06,7.720403793050082e-05,7.726596914633682e-05
48.4226497308,45.5773502692,8,0,-2.366626608025027,23.24907622618442,-0.03558565498103607,-2.617246612662762e-05,7.629034521021015e-05,-2.846852398482886e-07,7.629054295397767e-05,7.577488177252071e-05
49.57735026920001,45.5773502692,8,0,-2.290697250097076,23.55279365789622,-0.01432752644672276,-2.617246612662762e-05,7.720149750534556e-05,-1.146202115737821e-07,7.72015292778258e-05,7.66805014993299e-05
50.42264973080001,44.42264973080001,8,0,-2.405877508769977,23.71927433308499,0.1787610062278528,-2.667422749453192e-05,7.782637987288794e-05,1.430088049822822e-06,7.783127232312696e-05,7.789157924269533e-05
51.57735026920001,44.42264973080001,8,0,-2.339539335285124,23.9846270270244,0.1993408897151333,-2.667422749453192e-05,7.862243795470617e-05,1.594727117721067e-06,7.862847567858069e-05,7.869702493349404e-05
50.42264973080001,45.5773502692,8,0,-2.350997819470417,23.73299425540988,0.2782682664551517,-2.650958842663324e-05,7.782637987288794e-05,2.226146131641214e-06,7.783825296612417e-05,7.730899961607335e-05
51.57735026920001,45.5773502692,8,0,-2.284659645985565,23.99834694934929,0.2988481499424254,-2.650958842663324e-05,7.862243795470617e-05,2.390785199539404e-06,7.863602828316968e-05,7.812046867674159e-05
52.4226497308,44.42264973080001,8,0,-2.368053591919737,24.14680133267223,0.5010520146180164,-2.689521256028093e-05,7.916420713808691e-05,4.008416116944131e-06,7.920206720340235e-05,7.925115210034247e-05
53.5773502692,44.42264973080001,8,0,-2.311046687485127,24.37482895041067,0.5204814709137786,-2.689521256028093e-05,7.984828999130222e-05,4.163851767310228e-06,7.988888045063768e-05,7.99596099832922e-05
52.4226497308,45.5773502692,8,0,-2.316241708464461,24.15975430353604,0.5865623712699515,-2.673977690991511e-05,7.916420713808691e-05,4.692498970159612e-06,7.921616162711551e-05,7.868046521554144e-05
53.5773502692,45.5773502692,8,0,-2.259234804029833,24.38778192127456,0.605991827565673,-2.673977690991511e-05,7.984828999130244e-05,4.847934620525384e-06,7.99033860458302e-05,7.939893515100213e-05
54.42264973080001,44.42264973080001,8,0,-2.311113731888051,24.5190333479675,0.8127314632307023,-2.701079062041576e-05,8.030979769900644e-05,6.501851705845618e-06,8.040818365895533e-05,8.044358592111011e-05
55.57735026920001,44.42264973080001,8,0,-2.263048760857194,24.71129323209093,0.8305993523974485,-2.701079062041576e-05,8.088657735137673e-05,6.644794819179588e-06,8.098878446227321e-05,8.105737488997598e-05
54.42264973080001,45.5773502692,8,0,-2.263466027443304,24.53094527407869,0.8848289197770434,-2.686784750708152e-05,8.030979769900644e-05,7.078631358216347e-06,8.042654895433305e-05,7.989161927259461e-05
55.57735026920001,45.5773502692,8,0,-2.215401056412446,24.72320515820212,0.9026968089437964,-2.686784750708152e-05,8.088657735137673e-05,7.221574471550371e-06,8.100743714335119e-05,8.051918738946425e-05
56.4226497308,44.42264973080001,8,0,-2.23667626245016,24.83824950152498,1.109489788667163,-2.70279636410605e-05,8.127173941484007e-05,8.875918309337303e-06,8.145329594850334e-05,8.147323728743467e-05
57.57735026920001,44.42264973080001,8,0,-2.197051039599889,24.99675039292607,1.125456426615145,-2.70279636410605e-05,8.174724208904333e-05,9.003651412921158e-06,8.193323888626357e-05,8.199560551743165e-05
56.4226497308,45.5773502692,8,0,-2.194098561255652,24.84889392682361,1.168927622942584,-2.690023053747697e-05,8.127173941484007e-05,9.35142098354067e-06,8.147346980269459e-05,8.094641758199693e-05
57.57735026920001,45.5773502692,8,0,-2.154473338405385,25.00739481822468,1.184894260890538,-2.690023053747697e-05,8.174724208904327e-05,9.479154087124308e-06,8.195360679883718e-05,8.148606405770364e-05
58.4226497308,44.42264973080001,8,0,-2.1466351178416,25.10736677122691,1.387435098861202,-2.695512579407465e-05,8.20608817621994e-05,1.109948079088961e-05,8.234267716542671e-05,8.234603898205829e-05
59.57735026920001,44.42264973080001,8,0,-2.114853713827817,25.23449238728205,1.401239164546731,-2.695512579407465e-05,8.244225861036479e-05,1.120991331637384e-05,8.272867773633397e-05,8.278107278213436e-05
58.4226497308,45.5773502692,8,0,-2.109824276013758,25.11656948168388,1.43510720488195,-2.684469326859112e-05,8.20608817621994e-05,1.14808576390556e-05,8.236262457287716e-05,8.185031543929365e-05
59.57735026920001,45.5773502692,8,0,-2.078042871999975,25.24369509773901,1.448911270567391,-2.684469326859112e-05,8.244225861036479e-05,1.159129016453913e-05,8.274875050225087e-05,8.230582224486033e-05
60.4226497308,44.42264973080001,8,0,-2.043080993761524,25.32983333821274,1.643138607344811,-2.680172585060707e-05,8.268993147728999e-05,1.314510885875848e-05,8.308305662849432e-05,8.306933557957052e-05
61.5773502692,44.42264973080001,8,0,-2.018474493098303,25.42825934086563,1.654600081174145,-2.680172585060707e-05,8.298520948524864e-05,1.323680064939316e-05,8.338275388499581e-05,8.342185038805548e-05
60.4226497308,45.5773502692,8,0,-2.012517063549893,25.33747432076565,1.680048358339655,-2.671003405997218e-05,8.268993147728999e-05,1.344038686671724e-05,8.310119179634742e-05,8.261012170656195e-05
61.5773502692,45.5773502692,8,0,-1.987910562886699,25.43590032341843,1.691509832169003,-2.671003405997218e-05,8.298520948524831e-05,1.353207865735203e-05,8.340096529950386e-05,8.298597649111531e-05
62.42264973080001,44.42264973080001,8,0,-1.928219789624136,25.50951338666166,1.873657770922989,-2.657791403612656e-05,8.317301866901661e-05,1.498926216738391e-05,8.368244468334284e-05,8.365169023943062e-05
63.57735026920001,44.42264973080001,8,0,-1.91006760427025,25.5821221280772,1.882676621671899,-2.657791403612656e-05,8.339084489326323e-05,1.506141297337519e-05,8.390415479764209e-05,8.392710958253334e-05
62.42264973080001,45.5773502692,8,0,-1.904169520960331,25.51552595382761,1.900886048953818,-2.650576323013514e-05,8.317301866901661e-05,1.520708839163054e-05,8.369762941781998e-05,8.323382877181056e-05
63.57735026920001,45.5773502692,8,0,-1.886017335606446,25.58813469524315,1.909904899702721,-2.650576323013514e-05,8.339084489326323e-05,1.527923919762177e-05,8.391938200760329e-05,8.353511901091723e-05
64.4226497308,44.42264973080001,8,0,-1.804293106296511,25.65056946361323,2.076536017843825,-2.629419351103942e-05,8.352525676859953e-05,1.66122881427506e-05,8.414993487816202e-05,8.410267370073936e-05
65.57735026920001,44.42264973080001,8,0,-1.791843618935768,25.7003674130562,2.083086658603714,-2.629419351103942e-05,8.367465061692844e-05,1.666469326882971e-05,8.430240950412074e-05,8.430690444858187e-05
64.4226497308,45.5773502692,8,0,-1.786824730936832,25.65493655745315,2.095210248884925,-2.624178838496038e-05,8.352525676859953e-05,1.67616819910794e-05,8.416145632934863e-05,8.37304283072136e-05
65.57735026920001,45.5773502692,8,0,-1.774375243576103,25.70473450689606,2.101760889644761,-2.624178838496038e-05,8.367465061692828e-05,1.681408711715808e-05,8.431395149333373e-05,8.396273298880178e-05
66.4226497308,44.42264973080001,8,0,-1.673505864389941,25.75734908667447,2.249779664582744,-2.596109803538739e-05,8.376232176887026e-05,1.799823731666195e-05,8.449549787266882e-05,8.44326505299223e-05
67.57735026920001,44.42264973080001,8,0,-1.665995181627775,25.78739181772314,2.253901562804812,-2.596109803538739e-05,8.385244996201625e-05,1.80312125024385e-05,8.458770133103035e-05,8.457196446516913e-05
66.4226497308,45.5773502692,8,0,-1.662514135797723,25.76009701882253,2.261045688725871,-2.592812284961073e-05,8.376232176887026e-05,1.808836550980697e-05,8.450302980044628e-05,8.410972591536855e-05
67.57735026920001,45.5773502692,8,0,-1.655003453035562,25.79013974987117,2.265167586948001,-2.592812284961073e-05,8.38524499620162e-05,1.812134069558401e-05,8.459524084717764e-05,8.427901337753114e-05
68.42264973080002,44.42264973080001,8,0,-1.537965688533774,25.83428215288329,2.391814452357306,-2.55889159256147e-05,8.390007544005354e-05,1.913451561885845e-05,8.472978447091666e-05,8.465258015540797e-05
69.57735026920001,44.42264973080001,8,0,-1.534633435817686,25.84761116374764,2.393599622241097,-2.55889159256147e-05,8.394006247264659e-05,1.914879697792877e-05,8.477070240968381e-05,8.473351238179018e-05
68.42264973080002,45.5773502692,8,0,-1.53320523551044,25.83547226613912,2.396812831431417,-2.557463456654471e-05,8.390007544005354e-05,1.917450265145134e-05,8.473333695969596e-05,8.438216974522224e-05
69.57735026920001,45.5773502692,8,0,-1.529872982794353,25.84880127700347,2.398598001315187,-2.557463456654471e-05,8.394006247264659e-05,1.91887840105215e-05,8.477425624904301e-05,8.449471072072801e-05
70.4226497308,44.42264973080001,8,0,-1.399637647316442,25.88579482181081,2.501425716692227,-2.518747632886126e-05,8.395425354764774e-05,2.001140573353781e-05,8.486395628824167e-05,8.477385067550868e-05
71.57735026920001,44.42264973080001,8,0,-1.399739005205949,25.88538939025278,2.501004070821305,-2.518747632886126e-05,8.395303725297366e-05,2.000803256657044e-05,8.486244581813877e-05,8.480312471706074e-05
70.4226497308,45.5773502692,8,0,-1.400762036305493,25.88551372456355,2.501273679857878,-2.519084949582841e-05,8.395425354764774e-05,2.001018943886303e-05,8.486381896405067e-05,8.455870857483121e-05
71.57735026920001,45.5773502692,8,0,-1.400863394195014,25.88510829300547,2.500852033987018,-2.519084949582841e-05,8.395303725297349e-05,2.000681627189614e-05,8.486230851914413e-05,8.46210129883182e-05
72.4226497308,44.42264973080001,8,0,-1.260316490959054,25.91624408454588,2.57768724945379,-2.476600803870567e-05,8.394023426331406e-05,2.062149799563032e-05,8.490956175435458e-05,8.480816189973439e-05
73.57735026920001,44.42264973080001,8,0,-1.263130001256053,25.90499004335788,2.57521089929882,-2.476600803870567e-05,8.390647213975006e-05,2.060168719439056e-05,8.487424967897385e-05,8.479264969717437e-05
72.4226497308,45.5773502692,8,0,-1.266920091372199,25.91459318444259,2.573466984008284,-2.478581883994511e-05,8.394023426331406e-05,2.058773587206627e-05,8.490624505138228e-05,8.465069367322311e-05
73.57735026920001,45.5773502692,8,0,-1.269733601669203,25.90333914325458,2.570990633853347,-2.478581883994511e-05,8.390647213975e-05,2.056792507082678e-05,8.487093517153656e-05,8.466947839890319e-05
74.4226497308,44.42264973080001,8,0,-1.121617002424816,25.92987547607826,2.619884298824525,-2.433307478862202e-05,8.387289512539029e-05,2.09590743905962e-05,8.487847285228717e-05,8.476747099005849e-05
75.57735026920001,44.42264973080001,8,0,-1.126448001227825,25.91055148086623,2.615511868003863,-2.433307478862202e-05,8.381492313975418e-05,2.09240949440309e-05,8.481770513892414e-05,8.471419368550614e-05
74.4226497308,45.5773502692,8,0,-1.133276817946644,25.92696052219781,2.612637800620052,-2.43680542351875e-05,8.387289512539029e-05,2.090110240496042e-05,8.487265085150891e-05,8.466983619183855e-05
75.57735026920001,45.5773502692,8,0,-1.138107816749639,25.90763652698583,2.608265369799403,-2.43680542351875e-05,8.381492313975434e-05,2.086612295839523e-05,8.481188986950774e-05,8.465202897463651e-05
76.42264973080002,44.42264973080001,8,0,-0.9849817520112998,25.93080465555835,2.627435922618749,-2.389658533088283e-05,8.376656029939573e-05,2.101948738094999e-05,8.478289486631727e-05,8.466400987127434e-05
77.57735026920001,44.42264973080001,8,0,-0.9911615646302234,25.90608540508265,2.621317802127266,-2.389658533088283e-05,8.369240254796866e-05,2.097054241701813e-05,8.470473747607457e-05,8.458018244562207e-05
76.42264973080002,45.5773502692,8,0,-1.00129673998856,25.92672590856403,2.618166203690317,-2.394553029481461e-05,8.376656029939573e-05,2.094532962952254e-05,8.477535185948155e-05,8.462822812791973e-05
77.57735026920001,45.5773502692,8,0,-1.007476552607474,25.90200665808837,2.612048083198889,-2.394553029481461e-05,8.369240254796877e-05,2.089638466559111e-05,8.469720715420683e-05,8.458101022262564e-05
78.4226497308,44.42264973080001,8,0,-0.8517045998581327,25.92302212064313,2.599821229698502,-2.346387241606052e-05,8.363503446594451e-05,2.079856983758802e-05,8.463545811602583e-05,8.451037841244534e-05
79.57735026920001,44.42264973080001,8,0,-0.858585830141692,25.89549719950889,2.59208650744306,-2.346387241606052e-05,8.35524597025418e-05,2.073669205954448e-05,8.454774706064201e-05,8.440349767287743e-05
78.4226497308,45.5773502692,8,0,-0.8723305258727088,25.91786563913949,2.589499384273163,-2.352575019410426e-05,8.363503446594451e-05,2.07159950741853e-05,8.462703951057972e-05,8.453842994918935e-05
79.57735026920001,45.5773502692,8,0,-0.8792117561562955,25.89034071800514,2.581764662017714,-2.352575019410426e-05,8.355245970254147e-05,2.065411729614171e-05,8.453934762906889e-05,8.446931638405039e-05
80.4226497308,44.42264973080001,8,0,-0.7229677856543342,25.91041928528947,2.536513131554267,-2.304183234232545e-05,8.349171594144978e-05,2.029210505243413e-05,8.444939762299687e-05,8.431971058304702e-05
81.57735026920001,44.42264973080001,8,0,-0.7299161421668536,25.8826258592394,2.52725871813637,-2.304183234232545e-05,8.340833566329955e-05,2.021806974509096e-05,8.435983473067326e-05,8.41976807361702e-05
80.4226497308,45.5773502692,8,0,-0.7476462214353381,25.90424967634423,2.526090596785536,-2.311586764966846e-05,8.349171594144978e-05,2.020872477428428e-05,8.444096423614744e-05,8.441362088144293e-05
81.57735026920001,45.5773502692,8,0,-0.7545945779478664,25.87645625029411,2.516836183367652,-2.311586764966846e-05,8.340833566329944e-05,2.013468946694122e-05,8.435142658878285e-05,8.43305715036987e-05
82.4226497308,44.42264973080001,8,0,-0.5998903410533964,25.89683356924143,2.43692229077438,-2.263711594676401e-05,8.334977969441529e-05,1.949537832619504e-05,8.423882398335902e-05,8.410590022064977e-05
83.57735026920001,44.42264973080001,8,0,-0.6062734747146044,25.8713010345966,2.426204579116146,-2.263711594676401e-05,8.32731820904808e-05,1.940963663292917e-05,8.415511421617835e-05,8.397718103596923e-05
82.4226497308,45.5773502692,8,0,-0.6284709054753712,25.88968842813594,2.427347590282534,-2.272285764002993e-05,8.334977969441529e-05,1.941878072226027e-05,8.423120726121096e-05,8.426779621599931e-05
83.57735026920001,45.5773502692,8,0,-0.6348540391365791,25.86415589349111,2.416629878624314,-2.272285764002993e-05,8.32731820904808e-05,1.933303902899451e-05,8.41475272110153e-05,8.417934031828177e-05
84.42264973080002,44.42264973080001,8,0,-0.4835857572406423,25.88610996781176,2.300353155991018,-2.225636239741946e-05,8.322242050279012e-05,1.840282524792814e-05,8.401908610588857e-05,8.388385385690124e-05
85.57735026920001,44.42264973080001,8,0,-0.4887595599669332,25.86541475690659,2.288182419613746,-2.225636239741946e-05,8.316033487007463e-05,1.830545935690997e-05,8.394911210551326e-05,8.375759844663009e-05
84.42264973080002,45.5773502692,8,0,-0.5160410542466565,25.87799614356025,2.292592451901622,-2.23537282884375e-05,8.322242050279012e-05,1.834073961521298e-05,8.401304038769344e-05,8.411597444296084e-05
85.57735026920001,45.5773502692,8,0,-0.521214856972934,25.85730093265514,2.280421715524384,-2.23537282884375e-05,8.31603348700748e-05,1.824337372419507e-05,8.394309739076633e-05,8.403131154982819e-05
86.4226497308,44.42264973080001,8,0,-0.3752272137571726,25.88217668532738,2.125973412181796,-2.190646843228485e-05,8.312314716405335e-05,1.700778729745437e-05,8.380722323826924e-05,8.366970013137819e-05
87.57735026920002,44.42264973080001,8,0,-0.3785199695535768,25.86900566214176,2.112311077246559,-2.190646843228485e-05,8.308363409449649e-05,1.689848861797247e-05,8.375925272098919e-05,8.355581287847118e-05
86.4226497308,45.5773502692,8,0,-0.4116601069177879,25.87306846203722,2.121034278487169,-2.20157671117667e-05,8.312314716405335e-05,1.696827422789735e-05,8.38033698969448e-05,8.397433444444591e-05
87.57735026920002,45.5773502692,8,0,-0.4149528627142054,25.85989743885155,2.107371943551966,-2.20157671117667e-05,8.308363409449633e-05,1.685897554841572e-05,8.375542630784151e-05,8.390333299079934e-05
88.42264973080002,44.42264973080001,8,0,-0.2761191056516648,25.88913269838158,1.912797891393836,-2.159488729679059e-05,8.306611991934238e-05,1.530238313115069e-05,8.36224988082334e-05,8.348080802948422e-05
89.57735026920001,44.42264973080001,8,0,-0.2768138178864836,25.8863538494423,1.89755681156187,-2.159488729679059e-05,8.305778337252455e-05,1.518045449249496e-05,8.360542007709164e-05,8.338977822413613e-05
88.42264973080002,45.5773502692,8,0,-0.3167619852036916,25.87897197849357,1.911755823041526,-2.171681593544667e-05,8.306611991934238e-05,1.529404658433221e-05,8.362125600786317e-05,8.386011660102872e-05
89.57735026920001,45.5773502692,8,0,-0.3174566974385105,25.8761931295543,1.89651474320952,-2.171681593544667e-05,8.305778337252455e-05,1.517211794567616e-05,8.360419184271873e-05,8.381304868209719e-05
90.42264973080002,44.42264973080001,8,0,-0.1877739938103939,25.91134544344983,1.659687979261341,-2.132995313495312e-05,8.306652461408776e-05,1.327750383409073e-05,8.348700074304845e-05,8.333530721293056e-05
91.57735026920001,44.42264973080001,8,0,-0.185089155236045,25.92208479774723,1.642735893510519,-2.132995313495312e-05,8.309874267697996e-05,1.314188714808415e-05,8.351058052201153e-05,8.32775194481191e-05
90.42264973080002,45.5773502692,8,0,-0.2329795558124967,25.9000440529493,1.663715237122865,-2.146556982095943e-05,8.306652461408776e-05,1.330972189698292e-05,8.34884918399664e-05,8.379094466416468e-05
91.57735026920001,45.5773502692,8,0,-0.2302947172381478,25.9107834072467,1.646763151372043,-2.146556982095943e-05,8.309874267697996e-05,1.317410521097634e-05,8.351206179420418e-05,8.377762328305057e-05
92.42264973080002,44.42264973080001,8,0,-0.1119943694186869,25.95355709107088,1.365367787048725,-2.11212276549965e-05,8.314097818696176e-05,1.09229422963898e-05,8.342628070226072e-05,8.325047587584541e-05
93.57735026920001,44.42264973080001,8,0,-0.1050634113963866,25.98128092316008,1.346534238493332,-2.11212276549965e-05,8.322414968322937e-05,1.077227390794666e-05,8.350143636445519e-05,8.323437922718387e-05
92.42264973080002,45.5773502692,8,0,-0.1622171655663669,25.94100139203396,1.375764224082176,-2.127189604343954e-05,8.314097818696176e-05,1.100611379265741e-05,8.343021433601815e-05,8.378286098765096e-05
93.57735026920001,45.5773502692,8,0,-0.1552862075440578,25.9687252241232,1.356930675526789,-2.127189604343954e-05,8.322414968322948e-05,1.085544540421431e-05,8.350531934042107e-05,8.381049204384897e-05
94.4226497308,44.42264973080001,8,0,-0.05095870727431251,26.02099798770801,1.028458792668317,-2.097986625344421e-05,8.330796052648509e-05,8.227670341346533e-06,8.346998698498892e-05,8.323868410966371e-05
95.57735026920002,44.42264973080001,8,0,-0.03880837512905355,26.06959931628905,1.007545919128478,-2.097986625344421e-05,8.34537645122282e-05,8.060367353027826e-06,8.360906183445325e-05,8.326654191598133e-05
94.4226497308,45.5773502692,8,0,-0.1067263700473413,26.00705607201476,1.046684290886152,-2.11471692417633e-05,8.330796052648509e-05,8.373474327089212e-06,8.347550325559142e-05,8.384561578506349e-05
95.57735026920002,45.5773502692,8,0,-0.09457603790207791,26.05565740059581,1.025771417346327,-2.11471692417633e-05,8.345376451222825e-05,8.206171338770614e-06,8.361446563178061e-05,8.391394457441952e-05
96.4226497308,44.42264973080001,8,0,-0.007311134111504636,26.11950574385598,0.6475352348256808,-2.09190002242416e-05,8.358826728762834e-05,5.180281878605446e-06,8.365242277000922e-05,8.329817751557704e-05
97.57735026920001,44.42264973080001,8,0,0.01116090175727891,26.19339388733112,0.6243329962441445,-2.09190002242416e-05,8.380993171805374e-05,4.994663969953156e-06,8.386944845984643e-05,8.335674977468649e-05
96.4226497308,45.5773502692,8,0,-0.06918377032897993,26.10403758480161,0.675243288628829,-2.110461813289403e-05,8.358826728762834e-05,5.401946309030632e-06,8.365790341201547e-05,8.397219456777594e-05
97.57735026920001,45.5773502692,8,0,-0.05071173446019639,26.17792572827675,0.6520410500472792,-2.110461813289403e-05,8.380993171805374e-05,5.216328400378233e-06,8.387473037218922e-05,8.406300771981698e-05
98.42264973080002,44.42264973080001,8,0,0.01574638928354233,26.2556480599905,0.2212032133998396,-2.095413000228506e-05,8.400547668054275e-05,1.769625707198717e-06,8.401293515129975e-05,8.339307178955968e-05
99.57735026920002,44.42264973080001,8,0,0.04179425114041102,26.35983950741797,0.1955097823545004,-2.095413000228506e-05,8.431805102282518e-05,1.564078258836003e-06,8.432386026365886e-05,8.343373312052127e-05
98.42264973080002,45.5773502692,8,0,-0.05276942683738906,26.23851910596027,0.2602750061851428,-2.115967745064786e-05,8.400547668054275e-05,2.082200049481142e-06,8.401578221440938e-05,8.411633774302789e-05
99.57735026920002,45.5773502692,8,0,-0.0267215649805026,26.34271055338781,0.2345815751397969,-2.115967745064786e-05,8.43180510228254e-05,1.876652601118375e-06,8.432639768133192e-05,8.417122492397408e-05
0.4226497308,46.4226497308,8,0,-0.03217755776084608,2.621411353310189,-0.2983309982045426,-2.200097267482859e-06,8.414258376801282e-06,-2.38664798563634e-06,8.546764239182801e-06,1.168277467544285e-05
1.5773502692,46.4226497308,8,0,0.08801690539216456,3.102189205922232,-0.3232170113379532,-2.200097267482859e-06,9.85659193463741e-06,-2.585736090703625e-06,9.99367079120147e-06,1.218580877407762e-05
0.4226497308,47.5773502692,8,0,-0.09854025944994094,2.604820677887916,-0.1180393034750401,-2.399185372550143e-06,8.414258376801282e-06,-9.443144278003211e-07,8.434835449551886e-06,1.235306538217436e-05
1.5773502692,47.5773502692,8,0,0.0216542037030697,3.085598530499958,-0.1429253166084507,-2.399185372550143e-06,9.85659193463741e-06,-1.143402532867606e-06,9.883202585526928e-06,1.283871538097814e-05
2.4226497308,46.4226497308,8,0,-0.06126597084342433,3.404637246172778,-0.7122313843686449,-2.91976090363718e-06,1.094385196442763e-05,-5.697851074949159e-06,1.150646459773913e-05,1.280251584626079e-05
3.5773502692,46.4226497308,8,0,0.06607703621623717,3.914009274411424,-0.7347978352897335,-2.91976090363718e-06,1.247196804914357e-05,-5.878382682317869e-06,1.301413584866174e-05,1.398435680228911e-05
2.4226497308,47.5773502692,8,0,-0.1214431732999137,3.38959294555852,-0.521216873779044,-3.10029251100654e-06,1.09438519644272e-05,-4.169734990232352e-06,1.124681699514153e-05,1.343505865908765e-05
3.5773502692,47.5773502692,8,0,0.005899833759802187,3.898964973797384,-0.5437833247002276,-3.10029251100654e-06,1.247196804914379e-05,-4.350266597601821e-06,1.277008353511606e-05,1.457864879490051e-05
4.422649730800001,46.4226497308,8,0,-0.1083792967598913,4.228093088782475,-1.081484982455195,-3.729288220657631e-06,1.361660132151183e-05,-8.651879859641561e-06,1.46355979080037e-05,1.497820009432904e-05
5.577350269200001,46.4226497308,8,0,0.02487738420361874,4.761119812636515,-1.102123361707599,-3.729288220657631e-06,1.521568149307395e-05,-8.816986893660792e-06,1.619129616838616e-05,1.651158950703076e-05
4.422649730800001,47.5773502692,8,0,-0.1634149747660305,4.214334169281075,-0.8815999610100657,-3.894395254676157e-06,1.361660132151226e-05,-7.052799688080525e-06,1.430007787885905e-05,1.554207246617689e-05
5.577350269200001,47.5773502692,8,0,-0.0301582938025835,4.747360893134863,-0.9022383402623475,-3.894395254676157e-06,1.521568149307363e-05,-7.21790672209878e-06,1.587452106483972e-05,1.703060474961753e-05
6.422649730800001,46.4226497308,8,0,-0.1710285920922174,5.084730778892133,-1.408622423368608,-4.615076117808802e-06,1.64079613661286e-05,-1.126897938694886e-05,1.782286289046901e-05,1.769890015007873e-05
7.577350269200001,46.4226497308,8,0,-0.03283784054175309,5.637493785093991,-1.42766454461336,-4.615076117808802e-06,1.806625038473417e-05,-1.142131635690688e-05,1.942291991676315e-05,1.940930373868927e-05
6.422649730800001,47.5773502692,8,0,-0.2218075820780077,5.072036031395686,-1.201336296043033,-4.767413087766173e-06,1.64079613661286e-05,-9.610690368344263e-06,1.744741751813337e-05,1.818494580425398e-05
7.577350269200001,47.5773502692,8,0,-0.08361683052754332,5.624799037597543,-1.22037841728765,-4.767413087766173e-06,1.806625038473417e-05,-9.7630273383012e-06,1.906606967023513e-05,1.985013193147683e-05
8.4226497308,46.4226497308,8,0,-0.2475661015836372,5.968865006312784,-1.695846330703073,-5.567303530117865e-06,1.929842090146782e-05,-1.356677064562458e-05,2.102855198916257e-05,2.069307568112528e-05
9.5773502692,46.4226497308,8,0,-0.1052274818467818,6.538219485260206,-1.713521038197697,-5.567303530117865e-06,2.100648433831008e-05,-1.370816830558157e-05,2.267017634554301e-05,2.249000226473045e-05
8.4226497308,47.5773502692,8,0,-0.294698654902706,5.957081867983017,-1.482338401097695,-5.708701190075072e-06,1.929842090146782e-05,-1.185870720878156e-05,2.063307769583876e-05,2.11014178312031e-05
9.5773502692,47.5773502692,8,0,-0.1523600351658596,6.526436346930402,-1.500013108592319,-5.708701190075072e-06,2.100648433830997e-05,-1.200010486873855e-05,2.229218060592957e-05,2.285480835697231e-05
10.4226497308,46.4226497308,8,0,-0.3369122280202954,6.875838314032365,-1.944863127236168,-6.578789780890837e-06,2.22722123873198e-05,-1.555890501788934e-05,2.423618850251676e-05,2.38200626178205e-05
11.5773502692,46.4226497308,8,0,-0.1910814028732828,7.459161614620416,-1.96127391898304,-6.578789780890837e-06,2.402218228908396e-05,-1.569019135186432e-05,2.591618371582027e-05,2.565692849614485e-05
10.4226497308,47.5773502692,8,0,-0.3806743393455958,6.864897786200904,-1.726116889515608,-6.710076114866629e-06,2.227221238731937e-05,-1.380893511612486e-05,2.383301300176594e-05,2.415371283750915e-05
11.5773502692,47.5773502692,8,0,-0.2348435141985199,7.448221086789208,-1.742527681262561,-6.710076114866629e-06,2.402218228908428e-05,-1.394022145010049e-05,2.552911949992376e-05,2.594899534689631e-05
12.4226497308,46.4226497308,8,0,-0.4382935253761988,7.801683506315221,-2.156812252551702,-7.643886086256013e-06,2.531602204050966e-05,-1.725449802041361e-05,2.743763542224614e-05,2.700729668232923e-05
13.5773502692,46.4226497308,8,0,-0.2895546890317999,8.396638851692817,-2.171933348751466,-7.643886086256013e-06,2.710088807664245e-05,-1.737546679001173e-05,2.915210891057301e-05,2.88597052977421e-05
12.4226497308,47.5773502692,8,0,-0.4786164485753184,7.791602775515441,-1.93370399803513,-7.764854855853371e-06,2.531602204050966e-05,-1.546963198428104e-05,2.703519701896876e-05,2.726951410838028e-05
13.5773502692,47.5773502692,8,0,-0.3298776122308742,8.386558120893218,-1.94882509423484,-7.764854855853371e-06,2.710088807664299e-05,-1.559060075387872e-05,2.876439625485729e-05,2.908195594786864e-05
14.4226497308,46.4226497308,8,0,-0.5510090835797201,8.74280861943728,-2.332279178650132,-8.757475963004928e-06,2.841779484906307e-05,-1.865823342920105e-05,3.062757776026949e-05,3.021648078378432e-05
15.5773502692,46.4226497308,8,0,-0.3999265689876901,9.3471386778054,-2.345966860215837,-8.757475963004928e-06,3.023078502416743e-05,-1.87677348817267e-05,3.237176700656948e-05,3.207085173086034e-05
14.4226497308,47.5773502692,8,0,-0.5875095677549527,8.733683498393473,-2.105655406762087,-8.866977415530625e-06,2.841779484906307e-05,-1.684524325409669e-05,3.023217082072775e-05,3.040990359697946e-05
15.5773502692,47.5773502692,8,0,-0.436427053162959,9.338013556761448,-2.119343088327792,-8.866977415530625e-06,3.0230785024167e-05,-1.695474470662234e-05,3.198975679246418e-05,3.222548220480776e-05
16.4226497308,46.4226497308,8,0,-0.6742378491882488,9.695723716634035,-2.471375927181119,-9.914140090709622e-06,3.156570617257951e-05,-1.977100741744895e-05,3.38011523542176e-05,3.34259103468692e-05
17.5773502692,46.4226497308,8,0,-0.5213976636373343,10.30708445883769,-2.483391564394444,-9.914140090709622e-06,3.339978839919048e-05,-1.986713251515555e-05,3.556927665772346e-05,3.527362838612073e-05
16.4226497308,47.5773502692,8,0,-0.7062795484236015,9.687713291825197,-2.242115648854761,-1.001026518841568e-05,3.156570617257951e-05,-1.793692519083808e-05,3.34178103765767e-05,3.355244491353513e-05
17.5773502692,47.5773502692,8,0,-0.553439362872687,10.29907403402886,-2.254131286068099,-1.001026518841568e-05,3.339978839919048e-05,-1.803305028854479e-05,3.519807868611041e-05,3.536219584585337e-05
18.4226497308,46.4226497308,8,0,-0.8068949770376892,10.6568230353928,-2.573871337215844,-1.110752235483484e-05,3.47473496948871e-05,-2.059097069772675e-05,3.695284706910936e-05,3.662139687074813e-05
19.5773502692,46.4226497308,8,0,-0.6529346687290256,11.27266426862745,-2.583912341902708,-1.110752235483484e-05,3.659487339459106e-05,-2.067129873522167e-05,3.87380073618183e-05,3.845585080849532e-05
18.4226497308,47.5773502692,8,0,-0.8336709895361745,10.65012903226818,-2.34293087475289,-1.11878503923303e-05,3.47473496948871e-05,-1.874344699802312e-05,3.658579434012591e-05,3.668240303749255e-05
19.5773502692,47.5773502692,8,0,-0.6797106812275109,11.26597026550283,-2.352971879439727,-1.11878503923303e-05,3.659487339459106e-05,-1.882377503551781e-05,3.838192266247856e-05,3.847952522940372e-05
20.4226497308,46.4226497308,8,0,-0.947541121954449,11.62223056485813,-2.639352834876482,-1.232991604214074e-05,3.794917070510957e-05,-2.111482267901186e-05,4.007600910879232e-05,3.979169242873893e-05
21.5773502692,46.4226497308,8,0,-0.793167341842413,12.23972568530627,-2.647087769238698,-1.232991604214074e-05,3.980165606645399e-05,-2.117670215390959e-05,4.187016192002686e-05,4.160682566851761e-05
20.4226497308,47.5773502692,8,0,-0.9681676135872794,11.61707394194992,-2.407792164708293,-1.239179551703923e-05,3.794917070510957e-05,-1.926233731766635e-05,3.972887552992481e-05,3.978826237753525e-05
21.5773502692,47.5773502692,8,0,-0.8137938334752075,12.23456906239821,-2.415527099070577,-1.239179551703923e-05,3.980165606645443e-05,-1.932421679256462e-05,4.153289167526896e-05,4.156667656822422e-05
22.4226497308,46.4226497308,8,0,-1.094344580218151,12.58771196096282,-2.667401843641594,-1.357207222546833e-05,4.115615393925553e-05,-2.133921474913275e-05,4.316269298298185e-05,4.292627117503437e-05
23.5773502692,46.4226497308,8,0,-0.9403386097141175,13.20373584297895,-2.67250611077886,-1.357207222546833e-05,4.300422558530393e-05,-2.138004888623088e-05,4.495671144653116e-05,4.471593009703118e-05
22.4226497308,47.5773502692,8,0,-1.107955959250825,12.58430911620451,-2.436392887885503,-1.361290636256625e-05,4.11561539392551e-05,-1.949114310308402e-05,4.283859226550696e-05,4.285951229496254e-05
23.5773502692,47.5773502692,8,0,-0.9539499887467286,13.2003329982209,-2.441497155022715,-1.361290636256625e-05,4.300422558530426e-05,-1.953197724018172e-05,4.46414346260249e-05,4.461319099571305e-05
24.4226497308,46.4226497308,8,0,-1.245092440522248,13.54865087690334,-2.657766288231326,-1.482321651119386e-05,4.435175675850849e-05,-2.126213030585061e-05,4.620371845935874e-05,4.601435655158422e-05
25.5773502692,46.4226497308,8,0,-1.092304775181673,14.15980153826564,-2.659955229309324,-1.482321651119386e-05,4.618520874259539e-05,-2.127964183447459e-05,4.798753999055184e-05,4.777206467346865e-05
24.4226497308,47.5773502692,8,0,-1.250929616730223,13.54719158285135,-2.428584790220437,-1.484072803981779e-05,4.435175675850849e-05,-1.94286783217635e-05,4.59052486998283e-05,4.588563818275534e-05
25.5773502692,47.5773502692,8,0,-1.098141951389666,14.15834224421358,-2.430773731298421,-1.484072803981779e-05,4.618520874259517e-05,-1.944618985038737e-05,4.76969154468068e-05,4.760834984710025e-05
26.4226497308,46.4226497308,8,0,-1.397243622923652,14.50008347634217,-2.610515918182257,-1.607124637442942e-05,4.751806202263386e-05,-2.088412734545806e-05,4.918886358597005e-05,4.904461339528494e-05
27.57735026920001,46.4226497308,8,0,-1.246579381576221,15.10274044173189,-2.609572746659848,-1.607124637442942e-05,4.932603291880303e-05,-2.087658197327878e-05,5.0951713417836e-05,5.076357303665726e-05
26.4226497308,47.5773502692,8,0,-1.394728498864038,14.50071225735707,-2.384519556161138,-1.606370100225058e-05,4.751806202263386e-05,-1.90761564492891e-05,4.891806907253024e-05,4.885576012317333e-05
27.57735026920001,47.5773502692,8,0,-1.244064257516616,15.10336922274676,-2.383576384638755,-1.606370100225058e-05,4.932603291880292e-05,-1.906861107711004e-05,5.068784383015711e-05,5.054103671108849e-05
28.4226497308,46.4226497308,8,0,-1.548014182038696,15.43678138370919,-2.526169324620781,-1.730307048949118e-05,5.063611177350035e-05,-2.020935459696625e-05,5.210714175602396e-05,5.200519397675725e-05
29.5773502692,46.4226497308,8,0,-1.400411590627175,16.02719174935527,-2.521966099294177,-1.730307048949118e-05,5.240734287043861e-05,-2.017572879435341e-05,5.383781436794333e-05,5.367840582762373e-05
28.4226497308,47.5773502692,8,0,-1.536805581167752,15.43958353392692,-2.304765437503538,-1.726944468687834e-05,5.063611177350035e-05,-1.843812350002831e-05,5.18654632272712e-05,5.17586199458543e-05
29.5773502692,47.5773502692,8,0,-1.38920298975624,16.02999389957298,-2.300562212176934,-1.726944468687834e-05,5.24073428704385e-05,-1.840449769741547e-05,5.360219852824374e-05,5.339984261790477e-05
30.4226497308,46.4226497308,8,0,-1.694483814939971,16.35337090276285,-2.40578529044926,-1.850504493001819e-05,5.36863739407931e-05,-1.924628232359408e-05,5.494712426089834e-05,5.48839650986098e-05
31.5773502692,46.4226497308,8,0,-1.550888250616688,16.92775316005599,-2.398295987381929,-1.850504493001819e-05,5.54095207126725e-05,-1.918636789905543e-05,5.663430085060665e-05,5.650440242775299e-05
30.4226497308,47.5773502692,8,0,-1.674512340093539,16.3583637714746,-2.190391943964485,-1.8445130505479e-05,5.368637394079353e-05,-1.752313555171588e-05,5.473535670676383e-05,5.458275074027832e-05
31.5773502692,47.5773502692,8,0,-1.530916775770302,16.93274602876755,-2.182902640897072,-1.8445130505479e-05,5.540952071267239e-05,-1.746322112717658e-05,5.642779299943784e-05,5.617329315937565e-05
32.4226497308,46.4226497308,8,0,-1.833712295112455,17.24447520401766,-2.251015097250899,-1.966345950757398e-05,5.664929048894646e-05,-1.800812077800719e-05,5.769727821343281e-05,5.766881599560261e-05
33.57735026920001,46.4226497308,8,0,-1.6950483578844,17.79913095292988,-2.240320682401646,-1.966345950757398e-05,5.831325773568311e-05,-1.792256545921317e-05,5.932985750884185e-05,5.922961569498237e-05
32.4226497308,47.5773502692,8,0,-1.805193855514482,17.25160481391715,-2.043019191408845,-1.957790418878006e-05,5.664929048894646e-05,-1.634415353127076e-05,5.751554872668125e-05,5.731673292664013e-05
33.57735026920001,47.5773502692,8,0,-1.666529918286428,17.80626056282937,-2.032324776559606,-1.957790418878006e-05,5.831325773568311e-05,-1.625859821247685e-05,5.915264605136381e-05,5.885012604723693e-05
34.42264973080001,46.4226497308,8,0,-1.962855496551594,18.10486637427373,-2.064116145583927,-2.076503068838408e-05,5.950585679491719e-05,-1.651292916467141e-05,6.034629683554229e-05,6.034798707979247e-05
35.5773502692,46.4226497308,8,0,-1.829999331860765,18.63629103303704,-2.050402272100215,-2.076503068838408e-05,6.110013077120714e-05,-1.640321817680172e-05,6.191371821095943e-05,6.184263482557496e-05
34.42264973080001,47.5773502692,8,0,-1.926285167261734,18.11400895659633,-1.864831898547791,-2.065531970051461e-05,5.950585679491763e-05,-1.491865518838233e-05,6.019406939344202e-05,5.994947952922601e-05
35.5773502692,47.5773502692,8,0,-1.793429002570941,18.6454336153595,-1.851118025064094,-2.065531970051461e-05,6.110013077120714e-05,-1.480894420051275e-05,6.176533065553987e-05,6.141957597702884e-05
36.4226497308,46.4226497308,8,0,-2.079272519761216,18.92961556732863,-1.84793031209293,-2.179736451709879e-05,6.223818783126058e-05,-1.478344249674344e-05,6.288340566403137e-05,6.291038371981176e-05
37.5773502692,46.4226497308,8,0,-1.953026208609542,19.43460081193532,-1.831478791543701,-2.179736451709879e-05,6.375314356508067e-05,-1.465183033234961e-05,6.437594698399429e-05,6.433288020293374e-05
36.4226497308,47.5773502692,8,0,-2.035401798296696,18.94058324769476,-1.658560845365351,-2.166575235270523e-05,6.223818783126058e-05,-1.326848676292281e-05,6.275951499582573e-05,6.247051599913555e-05
37.5773502692,47.5773502692,8,0,-1.909155487144986,19.4455684923016,-1.642109324816122,-2.166575235270523e-05,6.37531435650811e-05,-1.313687459852898e-05,6.425528332878582e-05,6.387164108755789e-05
38.4226497308,46.4226497308,8,0,-2.180617793087765,19.71423165917457,-1.60583259506949,-2.27493622652205e-05,6.483003554382883e-05,-1.284666076055592e-05,6.529863420397705e-05,6.534585484156051e-05
39.5773502692,46.4226497308,8,0,-2.06168713754532,20.18995428134435,-1.587008085132888,-2.27493622652205e-05,6.625720341033817e-05,-1.269606468106311e-05,6.670767122737983e-05,6.669085653806321e-05
38.4226497308,47.5773502692,8,0,-2.130419099923313,19.72678133246582,-1.427436611755944,-2.259876618572725e-05,6.483003554382926e-05,-1.141949289404755e-05,6.520134718838702e-05,6.487023432687696e-05
39.5773502692,47.5773502692,8,0,-2.011488444380904,20.20250395463545,-1.408612101819261,-2.259876618572725e-05,6.625720341033817e-05,-1.126889681455408e-05,6.661306438361559e-05,6.619731670448514e-05
40.4226497308,46.4226497308,8,0,-2.264914474668945,20.45478137544823,-1.34165670990057,-2.361155141929921e-05,6.726723198116949e-05,-1.073325367920456e-05,6.75830476536798e-05,6.764542664092739e-05
41.5773502692,46.4226497308,8,0,-2.153891015817607,20.89887521085359,-1.320890131841263,-2.361155141929921e-05,6.859951348738556e-05,-1.056712105473011e-05,6.890126639585397e-05,6.89083589649467e-05
40.4226497308,47.5773502692,8,0,-2.209536933177604,20.46862576082107,-1.175121521623617,-2.344541879482518e-05,6.726723198116949e-05,-9.400972172988933e-06,6.751014805781957e-05,6.714011077452341e-05
41.5773502692,47.5773502692,8,0,-2.09851347432631,20.91271959622624,-1.154354943564296,-2.344541879482518e-05,6.859951348738502e-05,-9.234839548514368e-06,6.88305656457657e-05,6.8388789697444e-05
42.4226497308,46.4226497308,8,0,-2.33060766072858,21.14798641734422,-1.059604489266617,-2.437633364820683e-05,6.953804266408435e-05,-8.476835914132935e-06,6.97289372506171e-05,6.980148866894743e-05
43.57735026920001,46.4226497308,8,0,-2.227955336643461,21.55859571368469,-1.037374582467255,-2.437633364820683e-05,7.076987055310577e-05,-8.298996659738037e-06,7.095049479782544e-05,7.097863207411085e-05
42.4226497308,47.5773502692,8,0,-2.271327909263686,21.16280635521044,-0.9056260031389666,-2.419849439381215e-05,6.953804266408435e-05,-7.245008025111733e-06,6.967782802191794e-05,6.927288295752931e-05
43.57735026920001,47.5773502692,8,0,-2.168675585178541,21.57341565155102,-0.883396096339618,-2.419849439381215e-05,7.07698705531061e-05,-7.067168770716944e-06,7.090116669512675e-05,7.043959173989368e-05
44.4226497308,46.4226497308,8,0,-2.376597576806007,21.79129534758458,-0.7641454518441537,-2.503814852384688e-05,7.163342317371545e-05,-6.11316361475323e-06,7.172997038833749e-05,7.180793378009966e-05
45.5773502692,46.4226497308,8,0,-2.282644098006556,22.16710926278238,-0.7409596557257175,-2.503814852384688e-05,7.276086491930886e-05,-5.92767724580574e-06,7.285060290507722e-05,7.289648477059758e-05
44.4226497308,47.5773502692,8,0,-2.314768787156843,21.80675254499687,-0.623215233644869,-2.485266215489939e-05,7.163342317371545e-05,-4.985721869158952e-06,7.169778699277598e-05,7.126268602408371e-05
45.5773502692,47.5773502692,8,0,-2.220815308357382,22.18256646019471,-0.6000294375264328,-2.485266215489939e-05,7.276086491930897e-05,-4.800235500211462e-06,7.281984328981502e-05,7.234471264564169e-05
46.42264973080001,46.4226497308,8,0,-2.402253995649148,22.38292972486176,-0.4599120202203349,-2.559355656596668e-05,7.354717831607694e-05,-3.679296161762679e-06,7.358130294280445e-05,7.366025547357656e-05
47.57735026920001,46.4226497308,8,0,-2.317186795220738,22.7231985265754,-0.436287616598961,-2.559355656596668e-05,7.456798472121786e-05,-3.490300932791689e-06,7.459838187888976e-05,7.465836484903856e-05
46.42264973080001,47.5773502692,8,0,-2.339255585992079,22.39867932727603,-0.33231121957772,-2.540456133699547e-05,7.354717831607694e-05,-2.65848975662176e-06,7.356503119291871e-05,7.310514982999125e-05
47.57735026920001,47.5773502692,8,0,-2.254188385563642,22.73894812898978,-0.3086868159563733,-2.540456133699547e-05,7.456798472121819e-05,-2.469494527650986e-06,7.458323259043942e-05,7.41006762321292e-05
48.4226497308,46.4226497308,8,0,-2.407413628758222,22.92190514740397,-0.1515948823021293,-2.604124772994949e-05,7.527602737469928e-05,-1.212759058417034e-06,7.527965640008748e-05,7.535560652507975e-05
49.57735026920001,46.4226497308,8,0,-2.331280120576666,23.2264391801302,-0.1280410950079536,-2.604124772994949e-05,7.618962947287795e-05,-1.024328760063629e-06,7.619219529032892e-05,7.626239683379775e-05
48.4226497308,47.5773502692,8,0,-2.344603529307196,22.93760767226673,-0.03739462002975481,-2.585281743159641e-05,7.527602737469928e-05,-2.991569602380385e-07,7.527624861397884e-05,7.479745974222897e-05
49.57735026920001,47.5773502692,8,0,-2.268470021125667,23.24214170499284,-0.01384083273561982,-2.585281743159641e-05,7.618962947287763e-05,-1.107266618849585e-07,7.618965951035324e-05,7.570558129164066e-05
50.42264973080001,46.4226497308,8,0,-2.392362324047325,23.4080285594904,0.1561578668898654,-2.638198228454376e-05,7.681958124960715e-05,1.249262935118923e-06,7.682336171731488e-05,7.689282207136805e-05
51.57735026920001,46.4226497308,8,0,-2.325074143860844,23.67718128023633,0.1791562913478238,-2.638198228454376e-05,7.762703941184492e-05,1.43325033078259e-06,7.763197674556877e-05,7.770838554213902e-05
50.42264973080001,47.5773502692,8,0,-2.331033192159473,23.42336084246237,0.2570901371696274,-2.61979948888802e-05,7.681958124960715e-05,2.056721097357019e-06,7.682984571222141e-05,7.633838350083757e-05
51.57735026920001,47.5773502692,8,0,-2.263745011972992,23.69251356320829,0.2800885616275858,-2.61979948888802e-05,7.762703941184492e-05,2.240708493020686e-06,7.763912751298485e-05,7.715910973816717e-05
52.4226497308,46.4226497308,8,0,-2.357803782474692,23.84187355195164,0.4588347567936039,-2.661847094548032e-05,7.818023839222497e-05,3.670678054348831e-06,7.821237081898004e-05,7.827240909856757e-05
53.5773502692,46.4226497308,8,0,-2.299144652564616,24.07651007159194,0.4808320577618717,-2.661847094548032e-05,7.888414795114589e-05,3.846656462094973e-06,7.891919886226686e-05,7.899778664069058e-05
52.4226497308,47.5773502692,8,0,-2.299144313226321,23.85653841926373,0.5468234516587257,-2.644249253773521e-05,7.818023839222497e-05,4.374587613269806e-06,7.822594705297554e-05,7.772826593940934e-05
53.5773502692,47.5773502692,8,0,-2.240485183316254,24.091174938904,0.5688207526269122,-2.644249253773521e-05,7.888414795114579e-05,4.550566021015298e-06,7.893327606519459e-05,7.846250336138233e-05
54.42264973080001,46.4226497308,8,0,-2.304816408691132,24.22473565213265,0.7521454038799584,-2.675520102951774e-05,7.936300721377736e-05,6.017163231039667e-06,7.944823574885889e-05,7.949650324278447e-05
55.57735026920001,46.4226497308,8,0,-2.254453218997895,24.4261884109056,0.7727470022146545,-2.675520102951774e-05,7.996736549009621e-05,6.181976017717236e-06,8.005681429266854e-05,8.013364479621801e-05
54.42264973080001,47.5773502692,8,0,-2.249878813131798,24.23847005102248,0.827690188419882,-2.659038824283973e-05,7.936300721377736e-05,6.621521507359056e-06,7.946635883515082e-05,7.896899282292788e-05
55.57735026920001,47.5773502692,8,0,-2.199515623438561,24.43992280979543,0.8482917867546051,-2.659038824283973e-05,7.996736549009621e-05,6.786334294036842e-06,8.007530631713627e-05,7.961851034345435e-05
56.4226497308,46.4226497308,8,0,-2.234800013951038,24.55856993660478,1.032092776849882,-2.679821599392714e-05,8.037526380829611e-05,8.256742214799058e-06,8.05340552677525e-05,8.056879350590179e-05
57.57735026920001,46.4226497308,8,0,-2.192296626169942,24.72858348772916,1.050964753414612,-2.679821599392714e-05,8.088530446166925e-05,8.407718027316901e-06,8.104916963562369e-05,8.112050033622294e-05
56.4226497308,47.5773502692,8,0,-2.18447474311192,24.57115125431456,1.095847858521512,-2.664724018140979e-05,8.037526380829611e-05,8.766782868172094e-06,8.05544971020031e-05,8.00639250492425e-05
57.57735026920001,47.5773502692,8,0,-2.141971355330803,24.74116480543903,1.114719835086235,-2.664724018140979e-05,8.088530446166952e-05,8.917758680689883e-06,8.106987684459874e-05,8.063130313541931e-05
58.4226497308,46.4226497308,8,0,-2.149414468656579,24.84591382247179,1.295030740266249,-2.675485735767849e-05,8.122645580683498e-05,1.036024592212999e-05,8.147438947243531e-05,8.149441628417062e-05
59.57735026920001,46.4226497308,8,0,-2.114247622429027,24.986581207382,1.311906208701844,-2.675485735767849e-05,8.164845796156562e-05,1.049524966961475e-05,8.190189427356162e-05,8.196426682144623e-05
58.4226497308,47.5773502692,8,0,-2.104413219495194,24.85716413476214,1.347781009607558,-2.661985361019433e-05,8.122645580683498e-05,1.078224807686047e-05,8.149528235123401e-05,8.101780525272695e-05
59.57735026920001,47.5773502692,8,0,-2.069246373267641,24.99783151967235,1.364656478043078,-2.661985361019433e-05,8.164845796156562e-05,1.091725182434462e-05,8.192297261982498e-05,8.150637058831258e-05
60.4226497308,46.4226497308,8,0,-2.05051299990587,25.0897985979286,1.53770464582818,-2.663348047804166e-05,8.19277659132962e-05,1.230163716662544e-05,8.227514491206063e-05,8.227982205015039e-05
61.5773502692,46.4226497308,8,0,-2.022089553206627,25.20349238472557,1.552386706416863,-2.663348047804166e-05,8.226884727368712e-05,1.24190936513349e-05,8.262176827492285e-05,8.26720844303252e-05
60.4226497308,47.5773502692,8,0,-2.011360838336068,25.09958663832105,1.580339815876984,-2.651602399333225e-05,8.19277659132962e-05,1.264271852701587e-05,8.229500426750555e-05,8.183664048008166e-05
61.5773502692,47.5773502692,8,0,-1.982937391636838,25.21328042511796,1.595021876465687,-2.651602399333225e-05,8.226884727368695e-05,1.27601750117255e-05,8.264175260257756e-05,8.225038926905784e-05
62.42264973080001,46.4226497308,8,0,-1.940073476440904,25.29365402100931,1.757273365008964,-2.644315834141834e-05,8.24917516483825e-05,1.405818692007171e-05,8.294343547130606e-05,8.293262081821786e-05
63.57735026920001,46.4226497308,8,0,-1.917748083396375,25.38295559318743,1.769634481358087,-2.644315834141834e-05,8.275965636491686e-05,1.41570758508647e-05,8.321657612135483e-05,8.325215708701657e-05
62.42264973080001,47.5773502692,8,0,-1.907110499509855,25.30189476524207,1.790761454575766,-2.634426941062519e-05,8.24917516483825e-05,1.432609163660612e-05,8.29611631332555e-05,8.252756685294389e-05
63.57735026920001,47.5773502692,8,0,-1.884785106465325,25.39119633742019,1.803122570924882,-2.634426941062519e-05,8.275965636491686e-05,1.442498056739906e-05,8.323438401002458e-05,8.287108130589579e-05
64.4226497308,46.4226497308,8,0,-1.82013149969537,25.46121095296221,1.951312139769878,-2.619338956139495e-05,8.293198024923536e-05,1.561049711815902e-05,8.348742747070511e-05,8.346141558742197e-05
65.57735026920001,46.4226497308,8,0,-1.803223758795292,25.52884191656252,1.961290004636622,-2.619338956139495e-05,8.31348731400363e-05,1.569032003709297e-05,8.369495560939141e-05,8.37135841736708e-05
64.4226497308,47.5773502692,8,0,-1.793523860050739,25.46786286287337,1.976673751119995,-2.611356664246106e-05,8.293198024923536e-05,1.581339000895996e-05,8.350229756911892e-05,8.309870456256348e-05
65.57735026920001,47.5773502692,8,0,-1.776616119150689,25.53549382647357,1.986651615986772,-2.611356664246106e-05,8.313487314003597e-05,1.589321292789418e-05,8.370987383223696e-05,8.337706841183848e-05
66.4226497308,46.4226497308,8,0,-1.692719237954691,25.59640730016462,2.117796868252753,-2.58938274015867e-05,8.326267875089052e-05,1.694237494602203e-05,8.391618036393233e-05,8.387563561932018e-05
67.57735026920001,46.4226497308,8,0,-1.680529360324517,25.64516681068532,2.125387083339947,-2.58938274015867e-05,8.340895728245262e-05,1.700309666671958e-05,8.406625330840837e-05,8.406619981604432e-05
66.4226497308,47.5773502692,8,0,-1.672478664389011,25.60146744355604,2.136081684698008,-2.583310568088967e-05,8.326267875089052e-05,1.708865347758407e-05,8.392781094605401e-05,8.355901365148373e-05
67.57735026920001,47.5773502692,8,0,-1.66028878675881,25.65022695407685,2.143671899785182,-2.583310568088967e-05,8.340895728245294e-05,1.714937519828146e-05,8.40779099529279e-05,8.3777733441136e-05
68.42264973080002,46.4226497308,8,0,-1.559813612592002,25.70330238335477,2.255071744628242,-2.555404546697822e-05,8.349841851680887e-05,1.804057395702593e-05,8.42394965047626e-05,8.418538309539557e-05
69.57735026920001,46.4226497308,8,0,-1.55163577042376,25.73601375202774,2.260317883006981,-2.555404546697822e-05,8.359655262282778e-05,1.808254306405585e-05,8.434039905900076e-05,8.432043367328553e-05
68.42264973080002,47.5773502692,8,0,-1.545823910248696,25.7067998089406,2.267338507880551,-2.551207635994831e-05,8.349841851680887e-05,1.81387080630444e-05,8.42478105295023e-05,8.391816237998072e-05
69.57735026920001,47.5773502692,8,0,-1.53764606808044,25.73951117761363,2.272584646259324,-2.551207635994831e-05,8.359655262282794e-05,1.818067717007459e-05,8.434872495907965e-05,8.408310158612156e-05
70.4226497308,46.4226497308,8,0,-1.423296706627401,25.78600421384225,2.361803314423085,-2.518335283228148e-05,8.36538508495971e-05,1.889442651538468e-05,8.446779434796839e-05,8.440130707160264e-05
71.57735026920001,46.4226497308,8,0,-1.418429409901925,25.80547340074415,2.364785118506239,-2.518335283228148e-05,8.371225841030281e-05,1.891828094804991e-05,8.452781203798639e-05,8.44872067269051e-05
70.4226497308,47.5773502692,8,0,-1.415345229072217,25.78799208323104,2.369104259511239,-2.515949839961592e-05,8.36538508495971e-05,1.895283407608991e-05,8.447297385242873e-05,8.418642026825363e-05
71.57735026920001,47.5773502692,8,0,-1.410477932346755,25.80746127013289,2.37208606359448,-2.515949839961592e-05,8.371225841030265e-05,1.897668850875584e-05,8.453299530531536e-05,8.430375295108069e-05
72.4226497308,46.4226497308,8,0,-1.284930254859341,25.84861312580841,2.43692480902423,-2.479066731619662e-05,8.374350620647436e-05,1.949539847219384e-05,8.46120190696983e-05,8.453451764282463e-05
73.57735026920001,46.4226497308,8,0,-1.282683337687307,25.85760079449654,2.437745373746839,-2.479066731619662e-05,8.377046921253877e-05,1.950196298997471e-05,8.463935000451494e-05,8.45778738135724e-05
72.4226497308,47.5773502692,8,0,-1.282742082265682,25.84916016895682,2.440295184782254,-2.478410279841564e-05,8.374350620647436e-05,1.952236147825803e-05,8.46144559748295e-05,8.437458705165212e-05
73.57735026920001,47.5773502692,8,0,-1.280495165093648,25.85814783764496,2.441115749504896,-2.478410279841564e-05,8.377046921253877e-05,1.952892599603917e-05,8.464178712193927e-05,8.445077673050293e-05
74.4226497308,46.4226497308,8,0,-1.146344980407497,25.89518396320439,2.479574994933328,-2.438445110786749e-05,8.378166466658002e-05,1.983659995946662e-05,8.468360314128006e-05,8.459655096434031e-05
75.57735026920001,46.4226497308,8,0,-1.146043018474838,25.89639181093502,2.478347789597793,-2.438445110786749e-05,8.378528820977192e-05,1.982678231678234e-05,8.468631174430487e-05,8.46042217184333e-05
74.4226497308,47.5773502692,8,0,-1.149617527968832,25.89436582631405,2.480027937832268,-2.43942687505515e-05,8.378166466658002e-05,1.984022350265814e-05,8.468384943830912e-05,8.449396679758233e-05
75.57735026920001,47.5773502692,8,0,-1.149315566036183,25.89557367404465,2.478800732496787,-2.43942687505515e-05,8.378528820977182e-05,1.98304058599743e-05,8.468655795726067e-05,8.453577457637976e-05
76.42264973080002,46.4226497308,8,0,-1.009044545553674,25.92970774570069,2.489035724240423,-2.39727087423323e-05,8.378230042268512e-05,1.991228579392338e-05,8.469448721933065e-05,8.459939234255196e-05
77.57735026920001,46.4226497308,8,0,-1.010026739663237,25.92577896926243,2.485872232295316,-2.39727087423323e-05,8.377051409337035e-05,1.988697785836253e-05,8.46805007613792e-05,8.457852748818172e-05
76.42264973080002,47.5773502692,8,0,-1.017480524073912,25.92759875107063,2.48756243307607,-2.399801667789302e-05,8.378230042268512e-05,1.990049946460856e-05,8.469320626270253e-05,8.45563932552023e-05
77.57735026920001,47.5773502692,8,0,-1.018462718183494,25.9236699746323,2.484398941130997,-2.399801667789302e-05,8.377051409337013e-05,1.987519152904797e-05,8.467922148462171e-05,8.457091675453539e-05
78.4226497308,46.4226497308,8,0,-0.8744231146378549,25.95611261109747,2.464671992639894,-2.356304405571911e-05,8.375909884722216e-05,1.971737594111915e-05,8.465720918782657e-05,8.455555975966269e-05
79.57735026920001,46.4226497308,8,0,-0.8760398398998577,25.94964571004946,2.459670624302047,-2.356304405571911e-05,8.373969814407813e-05,1.967736499441637e-05,8.463435617719622e-05,8.451367561278178e-05
78.4226497308,47.5773502692,8,0,-0.8877600968720332,25.95277836553892,2.462246904746869,-2.360305500242164e-05,8.375909884722216e-05,1.969797523797496e-05,8.465512863325124e-05,8.457430773545782e-05
79.57735026920001,47.5773502692,8,0,-0.8893768221340315,25.94631146449093,2.457245536409083,-2.360305500242164e-05,8.373969814407819e-05,1.965796429127266e-05,8.463227994342837e-05,8.456904856829271e-05
80.4226497308,46.4226497308,8,0,-0.7437950426403726,25.97828296293019,2.405877733835702,-2.316277050679334e-05,8.372554151548891e-05,1.924702187068562e-05,8.458506654408812e-05,8.447824289552433e-05
81.57735026920001,46.4226497308,8,0,-0.7454013697591773,25.97185765445497,2.399114523667224,-2.316277050679334e-05,8.370626559006325e-05,1.919291618933779e-05,8.456115467627353e-05,8.442332305860351e-05
80.4226497308,47.5773502692,8,0,-0.7618302697563228,25.9737741561512,2.403468243157434,-2.32168761881412e-05,8.372554151548891e-05,1.922774594525947e-05,8.458293221868065e-05,8.456088322289378e-05
81.57735026920001,47.5773502692,8,0,-0.7634365968751364,25.96734884767595,2.396705032988935,-2.32168761881412e-05,8.370626559006314e-05,1.917364026391148e-05,8.455902689949737e-05,8.454383425156675e-05
82.4226497308,46.4226497308,8,0,-0.6184349981868582,26.00009518359271,2.312029944079708,-2.277906814107211e-05,8.369505258604614e-05,1.849623955263766e-05,8.449235458154867e-05,8.438148033348156e-05
83.57735026920001,46.4226497308,8,0,-0.6193815457913736,25.99630899317465,2.303551412641345,-2.277906814107211e-05,8.368369401479196e-05,1.842841130113076e-05,8.447528506201176e-05,8.432208371943717e-05
82.4226497308,47.5773502692,8,0,-0.641044415355843,25.99444282930046,2.310610122672894,-2.284689639257906e-05,8.369505258604614e-05,1.848488098138315e-05,8.449088334047778e-05,8.45301751231203e-05
83.57735026920001,47.5773502692,8,0,-0.6419909629603584,25.9906566388824,2.302131591234551,-2.284689639257906e-05,8.368369401479196e-05,1.841705272987641e-05,8.447382065711117e-05,8.450990666154296e-05
84.42264973080002,46.4226497308,8,0,-0.4996268497869449,26.02546798599857,2.182453155398209,-2.241918030811707e-05,8.368119903502495e-05,1.745962524318567e-05,8.439467974223092e-05,8.428033448748617e-05
85.57735026920001,46.4226497308,8,0,-0.4992483364730322,26.02698203925422,2.172271611371692,-2.241918030811707e-05,8.368574119479191e-05,1.737817289097353e-05,8.439259419492619e-05,8.422567007865862e-05
84.42264973080002,47.5773502692,8,0,-0.5267776338577033,26.01868028998088,2.183020925369079,-2.250063266032935e-05,8.368119903502495e-05,1.746416740295263e-05,8.439450821953951e-05,8.449725389382315e-05
85.57735026920001,47.5773502692,8,0,-0.5263991205437817,26.02019434323656,2.172839381342528,-2.250063266032935e-05,8.368574119479202e-05,1.738271505074022e-05,8.439242595628565e-05,8.448295435113213e-05
86.4226497308,46.4226497308,8,0,-0.3887198098239164,26.05842540909019,2.01639584196915,-2.209064371870868e-05,8.369793715694773e-05,1.61311667357532e-05,8.430934357455251e-05,8.419097804028403e-05
87.57735026920002,46.4226497308,8,0,-0.3863216574495922,26.06801801858749,2.004487340095352,-2.209064371870868e-05,8.372671498543962e-05,1.603589872076281e-05,8.433079918306676e-05,8.41508620376501e-05
86.4226497308,47.5773502692,8,0,-0.4204758148207031,26.05048640784099,2.019993070530589,-2.218591173369904e-05,8.369793715694773e-05,1.615994456424471e-05,8.431096874796327e-05,8.447822503820565e-05
87.57735026920002,47.5773502692,8,0,-0.4180776624463558,26.06007901733838,2.008084568656804,-2.218591173369904e-05,8.372671498543989e-05,1.606467654925443e-05,8.433241785747766e-05,8.447960385769607e-05
88.42264973080002,46.4226497308,8,0,-0.2871905568312023,26.10317053086038,1.813020093639905,-2.180154620654815e-05,8.375989814421816e-05,1.450416074911924e-05,8.425578718908864e-05,8.413051305095927e-05
89.57735026920001,46.4226497308,8,0,-0.2820338695603217,26.1237972799439,1.79932524777213,-2.180154620654815e-05,8.382177839146872e-05,1.439460198217704e-05,8.430995489466336e-05,8.411503458806893e-05
88.42264973080002,47.5773502692,8,0,-0.3237101458119911,26.09404063361518,1.820755124546232,-2.191110497349051e-05,8.375989814421816e-05,1.456604099636986e-05,8.425949396553817e-05,8.448994131884272e-05
89.57735026920001,47.5773502692,8,0,-0.3185534585411061,26.11466738269872,1.807060278678443,-2.191110497349051e-05,8.382177839146878e-05,1.445648222942754e-05,8.43136362113108e-05,8.451680496842742e-05
90.42264973080002,46.4226497308,8,0,-0.1967102638965761,26.16416808820627,1.571405833192012,-2.156080731503405e-05,8.388270609337731e-05,1.25712466655361e-05,8.42560780796541e-05,8.411615440951926e-05
91.57735026920001,46.4226497308,8,0,-0.1879954863999549,26.19902719819275,1.555833709866729,-2.156080731503405e-05,8.398728342333677e-05,1.244666967893383e-05,8.435295729647483e-05,8.413469228150743e-05
90.42264973080002,47.5773502692,8,0,-0.2382359260971514,26.15378667265612,1.584477999436938,-2.168538430163578e-05,8.388270609337731e-05,1.26758239954955e-05,8.426184887311314e-05,8.454900650574819e-05
91.57735026920001,47.5773502692,8,0,-0.2295211486005302,26.18864578264261,1.568905876111749,-2.168538430163578e-05,8.398728342333677e-05,1.255124700889399e-05,8.435867105310838e-05,8.461011909220937e-05
92.42264973080002,46.4226497308,8,0,-0.1192155821342693,26.24623427237035,1.290570974415578,-2.137847728072594e-05,8.408332213729252e-05,1.032456779532462e-05,8.433540987861165e-05,8.416301974722323e-05
93.57735026920001,46.4226497308,8,0,-0.1060651391282379,26.29883604439448,1.273006353544487,-2.137847728072594e-05,8.42411274533649e-05,1.01840508283559e-05,8.44860510668109e-05,8.422187395082351e-05
92.42264973080002,47.5773502692,8,0,-0.1660545711239978,26.23452452512292,1.310296638924659,-2.151899424769513e-05,8.408332213729252e-05,1.048237311139727e-05,8.434281172618556e-05,8.466924768155563e-05
93.57735026920001,47.5773502692,8,0,-0.152904128117985,26.28712629714697,1.2927320180535,-2.151899424769513e-05,8.424112745336468e-05,1.0341856144428e-05,8.449334805849746e-05,8.476967740537522e-05
94.4226497308,46.4226497308,8,0,-0.05698260732504679,26.35463193840279,0.9695091841558143,-2.126604989416238e-05,8.438040828874895e-05,7.756073473246515e-06,8.452257073345591e-05,8.427896412131197e-05
95.57735026920002,46.4226497308,8,0,-0.03842285709723026,26.42887093931406,0.9498235598950786,-2.126604989416238e-05,8.460312529148274e-05,7.598588479160629e-06,8.473929424443699e-05,8.437608316410553e-05
94.4226497308,47.5773502692,8,0,-0.1094776053537929,26.3415081888956,0.9973488094975117,-2.142353488824862e-05,8.438040828874895e-05,7.978790475980093e-06,8.453061735585782e-05,8.485596211796882e-05
95.57735026920002,47.5773502692,8,0,-0.09091785512597639,26.41574718980687,0.9776631852368031,-2.142353488824862e-05,8.460312529148274e-05,7.821305481894424e-06,8.474716883949854e-05,8.499126661288143e-05
96.4226497308,46.4226497308,8,0,-0.01270264834573887,26.49516926413856,0.6072472790189802,-2.123678388601721e-05,8.479470376391999e-05,4.857978232151842e-06,8.485031832971345e-05,8.445323444889736e-05
97.57735026920001,46.4226497308,8,0,0.0123544447895938,26.59539763667989,0.5853140735295352,-2.123678388601721e-05,8.509538888154398e-05,4.682512588236282e-06,8.514691445473085e-05,8.456689663603325e-05
96.4226497308,47.5773502692,8,0,-0.07119119631770943,26.48054712714557,0.6448329187220061,-2.141224952993312e-05,8.479470376391999e-05,5.158663349776049e-06,8.485730825788396e-05,8.509344279244494e-05
97.57735026920001,47.5773502692,8,0,-0.04613410318236344,26.58077549968695,0.6228997132325271,-2.141224952993312e-05,8.509538888154414e-05,4.983197705860217e-06,8.515364452608141e-05,8.523728881143492e-05
98.42264973080002,46.4226497308,8,0,0.01044182285822348,26.6742994649558,0.2029247016975604,-2.130602573881832e-05,8.534940482957196e-05,1.623397613580483e-06,8.535558188772443e-05,8.463226810180954e-05
99.57735026920002,46.4226497308,8,0,0.04321676938746855,26.80539925107278,0.1786392628804956,-2.130602573881832e-05,8.57427041879229e-05,1.429114103043965e-06,8.574747368899114e-05,8.469720408054731e-05
98.42264973080002,47.5773502692,8,0,-0.05431934732063315,26.65810917241108,0.252087121491428,-2.150030924935489e-05,8.534940482957196e-05,2.016696971931424e-06,8.535891983990672e-05,8.531855010175993e-05
99.57735026920002,47.5773502692,8,0,-0.02154440079139697,26.78920895852803,0.2278016826743701,-2.150030924935489e-05,8.57427041879228e-05,1.822413461394961e-06,8.575044583697133e-05,8.539671405663593e-05
0.4226497308,48.4226497308,8,0,-0.03082621543179365,3.052825238098647,-0.2818148224309426,-2.540904079860657e-06,9.793701734261105e-06,-2.254518579447541e-06,9.895875572009965e-06,1.283339047318073e-05
1.5773502692,48.4226497308,8,0,0.08264107641345253,3.506694405479632,-0.3053266478939866,-2.540904079860657e-06,1.115530923640406e-05,-2.442613183151893e-06,1.126336204968864e-05,1.330678624297568e-05
0.4226497308,49.5773502692,8,0,-0.09352441666661371,3.037150687789942,-0.1116138846630056,-2.728998683565118e-06,9.793701734261105e-06,-8.929110773040448e-07,9.809598452676035e-06,1.347537231928458e-05
1.5773502692,49.5773502692,8,0,0.01994287517863247,3.491019855170927,-0.1351257101261309,-2.728998683565118e-06,1.115530923640406e-05,-1.081005681009047e-06,1.117631870439696e-05,1.393267301264938e-05
2.4226497308,48.4226497308,8,0,-0.06082108694634147,3.79257443524844,-0.6746174259636959,-3.228687026427045e-06,1.218489506235208e-05,-5.396939407709567e-06,1.264366382391001e-05,1.38886873468453e-05
3.5773502692,48.4226497308,8,0,0.06011835348859051,4.276332196988168,-0.6958985174870905,-3.228687026427045e-06,1.363616834757126e-05,-5.567188139896724e-06,1.408373123729693e-05,1.500507495787014e-05
2.4226497308,49.5773502692,8,0,-0.1175706643422414,3.7783870408996,-0.4932082653113655,-3.398935758614852e-06,1.218489506235251e-05,-3.945666122490924e-06,1.243076641513123e-05,1.44954811567958e-05
3.5773502692,49.5773502692,8,0,0.003368776092636638,4.262144802639112,-0.5144893568348008,-3.398935758614852e-06,1.363616834757105e-05,-4.115914854678406e-06,1.388125754868271e-05,1.557580090821794e-05
4.422649730800001,48.4226497308,8,0,-0.1099305304853115,4.574386624500731,-1.026075036046373,-4.011286997153581e-06,1.472598162279059e-05,-8.208600288370986e-06,1.558557240359291e-05,1.594674163490461e-05
5.577350269200001,48.4226497308,8,0,0.01724879897893805,5.083103942357729,-1.045355929225019,-4.011286997153581e-06,1.625213357636158e-05,-8.362847433800147e-06,1.708107370985935e-05,1.740303522944188e-05
4.422649730800001,49.5773502692,8,0,-0.161346245628311,4.561532695714981,-0.8353060418499854,-4.16553414258258e-06,1.472598162279059e-05,-6.682448334799883e-06,1.5299511185584e-05,1.648844599232458e-05
5.577350269200001,49.5773502692,8,0,-0.03416691616404344,5.070250013572052,-0.8545869350286848,-4.16553414258258e-06,1.62521335763618e-05,-6.836695480229478e-06,1.680923627822292e-05,1.790151898006576e-05
6.422649730800001,48.4226497308,8,0,-0.1754388116892147,5.391227324739038,-1.337814321028893,-4.874386057196717e-06,1.739227848851629e-05,-1.070251456823114e-05,1.861155897647392e-05,1.853359227019735e-05
7.577350269200001,48.4226497308,8,0,-0.0430403221426694,5.920821282925219,-1.355304148225949,-4.874386057196717e-06,1.898106036307484e-05,-1.084243318580759e-05,2.015525191089666e-05,2.016603795199005e-05
6.422649730800001,49.5773502692,8,0,-0.2220783508811837,5.379567439941046,-1.139216586709116,-5.014304674772624e-06,1.739227848851629e-05,-9.113732693672924e-06,1.8283563094828e-05,1.900006647489923e-05
7.577350269200001,49.5773502692,8,0,-0.08967986133460215,5.909161398127372,-1.156706413906036,-5.014304674772624e-06,1.898106036307527e-05,-9.253651311248289e-06,1.984230087341139e-05,2.058828105769822e-05
8.4226497308,48.4226497308,8,0,-0.2553448714824493,6.2371949870463,-1.611353325134269,-5.806859578380878e-06,2.016329985573412e-05,-1.289082660107415e-05,2.167496625196281e-05,2.139375889498073e-05
9.5773502692,48.4226497308,8,0,-0.1185818309626196,6.784247149125619,-1.627200330646118,-5.806859578380878e-06,2.180445634197207e-05,-1.301760264516894e-05,2.326184808918571e-05,2.311550920709755e-05
8.4226497308,49.5773502692,8,0,-0.297603552847399,6.226630316705063,-1.406208764354565,-5.933635622475727e-06,2.016329985573412e-05,-1.124967011483652e-05,2.132402912988872e-05,2.178410738431611e-05
9.5773502692,49.5773502692,8,0,-0.1608405123276146,6.773682478784201,-1.422055769866428,-5.933635622475727e-06,2.180445634197153e-05,-1.137644615893142e-05,2.292561777188199e-05,2.346295108300452e-05
10.4226497308,48.4226497308,8,0,-0.348153857775573,7.107274996375962,-1.847941667208264,-6.799912341982602e-06,2.302180307462353e-05,-1.478353333766612e-05,2.47534179014858e-05,2.439176623737438e-05
11.5773502692,48.4226497308,8,0,-0.2077624712807724,7.668840542355165,-1.86221051756794,-6.799912341982602e-06,2.470649971256114e-05,-1.489768414054352e-05,2.637881371556456e-05,2.615681497563908e-05
10.4226497308,49.5773502692,8,0,-0.3862041254013393,7.097762429469385,-1.637354587466023,-6.914063144859792e-06,2.30218030746231e-05,-1.309883669972818e-05,2.439198192126238e-05,2.470849000105971e-05
11.5773502692,49.5773502692,8,0,-0.2458127389065026,7.659327975448732,-1.651623437825698,-6.914063144859792e-06,2.470649971256114e-05,-1.321298750260559e-05,2.603129221252195e-05,2.643252190944711e-05
12.4226497308,48.4226497308,8,0,-0.4526716490701976,7.997083519540662,-2.048479297466155,-7.846216092657161e-06,2.595280458178627e-05,-1.638783437972924e-05,2.783450103625455e-05,2.745565333031227e-05
13.5773502692,48.4226497308,8,0,-0.3093156835159534,8.57050738175764,-2.061143580356974,-7.846216092657161e-06,2.76730761684372e-05,-1.648914864285579e-05,2.949347182599169e-05,2.923909696798474e-05
12.4226497308,49.5773502692,8,0,-0.4864430701124545,7.988640664280098,-1.833445349134707,-7.947530355783931e-06,2.595280458178627e-05,-1.466756279307766e-05,2.747132755905283e-05,2.770197771588236e-05
13.5773502692,49.5773502692,8,0,-0.3430871045581743,8.562064526497219,-1.846109632025472,-7.947530355783931e-06,2.767307616843764e-05,-1.476887705620378e-05,2.914325097777699e-05,2.944616356878685e-05
14.4226497308,48.4226497308,8,0,-0.5678176317351409,8.902622559304488,-2.21350443115856,-8.93911446899604e-06,2.894264629516247e-05,-1.770803544926848e-05,3.090991216081097e-05,3.054616624125034e-05
15.5773502692,48.4226497308,8,0,-0.4221294231117354,9.48537539379811,-2.224452011490897,-8.93911446899604e-06,3.069090479864334e-05,-1.779561609192718e-05,3.259698157437466e-05,3.233370226730342e-05
14.4226497308,49.5773502692,8,0,-0.5970111792881121,8.895324172416245,-1.994972118223601,-9.026695111654954e-06,2.894264629516247e-05,-1.595977694578881e-05,3.055157512550934e-05,3.072501989539276e-05
15.5773502692,49.5773502692,8,0,-0.4513229706646973,9.478077006909905,-2.005919698555884,-9.026695111654954e-06,3.069090479864344e-05,-1.604735758844707e-05,3.225058651357315e-05,3.247473450250503e-05
16.4226497308,48.4226497308,8,0,-0.6924670912165074,9.820063036209444,-2.34323846403674,-1.007194512086038e-05,3.197817538884342e-05,-1.874590771229392e-05,3.397278982130223e-05,3.364039967482696e-05
17.5773502692,48.4226497308,8,0,-0.5450812452010396,10.40960642027131,-2.352286915480165,-1.007194512086038e-05,3.374680554102903e-05,-1.881829532384132e-05,3.568177518150335e-05,3.542282735639847e-05
16.4226497308,49.5773502692,8,0,-0.7165962950656231,9.814030735247165,-2.12215969501347,-1.014433273240772e-05,3.197817538884342e-05,-1.697727756010776e-05,3.362448418609522e-05,3.375416198478811e-05
17.5773502692,49.5773502692,8,0,-0.5692104490501912,10.40357411930889,-2.131208146456936,-1.014433273240772e-05,3.37468055410286e-05,-1.704966517165549e-05,3.53444047414495e-05,3.549990826402174e-05
18.4226497308,48.4226497308,8,0,-0.8253307992792429,10.74556809278146,-2.437674020058534,-1.123751303191875e-05,3.504608253632408e-05,-1.950139216046827e-05,3.701641088143075e-05,3.672324538804497e-05
19.5773502692,48.4226497308,8,0,-0.6769090815943546,11.33925496352102,-2.44459312219664,-1.123751303191875e-05,3.682714314854273e-05,-1.955674497757312e-05,3.874032260713346e-05,3.849362584016147e-05
18.4226497308,49.5773502692,8,0,-0.8437817383141741,10.74095535802273,-2.215041443531243,-1.129286584902354e-05,3.504608253632408e-05,-1.772033154824994e-05,3.668239540856625e-05,3.677382259811507e-05
19.5773502692,49.5773502692,8,0,-0.6953600206292769,11.33464222876232,-2.221960545669376,-1.129286584902354e-05,3.682714314854284e-05,-1.777568436535501e-05,3.841626251677798e-05,3.850847500426266e-05
20.4226497308,48.4226497308,8,0,-0.9648757757622755,11.6751642838912,-2.496691594032623,-1.242773390955224e-05,3.813242632906165e-05,-1.997353275226099e-05,4.003355209709511e-05,3.97829889911935e-05
21.5773502692,48.4226497308,8,0,-0.8161224961476115,12.27017740234985,-2.501229848956825,-1.242773390955224e-05,3.991746568443762e-05,-2.00098387916546e-05,4.176456239277016e-05,4.153521417725334e-05
20.4226497308,49.5773502692,8,0,-0.9769777888935525,11.67213878060838,-2.273561674610695,-1.246403994894607e-05,3.813242632906165e-05,-1.818849339688556e-05,3.971738353211969e-05,3.977201188298297e-05
21.5773502692,49.5773502692,8,0,-0.8282245092789244,12.26715189906689,-2.278099929534897,-1.246403994894607e-05,3.991746568443718e-05,-1.822479943627917e-05,4.1457406363008e-05,4.148940642688305e-05
22.4226497308,48.4226497308,8,0,-1.109287811928104,12.60466399623574,-2.520190428140592,-1.363345219515853e-05,4.122235503749684e-05,-2.016152342512473e-05,4.301621819684556e-05,4.280910642160478e-05
23.5773502692,48.4226497308,8,0,-0.9609557572955807,13.19799221476583,-2.52210269331933,-1.363345219515853e-05,4.300233969308713e-05,-2.017682154655464e-05,4.474570224944205e-05,4.453721957062898e-05
22.4226497308,49.5773502692,8,0,-1.114387185738055,12.60338915278325,-2.297692346191888,-1.364875031658838e-05,4.122235503749684e-05,-1.83815387695351e-05,4.272086174690674e-05,4.273815389465748e-05
23.5773502692,49.5773502692,8,0,-0.9660551311055676,13.1967173713132,-2.299604611370558,-1.364875031658838e-05,4.300233969308669e-05,-1.839683689096447e-05,4.445845686011701e-05,4.44324008786852e-05
24.4226497308,48.4226497308,8,0,-1.256473251343106,13.5296384455541,-2.508220253548104,-1.484442516074122e-05,4.43000216268476e-05,-2.006576202838483e-05,4.595559190947907e-05,4.579123519380704e-05
25.5773502692,48.4226497308,8,0,-1.109360891371571,14.11808788544024,-2.507293902745817,-1.484442516074122e-05,4.606536994650602e-05,-2.005835122196654e-05,4.767423930255244e-05,4.748915644093607e-05
24.4226497308,49.5773502692,8,0,-1.254002982536828,13.53025601275567,-2.287551713590734,-1.483701435432238e-05,4.43000216268476e-05,-1.830041370872587e-05,4.56834590128972e-05,4.566203980043182e-05
25.5773502692,49.5773502692,8,0,-1.106890622565312,14.11870545264174,-2.286625362788461,-1.483701435432238e-05,4.60653699465058e-05,-1.829300290230769e-05,4.740935969803088e-05,4.732722882572294e-05
26.4226497308,48.4226497308,8,0,-1.404094887016057,14.44543708759408,-2.461102282533845,-1.604945330852664e-05,4.734867458991389e-05,-1.968881826027076e-05,4.884212555562962e-05,4.871877972139161e-05
27.57735026920001,48.4226497308,8,0,-1.259036123026925,15.02567214355061,-2.457179776162944,-1.604945330852664e-05,4.908937975778348e-05,-1.965743820930355e-05,5.054011332053924e-05,5.038025175077943e-05
26.4226497308,49.5773502692,8,0,-1.393634870026916,14.4480520918415,-2.243514136550146,-1.601807325755933e-05,4.734867458991432e-05,-1.794811309240116e-05,4.859507251606634e-05,4.853339557617847e-05
27.57735026920001,49.5773502692,8,0,-1.248576106037829,15.02828714779785,-2.239591630179272,-1.601807325755933e-05,4.908937975778337e-05,-1.791673304143418e-05,5.029950137581844e-05,5.016351539567223e-05
28.4226497308,48.4226497308,8,0,-1.549634838217725,15.34724643527916,-2.379530236485075,-1.723662863052004e-05,5.035089646346748e-05,-1.90362418918806e-05,5.166572280045118e-05,5.158086031260755e-05
29.5773502692,48.4226497308,8,0,-1.407482957650786,15.91585395754691,-2.372526570151764,-1.723662863052004e-05,5.205671903027074e-05,-1.898021256121411e-05,5.333293657469403e-05,5.31995118742758e-05
28.4226497308,49.5773502692,8,0,-1.530958394662372,15.351915546168,-2.166302415634695,-1.718059929985399e-05,5.035089646346748e-05,-1.733041932507756e-05,5.14450336720309e-05,5.134178599392496e-05
29.5773502692,49.5773502692,8,0,-1.388806514095452,15.92052306843568,-2.159298749301452,-1.718059929985399e-05,5.205671903027052e-05,-1.727438999441161e-05,5.311792393174453e-05,5.293076131405909e-05
30.4226497308,48.4226497308,8,0,-1.690476080024769,16.23017927782389,-2.264645035011573,-1.839366687833837e-05,5.328895455305625e-05,-1.811716028009259e-05,5.441597390476664e-05,5.436644487955046e-05
31.5773502692,48.4226497308,8,0,-1.552083789317902,16.78374844065136,-2.254559182566973,-1.839366687833837e-05,5.494966204153866e-05,-1.803647346053578e-05,5.604226068821286e-05,5.593591357745716e-05
30.4226497308,49.5773502692,8,0,-1.663580473505761,16.23690317945351,-2.057056598951353,-1.831298005878124e-05,5.328895455305582e-05,-1.645645279161083e-05,5.422234404918401e-05,5.407670063637341e-05
31.5773502692,49.5773502692,8,0,-1.525188182798903,16.79047234228094,-2.046970746506739,-1.831298005878124e-05,5.494966204153812e-05,-1.637576597205391e-05,5.585359255138189e-05,5.561848976732618e-05
32.4226497308,48.4226497308,8,0,-1.823993990127213,17.08938426193907,-2.118079768573876,-1.950828817795833e-05,5.614522483030678e-05,-1.694463814859101e-05,5.708241675921709e-05,5.706457051424765e-05
33.57735026920001,48.4226497308,8,0,-1.690191423942987,17.62459452667597,-2.104999873598975,-1.950828817795833e-05,5.775085562451749e-05,-1.68399989887918e-05,5.865785181863324e-05,5.857864991209873e-05
32.4226497308,49.5773502692,8,0,-1.789114270194162,17.09810419192233,-1.917375919297578,-1.940364901815918e-05,5.614522483030678e-05,-1.533900735438062e-05,5.691594806396252e-05,5.672773306076545e-05
33.57735026920001,49.5773502692,8,0,-1.655311704009945,17.6333144566592,-1.904296024322731,-1.940364901815918e-05,5.775085562451739e-05,-1.523436819458185e-05,5.849568221867163e-05,5.821645296557263e-05
34.42264973080001,48.4226497308,8,0,-1.947649804984497,17.92016572726752,-1.941974418605063,-2.056861195776441e-05,5.890265017124367e-05,-1.55357953488405e-05,5.965480257749339e-05,5.966459938652948e-05
35.5773502692,48.4226497308,8,0,-1.819222269362628,18.433875869755,-1.926077047262066,-2.056861195776441e-05,6.044378059870609e-05,-1.540861637809652e-05,6.116995390557662e-05,6.111738912740207e-05
34.42264973080001,49.5773502692,8,0,-1.905256814736576,17.93076397482964,-1.749333115172273,-2.044143298702075e-05,5.89026501712441e-05,-1.399466492137819e-05,5.951501679952891e-05,5.928479991314845e-05
35.5773502692,49.5773502692,8,0,-1.77682927911478,18.44447411731682,-1.73343574382933,-2.044143298702075e-05,6.044378059870566e-05,-1.386748595063464e-05,6.103385877587466e-05,6.071485814935359e-05
36.4226497308,48.4226497308,8,0,-2.059079073097482,18.71810447209108,-1.738962195041839,-2.156353661158481e-05,6.154519756916945e-05,-1.391169756033471e-05,6.212335065661189e-05,6.215647516546583e-05
37.5773502692,48.4226497308,8,0,-1.936746015073256,19.20743670418799,-1.72050639083026,-2.156353661158481e-05,6.301319426546016e-05,-1.376405112664208e-05,6.356952660059722e-05,6.354252127413956e-05
36.4226497308,49.5773502692,8,0,-2.009863595200027,18.73040834156545,-1.55546260800554,-2.141589017789244e-05,6.154519756916945e-05,-1.244370086404432e-05,6.20092235806949e-05,6.17383673728686e-05
37.5773502692,49.5773502692,8,0,-1.887530537175801,19.21974057366235,-1.537006803793988,-2.141589017789244e-05,6.301319426546016e-05,-1.22960544303519e-05,6.345853734161648e-05,6.310458833744073e-05
38.4226497308,48.4226497308,8,0,-2.156169804165044,19.47917154254679,-1.512131139756195,-2.248308060736557e-05,6.405828477948176e-05,-1.209704911804956e-05,6.447898144281542e-05,6.453095978353404e-05
39.5773502692,48.4226497308,8,0,-2.040566163611202,19.94158610476216,-1.491448289967799,-2.248308060736557e-05,6.544552846612787e-05,-1.19315863197424e-05,6.584845013776805e-05,6.584537790279855e-05
38.4226497308,49.5773502692,8,0,-2.101015538062639,19.49296010907226,-1.338725678925405,-2.231761780905825e-05,6.405828477948133e-05,-1.070980543140324e-05,6.438899752824999e-05,6.407966500805063e-05
39.5773502692,49.5773502692,8,0,-1.985411897508761,19.95537467128777,-1.318042829136982,-2.231761780905825e-05,6.544552846612787e-05,-1.054434263309586e-05,6.576110740218045e-05,6.53774030489731e-05
40.4226497308,48.4226497308,8,0,-2.237126758904555,20.19982891407,-1.264965722703838,-2.331866875975058e-05,6.642915393214764e-05,-1.011972578163071e-05,6.671352125089024e-05,6.677983936300868e-05
41.5773502692,48.4226497308,8,0,-2.128787503716827,20.63318593482091,-1.242446358800628,-2.331866875975058e-05,6.772922499440038e-05,-9.939570870405026e-06,6.799969378712837e-05,6.801841743086181e-05
40.4226497308,49.5773502692,8,0,-2.177075121829419,20.21484182333879,-1.102456839922232,-2.313851384852517e-05,6.642915393214764e-05,-8.819654719377859e-06,6.66457462093433e-05,6.630087542859798e-05
41.5773502692,49.5773502692,8,0,-2.068735866641655,20.64819884408984,-1.07993747601909,-2.313851384852517e-05,6.772922499440081e-05,-8.63949980815272e-06,6.793411902945927e-05,6.75261108483045e-05
42.4226497308,48.4226497308,8,0,-2.300519955706819,20.87711279229324,-1.001273580397051,-2.406335409209641e-05,6.864717689990382e-05,-8.01018864317641e-06,6.881987525070746e-05,6.889609414894915e-05
43.57735026920001,48.4226497308,8,0,-2.199868273824016,21.27971951982445,-0.9773522158896473,-2.406335409209641e-05,6.985499708249746e-05,-7.818817727117179e-06,7.001744762907938e-05,7.005537346763284e-05
42.4226497308,49.5773502692,8,0,-2.236729650353634,20.89306036863154,-0.8502960575728735,-2.387198317603686e-05,6.864717689990382e-05,-6.802368460582988e-06,6.877204252486846e-05,6.839529369155915e-05
43.57735026920001,49.5773502692,8,0,-2.136077968470831,21.29566709616275,-0.8263746930654153,-2.387198317603686e-05,6.985499708249746e-05,-6.610997544523323e-06,6.997142850732981e-05,6.954470996079244e-05
44.4226497308,48.4226497308,8,0,-2.345316810161498,21.50869697630699,-0.7251024486228992,-2.471197137356238e-05,7.070408377231156e-05,-5.800819588983193e-06,7.079216767171193e-05,7.087403115588976e-05
45.5773502692,48.4226497308,8,0,-2.252656160652474,21.87933957434309,-0.7002414493931161,-2.471197137356238e-05,7.181601156641985e-05,-5.601931595144928e-06,7.189721925844012e-05,7.195136623562591e-05
44.4226497308,49.5773502692,8,0,-2.279020812215447,21.5252709757935,-0.5861114743593225,-2.451308337972423e-05,7.070408377231156e-05,-4.68889179487458e-06,7.076177398270046e-05,7.035745406534564e-05
45.5773502692,49.5773502692,8,0,-2.186360162706387,21.89591357382974,-0.5612504751295122,-2.451308337972423e-05,7.181601156642028e-05,-4.490003801036098e-06,7.186830416835876e-05,7.142849598339817e-05
46.42264973080001,48.4226497308,8,0,-2.370898287410513,22.09293515481127,-0.4406519071488575,-2.526122264356266e-05,7.259411112532448e-05,-3.525215257190861e-06,7.262584959273806e-05,7.270938043205019e-05
47.57735026920001,48.4226497308,8,0,-2.286408309555932,22.4308950662296,-0.4153252366246077,-2.526122264356266e-05,7.360799085957945e-05,-3.322601892996862e-06,7.36358978483887e-05,7.370297864989163e-05
46.42264973080001,49.5773502692,8,0,-2.303360499345612,22.1098196018275,-0.3139169403669733,-2.505860927936795e-05,7.259411112532448e-05,-2.511335522935787e-06,7.261025446381295e-05,7.218322397233357e-05
47.57735026920001,49.5773502692,8,0,-2.218870521491014,22.44777951324589,-0.2885902698426422,-2.505860927936795e-05,7.360799085957966e-05,-2.308722158741137e-06,7.362149458980812e-05,7.317413726603444e-05
48.4226497308,48.4226497308,8,0,-2.377060041986542,22.62888209087948,-0.1521839728503354,-2.570969780706051e-05,7.431407072440357e-05,-1.217471782802683e-06,7.431777530049619e-05,7.439935678760089e-05
49.57735026920001,48.4226497308,8,0,-2.30079618109261,22.93393753445521,-0.1268614994182901,-2.570969780706051e-05,7.522923705513074e-05,-1.014891995346321e-06,7.523178805225905e-05,7.53082990233422e-05
48.4226497308,49.5773502692,8,0,-2.309533446167843,22.64576373983416,-0.03778818150943875,-2.550711801960442e-05,7.431407072440357e-05,-3.023054520755099e-07,7.431429960460915e-05,7.386986607171824e-05
49.57735026920001,49.5773502692,8,0,-2.233269585273921,22.95081918340984,-0.01246570807743406,-2.550711801960442e-05,7.522923705513063e-05,-9.972566461947246e-08,7.52292617364032e-05,7.477971922351554e-05
50.42264973080001,48.4226497308,8,0,-2.363999826063196,23.11629442192185,0.1360639937681568,-2.605783498093971e-05,7.586334201100048e-05,1.088511950145254e-06,7.586624823843021e-05,7.594268894081924e-05
51.57735026920001,48.4226497308,8,0,-2.29589644055371,23.3887079639598,0.1609310680218738,-2.605783498093971e-05,7.668058263711431e-05,1.287448544174991e-06,7.668461583794971e-05,7.676693219150833e-05
50.42264973080001,49.5773502692,8,0,-2.297687628053049,23.13287247142439,0.2382190720323857,-2.585889838690927e-05,7.586334201100048e-05,1.905752576259086e-06,7.587226723283343e-05,7.541606986905506e-05
51.57735026920001,49.5773502692,8,0,-2.229584242543563,23.40528601346234,0.2630861462861705,-2.585889838690927e-05,7.668058263711431e-05,2.104689170289364e-06,7.669138152646712e-05,7.624475901237492e-05
52.4226497308,48.4226497308,8,0,-2.332292591146697,23.55561234594034,0.4199610684726452,-2.63078261684217e-05,7.724379357992644e-05,3.359688547781162e-06,7.727103733110485e-05,7.733961774893473e-05
53.5773502692,48.4226497308,8,0,-2.272169234055611,23.79610577430468,0.4439531878858491,-2.63078261684217e-05,7.796527386501946e-05,3.551625503086793e-06,7.799550790266197e-05,7.807998053796198e-05
52.4226497308,49.5773502692,8,0,-2.268313606044748,23.57160709221583,0.5101461041092867,-2.611588921311585e-05,7.724379357992644e-05,4.081168832874293e-06,7.72840642437072e-05,7.682195430540145e-05
53.5773502692,49.5773502692,8,0,-2.208190248953689,23.81210052058006,0.5341382235225041,-2.611588921311585e-05,7.796527386501914e-05,4.273105788180033e-06,7.800911403910477e-05,7.757019202858672e-05
54.42264973080001,48.4226497308,8,0,-2.282854825369749,23.9479238988047,0.6955565649993753,-2.646347456022695e-05,7.845964033647082e-05,5.564452519995003e-06,7.853336429850585e-05,7.859186494278152e-05
55.57735026920001,48.4226497308,8,0,-2.230425322659047,24.1576419096475,0.7182967953007948,-2.646347456022695e-05,7.908879436899924e-05,5.746374362406359e-06,7.916694614121988e-05,7.924999635538281e-05
54.42264973080001,49.5773502692,8,0,-2.222214211232667,23.96308405233897,0.7742008190654136,-2.62815527178157e-05,7.845964033647082e-05,6.193606552523309e-06,7.855112126667474e-05,7.808904283308368e-05
55.57735026920001,49.5773502692,8,0,-2.169784708521965,24.17280206318177,0.796941049366806,-2.62815527178157e-05,7.908879436899924e-05,6.375528394934448e-06,7.918514554663043e-05,7.875833186939239e-05
56.4226497308,48.4226497308,8,0,-2.216899863672688,24.29491395572302,0.9591434487293038,-2.653001072833102e-05,7.951724454925181e-05,7.67314758983443e-06,7.965586278533903e-05,7.970257394167097e-05
57.57735026920001,48.4226497308,8,0,-2.17178372796568,24.47537849855105,0.9803060749106294,-2.653001072833102e-05,8.00586381777359e-05,7.842448599285035e-06,8.020269898205567e-05,8.028090748922836e-05
56.4226497308,49.5773502692,8,0,-2.160466193855766,24.30902237317725,1.026817652289842,-2.636070971888025e-05,7.951724454925181e-05,8.214541218318737e-06,7.967633679494789e-05,7.922021281303161e-05
57.57735026920001,49.5773502692,8,0,-2.115350058148731,24.48948691600539,1.047980278471195,-2.636070971888025e-05,8.005863817773623e-05,8.383842227769559e-06,8.022350501724466e-05,7.981280598184673e-05
58.4226497308,48.4226497308,8,0,-2.135886224079949,24.59880057500892,1.207309223180485,-2.651387637706297e-05,8.042487081929249e-05,9.658473785443883e-06,8.06425109390292e-05,8.067622511200315e-05
59.57735026920001,48.4226497308,8,0,-2.097621844439932,24.75185809356899,1.226625652916544,-2.651387637706297e-05,8.08840433749727e-05,9.813005223332355e-06,8.110773235492689e-05,8.117791939503978e-05
58.4226497308,49.5773502692,8,0,-2.084375744783737,24.61167819483297,1.264705792640485,-2.635934493917433e-05,8.042487081929249e-05,1.011764634112388e-05,8.066399335349183e-05,8.021962184409314e-05
59.57735026920001,49.5773502692,8,0,-2.04611136514372,24.76473571339304,1.284022222376578,-2.635934493917433e-05,8.08840433749727e-05,1.027217777901262e-05,8.112945878724253e-05,8.073847028030741e-05
60.4226497308,48.4226497308,8,0,-2.041461427081519,24.8622618400087,1.43697254313306,-2.642248603866782e-05,8.119240702969305e-05,1.149578034506448e-05,8.149854052829347e-05,8.151852927751685e-05
61.5773502692,48.4226497308,8,0,-2.009520375726662,24.99002604542813,1.454234288118193,-2.642248603866782e-05,8.157569964595133e-05,1.163387430494554e-05,8.188810453320346e-05,8.194739849900717e-05
60.4226497308,49.5773502692,8,0,-1.995430107121131,24.8737696699988,1.484884120165399,-2.628439207878665e-05,8.119240702969305e-05,1.187907296132319e-05,8.15196498026857e-05,8.109261487968469e-05
61.5773502692,49.5773502692,8,0,-1.963489055766297,25.00153387541813,1.502145865150484,-2.628439207878665e-05,8.157569964595106e-05,1.201716692120387e-05,8.190938865246334e-05,8.154130748223642e-05
62.42264973080001,48.4226497308,8,0,-1.935404150657784,25.08835687703741,1.645404397060098,-2.626397878373484e-05,8.183106532704595e-05,1.316323517648078e-05,8.223032766160594e-05,8.223630520920333e-05
63.57735026920001,48.4226497308,8,0,-1.909205867405234,25.19315001004761,1.66046303971663,-2.626397878373484e-05,8.214544472607654e-05,1.328370431773304e-05,8.255085086641671e-05,8.259674379865013e-05
62.42264973080001,49.5773502692,8,0,-1.895247770240291,25.09839597214179,1.684701821938922,-2.614350964248236e-05,8.183106532704595e-05,1.347761457551138e-05,8.225001584514394e-05,8.184561756544826e-05
63.57735026920001,49.5773502692,8,0,-1.869049486987741,25.20318910515199,1.699760464595482,-2.614350964248236e-05,8.214544472607654e-05,1.359808371676386e-05,8.257066041019234e-05,8.222831557152215e-05
64.4226497308,48.4226497308,8,0,-1.819567836583455,25.28044512333017,1.830233495519334,-2.604697317573119e-05,8.235307866392332e-05,1.464186796415468e-05,8.284527233774468e-05,8.283734887554063e-05
65.57735026920001,48.4226497308,8,0,-1.798493914202854,25.36474081285258,1.842997722473304,-2.604697317573119e-05,8.260596573249053e-05,1.474398177978643e-05,8.3103866161025e-05,8.313425558074566e-05
64.4226497308,49.5773502692,8,0,-1.785529898039536,25.28895460796615,1.861844379090195,-2.594485936009943e-05,8.235307866392332e-05,1.489475503272156e-05,8.286281688996291e-05,8.248602288457528e-05
65.57735026920001,49.5773502692,8,0,-1.764455975658953,25.37325029748849,1.874608606044158,-2.594485936009943e-05,8.260596573249031e-05,1.499686884835327e-05,8.312149154176825e-05,8.280739435127456e-05
66.4226497308,48.4226497308,8,0,-1.695828887563909,25.44210807686725,1.989436438192136,-2.57803389016983e-05,8.277140895602631e-05,1.591549150553709e-05,8.335167605264501e-05,8.33303040086926e-05
67.57735026920001,48.4226497308,8,0,-1.679236202237149,25.50847881817429,1.999866413318584,-2.57803389016983e-05,8.297052117994743e-05,1.599893130654868e-05,8.355579385353987e-05,8.35690115694054e-05
66.4226497308,49.5773502692,8,0,-1.668015620560066,25.44906139361821,2.014325466182187,-2.569689910068677e-05,8.277140895602631e-05,1.61146037294575e-05,8.336665923330548e-05,8.30220796122162e-05
67.57735026920001,49.5773502692,8,0,-1.651422935233337,25.51543213492512,2.024755441308622,-2.569689910068677e-05,8.297052117994705e-05,1.619804353046898e-05,8.357082792503292e-05,8.328723918607061e-05
68.42264973080002,48.4226497308,8,0,-1.566042327701205,25.5770776043817,2.121314193007822,-2.547299753214921e-05,8.30994821961824e-05,1.697051354406258e-05,8.375862813534904e-05,8.372454467060227e-05
69.57735026920001,48.4226497308,8,0,-1.553274342314116,25.62814954593006,2.129413722510616,-2.547299753214921e-05,8.325269802082747e-05,1.703530978008493e-05,8.391593190745146e-05,8.391076144463619e-05
68.42264973080002,49.5773502692,8,0,-1.54444358236061,25.58247729071685,2.140466171088551,-2.540820129612743e-05,8.30994821961824e-05,1.712372936870841e-05,8.37709066859777e-05,8.346279196672761e-05
69.57735026920001,49.5773502692,8,0,-1.531675596973498,25.6335492322653,2.148565700591236,-2.540820129612743e-05,8.325269802082774e-05,1.718852560472989e-05,8.392823997425077e-05,8.367725150905854e-05
70.4226497308,48.4226497308,8,0,-1.432007260064046,25.68917440324712,2.224457270998753,-2.513376275480264e-05,8.335096389844201e-05,1.779565816799003e-05,8.407591214574779e-05,8.40300807350904e-05
71.57735026920001,48.4226497308,8,0,-1.422402964592559,25.72759158513307,2.230264353065429,-2.513376275480264e-05,8.346621544409987e-05,1.784211482452343e-05,8.419416544428596e-05,8.41698503249143e-05
70.4226497308,49.5773502692,8,0,-1.416521707886324,25.69304579129155,2.238863714205979,-2.508730609826948e-05,8.335096389844201e-05,1.791090971364783e-05,8.408558010655567e-05,8.381783999058768e-05
71.57735026920001,49.5773502692,8,0,-1.406917412414822,25.73146297317756,2.244670796272628,-2.508730609826948e-05,8.346621544410004e-05,1.795736637018102e-05,8.420384834903106e-05,8.398747532276966e-05
72.4226497308,48.4226497308,8,0,-1.295443726239724,25.78225946263746,2.297702606299118,-2.477122749407708e-05,8.353958526143164e-05,1.838162085039295e-05,8.431394345819205e-05,8.425749642305359e-05
73.57735026920001,48.4226497308,8,0,-1.288343849319461,25.81065897031851,2.301279039778694,-2.477122749407708e-05,8.362478378447479e-05,1.841023231822955e-05,8.440093551734766e-05,8.435718042644157e-05
72.4226497308,49.5773502692,8,0,-1.285906570294217,25.78464375162384,2.308352421679505,-2.474261602624056e-05,8.353958526143164e-05,1.846681937343604e-05,8.432129074919053e-05,8.409752946779107e-05
73.57735026920001,49.5773502692,8,0,-1.278806693373945,25.81304325930492,2.31192885515906,-2.474261602624056e-05,8.36247837844749e-05,1.849543084127248e-05,8.440828842814748e-05,8.422856765140385e-05
74.4226497308,48.4226497308,8,0,-1.157981769892897,25.86020045446001,2.340085488377643,-2.439370202722527e-05,8.367902687018633e-05,1.872068390702114e-05,8.448374815398592e-05,8.441793018922144e-05
75.57735026920001,48.4226497308,8,0,-1.152732074635677,25.88119923548889,2.341506233328298,-2.439370202722527e-05,8.374202321327298e-05,1.873204986662638e-05,8.454725228078623e-05,8.448421762430286e-05
74.4226497308,49.5773502692,8,0,-1.154193116691179,25.86114761776043,2.34796003126348,-2.438233606762011e-05,8.367902687018633e-05,1.878368025010784e-05,8.448921702937319e-05,8.431277847869343e-05
75.57735026920001,49.5773502692,8,0,-1.148943421433935,25.88214639878941,2.349380776214149,-2.438233606762011e-05,8.374202321327325e-05,1.879504620971319e-05,8.455272128105544e-05,8.44118085537929e-05
76.42264973080002,48.4226497308,8,0,-1.021162747036779,25.92685403015865,2.350789939747948,-2.400920401464461e-05,8.378286309413709e-05,1.880631951798359e-05,8.45969917251131e-05,8.452310121950906e-05
77.57735026920001,48.4226497308,8,0,-1.017114389835706,25.94304745896294,2.350132885142028,-2.400920401464461e-05,8.383144338054997e-05,1.880106308113622e-05,8.464475925587792e-05,8.456304574211647e-05
76.42264973080002,49.5773502692,8,0,-1.022914892652604,25.92641599375469,2.3568624755496,-2.401446045149208e-05,8.378286309413709e-05,1.88548998043968e-05,8.46011324538223e-05,8.447514477385353e-05
77.57735026920001,49.5773502692,8,0,-1.018866535451522,25.94260942255902,2.356205420943618,-2.401446045149208e-05,8.383144338055008e-05,1.884964336754894e-05,8.464889708148133e-05,8.454915246992637e-05
78.4226497308,48.4226497308,8,0,-0.886452300982981,25.98606412009088,2.329100736174513,-2.362549865921824e-05,8.386456702507718e-05,1.86328058893961e-05,8.466606403617966e-05,8.458538304836304e-05
79.57735026920001,48.4226497308,8,0,-0.8829593682020684,26.00003585121453,2.326437453177528,-2.362549865921824e-05,8.390648221844813e-05,1.861149962542022e-05,8.47058535711898e-05,8.460646518132811e-05
78.4226497308,49.5773502692,8,0,-0.8935543889749962,25.98428859809287,2.334340135345855,-2.364680492319428e-05,8.386456702507718e-05,1.867472108276684e-05,8.466949025235779e-05,8.459689339013597e-05
79.57735026920001,49.5773502692,8,0,-0.8900614561941014,25.99826032921645,2.331676852348802,-2.364680492319428e-05,8.390648221844792e-05,1.865341481879041e-05,8.470927492946837e-05,8.465331631368139e-05
80.4226497308,48.4226497308,8,0,-0.7552639794455054,26.04167560935946,2.274359909790405,-2.325018522171318e-05,8.393757313350666e-05,1.819487927832324e-05,8.470422461272936e-05,8.46179169969649e-05
81.57735026920001,48.4226497308,8,0,-0.7516784155932452,26.0560178647685,2.269747873449734,-2.325018522171318e-05,8.398059989973378e-05,1.815798298759788e-05,8.474386497217513e-05,8.462812180615981e-05
80.4226497308,49.5773502692,8,0,-0.7675627430206449,26.03860091846567,2.279738255568788,-2.32870815124386e-05,8.393757313350666e-05,1.823790604455031e-05,8.470756780222558e-05,8.469109583811177e-05
81.57735026920001,49.5773502692,8,0,-0.7639771791683989,26.05294317387466,2.275126219228118,-2.32870815124386e-05,8.398059989973361e-05,1.820100975382494e-05,8.474720090049881e-05,8.473788849480034e-05
82.4226497308,48.4226497308,8,0,-0.6289922217167758,26.0975622365007,2.18593015095409,-2.289082489869424e-05,8.401539293417565e-05,1.748744120763272e-05,8.47258095938132e-05,8.463474420952051e-05
83.57735026920001,48.4226497308,8,0,-0.6246564240816213,26.11490542704132,2.179406818565909,-2.289082489869424e-05,8.40674225057975e-05,1.743525454852727e-05,8.477329393368984e-05,8.464263214277603e-05
82.4226497308,49.5773502692,8,0,-0.6463877747519771,26.0932133482419,2.192433847406848,-2.294301155779984e-05,8.401539293417565e-05,1.753947077925478e-05,8.472967121556633e-05,8.477173747684032e-05
83.57735026920001,49.5773502692,8,0,-0.6420519771168225,26.11055653878252,2.185910515018668,-2.294301155779984e-05,8.40674225057975e-05,1.748728412014934e-05,8.477714369304124e-05,8.481742195887341e-05
84.42264973080002,48.4226497308,8,0,-0.5090533572331291,26.15766722685082,2.063167115646947,-2.255510452462667e-05,8.411177781170913e-05,1.650533692517558e-05,8.474649840204304e-05,8.465090854851779e-05
85.57735026920001,48.4226497308,8,0,-0.5032907424232791,26.18071768609022,2.054746172067186,-2.255510452462667e-05,8.418092918942733e-05,1.643796937653749e-05,8.481010607946384e-05,8.466563217625381e-05
84.42264973080002,49.5773502692,8,0,-0.5315092067788969,26.15205326446438,2.071811037861681,-2.262247207326397e-05,8.411177781170913e-05,1.657448830289345e-05,8.475139726520203e-05,8.485378146564389e-05
85.57735026920001,49.5773502692,8,0,-0.5257465919690469,26.17510372370378,2.063390094282001,-2.262247207326397e-05,8.418092918942733e-05,1.650712075425601e-05,8.481498421319175e-05,8.490743300345012e-05
86.4226497308,48.4226497308,8,0,-0.3969332831618448,26.22605499625406,1.905402314685787,-2.225103050312115e-05,8.424092261454246e-05,1.524321851748629e-05,8.478363396865964e-05,8.468243009540565e-05
87.57735026920002,48.4226497308,8,0,-0.3890371408432474,26.25763956552845,1.895072343235231,-2.225103050312115e-05,8.433567632236562e-05,1.516057874588185e-05,8.487207588093996e-05,8.471359923625586e-05
86.4226497308,49.5773502692,8,0,-0.424479873696705,26.21916834862034,1.917246528163622,-2.233367027472573e-05,8.424092261454246e-05,1.533797222530897e-05,8.478994579127922e-05,8.495308168894068e-05
87.57735026920002,49.5773502692,8,0,-0.4165837313781076,26.25075291789473,1.9069165567131,-2.233367027472573e-05,8.433567632236562e-05,1.52553324537048e-05,8.487835139891044e-05,8.502414467919875e-05
88.42264973080002,48.4226497308,8,0,-0.294240568257421,26.30697218871996,1.711938046599006,-2.198714756939971e-05,8.44177034585098e-05,1.369550437279205e-05,8.485658470132782e-05,8.474594288685898e-05
89.57735026920001,48.4226497308,8,0,-0.2834615186131231,26.35008838729715,1.6996638630203,-2.198714756939971e-05,8.454705205424137e-05,1.35973109041624e-05,8.497916674615977e-05,8.480313824276251e-05
88.42264973080002,49.5773502692,8,0,-0.3269717244674037,26.29878939966746,1.728106621065459,-2.208534103802966e-05,8.44177034585098e-05,1.382485296852367e-05,8.486447039768338e-05,8.508592390964299e-05
89.57735026920001,49.5773502692,8,0,-0.3161926748230925,26.34190559824471,1.71583243748676,-2.208534103802966e-05,8.454705205424153e-05,1.372665949989408e-05,8.498699105934017e-05,8.51836449158183e-05
90.42264973080002,48.4226497308,8,0,-0.202763803274074,26.40491628072633,1.482055751004369,-2.17727771950581e-05,8.465794314094352e-05,1.185644600803495e-05,8.498712878103981e-05,8.485757386066006e-05
91.57735026920001,48.4226497308,8,0,-0.1882961793359357,26.46278677647889,1.467782646197089,-2.17727771950581e-05,8.483155462820117e-05,1.174226116957671e-05,8.515392661867871e-05,8.494909937860028e-05
90.42264973080002,49.5773502692,8,0,-0.2408254160934602,26.39540087752149,1.503757186911643,-2.188696203351626e-05,8.465794314094352e-05,1.203005749529315e-05,8.499644816028573e-05,8.526774345564329e-05
91.57735026920001,49.5773502692,8,0,-0.2263577921553219,26.45327137327404,1.489484082104343,-2.188696203351626e-05,8.483155462820117e-05,1.191587265683474e-05,8.516314705343301e-05,8.539978393312198e-05
92.42264973080002,48.4226497308,8,0,-0.1245320300797959,26.52470993197974,1.2150391963951,-2.161827044183914e-05,8.4978697406399e-05,9.720313571160799e-06,8.51998314983869e-05,8.503019497955976e-05
93.57735026920001,48.4226497308,8,0,-0.1054995251830082,26.60083995156689,1.198700366466805,-2.161827044183914e-05,8.520708746516045e-05,9.589602931734439e-06,8.542186784069024e-05,8.516022676372057e-05
92.42264973080002,49.5773502692,8,0,-0.1681022432218171,26.51381737869424,1.243587953740329,-2.17489810812652e-05,8.4978697406399e-05,9.948703629922631e-06,8.521003998724741e-05,8.551009340227127e-05
93.57735026920001,49.5773502692,8,0,-0.1490697383250161,26.58994739828144,1.227249123812041,-2.17489810812652e-05,8.520708746516062e-05,9.817992990496325e-06,8.54319245892696e-05,8.567942399907716e-05
94.4226497308,48.4226497308,8,0,-0.06187698505708727,26.67157912938049,0.9102140517768152,-2.153526965568706e-05,8.539855480206322e-05,7.281712414214522e-06,8.552237439512787e-05,8.526726274942819e-05
95.57735026920002,48.4226497308,8,0,-0.03731794891814832,26.76981527393624,0.8917415433341993,-2.153526965568706e-05,8.569326323573049e-05,7.133932346673594e-06,8.581178765549959e-05,8.542965871647129e-05
94.4226497308,49.5773502692,8,0,-0.1111370075706297,26.6592641237521,0.9470526059852176,-2.168304972322769e-05,8.539855480206322e-05,7.576420847881741e-06,8.553240246975038e-05,8.581395897515134e-05
95.57735026920002,49.5773502692,8,0,-0.08657797143167212,26.75750026830793,0.9285800975426762,-2.168304972322769e-05,8.569326323573071e-05,7.42864078034141e-06,8.582159421247521e-05,8.601218476839078e-05
96.4226497308,48.4226497308,8,0,-0.01749564760872691,26.85123290688033,0.5670055888587722,-2.153697239785219e-05,8.593794182010402e-05,4.536044710870177e-06,8.598578216260436e-05,8.554956096799449e-05
97.57735026920001,48.4226497308,8,0,0.01365150992397801,26.97582153701115,0.5463451428438615,-2.153697239785219e-05,8.631170771049648e-05,4.370761142750892e-06,8.635597277559473e-05,8.571474404406857e-05
96.4226497308,49.5773502692,8,0,-0.07259017031511927,26.83745927620373,0.6137263251578169,-2.170225596597136e-05,8.593794182010402e-05,4.909810601262535e-06,8.599390073469943e-05,8.615549065435687e-05
97.57735026920001,49.5773502692,8,0,-0.04144301278238682,26.96204790633466,0.5930658791429197,-2.170225596597136e-05,8.631170771049681e-05,4.744527033143358e-06,8.636378359127409e-05,8.634878382261714e-05
98.42264973080002,48.4226497308,8,0,0.005488841265008482,27.06994198641897,0.1850164720339071,-2.163838929708715e-05,8.661942328352869e-05,1.480131776271257e-06,8.662448224336403e-05,8.580722710877127e-05
99.57735026920002,48.4226497308,8,0,0.04439956538558576,27.22558488290128,0.1621466976094665,-2.163838929708715e-05,8.708635197297561e-05,1.297173580875732e-06,8.709022091624551e-05,8.589471246431534e-05
98.42264973080002,49.5773502692,8,0,-0.05549722386687783,27.054695470136,0.24338255821482,-2.182134749248281e-05,8.661942328352869e-05,1.94706046571856e-06,8.662816247575343e-05,8.645603552052326e-05
99.57735026920002,49.5773502692,8,0,-0.01658649974628279,27.21033836661838,0.220512783790359,-2.182134749248281e-05,8.708635197297583e-05,1.764102270322872e-06,8.709349529876229e-05,8.655575944015309e-05
0.4226497308,50.4226497308,8,0,-0.02971420282463477,3.459377529299791,-0.2655069229374086,-2.862587472478664e-06,1.109377945601904e-05,-2.124055383499268e-06,1.117413318291391e-05,1.393377908758885e-05
1.5773502692,50.4226497308,8,0,0.07765460773690547,3.888852771545952,-0.2876165173054613,-2.862587472478664e-06,1.238220518275752e-05,-2.300932138443691e-06,1.246853754096802e-05,1.4379789890478e-05
0.4226497308,51.57735026920001,8,0,-0.08867312113949644,3.444637799721076,-0.1044537070950713,-3.039464227423249e-06,1.109377945601904e-05,-8.356296567605705e-07,1.110612035503222e-05,1.454418782307899e-05
1.5773502692,51.57735026920001,8,0,0.0186956894220438,3.874113041967237,-0.1265633014631783,-3.039464227423249e-06,1.238220518275752e-05,-1.012506411705427e-06,1.239880628507845e-05,1.497544914800559e-05
2.4226497308,50.4226497308,8,0,-0.06001742755300388,4.159661165258355,-0.6364191791663113,-3.519784700376297e-06,1.335892967086914e-05,-5.09135343333049e-06,1.373451546023459e-05,1.492913794160653e-05
3.5773502692,50.4226497308,8,0,0.05498550577142747,4.619672898556081,-0.6564087687611513,-3.519784700376297e-06,1.473896487076231e-05,-5.25127015008921e-06,1.510903446487612e-05,1.598397392550329e-05
2.4226497308,51.57735026920001,8,0,-0.1133229998061633,4.146334772195202,-0.4639147791796238,-3.679701417135884e-06,1.335892967086957e-05,-3.71131823343699e-06,1.355868564255858e-05,1.550711650085628e-05
3.5773502692,51.57735026920001,8,0,0.001679933518249799,4.606346505492854,-0.483904368774545,-3.679701417135884e-06,1.473896487076253e-05,-3.87123495019636e-06,1.494018069943691e-05,1.652839739670516e-05
4.422649730800001,50.4226497308,8,0,-0.1100813005488281,4.902939470269534,-0.9693155764082367,-4.274611737971877e-06,1.577747134530157e-05,-7.754524611265894e-06,1.650106570360617e-05,1.687601193219229e-05
5.577350269200001,50.4226497308,8,0,0.01135347050616664,5.388678554489513,-0.9872853748026014,-4.274611737971877e-06,1.723468859796151e-05,-7.898282998420811e-06,1.793683636031251e-05,1.825826910495596e-05
4.422649730800001,51.57735026920001,8,0,-0.1580007629338365,4.890959604673282,-0.787163419825826,-4.418370125126901e-06,1.577747134530157e-05,-6.297307358606608e-06,1.625698050429414e-05,1.739315741381911e-05
5.577350269200001,51.57735026920001,8,0,-0.03656599187885989,5.376698688893188,-0.8051332182201906,-4.418370125126901e-06,1.723468859796129e-05,-6.441065745761525e-06,1.77035374948768e-05,1.873444482118011e-05
6.422649730800001,50.4226497308,8,0,-0.1770809254929278,5.682346981246438,-1.265078979590753,-5.112536546574519e-06,1.832517508038294e-05,-1.012063183672602e-05,1.937105109999582e-05,1.933391084741141e-05
7.577350269200001,50.4226497308,8,0,-0.05024365695883204,6.189696055382821,-1.281135960480779,-5.112536546574519e-06,1.984722230279209e-05,-1.024908768384623e-05,2.085838954033725e-05,2.089036156590288e-05
6.422649730800001,51.57735026920001,8,0,-0.2198995411998619,5.671642327319704,-1.074823076789447,-5.240992393695321e-06,1.832517508038294e-05,-8.598584614315577e-06,1.908501670772601e-05,1.977951643027252e-05
7.577350269200001,51.57735026920001,8,0,-0.09306227266576617,6.178991401456087,-1.090880057679541,-5.240992393695321e-06,1.984722230279209e-05,-8.727040461436325e-06,2.058449055981414e-05,2.129341775662114e-05
8.4226497308,50.4226497308,8,0,-0.2587898808056703,6.491947305142278,-1.524644829823998,-6.021685462691967e-06,2.098126328109982e-05,-1.219715863859199e-05,2.229473001366689e-05,2.206323305794233e-05
9.5773502692,50.4226497308,8,0,-0.1274390184454157,7.017350754583297,-1.538867403947007,-6.021685462691967e-06,2.255747362942288e-05,-1.231093923157605e-05,2.38268750845105e-05,2.371112684658799e-05
8.4226497308,51.57735026920001,8,0,-0.2967167451337649,6.482465589060254,-1.327618536283576,-6.135466055676251e-06,2.098126328109982e-05,-1.062094829026861e-05,2.198416188645054e-05,2.243547009068312e-05
9.5773502692,51.57735026920001,8,0,-0.1653658827735103,7.007869038501273,-1.341841110406611,-6.135466055676251e-06,2.255747362942288e-05,-1.073472888325289e-05,2.352863408638179e-05,2.404171376602709e-05
10.4226497308,50.4226497308,8,0,-0.3534238594544357,7.326556922433744,-1.748853663731525,-6.992201888201188e-06,2.372772123935152e-05,-1.39908293098522e-05,2.524568150958785e-05,2.49344887543908e-05
11.5773502692,50.4226497308,8,0,-0.2183433944901245,7.866878782290987,-1.761269690479027,-6.992201888201188e-06,2.534868681892326e-05,-1.409015752383222e-05,2.681673461614461e-05,2.662888185404888e-05
10.4226497308,51.57735026920001,8,0,-0.3865332641144767,7.318279571268598,-1.546232966284937,-7.091530102181203e-06,2.372772123935109e-05,-1.236986373027949e-05,2.492261138475845e-05,2.523520506727947e-05
11.5773502692,51.57735026920001,8,0,-0.2514527991500666,7.858601431126239,-1.558648993032466,-7.091530102181203e-06,2.534868681892402e-05,-1.246919194425973e-05,2.65056352267766e-05,2.688964026548711e-05
12.4226497308,50.4226497308,8,0,-0.4594819788177862,8.18155460389584,-1.938366271448115,-8.015586015333587e-06,2.654856031552091e-05,-1.550693017158492e-05,2.820814161140679e-05,2.787711071054933e-05
13.5773502692,50.4226497308,8,0,-0.3213861641573765,8.733937862537479,-1.948943428512303,-8.015586015333587e-06,2.820571009144583e-05,-1.559154742809842e-05,2.981230476401578e-05,2.959294226646905e-05
12.4226497308,51.57735026920001,8,0,-0.4876877309890979,8.174503165853011,-1.73122254945742,-8.100203271847522e-06,2.654856031552091e-05,-1.384978039565936e-05,2.788130340176755e-05,2.810925856451141e-05
13.5773502692,51.57735026920001,8,0,-0.3495919163286794,8.726886424494687,-1.741799706521635,-8.100203271847522e-06,2.820571009144594e-05,-1.393439765217308e-05,2.949681923379713e-05,2.978688252522055e-05
14.4226497308,50.4226497308,8,0,-0.5755988258131013,9.052694180316834,-2.093635293379936,-9.084071586855391e-06,2.942910043766435e-05,-1.674908234703949e-05,3.11713011692747e-05,3.085144239890815e-05
15.5773502692,50.4226497308,8,0,-0.4351642585154001,9.614432449507639,-2.102282143724292,-9.084071586855391e-06,3.111431524523676e-05,-1.681825714979434e-05,3.280252689185893e-05,3.257389714629037e-05
14.4226497308,51.57735026920001,8,0,-0.5986570933980864,9.046929613420588,-1.882983442433371,-9.153246389610346e-06,2.942910043766435e-05,-1.506386753946697e-05,3.084733063655723e-05,3.101798144760453e-05
15.5773502692,51.57735026920001,8,0,-0.4582225261003852,9.608667882611392,-1.891630292777727,-9.153246389610346e-06,3.111431524523676e-05,-1.513304234222182e-05,3.248916926680106e-05,3.270378229213469e-05
16.4226497308,50.4226497308,8,0,-0.7004172580206509,9.935935041027166,-2.214924357551618,-1.019008325848781e-05,3.235532593770345e-05,-1.771939486041295e-05,3.412654026570731e-05,3.383369945710773e-05
17.5773502692,50.4226497308,8,0,-0.5583098032601708,10.50436486006909,-2.221500001324392,-1.019008325848781e-05,3.406061539482921e-05,-1.777200001059514e-05,3.57783379952697e-05,3.555308863051755e-05
16.4226497308,51.57735026920001,8,0,-0.717952308081256,9.931551278512014,-2.001763175410952,-1.024268840866963e-05,3.235532593770345e-05,-1.601410540328762e-05,3.381067218381566e-05,3.393723756263863e-05
17.5773502692,51.57735026920001,8,0,-0.575844853320731,10.49998109755411,-2.008338819183605,-1.024268840866963e-05,3.406061539482975e-05,-1.606671055346884e-05,3.547229260801048e-05,3.562129918613213e-05
18.4226497308,50.4226497308,8,0,-0.832488895967022,10.82730111373502,-2.302364164063087,-1.132580535808249e-05,3.531335468072569e-05,-1.84189133125047e-05,3.706600839078378e-05,3.68079917862738e-05
19.5773502692,50.4226497308,8,0,-0.6893840692399054,11.39972042064349,-2.306694113466114,-1.132580535808249e-05,3.703061260145108e-05,-1.845355290772891e-05,3.873133700771979e-05,3.851706179311433e-05
18.4226497308,51.57735026920001,8,0,-0.8440354277085356,10.82441448079964,-2.087706923972386,-1.136044495330703e-05,3.531335468072569e-05,-1.670165539177908e-05,3.676248351446123e-05,3.685076653431069e-05
19.5773502692,51.57735026920001,8,0,-0.7009306009813829,11.39683378770825,-2.09203687337548,-1.136044495330703e-05,3.703061260145152e-05,-1.673629498700384e-05,3.843683191458339e-05,3.852567217243078e-05
20.4226497308,50.4226497308,8,0,-0.9702062386747419,11.7227754168043,-2.356034107492752,-1.248288029720261e-05,3.828904632471354e-05,-1.884827285994202e-05,3.998188432910205e-05,3.976213814552e-05
21.5773502692,50.4226497308,8,0,-0.826802326230387,12.29639106658172,-2.357929951152425,-1.248288029720261e-05,4.00098932740458e-05,-1.88634396092194e-05,4.165311311478432e-05,4.145467999289891e-05
20.4226497308,51.57735026920001,8,0,-0.9752618217673112,11.72151152103116,-2.140928238826111,-1.249804704648032e-05,3.828904632471354e-05,-1.712742591060889e-05,3.969418230924874e-05,3.974613970131993e-05
21.5773502692,51.57735026920001,8,0,-0.8318579093229204,12.29512717080872,-2.142824082485852,-1.249804704648032e-05,4.000989327404623e-05,-1.714259265988682e-05,4.137363608846093e-05,4.14056133612548e-05
22.4226497308,50.4226497308,8,0,-1.111767507330008,12.61823373644788,-2.37605799726753,-1.365224301261433e-05,4.126776196249722e-05,-1.900846397814024e-05,4.286601410798218e-05,4.268551425311426e-05
23.5773502692,50.4226497308,8,0,-0.9687913225872538,13.1901384754189,-2.375338509963743,-1.365224301261433e-05,4.298347617941027e-05,-1.900270807970994e-05,4.453494701931725e-05,4.435567414048312e-05
22.4226497308,51.57735026920001,8,0,-1.109848874519619,12.61871339465048,-2.161593720153535,-1.364648711418316e-05,4.126776196249722e-05,-1.729274976122828e-05,4.259697943716796e-05,4.261265260486714e-05
23.5773502692,51.57735026920001,8,0,-0.9668726897768649,13.19061813362149,-2.160874232849598,-1.364648711418316e-05,4.298347617941027e-05,-1.728699386279679e-05,4.427336279547749e-05,4.425087148535089e-05
24.4226497308,50.4226497308,8,0,-1.255172770788336,13.50941770440933,-2.362703113916972,-1.482408703005014e-05,4.423427487074052e-05,-1.890162491133577e-05,4.570977717422472e-05,4.556799864080532e-05
25.5773502692,50.4226497308,8,0,-1.113378490956066,14.07659482373841,-2.359214701379433,-1.482408703005014e-05,4.593580622872775e-05,-1.887371761103546e-05,4.736773570433768e-05,4.72099708837181e-05
24.4226497308,51.57735026920001,8,0,-1.245870337354971,13.51174331276767,-2.150011694168554,-1.479617972975004e-05,4.423427487074052e-05,-1.720009355334843e-05,4.546167997479869e-05,4.544026880806734e-05
25.5773502692,51.57735026920001,8,0,-1.104076057522683,14.07892043209682,-2.146523281631096,-1.479617972975004e-05,4.593580622872797e-05,-1.717218625304877e-05,4.71263422853722e-05,4.705154384376945e-05
26.4226497308,50.4226497308,8,0,-1.398247750482061,14.39194467590598,-2.316473141216564,-1.598794854226738e-05,4.717282116328478e-05,-1.853178512973251e-05,4.850409795912639e-05,4.839951789798112e-05
27.57735026920001,50.4226497308,8,0,-1.258409726058034,14.95129677360208,-2.310107865994372,-1.598794854226738e-05,4.88508774563731e-05,-1.848086292795498e-05,5.014205497191865e-05,5.000744853616495e-05
26.4226497308,51.57735026920001,8,0,-1.381273683222918,14.39618819272063,-2.10671610458051,-1.593702634048984e-05,4.717282116328434e-05,-1.685372883664408e-05,4.827865761247326e-05,4.821914142434421e-05
27.57735026920001,51.57735026920001,8,0,-1.241435658798837,14.95554029041696,-2.100350829358345,-1.593702634048984e-05,4.885087745637332e-05,-1.680280663486676e-05,4.992260495191309e-05,4.979780230170243e-05
28.4226497308,50.4226497308,8,0,-1.538690064447354,15.26134947128639,-2.238187320926539,-1.713288778326064e-05,5.006727035967431e-05,-1.790549856741232e-05,5.123955148054592e-05,5.116992213411718e-05
29.5773502692,50.4226497308,8,0,-1.401590821044183,15.80974644489907,-2.228897201329161,-1.713288778326064e-05,5.171246128051236e-05,-1.783117761063329e-05,5.284830535772535e-05,5.273792842813128e-05
28.4226497308,51.57735026920001,8,0,-1.513916412187786,15.26754288435128,-2.032538455821824,-1.705856682648194e-05,5.006727035967431e-05,-1.626030764657459e-05,5.103794274228104e-05,5.09394556558001e-05
29.5773502692,51.57735026920001,8,0,-1.376817168784633,15.81593985796389,-2.023248336224445,-1.705856682648194e-05,5.171246128051214e-05,-1.618598668979556e-05,5.265201082219922e-05,5.24798497466007e-05
30.4226497308,50.4226497308,8,0,-1.674131648214838,16.11315136550386,-2.129040320820297,-1.824774236669057e-05,5.290138968818423e-05,-1.703232256656238e-05,5.390652774707537e-05,5.386904129073419e-05
31.5773502692,50.4226497308,8,0,-1.540546490246275,16.64749199737812,-2.116847087093956,-1.824774236669057e-05,5.4504411583807e-05,-1.693477669675164e-05,5.547690407984367e-05,5.539129280657732e-05
30.4226497308,51.57735026920001,8,0,-1.641616358278071,16.12128018798792,-1.928662583867437,-1.815019649688016e-05,5.290138968818379e-05,-1.54293006709395e-05,5.372938325745579e-05,5.359144965093427e-05
31.5773502692,51.57735026920001,8,0,-1.50803120030948,16.65562081986229,-1.916469350141136,-1.815019649688016e-05,5.450441158380689e-05,-1.533175480112909e-05,5.530443838154066e-05,5.508800297659076e-05
32.4226497308,50.4226497308,8,0,-1.802210724192149,16.94293875610307,-1.990639581418195,-1.932142532229733e-05,5.565917259888354e-05,-1.592511665134556e-05,5.649542906979764e-05,5.648683627555527e-05
33.57735026920001,50.4226497308,8,0,-1.672890401833833,17.46022004553634,-1.975639562056859,-1.932142532229733e-05,5.721101646718335e-05,-1.580511649645487e-05,5.801849629852844e-05,5.795766517898741e-05
32.4226497308,51.57735026920001,8,0,-1.762210672561776,16.95293876901066,-1.796659097880638,-1.920142516740621e-05,5.565917259888354e-05,-1.43732727830451e-05,5.634284775552508e-05,5.616553147243526e-05
33.57735026920001,51.57735026920001,8,0,-1.632890350203468,17.4702200584439,-1.781659078519261,-1.920142516740621e-05,5.721101646718324e-05,-1.425327262815409e-05,5.787000186692803e-05,5.761284074415435e-05
34.42264973080001,50.4226497308,8,0,-1.920646943894994,17.746463710956,-1.825019093251913,-2.034324118922878e-05,5.832520143017519e-05,-1.46001527460153e-05,5.899688069891735e-05,5.901359339692829e-05
35.5773502692,50.4226497308,8,0,-1.796299772248898,18.24385239754038,-1.807383342036762,-2.034324118922878e-05,5.981736748992834e-05,-1.445906673629409e-05,6.046416651744908e-05,6.042761403417891e-05
34.42264973080001,51.57735026920001,8,0,-1.873618273987961,17.75822087843276,-1.638498335782891,-2.020215517950768e-05,5.832520143017519e-05,-1.310798668626312e-05,5.886844793456624e-05,5.86524428886206e-05
35.5773502692,51.57735026920001,8,0,-1.749271102341874,18.25560956501711,-1.620862584567659,-2.020215517950768e-05,5.981736748992823e-05,-1.296690067654127e-05,6.033927439561106e-05,6.004537949536163e-05
36.4226497308,50.4226497308,8,0,-2.027314085898515,18.51973901153257,-1.634630459272453,-2.13031962841013e-05,6.088501610562302e-05,-1.307704367417963e-05,6.140194008028092e-05,6.144013035289504e-05
37.5773502692,50.4226497308,8,0,-1.908588735641727,18.99464041255972,-1.614600583039859,-2.13031962841013e-05,6.230972030870448e-05,-1.291680466431887e-05,6.280563683893416e-05,6.279235574198709e-05
36.4226497308,51.57735026920001,8,0,-1.973901082611614,18.53309226235429,-1.456542433887298,-2.11429572742406e-05,6.088501610562302e-05,-1.165233947109838e-05,6.129676245675317e-05,6.10434394541919e-05
37.5773502692,51.57735026920001,8,0,-1.855175732354835,19.00799366338141,-1.43651255765469,-2.11429572742406e-05,6.230972030870437e-05,-1.149210046123752e-05,6.270350072638815e-05,6.237725336409117e-05
38.4226497308,50.4226497308,8,0,-2.120305788900228,19.25913122006823,-1.422313577235373,-2.219228350053531e-05,6.332546453533851e-05,-1.137850861788298e-05,6.370229408038535e-05,6.375799412240022e-05
39.5773502692,50.4226497308,8,0,-2.007775736258836,19.7092514306338,-1.40019396466988,-2.219228350053531e-05,6.467582516703522e-05,-1.120155171735904e-05,6.503544350510265e-05,6.504394185044756e-05
38.4226497308,51.57735026920001,8,0,-2.061320155392393,19.27387762844519,-1.253518498273392,-2.20153266000118e-05,6.332546453533851e-05,-1.002814798618714e-05,6.361904918260723e-05,6.33304676949337e-05
39.5773502692,51.57735026920001,8,0,-1.948790102751046,19.72399783901058,-1.231398885707968,-2.20153266000118e-05,6.467582516703468e-05,-9.851191085663742e-06,6.495478870945651e-05,6.460088376750971e-05
40.4226497308,50.4226497308,8,0,-2.197991045119745,19.96144452505025,-1.19125027138735,-2.300272696442339e-05,6.56350153162566e-05,-9.530002171098803e-06,6.589043692969283e-05,6.595963895618075e-05
41.5773502692,50.4226497308,8,0,-2.092141412602419,20.38484305511956,-1.167397551992517,-2.300272696442339e-05,6.690521090646452e-05,-9.339180415940136e-06,6.714708686586936e-05,6.717542224544661e-05
40.4226497308,51.57735026920001,8,0,-2.13438379340019,19.97734633798014,-1.032475822611279,-2.281190520926472e-05,6.56350153162566e-05,-8.25980658089023e-06,6.582743665907032e-05,6.550632751051235e-05
41.5773502692,51.57735026920001,8,0,-2.028534160882863,20.40074486804945,-1.008623103216527,-2.281190520926472e-05,6.690521090646452e-05,-8.068984825732213e-06,6.708627274109327e-05,6.67096297473201e-05
42.4226497308,50.4226497308,8,0,-2.25905740082325,20.62399146997681,-0.9449047254538794,-2.372817685861585e-05,6.780401862458438e-05,-7.559237803631035e-06,6.795982438813805e-05,6.803857792935037e-05
43.57735026920001,50.4226497308,8,0,-2.160274670653719,21.01912239065494,-0.9197153192537906,-2.372817685861585e-05,6.898941138661877e-05,-7.357722554030325e-06,6.913515266431203e-05,6.918097982345174e-05
42.4226497308,51.57735026920001,8,0,-2.191885650956456,20.64078440744351,-0.7967306301995269,-2.352666160901546e-05,6.780401862458438e-05,-6.373845041596216e-06,6.791508906100048e-05,6.756481280048396e-05
43.57735026920001,51.57735026920001,8,0,-2.093102920786924,21.03591532812164,-0.7715412239993704,-2.352666160901546e-05,6.898941138661877e-05,-6.172329791994963e-06,6.909224582970038e-05,6.869791411479111e-05
44.4226497308,50.4226497308,8,0,-2.302540877703409,21.24464798380716,-0.6869546960320546,-2.436384919569663e-05,6.982490625034561e-05,-5.495637568256437e-06,6.990500172193469e-05,6.998950501885582e-05
45.5773502692,50.4226497308,8,0,-2.211105739767918,21.61038853554912,-0.6608512736359164,-2.436384919569663e-05,7.092212790557151e-05,-5.286810189087331e-06,7.099540438615827e-05,7.105603503789181e-05
44.4226497308,51.57735026920001,8,0,-2.23293175131367,21.26205026540459,-0.5498019891288317,-2.415502181652741e-05,6.982490625034561e-05,-4.398415913030654e-06,6.987634138295919e-05,6.950082661975041e-05
45.5773502692,51.57735026920001,8,0,-2.141496613378215,21.62779081714641,-0.5236985667326663,-2.415502181652741e-05,7.092212790557107e-05,-4.189588533861331e-06,7.09682592308623e-05,7.056132306311774e-05
46.42264973080001,50.4226497308,8,0,-2.327842469627672,21.82189129559971,-0.4212173304570719,-2.490660893928831e-05,7.169232612162118e-05,-3.369738643656576e-06,7.172170451528395e-05,7.180838687334872e-05
47.57735026920001,50.4226497308,8,0,-2.243925886043434,22.15755762993666,-0.3946349194959223,-2.490660893928831e-05,7.269932512463204e-05,-3.157079355967378e-06,7.272484750856062e-05,7.279732029403609e-05
46.42264973080001,51.57735026920001,8,0,-2.256956040398048,21.83961290290711,-0.295342455080823,-2.469394965159944e-05,7.169232612162118e-05,-2.362739640646584e-06,7.170680354639301e-05,7.131046933403349e-05
47.57735026920001,51.57735026920001,8,0,-2.173039456813774,22.17527923724421,-0.2687600441196462,-2.469394965159944e-05,7.269932512463247e-05,-2.150080352957169e-06,7.271119011844872e-05,7.229667856519577e-05
48.4226497308,50.4226497308,8,0,-2.334731672794901,22.35482027655495,-0.1515730982285473,-2.535499757418765e-05,7.340321022321177e-05,-1.212584785828378e-06,7.340693220866216e-05,7.34925246913638e-05
49.57735026920001,50.4226497308,8,0,-2.258394102038095,22.66017055958218,-0.1249454734397748,-2.535499757418765e-05,7.431926107229344e-05,-9.995637875181984e-07,7.432176699172628e-05,7.440292500590176e-05
48.4226497308,51.57735026920001,8,0,-2.263724673358175,22.37257202641414,-0.03706674209339204,-2.514197657587747e-05,7.340321022321177e-05,-2.965339367471363e-07,7.34034332989891e-05,7.299109958427611e-05
49.57735026920001,51.57735026920001,8,0,-2.18738710260136,22.6779223094414,-0.01043911730463313,-2.514197657587747e-05,7.431926107229355e-05,-8.351293843706503e-08,7.431927860276528e-05,7.390208385916566e-05
50.42264973080001,50.4226497308,8,0,-2.3233379127724,22.84315851080569,0.1181090247474154,-2.570920812951623e-05,7.495677756479613e-05,9.448721979793233e-07,7.495899470845556e-05,7.504058722833124e-05
51.57735026920001,50.4226497308,8,0,-2.254531529508053,23.11838404386308,0.1443621240701954,-2.570920812951623e-05,7.57824541639683e-05,1.154896992561563e-06,7.578573951731434e-05,7.587231250361201e-05
50.42264973080001,51.57735026920001,8,0,-2.253329647911672,22.86066057702087,0.2213185996439374,-2.549918333493405e-05,7.495677756479613e-05,1.7705487971515e-06,7.496457849466876e-05,7.454136864823424e-05
51.57735026920001,51.57735026920001,8,0,-2.184523264647324,23.13588611007826,0.2475716989667716,-2.549918333493405e-05,7.57824541639683e-05,1.980573591734173e-06,7.579213582224098e-05,7.537694289766021e-05
52.4226497308,50.4226497308,8,0,-2.294131009871388,23.28724099318264,0.3840423356902395,-2.597101202613455e-05,7.635447598608154e-05,3.072338685521916e-06,7.637753265246649e-05,7.645261622336802e-05
53.5773502692,50.4226497308,8,0,-2.232704669709254,23.53294635383117,0.4095266957405042,-2.597101202613455e-05,7.709159206802714e-05,3.276213565924033e-06,7.711762203589705e-05,7.720631019434931e-05
52.4226497308,51.57735026920001,8,0,-2.226172716403782,23.30423056654954,0.4761818459334259,-2.576713714573173e-05,7.635447598608154e-05,3.809454767467408e-06,7.638998977269423e-05,7.596122926157301e-05
53.5773502692,51.57735026920001,8,0,-2.164746376241639,23.54993592719811,0.5016662059837448,-2.576713714573173e-05,7.709159206802725e-05,4.013329647869959e-06,7.713072508428581e-05,7.672195504459438e-05
54.42264973080001,50.4226497308,8,0,-2.247892052629372,23.68798584899525,0.6425866833288288,-2.614364324761019e-05,7.759986835888829e-05,5.140693466630631e-06,7.766351216362692e-05,7.773000576506963e-05
55.57735026920001,50.4226497308,8,0,-2.193598671877134,23.90515937200421,0.6669434129603116,-2.614364324761019e-05,7.825138892791515e-05,5.335547303682493e-06,7.831951836366726e-05,7.840707470105587e-05
54.42264973080001,51.57735026920001,8,0,-2.182940773612049,23.70422366874958,0.7240267544572534,-2.594878941055822e-05,7.759986835888829e-05,5.792214035658027e-06,7.768080504403949e-05,7.725192036311081e-05
55.57735026920001,51.57735026920001,8,0,-2.12864739285981,23.92139719175854,0.7483834840887632,-2.594878941055822e-05,7.825138892791515e-05,5.987067872710106e-06,7.833731835437633e-05,7.793908675658735e-05
56.4226497308,50.4226497308,8,0,-2.185676288398905,24.04685292483675,0.8903040809184584,-2.62316464627459e-05,7.869847039019672e-05,7.122432647347667e-06,7.881919537898936e-05,7.887545754023148e-05
57.57735026920001,50.4226497308,8,0,-2.138182229973857,24.23682915853694,0.9132173763826915,-2.62316464627459e-05,7.92683990912973e-05,7.305739011061532e-06,7.939472602376996e-05,7.947803431832084e-05
56.4226497308,51.57735026920001,8,0,-2.124574167161204,24.06212845514618,0.9615451685560301,-2.604834009903279e-05,7.869847039019672e-05,7.692361348448241e-06,7.883950775611926e-05,7.841592974736364e-05
57.57735026920001,51.57735026920001,8,0,-2.077080108736165,24.25210468884633,0.984458464020182,-2.604834009903279e-05,7.926839909129719e-05,7.875667712161456e-06,7.941543096131465e-05,7.903152263197646e-05
58.4226497308,50.4226497308,8,0,-2.108769914633237,24.36579154330171,1.124003820674949,-2.624069696146773e-05,7.965754887027205e-05,8.992030565399588e-06,7.984808883423391e-05,7.989291467414261e-05
59.57735026920001,50.4226497308,8,0,-2.067665892394972,24.53020763225477,1.145206428854401,-2.624069696146773e-05,8.015079713713123e-05,9.161651430835208e-06,8.034766632236445e-05,8.042381210726879e-05
58.4226497308,51.57735026920001,8,0,-2.052229626154789,24.37992661542132,1.185659854032346,-2.607107609603238e-05,7.965754887027205e-05,9.485278832258763e-06,7.986986177860254e-05,7.945693735451275e-05
59.57735026920001,51.57735026920001,8,0,-2.011125603916524,24.54434270437438,1.206862462211798,-2.607107609603238e-05,8.015079713713123e-05,9.654899697694383e-06,8.036973826589688e-05,8.000359910620632e-05
60.4226497308,50.4226497308,8,0,-2.018642945677681,24.64718014425418,1.340775671601511,-2.617740154157191e-05,8.04858908181555e-05,1.072620537281209e-05,8.075487294318302e-05,8.078747799458751e-05
61.5773502692,50.4226497308,8,0,-1.983455887758288,24.78792837593175,1.360051874567881,-2.617740154157191e-05,8.090813551318821e-05,1.088041499654305e-05,8.118380173823152e-05,8.125013424263792e-05
60.4226497308,51.57735026920001,8,0,-1.967239737767236,24.66003094623179,1.393556258480607,-2.602319191784058e-05,8.04858908181555e-05,1.114845006784486e-05,8.077682695334742e-05,8.037974291903542e-05
61.5773502692,51.57735026920001,8,0,-1.932052679847857,24.80077917790931,1.412832461447004,-2.602319191784058e-05,8.090813551318805e-05,1.130265969157603e-05,8.120597917550724e-05,8.086072517498732e-05
62.42264973080001,50.4226497308,8,0,-1.916900583212777,24.89376091089751,1.538010277335072,-2.604909059499889e-05,8.119355538144224e-05,1.230408221868058e-05,8.154531724871316e-05,8.156530992434626e-05
63.57735026920001,50.4226497308,8,0,-1.887105842666057,25.01293987308439,1.555196339045758,-2.604909059499889e-05,8.155109226800288e-05,1.244157071236606e-05,8.190954594699732e-05,8.196372965206978e-05
62.42264973080001,51.57735026920001,8,0,-1.871071085317561,24.90521828537132,1.582702388155152,-2.591160210131324e-05,8.119355538144224e-05,1.266161910524121e-05,8.156646077737212e-05,8.119018285082831e-05
63.57735026920001,51.57735026920001,8,0,-1.841276344770841,25.02439724755819,1.599888449865865,-2.591160210131324e-05,8.155109226800288e-05,1.279910759892692e-05,8.19308526224674e-05,8.160929570425584e-05
64.4226497308,50.4226497308,8,0,-1.805235663785647,25.10857273761486,1.713406523768216,-2.586361231420595e-05,8.179162129139605e-05,1.370725219014573e-05,8.222618764887942e-05,8.223353261922479e-05
65.57735026920001,50.4226497308,8,0,-1.780268944946179,25.20843961297273,1.728388678983693,-2.586361231420595e-05,8.209122191746965e-05,1.382710943186955e-05,8.25321729993954e-05,8.257222830583297e-05
64.4226497308,51.57735026920001,8,0,-1.765283249877816,25.11856084109181,1.75085660202739,-2.574375507248246e-05,8.179162129139605e-05,1.400685281621912e-05,8.224581313850095e-05,8.189504237680675e-05
65.57735026920001,51.57735026920001,8,0,-1.740316531038363,25.21842771644963,1.765838757242786,-2.574375507248246e-05,8.209122191746949e-05,1.412671005794229e-05,8.255191424781313e-05,8.22566039509153e-05
66.4226497308,50.4226497308,8,0,-1.685384733725604,25.29488597500449,1.864966375845951,-2.562913992792552e-05,8.229194290699485e-05,1.491973100676761e-05,8.280515318146434e-05,8.280012816421034e-05
67.57735026920001,50.4226497308,8,0,-1.664653124102471,25.37781241349703,1.877676588553219,-2.562913992792552e-05,8.254072222247245e-05,1.502141270842575e-05,8.305973312354692e-05,8.308406646975336e-05
66.4226497308,51.57735026920001,8,0,-1.651490833172819,25.30335945014269,1.896063790280658,-2.552745822626717e-05,8.229194290699485e-05,1.516851032224526e-05,8.282282225583527e-05,8.250196992789545e-05
67.57735026920001,51.57735026920001,8,0,-1.630759223549703,25.38628588863515,1.908774002987987,-2.552745822626717e-05,8.254072222247224e-05,1.527019202390389e-05,8.307748133625238e-05,8.281076066937398e-05
68.42264973080002,50.4226497308,8,0,-1.559090081027842,25.45614224409741,1.990978415870173,-2.535400205456702e-05,8.2706927245934e-05,1.592782732696139e-05,8.329070095127483e-05,8.327384937539235e-05
69.57735026920001,50.4226497308,8,0,-1.541981643268462,25.52457599513493,2.001388271577592,-2.535400205456702e-05,8.291222849904654e-05,1.601110617262074e-05,8.350098316278351e-05,8.35084076104852e-05
68.42264973080002,51.57735026920001,8,0,-1.531330465808022,25.46308214790237,2.01664107250918,-2.527072320890756e-05,8.2706927245934e-05,1.613312858007344e-05,8.330622077051165e-05,8.301940132000339e-05
69.57735026920001,51.57735026920001,8,0,-1.514222028048666,25.53151589893979,2.027050928216626,-2.527072320890756e-05,8.291222849904627e-05,1.621640742573301e-05,8.351655438076667e-05,8.328062743659284e-05
70.4226497308,50.4226497308,8,0,-1.42806964788597,25.59590224178594,2.089991967396455,-2.504654466666385e-05,8.304934289202377e-05,1.671993573917164e-05,8.36920682396491e-05,8.366414983918073e-05
71.57735026920001,50.4226497308,8,0,-1.413961128305429,25.65233632010811,2.098105173097505,-2.504654466666385e-05,8.321864512699027e-05,1.678484138478004e-05,8.386533970476339e-05,8.385508728578616e-05
70.4226497308,51.57735026920001,8,0,-1.406434432683351,25.60131104558659,2.111154746767328,-2.4981639021056e-05,8.304934289202377e-05,1.688923797413863e-05,8.370546114092812e-05,8.34565012813988e-05
71.57735026920001,51.57735026920001,8,0,-1.392325913102801,25.6577451239088,2.11926795246829,-2.4981639021056e-05,8.321864512699038e-05,1.695414361974632e-05,8.387876345135499e-05,8.367577144456216e-05
72.4226497308,50.4226497308,8,0,-1.2939962065793,25.71780389841325,2.160784186333145,-2.471503097978435e-05,8.333216944018582e-05,1.728627349066516e-05,8.401920066913423e-05,8.398114111551762e-05
73.57735026920001,50.4226497308,8,0,-1.282258543529962,25.7647545506106,2.166628221409991,-2.471503097978435e-05,8.347302139677788e-05,1.733302577127993e-05,8.416286249491063e-05,8.41345891362418e-05
72.4226497308,51.57735026920001,8,0,-1.27841211304115,25.72169992179779,2.178390680907119,-2.46682786991699e-05,8.333216944018582e-05,1.742712544725695e-05,8.403066907512491e-05,8.382312917894636e-05
73.57735026920001,51.57735026920001,8,0,-1.266674449991799,25.76865057399519,2.184234715983972,-2.46682786991699e-05,8.347302139677804e-05,1.747387772787178e-05,8.41743468227873e-05,8.400644783302597e-05
74.4226497308,50.4226497308,8,0,-1.158486578660168,25.82553256299764,2.202322800166463,-2.436758310211064e-05,8.356849346452056e-05,1.76185824013317e-05,8.428274452252229e-05,8.42355833943711e-05
75.57735026920001,50.4226497308,8,0,-1.14848803006042,25.86552675739663,2.205940286632705,-2.436758310211064e-05,8.368847604771752e-05,1.764752229306164e-05,8.440427480549149e-05,8.435805681814059e-05
74.4226497308,51.57735026920001,8,0,-1.148839948083459,25.82794422064181,2.217320623066043,-2.433864321038052e-05,8.356849346452056e-05,1.773856498452834e-05,8.429263272597662e-05,8.412983421242695e-05
75.57735026920001,51.57735026920001,8,0,-1.138841399483689,25.86793841504089,2.220938109532319,-2.433864321038052e-05,8.36884760477178e-05,1.776750487625855e-05,8.441416815983529e-05,8.428361341584714e-05
76.42264973080002,50.4226497308,8,0,-1.023101089895062,25.92280416280252,2.2137272701318,-2.401216681790621e-05,8.37714541928841e-05,1.77098181610544e-05,8.449408000586381e-05,8.443891303515817e-05
77.57735026920001,50.4226497308,8,0,-1.014207929451201,25.95837680457796,2.215167615174098,-2.401216681790621e-05,8.387817211821043e-05,1.772134092139279e-05,8.460102611863494e-05,8.453734290439792e-05
76.42264973080002,51.57735026920001,8,0,-1.019260169782309,25.92376439283071,2.227067010797618,-2.400064405756795e-05,8.37714541928841e-05,1.781653608638094e-05,8.450283387802593e-05,8.438788252984723e-05
77.57735026920001,51.57735026920001,8,0,-1.010367009338475,25.95933703460604,2.228507355839883,-2.400064405756795e-05,8.38781721182101e-05,1.782805884671906e-05,8.460977705763151e-05,8.451897184354763e-05
78.4226497308,50.4226497308,8,0,-0.8893529446452826,26.01336158933584,2.194231066529876,-2.365661869433358e-05,8.395423944159092e-05,1.755384853223901e-05,8.466540047940028e-05,8.460330563871555e-05
79.57735026920001,50.4226497308,8,0,-0.8809277890658036,26.04706221165376,2.193542884355977,-2.365661869433358e-05,8.405534130854467e-05,1.754834307484782e-05,8.476540081964074e-05,8.468508931104537e-05
78.4226497308,51.57735026920001,8,0,-0.8911880971091843,26.01290280121987,2.206868799899169,-2.366212415172528e-05,8.395423944159092e-05,1.765495039919335e-05,8.467352546310408e-05,8.460931388585354e-05
79.57735026920001,51.57735026920001,8,0,-0.8827629415297276,26.0466034235377,2.206180617725189,-2.366212415172528e-05,8.40553413085444e-05,1.764944494180151e-05,8.477351594759382e-05,8.472504362180292e-05
80.4226497308,50.4226497308,8,0,-0.7587268121980095,26.10098396114498,2.143147534820267,-2.330871296794961e-05,8.413013012542234e-05,1.714518027856214e-05,8.480984049282713e-05,8.474176500607973e-05
81.57735026920001,50.4226497308,8,0,-0.7501247304809668,26.13539228801315,2.140372291723535,-2.330871296794961e-05,8.423335510602685e-05,1.712297833378828e-05,8.491067456261814e-05,8.481482221214465e-05
80.4226497308,51.57735026920001,8,0,-0.7661274604560795,26.09913379908047,2.156050657395824,-2.333091491272382e-05,8.413013012542234e-05,1.724840525916659e-05,8.48178574970682e-05,8.480701690620445e-05
81.57735026920001,51.57735026920001,8,0,-0.7575253787390457,26.1335421259486,2.153275414299024,-2.333091491272382e-05,8.423335510602674e-05,1.722620331439219e-05,8.491867429017756e-05,8.491524234811286e-05
82.4226497308,50.4226497308,8,0,-0.6327056550508257,26.18950793727258,2.059841550405522,-2.29762644459807e-05,8.431258992331291e-05,1.647873240324417e-05,8.494165279940668e-05,8.486821308982062e-05
83.57735026920001,50.4226497308,8,0,-0.6232682745542304,26.22725745925896,2.055008810292143,-2.29762644459807e-05,8.442583848927205e-05,1.644007048233714e-05,8.505131744734754e-05,8.494102247423336e-05
82.4226497308,51.57735026920001,8,0,-0.6455929620197276,26.18628611053035,2.073997621150408,-2.301492636688741e-05,8.431258992331291e-05,1.659198096920327e-05,8.495005088401557e-05,8.499479609886553e-05
83.57735026920001,51.57735026920001,8,0,-0.6361555815231323,26.22403563251673,2.069164881037043,-2.301492636688741e-05,8.442583848927205e-05,1.655331904829634e-05,8.505968847319324e-05,8.510391554595536e-05
84.42264973080002,50.4226497308,8,0,-0.5128046818018888,26.28285990866714,1.943708871439892,-2.266726290869975e-05,8.451539545317635e-05,1.554967097151913e-05,8.507643122715313e-05,8.499752665703703e-05
85.57735026920001,50.4226497308,8,0,-0.5018525476677125,26.32666844520385,1.936833460253433,-2.266726290869975e-05,8.464682106278646e-05,1.549466768202746e-05,8.520323991753864e-05,8.507908957089067e-05
84.42264973080002,51.57735026920001,8,0,-0.5311391116324726,26.27827630120949,1.960137072641122,-2.27222661981915e-05,8.451539545317635e-05,1.568109658112897e-05,8.508561533526906e-05,8.518737290615738e-05
85.57735026920001,51.57735026920001,8,0,-0.5201869774983017,26.32208483774618,1.953261661454643,-2.27222661981915e-05,8.464682106278641e-05,1.562609329163714e-05,8.521238271056957e-05,8.530626320741474e-05
86.4226497308,50.4226497308,8,0,-0.4006112439183731,26.38509765965003,1.794164848353579,-2.239003410825881e-05,8.475280150601477e-05,1.435331878682863e-05,8.523137209772867e-05,8.514540801277673e-05
87.57735026920002,50.4226497308,8,0,-0.387434715092378,26.43780377495401,1.785246212688113,-2.239003410825881e-05,8.491091985192672e-05,1.428196970150491e-05,8.538407306078321e-05,8.524503045164243e-05
86.4226497308,51.57735026920001,8,0,-0.4243942723595424,26.37915190253974,1.813929641592498,-2.246138319358232e-05,8.475280150601477e-05,1.451143713273998e-05,8.524160365953502e-05,8.540020170761712e-05
87.57735026920002,51.57735026920001,8,0,-0.4112177435335331,26.43185801784377,1.805011005927059,-2.246138319358232e-05,8.491091985192689e-05,1.444008804741648e-05,8.539424221464076e-05,8.55379561617104e-05
88.42264973080002,50.4226497308,8,0,-0.2978294752567425,26.50045993282959,1.6106439664519,-2.215342226708525e-05,8.503973536526008e-05,1.28851517316152e-05,8.542556150278409e-05,8.532785915940882e-05
89.57735026920001,50.4226497308,8,0,-0.2816784601456916,26.5650639932738,1.59966797792707,-2.215342226708525e-05,8.523354754659269e-05,1.279734382341656e-05,8.561346944637752e-05,8.545452895849589e-05
88.42264973080002,51.57735026920001,8,0,-0.3270987779898373,26.49314260714632,1.634870489118564,-2.224123017528453e-05,8.503973536526008e-05,1.307896391294851e-05,8.543688962777199e-05,8.564885753115504e-05
89.57735026920001,51.57735026920001,8,0,-0.3109477628787687,26.55774666759059,1.623894500593626,-2.224123017528453e-05,8.523354754659291e-05,1.299115600474901e-05,8.562470471431334e-05,8.581409125302636e-05
90.42264973080002,50.4226497308,8,0,-0.2063284517561534,26.63342220493911,1.392611596802183,-2.196698880957098e-05,8.539201381721007e-05,1.114089277441747e-05,8.568026893492441e-05,8.555978793190231e-05
91.57735026920001,50.4226497308,8,0,-0.1864013083146645,26.71313077870507,1.379555049339838,-2.196698880957098e-05,8.563113953850794e-05,1.103644039471871e-05,8.591340356699103e-05,8.572069099612641e-05
90.42264973080002,51.57735026920001,8,0,-0.2411459116556234,26.62471783996424,1.422502311964404,-2.207144118926939e-05,8.539201381721007e-05,1.138001849571523e-05,8.569245030656936e-05,8.59474986841625e-05
91.57735026920001,51.57735026920001,8,0,-0.2212187682141344,26.7044264137302,1.409445764502092,-2.207144118926939e-05,8.563113953850794e-05,1.127556611601674e-05,8.592544984230985e-05,8.614674084227778e-05
92.42264973080002,50.4226497308,8,0,-0.128192583944208,26.78875684174718,1.139589307119667,-2.184122174201921e-05,8.582657596074633e-05,9.11671445695734e-06,8.601921953217028e-05,8.585177996330911e-05
93.57735026920001,50.4226497308,8,0,-0.1036245411166359,26.88702901305747,1.124427365583614,-2.184122174201921e-05,8.61213924746772e-05,8.995418924668912e-06,8.630844243513234e-05,8.60490186177551e-05
92.42264973080002,51.57735026920001,8,0,-0.1686244280403502,26.77864888072315,1.176441371361094,-2.196251727430763e-05,8.582657596074633e-05,9.411530970888753e-06,8.603162623555108e-05,8.630538658565618e-05
93.57735026920001,51.57735026920001,8,0,-0.144056385212755,26.87692105203352,1.16127942982502,-2.196251727430763e-05,8.612139247467747e-05,9.290235438600162e-06,8.632065813662606e-05,8.653957265887361e-05
94.4226497308,50.4226497308,8,0,-0.06577280914635963,26.9715956034061,0.8511951207318506,-2.178774947199323e-05,8.63617241782166e-05,6.809560965854804e-06,8.646880803903255e-05,8.620305009756641e-05
95.57735026920002,50.4226497308,8,0,-0.03562431657664433,27.09218957368496,0.8339120000270289,-2.178774947199323e-05,8.672350608905318e-05,6.671296000216231e-06,8.682594756636241e-05,8.642663327194778e-05
94.4226497308,51.57735026920001,8,0,-0.1118611310259103,26.96007352293621,0.8964178595864095,-2.192601443763188e-05,8.63617241782166e-05,7.171342876691276e-06,8.648032461962599e-05,8.67193705871004e-05
95.57735026920002,51.57735026920001,8,0,-0.08171263845618171,27.08066749321513,0.879134738881554,-2.192601443763188e-05,8.672350608905334e-05,7.033077911052432e-06,8.683720304021472e-05,8.697640158891508e-05
96.4226497308,50.4226497308,8,0,-0.02173689197391404,27.1874921785881,0.5272001777498205,-2.181955179718701e-05,8.701736448506105e-05,4.217601421998565e-06,8.705820882657977e-05,8.658647690746462e-05
97.57735026920001,50.4226497308,8,0,0.01501762113630889,27.334510231029,0.507803352463437,-2.181955179718701e-05,8.745841864238373e-05,4.062426819707496e-06,8.749616095602243e-05,8.679959466660037e-05
96.4226497308,51.57735026920001,8,0,-0.07346175940439625,27.17456096173049,0.5823319474151142,-2.197472639947845e-05,8.701736448506105e-05,4.658655579320914e-06,8.706712306837713e-05,8.715802356200644e-05
97.57735026920001,51.57735026920001,8,0,-0.03670724629418221,27.32157901417134,0.5629351221287239,-2.197472639947845e-05,8.745841864238362e-05,4.503480977029791e-06,8.750473176187445e-05,8.739719301846938e-05
98.42264973080002,50.4226497308,8,0,0.0008832537685998787,27.4424820051731,0.1676033069912045,-2.195115919207896e-05,8.781523581353904e-05,1.340826455929636e-06,8.781933030103112e-05,8.691725226811861e-05
99.57735026920002,50.4226497308,8,0,0.04536562737939676,27.62041149961629,0.1461415615745844,-2.195115919207896e-05,8.83490242968686e-05,1.169132492596675e-06,8.835212227991816e-05,8.702558105424103e-05
98.42264973080002,51.57735026920001,8,0,-0.05634806734235998,27.42817417489536,0.2343268674074065,-2.212285315541184e-05,8.781523581353904e-05,1.874614939259252e-06,8.782322650584322e-05,8.752851144415227e-05
99.57735026920002,51.57735026920001,8,0,-0.01186569373155866,27.60610366933857,0.2128651219907864,-2.212285315541184e-05,8.834902429686865e-05,1.702920975926291e-06,8.835558652715218e-05,8.76481105986402e-05
0.4226497308,52.42264973080001,8,0,-0.0288195011106962,3.840759414485239,-0.2495991605837815,-3.164829935142419e-06,1.231348572724132e-05,-1.996793284670252e-06,1.237761949585043e-05,1.497881525307421e-05
1.5773502692,52.42264973080001,8,0,0.07305058673953368,4.248239765886159,-0.2703027515945283,-3.164829935142419e-06,1.353592678144408e-05,-2.162422012756226e-06,1.360563369391653e-05,1.539976649128407e-05
0.4226497308,53.57735026920001,8,0,-0.08402907713930019,3.826957020478088,-0.09679402880840952,-3.330458663228231e-06,1.231348572724132e-05,-7.743522304672762e-07,1.232306218902409e-05,1.555583073874459e-05
1.5773502692,53.57735026920001,8,0,0.01784101071092969,4.234437371879008,-0.1174976198191563,-3.330458663228231e-06,1.353592678144408e-05,-9.399809585532506e-07,1.354901315363672e-05,1.596336377417523e-05
2.4226497308,52.42264973080001,8,0,-0.05896434917954974,4.505413215578236,-0.5982694075900105,-3.793016489837147e-06,1.446449376919399e-05,-4.786155260720084e-06,1.477295172191761e-05,1.591902240434017e-05
3.5773502692,52.42264973080001,8,0,0.05057324537616337,4.943563593801088,-0.6169776349819299,-3.793016489837147e-06,1.577894490386255e-05,-4.935821079855439e-06,1.608533759646893e-05,1.691670470279044e-05
2.4226497308,53.57735026920001,8,0,-0.1088529555583628,4.492941063983396,-0.4339630157564273,-3.942682308973478e-06,1.446449376919356e-05,-3.471704126051418e-06,1.462675941132201e-05,1.646639170139383e-05
3.5773502692,53.57735026920001,8,0,0.000684638997404452,4.931091442206466,-0.452671243148428,-3.942682308973478e-06,1.577894490386277e-05,-3.621369945187424e-06,1.594380958125654e-05,1.743315652080885e-05
4.422649730800001,52.42264973080001,8,0,-0.1091554492181674,5.213274060228859,-0.9121984363503669,-4.519916685681222e-06,1.676980135210688e-05,-7.297587490802935e-06,1.737779616362451e-05,1.776219718760568e-05
5.577350269200001,52.42264973080001,8,0,0.006896136203224934,5.677480401914428,-0.9289074333035087,-4.519916685681222e-06,1.816242037716359e-05,-7.43125946642807e-06,1.875557243689634e-05,1.90744433151865e-05
4.422649730800001,53.57735026920001,8,0,-0.153712774426636,5.202134728926741,-0.7381210582182106,-4.653588661306628e-06,1.676980135210688e-05,-5.904968465745685e-06,1.716925268869293e-05,1.825328711802035e-05
5.577350269200001,53.57735026920001,8,0,-0.03766118900522564,5.666341070612383,-0.7548300551714067,-4.653588661306628e-06,1.81624203771638e-05,-6.038640441371253e-06,1.855521505569194e-05,1.952716075912419e-05
6.422649730800001,52.42264973080001,8,0,-0.1765466852815953,5.957752465297746,-1.19166535287159,-5.331151365139302e-06,1.920604523717806e-05,-9.533322822972718e-06,2.009949712916737e-05,2.009777037800661e-05
7.577350269200001,52.42264973080001,8,0,-0.05499525889279733,6.443958170852938,-1.20639823332582,-5.331151365139302e-06,2.066466235384364e-05,-9.651185866606563e-06,2.153152847792323e-05,2.158130577892943e-05
6.422649730800001,53.57735026920001,8,0,-0.2158343664926963,5.947930544994971,-1.009338213288488,-5.449014408772605e-06,1.920604523717806e-05,-8.074705706307903e-06,1.985033909467328e-05,2.052165075010136e-05
7.577350269200001,53.57735026920001,8,0,-0.09428294010394356,6.434136250549982,-1.024071093742678,-5.449014408772605e-06,2.06646623538431e-05,-8.192568749941422e-06,2.129214252320568e-05,2.196477429208135e-05
8.4226497308,52.42264973080001,8,0,-0.2587858442976174,6.733009806289725,-1.437117354098356,-6.214522546784155e-06,2.175266005556521e-05,-1.149693883278685e-05,2.288812052060585e-05,2.270131197079919e-05
9.5773502692,52.42264973080001,8,0,-0.1326318540406786,7.23762576731748,-1.449893073773278,-6.214522546784155e-06,2.326650793864848e-05,-1.159914459018623e-05,2.436637868954872e-05,2.42776903909864e-05
8.4226497308,53.57735026920001,8,0,-0.2928544300975011,6.724492659839754,-1.247886368712866,-6.316728304183806e-06,2.175266005556521e-05,-9.983090949702931e-06,2.261387695726317e-05,2.305536846134602e-05
9.5773502692,53.57735026920001,8,0,-0.1667004398405623,7.229108620867509,-1.260662088387857,-6.316728304183806e-06,2.326650793864848e-05,-1.008529670710285e-05,2.410243821956919e-05,2.459180360036215e-05
10.4226497308,52.42264973080001,8,0,-0.3538998292741096,7.533836357459862,-1.649036454577635,-7.159548539645039e-06,2.439139620729084e-05,-1.319229163662108e-05,2.571489071087328e-05,2.544973605289068e-05
11.5773502692,52.42264973080001,8,0,-0.2239494942892879,8.053637697399148,-1.659849156206456,-7.159548539645039e-06,2.595080022710871e-05,-1.327879324965165e-05,2.723253663023762e-05,2.707544592995281e-05
10.4226497308,53.57735026920001,8,0,-0.3827337002842457,7.526627889707328,-1.454110952100335,-7.246050152675447e-06,2.439139620729084e-05,-1.163288761680268e-05,2.542684229254371e-05,2.573512929251458e-05
11.5773502692,53.57735026920001,8,0,-0.2527833652994329,8.046429229646579,-1.464923653729142,-7.246050152675447e-06,2.59508002271086e-05,-1.171938922983314e-05,2.69547538470401e-05,2.732231803419055e-05
12.4226497308,52.42264973080001,8,0,-0.4601742205295469,8.355512948001802,-1.827855669316212,-8.156967864095992e-06,2.71057808100294e-05,-1.46228453545297e-05,2.85616342072202e-05,2.827449015573981e-05
13.5773502692,52.42264973080001,8,0,-0.3271690859785794,8.887533486205673,-1.836663981014377,-8.156967864095992e-06,2.870184242464101e-05,-1.469331184811502e-05,3.011220359043266e-05,2.99246300241891e-05
12.4226497308,53.57735026920001,8,0,-0.4836630517250136,8.349640740202936,-1.628347967489829,-8.227434357682391e-06,2.71057808100294e-05,-1.302678373991863e-05,2.826822782733729e-05,2.849376340404833e-05
13.5773502692,53.57735026920001,8,0,-0.3506579171740731,8.881661278406698,-1.637156279188129,-8.227434357682391e-06,2.870184242464069e-05,-1.309725023350503e-05,2.982871652833565e-05,3.010702293125122e-05
14.4226497308,52.42264973080001,8,0,-0.576038158171174,9.193670751983385,-1.973920776959199,-9.198258707734464e-06,2.988057693288377e-05,-1.579136621567359e-05,3.141556682657679e-05,3.113602696583466e-05
15.5773502692,52.42264973080001,8,0,-0.4406797456143949,9.735104402210501,-1.980645919125631,-9.198258707734464e-06,3.150487788356512e-05,-1.584516735300505e-05,3.299257844480891e-05,3.279548509023527e-05
14.4226497308,53.57735026920001,8,0,-0.5939718706151393,9.189187323872394,-1.770883158124057,-9.252059845066361e-06,2.988057693288377e-05,-1.416706526499245e-05,3.112332507401482e-05,3.12919942705625e-05
15.5773502692,53.57735026920001,8,0,-0.458613458058351,9.730620974099548,-1.777608300290517,-9.252059845066361e-06,3.150487788356523e-05,-1.422086640232413e-05,3.270974179160125e-05,3.291613664800861e-05
16.4226497308,52.42264973080001,8,0,-0.6999632071752626,10.04416129544017,-2.087491334161002,-1.027521129931297e-05,3.270128671114874e-05,-1.669993067328801e-05,3.42666006937504e-05,3.401002308756391e-05
17.5773502692,52.42264973080001,8,0,-0.5629341444218401,10.59227754645386,-2.092022464094664,-1.027521129931297e-05,3.434563546418981e-05,-1.673617971275731e-05,3.586334502057326e-05,3.566874447972915e-05
16.4226497308,53.57735026920001,8,0,-0.7120462203314974,10.04114054215111,-1.881947740030841,-1.031146033878168e-05,3.270128671114874e-05,-1.505558192024673e-05,3.398069249992743e-05,3.410533873419286e-05
17.5773502692,53.57735026920001,8,0,-0.575017157578066,10.58925679316483,-1.886478869964395,-1.031146033878168e-05,3.434563546418992e-05,-1.509183095971516e-05,3.558623883758248e-05,3.573015687680714e-05
18.4226497308,52.42264973080001,8,0,-0.8303824160792215,10.90294599143964,-2.168772982026948,-1.137958052460522e-05,3.555373310547023e-05,-1.735018385621559e-05,3.710589324959101e-05,3.687998951464585e-05
19.5773502692,52.42264973080001,8,0,-0.692362800780836,11.45502445263318,-2.170977951751428,-1.137958052460522e-05,3.720996848905085e-05,-1.736782361401142e-05,3.871531786970589e-05,3.853045109842927e-05
18.4226497308,53.57735026920001,8,0,-0.8362623353445726,10.9014760116233,-1.961743559079356,-1.139722028240127e-05,3.555373310547023e-05,-1.569394847263485e-05,3.683048884969952e-05,3.691705343363661e-05
19.5773502692,53.57735026920001,8,0,-0.6982427200461419,11.45355447281703,-1.963948528803849,-1.139722028240127e-05,3.72099684890514e-05,-1.571158823043079e-05,3.844806945125687e-05,3.853489698774685e-05
20.4226497308,52.42264973080001,8,0,-0.9656333370561008,11.766011617891,-2.217972209643272,-1.250283597289232e-05,3.842374384689607e-05,-1.774377767714617e-05,3.992505192397949e-05,3.973333502903011e-05
21.5773502692,52.42264973080001,8,0,-0.8273116234587921,12.31929847228023,-2.217711814767512,-1.250283597289232e-05,4.008360441006378e-05,-1.774169451814009e-05,4.153971500567498e-05,4.136921345939606e-05
20.4226497308,53.57735026920001,8,0,-0.9649389507208133,11.76618521447482,-2.010489639247214,-1.250075281388646e-05,3.842374384689607e-05,-1.608391711397771e-05,3.966354014740974e-05,3.971435045795861e-05
21.5773502692,53.57735026920001,8,0,-0.8266172371235045,12.31947206886406,-2.010229244371522,-1.250075281388646e-05,4.008360441006378e-05,-1.608183395497217e-05,4.128569796526606e-05,4.131883370976735e-05
22.4226497308,52.42264973080001,8,0,-1.103926452894745,12.62931530186056,-2.235364544927294,-1.363601689075163e-05,4.129695012826959e-05,-1.788291635941835e-05,4.271571182730284e-05,4.255929627389907e-05
23.5773502692,52.42264973080001,8,0,-0.9660046540397809,13.18100249728042,-2.232508384433253,-1.363601689075163e-05,4.295201171452916e-05,-1.786006707546603e-05,4.432779256357553e-05,4.417478455810814e-05
22.4226497308,53.57735026920001,8,0,-1.09631002491089,12.63121940885666,-2.028481846644888,-1.361316760680018e-05,4.129695012827003e-05,-1.622785477315911e-05,4.247082898211228e-05,4.248638571502978e-05
23.5773502692,53.57735026920001,8,0,-0.9583882260559893,13.18290660427626,-2.025625686151065,-1.361316760680018e-05,4.295201171452883e-05,-1.620500548920852e-05,4.408974544841332e-05,4.407171386221255e-05
24.4226497308,52.42264973080001,8,0,-1.243338357565961,13.48875990926912,-2.221367554063037,-1.476969067162637e-05,4.415870239571395e-05,-1.777094043250429e-05,4.546934068432422e-05,4.534788493503856e-05
25.5773502692,52.42264973080001,8,0,-1.106531802240992,14.035986130569,-2.215809785020308,-1.476969067162637e-05,4.580038105961358e-05,-1.772647828016246e-05,4.707069981783132e-05,4.693736648311781e-05
24.4226497308,53.57735026920001,8,0,-1.228517640118776,13.49246508863092,-2.016157721075487,-1.472522851928481e-05,4.415870239571395e-05,-1.61292617686039e-05,4.524324347434843e-05,4.522321733285118e-05
25.5773502692,53.57735026920001,8,0,-1.091711084793824,14.03969130993072,-2.010599952032813,-1.472522851928481e-05,4.580038105961336e-05,-1.60847996162625e-05,4.685079310264784e-05,4.678385517267878e-05
26.4226497308,52.42264973080001,8,0,-1.381827260115378,14.34019838546152,-2.17661096078919,-1.589400594073843e-05,4.699409664156917e-05,-1.741288768631352e-05,4.817718935651485e-05,4.808939624086326e-05
27.57735026920001,52.42264973080001,8,0,-1.246859513787901,14.88006937077143,-2.168284496275358,-1.589400594073843e-05,4.86137095974989e-05,-1.734627597020286e-05,4.975947253729167e-05,4.964731852290964e-05
26.4226497308,53.57735026920001,8,0,-1.359623354745248,14.34574936180392,-1.974159341297987,-1.582739422462793e-05,4.699409664156873e-05,-1.57932747303839e-05,4.797149426021471e-05,4.79153022811778e-05
27.57735026920001,53.57735026920001,8,0,-1.224655608417752,14.8856203471139,-1.965832876784236,-1.582739422462793e-05,4.861370959749868e-05,-1.572666301427389e-05,4.955934450139283e-05,4.94458354279778e-05
28.4226497308,52.42264973080001,8,0,-1.517267015095108,15.17946366018176,-2.101997536720231,-1.699882537644975e-05,4.978809732465771e-05,-1.681598029376185e-05,5.083033778604579e-05,5.077423118161294e-05
29.5773502692,52.42264973080001,8,0,-1.384860849879254,15.70908832104518,-2.090885571715949,-1.699882537644975e-05,5.137697130724796e-05,-1.67270845737276e-05,5.238511297868399e-05,5.229509153896741e-05
28.4226497308,53.57735026920001,8,0,-1.487635108416951,15.1868716368513,-1.903388288896463,-1.690992965641528e-05,4.978809732465771e-05,-1.522710631117171e-05,5.06461429366649e-05,5.055329600177768e-05
29.5773502692,53.57735026920001,8,0,-1.355228943201079,15.71649629771479,-1.892276323892182,-1.690992965641528e-05,5.137697130724818e-05,-1.513821059113745e-05,5.220588942951162e-05,5.2048401410107e-05
30.4226497308,52.42264973080001,8,0,-1.647494990221918,16.00241930505423,-1.998750028164457,-1.807391941275352e-05,5.252573776835107e-05,-1.599000022531566e-05,5.341980265893412e-05,5.339289463440117e-05
31.5773502692,52.42264973080001,8,0,-1.518360460613067,16.51895742348963,-1.98489415322874,-1.807391941275352e-05,5.407535212365727e-05,-1.587915322582992e-05,5.493872148026919e-05,5.487128811060561e-05
30.4226497308,53.57735026920001,8,0,-1.610545990393321,16.01165655501124,-1.805048233751263,-1.796307241326762e-05,5.252573776835063e-05,-1.44403858700101e-05,5.325770375945788e-05,5.312802388091191e-05
31.5773502692,53.57735026920001,8,0,-1.481411460784452,16.52819467344672,-1.791192358815464,-1.796307241326762e-05,5.407535212365706e-05,-1.432953887052371e-05,5.478103023625658e-05,5.458250191594006e-05
32.4226497308,52.42264973080001,8,0,-1.770368685903517,16.80502525935573,-1.868441118116647,-1.910920000237584e-05,5.519237577866114e-05,-1.494752894493317e-05,5.593668250837284e-05,5.593608995632464e-05
33.57735026920001,52.42264973080001,8,0,-1.645189433940907,17.30574226720617,-1.851945657901805,-1.910920000237584e-05,5.669452680221246e-05,-1.481556526321444e-05,5.741165474981384e-05,5.736678922274142e-05
32.4226497308,53.57735026920001,8,0,-1.726380791997218,16.8160222328323,-1.680672240172813,-1.897723632065694e-05,5.519237577866114e-05,-1.344537792138251e-05,5.579679082208159e-05,5.563054888003818e-05
33.57735026920001,53.57735026920001,8,0,-1.601201540034617,17.31673924068271,-1.664176779957931,-1.897723632065694e-05,5.669452680221235e-05,-1.331341423966344e-05,5.727564256240773e-05,5.703938839976618e-05
34.42264973080001,52.42264973080001,8,0,-1.883826093502465,17.58341261779263,-1.713005115268264,-2.009497359344199e-05,5.77739812517384e-05,-1.370404092214611e-05,5.837232205109071e-05,5.839486237995346e-05
35.5773502692,52.42264973080001,8,0,-1.763244978741064,18.06573707683824,-1.694037674136029,-2.009497359344199e-05,5.922095462887521e-05,-1.355230139308823e-05,5.979569283441687e-05,5.977291121305712e-05
34.42264973080001,53.57735026920001,8,0,-1.833246250483134,17.5960575785476,-1.532133443126176,-1.994323406438411e-05,5.777398125173883e-05,-1.225706754500941e-05,5.825428963522436e-05,5.805228985151315e-05
35.5773502692,53.57735026920001,8,0,-1.712665135721777,18.07838203759303,-1.513166001993913,-1.994323406438411e-05,5.92209546288751e-05,-1.210532801595131e-05,5.968104971363063e-05,5.941074856113581e-05
36.4226497308,52.42264973080001,8,0,-1.985945242318511,18.33396164731804,-1.534731573834717,-2.102219409327367e-05,6.025743346527255e-05,-1.227785259067774e-05,6.071848196495412e-05,6.076076157679119e-05
37.5773502692,52.42264973080001,8,0,-1.870550286902642,18.79554146898152,-1.513520056804936,-2.102219409327367e-05,6.164217293026298e-05,-1.210816045443949e-05,6.208320190267052e-05,6.208157012779913e-05
36.4226497308,53.57735026920001,8,0,-1.929381196905689,18.34810265867125,-1.361639140710913,-2.085250195703521e-05,6.025743346527255e-05,-1.08931131256873e-05,6.062153691225945e-05,6.038516215222702e-05
37.5773502692,53.57735026920001,8,0,-1.813986241489829,18.80968248033469,-1.340427623681105,-2.085250195703521e-05,6.164217293026287e-05,-1.072342098944884e-05,6.198919550837027e-05,6.168885088116442e-05
38.4226497308,52.42264973080001,8,0,-2.074999125668777,19.05337776993684,-1.336242275029305,-2.188269941808956e-05,6.263080816433291e-05,-1.068993820023444e-05,6.296750381845603e-05,6.302600459640208e-05
39.5773502692,52.42264973080001,8,0,-1.965310606939252,19.49213184485494,-1.313068862658298,-2.188269941808956e-05,6.394707038908721e-05,-1.050455090126638e-05,6.42672840016068e-05,6.42854389981464e-05
38.4226497308,53.57735026920001,8,0,-2.013203359346146,19.06882671151736,-1.171709496934896,-2.169731211912156e-05,6.263080816433248e-05,-9.373675975479171e-06,6.289049630064535e-05,6.262172236961497e-05
39.5773502692,53.57735026920001,8,0,-1.903514840616548,19.50758078643575,-1.148536084563862,-2.169731211912156e-05,6.394707038908764e-05,-9.188288676510899e-06,6.41928048570774e-05,6.386668594416521e-05
40.4226497308,52.42264973080001,8,0,-2.149503085062261,19.73876108907508,-1.120453889111628,-2.26694187434593e-05,6.488363795309005e-05,-8.963631112893027e-06,6.511246274405631e-05,6.518362731954542e-05
41.5773502692,52.42264973080001,8,0,-2.04596242298482,20.15292373738484,-1.09564657550798,-2.26694187434593e-05,6.612612589801934e-05,-8.765172604063842e-06,6.63419081289963e-05,6.637808904673253e-05
40.4226497308,53.57735026920001,8,0,-2.08335024878583,19.75529929814418,-0.9651428959955074,-2.247096023463e-05,6.488363795309005e-05,-7.721143167964059e-06,6.505392110830683e-05,6.475530544784247e-05
41.5773502692,53.57735026920001,8,0,-1.97980958670838,20.16946194645399,-0.9403355823917915,-2.247096023463e-05,6.612612589801945e-05,-7.522684659134332e-06,6.628552491091404e-05,6.593809550603833e-05
42.4226497308,52.42264973080001,8,0,-2.20825264627091,20.38766601700382,-0.8905291834241177,-2.337654128166996e-05,6.700713337142892e-05,-7.124233467392942e-06,6.714730280140624e-05,6.722761720269893e-05
43.57735026920001,52.42264973080001,8,0,-2.11121354340631,20.77582242846222,-0.8644515444274157,-2.337654128166996e-05,6.817160260580413e-05,-6.915612355419326e-06,6.83020193954472e-05,6.8354109560171e-05
42.4226497308,53.57735026920001,8,0,-2.138712275613146,20.40505110966826,-0.7449705291271216,-2.316792016969667e-05,6.700713337142892e-05,-5.959764233016973e-06,6.710549784707818e-05,6.678014682628893e-05
43.57735026920001,53.57735026920001,8,0,-2.041673172748554,20.79320752112662,-0.7188928901304603,-2.316792016969667e-05,6.817160260580402e-05,-5.751143121043682e-06,6.826204245246407e-05,6.789788375769596e-05
44.4226497308,52.42264973080001,8,0,-2.250350645846876,20.99814856343225,-0.6498198871609709,-2.39996409174558e-05,6.899435591966067e-05,-5.198559097287767e-06,6.906695183160317e-05,6.91530232508961e-05
45.5773502692,52.42264973080001,8,0,-2.160072760741092,21.35926010385538,-0.622859745706182,-2.39996409174558e-05,7.007769054093009e-05,-4.982877965649456e-06,7.014362481840198e-05,7.020920368744017e-05
44.4226497308,53.57735026920001,8,0,-2.178456935300863,21.01612199106875,-0.5144030595022396,-2.378395978581776e-05,6.899435591966067e-05,-4.115224476017917e-06,6.903996666124484e-05,6.869148517520747e-05
45.5773502692,53.57735026920001,8,0,-2.08817905019507,21.37723353149192,-0.4874429180474777,-2.378395978581776e-05,7.00776905409302e-05,-3.899543344379822e-06,7.011817534533177e-05,6.974190763749279e-05
46.42264973080001,52.42264973080001,8,0,-2.275223202188851,21.56879978406488,-0.4018043360089419,-2.453575407425622e-05,7.084033787075868e-05,-3.214434688071535e-06,7.086741399038208e-05,7.095604127901287e-05
47.57735026920001,52.42264973080001,8,0,-2.191868482841805,21.90221866145306,-0.3743619526135587,-2.453575407425622e-05,7.184059450292323e-05,-2.99489562090847e-06,7.186385548868033e-05,7.194025908773451e-05
46.42264973080001,53.57735026920001,8,0,-2.20204351313437,21.5870947063285,-0.2767722569882382,-2.431621500709278e-05,7.084033787075868e-05,-2.214178055905906e-06,7.085321644003431e-05,7.048564336434274e-05
47.57735026920001,53.57735026920001,8,0,-2.118688793787289,21.92051358371682,-0.2493298735928686,-2.431621500709278e-05,7.184059450292366e-05,-1.994638988742949e-06,7.185093739183158e-05,7.146714469530213e-05
48.4226497308,52.42264973080001,8,0,-2.282624651954989,22.09876471309362,-0.1500228768591157,-2.498341065673086e-05,7.254214680346358e-05,-1.200183014872925e-06,7.254583912979732e-05,7.263407390045301e-05
49.57735026920001,52.42264973080001,8,0,-2.206256327191826,22.40423801214627,-0.122499233213278,-2.498341065673086e-05,7.345856670062153e-05,-9.799938657062239e-07,7.346100560983864e-05,7.354539341120276e-05
48.4226497308,53.57735026920001,8,0,-2.209228268899493,22.1171138088575,-0.03547038971427659,-2.476322150756437e-05,7.254214680346358e-05,-2.837631177142128e-07,7.254235368140151e-05,7.216008669968754e-05
49.57735026920001,53.57735026920001,8,0,-2.132859944136294,22.42258710791029,-0.00794674606847956,-2.476322150756437e-05,7.345856670062196e-05,-6.357396854783648e-08,7.34585769876701e-05,7.307173813148824e-05
50.42264973080001,52.42264973080001,8,0,-2.272632004598028,22.58774680149452,0.1019862155636324,-2.534261985590931e-05,7.409889536846089e-05,8.158897245090588e-07,7.410056887685056e-05,7.418576555564153e-05
51.57735026920001,52.42264973080001,8,0,-2.203216124848371,22.86541032049315,0.1292005386562087,-2.534261985590931e-05,7.493188592545678e-05,1.03360430924967e-06,7.493454938782852e-05,7.502397527932471e-05
50.42264973080001,53.57735026920001,8,0,-2.200060476351284,22.60588968355621,0.206110035188146,-2.512490527116907e-05,7.409889536846089e-05,1.648880281505168e-06,7.410574508216592e-05,7.371345841940532e-05
51.57735026920001,53.57735026920001,8,0,-2.130644596601627,22.88355320255484,0.2333243582807224,-2.512490527116907e-05,7.493188592545678e-05,1.866594866245779e-06,7.494059066519271e-05,7.455501941851634e-05
52.4226497308,52.42264973080001,8,0,-2.245629800994346,23.03599846751227,0.3507478229521175,-2.561481413719172e-05,7.551169893683474e-05,2.80598258361694e-06,7.553115976645475e-05,7.561101348031257e-05
53.5773502692,52.42264973080001,8,0,-2.183039130240545,23.28636115052747,0.3772827377157269,-2.561481413719172e-05,7.626278698588034e-05,3.018261901725815e-06,7.628513710674939e-05,7.637662194778027e-05
52.4226497308,53.57735026920001,8,0,-2.174870028291226,23.05368841068805,0.444633829082804,-2.540253481908236e-05,7.551169893683474e-05,3.557070632662432e-06,7.554303451592231e-05,7.514559313405095e-05
53.5773502692,53.57735026920001,8,0,-2.112279357537452,23.30405109370314,0.4711687438464134,-2.540253481908236e-05,7.626278698588001e-05,3.769349950771307e-06,7.629771315207631e-05,7.591750953146381e-05
54.42264973080001,52.42264973080001,8,0,-2.202286538956566,23.4442988651173,0.5929058601131004,-2.580275601675485e-05,7.678358559954062e-05,4.743246880904804e-06,7.683838426728474e-05,7.691095601327756e-05
55.57735026920001,52.42264973080001,8,0,-2.14630652028604,23.66821893979941,0.6184204619178325,-2.580275601675485e-05,7.745534582358693e-05,4.94736369534266e-06,7.751457211209361e-05,7.76051753610254e-05
54.42264973080001,53.57735026920001,8,0,-2.134247600810577,23.4613085996538,0.6768758881188888,-2.559863920231688e-05,7.678358559954062e-05,5.41500710495111e-06,7.685513567659081e-05,7.645750948788263e-05
55.57735026920001,53.57735026920001,8,0,-2.078267582140051,23.6852286743359,0.7023904899235937,-2.559863920231688e-05,7.745534582358693e-05,5.619123919388749e-06,7.753188609507879e-05,7.716090040755367e-05
56.4226497308,52.42264973080001,8,0,-2.1435240823965,23.81392041878861,0.8252720320543462,-2.591041339869969e-05,7.791936460604075e-05,6.60217625643477e-06,7.802421111778746e-05,7.808794021252344e-05
57.57735026920001,52.42264973080001,8,0,-2.093860526951711,24.01257464056777,0.8494615807210784,-2.591041339869969e-05,7.851532727137821e-05,6.795692645768627e-06,7.862577093934875e-05,7.871265896723279e-05
56.4226497308,53.57735026920001,8,0,-2.079018619285467,23.83004678456637,0.8997673652216104,-2.571689700936659e-05,7.791936460604075e-05,7.198138921772883e-06,7.804420234450869e-05,7.765138393181888e-05
57.57735026920001,53.57735026920001,8,0,-2.029355063840651,24.02870100634563,0.9239569138882477,-2.571689700936659e-05,7.851532727137854e-05,7.391655311105982e-06,7.864620821852671e-05,7.828801892077281e-05
58.4226497308,52.42264973080001,8,0,-2.070481715428138,24.14658607417197,1.044865893926411,-2.594281034870761e-05,7.892546080969279e-05,8.358927151411286e-06,7.90917671461134e-05,7.914547148064552e-05
59.57735026920001,52.42264973080001,8,0,-2.026769798821969,24.32143374059664,1.06746685306911,-2.594281034870761e-05,7.945000380896682e-05,8.539734824552885e-06,7.962270951573388e-05,7.970321850278163e-05
58.4226497308,53.57735026920001,8,0,-2.010212491047624,24.1616533802671,1.110433768835678,-2.576200267556607e-05,7.892546080969279e-05,8.883470150685422e-06,7.911357905565487e-05,7.873050820801009e-05
59.57735026920001,53.57735026920001,8,0,-1.966500574441455,24.33650104669177,1.133034727978391,-2.576200267556607e-05,7.945000380896682e-05,9.064277823827129e-06,7.964487044819217e-05,7.930277643364471e-05
60.4226497308,52.42264973080001,8,0,-1.984476726814018,24.44441956960766,1.248945033156763,-2.590586118149098e-05,7.98097240041957e-05,9.991560265254105e-06,8.004528369694077e-05,8.008814880943688e-05
61.5773502692,52.42264973080001,8,0,-1.946290822593848,24.59716318648834,1.269738021816719,-2.590586118149098e-05,8.026795485483774e-05,1.015790417453375e-05,8.051035920083008e-05,8.058205094250073e-05
60.4226497308,53.57735026920001,8,0,-1.929028757054045,24.45828156204765,1.306223889487019,-2.573951727221106e-05,7.98097240041957e-05,1.044979111589615e-05,8.006773593404186e-05,7.969923396234407e-05
61.5773502692,53.57735026920001,8,0,-1.890842852833857,24.6110251789284,1.327016878146961,-2.573951727221106e-05,8.026795485483796e-05,1.061613502517569e-05,8.053308040304643e-05,8.021010784820535e-05
62.42264973080001,52.42264973080001,8,0,-1.886963582920909,24.70989131916875,1.435024666203951,-2.580619652068191e-05,8.058122308767673e-05,1.14801973296316e-05,8.089003187293451e-05,8.092159027188605e-05
63.57735026920001,52.42264973080001,8,0,-1.853827426428736,24.84243594513745,1.453835279705565,-2.580619652068191e-05,8.09788569655828e-05,1.163068223764452e-05,8.129461733295481e-05,8.135532683791021e-05
62.42264973080001,53.57735026920001,8,0,-1.836801946916693,24.72243172816981,1.484728900942264,-2.565571161266926e-05,8.058122308767673e-05,1.187783120753811e-05,8.091219251826025e-05,8.056290877316659e-05
63.57735026920001,53.57735026920001,8,0,-1.80366579042452,24.8549763541385,1.503539514443811,-2.565571161266926e-05,8.09788569655828e-05,1.202831611555048e-05,8.131698154743071e-05,8.101590493929771e-05
64.4226497308,52.42264973080001,8,0,-1.779493829231886,24.94576267771849,1.600886485106254,-2.565099039571683e-05,8.125003563208468e-05,1.280709188085003e-05,8.163225190121683e-05,8.165235438688381e-05
65.57735026920001,52.42264973080001,8,0,-1.750890494487021,25.06017601669796,1.617584056151013,-2.565099039571683e-05,8.159327564902306e-05,1.29406724492081e-05,8.198223778985232e-05,8.203011217593771e-05
64.4226497308,53.57735026920001,8,0,-1.734966973112456,24.95689439174835,1.64379148722351,-2.551740982735854e-05,8.125003563208468e-05,1.315033189778808e-05,8.165343645195709e-05,8.132780871041741e-05
65.57735026920001,53.57735026920001,8,0,-1.706363638367582,25.07130773072785,1.660489058268364,-2.551740982735854e-05,8.159327564902317e-05,1.328391246614691e-05,8.200357307572942e-05,8.172694949409387e-05
66.4226497308,52.42264973080001,8,0,-1.663678817783903,25.15503139703312,1.744577171625579,-2.544779733453499e-05,8.182704352473311e-05,1.395661737300463e-05,8.227908290446892e-05,8.228786379242532e-05
67.57735026920001,52.42264973080001,8,0,-1.639060009725178,25.25350662926802,1.759071659368002,-2.544779733453499e-05,8.212246922143781e-05,1.407257327494402e-05,8.258076772440926e-05,8.261429651537847e-05
66.4226497308,53.57735026920001,8,0,-1.625026850470721,25.16469438886142,1.781505383713735,-2.533184143259544e-05,8.182704352473311e-05,1.425204306970988e-05,8.229884376295473e-05,8.200107318839868e-05
67.57735026920001,53.57735026920001,8,0,-1.600408042411977,25.2631696210964,1.795999871456158,-2.533184143259544e-05,8.212246922143803e-05,1.436799897164926e-05,8.260063713988965e-05,8.235085226515324e-05
68.42264973080002,52.42264973080001,8,0,-1.541157175305409,25.34088095691827,1.864397571623458,-2.520440772651192e-05,8.232374480238278e-05,1.491518057298766e-05,8.283850004203578e-05,8.283633811917635e-05
69.57735026920001,52.42264973080001,8,0,-1.519951390573421,25.42570409584622,1.876634874321226,-2.520440772651192e-05,8.257821421916664e-05,1.501307899456981e-05,8.309849698879704e-05,8.311653433921885e-05
68.42264973080002,53.57735026920001,8,0,-1.50852436811145,25.34903915871676,1.896206248721427,-2.510650930493004e-05,8.232374480238278e-05,1.516964998977141e-05,8.285660798425023e-05,8.25906482088884e-05
69.57735026920001,53.57735026920001,8,0,-1.487318583379489,25.4338622976446,1.908443551419182,-2.510650930493004e-05,8.257821421916631e-05,1.526754841135345e-05,8.311668022517002e-05,8.289600383389503e-05
70.4226497308,52.42264973080001,8,0,-1.413568613520079,25.50663616628457,1.958884035024564,-2.49287284962919e-05,8.275209062292665e-05,1.567107228019651e-05,8.331926627116548e-05,8.330674290587831e-05
71.57735026920001,52.42264973080001,8,0,-1.395187800807816,25.58015941713361,1.9688401095632,-2.49287284962919e-05,8.297266037547382e-05,1.57507208765056e-05,8.354442674379897e-05,8.354620615400641e-05
70.4226497308,53.57735026920001,8,0,-1.387019081417138,25.5132735493103,1.986455254092905,-2.484907989998308e-05,8.275209062292665e-05,1.589164203274324e-05,8.333568547020642e-05,8.310524397286186e-05
71.57735026920001,53.57735026920001,8,0,-1.368638268704871,25.58679680015937,1.996411328631541,-2.484907989998308e-05,8.297266037547387e-05,1.597129062905233e-05,8.35608952771535e-05,8.337154303851963e-05
72.4226497308,52.42264973080001,8,0,-1.282535271426089,25.65572700046766,2.026783829627219,-2.462869446893761e-05,8.312435461863736e-05,1.621427063701775e-05,8.373090579557208e-05,8.370876069399269e-05
73.57735026920001,52.42264973080001,8,0,-1.266379719175295,25.72034920947083,2.034458060572689,-2.462869446893761e-05,8.331822124564689e-05,1.627566448458151e-05,8.392826333730047e-05,8.3913404708127e-05
72.4226497308,53.57735026920001,8,0,-1.262070655571448,25.66084315443132,2.051017158003409,-2.456730062137368e-05,8.312435461863736e-05,1.640813726402728e-05,8.374576388652748e-05,8.35543121188726e-05
73.57735026920001,53.57735026920001,8,0,-1.245915103320668,25.72546536343444,2.0586913889489,-2.456730062137368e-05,8.331822124564673e-05,1.64695311115912e-05,8.394315057742768e-05,8.378734746681304e-05
74.4226497308,52.42264973080001,8,0,-1.149651316828129,25.79166211648267,2.0670267997257,-2.431221390703615e-05,8.345303982620705e-05,1.65362143978056e-05,8.408370560184032e-05,8.405278888073835e-05
75.57735026920001,52.42264973080001,8,0,-1.135112601419734,25.84981697811625,2.072435088203024,-2.431221390703615e-05,8.362750441110779e-05,1.65794807056242e-05,8.426044273318239e-05,8.422894950796542e-05
74.4226497308,53.57735026920001,8,0,-1.135229214222002,25.7952676421342,2.088834872838341,-2.426894759921777e-05,8.345303982620705e-05,1.671067898270672e-05,8.409726000846633e-05,8.394804630201428e-05
75.57735026920001,53.57735026920001,8,0,-1.120690498813593,25.85342250376784,2.094243161315611,-2.426894759921777e-05,8.362750441110795e-05,1.675394529052489e-05,8.427401038443919e-05,8.415404833657944e-05
76.42264973080002,52.42264973080001,8,0,-1.016481072258541,25.9180129212577,2.078695555501362,-2.398714976823349e-05,8.375082620583145e-05,1.662956444401089e-05,8.43887503506234e-05,8.43499661108184e-05
77.57735026920001,52.42264973080001,8,0,-1.002943003593626,25.97216519591736,2.081863595968489,-2.398714976823349e-05,8.391328302981044e-05,1.665490876774791e-05,8.455218959513733e-05,8.450442899115905e-05
76.42264973080002,53.57735026920001,8,0,-1.008032964346192,25.92012494823578,2.099002658498728,-2.396180544449644e-05,8.375082620583145e-05,1.679202126798982e-05,8.440135168362654e-05,8.429740703289705e-05
77.57735026920001,53.57735026920001,8,0,-0.9944948956812949,25.97427722289537,2.102170698965868,-2.396180544449644e-05,8.391328302981022e-05,1.681736559172695e-05,8.456479103480818e-05,8.448306824039508e-05
78.4226497308,52.42264973080001,8,0,-0.884565512888015,26.03840851203392,2.060996461090383,-2.366133645086878e-05,8.403055964881895e-05,1.648797168872306e-05,8.465799431006178e-05,8.461222411344859e-05
79.57735026920001,52.42264973080001,8,0,-0.8714031080791518,26.09105813126937,2.061953648109495,-2.366133645086878e-05,8.418850850652531e-05,1.649562918487596e-05,8.481561357845849e-05,8.475226298402359e-05
78.4226497308,53.57735026920001,8,0,-0.8820130141702451,26.03904663671337,2.080740068303603,-2.365367895471547e-05,8.403055964881895e-05,1.664592054642883e-05,8.467004713884193e-05,8.461416675596222e-05
79.57735026920001,53.57735026920001,8,0,-0.8688506093614086,26.09169625594871,2.081697255322729,-2.365367895471547e-05,8.418850850652499e-05,1.665357804258184e-05,8.482765455279195e-05,8.478667335380567e-05
80.4226497308,52.42264973080001,8,0,-0.7554366404873187,26.15654130527147,2.013233569450886,-2.33426302937766e-05,8.430528148925857e-05,1.610586855560708e-05,8.490437198706628e-05,8.485235315009222e-05
81.57735026920001,52.42264973080001,8,0,-0.7420132351466675,26.21023492663408,2.012007935514246,-2.33426302937766e-05,8.446636235334638e-05,1.609606348411396e-05,8.50638434142616e-05,8.498576569856635e-05
80.4226497308,53.57735026920001,8,0,-0.7587049976517184,26.15572421598038,2.03336867746185,-2.33524353652698e-05,8.430528148925857e-05,1.62669494196948e-05,8.491629273889734e-05,8.491096217169847e-05
81.57735026920001,53.57735026920001,8,0,-0.7452815923110307,26.20941783734313,2.032143043525223,-2.33524353652698e-05,8.446636235334682e-05,1.625714434820178e-05,8.507573980974059e-05,8.507801893916527e-05
82.4226497308,52.42264973080001,8,0,-0.6306389794117351,26.27618274616762,1.934787470486407,-2.303899093105164e-05,8.458829597126575e-05,1.547829976389126e-05,8.514194657070014e-05,8.508405285995161e-05
83.57735026920001,52.42264973080001,8,0,-0.6163016481423957,26.33353207124497,1.931402009104634,-2.303899093105164e-05,8.476034394649782e-05,1.545121607283707e-05,8.531119688671385e-05,8.521916583012517e-05
82.4226497308,53.57735026920001,8,0,-0.6396668764297795,26.27392577191311,1.956293467390396,-2.306607462210578e-05,8.458829597126575e-05,1.565034773912317e-05,8.515411778994927e-05,8.520132385712327e-05
83.57735026920001,53.57735026920001,8,0,-0.6253295451604401,26.33127509699046,1.952908006008623,-2.306607462210578e-05,8.476034394649782e-05,1.562326404806898e-05,8.532332882269007e-05,8.537114239035521e-05
84.42264973080002,52.42264973080001,8,0,-0.5117572621949584,26.40120815257171,1.825100815443982,-2.275858976108123e-05,8.489327189798541e-05,1.460080652355186e-05,8.538609213519013e-05,8.532190845359664e-05
85.57735026920001,52.42264973080001,8,0,-0.4958307670288429,26.46491413323617,1.819571499214046,-2.275858976108123e-05,8.508438983997879e-05,1.455657199371236e-05,8.557338165246793e-05,8.5467493550862e-05
84.42264973080002,53.57735026920001,8,0,-0.5265021054746803,26.39752194175177,1.848990558193182,-2.280282429092039e-05,8.489327189798541e-05,1.479192446554546e-05,8.539881191812816e-05,8.549962015552007e-05
85.57735026920001,53.57735026920001,8,0,-0.5105756103085746,26.4612279224162,1.843461241963286,-2.280282429092039e-05,8.508438983997869e-05,1.474768993570629e-05,8.558604274122919e-05,8.568080940437635e-05
86.4226497308,52.42264973080001,8,0,-0.400449254529665,26.53562948529963,1.683672089150789,-2.250994120273463e-05,8.523437375658255e-05,1.346937671320631e-05,8.565370160173065e-05,8.558116875932397e-05
87.57735026920002,52.42264973080001,8,0,-0.3822287763209955,26.60851139813431,1.676007856300743,-2.250994120273463e-05,8.545301949508657e-05,1.340806285040594e-05,8.586771785396694e-05,8.574615010715089e-05
86.4226497308,53.57735026920001,8,0,-0.420887208796338,26.53051999673296,1.711002806463745,-2.257125506553465e-05,8.523437375658255e-05,1.368802245170996e-05,8.56671268045342e-05,8.582078624426367e-05
87.57735026920002,53.57735026920001,8,0,-0.4026667305876961,26.60340190956753,1.703338573613705,-2.257125506553465e-05,8.545301949508625e-05,1.362670858890964e-05,8.588105828290463e-05,8.602202083387874e-05
88.42264973080002,52.42264973080001,8,0,-0.2984825844041534,26.68363462969593,1.510059045300466,-2.230205197385003e-05,8.562641688255029e-05,1.208047236240373e-05,8.596340758368256e-05,8.587707422244077e-05
89.57735026920001,52.42264973080001,8,0,-0.277225523240217,26.76866287435168,1.500264003338392,-2.230205197385003e-05,8.588150161651753e-05,1.200211202670714e-05,8.621336848964568e-05,8.606978420953697e-05
88.42264973080002,53.57735026920001,8,0,-0.3246026963029909,26.67710460172122,1.541944637046378,-2.238041230954654e-05,8.562641688255029e-05,1.233555709637102e-05,8.597748950009033e-05,8.617957544644889e-05
89.57735026920001,53.57735026920001,8,0,-0.3033456351390633,26.76213284637693,1.532149595084284,-2.238041230954654e-05,8.588150161651742e-05,1.225719676067427e-05,8.622733071728597e-05,8.640878806336065e-05
90.42264973080002,52.42264973080001,8,0,-0.2077743564084651,26.84963159108636,1.303893109421309,-2.214458321337618e-05,8.608504057660313e-05,1.043114487537047e-05,8.633579740192446e-05,8.622322062659123e-05
91.57735026920001,52.42264973080001,8,0,-0.1826915192142291,26.94996293986331,1.291971191128988,-2.214458321337618e-05,8.638603462293395e-05,1.03357695290319e-05,8.66315575175674e-05,8.644970672663641e-05
90.42264973080002,53.57735026920001,8,0,-0.2395661385211767,26.84168364555818,1.341517365212682,-2.223995855971431e-05,8.608504057660313e-05,1.073213892170146e-05,8.635020916471827e-05,8.658879622984e-05
91.57735026920001,53.57735026920001,8,0,-0.2144833013269407,26.94201499433513,1.329595446920395,-2.223995855971431e-05,8.638603462293395e-05,1.063676357536316e-05,8.664580398284899e-05,8.685137506954804e-05
92.42264973080002,52.42264973080001,8,0,-0.1304322182494682,27.03829581674222,1.06490598737532,-2.204801975179207e-05,8.662689238817466e-05,8.519247899002559e-06,8.679359696991161e-05,8.662790519525887e-05
93.57735026920001,52.42264973080001,8,0,-0.1006787511050966,27.15730968531971,1.050868289827589,-2.204801975179207e-05,8.698393399390712e-05,8.406946318620715e-06,8.714574896566399e-05,8.688826636534192e-05
92.42264973080002,53.57735026920001,8,0,-0.1678660783767398,27.0289373517104,1.109536188091871,-2.216032133217389e-05,8.662689238817466e-05,8.876289504734965e-06,8.680765310200132e-05,8.705543580077029e-05
93.57735026920001,53.57735026920001,8,0,-0.1381126112323727,27.14795122028787,1.09549849054412,-2.216032133217389e-05,8.698393399390707e-05,8.763987924352958e-06,8.715958243872085e-05,8.735036124661485e-05
94.4226497308,52.42264973080001,8,0,-0.06879537382059375,27.25461862720826,0.7929696804794215,-2.20238400979925e-05,8.726981590612289e-05,6.343757443835372e-06,8.736179155662077e-05,8.708628962530966e-05
95.57735026920002,52.42264973080001,8,0,-0.03346184853395417,27.39595272835481,0.7768447168841693,-2.20238400979925e-05,8.769381820956256e-05,6.214757735073355e-06,8.778175365161692e-05,8.736693806256189e-05
94.4226497308,53.57735026920001,8,0,-0.1117952767412298,27.2438686514781,0.8459699684093536,-2.215283980675441e-05,8.726981590612289e-05,6.767759747274829e-06,8.737436201712115e-05,8.757241059047027e-05
95.57735026920002,53.57735026920001,8,0,-0.0764617514545991,27.38520275262462,0.8298450048141014,-2.215283980675441e-05,8.769381820956246e-05,6.638760038512811e-06,8.779403282638929e-05,8.788413523385183e-05
96.4226497308,52.42264973080001,8,0,-0.02547378222397967,27.5039544423744,0.4881510771652698,-2.208467965701626e-05,8.803303324137726e-05,3.905208617322159e-06,8.806764588861204e-05,8.756391492898978e-05
97.57735026920001,52.42264973080001,8,0,0.0164220842935503,27.67153790844452,0.4699981666937006,-2.208467965701626e-05,8.853578363958762e-05,3.759985333549605e-06,8.856772485625321e-05,8.782141729875713e-05
96.4226497308,53.57735026920001,8,0,-0.07388154348152476,27.49185250206002,0.5509948769415576,-2.222990294078889e-05,8.803303324137726e-05,4.40795901553246e-06,8.807706967493596e-05,8.810128411144717e-05
97.57735026920001,53.57735026920001,8,0,-0.03198567696397259,27.65943596813023,0.5328419664699883,-2.222990294078889e-05,8.853578363958789e-05,4.262735731759906e-06,8.857678052567446e-05,8.838282123448788e-05
98.42264973080002,52.42264973080001,8,0,-0.003383428114844378,27.7920641009644,0.150782231306154,-2.224447825073902e-05,8.893731186557794e-05,1.206257850449232e-06,8.894058356857913e-05,8.796234039892106e-05
99.57735026920002,52.42264973080001,8,0,0.04613699821145101,27.99014580626958,0.1307082342323694,-2.224447825073902e-05,8.953155698149349e-05,1.045665873858955e-06,8.953400248154096e-05,8.808984709877806e-05
98.42264973080002,53.57735026920001,8,0,-0.05691408697814371,27.77868143624857,0.2250628707955841,-2.240507022732892e-05,8.893731186557794e-05,1.800502966364673e-06,8.894459031374773e-05,8.853632396916064e-05
99.57735026920002,53.57735026920001,8,0,-0.007393660651852763,27.97676314155374,0.2049888737218266,-2.240507022732892e-05,8.953155698149343e-05,1.639910989774613e-06,8.953756297755004e-05,8.867416411636453e-05
0.4226497308,54.4226497308,8,0,-0.02811993886236097,4.197063152886807,-0.2342305156396014,-3.447634326669e-06,1.345309804032767e-05,-1.873844125116811e-06,1.350487932594094e-05,1.596569829921037e-05
1.5773502692,54.4226497308,8,0,0.06881614550118398,4.584807490340987,-0.2535431578718823,-3.447634326669e-06,1.461633105269021e-05,-2.028345262975058e-06,1.467309180933641e-05,1.636387709056637e-05
0.4226497308,55.57735026920001,8,0,-0.07962031814846138,4.184188058065282,-0.08882638909422967,-3.602135464527301e-06,1.345309804032767e-05,-7.106111127538374e-07,1.346049678376627e-05,1.650846181315442e-05
1.5773502692,55.57735026920001,8,0,0.01731576621508357,4.571932395519462,-0.1081390313265106,-3.602135464527301e-06,1.461633105269021e-05,-8.651122506120844e-07,1.462659533294201e-05,1.689450253721021e-05
2.4226497308,54.4226497308,8,0,-0.05774845251480265,4.829706241976155,-0.5606562692771839,-4.048560041628292e-06,1.550125873633554e-05,-4.485250154217472e-06,1.575521871529754e-05,1.685555066389787e-05
3.5773502692,54.4226497308,8,0,0.04678774585888767,5.247851035470917,-0.5781059600121744,-4.048560041628292e-06,1.675569311681982e-05,-4.624847680097396e-06,1.700962309648401e-05,1.780064905567959e-05
2.4226497308,55.57735026920001,8,0,-0.1042809611411548,4.818073114819703,-0.4038519717168652,-4.188157567507457e-06,1.550125873633597e-05,-3.230815773734921e-06,1.563291371119886e-05,1.737138342467126e-05
3.5773502692,55.57735026920001,8,0,0.0002552372324813312,5.236217908314248,-0.4213016624517066,-4.188157567507457e-06,1.675569311681961e-05,-3.370413299613653e-06,1.689042331843612e-05,1.828820551437298e-05
4.422649730800001,54.4226497308,8,0,-0.1074198970147864,5.505203285585925,-0.8555036077981275,-4.747906298916056e-06,1.770258643148679e-05,-6.84402886238502e-06,1.821260055452156e-05,1.860293799141944e-05
5.577350269200001,54.4226497308,8,0,0.003623958372493741,5.949378707135045,-0.8710046830963034,-4.747906298916056e-06,1.903511269613415e-05,-6.968037464770427e-06,1.953498668300419e-05,1.984973373452255e-05
4.422649730800001,55.57735026920001,8,0,-0.1487560978097051,5.494869235387195,-0.6889378247173432,-4.871914901300812e-06,1.770258643148679e-05,-5.511502597738745e-06,1.803412196792965e-05,1.906711201208253e-05
5.577350269200001,55.57735026920001,8,0,-0.0377122424224523,5.939044656936206,-0.7044389000154783,-4.871914901300812e-06,1.903511269613382e-05,-5.635511200123827e-06,1.936273234501838e-05,2.027830204855931e-05
6.422649730800001,54.4226497308,8,0,-0.1743313086193305,6.217310917069072,-1.118568891299735,-5.531708921237115e-06,2.003485998151649e-05,-8.94855113039788e-06,2.079526421521172e-05,2.08238084316317e-05
7.577350269200001,54.4226497308,8,0,-0.05776179913068868,6.683588955023639,-1.132076712041709,-5.531708921237115e-06,2.143369409538019e-05,-9.056613696333676e-06,2.217381941134607e-05,2.223823425151121e-05
6.422649730800001,55.57735026920001,8,0,-0.2103521639316421,6.208305703240994,-0.943714627066718,-5.639771487174049e-06,2.003485998151649e-05,-7.549717016533744e-06,2.057836006761742e-05,2.122543819741019e-05
7.577350269200001,55.57735026920001,8,0,-0.09378265444300027,6.674583741195562,-0.9572224478088145,-5.639771487174049e-06,2.143369409538019e-05,-7.657779582470516e-06,2.196478031402294e-05,2.260187224138915e-05
8.4226497308,54.4226497308,8,0,-0.2560809674033198,6.960382575160233,-1.349896572089835,-6.38776515581881e-06,2.24780890144354e-05,-1.079917257671868e-05,2.345505863013124e-05,2.330789202205428e-05
9.5773502692,54.4226497308,8,0,-0.1348721450464718,7.445217864587626,-1.361380388400401,-6.38776515581881e-06,2.393259488271758e-05,-1.089104310720321e-05,2.488094562225412e-05,2.48158255781335e-05
8.4226497308,55.57735026920001,8,0,-0.2867044775650276,6.952726697619807,-1.168083338554495,-6.479635686303933e-06,2.24780890144354e-05,-9.344666708435961e-06,2.321330415610876e-05,2.364374272949992e-05
9.5773502692,55.57735026920001,8,0,-0.1654956552081797,7.437561987047198,-1.179567154865142,-6.479635686303933e-06,2.393259488271758e-05,-9.436537238921138e-06,2.464778610273772e-05,2.511375179406716e-05
10.4226497308,54.4226497308,8,0,-0.3505864524721778,7.729288294844968,-1.549660660759411,-7.305307283786942e-06,2.501419170548164e-05,-1.239728528607529e-05,2.616226340085904e-05,2.593862743133224e-05
11.5773502692,54.4226497308,8,0,-0.2255471520604497,8.229445496491881,-1.559084645744844,-7.305307283786942e-06,2.651466331042237e-05,-1.247267716595875e-05,2.762798297300402e-05,2.749824558515489e-05
10.4226497308,55.57735026920001,8,0,-0.3757170790997804,7.723005638188202,-1.362101710141914,-7.380699163669858e-06,2.501419170548207e-05,-1.089681368113531e-05,2.590599364188211e-05,2.620920144622753e-05
11.5773502692,55.57735026920001,8,0,-0.2506777786880976,8.223162839834934,-1.371525695127306,-7.380699163669858e-06,2.651466331042227e-05,-1.097220556101845e-05,2.738049444547268e-05,2.773201648862334e-05
12.4226497308,54.4226497308,8,0,-0.4559951551289378,8.519317595357542,-1.718084889161089,-8.274638572698635e-06,2.762661242924729e-05,-1.374467911328871e-05,2.889717333437318e-05,2.86499244267359e-05
13.5773502692,54.4226497308,8,0,-0.3278759981914643,9.031794223107436,-1.725397116682923,-8.274638572698635e-06,2.916404231249697e-05,-1.380317693346338e-05,3.039578279224524e-05,3.02367513822484e-05
12.4226497308,55.57735026920001,8,0,-0.4754944285204763,8.514442777009657,-1.525906153754947,-8.333136392873249e-06,2.762661242924729e-05,-1.220724923003957e-05,2.863436865706809e-05,2.885729102658986e-05
13.5773502692,55.57735026920001,8,0,-0.3473752715829939,9.026919404759587,-1.53321838127678,-8.333136392873249e-06,2.916404231249707e-05,-1.226574705021424e-05,3.014162188311223e-05,3.040878319451289e-05
14.4226497308,54.4226497308,8,0,-0.5705963336041275,9.326077211792821,-1.855399349169878,-9.286770036967464e-06,3.029992414462033e-05,-1.484319479335902e-05,3.164556229378152e-05,3.140278330713683e-05
15.5773502692,54.4226497308,8,0,-0.4401082508009173,9.848029543005662,-1.860527957980624,-9.286770036967464e-06,3.186578113825885e-05,-1.488422366384499e-05,3.317027668825064e-05,3.30016148138023e-05
14.4226497308,55.57735026920001,8,0,-0.5842726237663873,9.322658139252257,-1.659667224965049,-9.327798907454244e-06,3.029992414462033e-05,-1.327733779972039e-05,3.138249851887359e-05,3.154949727926457e-05
15.5773502692,55.57735026920001,8,0,-0.4537845409631771,9.844610470465097,-1.664795833775903,-9.327798907454244e-06,3.186578113825885e-05,-1.331836667020723e-05,3.291552621772675e-05,3.311449394792505e-05
16.4226497308,54.4226497308,8,0,-0.6927420764260059,10.14539369472019,-1.961829232040229,-1.033308960033937e-05,3.30194534842454e-05,-1.569463385632183e-05,3.439618892469163e-05,3.417266787216603e-05
17.5773502692,54.4226497308,8,0,-0.5605725371744081,10.67407185172658,-1.964684632295216,-1.033308960033937e-05,3.460548795526457e-05,-1.571747705836173e-05,3.594016333157545e-05,3.57732128194452e-05
16.4226497308,55.57735026920001,8,0,-0.7003564771058266,10.14349009455023,-1.763574923162954,-1.035593280237883e-05,3.30194534842454e-05,-1.410859938530363e-05,3.413788184442911e-05,3.426129885131741e-05
17.5773502692,55.57735026920001,8,0,-0.5681869378542559,10.67216825155651,-1.766430323417792,-1.035593280237883e-05,3.460548795526425e-05,-1.413144258734234e-05,3.568972520074888e-05,3.582943144522716e-05
18.4226497308,54.4226497308,8,0,-0.8207826369744788,10.97322882068484,-2.037609791723973,-1.14050874948662e-05,3.577095833577106e-05,-1.630087833379178e-05,3.713938716477833e-05,3.694269153799647e-05
19.5773502692,54.4226497308,8,0,-0.6876084850262929,11.50592542847758,-2.038091525020564,-1.14050874948662e-05,3.736904815914929e-05,-1.630473220016451e-05,3.869559832395372e-05,3.853722186830574e-05
18.4226497308,55.57735026920001,8,0,-0.8220672590989024,10.97290766515373,-1.837848563801612,-1.140894136123947e-05,3.577095833577106e-05,-1.47027885104129e-05,3.68898880925914e-05,3.697567222272959e-05
19.5773502692,55.57735026920001,8,0,-0.6888931071506712,11.50560427294666,-1.838330297098257,-1.140894136123947e-05,3.736904815914983e-05,-1.470664237678606e-05,3.845345909808524e-05,3.853912767079686e-05
20.4226497308,54.4226497308,8,0,-0.9530196507120539,11.80561350451349,-2.083020776188631,-1.249415368588937e-05,3.854037893501281e-05,-1.666416620950905e-05,3.986625865521576e-05,3.969994554849752e-05
21.5773502692,54.4226497308,8,0,-0.8195158699715255,12.33962862747561,-2.081027526942554,-1.249415368588937e-05,4.014242430389915e-05,-1.664822021554043e-05,4.142745294846727e-05,4.12820353877707e-05
20.4226497308,55.57735026920001,8,0,-0.9477043193891821,11.80694233734421,-1.882765105077852,-1.247820769192075e-05,3.854037893501281e-05,-1.506212084062281e-05,3.962884711395103e-05,3.96795751750412e-05
21.5773502692,55.57735026920001,8,0,-0.8142005386486537,12.34095746030632,-1.880771855831693,-1.247820769192075e-05,4.014242430389915e-05,-1.504617484665354e-05,4.11968588491404e-05,4.123188025206702e-05
22.4226497308,54.4226497308,8,0,-1.087678863677659,12.63860363850962,-2.098433263962243,-1.35914552745762e-05,4.13136747341729e-05,-1.678746611169795e-05,4.256821825595024e-05,4.243353338193838e-05
23.5773502692,54.4226497308,8,0,-0.9545230040821764,13.17122707689155,-2.093874525107422,-1.35914552745762e-05,4.291154504931869e-05,-1.675099620085938e-05,4.41269115316349e-05,4.399739456767868e-05
22.4226497308,55.57735026920001,8,0,-1.075522226731561,12.64164279774614,-1.898699474569101,-1.355498536373791e-05,4.13136747341729e-05,-1.518959579655281e-05,4.234552497605879e-05,4.236204868149727e-05
23.5773502692,55.57735026920001,8,0,-0.9423663671360787,13.17426623612807,-1.894140735714375,-1.355498536373791e-05,4.291154504931869e-05,-1.5153125885715e-05,4.391048075632482e-05,4.389742117491643e-05
24.4226497308,54.4226497308,8,0,-1.222902283592545,13.46825913541688,-2.084362046135682,-1.468789461582965e-05,4.407675106020805e-05,-1.667489636908545e-05,4.523675848016884e-05,4.513354112841535e-05
25.5773502692,54.4226497308,8,0,-1.090774641257141,13.9967697047585,-2.077170050042285,-1.468789461582965e-05,4.56622827682329e-05,-1.661736040033828e-05,4.678527938889506e-05,4.667369007158422e-05
24.4226497308,55.57735026920001,8,0,-1.203723627343525,13.47305379947914,-1.886170582632589,-1.463035864708259e-05,4.407675106020805e-05,-1.508936466106071e-05,4.503084233777162e-05,4.501320878384368e-05
25.5773502692,55.57735026920001,8,0,-1.071595985008102,14.00156436882082,-1.878978586539301,-1.463035864708259e-05,4.566228276823312e-05,-1.503182869231441e-05,4.65850724544654e-05,4.652622472859913e-05
26.4226497308,54.4226497308,8,0,-1.356758197884369,14.29064553277385,-2.041517330359746,-1.577414265944906e-05,4.681547226318382e-05,-1.633213864287797e-05,4.786335581859346e-05,4.779052897459353e-05
27.57735026920001,54.4226497308,8,0,-1.226338149295417,14.81232572712966,-2.03165804716634,-1.577414265944906e-05,4.838051284625125e-05,-1.625326437733072e-05,4.939392558819242e-05,4.930164065844531e-05
26.4226497308,55.57735026920001,8,0,-1.330466776035375,14.29721838823597,-1.84588725747625,-1.569526839390197e-05,4.681547226318339e-05,-1.476709805981e-05,4.767575186814442e-05,4.762373592124792e-05
27.57735026920001,55.57735026920001,8,0,-1.200046727446368,14.81889858259199,-1.836027974282844,-1.569526839390197e-05,4.838051284625146e-05,-1.468822379426275e-05,4.921148918172383e-05,4.910917631681195e-05
28.4226497308,54.4226497308,8,0,-1.487266354850262,15.10185591737726,-1.97085052010268,-1.684073706942265e-05,4.951575201948746e-05,-1.576680416082144e-05,5.04394713394946e-05,5.039531747745732e-05
29.5773502692,54.4226497308,8,0,-1.359225478426478,15.6140194230724,-1.958332777209581,-1.684073706942265e-05,5.105224253657286e-05,-1.566666221767665e-05,5.19443124943592e-05,5.187218643033374e-05
28.4226497308,55.57735026920001,8,0,-1.45388570713524,15.11020107930602,-1.778789205466951,-1.674059512627758e-05,4.951575201948746e-05,-1.423031364373561e-05,5.027122259647175e-05,5.018464730232626e-05
29.5773502692,55.57735026920001,8,0,-1.325844830711402,15.62236458500137,-1.766271462573825,-1.674059512627758e-05,5.105224253657351e-05,-1.41301717005906e-05,5.178070850881862e-05,5.163744828137839e-05
30.4226497308,54.4226497308,8,0,-1.612434820974196,15.89804971675773,-1.873590030855189,-1.78782312005236e-05,5.216370695040407e-05,-1.498872024684151e-05,5.295661379816465e-05,5.29389422722915e-05
31.5773502692,54.4226497308,8,0,-1.487427593271404,16.39807862756889,-1.858472092815654,-1.78782312005236e-05,5.366379368283757e-05,-1.486777674252523e-05,5.442807961710105e-05,5.437650447903851e-05
30.4226497308,55.57735026920001,8,0,-1.572120319535508,15.9081283421174,-1.686079189300988,-1.775728769620754e-05,5.216370695040407e-05,-1.34886335144079e-05,5.280829608415345e-05,5.268723246423095e-05
31.5773502692,55.57735026920001,8,0,-1.447113091832735,16.40815725292849,-1.670961251261426,-1.775728769620754e-05,5.366379368283735e-05,-1.33676900100914e-05,5.428390809874223e-05,5.410249520983613e-05
32.4226497308,54.4226497308,8,0,-1.730304624144855,16.67550411551854,-1.751264425975274,-1.887737808967837e-05,5.474585686897522e-05,-1.401011540780219e-05,5.540644261923265e-05,5.541270425426085e-05
33.57735026920001,54.4226497308,8,0,-1.608957551709774,17.16089240525887,-1.73365766611523,-1.887737808967837e-05,5.620202173819619e-05,-1.386926132892184e-05,5.683715872084492e-05,5.68060924803331e-05
32.4226497308,55.57735026920001,8,0,-1.68335326451798,16.68724195542526,-1.569243817322761,-1.873652401079774e-05,5.474585686897522e-05,-1.255395053858209e-05,5.527818911572646e-05,5.512308274474251e-05
33.57735026920001,55.57735026920001,8,0,-1.562006192082881,17.17263024516566,-1.551637057462636,-1.873652401079774e-05,5.620202173819641e-05,-1.241309645970108e-05,5.671258102068737e-05,5.649611699819157e-05
34.42264973080001,54.4226497308,8,0,-1.838998249211041,17.43067348766638,-1.605711469760963,-1.982933318760843e-05,5.724935375990125e-05,-1.28456917580877e-05,5.778089387705078e-05,5.78082713555539e-05
35.5773502692,54.4226497308,8,0,-1.721898296994779,17.89907329653143,-1.585781038094272,-1.982933318760843e-05,5.865455318649639e-05,-1.268624830475418e-05,5.916390342630392e-05,5.915288673497353e-05
34.42264973080001,55.57735026920001,8,0,-1.785850431433452,17.44396044211091,-1.43006154143657,-1.966988973427578e-05,5.724935375990168e-05,-1.144049233149256e-05,5.76724238065388e-05,5.748417295501865e-05
35.5773502692,55.57735026920001,8,0,-1.668750479217244,17.91236025097574,-1.410131109770042,-1.966988973427578e-05,5.865455318649617e-05,-1.128104887816034e-05,5.905866976313577e-05,5.881055777645704e-05
36.4226497308,54.4226497308,8,0,-1.936768315776595,18.1602522549812,-1.439072898880533,-2.072586041447006e-05,5.966222186856111e-05,-1.151258319104427e-05,6.007231643042586e-05,6.01178044541133e-05
37.5773502692,54.4226497308,8,0,-1.824451431599781,18.60951979168846,-1.417035524828878,-2.072586041447006e-05,6.101002447868287e-05,-1.133628419863102e-05,6.140122107638022e-05,6.140939330861911e-05
36.4226497308,55.57735026920001,8,0,-1.878001984972162,18.17494383768231,-1.270597572615353,-2.054956142205676e-05,5.966222186856111e-05,-1.016478058092282e-05,5.998297039690298e-05,5.976296906360503e-05
37.5773502692,55.57735026920001,8,0,-1.765685100795321,18.62421137438967,-1.24856019856367,-2.054956142205676e-05,6.10100244786832e-05,-9.98848158850936e-06,6.131470492381924e-05,6.103862026846766e-05
38.4226497308,54.4226497308,8,0,-2.022043260471158,18.86123691881988,-1.253775725943695,-2.15595279685636e-05,6.197359274860053e-05,-1.003020580754956e-05,6.227360844895781e-05,6.2334089706645e-05
39.5773502692,54.4226497308,8,0,-1.914983688807173,19.28947520547582,-1.229894975837524,-2.15595279685636e-05,6.325830760856835e-05,-9.839159806700193e-06,6.354269812965194e-05,6.356881839322931e-05
38.4226497308,55.57735026920001,8,0,-1.958361260188035,18.87715741889052,-1.093186368447717,-2.136848196771413e-05,6.197359274860009e-05,-8.74549094758174e-06,6.220239139827819e-05,6.195254488424843e-05
39.5773502692,55.57735026920001,8,0,-1.851301688524023,19.30539570554657,-1.069305618341533,-2.136848196771413e-05,6.325830760856824e-05,-8.554444946732263e-06,6.34739383275294e-05,6.317378216409289e-05
40.4226497308,54.4226497308,8,0,-2.093467477600535,19.53098358177029,-1.05250166454388,-2.232388279373794e-05,6.417392144374536e-05,-8.420013316351037e-06,6.43783470518692e-05,6.445066575961117e-05
41.5773502692,54.4226497308,8,0,-1.992068422771079,19.93657980108812,-1.027081097999927,-2.232388279373794e-05,6.539071010169882e-05,-8.216648783999415e-06,6.558271309237051e-05,6.56251888826053e-05
40.4226497308,55.57735026920001,8,0,-2.025679300149849,19.54793062613296,-0.9004030822997648,-2.212051826138589e-05,6.417392144374536e-05,-7.203224658398118e-06,6.432397855377256e-05,6.404669652502883e-05
41.5773502692,55.57735026920001,8,0,-1.924280245320385,19.95352684545082,-0.8749825157557578,-2.212051826138589e-05,6.539071010169893e-05,-6.999860126046063e-06,6.553046336194983e-05,6.521030563001928e-05
42.4226497308,54.4226497308,8,0,-2.149934056259287,20.16725798377324,-0.8381467922235261,-2.301359536704831e-05,6.62551727930818e-05,-6.705174337788208e-06,6.63809058144252e-05,6.646193840099919e-05
43.57735026920001,54.4226497308,8,0,-2.05452011157142,20.54891376252471,-0.811521531005017,-2.301359536704831e-05,6.740014012933621e-05,-6.492172248040136e-06,6.751653315005931e-05,6.757345747556313e-05
42.4226497308,55.57735026920001,8,0,-2.078933359676596,20.18500815791892,-0.6950258751917929,-2.280059327730024e-05,6.62551727930818e-05,-5.560207001534343e-06,6.634187642044577e-05,6.604004719208417e-05
43.57735026920001,55.57735026920001,8,0,-1.983519414988729,20.56666393667038,-0.668400613973311,-2.280059327730024e-05,6.740014012933621e-05,-5.347204911786488e-06,6.74793177670794e-05,6.714333419190294e-05
44.4226497308,54.4226497308,8,0,-2.190608917172313,20.76827583976955,-0.613773865294534,-2.362456920676704e-05,6.821096982100039e-05,-4.910190922356272e-06,6.827655654449507e-05,6.836327805635382e-05
45.5773502692,54.4226497308,8,0,-2.101420535692726,21.1250293656879,-0.5863011117201365,-2.362456920676704e-05,6.928123039875544e-05,-4.690408893761092e-06,6.934039230027736e-05,6.940958893746535e-05
44.4226497308,55.57735026920001,8,0,-2.117348240973938,20.78659100881914,-0.4799912930752471,-2.340478717817191e-05,6.821096982100039e-05,-3.839930344601977e-06,6.825118832549606e-05,6.792813760789035e-05
45.5773502692,55.57735026920001,8,0,-2.028159859494341,21.14334453473753,-0.4525185395008496,-2.340478717817191e-05,6.928123039875555e-05,-3.620148316006797e-06,6.931656603983241e-05,6.896897341459396e-05
46.42264973080001,54.4226497308,8,0,-2.214945750348717,21.33273201567039,-0.3825598067305774,-2.41540120136522e-05,7.00366990504242e-05,-3.060478453844619e-06,7.006155303384437e-05,7.015109752421045e-05
47.57735026920001,54.4226497308,8,0,-2.132135903497237,21.66397140307631,-0.354608837721277,-2.41540120136522e-05,7.103041721264196e-05,-2.836870701770217e-06,7.105154999944663e-05,7.11306257764213e-05
46.42264973080001,55.57735026920001,8,0,-2.140409832990546,21.35136599500993,-0.2583450364533439,-2.393040426157769e-05,7.00366990504242e-05,-2.066760291626751e-06,7.004806202077268e-05,6.970749920613948e-05
47.57735026920001,55.57735026920001,8,0,-2.057599986139075,21.68260538241581,-0.2303940674440842,-2.393040426157769e-05,7.103041721264185e-05,-1.843152539552674e-06,7.103936008858586e-05,7.068435338472405e-05
48.4226497308,54.4226497308,8,0,-2.222691662376626,21.85981777280914,-0.1477408538875662,-2.460046753785251e-05,7.172957020289052e-05,-1.181926831100529e-06,7.173319549593472e-05,7.182290874496889e-05
49.57735026920001,54.4226497308,8,0,-2.146324718252719,22.16528554930477,-0.119682983232744,-2.460046753785251e-05,7.264597353237741e-05,-9.57463865861952e-07,7.264833021203732e-05,7.27347327361251e-05
48.4226497308,55.57735026920001,8,0,-2.147870673963713,21.87852301991236,-0.03319043770177262,-2.437600457261377e-05,7.172957020289052e-05,-2.655235016141809e-07,7.172975360170879e-05,7.137570864221168e-05
49.57735026920001,55.57735026920001,8,0,-2.071503729839842,22.18399079640785,-0.005132567046882679,-2.437600457261377e-05,7.264597353237698e-05,-4.106053637506143e-08,7.26459778766699e-05,7.22876721532435e-05
50.42264973080001,54.4226497308,8,0,-2.213883859664518,22.34922592772343,0.08744227733824836,-2.49638090931052e-05,7.32886300564466e-05,6.995382187059869e-07,7.328987518461413e-05,7.337735839202713e-05
51.57735026920001,54.4226497308,8,0,-2.143936614151071,22.62901490977723,0.1152433221698754,-2.49638090931052e-05,7.412799700260797e-05,9.219465773590034e-07,7.413014139559895e-05,7.422122034311719e-05
50.42264973080001,55.57735026920001,8,0,-2.139747740113494,22.36775995761119,0.1923631456085149,-2.474140073445213e-05,7.32886300564466e-05,1.538905164868119e-06,7.329466923444304e-05,7.293142317700175e-05
51.57735026920001,55.57735026920001,8,0,-2.069800494600046,22.64754893966498,0.2201641904401013,-2.474140073445213e-05,7.412799700260797e-05,1.76131352352081e-06,7.413584063094271e-05,7.377822017037677e-05
52.4226497308,54.4226497308,8,0,-2.188838036266061,22.80114431247719,0.3197970460129117,-2.524519716603314e-05,7.471473222893984e-05,2.558376368103294e-06,7.473109933261865e-05,7.4814242823396e-05
53.5773502692,54.4226497308,8,0,-2.125202744363031,23.05568548008931,0.3469939390108619,-2.524519716603314e-05,7.54783557317762e-05,2.775951512086895e-06,7.549747847878518e-05,7.559054841852706e-05
52.4226497308,55.57735026920001,8,0,-2.116312988271291,22.81927557447588,0.4152499838674028,-2.502762202204883e-05,7.471473222893984e-05,3.321999870939223e-06,7.474238503630123e-05,7.437439728580608e-05
53.5773502692,55.57735026920001,8,0,-2.052677696368262,23.073816742088,0.442446876865502,-2.502762202204883e-05,7.54783557317762e-05,3.539575014924017e-06,7.550950987117313e-05,7.515638646216302e-05
54.42264973080001,54.4226497308,8,0,-2.148129422890168,23.21623838999088,0.5462276230913329,-2.544700486524124e-05,7.601046638628295e-05,4.369820984730663e-06,7.605749714615124e-05,7.613450357177869e-05
55.57735026920001,54.4226497308,8,0,-2.090618602841182,23.44628167018683,0.5724971104215597,-2.544700486524124e-05,7.670059622687079e-05,4.579976883372478e-06,7.67519083875988e-05,7.684431109243316e-05
54.42264973080001,55.57735026920001,8,0,-2.078077456676139,23.23375138154439,0.6324938531647732,-2.523684896659916e-05,7.601046638628295e-05,5.059950825318186e-06,7.607364617412002e-05,7.570548152319478e-05
55.57735026920001,55.57735026920001,8,0,-2.020566636627152,23.46379466174034,0.6587633404950407,-2.523684896659916e-05,7.670059622687079e-05,5.270106723960326e-06,7.67686661367521e-05,7.642364795182548e-05
56.4226497308,54.4226497308,8,0,-2.092567704423489,23.59562428996601,0.7637776454459954,-2.557271608612797e-05,7.718005189143e-05,6.110221163567963e-06,7.727080821984169e-05,7.734020518589962e-05
57.57735026920001,54.4226497308,8,0,-2.040920421505046,23.80221342163978,0.7888267977527325,-2.557271608612797e-05,7.779981928645132e-05,6.310614382021859e-06,7.789604121594235e-05,7.798520552382637e-05
56.4226497308,55.57735026920001,8,0,-2.025769964938785,23.61232372483718,0.8412485698236472,-2.537232286767385e-05,7.718005189143e-05,6.729988558589178e-06,7.729034696283599e-05,7.692660532248104e-05
57.57735026920001,55.57735026920001,8,0,-1.974122682020305,23.8189128565111,0.8662977221303978,-2.537232286767385e-05,7.779981928645176e-05,6.930381777043183e-06,7.791607191985354e-05,7.758254398458099e-05
58.4226497308,54.4226497308,8,0,-2.023167233127498,23.94083388929626,0.9696658303030398,-2.562680225744499e-05,7.822920223225002e-05,7.757326642424318e-06,7.837385544398745e-05,7.843449792714078e-05
59.57735026920001,54.4226497308,8,0,-1.977056514056396,24.12527676558067,0.9932366726012445,-2.562680225744499e-05,7.878253086110324e-05,7.945893380809955e-06,7.893348974905106e-05,7.901698726257588e-05
58.4226497308,55.57735026920001,8,0,-1.960311653665763,23.95654778416169,1.038831908909679,-2.543823551905979e-05,7.822920223225002e-05,8.310655271277431e-06,7.839549451274706e-05,7.804074607284413e-05
59.57735026920001,55.57735026920001,8,0,-1.914200934594661,24.1409906604461,1.062402751207897,-2.543823551905979e-05,7.878253086110324e-05,8.499222009663177e-06,7.895552198742861e-05,7.863663879606654e-05
60.4226497308,54.4226497308,8,0,-1.941114146788778,24.25377386135321,1.161313452531154,-2.561458435880665e-05,7.916496767376127e-05,9.290507620249235e-06,7.937050526997399e-05,7.942156858290977e-05
61.5773502692,54.4226497308,8,0,-1.900155132283983,24.41760991937239,1.183185847242928,-2.561458435880665e-05,7.965647584781883e-05,9.465486777943425e-06,7.986882071827015e-05,7.994441597046712e-05
60.4226497308,55.57735026920001,8,0,-1.882787760890859,24.26835545782769,1.222751974288362,-2.54396052011129e-05,7.916496767376127e-05,9.782015794306898e-06,7.939315929272238e-05,7.905188750585289e-05
61.5773502692,55.57735026920001,8,0,-1.841828746386073,24.43219151584684,1.244624369000068,-2.54396052011129e-05,7.965647584781872e-05,9.956994952000546e-06,7.989178497150846e-05,7.959047535559244e-05
62.42264973080001,54.4226497308,8,0,-1.847732127716731,24.53668084615113,1.336363098013762,-2.554208748561444e-05,7.999556440985698e-05,1.06909047841101e-05,8.026561904210855e-05,8.030658343935744e-05
63.57735026920001,54.4226497308,8,0,-1.811490543905266,24.68164718139699,1.356355845523734,-2.554208748561444e-05,8.043046341559457e-05,1.085084676418987e-05,8.070750184051151e-05,8.077319597769914e-05
62.42264973080001,55.57735026920001,8,0,-1.794418134356751,24.55000934449112,1.390725473730906,-2.53821455055345e-05,7.999556440985698e-05,1.112580378984725e-05,8.028841680711201e-05,7.99649711028135e-05
63.57735026920001,55.57735026920001,8,0,-1.758176550545286,24.69497567973698,1.410718221240946,-2.53821455055345e-05,8.043046341559457e-05,1.128574576992757e-05,8.073054077215616e-05,8.044952466174385e-05
64.4226497308,54.4226497308,8,0,-1.744448587465669,24.79207502717642,1.492688559488728,-2.541589550163128e-05,8.073019895693707e-05,1.194150847590983e-05,8.106499991845614e-05,8.109562817652632e-05
65.57735026920001,54.4226497308,8,0,-1.7124491106257,24.9200729345363,1.510658775393317,-2.541589550163128e-05,8.11141926790167e-05,1.208527020314654e-05,8.145584929779179e-05,8.150991678741409e-05
64.4226497308,55.57735026920001,8,0,-1.696528011720318,24.80405517111276,1.540687774748654,-2.527213377439522e-05,8.073019895693707e-05,1.232550219798924e-05,8.108728534779566e-05,8.078584483784684e-05
65.57735026920001,55.57735026920001,8,0,-1.664528534880385,24.93205307847249,1.558657990653203,-2.527213377439522e-05,8.111419267901627e-05,1.246926392522562e-05,8.147831887001905e-05,8.12201350876794e-05
66.4226497308,54.4226497308,8,0,-1.632763015140944,25.02271442078687,1.628396214345925,-2.524301318508051e-05,8.137889655863073e-05,1.30271697147674e-05,8.177534059086806e-05,8.179564999801086e-05
67.57735026920001,54.4226497308,8,0,-1.604497121306019,25.13577799612657,1.64423713727466,-2.524301318508051e-05,8.171808728464982e-05,1.315389709819728e-05,8.212098075600509e-05,8.216199903591639e-05
66.4226497308,55.57735026920001,8,0,-1.590520553997684,25.03327503607268,1.670795055098284,-2.511628580165073e-05,8.137889655863073e-05,1.336636044078627e-05,8.179666538236638e-05,8.152121400882125e-05
67.57735026920001,55.57735026920001,8,0,-1.562254660162741,25.14633861141246,1.686635978027034,-2.511628580165073e-05,8.171808728465004e-05,1.349308782421627e-05,8.214244300157732e-05,8.190948666867115e-05
68.42264973080002,54.4226497308,8,0,-1.514219076884423,25.23155207918602,1.741818684452881,-2.503074270937897e-05,8.195234191490279e-05,1.393454947562305e-05,8.240417747441271e-05,8.241440756342671e-05
69.57735026920001,54.4226497308,8,0,-1.489152008070365,25.33182035444225,1.75545615532651,-2.503074270937897e-05,8.225314674067149e-05,1.404364924261208e-05,8.271077923113883e-05,8.273765144697231e-05
68.42264973080002,55.57735026920001,8,0,-1.477852487888134,25.24064372643509,1.779419287673955,-2.49216429423901e-05,8.195234191490279e-05,1.423535430139164e-05,8.242428648042045e-05,8.217859907593412e-05
69.57735026920001,55.57735026920001,8,0,-1.452785419074058,25.3409120016914,1.793056758547584,-2.49216429423901e-05,8.225314674067171e-05,1.434445406838067e-05,8.273098774004049e-05,8.252555518570504e-05
70.4226497308,54.4226497308,8,0,-1.390381808170496,25.42169818032636,1.831501990038855,-2.478658033040667e-05,8.246173962358073e-05,1.465201592031084e-05,8.295985718431149e-05,8.296043412844784e-05
71.57735026920001,54.4226497308,8,0,-1.36795834746538,25.51139202314683,1.842889915442851,-2.478658033040667e-05,8.273082115204213e-05,1.47431193235428e-05,8.323387302932035e-05,8.32458438497656e-05
70.4226497308,55.57735026920001,8,0,-1.360014007093121,25.4292901305957,1.865137181096516,-2.469547692717454e-05,8.246173962358073e-05,1.492109744877213e-05,8.297866768897064e-05,8.276630520907217e-05
71.57735026920001,55.57735026920001,8,0,-1.337590546387987,25.51898397341624,1.876525106500566,-2.469547692717454e-05,8.273082115204235e-05,1.501220085200453e-05,8.325275230373094e-05,8.307709039509158e-05
72.4226497308,54.4226497308,8,0,-1.262820920770501,25.5963886449939,1.896187741014734,-2.451813786246072e-05,8.291870040059686e-05,1.516950192811787e-05,8.345152089709308e-05,8.344301856277233e-05
73.57735026920001,54.4226497308,8,0,-1.242469743745488,25.67779335309395,1.905302904468871,-2.451813786246072e-05,8.316291452489701e-05,1.524242323575097e-05,8.369963658208738e-05,8.369630017537969e-05
72.4226497308,55.57735026920001,8,0,-1.238513818226188,25.60246542062998,1.926714506552307,-2.444521655482778e-05,8.291870040059686e-05,1.541371605241846e-05,8.346909690253645e-05,8.329340748805854e-05
73.57735026920001,55.57735026920001,8,0,-1.218162641201166,25.68387012873006,1.935829670006417,-2.444521655482778e-05,8.316291452489712e-05,1.548663736005134e-05,8.371725636419037e-05,8.357361159059561e-05
74.4226497308,54.4226497308,8,0,-1.133100884324084,25.75896151254916,1.934792138671544,-2.42330920398764e-05,8.333515754761658e-05,1.547833710937235e-05,8.388911157293711e-05,8.387220737608817e-05
75.57735026920001,54.4226497308,8,0,-1.11423733723759,25.83441570089514,1.941628751426595,-2.42330920398764e-05,8.356152011265451e-05,1.553303001141276e-05,8.411821625488997e-05,8.409951317325405e-05
74.4226497308,55.57735026920001,8,0,-1.114869916977459,25.76351925438582,1.963087459301284,-2.417839913783652e-05,8.333515754761658e-05,1.570469967441027e-05,8.390563402008283e-05,8.376975415598184e-05
75.57735026920001,55.57735026920001,8,0,-1.096006369890952,25.83897344273185,1.969924072056336,-2.417839913783652e-05,8.356152011265467e-05,1.575939257645069e-05,8.413476174909337e-05,8.402542150762966e-05
76.42264973080002,54.4226497308,8,0,-1.002778073133738,25.91284185894044,1.946383681711163,-2.393916332118031e-05,8.372331640711639e-05,1.55710694536893e-05,8.428340798736623e-05,8.42588280848417e-05
77.57735026920001,54.4226497308,8,0,-0.9848053121397804,25.98473290291627,1.95094807015587,-2.393916332118031e-05,8.393898953904389e-05,1.560758456124696e-05,8.450058411482486e-05,8.446677872055515e-05
76.42264973080002,55.57735026920001,8,0,-0.9906063706146293,25.91588478457022,1.973342823202121,-2.390264821362299e-05,8.372331640711639e-05,1.578674258561697e-05,8.42991415437049e-05,8.420598751656881e-05
77.57735026920001,55.57735026920001,8,0,-0.9726336096206616,25.98777582854609,1.977907211646773,-2.390264821362299e-05,8.3938989539044e-05,1.582325769317419e-05,8.451632273505616e-05,8.444363567548368e-05
78.4226497308,54.4226497308,8,0,-0.873404923027385,26.06153559031251,1.930161490869116,-2.364412422593763e-05,8.409563782742191e-05,1.544129192695292e-05,8.464608807428345e-05,8.461452926395443e-05
79.57735026920001,54.4226497308,8,0,-0.8557134271225584,26.13230157393181,1.932467304409328,-2.364412422593763e-05,8.430793577827983e-05,1.545973843527463e-05,8.48586211816521e-05,8.481024061967086e-05
78.4226497308,55.57735026920001,8,0,-0.8672560869201957,26.0630727993393,1.956698734726335,-2.362567771761607e-05,8.409563782742191e-05,1.565358987781068e-05,8.46613447571691e-05,8.461357701169375e-05
79.57735026920001,55.57735026920001,8,0,-0.8495645910153833,26.13383878295855,1.959004548266575,-2.362567771761607e-05,8.430793577827967e-05,1.56720363861326e-05,8.487386609434149e-05,8.484021721763066e-05
80.4226497308,54.4226497308,8,0,-0.7465407428955571,26.20863202316467,1.885436105324995,-2.335583599579751e-05,8.446485506844337e-05,1.508348884259996e-05,8.498982219555938e-05,8.4951823494299e-05
81.57735026920001,54.4226497308,8,0,-0.7285062826808559,26.28076986402347,1.885500402339214,-2.335583599579751e-05,8.468126859101978e-05,1.508400321871371e-05,8.520522980910294e-05,8.514292374556479e-05
80.4226497308,55.57735026920001,8,0,-0.746369284191009,26.2086748878408,1.912487795647019,-2.335532161968387e-05,8.446485506844337e-05,1.529990236517616e-05,8.500492171369751e-05,8.50048496821066e-05
81.57735026920001,55.57735026920001,8,0,-0.7283348239763034,26.28081272869963,1.912552092661238,-2.335532161968387e-05,8.468126859101984e-05,1.530041674128991e-05,8.522030016323867e-05,8.522799373371233e-05
82.4226497308,54.4226497308,8,0,-0.6237685810053142,26.35781478755124,1.811614487704651,-2.3082311289258e-05,8.484402218496821e-05,1.44929159016372e-05,8.532839457617983e-05,8.528410208065717e-05
83.57735026920001,54.4226497308,8,0,-0.6047487839031778,26.43389397595978,1.809455024135473,-2.3082311289258e-05,8.507225975019385e-05,1.447564019308378e-05,8.55544724771698e-05,8.547870821380815e-05
82.4226497308,55.57735026920001,8,0,-0.6295271505230504,26.35637514517181,1.84014418335774,-2.30995869978112e-05,8.484402218496821e-05,1.472115346686192e-05,8.53436209232145e-05,8.539298539595002e-05
83.57735026920001,55.57735026920001,8,0,-0.610507353420914,26.43245433358035,1.837984719788623,-2.30995869978112e-05,8.507225975019385e-05,1.470387775830899e-05,8.556964987492733e-05,8.562060694842206e-05
84.42264973080002,54.4226497308,8,0,-0.5067173558808857,26.5128802708883,1.708190829962412,-2.283179975552947e-05,8.524659075154727e-05,1.36655266396993e-05,8.567684820533034e-05,8.56255564849264e-05
85.57735026920001,54.4226497308,8,0,-0.4860470568952628,26.59556146683079,1.703824841006255,-2.283179975552947e-05,8.549463433937473e-05,1.363059872805004e-05,8.592173132610534e-05,8.583214728949119e-05
84.42264973080002,55.57735026920001,8,0,-0.5183599930972784,26.5099696115842,1.739196278440879,-2.286672766717865e-05,8.524659075154727e-05,1.391357022752704e-05,8.569240179809369e-05,8.579190923347449e-05
85.57735026920001,55.57735026920001,8,0,-0.4976896941116378,26.59265080752677,1.734830289484688,-2.286672766717865e-05,8.549463433937495e-05,1.387864231587751e-05,8.593721186313823e-05,8.603229422723824e-05
86.4226497308,54.4226497308,8,0,-0.3970883138849857,26.67776255262459,1.574744603588086,-2.261289264653162e-05,8.568651081950667e-05,1.259795682870469e-05,8.605164492811336e-05,8.599087356672266e-05
87.57735026920002,54.4226497308,8,0,-0.3740739218272626,26.76982012085548,1.568189338089094,-2.261289264653162e-05,8.596268352419935e-05,1.254551470471275e-05,8.632387914395953e-05,8.62179310160689e-05
86.4226497308,55.57735026920001,8,0,-0.4145690218822882,26.67339237562527,1.609266191674732,-2.266533477052353e-05,8.568651081950667e-05,1.287412953339786e-05,8.606758953210847e-05,8.621594328848403e-05
87.57735026920002,55.57735026920001,8,0,-0.391554629824542,26.76544994385625,1.602710926175665,-2.266533477052353e-05,8.596268352419962e-05,1.282168740940532e-05,8.633972032282269e-05,8.64772968608274e-05
88.42264973080002,54.4226497308,8,0,-0.2966847522500089,26.85656355096388,1.410947161222014,-2.243464204797113e-05,8.61783511648844e-05,1.128757728977611e-05,8.647082821119226e-05,8.639443413650771e-05
89.57735026920001,54.4226497308,8,0,-0.2705978983139978,26.96091096670792,1.402222403101196,-2.243464204797113e-05,8.649139341211653e-05,1.121777922480957e-05,8.677944820989822e-05,8.664959217991527e-05
88.42264973080002,55.57735026920001,8,0,-0.3199507739056227,26.85074704554997,1.450077442126071,-2.250444011293797e-05,8.61783511648844e-05,1.160061953700857e-05,8.648703213520848e-05,8.667893777021291e-05
89.57735026920001,55.57735026920001,8,0,-0.2938639199695983,26.95509446129407,1.441352684005239,-2.250444011293797e-05,8.64913934121167e-05,1.153082147204191e-05,8.679551030173026e-05,8.696847740721853e-05
90.42264973080002,54.4226497308,8,0,-0.2074438251521107,27.05358689244829,1.216578080945942,-2.230668975444539e-05,8.673743311595622e-05,9.732624647567538e-06,8.695417125451681e-05,8.684846290438989e-05
91.57735026920001,54.4226497308,8,0,-0.1775145981215562,27.17330380057051,1.205710872430364,-2.230668975444539e-05,8.709658384032287e-05,9.645686979442916e-06,8.730877852134933e-05,8.713662978440811e-05
90.42264973080002,55.57735026920001,8,0,-0.2364230478601552,27.04634208677128,1.261471921491753,-2.239362742256952e-05,8.673743311595622e-05,1.009177537193403e-05,8.697024293200283e-05,8.719230984907404e-05
91.57735026920001,55.57735026920001,8,0,-0.2064938208296008,27.1660589948935,1.25060471297623,-2.239362742256952e-05,8.709658384032287e-05,1.000483770380984e-05,8.732466062510664e-05,8.751429181562588e-05
92.42264973080002,54.4226497308,8,0,-0.1314691089656419,27.27337380112874,0.9915523477248611,-2.223940018959304e-05,8.737997145078446e-05,7.932418781798889e-06,8.752328806576988e-05,8.735899916507269e-05
93.57735026920001,54.4226497308,8,0,-0.09687922349199773,27.41173334302331,0.9785841132373282,-2.223940018959304e-05,8.77950500764682e-05,7.828672905898625e-06,8.793412187502521e-05,8.767835673110361e-05
92.42264973080002,55.57735026920001,8,0,-0.1660510675992164,27.26472831147034,1.043437175935342,-2.234314606549377e-05,8.737997145078446e-05,8.347497407482736e-06,8.753850727285061e-05,8.776081909418721e-05
93.57735026920001,55.57735026920001,8,0,-0.1314611821255447,27.40308785336503,1.030468941447775,-2.234314606549377e-05,8.779505007646852e-05,8.243751531582201e-06,8.794909409446991e-05,8.811236217814525e-05
94.4226497308,54.4226497308,8,0,-0.07106242053848,27.52073906414613,0.7359593779018204,-2.224399099704004e-05,8.81232149416984e-05,5.887675023214564e-06,8.820168048207392e-05,8.791736338120202e-05
95.57735026920002,54.4226497308,8,0,-0.03093871558651529,27.68123388395399,0.7209556311169024,-2.224399099704004e-05,8.860469940112197e-05,5.76764504893522e-06,8.867967377534313e-05,8.825098412661453e-05
94.4226497308,55.57735026920001,8,0,-0.1110724119650008,27.5107365662895,0.7961449353297533,-2.23640209713196e-05,8.81232149416984e-05,6.369159482638026e-06,8.821492813133457e-05,8.837367096657331e-05
95.57735026920002,55.57735026920001,8,0,-0.07094870701302725,27.6712313860974,0.781141188544842,-2.23640209713196e-05,8.860469940112208e-05,6.249129508358736e-06,8.869260865009121e-05,8.873603676909527e-05
96.4226497308,54.4226497308,8,0,-0.02875314281848063,27.80080484590327,0.4501147927146243,-2.233265393374175e-05,8.898557802114525e-05,3.600918341716995e-06,8.901469100293903e-05,8.848232572591693e-05
97.57735026920001,54.4226497308,8,0,0.01783813068507278,27.98716993991749,0.4331775865253131,-2.233265393374175e-05,8.954467330318788e-05,3.465420692202504e-06,8.957150237944744e-05,8.878074198372971e-05
96.4226497308,55.57735026920001,8,0,-0.07391902598990541,27.78951337511042,0.5200017029699067,-2.246815158325603e-05,8.898557802114525e-05,4.160013623759253e-06,8.902438266727289e-05,8.898598159403324e-05
97.57735026920001,55.57735026920001,8,0,-0.02732775248633423,27.9758784691247,0.5030644967806428,-2.246815158325603e-05,8.95446733031881e-05,4.024515974245142e-06,8.95808109176413e-05,8.930647775235974e-05
98.42264973080002,54.4226497308,8,0,-0.007323005143675232,28.11902978018994,0.1346257080867929,-2.251865744061171e-05,8.998675370072273e-05,1.077005664694344e-06,8.998933116481253e-05,8.894307143891969e-05
99.57735026920002,54.4226497308,8,0,0.0467345636150549,28.33526005522486,0.1159089504365935,-2.251865744061171e-05,9.063544452582749e-05,9.272716034927479e-07,9.06373441878301e-05,8.908814750026975e-05
98.42264973080002,55.57735026920001,8,0,-0.05723435887753148,28.10655194175647,0.2157120612248406,-2.266839150181328e-05,8.998675370072273e-05,1.725696489798725e-06,8.99933620400244e-05,8.948034262195916e-05
99.57735026920002,55.57735026920001,8,0,-0.003176790118796902,28.32278221679141,0.1969953035746614,-2.266839150181328e-05,9.063544452582754e-05,1.575962428597292e-06,9.06409243435235e-05,8.963485412104981e-05
0.4226497308,56.42264973080001,8,0,-0.02759393340530614,4.528688295778716,-0.2194976624091723,-3.711251223519952e-06,1.451387769321614e-05,-1.755981299273379e-06,1.45560769450026e-05,1.689318633806802e-05
1.5773502692,56.42264973080001,8,0,0.06493438991091782,4.898801589043612,-0.2374487448627796,-3.711251223519952e-06,1.562421757301082e-05,-1.899589958902236e-06,1.567076126930266e-05,1.72707840733972e-05
0.4226497308,57.57735026920001,8,0,-0.07546348661499769,4.516720907476294,-0.08070517743474173,-3.854859883149027e-06,1.451387769321614e-05,-6.456414194779339e-07,1.451954934281068e-05,1.740150977315042e-05
1.5773502692,57.57735026920001,8,0,0.01706483670122627,4.886834200741189,-0.0986562598884167,-3.854859883149027e-06,1.562421757301082e-05,-7.892500791073336e-07,1.563220897094802e-05,1.776817890160999e-05
2.4226497308,56.42264973080001,8,0,-0.05643764566449638,5.132699418929412,-0.5239486268066593,-4.286760001269917e-06,1.646978825710571e-05,-4.191589014453274e-06,1.667928672261837e-05,1.773734241546054e-05
3.5773502692,56.42264973080001,8,0,0.04354587022246781,5.532633482477268,-0.5401722934217763,-4.286760001269917e-06,1.766959044774928e-05,-4.321378347374211e-06,1.788020018700251e-05,1.863440577539769e-05
2.4226497308,57.57735026920001,8,0,-0.0997007566381598,5.121883641185996,-0.373973352976308,-4.416549334190908e-06,1.646978825710571e-05,-2.991786823810464e-06,1.657638114569388e-05,1.82213282110526e-05
3.5773502692,57.57735026920001,8,0,0.0002827592487772979,5.521817704733745,-0.3901970195914657,-4.416549334190908e-06,1.766959044774896e-05,-3.121576156731726e-06,1.77793431610535e-05,1.909268601945762e-05
4.422649730800001,56.42264973080001,8,0,-0.1050930754997181,5.778774975403302,-0.7998335669983888,-4.959317821921739e-06,1.857615438169034e-05,-6.39866853598711e-06,1.900330871482086e-05,1.939691687500889e-05
5.577350269200001,56.42264973080001,8,0,0.001321635941980537,6.204433821170097,-0.8141811441848666,-4.959317821921739e-06,1.985313091899072e-05,-6.513449153478933e-06,2.027346719817245e-05,2.058307258063331e-05
4.422649730800001,57.57735026920001,8,0,-0.1433532813302714,5.769209923945664,-0.6402114998359221,-5.074098439413399e-06,1.857615438169034e-05,-5.121691998687377e-06,1.885026542057659e-05,1.983378649648219e-05
5.577350269200001,57.57735026920001,8,0,-0.03693856988859978,6.19486876971235,-0.6545590770223593,-5.074098439413399e-06,1.98531309189904e-05,-5.236472616178874e-06,2.012516903957128e-05,2.098715284490793e-05
6.422649730800001,56.42264973080001,8,0,-0.1708462660323686,6.461060129538778,-1.046569688973733,-5.715556154934601e-06,2.081206942734998e-05,-8.372557511789861e-06,2.145701860773223e-05,2.15112106473732e-05
7.577350269200001,56.42264973080001,8,0,-0.05893858361704174,6.908690859200085,-1.058942813577347,-5.715556154934601e-06,2.21549616163339e-05,-8.471542508618778e-06,2.278449584040369e-05,2.286077529662872e-05
6.422649730800001,57.57735026920001,8,0,-0.2038412649751604,6.452811379803079,-0.8787081653507424,-5.814541151762977e-06,2.081206942734998e-05,-7.029665322805939e-06,2.126822841098139e-05,2.189032573433029e-05
7.577350269200001,57.57735026920001,8,0,-0.09193358255984263,6.90044210946435,-0.8910812899543571,-5.814541151762977e-06,2.215496161633379e-05,-7.128650319634857e-06,2.260203912257339e-05,2.320447360793014e-05
8.4226497308,56.42264973080001,8,0,-0.2513033926933055,7.174164868005213,-1.263874942740984,-6.543502751022747e-06,2.315837029177132e-05,-1.011099954192787e-05,2.399527598964653e-05,2.388294669074253e-05
9.5773502692,56.42264973080001,8,0,-0.1347641182613635,7.640321965732981,-1.274202134649027,-6.543502751022747e-06,2.455684158495462e-05,-1.019361707719222e-05,2.537081656043773e-05,2.53260062243682e-05
8.4226497308,57.57735026920001,8,0,-0.2788425711146627,7.167280073399874,-1.089066031093044,-6.626120286286818e-06,2.315837029177132e-05,-8.712528248744356e-06,2.378243921939502e-05,2.420061335881124e-05
9.5773502692,57.57735026920001,8,0,-0.1623032966827207,7.633437171127642,-1.099393223001047,-6.626120286286818e-06,2.455684158495462e-05,-8.795145784008373e-06,2.516514228694601e-05,2.560796989617324e-05
10.4226497308,56.42264973080001,8,0,-0.3443345310399453,7.913115630218354,-1.451663899621798,-7.432363003502507e-06,2.559743764153069e-05,-1.161331119697438e-05,2.65885129245638e-05,2.640198726531338e-05
11.5773502692,56.42264973080001,8,0,-0.2239603640683954,8.394612298104555,-1.459883444054064,-7.432363003502507e-06,2.704192764518929e-05,-1.167906755243251e-05,2.800421455528934e-05,2.789856260365578e-05
10.4226497308,57.57735026920001,8,0,-0.3662533161928723,7.907635933929987,-1.271102649164459,-7.498119358961179e-06,2.559743764153025e-05,-1.016882119331567e-05,2.636093305190708e-05,2.66581139031618e-05
11.5773502692,57.57735026920001,8,0,-0.2458791492213308,8.389132601816153,-1.279322193596915,-7.498119358961179e-06,2.704192764518875e-05,-1.023457754877532e-05,2.778413210532589e-05,2.811980414827851e-05
12.4226497308,56.42264973080001,8,0,-0.4480089881253186,8.67329045370491,-1.609973642260055,-8.372261124964947e-06,2.811293664235597e-05,-1.287978913808044e-05,2.921625867475643e-05,2.900499402064341e-05
13.5773502692,56.42264973080001,8,0,-0.3245455721177892,9.167144117735027,-1.61602275922714,-8.372261124964947e-06,2.959449763444632e-05,-1.292818207381712e-05,3.066487514982831e-05,3.053124552873016e-05
12.4226497308,57.57735026920001,8,0,-0.4641399667042481,8.669257709060178,-1.424778518248706,-8.420654060701735e-06,2.811293664235597e-05,-1.139822814598965e-05,2.898133696873027e-05,2.920115950499094e-05
13.5773502692,57.57735026920001,8,0,-0.3406765506966734,9.163111373090477,-1.430827635215805,-8.420654060701735e-06,2.959449763444686e-05,-1.144662108172644e-05,3.043746896191149e-05,3.069378703557496e-05
14.4226497308,56.42264973080001,8,0,-0.5605296317961197,9.4503470523064,-1.738918594378856,-9.353972463592701e-06,3.068953427281737e-05,-1.391134875503085e-05,3.186334680843416e-05,3.165386860472539e-05
15.5773502692,56.42264973080001,8,0,-0.4346850701115272,9.95372529904477,-1.742728421216504,-9.353972463592701e-06,3.219966901303248e-05,-1.394182736973203e-05,3.333790970730156e-05,3.319468037813728e-05
14.4226497308,57.57735026920001,8,0,-0.5706891700298669,9.447807167747962,-1.550151751851926,-9.384451078293943e-06,3.068953427281737e-05,-1.240121401481541e-05,3.162701662622453e-05,3.179230239662208e-05
15.5773502692,57.57735026920001,8,0,-0.4448446083452655,9.951185414486368,-1.553961578689561,-9.384451078293943e-06,3.219966901303259e-05,-1.243169262951649e-05,3.310891091797036e-05,3.330087464544123e-05
16.4226497308,56.42264973080001,8,0,-0.6801724032682115,10.24015205553367,-1.838671371333993,-1.036867333488521e-05,3.33126245003223e-05,-1.470937097067194e-05,3.451769847722194e-05,3.432415570070063e-05
17.5773502692,56.42264973080001,8,0,-0.5526293867888521,10.75032412145111,-1.840166943844636,-1.036867333488521e-05,3.484314069807462e-05,-1.472133555075709e-05,3.601130489662289e-05,3.586912789455826e-05
16.4226497308,57.57735026920001,8,0,-0.6841605966299977,10.23915500719322,-1.647356846614994,-1.038063791497057e-05,3.33126245003223e-05,-1.317885477291995e-05,3.428475417937477e-05,3.440725282767522e-05
17.5773502692,57.57735026920001,8,0,-0.5566175801506383,10.74932707311066,-1.64885241912561,-1.038063791497057e-05,3.484314069807462e-05,-1.319081935300488e-05,3.578537983671706e-05,3.592136198523353e-05
18.4226497308,56.42264973080001,8,0,-0.8052357437716977,11.03871810094053,-1.909465391096549,-1.140772886082186e-05,3.596808651802706e-05,-1.527572312877239e-05,3.71690096564945e-05,3.699877220876921e-05
19.5773502692,56.42264973080001,8,0,-0.6766613322507991,11.55301574702413,-1.908569581206835,-1.140772886082186e-05,3.751097945627784e-05,-1.526855664965468e-05,3.867470496029584e-05,3.854004567594841e-05
18.4226497308,57.57735026920001,8,0,-0.8028469173988921,11.03931530753373,-1.7166037738152,-1.140056238170344e-05,3.596808651802706e-05,-1.37328301905216e-05,3.694334196942756e-05,3.702890185955312e-05
19.5773502692,57.57735026920001,8,0,-0.6742725058779846,11.55361295361736,-1.715707963925446,-1.140056238170344e-05,3.751097945627795e-05,-1.372566371140357e-05,3.845566507495181e-05,3.854064791017303e-05
20.4226497308,56.42264973080001,8,0,-0.9340031314552517,11.84215374511313,-1.951614143458916,-1.246253301674731e-05,3.86420944895262e-05,-1.561291314767133e-05,3.980796747085786e-05,3.966460312551582e-05
21.5773502692,56.42264973080001,8,0,-0.8050555646286348,12.35794401241959,-1.948254391584081,-1.246253301674731e-05,4.018946529144561e-05,-1.558603513267265e-05,4.131869067204771e-05,4.119567774671544e-05
20.4226497308,57.57735026920001,8,0,-0.9250437931223043,11.84439357969636,-1.758192793219031,-1.243565500174846e-05,3.86420944895262e-05,-1.406554234575225e-05,3.95927269805928e-05,3.964406909897361e-05
21.5773502692,57.57735026920001,8,0,-0.7960962262956781,12.36018384700287,-1.754833041344209,-1.243565500174846e-05,4.018946529144572e-05,-1.403866433075367e-05,4.110963996007024e-05,4.114692579843308e-05
22.4226497308,56.42264973080001,8,0,-1.064720415341931,12.64662937911921,-1.965541643539874,-1.352440883238955e-05,4.132099034545502e-05,-1.572433314831899e-05,4.24257882980997e-05,4.231065461710596e-05
23.5773502692,56.42264973080001,8,0,-0.9360526540250214,13.16130042438685,-1.959658302748806,-1.352440883238955e-05,4.286500348125793e-05,-1.567726642199045e-05,4.393436446976024e-05,4.382575345520686e-05
22.4226497308,57.57735026920001,8,0,-1.049031506565803,12.65055160631325,-1.772540001564551,-1.347734210606116e-05,4.132099034545502e-05,-1.418032001251641e-05,4.222349684024591e-05,4.224172812241657e-05
23.5773502692,57.57735026920001,8,0,-0.9203637452489302,13.16522265158074,-1.766656660773605,-1.347734210606116e-05,4.28650034812575e-05,-1.413325328618884e-05,4.37378006070686e-05,4.372992699645162e-05
24.4226497308,56.42264973080001,8,0,-1.195588237457952,13.44836061717281,-1.951818646934715,-1.458457085360369e-05,4.399122456491935e-05,-1.561454917547772e-05,4.501396011721341e-05,4.49270643382524e-05
25.5773502692,56.42264973080001,8,0,-1.067848230337355,13.9593206456552,-1.943373820758655,-1.458457085360369e-05,4.552410465036652e-05,-1.554699056606924e-05,4.651313086921677e-05,4.642080278768836e-05
24.4226497308,57.57735026920001,8,0,-1.173068700988295,13.45399050129022,-1.7602086362539,-1.451701224419472e-05,4.399122456491935e-05,-1.40816690900312e-05,4.482658596175017e-05,4.481204568066883e-05
25.5773502692,57.57735026920001,8,0,-1.045328693867689,13.96495052977265,-1.751763810077826,-1.451701224419472e-05,4.552410465036663e-05,-1.401411048062261e-05,4.633101370574288e-05,4.628025003186045e-05
26.4226497308,56.42264973080001,8,0,-1.32476862551163,14.24360907005956,-1.911199616063062,-1.563414685768486e-05,4.663936392459989e-05,-1.528959692850449e-05,4.756411941249855e-05,4.750459199054495e-05
27.57735026920001,56.42264973080001,8,0,-1.198596549220059,14.74829737522584,-1.900185506457802,-1.563414685768486e-05,4.815342884009874e-05,-1.520148405166242e-05,4.904660460013777e-05,4.897182070813363e-05
26.4226497308,57.57735026920001,8,0,-1.295397666564291,14.25095180979639,-1.721941501625569,-1.554603398084284e-05,4.663936392459989e-05,-1.377553201300456e-05,4.739312864879073e-05,4.734587777178271e-05
27.57735026920001,57.57735026920001,8,0,-1.169225590272711,14.75564011496271,-1.710927392020365,-1.554603398084284e-05,4.815342884009885e-05,-1.368741913616292e-05,4.888040308829433e-05,4.87890225481373e-05
28.4226497308,56.42264973080001,8,0,-1.450403873233801,15.02869909502016,-1.844656125008916,-1.666425167036429e-05,4.925216020265155e-05,-1.475724900007133e-05,5.00680188433572e-05,5.003438413109453e-05
29.5773502692,56.42264973080001,8,0,-1.326426790651185,15.52460742535063,-1.831102092853353,-1.666425167036429e-05,5.073988519364294e-05,-1.464881674282683e-05,5.152660297667864e-05,5.147013267142275e-05
28.4226497308,57.57735026920001,8,0,-1.414259787485616,15.03773511645721,-1.658690501134979,-1.655581941311973e-05,4.925216020265155e-05,-1.326952400907983e-05,4.991441254568785e-05,4.983452768789667e-05
29.5773502692,57.57735026920001,8,0,-1.290282704903027,15.53364344678756,-1.645136468979389,-1.655581941311973e-05,5.073988519364262e-05,-1.316109175183511e-05,5.137732928179362e-05,5.12477560730605e-05
30.4226497308,56.42264973080001,8,0,-1.570645140045372,15.80004808667819,-1.753403287202686,-1.766610291748774e-05,5.18166699894065e-05,-1.402722629762149e-05,5.251755634836421e-05,5.250789802481449e-05
31.5773502692,56.42264973080001,8,0,-1.44946965838043,16.28475001333796,-1.7373810441985,-1.766610291748774e-05,5.327077576938581e-05,-1.3899048353588e-05,5.394519292267461e-05,5.39073771564077e-05
30.4226497308,57.57735026920001,8,0,-1.527919158700913,15.81072958201431,-1.571640064705463,-1.753792497345436e-05,5.18166699894065e-05,-1.257312051764371e-05,5.238190080126711e-05,5.226965703282155e-05
31.5773502692,57.57735026920001,8,0,-1.406743677036025,16.29543150867386,-1.555617821701277,-1.753792497345436e-05,5.327077576938516e-05,-1.244494257361022e-05,5.381343047679448e-05,5.364831399014701e-05
32.4226497308,56.42264973080001,8,0,-1.683687808622819,16.55420716934053,-1.638916794576196,-1.863116672306544e-05,5.432041318878793e-05,-1.311133435660957e-05,5.490484483313753e-05,5.491691792291724e-05
33.57735026920001,56.42264973080001,8,0,-1.565891393666376,17.0253928291663,-1.620543371555637,-1.863116672306544e-05,5.573397016826525e-05,-1.29643469724451e-05,5.629477159496391e-05,5.627555545785739e-05
32.4226497308,57.57735026920001,8,0,-1.634692013901401,16.56645611802088,-1.462222172141504,-1.848417933890119e-05,5.432041318878793e-05,-1.169777737713203e-05,5.478730015663359e-05,5.464328666445164e-05
33.57735026920001,57.57735026920001,8,0,-1.51689559894494,17.03764177784673,-1.443848749120959,-1.848417933890119e-05,5.573397016826547e-05,-1.155078999296767e-05,5.618070210862025e-05,5.598294560558467e-05
34.42264973080001,56.42264973080001,8,0,-1.787810525296748,17.28790877252106,-1.502939177894607,-1.955132069896644e-05,5.675155649230478e-05,-1.202351342315686e-05,5.722230692934522e-05,5.725362362555568e-05
35.5773502692,56.42264973080001,8,0,-1.673932145379823,17.74342229218876,-1.48237753097573,-1.955132069896644e-05,5.811809705130787e-05,-1.185902024780584e-05,5.856816517345204e-05,5.856711801814666e-05
34.42264973080001,57.57735026920001,8,0,-1.732979466846517,17.30161653713362,-1.332121608019221,-1.938682752361575e-05,5.675155649230478e-05,-1.065697286415377e-05,5.712265776881066e-05,5.694784954432036e-05
35.5773502692,57.57735026920001,8,0,-1.619101086929612,17.75713005680124,-1.311559961100425,-1.938682752361575e-05,5.811809705130765e-05,-1.04924796888034e-05,5.847159806672508e-05,5.824435718834863e-05
36.4226497308,56.42264973080001,8,0,-1.881414977897713,17.99811749537892,-1.347474855470482,-2.041902192557581e-05,5.909910796753071e-05,-1.077979884376386e-05,5.946278297230982e-05,5.951068607569942e-05
37.5773502692,56.42264973080001,8,0,-1.771945718980019,18.43599453104969,-1.324932162422693,-2.041902192557581e-05,6.041273907454302e-05,-1.059945729938155e-05,6.075873439436506e-05,6.077506755685125e-05
36.4226497308,57.57735026920001,8,0,-1.821301129770221,18.01314595741079,-1.18327096709401,-2.023868038119334e-05,5.909910796753071e-05,-9.466167736752081e-06,5.938047346593945e-05,5.917627152533498e-05
37.5773502692,57.57735026920001,8,0,-1.711831870852509,18.45102299308164,-1.160728274046316,-2.023868038119334e-05,6.041273907454324e-05,-9.28582619237053e-06,6.067914073638983e-05,6.04258011983635e-05
38.4226497308,56.42264973080001,8,0,-1.963063784794115,18.68208084645892,-1.174774368961002,-2.12274687885083e-05,6.135310973650384e-05,-9.39819495168802e-06,6.161964307232581e-05,6.168137351003683e-05
39.5773502692,56.42264973080001,8,0,-1.858438008167361,19.10058395296594,-1.150498222799226,-2.12274687885083e-05,6.260861905602489e-05,-9.203985782393811e-06,6.286047843978566e-05,6.289306594029543e-05
38.4226497308,57.57735026920001,8,0,-1.898327395029595,18.69826494390005,-1.017835704020871,-2.103325961921474e-05,6.135310973650384e-05,-8.142685632166972e-06,6.155381707462072e-05,6.132206436049756e-05
39.5773502692,57.57735026920001,8,0,-1.793701618402858,19.116768050407,-0.9935595578591632,-2.103325961921474e-05,6.260861905602467e-05,-7.948476462873305e-06,6.279703030373394e-05,6.25211711834757e-05
40.4226497308,56.42264973080001,8,0,-2.031514314724954,19.33737682250027,-0.9873088708635739,-2.197074726512007e-05,6.350481728378083e-05,-7.898470966908591e-06,6.368689631667976e-05,6.375965718335232e-05
41.5773502692,56.42264973080001,8,0,-1.932101833686185,19.73502674665535,-0.9615816909930009,-2.197074726512007e-05,6.469776705624606e-05,-7.692653527944008e-06,6.486813118162247e-05,6.491553605862008e-05
40.4226497308,57.57735026920001,8,0,-1.962908501736724,19.35452827574733,-0.8381901493053397,-2.176492982615538e-05,6.350481728378083e-05,-6.705521194442718e-06,6.363644284518183e-05,6.337942035266994e-05
41.5773502692,57.57735026920001,8,0,-1.863496020697982,19.7521781999023,-0.8124629694347533,-2.176492982615538e-05,6.469776705624573e-05,-6.499703755478026e-06,6.481974634512533e-05,6.452509386558394e-05
42.4226497308,56.42264973080001,8,0,-2.085746767146543,19.9619557984438,-0.7877364131874873,-2.264395429362397e-05,6.554685596873739e-05,-6.301891305499898e-06,6.565929190890444e-05,6.574030932947144e-05
43.57735026920001,56.42264973080001,8,0,-1.991846410754787,20.33755722401082,-0.7608684666725047,-2.264395429362397e-05,6.667366024543846e-05,-6.086947733380038e-06,6.677724567239252e-05,6.683775293499014e-05
42.4226497308,57.57735026920001,8,0,-2.014098909773364,19.97986776278709,-0.6468858785998403,-2.242901072150444e-05,6.554685596873739e-05,-5.175087028798722e-06,6.562289499803718e-05,6.534330146874155e-05
43.57735026920001,57.57735026920001,8,0,-1.920198553381581,20.35546918835423,-0.6200179320848035,-2.242901072150444e-05,6.667366024543878e-05,-4.960143456678428e-06,6.674263683100748e-05,6.643301269888829e-05
44.4226497308,56.42264973080001,8,0,-2.12498536361667,20.5541747777323,-0.5788618964214145,-2.324329298575918e-05,6.74733475796367e-05,-4.630895171371316e-06,6.753240851151195e-05,6.761898856547918e-05
45.5773502692,56.42264973080001,8,0,-2.036820184400785,20.90683549459584,-0.5511833576436319,-2.324329298575918e-05,6.853132973022732e-05,-4.409466861149056e-06,6.858426427019709e-05,6.865592039523042e-05
44.4226497308,57.57735026920001,8,0,-2.051175926875843,20.57262713691751,-0.446614127597709,-2.302186467553671e-05,6.74733475796367e-05,-3.572913020781672e-06,6.750860009790781e-05,6.720951812292819e-05
45.5773502692,57.57735026920001,8,0,-1.963010747659986,20.92528785378094,-0.4189355888199265,-2.302186467553671e-05,6.853132973022699e-05,-3.351484710559412e-06,6.856199138351518e-05,6.82412591637014e-05
46.42264973080001,56.42264973080001,8,0,-2.148711992943293,21.11282264566118,-0.3635926937159748,-2.376613649394748e-05,6.928000206047041e-05,-2.908741549727798e-06,6.930272925644216e-05,6.939230977951935e-05
47.57735026920001,56.42264973080001,8,0,-2.066426268448124,21.44196554364186,-0.3354451768214616,-2.376613649394748e-05,7.026743075441244e-05,-2.683561414571693e-06,7.028657295113455e-05,7.036723116188537e-05
46.42264973080001,57.57735026920001,8,0,-2.073651947891149,21.13158765692422,-0.2401641069733288,-2.354095635879105e-05,6.928000206047041e-05,-1.92131285578663e-06,6.9289943370693e-05,6.8974794570019e-05
47.57735026920001,57.57735026920001,8,0,-1.991366223395917,21.46073055490515,-0.2120165900786801,-2.354095635879105e-05,7.02674307544132e-05,-1.696132720629441e-06,7.027509699623192e-05,6.994710952854135e-05
48.4226497308,56.42264973080001,8,0,-2.156672093706148,21.6371356414629,-0.1448919965353818,-2.421105921302999e-05,7.096417172764618e-05,-1.159135972283055e-06,7.096770086639813e-05,7.10578968942372e-05
49.57735026920001,56.42264973080001,8,0,-2.080330173312119,21.94250332303901,-0.1166199793307694,-2.421105921302999e-05,7.188027477237453e-05,-9.329598346461548e-07,7.188253926779053e-05,7.196990938378335e-05
48.4226497308,57.57735026920001,8,0,-2.081280047827255,21.65598365293262,-0.03037911594429722,-2.398488307539331e-05,7.096417172764618e-05,-2.430329275543777e-07,7.096432724501087e-05,7.063681915424893e-05
49.57735026920001,57.57735026920001,8,0,-2.004938127433216,21.96135133450877,-0.002107098739684721,-2.398488307539331e-05,7.188027477237464e-05,-1.685678991747777e-08,7.188027551339299e-05,7.154882593570915e-05
50.42264973080001,56.42264973080001,8,0,-2.148872939561468,22.12680279475464,0.07426813502607718,-2.45778356424004e-05,7.252486729486399e-05,5.941450802086174e-07,7.2525776139473e-05,7.261441792110921e-05
51.57735026920001,56.42264973080001,8,0,-2.078459899814125,22.40845495374401,0.1023256079255979,-2.45778356424004e-05,7.33698237718321e-05,8.186048634047831e-07,7.337153412975464e-05,7.346323550152405e-05
50.42264973080001,57.57735026920001,8,0,-2.074053011829539,22.14550777668762,0.1798876946471182,-2.435337585920462e-05,7.252486729486399e-05,1.439101557176945e-06,7.253021137158293e-05,7.219427867073295e-05
51.57735026920001,57.57735026920001,8,0,-2.003639972082197,22.42715993567699,0.2079451675466117,-2.435337585920462e-05,7.33698237718321e-05,1.663561340372894e-06,7.337690304236189e-05,7.3045681555317e-05
52.4226497308,56.42264973080001,8,0,-2.125574818500771,22.58196154926785,0.2909521665999455,-2.486740865861674e-05,7.396273681245773e-05,2.327617332799565e-06,7.397643974525384e-05,7.406160253325469e-05
53.5773502692,56.42264973080001,8,0,-2.06099881228749,22.84026557412097,0.3184691547228487,-2.486740865861674e-05,7.47376488870171e-05,2.54775323778279e-06,7.475393818335368e-05,7.484755408517161e-05
52.4226497308,57.57735026920001,8,0,-2.052196183506289,22.60030620801647,0.3878161759199479,-2.46472727536333e-05,7.396273681245773e-05,3.102529407359583e-06,7.398713420333911e-05,7.364687691449696e-05
53.5773502692,57.57735026920001,8,0,-1.987620177292981,22.8586102328697,0.4153331640428782,-2.46472727536333e-05,7.473764888701743e-05,3.322665312343025e-06,7.476541220711639e-05,7.443797029653697e-05
54.42264973080001,56.42264973080001,8,0,-2.087275874909786,23.00318421989842,0.5023032633313067,-2.508183017563005e-05,7.528001020360277e-05,4.018426106650454e-06,7.532021792018043e-05,7.540024308029804e-05
55.57735026920001,56.42264973080001,8,0,-2.02837199170362,23.23879975272309,0.5289736776353777,-2.508183017563005e-05,7.598685680207677e-05,4.231789421083021e-06,7.603113411564855e-05,7.612426594391493e-05
54.42264973080001,57.57735026920001,8,0,-2.016154770098911,23.02096449610114,0.5906590881405837,-2.486846686119743e-05,7.528001020360277e-05,4.72527270512467e-06,7.533571696475103e-05,7.499533819442943e-05
55.57735026920001,57.57735026920001,8,0,-1.957250886892745,23.25658002892581,0.6173295024446547,-2.486846686119743e-05,7.598685680207677e-05,4.938636019557237e-06,7.604727880454221e-05,7.572700222800417e-05
56.4226497308,56.42264973080001,8,0,-2.034691619969181,23.39145629919435,0.7055808079933079,-2.522417822325686e-05,7.648041345339725e-05,5.644646463946463e-06,7.65586732811384e-05,7.663218061856479e-05
57.57735026920001,56.42264973080001,8,0,-1.981227015852244,23.6053147156621,0.7311239926156713,-2.522417822325686e-05,7.712198870280049e-05,5.84899194092537e-06,7.720548674688514e-05,7.729580645206021e-05
56.4226497308,57.57735026920001,8,0,-1.96657646097623,23.40848508894259,0.7857777141687811,-2.501983274627801e-05,7.648041345339725e-05,6.286221713350248e-06,7.657765154867006e-05,7.624139723184657e-05
57.57735026920001,57.57735026920001,8,0,-1.91311185685933,23.62234350541019,0.8113208987911851,-2.501983274627801e-05,7.712198870280006e-05,6.490567190329481e-06,7.722499504395848e-05,7.691508648398858e-05
58.4226497308,56.42264973080001,8,0,-1.968730313614214,23.74814794568913,0.8981921008346466,-2.529845536011679e-05,7.756905767709659e-05,7.185536806677173e-06,7.769438662764212e-05,7.776027817359187e-05
59.57735026920001,56.42264973080001,8,0,-1.920410321704781,23.94142791332686,0.9223570705537505,-2.529845536011679e-05,7.814889758000977e-05,7.378856564430004e-06,7.828031332497766e-05,7.836561268205389e-05
58.4226497308,57.57735026920001,8,0,-1.904290394363307,23.76425792550186,0.9706720886988618,-2.510513560236407e-05,7.756905767709659e-05,7.765376709590894e-06,7.77156745811412e-05,7.738777747720658e-05
59.57735026920001,57.57735026920001,8,0,-1.855970402453875,23.95753789313959,0.994837058417952,-2.510513560236407e-05,7.814889758000977e-05,7.958696467343616e-06,7.830203215190383e-05,7.800550403487124e-05
60.4226497308,56.42264973080001,8,0,-1.890465575051491,24.07498024356796,1.077717392582557,-2.530947403501913e-05,7.855230923945866e-05,8.621739140660459e-06,7.873092827629006e-05,7.878838409562345e-05
61.5773502692,56.42264973080001,8,0,-1.846940471125465,24.24908065927206,1.100285617549793,-2.530947403501913e-05,7.907461048657096e-05,8.802284940398345e-06,7.925984698666236e-05,7.933808256907031e-05
60.4226497308,57.57735026920001,8,0,-1.830283641805402,24.09002572687948,1.143005048471623,-2.512892823528087e-05,7.855230923945866e-05,9.14404038777298e-06,7.875353058991284e-05,7.843816046793526e-05
61.5773502692,57.57735026920001,8,0,-1.786758537879341,24.26412614258373,1.165573273438885,-2.512892823528087e-05,7.907461048657139e-05,9.324586187511082e-06,7.92827956986634e-05,7.900247326767329e-05
62.42264973080001,56.42264973080001,8,0,-1.801107678286486,24.37398801086127,1.241927753586842,-2.526273497920577e-05,7.943764777738524e-05,9.935422028694739e-06,7.967282213962856e-05,7.97212889843345e-05
63.57735026920001,56.42264973080001,8,0,-1.761979755246983,24.53049970301928,1.262714459189702,-2.526273497920577e-05,7.990718285385927e-05,1.010171567351762e-05,8.014919686915922e-05,8.021852990722026e-05
62.42264973080001,57.57735026920001,8,0,-1.745676463345544,24.38784581459651,1.300619638146109,-2.509644133438294e-05,7.943764777738524e-05,1.040495710516887e-05,7.969592787253853e-05,7.939714939226946e-05
63.57735026920001,57.57735026920001,8,0,-1.706548540306041,24.54435750675452,1.321406343748996,-2.509644133438294e-05,7.990718285385927e-05,1.057125074999197e-05,8.017257751517674e-05,7.991111181750838e-05
64.4226497308,56.42264973080001,8,0,-1.701975021826952,24.64748103915944,1.388795660868078,-2.51643049011738e-05,8.023351934277178e-05,1.111036528694462e-05,8.052550637378323e-05,8.056468018942359e-05
65.57735026920001,56.42264973080001,8,0,-1.666805622523909,24.78815863637162,1.40764968998563,-2.51643049011738e-05,8.06555521344083e-05,1.126119751988504e-05,8.095430879256596e-05,8.101313942461181e-05
64.4226497308,57.57735026920001,8,0,-1.651697610846922,24.66005039190445,1.441549759822656,-2.501347266823371e-05,8.023351934277178e-05,1.153239807858124e-05,8.054849123351513e-05,8.027023047174698e-05
65.57735026920001,57.57735026920001,8,0,-1.616528211543869,24.80072798911666,1.460403788940167,-2.501347266823371e-05,8.06555521344084e-05,1.168323031152134e-05,8.097750846750726e-05,8.073739845587539e-05
66.4226497308,56.42264973080001,8,0,-1.59446721808522,24.89800566068054,1.516498573199629,-2.502069962641713e-05,8.09491918886459e-05,1.213198858559703e-05,8.129529490843379e-05,8.13250982610479e-05
67.57735026920001,56.42264973080001,8,0,-1.56278339007712,25.02474097271294,1.533300936177115,-2.502069962641713e-05,8.132939782474308e-05,1.226640748941692e-05,8.168193072902858e-05,8.172892641690932e-05
66.4226497308,57.57735026920001,8,0,-1.549660916811869,24.90920723599888,1.564024315211805,-2.488628072259708e-05,8.09491918886459e-05,1.251219452169444e-05,8.131771618224896e-05,8.106373606313356e-05
67.57735026920001,57.57735026920001,8,0,-1.517977088803761,25.03594254803131,1.580826678189331,-2.488628072259708e-05,8.132939782474319e-05,1.264661342551465e-05,8.170451658540004e-05,8.148813900249287e-05
68.42264973080002,56.42264973080001,8,0,-1.480041125272198,25.12830845314217,1.623416139158784,-2.483877836338477e-05,8.15946199502727e-05,1.298732911327028e-05,8.198934446902373e-05,8.200989983575413e-05
69.57735026920001,56.42264973080001,8,0,-1.451341593091122,25.24310658186647,1.638077448285348,-2.483877836338477e-05,8.193901433644561e-05,1.310461958628278e-05,8.233958737494588e-05,8.237370533578562e-05
68.42264973080002,57.57735026920001,8,0,-1.440944300934786,25.13808265922653,1.666465437430399,-2.472148789037253e-05,8.15946199502727e-05,1.333172349944319e-05,8.201092939025823e-05,8.178481342785712e-05
69.57735026920001,57.57735026920001,8,0,-1.412244768753729,25.25288078795076,1.681126746556867,-2.472148789037253e-05,8.193901433644539e-05,1.344901397245493e-05,8.236129505203105e-05,8.21709400919337e-05
70.4226497308,56.42264973080001,8,0,-1.360190949240975,25.34130371263035,1.708122019362108,-2.46256540076754e-05,8.218032463980988e-05,1.366497615489686e-05,8.261563174194095e-05,8.262723118901121e-05
71.57735026920001,56.42264973080001,8,0,-1.333951147321124,25.44626292030975,1.720579064409613,-2.46256540076754e-05,8.24952022628481e-05,1.37646325152769e-05,8.29355680023313e-05,8.29560712010537e-05
70.4226497308,57.57735026920001,8,0,-1.326972162447555,25.3496084093287,1.747481722241817,-2.452599764729514e-05,8.218032463980988e-05,1.397985377793454e-05,8.263626014285597e-05,8.244140281955132e-05
71.57735026920001,57.57735026920001,8,0,-1.300732360527686,25.45456761700818,1.759938767289322,-2.452599764729514e-05,8.249520226284832e-05,1.407951013831458e-05,8.295628431774778e-05,8.279419406891114e-05
72.4226497308,56.42264973080001,8,0,-1.236433290234999,25.5400460624282,1.76937157981488,-2.438862337869455e-05,8.271729403195823e-05,1.415497263851904e-05,8.318294507080889e-05,8.318601591224698e-05
73.57735026920001,56.42264973080001,8,0,-1.212109259056692,25.63734218714143,1.779583345431365,-2.438862337869455e-05,8.300918240609792e-05,1.423666676345092e-05,8.347893135201485e-05,8.348539653414301e-05
72.4226497308,57.57735026920001,8,0,-1.209201915257706,25.54685390617253,1.805857626582423,-2.430692925376268e-05,8.271729403195823e-05,1.444686101265938e-05,8.32026271504727e-05,8.304222774552624e-05
73.57735026920001,57.57735026920001,8,0,-1.184877884079381,25.64415003088583,1.816069392198853,-2.430692925376268e-05,8.300918240609814e-05,1.452855513759082e-05,8.349867207958306e-05,8.336707710269577e-05
74.4226497308,56.42264973080001,8,0,-1.110297721555023,25.72770924242701,1.806086913292985,-2.413512010291768e-05,8.321690775301045e-05,1.444869530634388e-05,8.370089447320815e-05,8.369595862380516e-05
75.57735026920001,56.42264973080001,8,0,-1.087328735915969,25.81958518498323,1.814030365826153,-2.413512010291768e-05,8.34925355806791e-05,1.451224292660922e-05,8.397953062101524e-05,8.397184432903853e-05
74.4226497308,57.57735026920001,8,0,-1.089115181466557,25.73300487744913,1.840540391751579,-2.407157248265229e-05,8.321690775301045e-05,1.472432313401263e-05,8.371974438691382e-05,8.359679870062467e-05
75.57735026920001,57.57735026920001,8,0,-1.066146195827513,25.82488082000531,1.848483844284774,-2.407157248265229e-05,8.349253558067899e-05,1.478787075427819e-05,8.399841405916069e-05,8.389956042061952e-05
76.42264973080002,56.42264973080001,8,0,-0.983323187826536,25.9075717647936,1.817340764173118,-2.387269161287979e-05,8.369088819760073e-05,1.453872611338494e-05,8.41799428100332e-05,8.416756380397341e-05
77.57735026920001,56.42264973080001,8,0,-0.9611330545266679,25.99633229799307,1.823006745135523,-2.387269161287979e-05,8.395716979719915e-05,1.458405396108418e-05,8.444806056756948e-05,8.44263936483156e-05
76.42264973080002,57.57735026920001,8,0,-0.9682139052601579,25.91134908543519,1.850625964122947,-2.382736376518066e-05,8.369088819760073e-05,1.480500771298358e-05,8.419814858593629e-05,8.411542883721577e-05
77.57735026920001,57.57735026920001,8,0,-0.9460237719602986,26.00010961863463,1.856291945085379,-2.382736376518066e-05,8.395716979719904e-05,1.485033556068304e-05,8.446627740472441e-05,8.440243059913641e-05
78.4226497308,56.42264973080001,8,0,-0.857060221760408,26.08300975280545,1.802340973008597,-2.360900051187766e-05,8.415127938638575e-05,1.441872778406878e-05,8.463145960431879e-05,8.461216374406758e-05
79.57735026920001,56.42264973080001,8,0,-0.8350572500672548,26.17102163957806,1.805730531144231,-2.360900051187766e-05,8.441531504670358e-05,1.444584424915385e-05,8.489612738276533e-05,8.486086723986828e-05
78.4226497308,57.57735026920001,8,0,-0.8480214000652939,26.08526945822922,1.835345430548286,-2.358188404679232e-05,8.415127938638575e-05,1.468276344438629e-05,8.464924964459841e-05,8.46092548773687e-05
79.57735026920001,57.57735026920001,8,0,-0.8260184283721141,26.17328134500194,1.838734988684028,-2.358188404679232e-05,8.44153150467039e-05,1.470987990947223e-05,8.491390712253244e-05,8.488730755184149e-05
80.4226497308,56.42264973080001,8,0,-0.7330787164128676,26.25749692333794,1.760417032277475,-2.335184943119152e-05,8.461045312781169e-05,1.40833362582198e-05,8.506779726746142e-05,8.504194013271927e-05
81.57735026920001,56.42264973080001,8,0,-0.7106544254309721,26.34719408726552,1.761538509685187,-2.335184943119152e-05,8.487954461959443e-05,1.409230807748149e-05,8.533634021898257e-05,8.528793698008197e-05
80.4226497308,57.57735026920001,8,0,-0.7300881099921952,26.25824457494311,1.794053468750318,-2.334287761192951e-05,8.461045312781169e-05,1.435242775000255e-05,8.508540343673201e-05,8.509024694046543e-05
81.57735026920001,57.57735026920001,8,0,-0.7076638190102909,26.34794173887072,1.795174946158084,-2.334287761192951e-05,8.487954461959454e-05,1.436139956926467e-05,8.535391418052393e-05,8.536663498659382e-05
82.4226497308,56.42264973080001,8,0,-0.6129807636447993,26.43461134478006,1.691010270944869,-2.310922751948741e-05,8.508114091421203e-05,1.352808216755895e-05,8.55023873145438e-05,8.546990565908597e-05
83.57735026920001,56.42264973080001,8,0,-0.589507444665375,26.52850462069776,1.689877435135064,-2.310922751948741e-05,8.536282074196513e-05,1.351901948108052e-05,8.578242107424523e-05,8.572105648816956e-05
82.4226497308,57.57735026920001,8,0,-0.6160016591376118,26.43385612090686,1.726220249413993,-2.311829020596584e-05,8.508114091421203e-05,1.380976199531194e-05,8.552000440853484e-05,8.557117241082102e-05
83.57735026920001,57.57735026920001,8,0,-0.5925283401581876,26.52774939682456,1.725087413604134,-2.311829020596584e-05,8.536282074196513e-05,1.380069930883307e-05,8.579998178467153e-05,8.585359099975436e-05
84.42264973080002,56.42264973080001,8,0,-0.4984178793313605,26.61804830845312,1.593669081012548,-2.288937586062285e-05,8.557648889051506e-05,1.274935264810039e-05,8.594985150269858e-05,8.590977629190018e-05
85.57735026920001,56.42264973080001,8,0,-0.4732451784921849,26.71873911180982,1.590300568069779,-2.288937586062285e-05,8.587856130058517e-05,1.272240454455823e-05,8.624932706254712e-05,8.617421755502504e-05
84.42264973080002,57.57735026920001,8,0,-0.5074005805121704,26.61580263315792,1.631428132271292,-2.291632396416528e-05,8.557648889051506e-05,1.305142505817034e-05,8.596759278614287e-05,8.606544233552349e-05
85.57735026920001,57.57735026920001,8,0,-0.4822278796730037,26.71649343651459,1.628059619328482,-2.291632396416528e-05,8.587856130058507e-05,1.302447695462785e-05,8.626698376978473e-05,8.636181235958725e-05
86.4226497308,56.42264973080001,8,0,-0.3911117752837212,26.81163839206362,1.468050480452609,-2.27008683945588e-05,8.611013227483055e-05,1.174440384362087e-05,8.642611969475543e-05,8.63755932069643e-05
87.57735026920002,56.42264973080001,8,0,-0.3635625038543235,26.92183547778121,1.462470787671008,-2.27008683945588e-05,8.644072353198332e-05,1.169976630136806e-05,8.675337593834021e-05,8.666132045636823e-05
86.4226497308,57.57735026920001,8,0,-0.4059909560347128,26.80791859687587,1.509374387596705,-2.274550593681177e-05,8.611013227483055e-05,1.207499510077364e-05,8.644396826896887e-05,8.658669517393384e-05
87.57735026920002,57.57735026920001,8,0,-0.3784416846052974,26.91811568259353,1.503794694815083,-2.274550593681177e-05,8.644072353198353e-05,1.203035755852067e-05,8.677110606560015e-05,8.690471642444012e-05
88.42264973080002,56.42264973080001,8,0,-0.2928776949686229,27.01936956071487,1.313929185644239,-2.255270427247149e-05,8.669628475026247e-05,1.051143348515391e-05,8.694854268563349e-05,8.688080766133711e-05
89.57735026920001,56.42264973080001,8,0,-0.2622431136636774,27.14190788593465,1.306171426760629,-2.255270427247149e-05,8.706389972592182e-05,1.044937141408503e-05,8.731236215011386e-05,8.719473060754497e-05
88.42264973080002,57.57735026920001,8,0,-0.3135650519915201,27.01419772145915,1.359881057601671,-2.261476634354018e-05,8.669628475026247e-05,1.087904846081337e-05,8.696629876977019e-05,8.714782282672509e-05
89.57735026920001,57.57735026920001,8,0,-0.2829304706866109,27.13673604667878,1.352123298718061,-2.261476634354018e-05,8.706389972592139e-05,1.081698638974449e-05,8.732995886231206e-05,8.749398061893489e-05
90.42264973080002,56.42264973080001,8,0,-0.2056491900766071,27.24541193220458,1.131215248292965,-2.245440695400881e-05,8.734983753511593e-05,9.049721986343717e-06,8.753598440444386e-05,8.743624375695429e-05
91.57735026920001,56.42264973080001,8,0,-0.1711840528351827,27.38327248117028,1.121325860813571,-2.245440695400881e-05,8.776341918201303e-05,8.970606886508567e-06,8.794564687376264e-05,8.778214700565673e-05
90.42264973080002,57.57735026920001,8,0,-0.2320208900217384,27.2388190072183,1.182912954155189,-2.25335220538442e-05,8.734983753511593e-05,9.463303633241516e-06,8.75532092643484e-05,8.775883664231615e-05
91.57735026920001,57.57735026920001,8,0,-0.197555752780314,27.376679556184,1.173023566675802,-2.25335220538442e-05,8.776341918201303e-05,9.38418853340642e-06,8.7962663603679e-05,8.813627896270539e-05
92.42264973080002,56.42264973080001,8,0,-0.1315030623287212,27.49414361412032,0.9199811953722483,-2.241612469074816e-05,8.808646201504799e-05,7.359849562977986e-06,8.82088741871138e-05,8.804574003381689e-05
93.57735026920001,56.42264973080001,8,0,-0.09242074682764922,27.65047287612461,0.9080267658510767,-2.241612469074816e-05,8.855544980106085e-05,7.264214126808614e-06,8.867420183045122e-05,8.841998633059952e-05
92.42264973080002,57.57735026920001,8,0,-0.163381541051864,27.48617399443953,0.9786046686238498,-2.251176012691759e-05,8.808646201504799e-05,7.828837348990798e-06,8.822483247777243e-05,8.842233858794401e-05
93.57735026920001,57.57735026920001,8,0,-0.1242992255507733,27.6425032564439,0.9666502391026647,-2.251176012691759e-05,8.855544980106107e-05,7.733201912821317e-06,8.868989566744064e-05,8.882642569773396e-05
94.4226497308,56.42264973080001,8,0,-0.07268301563374724,27.77017578622209,0.6804994873430408,-2.244872627900566e-05,8.892270892841767e-05,5.443995898744326e-06,8.898919682257585e-05,8.869700360098646e-05
95.57735026920002,56.42264973080001,8,0,-0.02815111484102584,27.94830338939298,0.6665758335931259,-2.244872627900566e-05,8.945709173793033e-05,5.332606668745007e-06,8.952058389894826e-05,8.907958256150716e-05
94.4226497308,57.57735026920001,8,0,-0.1098127589668083,27.76089335038882,0.7472973385321035,-2.256011550900484e-05,8.892270892841767e-05,5.978378708256828e-06,8.900280053333272e-05,8.912405720061457e-05
95.57735026920002,57.57735026920001,8,0,-0.06528085817410023,27.93902095355966,0.7333736847821954,-2.256011550900484e-05,8.945709173793017e-05,5.866989478257563e-06,8.953386117406881e-05,8.953311447866213e-05
96.4226497308,56.42264973080001,8,0,-0.03162034735937347,28.07837494090031,0.4132909643847653,-2.256388506427024e-05,8.987609608876847e-05,3.306327715078123e-06,8.990039669956696e-05,8.934259073201123e-05
97.57735026920001,56.42264973080001,8,0,0.01924284977545998,28.28182772943964,0.397534578808198,-2.256388506427024e-05,9.048645445438648e-05,3.180276630465584e-06,9.050881652609792e-05,8.967856345614389e-05
96.4226497308,57.57735026920001,8,0,-0.07363737556352579,28.06787068384927,0.4895857600870025,-2.26899361488827e-05,8.987609608876847e-05,3.91668608069602e-06,8.991015562995617e-05,8.981320914733552e-05
97.57735026920001,57.57735026920001,8,0,-0.0227741784287101,28.27132347238853,0.473829374510442,-2.26899361488827e-05,9.048645445438626e-05,3.790634996083536e-06,9.051818564435285e-05,9.016938473506539e-05
98.42264973080002,56.42264973080001,8,0,-0.0109497488879553,28.42387990007792,0.1191847612301428,-2.277414311650379e-05,9.09651754793597e-05,9.534780898411426e-07,9.096717369885737e-05,8.98605070009961e-05
99.57735026920002,56.42264973080001,8,0,0.04717790088856422,28.656390499184,0.10178667083924,-2.277414311650379e-05,9.166270727667793e-05,8.142933667139199e-07,9.166415581640033e-05,9.002161328552998e-05
98.42264973080002,57.57735026920001,8,0,-0.05734465659707499,28.41228117315064,0.2063762358949417,-2.291332783963115e-05,9.09651754793597e-05,1.651009887159533e-06,9.097115924790713e-05,9.036186421675756e-05
99.57735026920002,57.57735026920001,8,0,0.0007829931794534062,28.64479177225676,0.1889781455040253,-2.291332783963115e-05,9.166270727667804e-05,1.511825164032202e-06,9.166769417434754e-05,9.053155235244756e-05
0.4226497308,58.42264973080002,8,0,-0.02722098874136725,4.836264821910158,-0.2054636335463114,-3.956119021500501e-06,1.54978242211056e-05,-1.643709068370491e-06,1.553248267868772e-05,1.77611297349215e-05
1.5773502692,58.42264973080002,8,0,0.06138583724948665,5.190692125873573,-0.2220931899325491,-3.956119021500501e-06,1.656110613299584e-05,-1.776745519460393e-06,1.659949982797578e-05,1.812021178230335e-05
0.4226497308,59.5773502692,8,0,-0.07156647243800141,4.825178450985999,-0.07255339455982703,-4.089155472590403e-06,1.54978242211056e-05,-5.804271564786162e-07,1.550212327284637e-05,1.823530630685544e-05
1.5773502692,59.5773502692,8,0,0.01704035355285249,5.179605754949415,-0.08918295094605122,-4.089155472590403e-06,1.656110613299584e-05,-7.134636075684098e-07,1.656726681164968e-05,1.858458867012054e-05
2.4226497308,58.42264973080002,8,0,-0.05508466238719789,5.414771264340001,-0.4884175048997652,-4.508087931111033e-06,1.737133577579776e-05,-3.907340039198122e-06,1.754441484011424e-05,1.856402518573233e-05
3.5773502692,58.42264973080002,8,0,0.040774224124009,5.798206810384828,-0.503454850490814,-4.508087931111033e-06,1.852164241393224e-05,-4.027638803926511e-06,1.869641318634385e-05,1.941746390565005e-05
2.4226497308,59.5773502692,8,0,-0.09518425063017522,5.40474636727912,-0.3446291751329415,-4.628386695839856e-06,1.737133577579732e-05,-2.757033401063532e-06,1.745737799891745e-05,1.901630493660523e-05
3.5773502692,59.5773502692,8,0,0.0006746358810496567,5.78818191332402,-0.3596665207240444,-4.628386695839856e-06,1.852164241393202e-05,-2.877332165792355e-06,1.861070613569946e-05,1.984649334788039e-05
4.422649730800001,58.42264973080002,8,0,-0.1023526247255506,6.034223753977066,-0.7456430011730113,-5.154907402303414e-06,1.939139811250705e-05,-5.96514400938409e-06,1.974860617218762e-05,2.014359265901685e-05
5.577350269200001,58.42264973080002,8,0,-0.0001934480050107545,6.442860460859225,-0.7588921980279499,-5.154907402303414e-06,2.061730823315353e-05,-6.071137584223599e-06,2.097002410115205e-05,2.127397458621823e-05
4.422649730800001,59.5773502692,8,0,-0.1376838163388285,6.025390956073882,-0.592404236092242,-5.260900977143356e-06,1.939139811250748e-05,-4.739233888737936e-06,1.961710289540753e-05,2.055312921412217e-05
5.577350269200001,59.5773502692,8,0,-0.03552463961830665,6.43402766295597,-0.6056534329472213,-5.260900977143356e-06,2.061730823315375e-05,-4.84522746357777e-06,2.084215004526277e-05,2.165350589195206e-05
6.422649730800001,58.42264973080002,8,0,-0.1664313685600425,6.689177751737659,-0.9762661769605171,-5.883922580782262e-06,2.153851390040854e-05,-7.810129415684137e-06,2.208376913727837e-05,2.215959778356631e-05
7.577350269200001,58.42264973080002,8,0,-0.05885882134159881,7.119467940611433,-0.9875872510058082,-5.883922580782262e-06,2.282938446702986e-05,-7.900698008046466e-06,2.3362954502865e-05,2.344878342798434e-05
6.422649730800001,59.5773502692,8,0,-0.1966208993473588,6.681630369040829,-0.8149073561329059,-5.974491173144211e-06,2.153851390040854e-05,-6.519258849063247e-06,2.191942788963179e-05,2.251614761621148e-05
7.577350269200001,59.5773502692,8,0,-0.08904835212891515,7.111920557914604,-0.8262284301781427,-5.974491173144211e-06,2.282938446702986e-05,-6.609827441425142e-06,2.320372045582332e-05,2.377255195788737e-05
8.4226497308,58.42264973080002,8,0,-0.2449772086277942,7.374541297738843,-1.179745616181126,-6.683560105800014e-06,2.379451391966653e-05,-9.437964929449004e-06,2.450844041149353e-05,2.442653299767814e-05
9.5773502692,58.42264973080002,8,0,-0.1328178641298554,7.823178675730598,-1.189034487434804,-6.683560105800014e-06,2.51404260536418e-05,-9.512275899478434e-06,2.583603279948375e-05,2.580860885485576e-05
8.4226497308,59.5773502692,8,0,-0.2697475319711904,7.368348716902994,-1.01150659943415,-6.757871075830204e-06,2.379451391966653e-05,-8.092052795473197e-06,2.432124478563302e-05,2.472609026144769e-05
9.5773502692,59.5773502692,8,0,-0.1575881874732605,7.816986094894713,-1.020795470687977,-6.757871075830204e-06,2.514042605364169e-05,-8.166363765503819e-06,2.565480427473302e-05,2.607480101217239e-05
10.4226497308,58.42264973080002,8,0,-0.335860006529332,8.085550679373142,-1.355781878637874,-7.543192564392375e-06,2.614245017921752e-05,-1.084625502910299e-05,2.699400485749173e-05,2.684042670133969e-05
11.5773502692,58.42264973080002,8,0,-0.219887615894049,8.549440241914274,-1.362955120118376,-7.543192564392375e-06,2.753411886684091e-05,-1.090364096094701e-05,2.836192146147676e-05,2.827732962503232e-05
10.4226497308,59.5773502692,8,0,-0.3549886504773569,8.080768518386273,-1.181823292684949,-7.600578496236559e-06,2.614245017921795e-05,-9.454586341479596e-06,2.679221709516217e-05,2.708238789100448e-05
11.5773502692,59.5773502692,8,0,-0.2390162598421193,8.544658080927224,-1.18899653416552,-7.600578496236559e-06,2.753411886684081e-05,-9.511972273324159e-06,2.816652688232642e-05,2.848645568640582e-05
12.4226497308,58.42264973080002,8,0,-0.4371182352445979,8.817730590862913,-1.504250012317521,-8.452962825473043e-06,2.856643247895699e-05,-1.203400009854017e-05,2.951985885063214e-05,2.93408476899474e-05
13.5773502692,58.42264973080002,8,0,-0.3180628560661019,9.293952107576898,-1.509234543711427,-8.452962825473043e-06,2.999509702909895e-05,-1.207387634969141e-05,3.092070603585087e-05,3.08095301544936e-05
12.4226497308,59.5773502692,8,0,-0.4504103189618966,8.814407569933588,-1.325666943549641,-8.492839076624939e-06,2.856643247895699e-05,-1.060533554839713e-05,2.931024184159474e-05,2.95263174241342e-05
13.5773502692,59.5773502692,8,0,-0.3313549397834006,9.290629086647572,-1.330651474943669,-8.492839076624939e-06,2.999509702909895e-05,-1.064521179954935e-05,3.071761189095905e-05,3.096320472917446e-05
14.4226497308,58.42264973080002,8,0,-0.5469114118326828,9.566846277561499,-1.625154832294418,-9.403593539913783e-06,3.105143721766294e-05,-1.300123865835535e-05,3.207034342139049e-05,3.189086780247296e-05
15.5773502692,58.42264973080002,8,0,-0.4254688688982755,10.05261644929913,-1.627882277672893,-9.403593539913783e-06,3.250874773287583e-05,-1.302305822138315e-05,3.34970775259982e-05,3.337645473246899e-05
14.4226497308,59.5773502692,8,0,-0.5541845995086883,9.565027980642498,-1.442991017892848,-9.4254131029418e-06,3.105143721766294e-05,-1.154392814314278e-05,3.1858425386936e-05,3.202171970724099e-05
15.5773502692,59.5773502692,8,0,-0.4327420565742357,10.05079815238031,-1.445718463271282,-9.4254131029418e-06,3.250874773287637e-05,-1.156574770617026e-05,3.329161194137409e-05,3.347674910297411e-05
16.4226497308,58.42264973080002,8,0,-0.6634750359781951,10.32885435913777,-1.718607112747675,-1.038620360244044e-05,3.358311397802342e-05,-1.37488569019814e-05,3.463284227863271e-05,3.4466363900722e-05
17.5773502692,58.42264973080002,8,0,-0.540315648262276,10.82149191000145,-1.719012257855458,-1.038620360244044e-05,3.506102663061446e-05,-1.375209806284367e-05,3.607857269560027e-05,3.595846419415492e-05
16.4226497308,59.5773502692,8,0,-0.664555422932303,10.32858426239925,-1.533868031173809,-1.038944476330276e-05,3.358311397802342e-05,-1.227094424939047e-05,3.44231461525434e-05,3.454476122860797e-05
17.5773502692,59.5773502692,8,0,-0.5413960352163474,10.82122181326307,-1.534273176281593,-1.038944476330276e-05,3.506102663061489e-05,-1.227418541025274e-05,3.587512491645276e-05,3.600759522333023e-05
18.4226497308,58.42264973080002,8,0,-0.7850820779895149,11.09985790995689,-1.784817666961762,-1.139214897753196e-05,3.614761097425366e-05,-1.42785413356941e-05,3.719660244202507e-05,3.705024465194065e-05
19.5773502692,58.42264973080002,8,0,-0.6608578295673189,11.59675490364567,-1.782840245893782,-1.139214897753196e-05,3.763830195532001e-05,-1.426272196715025e-05,3.865448046806757e-05,3.854094404001597e-05
18.4226497308,59.5773502692,8,0,-0.7798089551414944,11.1011761906689,-1.598481294328509,-1.13763296089879e-05,3.614761097425366e-05,-1.278785035462807e-05,3.699282482289888e-05,3.707842459433735e-05
19.5773502692,59.5773502692,8,0,-0.6555847067192984,11.59807318435768,-1.596503873260474,-1.13763296089879e-05,3.763830195532001e-05,-1.277203098608379e-05,3.845665932756776e-05,3.854115084756794e-05
20.4226497308,58.42264973080002,8,0,-0.9100138682080856,11.87607006841356,-1.824105511804685,-1.241290043299672e-05,3.873143531348986e-05,-1.459284409443748e-05,3.975200224561166e-05,3.962930643553307e-05
21.5773502692,58.42264973080002,8,0,-0.7853634604555535,12.37467169942369,-1.819694433937346,-1.241290043299672e-05,4.022724020652025e-05,-1.455755547149877e-05,4.121516701147731e-05,4.111206840918426e-05
20.4226497308,59.5773502692,8,0,-0.8982509938954535,11.87901078699172,-1.637129900175873,-1.237761181005883e-05,3.873143531348986e-05,-1.309703920140699e-05,3.955714646314442e-05,3.960950811549898e-05
21.5773502692,59.5773502692,8,0,-0.7736005861429214,12.37761241800185,-1.632718822308643,-1.237761181005883e-05,4.022724020652025e-05,-1.306175057846914e-05,4.102592018977801e-05,4.106558819901558e-05
22.4226497308,58.42264973080002,8,0,-1.036542042047544,12.65378906345164,-1.836915914019799,-1.343996578531345e-05,4.132135863668326e-05,-1.46953273121584e-05,4.229010249205005e-05,4.219251217300281e-05
23.5773502692,58.42264973080002,8,0,-0.9120935213974439,13.15158314605204,-1.830035003900008,-1.343996578531345e-05,4.281474088448447e-05,-1.464028003120006e-05,4.375166898701727e-05,4.366157745695035e-05
22.4226497308,59.5773502692,8,0,-1.018192948394586,12.65837633686488,-1.650243133044798,-1.338491850435457e-05,4.132135863668326e-05,-1.320194506435838e-05,4.210657517140449e-05,4.212697819334536e-05
23.5773502692,59.5773502692,8,0,-0.893744427744485,13.15617041946528,-1.643362222924897,-1.338491850435457e-05,4.281474088448447e-05,-1.314689778339918e-05,4.357337024780343e-05,4.357066950110624e-05
24.4226497308,58.42264973080002,8,0,-1.162922068571245,13.42938618512597,-1.823844063020269,-1.446485956752876e-05,4.390437344726009e-05,-1.459075250416215e-05,4.480238241277124e-05,4.473005341878938e-05
25.5773502692,58.42264973080002,8,0,-1.039292962287121,13.92390261026246,-1.814478418895327,-1.446485956752876e-05,4.538792272266957e-05,-1.451582735116262e-05,4.625546276362815e-05,4.618011874937623e-05
24.4226497308,59.5773502692,8,0,-1.137947017571653,13.43562994787587,-1.638400403593948,-1.438993441452998e-05,4.390437344726009e-05,-1.310720322875158e-05,4.463206305388402e-05,4.462106505108132e-05
25.5773502692,59.5773502692,8,0,-1.01431791128752,13.9301463730124,-1.629034759469128,-1.438993441452998e-05,4.538792272266968e-05,-1.303227807575302e-05,4.608997516056588e-05,4.604710775401861e-05
26.4226497308,58.42264973080002,8,0,-1.287397898848607,14.19930697007667,-1.785660361280195,-1.547911885237688e-05,4.646770062332424e-05,-1.428528289024156e-05,4.728059985022033e-05,4.723285257856777e-05
27.57735026920001,58.42264973080002,8,0,-1.165192997999059,14.68812657347487,-1.773822529539039,-1.547911885237688e-05,4.793415943351882e-05,-1.419058023631231e-05,4.871835142185964e-05,4.865890955630101e-05
26.4226497308,59.5773502692,8,0,-1.25583034753873,14.20719885790414,-1.602353010006009,-1.538441619844725e-05,4.646770062332424e-05,-1.281882408004807e-05,4.712489175285662e-05,4.708277622691833e-05
27.57735026920001,59.5773502692,8,0,-1.133625446689173,14.69601846130237,-1.59051517826473,-1.538441619844725e-05,4.793415943351892e-05,-1.272412142611784e-05,4.856707379595506e-05,4.848623241186068e-05
28.4226497308,58.42264973080002,8,0,-1.408216461201627,14.96008478829359,-1.723333809749303,-1.647436050648007e-05,4.899884449150078e-05,-1.378667047799442e-05,4.971673666653147e-05,4.969231809482043e-05
29.5773502692,58.42264973080002,8,0,-1.288023556001954,15.44085640909228,-1.709069107945068,-1.647436050648007e-05,5.044115935389686e-05,-1.367255286356054e-05,5.113243125475507e-05,5.108958574941779e-05
28.4226497308,59.5773502692,8,0,-1.370177256390298,14.96959458949642,-1.543044451949834,-1.636024289204609e-05,4.899884449150078e-05,-1.234435561559867e-05,4.957660608433542e-05,4.950365070439381e-05
29.5773502692,59.5773502692,8,0,-1.249984351190652,15.45036621029501,-1.528779750145572,-1.636024289204609e-05,5.044115935389653e-05,-1.223023800116458e-05,5.099633424520792e-05,5.087983298732016e-05
30.4226497308,58.42264973080002,8,0,-1.523650134591021,15.70836515180159,-1.638050624476074,-1.744237255213254e-05,5.14856885934379e-05,-1.310440499580859e-05,5.210300293351794e-05,5.21002479799127e-05
31.5773502692,58.42264973080002,8,0,-1.40603412707905,16.17882918184948,-1.621441108749181,-1.744237255213254e-05,5.289708068358155e-05,-1.297152886999345e-05,5.349011137945901e-05,5.346416088843573e-05
30.4226497308,59.5773502692,8,0,-1.479358092652585,15.7194381622862,-1.461626613208171,-1.730949642631723e-05,5.14856885934379e-05,-1.169301290566537e-05,5.197901192391338e-05,5.187565483207686e-05
31.5773502692,59.5773502692,8,0,-1.361742085140595,16.18990219233416,-1.445017097481184,-1.730949642631723e-05,5.289708068358177e-05,-1.156013677984947e-05,5.336976798263037e-05,5.32201084244284e-05
32.4226497308,58.42264973080002,8,0,-1.632024960744626,16.44093844582899,-1.531225980475255,-1.8375230631046e-05,5.391662299524848e-05,-1.224980784380204e-05,5.443188101338997e-05,5.444882119979009e-05
33.57735026920001,58.42264973080002,8,0,-1.517520851918251,16.8989548811345,-1.512392727834352,-1.8375230631046e-05,5.529067230116498e-05,-1.209914182267481e-05,5.578416751721479e-05,5.577505029019815e-05
32.4226497308,59.5773502692,8,0,-1.581802953702002,16.45349394758965,-1.359469817235719,-1.822456460991813e-05,5.391662299524848e-05,-1.087575853788575e-05,5.432421813091374e-05,5.419116292846028e-05
33.57735026920001,59.5773502692,8,0,-1.467298844875609,16.91151038289522,-1.340636564594829,-1.822456460991813e-05,5.52906723011652e-05,-1.072509251675863e-05,5.567978205816515e-05,5.549967957815523e-05
34.42264973080001,58.42264973080002,8,0,-1.731752203162917,17.15477841457234,-1.404507569947134,-1.92654297817792e-05,5.62806926891618e-05,-1.123606055957707e-05,5.669619543982758e-05,5.673064041965885e-05
35.5773502692,58.42264973080002,8,0,-1.620857478601526,17.5983573128179,-1.383611117036529,-1.92654297817792e-05,5.76114293838985e-05,-1.106888893629223e-05,5.80078159376896e-05,5.801513211425972e-05
34.42264973080001,59.5773502692,8,0,-1.676028328734583,17.16870938317956,-1.238165483105115,-1.909825815849431e-05,5.628069268916224e-05,-9.905323864840918e-06,5.660470721219628e-05,5.644298813642614e-05
35.5773502692,59.5773502692,8,0,-1.565133604173246,17.61228828142491,-1.217269030194523,-1.909825815849431e-05,5.761142938389828e-05,-9.738152241556188e-06,5.791925420894359e-05,5.771163839525145e-05
36.4226497308,58.42264973080002,8,0,-1.821360902739763,17.84708360300545,-1.259770421881194,-2.01060217711716e-05,5.856775625180926e-05,-1.007816337504955e-05,5.888919778203307e-05,5.893880307753629e-05
37.5773502692,58.42264973080002,8,0,-1.714527827977199,18.27441590205571,-1.23700935709694,-2.01060217711716e-05,5.984975314896003e-05,-9.896074856775524e-06,6.015479706388744e-05,6.017782738419041e-05
36.4226497308,59.5773502692,8,0,-1.760664729981808,17.86225764619494,-1.099520809737416,-1.992393325289774e-05,5.856775625180926e-05,-8.796166477899325e-06,5.881342282154323e-05,5.862444176329262e-05
37.5773502692,59.5773502692,8,0,-1.653831655219261,18.28958994524513,-1.076759744953121,-1.992393325289774e-05,5.984975314895981e-05,-8.614077959624971e-06,6.008161936532289e-05,5.984961668338182e-05
38.4226497308,58.42264973080002,8,0,-1.899529278260663,18.51531903297235,-1.099103108993983,-2.0890748916812e-05,6.076864432812005e-05,-8.792824871951864e-06,6.100465808048885e-05,6.106698563273695e-05
39.5773502692,58.42264973080002,8,0,-1.797157570673185,18.92480586332226,-1.074710945205278,-2.0890748916812e-05,6.199710481916978e-05,-8.597687561642223e-06,6.221946086784044e-05,6.225718683718426e-05
38.4226497308,59.5773502692,8,0,-1.834483508157413,18.53158047549816,-0.9455455476128612,-2.069561160650225e-05,6.076864432812005e-05,-7.56436438090289e-06,6.094386473328568e-05,6.072940673807465e-05
39.5773502692,59.5773502692,8,0,-1.732111800569953,18.941067305848,-0.9211533838241696,-2.069561160650225e-05,6.199710481916956e-05,-7.369227070593357e-06,6.216095877597494e-05,6.190786294750224e-05
40.4226497308,58.42264973080002,8,0,-1.965113131138377,19.15725563432527,-0.9247860319699339,-2.161416652710302e-05,6.287530853475156e-05,-7.398288255759471e-06,6.303695632886423e-05,6.310953072694383e-05
41.5773502692,58.42264973080002,8,0,-1.867543407853633,19.54753452746425,-0.8990265877222915,-2.161416652710302e-05,6.404614521416849e-05,-7.192212701778332e-06,6.419684825526064e-05,6.424797633493961e-05
40.4226497308,59.5773502692,8,0,-1.896421279811493,19.17442859715699,-0.77843144704275,-2.140809097312237e-05,6.287530853475156e-05,-6.227451576342e-06,6.299018396663499e-05,6.275241538767539e-05
41.5773502692,59.5773502692,8,0,-1.79885155652674,19.564707490296,-0.752672002795067,-2.140809097312237e-05,6.40461452141686e-05,-6.021376022360535e-06,6.41520851818966e-05,6.388131935455522e-05
42.4226497308,58.42264973080002,8,0,-2.017169792190499,19.77100531313733,-0.7392629031047708,-2.227174758551945e-05,6.488095283579184e-05,-5.914103224838167e-06,6.498116901857215e-05,6.506153022917748e-05
43.57735026920001,58.42264973080002,8,0,-1.924678112398753,20.14097203230431,-0.7124244899088701,-2.227174758551945e-05,6.599085299329279e-05,-5.699395919270961e-06,6.608276429796798e-05,6.614575519502956e-05
42.4226497308,59.5773502692,8,0,-1.945600690334727,19.78889758860127,-0.6005253834171246,-2.205704027995214e-05,6.488095283579184e-05,-4.804203067336997e-06,6.494727244222878e-05,6.468872474727394e-05
43.57735026920001,59.5773502692,8,0,-1.853109010542953,20.15886430776836,-0.5736869702212917,-2.205704027995214e-05,6.599085299329312e-05,-4.589495761770333e-06,6.605061928220597e-05,6.576569333570053e-05
44.4226497308,58.42264973080002,8,0,-2.054976553493773,20.35504997296651,-0.5451068500434368,-2.285996494955328e-05,6.678014115628784e-05,-4.360854800347495e-06,6.6833147050959e-05,6.691889940259789e-05
45.5773502692,58.42264973080002,8,0,-1.967770286351576,20.7038750415353,-0.5174956041790021,-2.285996494955328e-05,6.782661636199421e-05,-4.139964833432016e-06,6.787384051602949e-05,6.794694369348986e-05
44.4226497308,59.5773502692,8,0,-1.981346564522019,20.37345747020945,-0.4142974493302081,-2.263907498263802e-05,6.678014115628784e-05,-3.314379594641665e-06,6.681084300695543e-05,6.653438473554211e-05
45.5773502692,59.5773502692,8,0,-1.894140297379767,20.72228253877845,-0.3866862034658004,-2.263907498263802e-05,6.782661636199486e-05,-3.093489627726403e-06,6.785305423609361e-05,6.755752010691326e-05
46.42264973080001,58.42264973080002,8,0,-2.078042928735521,20.90826327137786,-0.344982735436575,-2.337634798905595e-05,6.856887681139755e-05,-2.7598618834926e-06,6.858958240743489e-05,6.867843909500743e-05
47.57735026920001,58.42264973080002,8,0,-1.996258090852342,21.23540262291057,-0.3169154486453032,-2.337634798905595e-05,6.95502948659957e-05,-2.535323589162425e-06,6.956758449838411e-05,6.964887740664938e-05
46.42264973080001,59.5773502692,8,0,-2.003196830625426,20.92697479590538,-0.2223054786118332,-2.315180969472566e-05,6.856887681139755e-05,-1.778443828894666e-06,6.857749690940555e-05,6.828629608964053e-05
47.57735026920001,59.5773502692,8,0,-1.921411992742219,21.25411414743821,-0.1942381918205072,-2.315180969472566e-05,6.955029486599602e-05,-1.553905534564057e-06,6.955680618748263e-05,6.925421373050087e-05
48.4226497308,58.42264973080002,8,0,-2.086116459752065,21.42992436106841,-0.1416073570918632,-2.381951216006133e-05,7.024465112322057e-05,-1.132858856734906e-06,7.024806188724387e-05,7.033788412049046e-05
49.57735026920001,58.42264973080002,8,0,-2.009816583187625,21.73512386732617,-0.1134041564463507,-2.381951216006133e-05,7.116024964199383e-05,-9.072332515708053e-07,7.116241603350748e-05,7.124984715789843e-05
48.4226497308,59.5773502692,8,0,-2.010907924697183,21.44872649483213,-0.02715754224513712,-2.359388655489669e-05,7.024465112322057e-05,-2.17260337961097e-07,7.024477687643551e-05,6.994225616005355e-05
49.57735026920001,59.5773502692,8,0,-1.934608048132726,21.75392600108996,0.001045658400416084,-2.359388655489669e-05,7.116024964199405e-05,8.365267203328669e-09,7.116024982662371e-05,7.085410539457418e-05
50.42264973080001,58.42264973080002,8,0,-2.079182123973934,21.91972331119112,0.06229082517477454,-2.418916144566948e-05,7.18064602949907e-05,4.983266013981963e-07,7.180710701127888e-05,7.189593699440328e-05
51.57735026920001,58.42264973080002,8,0,-2.008358639167268,22.20301725041778,0.09031361741680666,-2.418916144566948e-05,7.26563421126707e-05,7.225089393344533e-07,7.265768965046235e-05,7.274912421665545e-05
50.42264973080001,59.5773502692,8,0,-2.004454677995199,21.9384051726858,0.168526052384693,-2.396497910773327e-05,7.18064602949907e-05,1.348208419077544e-06,7.181120486160931e-05,7.150099162699695e-05
51.57735026920001,59.5773502692,8,0,-1.933631193188534,22.22169911191246,0.1965488446267522,-2.396497910773327e-05,7.26563421126707e-05,1.572390757014017e-06,7.266273886078999e-05,7.235646844624731e-05
52.4226497308,58.42264973080002,8,0,-2.057455693649017,22.3777583167153,0.2640108777501399,-2.448606487304909e-05,7.325479116840816e-05,2.112087022001119e-06,7.326619988512573e-05,7.33522869976096e-05
53.5773502692,58.42264973080002,8,0,-1.992029742948351,22.63946211951797,0.2915474046716142,-2.448606487304909e-05,7.403990257681616e-05,2.332379237372914e-06,7.40537040931075e-05,7.41469711382287e-05
52.4226497308,59.5773502692,8,0,-1.984024955191825,22.3961160013296,0.362149803801099,-2.426577265767752e-05,7.325479116840816e-05,2.897198430408792e-06,7.327630434252569e-05,7.296217799599935e-05
53.5773502692,59.5773502692,8,0,-1.918599004491168,22.65781980413223,0.3896863307225598,-2.426577265767752e-05,7.403990257681605e-05,3.117490645780478e-06,7.406461199893534e-05,7.376153044137159e-05
54.42264973080001,58.42264973080002,8,0,-2.021371653568274,22.80452517477136,0.4609160823085815,-2.471200943123555e-05,7.459157788212295e-05,3.687328658468652e-06,7.462579545078101e-05,7.470761524530615e-05
55.57735026920001,58.42264973080002,8,0,-1.96119719064849,23.04522302645049,0.487676873991546,-2.471200943123555e-05,7.531367143716035e-05,3.901414991932368e-06,7.535169980692387e-05,7.544463929025174e-05
54.42264973080001,59.5773502692,8,0,-1.950009542413646,22.82236570256001,0.5511777766882835,-2.449792309777168e-05,7.459157788212295e-05,4.409422213506268e-06,7.464060777011592e-05,7.432644641563294e-05
55.57735026920001,59.5773502692,8,0,-1.889835079493863,23.06306355423915,0.5779385683712208,-2.449792309777168e-05,7.531367143716035e-05,4.623508546969766e-06,7.536718570140376e-05,7.507047311401565e-05
56.4226497308,58.42264973080002,8,0,-1.971566500747904,23.20089983262524,0.6504669026578418,-2.486973266849348e-05,7.582013266499909e-05,5.203735221262734e-06,7.588732116253699e-05,7.596358706818812e-05
57.57735026920001,58.42264973080002,8,0,-1.916434479786161,23.42142791647222,0.6761838478786035,-2.486973266849348e-05,7.648171691654001e-05,5.409470783028828e-06,7.655384603712e-05,7.664435471909994e-05
56.4226497308,59.5773502692,8,0,-1.902987980159115,23.21804446277244,0.7331649341003887,-2.466399710672712e-05,7.582013266499909e-05,5.86531947280311e-06,7.590565044634533e-05,7.559537897290018e-05
57.57735026920001,59.5773502692,8,0,-1.847855959197363,23.43857254661945,0.7588818793211505,-2.466399710672712e-05,7.648171691654012e-05,6.071055034569204e-06,7.657273553268819e-05,7.628542175024152e-05
58.4226497308,58.42264973080002,8,0,-1.908858426303032,23.56811508809961,0.8302492384093746,-2.496283903464938e-05,7.694505502296115e-05,6.641993907274997e-06,7.705316571395761e-05,7.712283360501246e-05
59.57735026920001,58.42264973080002,8,0,-1.858501843274799,23.76954142021254,0.8546794502847203,-2.496283903464938e-05,7.754933401929996e-05,6.837435602277762e-06,7.76632196303802e-05,7.774929458081818e-05
58.4226497308,59.5773502692,8,0,-1.843711194635516,23.58440189601648,0.9057841129518065,-2.476739733964684e-05,7.694505502296115e-05,7.246272903614452e-06,7.707395274218686e-05,7.677149418137857e-05
59.57735026920001,59.5773502692,8,0,-1.793354611607282,23.78582822812942,0.9302143248270979,-2.476739733964684e-05,7.754933401929996e-05,7.441714598616783e-06,7.768446849371096e-05,7.740942598211863e-05
60.4226497308,58.42264973080002,8,0,-1.834224512627241,23.90773274418006,0.9979972427358086,-2.499570463575121e-05,7.797212439147796e-05,7.983977941886469e-06,7.812665901791121e-05,7.818892505864362e-05
61.5773502692,58.42264973080002,8,0,-1.788324030839713,24.09133467133017,1.020925723105661,-2.499570463575121e-05,7.85229301729283e-05,8.167405784845292e-06,7.868377809456539e-05,7.876355688486386e-05
60.4226497308,59.5773502692,8,0,-1.773081898307559,23.92301839775998,1.066847965417209,-2.481227679279217e-05,7.797212439147796e-05,8.534783723337675e-06,7.814899316270531e-05,7.785822488507288e-05
61.5773502692,59.5773502692,8,0,-1.727181416520032,24.10662032491009,1.089776445787076,-2.481227679279217e-05,7.85229301729283e-05,8.718211566296607e-06,7.870648919285818e-05,7.844643448963717e-05
62.42264973080001,58.42264973080002,8,0,-1.748776661503631,24.22161267778381,1.151610278882825,-2.497337545903866e-05,7.890818189811109e-05,9.212882231062597e-06,7.911204618012762e-05,7.916633856220934e-05
63.57735026920001,58.42264973080002,8,0,-1.706966536045607,24.3888531796159,1.172851351296584,-2.497337545903866e-05,7.940990340360736e-05,9.382810810372672e-06,7.962032987817247e-05,7.969212674290154e-05
62.42264973080001,59.5773502692,8,0,-1.692133801733552,24.23577339272633,1.214325467069886,-2.480344687972843e-05,7.890818189811109e-05,9.714603736559087e-06,7.913517530003234e-05,7.885989123958617e-05
63.57735026920001,59.5773502692,8,0,-1.650323676275528,24.40301389455842,1.235566539483659,-2.480344687972843e-05,7.940990340360736e-05,9.88453231586927e-06,7.96437631187326e-05,7.940126648266288e-05
64.4226497308,58.42264973080002,8,0,-1.653737493932123,24.51188037031248,1.289163906386491,-2.490146427683277e-05,7.976100718014561e-05,1.031331125109192e-05,8.001445867247364e-05,8.006042399733552e-05
65.57735026920001,58.42264973080002,8,0,-1.615611506367466,24.66438432057111,1.308561454293222,-2.490146427683277e-05,8.02185190309215e-05,1.046849163434578e-05,8.047850514994982e-05,8.054084262808779e-05
64.4226497308,59.5773502692,8,0,-1.602010699514262,24.52481206891694,1.346352887733463,-2.474628389357919e-05,7.976100718014561e-05,1.07708231018677e-05,8.003779215232237e-05,7.978167176713873e-05
65.57735026920001,59.5773502692,8,0,-1.563884711949649,24.67731601917539,1.365750435640195,-2.474628389357919e-05,8.021851903092095e-05,1.092600348512156e-05,8.050208056835479e-05,8.027958308876192e-05
66.4226497308,58.42264973080002,8,0,-1.550417425459587,24.78089445850556,1.408915108797859,-2.478605132827513e-05,8.053919620758547e-05,1.127132087038287e-05,8.083988625840483e-05,8.087737134466394e-05
67.57735026920001,58.42264973080002,8,0,-1.515534551398282,24.92042595475078,1.426341720534203,-2.478605132827513e-05,8.095779069632113e-05,1.141073376427363e-05,8.126473054800235e-05,8.131636626584277e-05
66.4226497308,59.5773502692,8,0,-1.503946460829589,24.79251219966307,1.461239419889857,-2.464663843438513e-05,8.053919620758547e-05,1.168991535911885e-05,8.086299158313713e-05,8.062957566295938e-05
67.57735026920001,59.5773502692,8,0,-1.469063586768248,24.93204369590843,1.478666031626188,-2.464663843438513e-05,8.095779069632156e-05,1.18293282530095e-05,8.128802492391371e-05,8.108786183635606e-05
68.42264973080002,58.42264973080002,8,0,-1.440194021345047,25.03121579614745,1.509302282874447,-2.463359350522211e-05,8.125204576474787e-05,1.207441826299557e-05,8.159515339954015e-05,8.162418315339516e-05
69.57735026920001,58.42264973080002,8,0,-1.408083578959651,25.15965756568903,1.524657464490654,-2.463359350522211e-05,8.163737107337262e-05,1.219725971592523e-05,8.198621138669093e-05,8.202615960847295e-05
68.42264973080002,59.5773502692,8,0,-1.399246870368459,25.04145258389159,1.557467946452487,-2.451075205229234e-05,8.125204576474787e-05,1.24597435716199e-05,8.16177468053298e-05,8.141041949020971e-05
69.57735026920001,59.5773502692,8,0,-1.367136427983053,25.16989435343322,1.572823128068721,-2.451075205229234e-05,8.163737107337273e-05,1.258258502454977e-05,8.200894892340852e-05,8.183337721554889e-05
70.4226497308,58.42264973080002,8,0,-1.324494579553287,25.26557937402553,1.588940786768217,-2.445084615379094e-05,8.190944966052433e-05,1.271152629414574e-05,8.228790383192035e-05,8.23086553916952e-05
71.57735026920001,58.42264973080002,8,0,-1.294660644956828,25.38491511241137,1.60214845403661,-2.445084615379094e-05,8.226745687568184e-05,1.281718763229288e-05,8.265092462231887e-05,8.267847176933742e-05
70.4226497308,59.5773502692,8,0,-1.289274133504293,25.27438448553778,1.63369168866296,-2.434518481564396e-05,8.190944966052433e-05,1.306953350930368e-05,8.230983565594101e-05,8.213181104366269e-05
71.57735026920001,59.5773502692,8,0,-1.259440198907797,25.39372022392376,1.646899355931312,-2.434518481564396e-05,8.226745687568227e-05,1.317519484745049e-05,8.267296230615549e-05,8.252418969946241e-05
72.4226497308,58.42264973080002,8,0,-1.204782687623627,25.48687023698123,1.646615075923805,-2.424480078998058e-05,8.252181090843882e-05,1.317292060739044e-05,8.292659670340645e-05,8.293936913091395e-05
73.57735026920001,58.42264973080002,8,0,-1.176707610500769,25.59917054547266,1.657620575264327,-2.424480078998058e-05,8.28587118339131e-05,1.326096460211462e-05,8.326762545515716e-05,8.32823376006898e-05
72.4226497308,59.5773502692,8,0,-1.175434689382179,25.49420723654159,1.688727691607995,-2.415675679525624e-05,8.252181090843882e-05,1.350982153286396e-05,8.294783205238222e-05,8.280214233650585e-05
73.57735026920001,59.5773502692,8,0,-1.147359612259349,25.60650754503291,1.699733190948518,-2.415675679525624e-05,8.285871183391278e-05,1.359786552758814e-05,8.328893371166798e-05,8.316914440723881e-05
74.4226497308,58.42264973080002,8,0,-1.08254926723293,25.69810427804284,1.681268629062584,-2.402264107757965e-05,8.309997310352343e-05,1.345014903250067e-05,8.352051707883926e-05,8.352569395318739e-05
75.57735026920001,58.42264973080002,8,0,-1.055696173813815,25.80551665171931,1.690035562122981,-2.402264107757965e-05,8.342221022455281e-05,1.352028449698385e-05,8.384586976026795e-05,8.384758740280787e-05
74.4226497308,59.5773502692,8,0,-1.059170779071689,25.70394890008316,1.721548269191108,-2.395250561309592e-05,8.309997310352343e-05,1.377238615352886e-05,8.354111236353779e-05,8.343059209370163e-05
75.57735026920001,59.5773502692,8,0,-1.0323176856526,25.81136127375951,1.730315202251641,-2.395250561309592e-05,8.342221022455249e-05,1.384252161801313e-05,8.386650895403553e-05,8.377787838593676e-05
76.42264973080002,58.42264973080002,8,0,-0.9593083748049418,25.90241449857548,1.691992977828077,-2.379171839823619e-05,8.365517309528547e-05,1.353594382262461e-05,8.407980272242382e-05,8.407780112714774e-05
77.57735026920001,58.42264973080002,8,0,-0.9331226016282939,26.00715759128207,1.698500116059551,-2.379171839823619e-05,8.396940237340525e-05,1.35880009284764e-05,8.439605356945587e-05,8.438486326905017e-05
76.42264973080002,59.5773502692,8,0,-0.9419560061876417,25.9067525907298,1.731271637592994,-2.373966129238429e-05,8.365517309528547e-05,1.385017310074396e-05,8.409987847730549e-05,8.402713527822268e-05
77.57735026920001,59.5773502692,8,0,-0.9157702330109663,26.0114956834365,1.737778775824455,-2.373966129238429e-05,8.396940237340557e-05,1.390223020659564e-05,8.441614676970796e-05,8.436083147987837e-05
78.4226497308,58.42264973080002,8,0,-0.8365977835521772,26.10304301873926,1.678017203956772,-2.355954732235837e-05,8.419901588680736e-05,1.342413763165417e-05,8.46154878363869e-05,8.46066794010987e-05
79.57735026920001,58.42264973080002,8,0,-0.8105072413332248,26.20740518761507,1.682255779074924,-2.355954732235837e-05,8.451210239343479e-05,1.345804623259939e-05,8.492946954641089e-05,8.490563020191706e-05
78.4226497308,59.5773502692,8,0,-0.8252949165704013,26.1058687354847,1.717153017285133,-2.352563872141304e-05,8.419901588680736e-05,1.373722413828106e-05,8.463519808683953e-05,8.460255193577395e-05
79.57735026920001,59.5773502692,8,0,-0.7992043743514392,26.21023090436055,1.721391592403326,-2.352563872141304e-05,8.45121023934349e-05,1.377113273922661e-05,8.494917182909227e-05,8.492924830088178e-05
80.4226497308,58.42264973080002,8,0,-0.7159841441963666,26.30333882060022,1.638699264309718,-2.333382031790855e-05,8.474347154127778e-05,1.310959411447775e-05,8.513956285147962e-05,8.512413652012007e-05
81.57735026920001,58.42264973080002,8,0,-0.6893986641452674,26.40968074080461,1.640670910332652,-2.333382031790855e-05,8.506249730189097e-05,1.312536728266121e-05,8.545837877991369e-05,8.542215608243252e-05
80.4226497308,59.5773502692,8,0,-0.710726421468526,26.30465325128218,1.678577484386313,-2.331804714972502e-05,8.474347154127778e-05,1.34286198750905e-05,8.515906114030071e-05,8.516841776584147e-05
81.57735026920001,59.5773502692,8,0,-0.6841409414174091,26.41099517148665,1.6805491304093,-2.331804714972502e-05,8.506249730189119e-05,1.34443930432744e-05,8.547784319347738e-05,8.549514453065038e-05
82.4226497308,58.42264973080002,8,0,-0.5990723154696012,26.5067609190194,1.573520457477144,-2.312244014471824e-05,8.530089279323774e-05,1.258816365981715e-05,8.56650474122223e-05,8.564275075215232e-05
83.57735026920001,58.42264973080002,8,0,-0.5713820792971296,26.61752186370928,1.573236062847025,-2.312244014471824e-05,8.56331756273074e-05,1.25858885027762e-05,8.599609424212937e-05,8.594740703541878e-05
82.4226497308,59.5773502692,8,0,-0.5998307011500463,26.50657132259929,1.615055811735879,-2.312471530175957e-05,8.530089279323774e-05,1.292044649388703e-05,8.568444949526923e-05,8.573703966566417e-05
83.57735026920001,59.5773502692,8,0,-0.5721404649775748,26.61733226728917,1.614771417105719,-2.312471530175957e-05,8.56331756273074e-05,1.291817133684575e-05,8.601543447300374e-05,8.607118269984474e-05
84.42264973080002,58.42264973080002,8,0,-0.4875182730590417,26.71688638948111,1.482084267964077,-2.293356758537382e-05,8.588405106478678e-05,1.185667414371262e-05,8.620607137539253e-05,8.617569945212124e-05
85.57735026920001,58.42264973080002,8,0,-0.4580914724319607,26.83459359198944,1.479563974750639,-2.293356758537382e-05,8.623717267231175e-05,1.183651179800511e-05,8.655706991362973e-05,8.649474965029508e-05
84.42264973080002,59.5773502692,8,0,-0.4942390549615796,26.71520619400548,1.526224468904685,-2.295372993108143e-05,8.588405106478678e-05,1.220979575123748e-05,8.622541459381896e-05,8.632126145295189e-05
85.57735026920001,59.5773502692,8,0,-0.4648122543344986,26.8329133965138,1.523704175691247,-2.295372993108143e-05,8.623717267231175e-05,1.218963340552997e-05,8.657631969877469e-05,8.66703462781826e-05
86.4226497308,58.42264973080002,8,0,-0.3830448434988183,26.9374224383693,1.364120726189309,-2.277568144989166e-05,8.650618767758081e-05,1.091296580951447e-05,8.67779559765558e-05,8.673631666539665e-05
87.57735026920002,58.42264973080002,8,0,-0.3512247555904828,27.06470279000264,1.359395289610626,-2.277568144989166e-05,8.688802873248083e-05,1.087516231688501e-05,8.715698689840991e-05,8.707723982594114e-05
86.4226497308,59.5773502692,8,0,-0.3956460077087556,26.93427214731682,1.411850858051839,-2.281348494252147e-05,8.650618767758081e-05,1.129480686441471e-05,8.679715546508308e-05,8.693398821502511e-05
87.57735026920002,59.5773502692,8,0,-0.3638259198004024,27.06155249895023,1.407125421473156,-2.281348494252147e-05,8.688802873248105e-05,1.125700337178525e-05,8.717605640166606e-05,8.730518655628467e-05
88.42264973080002,58.42264973080002,8,0,-0.2874593603778255,27.17222147600315,1.219497312709774,-2.265764713401156e-05,8.718107621151234e-05,9.755978501678193e-06,8.739728441587178e-05,8.733707897402065e-05
89.57735026920001,58.42264973080002,8,0,-0.2525610648046523,27.31181465829584,1.212611009313269,-2.265764713401156e-05,8.759985575839042e-05,9.700888074506151e-06,8.781282495200629e-05,8.770604956785502e-05
88.42264973080002,59.5773502692,8,0,-0.3058228361018758,27.16763060707214,1.271844756069575,-2.271273756118371e-05,8.718107621151234e-05,1.01747580485566e-05,8.741608666874406e-05,8.758712121871088e-05
89.57735026920001,59.5773502692,8,0,-0.2709245405287115,27.3072237893648,1.264958452673029,-2.271273756118371e-05,8.759985575839031e-05,1.011966762138423e-05,8.783145470237449e-05,8.798618269964729e-05
90.42264973080002,58.42264973080002,8,0,-0.2026721945414938,27.42529793882535,1.048237316895147,-2.258878937359306e-05,8.79230911598743e-05,8.385898535161174e-06,8.808194817979813e-05,8.798740543941839e-05
91.57735026920001,58.42264973080002,8,0,-0.163979195139949,27.58006993643153,1.039252563679743,-2.258878937359306e-05,8.838740715269285e-05,8.314020509437941e-06,8.854290495520732e-05,8.838711338173565e-05
90.42264973080002,59.5773502692,8,0,-0.2266315364491112,27.41930810334845,1.106276815997465,-2.266066739931591e-05,8.79230911598743e-05,8.850214527979716e-06,8.809988311519463e-05,8.828927412079129e-05
91.57735026920001,59.5773502692,8,0,-0.1879385370475664,27.57408010095462,1.097292062782087,-2.266066739931591e-05,8.838740715269285e-05,8.778336502256699e-06,8.856061858220207e-05,8.871827380179378e-05
92.42264973080002,58.42264973080002,8,0,-0.1307149576670135,27.70084539559188,0.8505464323079037,-2.257896418100794e-05,8.874727723202761e-05,6.80437145846323e-06,8.885115280937432e-05,8.86890122176206e-05
93.57735026920001,58.42264973080002,8,0,-0.08747601199289434,27.87380117828835,0.8395502505469327,-2.257896418100794e-05,8.926614458011704e-05,6.716402004375462e-06,8.936688537591902e-05,8.911410723372196e-05
92.42264973080002,59.5773502692,8,0,-0.1600381090295757,27.69351460775124,0.9154048508190344,-2.266693363509563e-05,8.874727723202761e-05,7.323238806552276e-06,8.886748637153497e-05,8.904097956883969e-05
93.57735026920001,59.5773502692,8,0,-0.1167991633554841,27.8664703904476,0.9044086690580431,-2.266693363509563e-05,8.926614458011671e-05,7.235269352464345e-06,8.93829432862845e-05,8.949362843933958e-05
94.4226497308,58.42264973080002,8,0,-0.07375701084661568,28.003252254636,0.6268482265574441,-2.263862423841796e-05,8.966941282351247e-05,5.014785812459553e-06,8.972536508387748e-05,8.942623041433329e-05
95.57735026920002,58.42264973080002,8,0,-0.0251835123471329,28.19754624863393,0.6139606506069234,-2.263862423841796e-05,9.025229480550626e-05,4.911685204855387e-06,9.030569424134402e-05,8.985387178591837e-05
94.4226497308,59.5773502692,8,0,-0.1081238800479678,27.99466053733566,0.6997084743066474,-2.274172484602202e-05,8.966941282351247e-05,5.597667794453179e-06,8.97390555762997e-05,8.982472938730617e-05
95.57735026920002,59.5773502692,8,0,-0.05955038154846726,28.18895453133366,0.6868208983561132,-2.274172484602202e-05,9.025229480550648e-05,5.494567186848905e-06,9.031905153038136e-05,9.027666512912368e-05
96.4226497308,58.42264973080002,8,0,-0.03411872074719291,28.3371141587899,0.3778289505744901,-2.277887123342293e-05,9.070606028472542e-05,3.022631604595921e-06,9.072618340137098e-05,9.014594252349152e-05
97.57735026920001,58.42264973080002,8,0,0.0206169760867505,28.55605694612568,0.3632134399573822,-2.277887123342293e-05,9.136288864673275e-05,2.905707519659058e-06,9.138137830540096e-05,9.051625324639434e-05
96.4226497308,59.5773502692,8,0,-0.07309341572617445,28.32737048504515,0.4599324958253653,-2.289579531835988e-05,9.070606028472542e-05,3.679459966602922e-06,9.073584605892032e-05,9.058436859723796e-05
97.57735026920001,59.5773502692,8,0,-0.01835771889225324,28.54631327238084,0.4453169852082506,-2.289579531835988e-05,9.136288864673248e-05,3.562535881666004e-06,9.139065147921129e-05,9.097309436400959e-05
98.42264973080002,58.42264973080002,8,0,-0.01427969416999098,28.70724090891188,0.1044919349291843,-2.301148774847347e-05,9.1874594663854e-05,8.359354794334746e-07,9.187611525464777e-05,9.071609813303383e-05
99.57735026920002,58.42264973080002,8,0,0.04748517877735736,28.95430040070127,0.08836779304075693,-2.301148774847347e-05,9.261577313922218e-05,7.069423443260554e-07,9.26168536863268e-05,9.089177379408613e-05
98.42264973080002,59.5773502692,8,0,-0.05727740587241037,28.69649148098627,0.1971392443501116,-2.314048088358073e-05,9.1874594663854e-05,1.577113954800893e-06,9.188000084975442e-05,9.118252597434438e-05
99.57735026920002,59.5773502692,8,0,0.004487467074920204,28.9435509727756,0.1810151024616842,-2.314048088358073e-05,9.261577313922196e-05,1.448120819693473e-06,9.262030199142982e-05,9.136597800774267e-05
0.4226497308,60.4226497308,8,0,-0.02698201130198563,5.12059042611182,-0.192164875464519,-4.18281477705581e-06,1.640747497259941e-05,-1.537319003716152e-06,1.643613004854022e-05,1.857016420968799e-05
1.5773502692,60.4226497308,8,0,0.05814948270530351,5.461116402140977,-0.2075205663799531,-4.18281477705581e-06,1.742905290068688e-05,-1.660164531039625e-06,1.746088832940909e-05,1.891265496545404e-05
0.4226497308,61.57735026920001,8,0,-0.06793052040953884,5.110353298834933,-0.06446763445381579,-4.30566030437847e-06,1.640747497259941e-05,-5.157410756305263e-07,1.641068486381011e-05,1.901083644164743e-05
1.5773502692,61.57735026920001,8,0,0.0172009735977503,5.450879274864089,-0.07982332536908728,-4.30566030437847e-06,1.742905290068688e-05,-6.385866029526982e-07,1.743374245970899e-05,1.934457186477696e-05
2.4226497308,60.4226497308,8,0,-0.05373003877543847,5.676466041895658,-0.454254107962285,-4.713108957597929e-06,1.820767536508646e-05,-3.63403286369828e-06,1.835082306041573e-05,1.933596536188585e-05
3.5773502692,60.4226497308,8,0,0.03840814494621836,6.045018776782285,-0.4681499528292162,-4.713108957597929e-06,1.931333356974634e-05,-3.74519962263373e-06,1.945840639625348e-05,2.014998011659281e-05
2.4226497308,61.57735026920001,8,0,-0.09078562508730892,5.667202145317827,-0.3160468323798677,-4.82427571653365e-06,1.820767536508689e-05,-2.528374659038941e-06,1.827685680468297e-05,1.975701413408581e-05
3.5773502692,61.57735026920001,8,0,0.001352558634320822,6.035754880204346,-0.3299426772467311,-4.82427571653365e-06,1.931333356974645e-05,-2.639541417973849e-06,1.93852801487746e-05,2.055009194594494e-05
4.422649730800001,60.4226497308,8,0,-0.09934219178726234,6.271929660658333,-0.6932642463872108,-5.335438742245905e-06,2.014964866753647e-05,-5.546113971097687e-06,2.044789731265851e-05,2.084301742534295e-05
5.577350269200001,60.4226497308,8,0,-0.001075763975711519,6.664995371904537,-0.705470169701079,-5.335438742245905e-06,2.132884580127508e-05,-5.643761357608632e-06,2.16242135045567e-05,2.192241580976268e-05
4.422649730800001,61.57735026920001,8,0,-0.1318913206243704,6.263792378449192,-0.5458646046698303,-5.433086128757338e-06,2.014964866753691e-05,-4.366916837358643e-06,2.033466638160354e-05,2.122547019184174e-05
5.577350269200001,61.57735026920001,8,0,-0.03362489281283754,6.656858089695323,-0.5580705279837933,-5.433086128757338e-06,2.13288458012753e-05,-4.464564223870347e-06,2.151376843908153e-05,2.227756006217787e-05
6.422649730800001,60.4226497308,8,0,-0.1613657377409154,6.901953611655104,-0.9081044732794593,-6.037933250095011e-06,2.221534414748906e-05,-7.264835786235675e-06,2.267487631964363e-05,2.276894711876237e-05
7.577350269200001,60.4226497308,8,0,-0.05780228865373682,7.316207408003819,-0.9184492714310323,-6.037933250095011e-06,2.34581055365352e-05,-7.347594171448258e-06,2.390879862331767e-05,2.400231528082593e-05
6.422649730800001,61.57735026920001,8,0,-0.1889518661452905,6.89505707955401,-0.7527592996485694,-6.120691635308137e-06,2.221534414748906e-05,-6.022074397188555e-06,2.253176880602345e-05,2.310305837124372e-05
7.577350269200001,61.57735026920001,8,0,-0.08538841705804878,7.309310875902977,-0.7631040978002372,-6.120691635308137e-06,2.345810553653596e-05,-6.104832782401898e-06,2.376981804743541e-05,2.430627182293359e-05
8.4226497308,60.4226497308,8,0,-0.2375373118147337,7.561767945496487,-1.098032524004278,-6.809533754204337e-06,2.438768727504054e-05,-8.784260192034221e-06,2.499424435496118e-05,2.493880135337193e-05
9.5773502692,60.4226497308,8,0,-0.129462049277671,7.994068995644738,-1.106386785522921,-6.809533754204337e-06,2.56845904254853e-05,-8.851094284183366e-06,2.627654535143296e-05,2.626396072219346e-05
8.4226497308,61.57735026920001,8,0,-0.2598153425311875,7.556198437817374,-0.9359196301986835,-6.876367846353698e-06,2.438768727504054e-05,-7.487357041589468e-06,2.482972001426311e-05,2.522038160009758e-05
9.5773502692,61.57735026920001,8,0,-0.1517400799940885,7.98849948796577,-0.9442738917172588,-6.876367846353698e-06,2.568459042548573e-05,-7.554191133738071e-06,2.611699409943394e-05,2.651456250342136e-05
10.4226497308,60.4226497308,8,0,-0.325761994393079,8.246854041649872,-1.262576583569561,-7.639921615377749e-06,2.665054252879405e-05,-1.010061266855649e-05,2.737888248011002e-05,2.725441381659289e-05
11.5773502692,60.4226497308,8,0,-0.2139180715943887,8.694229732844633,-1.268839267142276,-7.639921615377749e-06,2.799266960237833e-05,-1.015071413713821e-05,2.870148232237117e-05,2.863522262429946e-05
10.4226497308,61.57735026920001,8,0,-0.3424624839203734,8.242678919268183,-1.094810699371499,-7.690023083959741e-06,2.665054252879448e-05,-8.758485594971988e-06,2.720020270004296e-05,2.748243619587469e-05
11.5773502692,61.57735026920001,8,0,-0.2306185611217284,8.690054610462763,-1.101073382944349,-7.690023083959741e-06,2.799266960237822e-05,-8.808587063554793e-06,2.852825012011189e-05,2.883253539575512e-05
12.4226497308,60.4226497308,8,0,-0.4240839379473669,8.952923984754301,-1.401474733460451,-8.519407789235015e-06,2.898862390157166e-05,-1.121179786768361e-05,2.98085502545628e-05,2.965830676918063e-05
13.5773502692,60.4226497308,8,0,-0.3091780484517912,9.412547542736604,-1.405563586159516,-8.519407789235015e-06,3.036749457551856e-05,-1.124450868927613e-05,3.116404185651304e-05,3.107261582582642e-05
12.4226497308,61.57735026920001,8,0,-0.4349875451452352,8.950198082954834,-1.229115899217142,-8.55211861082862e-06,2.898862390157166e-05,-9.832927193737136e-06,2.962182065218197e-05,2.983343863173374e-05
13.5773502692,61.57735026920001,8,0,-0.3200816556496866,9.409821640937029,-1.233204751916329,-8.55211861082862e-06,3.036749457551824e-05,-9.865638015330632e-06,3.098296571407495e-05,3.121785792612326e-05
14.4226497308,60.4226497308,8,0,-0.5306533939035227,9.675891631332117,-1.514632152132127,-9.438804165556966e-06,3.138737593538559e-05,-1.211705721705701e-05,3.226747762098357e-05,3.211491216358706e-05
15.5773502692,60.4226497308,8,0,-0.4133619756516529,10.1450573043396,-1.516477839682756,-9.438804165556966e-06,3.279487295440803e-05,-1.213182271746205e-05,3.364883664150667e-05,3.354820965836739e-05
14.4226497308,61.57735026920001,8,0,-0.5355752273718508,9.674661172965036,-1.338695024754417,-9.453569665961951e-06,3.138737593538559e-05,-1.070956019803533e-05,3.20777860937899e-05,3.223866678444946e-05
15.5773502692,61.57735026920001,8,0,-0.4182838091200081,10.14382684597241,-1.340540712305019,-9.453569665961951e-06,3.279487295440771e-05,-1.072432569844016e-05,3.346481408243607e-05,3.364314915594207e-05
16.4226497308,60.4226497308,8,0,-0.6436943681099625,10.4118407707917,-1.602094981066716,-1.038929459458524e-05,3.383284596102142e-05,-1.281675984853372e-05,3.474278265693026e-05,3.460064406412078e-05
17.5773502692,60.4226497308,8,0,-0.5246695371055372,10.88794009480941,-1.601638552388117,-1.038929459458524e-05,3.526114393307452e-05,-1.281310841910494e-05,3.614319299104514e-05,3.604265083761451e-05
16.4226497308,61.57735026920001,8,0,-0.642477224967251,10.41214505657738,-1.423557734559996,-1.038564316515711e-05,3.383284596102142e-05,-1.138846187647997e-05,3.455434735877412e-05,3.467492148213329e-05
17.5773502692,61.57735026920001,8,0,-0.5234523939628528,10.88824438059498,-1.423101305881398,-1.038564316515711e-05,3.52611439330742e-05,-1.138481044705118e-05,3.596030913777263e-05,3.608929352775846e-05
18.4226497308,60.4226497308,8,0,-0.7614763222720637,11.15699498797117,-1.664038762408596,-1.136232022164754e-05,3.631156501932541e-05,-1.331231009926877e-05,3.722344527058655e-05,3.709857053365479e-05
19.5773502692,60.4226497308,8,0,-0.6413508385180413,11.63749692298726,-1.661231888726845,-1.136232022164754e-05,3.775307082437367e-05,-1.328985510981476e-05,3.863619823637958e-05,3.854139001857846e-05
18.4226497308,61.57735026920001,8,0,-0.753991325787339,11.15886623709236,-1.48385053677755,-1.133986523219337e-05,3.631156501932541e-05,-1.18708042942204e-05,3.703974367646245e-05,3.712543032104191e-05
19.5773502692,61.57735026920001,8,0,-0.6338658420333076,11.63936817210848,-1.481043663095825,-1.133986523219337e-05,3.775307082437378e-05,-1.18483493047666e-05,3.845783916137514e-05,3.854183663837896e-05
20.4226497308,60.4226497308,8,0,-0.8822924238846319,11.90769285736557,-1.700768653144878,-1.234949004232328e-05,3.881045108267752e-05,-1.360614922515902e-05,3.969964594265901e-05,3.95955142322e-05
21.5773502692,60.4226497308,8,0,-0.7616831919113483,12.3901297852587,-1.695575968730246,-1.234949004232328e-05,4.025776186635693e-05,-1.356460774984197e-05,4.111808967794719e-05,4.103261565650144e-05
20.4226497308,61.57735026920001,8,0,-0.8684452654454695,11.91115464697536,-1.519854805184979,-1.230794856700579e-05,3.881045108267752e-05,-1.215883844147983e-05,3.952351864661843e-05,3.957708055206447e-05
21.5773502692,61.57735026920001,8,0,-0.747836033472177,12.39359157486853,-1.514662120770198,-1.230794856700579e-05,4.025776186635703e-05,-1.211729696616159e-05,4.094703485236987e-05,4.098901320526292e-05
22.4226497308,60.4226497308,8,0,-1.004445905524669,12.6603710339429,-1.712728221355057,-1.334252372483326e-05,4.131674403303701e-05,-1.370182577084046e-05,4.216234565125888e-05,4.208045802467765e-05
23.5773502692,60.4226497308,8,0,-0.8839557138477767,13.14233180065047,-1.70513104502078,-1.334252372483326e-05,4.276262633315972e-05,-1.364104836016624e-05,4.35798714603155e-05,4.350611518867866e-05
22.4226497308,61.57735026920001,8,0,-0.9841867686333541,12.66543581816573,-1.531992933839733,-1.328174631415931e-05,4.131674403303701e-05,-1.225594347071786e-05,4.199607681897033e-05,4.201889653995286e-05
23.5773502692,61.57735026920001,8,0,-0.8636965769564258,13.14739658487344,-1.524395757505469,-1.328174631415931e-05,4.276262633316015e-05,-1.219516606004376e-05,4.341836610547035e-05,4.342065748311542e-05
24.4226497308,60.4226497308,8,0,-1.12624519192798,13.41155673446327,-1.700513511359778,-1.433323000174015e-05,4.381797770382483e-05,-1.360410809087822e-05,4.460302820825652e-05,4.454366624977428e-05
25.5773502692,60.4226497308,8,0,-1.006462586553483,13.89068715596126,-1.690514238389371,-1.433323000174015e-05,4.52553689683188e-05,-1.352411390711497e-05,4.601308571866703e-05,4.595265130025404e-05
24.4226497308,61.57735026920001,8,0,-1.099580464007077,13.41822291644349,-1.520839603297937,-1.425323581797744e-05,4.381797770382483e-05,-1.216671682638349e-05,4.444840723962229e-05,4.44411971598576e-05
25.5773502692,61.57735026920001,8,0,-0.979797858632534,13.89735333794166,-1.510840330327652,-1.425323581797744e-05,4.525536896831934e-05,-1.208672264262122e-05,4.586289667420861e-05,4.582760246481313e-05
26.4226497308,60.4226497308,8,0,-1.246007644147606,14.15787009660367,-1.664889191999155,-1.531352053855527e-05,4.630199042444981e-05,-1.331911353599324e-05,4.701355432256299e-05,4.697620794765926e-05
27.57735026920001,60.4226497308,8,0,-1.127504999975403,14.63188067329248,-1.65251570563174,-1.531352053855527e-05,4.772402215451625e-05,-1.322012564505392e-05,4.840968959695734e-05,4.836363166243431e-05
26.4226497308,61.57735026920001,8,0,-1.213011680501165,14.16611908751514,-1.48713522574081,-1.521453264761584e-05,4.630199042444938e-05,-1.189708180592648e-05,4.687192372299366e-05,4.683513434588533e-05
27.57735026920001,61.57735026920001,8,0,-1.09450903632888,14.64012966420428,-1.474761739373462,-1.521453264761584e-05,4.772402215451679e-05,-1.17980939149877e-05,4.827214900726188e-05,4.820135733038152e-05
28.4226497308,60.4226497308,8,0,-1.362071095332815,14.89603601711497,-1.606803930687847,-1.627545631875698e-05,4.875697213103415e-05,-1.285443144550277e-05,4.938609376906331e-05,4.936971182954476e-05
29.5773502692,60.4226497308,8,0,-1.245401088034771,15.36271604630715,-1.592113479237625,-1.627545631875698e-05,5.015701221861067e-05,-1.2736907833901e-05,5.07620053712433e-05,5.073095024791973e-05
28.4226497308,61.57735026920001,8,0,-1.322896558132349,14.90582965141509,-1.431798919740781,-1.615793270715558e-05,4.875697213103415e-05,-1.145439135792625e-05,4.925838783393251e-05,4.919245140875958e-05
29.5773502692,61.57735026920001,8,0,-1.206226550834296,15.3725096806073,-1.417108468290587,-1.615793270715558e-05,5.015701221861078e-05,-1.133686774632469e-05,5.063804630255977e-05,5.053394780158801e-05
30.4226497308,60.4226497308,8,0,-1.472811839119036,15.62290434550039,-1.527402613248988,-1.721132136158122e-05,5.117154337689646e-05,-1.22192209059919e-05,5.171311242342345e-05,5.171625816983698e-05
31.5773502692,60.4226497308,8,0,-1.35850262388248,16.08014120644661,-1.51048472086256,-1.721132136158122e-05,5.254325395973513e-05,-1.208387776690048e-05,5.306272067056767e-05,5.304693105535449e-05
30.4226497308,61.57735026920001,8,0,-1.427697459421804,15.63418294042456,-1.35593879039414,-1.707597822248942e-05,5.117154337689602e-05,-1.084751032315312e-05,5.15998906339829e-05,5.150537153785808e-05
31.5773502692,61.57735026920001,8,0,-1.313388244185239,16.09141980137082,-1.339020898007603,-1.707597822248942e-05,5.254325395973481e-05,-1.071216718406083e-05,5.295290821676348e-05,5.281785414831067e-05
32.4226497308,60.4226497308,8,0,-1.576667391270941,16.33547677084353,-1.428033600529247,-1.811371706874184e-05,5.353485957971605e-05,-1.142426880423398e-05,5.398739737582644e-05,5.400835291228096e-05
33.57735026920001,60.4226497308,8,0,-1.465216861926412,16.78127888822165,-1.409011713870216,-1.811371706874184e-05,5.487226593185041e-05,-1.127209371096173e-05,5.530492206023997e-05,5.530433338750547e-05
32.4226497308,61.57735026920001,8,0,-1.525942360180211,16.34815802861621,-1.260857806512452,-1.796154197546964e-05,5.353485957971605e-05,-1.008686245209962e-05,5.388887559509845e-05,5.376656493125514e-05
33.57735026920001,61.57735026920001,8,0,-1.414491830835699,16.79396014599426,-1.241835919853326,-1.796154197546964e-05,5.487226593185019e-05,-9.934687358826612e-06,5.520948279204594e-05,5.504600838160552e-05
34.42264973080001,60.4226497308,8,0,-1.67216217553414,17.03093839462445,-1.310249823218373,-1.897566967740881e-05,5.583673260322556e-05,-1.048199858574698e-05,5.620210751339596e-05,5.623895101851905e-05
35.5773502692,60.4226497308,8,0,-1.564031709168924,17.46346026008532,-1.289281531283753,-1.897566967740881e-05,5.713429819960815e-05,-1.031425225027003e-05,5.748214947454047e-05,5.749639339698188e-05
34.42264973080001,61.57735026920001,8,0,-1.616246730375065,17.04491725591422,-1.14805412367063,-1.880792334193158e-05,5.583673260322556e-05,-9.184432989365037e-06,5.611818924904351e-05,5.596916352897596e-05
35.5773502692,61.57735026920001,8,0,-1.508116264009867,17.47743912137502,-1.127085831735943,-1.880792334193158e-05,5.713429819960794e-05,-9.016686653887541e-06,5.740100134019647e-05,5.721182684461761e-05
36.4226497308,60.4226497308,8,0,-1.757934270087238,17.70669182466454,-1.175803117084705,-1.979074312401078e-05,5.806776125499629e-05,-9.40642493667764e-06,5.835083982453211e-05,5.840150821070168e-05
37.5773502692,60.4226497308,8,0,-1.653542361917708,18.12425945734265,-1.153078906968749,-1.979074312401078e-05,5.932046415303065e-05,-9.224631255749989e-06,5.958846199226296e-05,5.961688549010975e-05
36.4226497308,61.57735026920001,8,0,-1.697336376444759,17.72184129807516,-1.019215254830289,-1.960894944308335e-05,5.806776125499629e-05,-8.15372203864231e-06,5.828114904232812e-05,5.810680373252921e-05
37.5773502692,61.57735026920001,8,0,-1.592944468275221,18.13940893075331,-0.9964910447144001,-1.960894944308335e-05,5.932046415303076e-05,-7.971928357715201e-06,5.952124604592199e-05,5.930926274636587e-05
38.4226497308,60.4226497308,8,0,-1.832761466150954,18.36039163502163,-1.026631751823679,-2.055314999970036e-05,6.021946240498998e-05,-8.21305401458943e-06,6.042770377656445e-05,6.049004731499926e-05
39.5773502692,60.4226497308,8,0,-1.732477632622836,18.7615269691341,-1.002372372121556,-2.055314999970036e-05,6.142286840732738e-05,-8.018978976972449e-06,6.161850771175437e-05,6.166019250452034e-05
38.4226497308,61.57735026920001,8,0,-1.768069786945185,18.37656455482321,-0.8762060015315033,-2.035907496208316e-05,6.021946240499041e-05,-7.009648012252026e-06,6.037162003616383e-05,6.017368410452147e-05
39.5773502692,61.57735026920001,8,0,-1.667785953417114,18.77769988893549,-0.8519466218293806,-2.035907496208316e-05,6.142286840732727e-05,-6.815572974635045e-06,6.156462237011601e-05,6.133286816041396e-05
40.4226497308,60.4226497308,8,0,-1.895585103743888,18.98997718493044,-0.8648415789126073,-2.125785407992479e-05,6.22843950747725e-05,-6.918732631300858e-06,6.242739775497554e-05,6.249922975884288e-05
41.5773502692,60.4226497308,8,0,-1.799724384968867,19.37342006003052,-0.8392941699844971,-2.125785407992479e-05,6.343472370007276e-05,-6.714353359875977e-06,6.356759226423676e-05,6.36213769776715e-05
40.4226497308,61.57735026920001,8,0,-1.827458679935937,19.00700879088243,-0.7210505007500343,-2.105347480850094e-05,6.22843950747725e-05,-5.768404006000274e-06,6.238409382355547e-05,6.216462909636519e-05
41.5773502692,61.57735026920001,8,0,-1.731597961160934,19.39045166598244,-0.6955030918221003,-2.105347480850094e-05,6.343472370007254e-05,-5.564024734576803e-06,6.352623020049037e-05,6.327785817733913e-05
42.4226497308,60.4226497308,8,0,-1.94553042830217,19.59370204308852,-0.6926816003176902,-2.190065900503776e-05,6.425627088052499e-05,-5.541452802541522e-06,6.434528289224193e-05,6.442442563434586e-05
43.57735026920001,60.4226497308,8,0,-1.854348760584973,19.95842871395731,-0.6661148149591047,-2.190065900503776e-05,6.535045089313136e-05,-5.328918519672838e-06,6.543174194971192e-05,6.549624814659481e-05
42.4226497308,61.57735026920001,8,0,-1.874685667345762,19.61141323332762,-0.5559090987419346,-2.168812472216853e-05,6.425627088052499e-05,-4.447272789935477e-06,6.431376448749647e-05,6.407515251130377e-05
43.57735026920001,61.57735026920001,8,0,-1.783503999628583,19.97613990419634,-0.5293423133832407,-2.168812472216853e-05,6.535045089313114e-05,-4.234738507065926e-06,6.540192924630141e-05,6.514017205940068e-05
44.4226497308,60.4226497308,8,0,-1.981922525116413,20.17015858752341,-0.5125150348548771,-2.247827895039125e-05,6.613004550016805e-05,-4.100120278839017e-06,6.617745074503689e-05,6.626177774890852e-05
45.5773502692,60.4226497308,8,0,-1.89561318651524,20.51539594192811,-0.4852134144977366,-2.247827895039125e-05,6.716575756338214e-05,-3.881707315981893e-06,6.720775867104215e-05,6.728142100496759e-05
44.4226497308,61.57735026920001,8,0,-1.909118204164002,20.18835966776152,-0.3830510269530753,-2.225986598753402e-05,6.613004550016805e-05,-3.064408215624603e-06,6.61565976753031e-05,6.590151627795144e-05
45.5773502692,61.57735026920001,8,0,-1.822808865562819,20.53359702216625,-0.3557494065959212,-2.225986598753402e-05,6.716575756338225e-05,-2.84599525276737e-06,6.71883954795528e-05,6.691652781707242e-05
46.42264973080001,60.4226497308,8,0,-2.004297210783513,20.71829671456493,-0.3267871356355851,-2.298838844615918e-05,6.790198725523458e-05,-2.614297085084681e-06,6.792078224917415e-05,6.800825657599995e-05
47.57735026920001,60.4226497308,8,0,-1.922988472362497,21.043531668249,-0.2990450281594288,-2.298838844615918e-05,6.887769211628677e-05,-2.392360225275431e-06,6.889326483195764e-05,6.897436502883407e-05
46.42264973080001,61.57735026920001,8,0,-1.930318257513762,20.73679145288237,-0.2048240280040484,-2.276645158634993e-05,6.790198725523458e-05,-1.638592224032388e-06,6.790938995597325e-05,6.764078150355678e-05
47.57735026920001,61.57735026920001,8,0,-1.849009519092756,21.06202640656639,-0.1770819205278921,-2.276645158634993e-05,6.887769211628666e-05,-1.416655364223137e-06,6.888316653195305e-05,6.860446783356422e-05
48.4226497308,60.4226497308,8,0,-2.012406573230236,21.23743596705296,-0.1379910995122086,-2.342964980797912e-05,6.956972035315366e-05,-1.103928796097669e-06,6.957299622442948e-05,6.96617041776797e-05
49.57735026920001,60.4226497308,8,0,-1.936160619695105,21.54241978119348,-0.1101064080243162,-2.342964980797912e-05,7.048467179557522e-05,-8.808512641945293e-07,7.048673719378315e-05,7.057344120160282e-05
48.4226497308,61.57735026920001,8,0,-1.938047395929171,21.25602576137823,-0.02362216920958086,-2.320657227607593e-05,6.956972035315366e-05,-1.889773536766469e-07,6.956981658572059e-05,6.929084986807451e-05
49.57735026920001,61.57735026920001,8,0,-1.861801442394014,21.56100957551886,0.004262522278392945,-2.320657227607593e-05,7.048467179557555e-05,3.410017822714356e-08,7.048467489837914e-05,7.020239412983141e-05
50.42264973080001,60.4226497308,8,0,-2.006219142077511,21.7272707619201,0.05136658025753989,-2.380171786418411e-05,7.11322417518063e-05,4.109326420603191e-07,7.113268644210995e-05,7.122086610361384e-05
51.57735026920001,60.4226497308,8,0,-1.93503226044971,22.0120182884313,0.07909853955314185,-2.380171786418411e-05,7.198648433133991e-05,6.327883164251348e-07,7.198752938875733e-05,7.207792680614535e-05
50.42264973080001,61.57735026920001,8,0,-1.93226725062241,21.74575873478387,0.1581469026991464,-2.357986218981881e-05,7.11322417518063e-05,1.265175221593171e-06,7.113646665252008e-05,7.085049430860814e-05
51.57735026920001,61.57735026920001,8,0,-1.861080368994609,22.03050626129507,0.1858788619948297,-2.357986218981881e-05,7.198648433133991e-05,1.487030895958637e-06,7.199226860356231e-05,7.1709592663739e-05
52.4226497308,60.4226497308,8,0,-1.985914932314673,22.18786874662802,0.2388000216240415,-2.410522278070937e-05,7.258991193506139e-05,1.910400172992332e-06,7.259934693082181e-05,7.268541104918982e-05
53.5773502692,60.4226497308,8,0,-1.919718907931894,22.45265284415914,0.2660922973330934,-2.410522278070937e-05,7.338426422765474e-05,2.128738378664747e-06,7.339588339604804e-05,7.348802816352388e-05
52.4226497308,61.57735026920001,8,0,-1.913135530423959,22.2060635971007,0.3380940581981968,-2.388688457503722e-05,7.258991193506139e-05,2.704752465585575e-06,7.26088653239613e-05,7.231937869022853e-05
53.5773502692,61.57735026920001,8,0,-1.846939506041152,22.47084769463192,0.3653863339071945,-2.388688457503722e-05,7.338426422765507e-05,2.923090671257556e-06,7.340621968672184e-05,7.31262467412835e-05
54.42264973080001,60.4226497308,8,0,-1.951875832946731,22.61966263295534,0.4218759341945773,-2.434173277179381e-05,7.394442109181446e-05,3.375007473556619e-06,7.397338580144373e-05,7.405593872602392e-05
55.57735026920001,60.4226497308,8,0,-1.890540439566423,22.86500420647657,0.4484551307916494,-2.434173277179381e-05,7.468044581237815e-05,3.587641046333195e-06,7.471293082572805e-05,7.480488212266095e-05
54.42264973080001,61.57735026920001,8,0,-1.880997975354521,22.63738209735339,0.5138790242651065,-2.412909919901718e-05,7.394442109181446e-05,4.111032194120852e-06,7.398748360280518e-05,7.369806680381576e-05
55.57735026920001,61.57735026920001,8,0,-1.819662581974213,22.88272367087462,0.5404582208621785,-2.412909919901718e-05,7.468044581237815e-05,4.323665766897428e-06,7.472772147210736e-05,7.445344021645255e-05
56.4226497308,60.4226497308,8,0,-1.904672006274322,23.02343613842408,0.5982426398657835,-2.451369933081709e-05,7.51987332479765e-05,4.785941118926268e-06,7.525612843674838e-05,7.53339769934708e-05
57.57735026920001,60.4226497308,8,0,-1.848008432401446,23.25009043391558,0.6238533396535887,-2.451369933081709e-05,7.587869613445101e-05,4.99082671722871e-06,7.594068534328995e-05,7.603054766597182e-05
56.4226497308,61.57735026920001,8,0,-1.836376806840211,23.04050993828261,0.6832380006751236,-2.430881373251476e-05,7.51987332479765e-05,5.465904005400989e-06,7.527373661576476e-05,7.498802159972827e-05
57.57735026920001,61.57735026920001,8,0,-1.779713232967281,23.26716423377433,0.7088487004629695,-2.430881373251476e-05,7.587869613445166e-05,5.670789603703756e-06,7.59588761375293e-05,7.569315168704321e-05
58.4226497308,60.4226497308,8,0,-1.84504512028207,23.40030490432236,0.7656552943724048,-2.462438830836051e-05,7.63570117900572e-05,6.125242354979238e-06,7.644981142143577e-05,7.652196983586095e-05
59.57735026920001,60.4226497308,8,0,-1.792810138052779,23.60924483323952,0.790063574926137,-2.462438830836051e-05,7.698383157680869e-05,6.320508599409096e-06,7.708202800925021e-05,7.716798949951984e-05
58.4226497308,61.57735026920001,8,0,-1.779956372138856,23.41657709135816,0.8440077677164906,-2.442912206393087e-05,7.63570117900572e-05,6.752062141731924e-06,7.646997202913466e-05,7.619159606978632e-05
59.57735026920001,61.57735026920001,8,0,-1.727721389909565,23.62551702027532,0.8684160482701686,-2.442912206393087e-05,7.698383157680869e-05,6.947328386161349e-06,7.710267457305186e-05,7.684824136093073e-05
60.4226497308,60.4226497308,8,0,-1.773889352652519,23.75169344906375,0.9219966956785456,-2.467780068773906e-05,7.742453051912601e-05,7.375973565428365e-06,7.75575690804411e-05,7.762325824721227e-05
61.5773502692,60.4226497308,8,0,-1.725790009773168,23.94409082058116,0.9449926592366796,-2.467780068773906e-05,7.800172263367823e-05,7.559941273893437e-06,7.814068769959471e-05,7.822105593340023e-05
60.4226497308,61.57735026920001,8,0,-1.712566783164053,23.76702409143587,0.9941457099974914,-2.449383297927366e-05,7.742453051912601e-05,7.953165679979932e-06,7.757945069523916e-05,7.731201762803684e-05
61.5773502692,61.57735026920001,8,0,-1.664467440284711,23.95942146295324,1.01714167355572,-2.449383297927366e-05,7.800172263367812e-05,8.137133388445763e-06,7.816297093203388e-05,7.792243266202488e-05
62.42264973080001,60.4226497308,8,0,-1.692231175898164,24.07930935057542,1.06529331434096,-2.467858724333446e-05,7.840757486255985e-05,8.522346514727676e-06,7.858341493099683e-05,7.864205648721536e-05
63.57735026920001,60.4226497308,8,0,-1.647929776301065,24.25651494896382,1.08669260073441,-2.467858724333446e-05,7.893919165772505e-05,8.693540805875281e-06,7.912121909690852e-05,7.919445370411393e-05
62.42264973080001,61.57735026920001,8,0,-1.635166412182151,24.09357554150442,1.131745413736622,-2.450739295218642e-05,7.840757486255985e-05,9.053963309892978e-06,7.860632206994951e-05,7.835336819868203e-05
63.57735026920001,61.57735026920001,8,0,-1.590865012585051,24.27078113989282,1.153144700130073,-2.450739295218642e-05,7.893919165772505e-05,9.225157601040583e-06,7.914445459990576e-05,7.892029094567837e-05
64.4226497308,60.4226497308,8,0,-1.601208954926857,24.38511592620802,1.193726444461579,-2.463196139673235e-05,7.931333812780713e-05,9.549811555692629e-06,7.953222071034278e-05,7.958342646842936e-05
65.57735026920001,60.4226497308,8,0,-1.560328090708948,24.54863938307965,1.21337075528562,-2.463196139673235e-05,7.980390849842204e-05,9.706966042284963e-06,8.002898097438914e-05,8.009372260644631e-05
64.4226497308,61.57735026920001,8,0,-1.548824126062692,24.39821213342406,1.255047740788509,-2.447480691013986e-05,7.931333812780713e-05,1.004038192630808e-05,7.955559727793952e-05,7.932056247016752e-05
65.57735026920001,61.57735026920001,8,0,-1.50794326184482,24.56173559029555,1.27469205161247,-2.447480691013986e-05,7.98039084984216e-05,1.019753641289976e-05,8.005262251889556e-05,7.984720186494508e-05
66.4226497308,60.4226497308,8,0,-1.502053358827949,24.67130468974053,1.305638639717243,-2.454361450004186e-05,8.014981769423205e-05,1.044510911773794e-05,8.040969588217137e-05,8.045325317927806e-05
67.57735026920001,60.4226497308,8,0,-1.464180764895848,24.82279506546894,1.323395355860098,-2.454361450004186e-05,8.060428882141727e-05,1.058716284688078e-05,8.08701176060238e-05,8.092521283315356e-05
66.4226497308,61.57735026920001,8,0,-1.454702115780391,24.68314250050242,1.3624475306153,-2.440156077089918e-05,8.014981769423205e-05,1.08995802449224e-05,8.043312290713364e-05,8.02193268770281e-05
67.57735026920001,61.57735026920001,8,0,-1.416829521848353,24.83463287623057,1.380204246758114,-2.440156077089918e-05,8.060428882141651e-05,1.104163397406491e-05,8.089375488185192e-05,8.070935192207173e-05
68.42264973080002,60.4226497308,8,0,-1.396069508626671,24.94026881188302,1.39953585392676,-2.441963747711176e-05,8.092571580492697e-05,1.119628683141408e-05,8.122237061364568e-05,8.1258223977491e-05
69.57735026920001,60.4226497308,8,0,-1.360762531732879,25.08149671945818,1.41529687839986,-2.441963747711176e-05,8.134939952765248e-05,1.132237502719888e-05,8.165154609550136e-05,8.169606768947073e-05
68.42264973080002,61.57735026920001,8,0,-1.354040110031792,24.95077616153173,1.452496319267408,-2.429354928132712e-05,8.092571580492697e-05,1.161997055413927e-05,8.124555865351922e-05,8.105618176722725e-05
69.57735026920001,61.57735026920001,8,0,-1.318733133137964,25.09200406910705,1.468257343740522,-2.429354928132712e-05,8.134939952765291e-05,1.174605874992418e-05,8.167489711878427e-05,8.151371348077007e-05
70.4226497308,60.4226497308,8,0,-1.284621656969099,25.19457869671502,1.47408593627854,-2.426645225967313e-05,8.165034915506332e-05,1.179268749022832e-05,8.197758511502531e-05,8.200581421168218e-05
71.57735026920001,60.4226497308,8,0,-1.251411161143003,25.3274206800194,1.487765936901639,-2.426645225967313e-05,8.204887510497648e-05,1.190212749521311e-05,8.238095219498324e-05,8.24142137358879e-05
70.4226497308,61.57735026920001,8,0,-1.248141655307411,25.20369869713044,1.523901680017725,-2.415701225468806e-05,8.165034915506332e-05,1.21912134401418e-05,8.200036178134739e-05,8.183842881313653e-05
71.57735026920001,61.57735026920001,8,0,-1.214931159481305,25.33654068043486,1.537581680640797,-2.415701225468806e-05,8.204887510497659e-05,1.230065344512638e-05,8.240385082215895e-05,8.226803588565323e-05
72.4226497308,60.4226497308,8,0,-1.169121032572972,25.43696061934836,1.528114326015481,-2.40907557997122e-05,8.233357080797313e-05,1.222491460812385e-05,8.268348791339761e-05,8.270428079267417e-05
73.57735026920001,60.4226497308,8,0,-1.137514601289382,25.56338634448272,1.539648585822853,-2.40907557997122e-05,8.27128479833762e-05,1.231718868658282e-05,8.306679675675115e-05,8.308835920524418e-05
72.4226497308,61.57735026920001,8,0,-1.138363006420001,25.4446501258866,1.575523972940853,-2.399848172125328e-05,8.233357080797313e-05,1.260419178352682e-05,8.270578098609795e-05,8.257414487721565e-05
73.57735026920001,61.57735026920001,8,0,-1.106756575136375,25.57107585102111,1.58705823274821,-2.399848172125328e-05,8.271284798337664e-05,1.269646586198568e-05,8.308917577211957e-05,8.298084312233671e-05
74.4226497308,60.4226497308,8,0,-1.051017292987712,25.67027916082892,1.560597941534914,-2.389947866622381e-05,8.298570714904271e-05,1.248478353227931e-05,8.334904506369875e-05,8.336266376127746e-05
75.57735026920001,60.4226497308,8,0,-1.020501632276024,25.79234180367568,1.569940047603315,-2.389947866622381e-05,8.335189507758297e-05,1.255952038082652e-05,8.371833430321838e-05,8.372799933256985e-05
74.4226497308,61.57735026920001,8,0,-1.026105010138533,25.67650723154122,1.606371432602365,-2.382474181767628e-05,8.298570714904271e-05,1.285097146081892e-05,8.337086162874422e-05,8.327218196529907e-05
75.57735026920001,61.57735026920001,8,0,-0.995589349426881,25.79856987438782,1.615713538670807,-2.382474181767628e-05,8.335189507758254e-05,1.292570830936646e-05,8.374020451526331e-05,8.366143624140338e-05
76.42264973080002,60.4226497308,8,0,-0.9317938260002174,25.89752393816345,1.570658360237719,-2.369975939373146e-05,8.361751166292321e-05,1.256526688190175e-05,8.398406146250777e-05,8.399079303533334e-05
77.57735026920001,60.4226497308,8,0,-0.9018363195024213,26.01735396415464,1.577777973811595,-2.369975939373146e-05,8.397700174089676e-05,1.262222379049276e-05,8.434564429296512e-05,8.434342321193044e-05
76.42264973080002,61.57735026920001,8,0,-0.9128081898031066,25.90227034721273,1.615594619984386,-2.364280248514012e-05,8.361751166292321e-05,1.292475695987508e-05,8.400546343586312e-05,8.394217003021948e-05
77.57735026920001,61.57735026920001,8,0,-0.882850683305338,26.02210037320381,1.622714233558262,-2.364280248514012e-05,8.397700174089643e-05,1.298171386846609e-05,8.436707000751296e-05,8.43198947285947e-05
78.4226497308,60.4226497308,8,0,-0.8129669345128461,26.1218008739515,1.557555438204869,-2.349893488960231e-05,8.424013634425508e-05,1.246044350563895e-05,8.459921430607146e-05,8.459929224957676e-05
79.57735026920001,60.4226497308,8,0,-0.7830163488744706,26.24160321650501,1.562436391245076,-2.349893488960231e-05,8.459954337191559e-05,1.249949112996061e-05,8.495967448416676e-05,8.494570928394287e-05
78.4226497308,61.57735026920001,8,0,-0.7999510597389232,26.12505484264499,1.602481316662378,-2.345988726528054e-05,8.424013634425508e-05,1.281985053329902e-05,8.462029062163812e-05,8.459451408659366e-05
79.57735026920001,61.57735026920001,8,0,-0.7700004741005211,26.24485718519859,1.607362269702667,-2.345988726528054e-05,8.459954337191591e-05,1.285889815762133e-05,8.498074564221512e-05,8.496706342704546e-05
80.4226497308,60.4226497308,8,0,-0.6960887412279879,26.34632799371284,1.520682526900326,-2.330454636689984e-05,8.486512057286348e-05,1.216546021520261e-05,8.520609731309034e-05,8.519956163524993e-05
81.57735026920001,60.4226497308,8,0,-0.6655751263369707,26.46838245327691,1.523321483955077,-2.330454636689984e-05,8.523128395155569e-05,1.218657187164061e-05,8.557229433774411e-05,8.554668212230506e-05
80.4226497308,61.57735026920001,8,0,-0.6890515224152285,26.34808729841603,1.566452949236866,-2.328343471046156e-05,8.486512057286348e-05,1.253162359389492e-05,8.522693298129887e-05,8.524036702310035e-05
81.57735026920001,61.57735026920001,8,0,-0.6585379075242015,26.47014175798014,1.569091906291644,-2.328343471046156e-05,8.52312839515558e-05,1.255273525033315e-05,8.559309554194095e-05,8.561449699299352e-05
82.4226497308,60.4226497308,8,0,-0.5827534640038641,26.57443548904978,1.45956441425485,-2.312435947605219e-05,8.550439633616238e-05,1.16765153140388e-05,8.581727261509702e-05,8.580370249637444e-05
83.57735026920001,60.4226497308,8,0,-0.5510873363154278,26.70109999980352,1.459970325623887,-2.312435947605219e-05,8.588438986842362e-05,1.16797626049911e-05,8.61963546584202e-05,8.615877472988705e-05
82.4226497308,61.57735026920001,8,0,-0.5816710336863036,26.57470609662917,1.507063605787478,-2.312111218509951e-05,8.550439633616238e-05,1.205650884629982e-05,8.583791483741256e-05,8.589153982334716e-05
83.57735026920001,61.57735026920001,8,0,-0.5500049059978673,26.70137060738292,1.507469517156529,-2.312111218509951e-05,8.588438986842362e-05,1.205975613725223e-05,8.621693130014775e-05,8.627430494188501e-05
84.42264973080002,60.4226497308,8,0,-0.4746065425048442,26.80956954718465,1.373859057412962,-2.296639657376322e-05,8.617030778499475e-05,1.09908724593037e-05,8.644632522481101e-05,8.642430726403861e-05
85.57735026920001,60.4226497308,8,0,-0.4411774806182427,26.94328579473106,1.372053611705217,-2.296639657376322e-05,8.657145652763397e-05,1.097642889364174e-05,8.684574766385945e-05,8.679468340492138e-05
84.42264973080002,61.57735026920001,8,0,-0.479421064392092,26.80836591671284,1.424002650242796,-2.298084013942496e-05,8.617030778499475e-05,1.139202120194237e-05,8.64667468173071e-05,8.656027165461598e-05
85.57735026920001,61.57735026920001,8,0,-0.4459920025054815,26.94208216425928,1.422197204535065,-2.298084013942496e-05,8.657145652763408e-05,1.137757763628052e-05,8.68660694424678e-05,8.695878212456583e-05
86.4226497308,60.4226497308,8,0,-0.373355940470665,27.05529922417762,1.263364091340456,-2.283897838884822e-05,8.687564226974491e-05,1.010691273072364e-05,8.710791278656991e-05,8.70739611649743e-05
87.57735026920002,60.4226497308,8,0,-0.3375307604887574,27.19859994410525,1.259383354090642,-2.283897838884822e-05,8.730554442952781e-05,1.007506683272513e-05,8.753545946614443e-05,8.746658605401255e-05
86.4226497308,61.57735026920001,8,0,-0.3839712398033122,27.05264539934446,1.317101861313222,-2.287082428684617e-05,8.687564226974491e-05,1.053681489050578e-05,8.712797336428312e-05,8.725870282630857e-05
87.57735026920002,61.57735026920001,8,0,-0.3481460598213868,27.19594611927216,1.313121124063462,-2.287082428684617e-05,8.730554442952802e-05,1.05049689925077e-05,8.755538180382606e-05,8.767959095179648e-05
88.42264973080002,60.4226497308,8,0,-0.2807848014645913,27.3153254290564,1.128028996657892,-2.275077170793181e-05,8.763366921415213e-05,9.024231973263136e-06,8.781780101738517e-05,8.776414247086927e-05
89.57735026920001,60.4226497308,8,0,-0.2419055162085195,27.47084257008068,1.12192639738665,-2.275077170793181e-05,8.810022063722499e-05,8.975411179093203e-06,8.828160468135134e-05,8.818445683083628e-05
88.42264973080002,61.57735026920001,8,0,-0.2970583995213083,27.31125702954222,1.18634792454204,-2.279959250210196e-05,8.763366921415213e-05,9.490783396336319e-06,8.783720675789582e-05,8.79977312811158e-05
89.57735026920001,61.57735026920001,8,0,-0.2581791142652188,27.46677417056658,1.180245325270771,-2.279959250210196e-05,8.810022063722521e-05,9.441962602166169e-06,8.830082891719799e-05,8.844601869930198e-05
90.42264973080002,60.4226497308,8,0,-0.1987644936437292,27.59349088550591,0.9679736937459447,-2.271083908806466e-05,8.845818242853389e-05,7.743789549967558e-06,8.859287307682367e-05,8.850288169729342e-05
91.57735026920001,60.4226497308,8,0,-0.1561462954776482,27.76396367817024,0.9598244966152708,-2.271083908806466e-05,8.896960080652687e-05,7.678595972922166e-06,8.910143078409282e-05,8.895252025091763e-05
90.42264973080002,61.57735026920001,8,0,-0.2204956859922289,27.58805808741879,1.03190099099508,-2.277603266511016e-05,8.845818242853389e-05,8.255207927960638e-06,8.861113644128193e-05,8.878459976783081e-05
91.57735026920001,61.57735026920001,8,0,-0.177877487826148,27.75853088008311,1.023751793864365,-2.277603266511016e-05,8.896960080652687e-05,8.190014350914921e-06,8.911946460066344e-05,8.926133303138568e-05
92.42264973080002,60.4226497308,8,0,-0.1292669348760205,27.89378974194307,0.7835141969896704,-2.272868598515772e-05,8.936354072211863e-05,6.268113575917363e-06,8.945109938447287e-05,8.928986719668885e-05
93.57735026920001,60.4226497308,8,0,-0.08219647766101712,28.08207157080308,0.7734215590177428,-2.272868598515772e-05,8.992838620869867e-05,6.187372472141943e-06,9.001327824151808e-05,8.976187763872895e-05
92.42264973080002,61.57735026920001,8,0,-0.1561806361345388,27.88706131662844,0.8541198828121487,-2.280942708893327e-05,8.936354072211863e-05,6.832959062497189e-06,8.946750092653242e-05,8.961787349015787e-05
93.57735026920001,61.57735026920001,8,0,-0.1091101789195177,28.07534314548852,0.8440272448402347,-2.280942708893327e-05,8.992838620869889e-05,6.752217958721878e-06,9.002939853116753e-05,9.011522687496392e-05
94.4226497308,60.4226497308,8,0,-0.074374938476371,28.22037530531464,0.5751958077997978,-2.281430004737609e-05,9.036470092778793e-05,4.601566462398383e-06,9.041145357290364e-05,9.010629537509529e-05
95.57735026920002,60.4226497308,8,0,-0.0221092306336832,28.42943813668539,0.5632984915656265,-2.281430004737609e-05,9.099188942190018e-05,4.506387932525012e-06,9.103648185213999e-05,9.057525168787591e-05
94.4226497308,61.57735026920001,8,0,-0.1061011151008548,28.21244376115852,0.6535943695638293,-2.290947857724955e-05,9.036470092778793e-05,5.228754956510635e-06,9.042500886893474e-05,9.047704898647833e-05
95.57735026920002,61.57735026920001,8,0,-0.05383540725814928,28.42150659252934,0.6416970533296715,-2.290947857724955e-05,9.09918894219004e-05,5.133576426637372e-06,9.104970312005007e-05,9.09682119936735e-05
96.4226497308,60.4226497308,8,0,-0.03628915943330213,28.57756417623709,0.3438341389468388,-2.297817665117624e-05,9.147723669150534e-05,2.75067311157471e-06,9.149376083430605e-05,9.089389287202902e-05
97.57735026920001,60.4226497308,8,0,0.02194458271844457,28.81049914484408,0.3303159012066201,-2.297817665117624e-05,9.21760415973263e-05,2.642527209652961e-06,9.219119959826622e-05,9.129548046377567e-05
96.4226497308,61.57735026920001,8,0,-0.07233779340715518,28.56855201774363,0.4311847521744523,-2.30863225530978e-05,9.147723669150534e-05,3.449478017395619e-06,9.150319652336518e-05,9.13011028432236e-05
97.57735026920001,61.57735026920001,8,0,-0.01410405125539871,28.80148698635066,0.417666514434254,-2.30863225530978e-05,9.217604159732641e-05,3.341332115474032e-06,9.220025191920689e-05,9.171941455041276e-05
98.42264973080002,60.4226497308,8,0,-0.01733005254614461,28.96983486387182,0.09056403395160499,-2.323132405924512e-05,9.271733560642674e-05,7.245122716128399e-07,9.271846738515867e-05,9.151160232020864e-05
99.57735026920002,60.4226497308,8,0,0.04767309986523127,29.22984747351733,0.07566465440921673,-2.323132405924512e-05,9.349737343536326e-05,6.053172352737338e-07,9.349815817489158e-05,9.170047062088808e-05
98.42264973080002,61.57735026920001,8,0,-0.05706173132577419,28.95990194417692,0.1880687625686699,-2.335051909558401e-05,9.271733560642674e-05,1.504550100549359e-06,9.27222111508381e-05,9.194422777540661e-05
99.57735026920002,61.57735026920001,8,0,0.007941421085588374,29.21991455382237,0.1731693830263087,-2.335051909558401e-05,9.349737343536309e-05,1.38535506421047e-06,9.350147950260404e-05,9.214011722114012e-05
0.4226497308,62.4226497308,8,0,-0.02685949220768702,5.382579566887589,-0.1796169663292619,-4.39201402857467e-06,1.724574220780643e-05,-1.436935730634095e-06,1.726957222964048e-05,1.932149489900153e-05
1.5773502692,62.4226497308,8,0,0.05520358556028304,5.710831877959469,-0.1937516206560711,-4.39201402857467e-06,1.823049914102207e-05,-1.550012965248568e-06,1.825701837757659e-05,1.964917214762448e-05
0.4226497308,63.57735026920001,8,0,-0.06455190374593522,5.373156464003027,-0.05652234967719848,-4.505091263189414e-06,1.724574220780643e-05,-4.521787974175878e-07,1.724809204394245e-05,1.972955735637055e-05
1.5773502692,63.57735026920001,8,0,0.01751117402203484,5.701408775074907,-0.07065700400406186,-4.505091263189414e-06,1.823049914102207e-05,-5.652560320324948e-07,1.823401197064494e-05,2.004943869707618e-05
2.4226497308,62.4226497308,8,0,-0.05240459220626037,5.918449238062542,-0.4215848409802522,-4.902454085510067e-06,1.898096123556514e-05,-3.372678727842017e-06,1.909944106528042e-05,2.005407600659492e-05
3.5773502692,62.4226497308,8,0,0.0363907109869086,6.273630450835218,-0.4343874056264482,-4.902454085510067e-06,2.004650487388317e-05,-3.475099245011585e-06,2.01669337694008e-05,2.083261667290697e-05
2.4226497308,63.57735026920001,8,0,-0.0865447645960804,5.909914194965223,-0.2883918861904715,-5.004874602679635e-06,1.898096123556558e-05,-2.307135089523772e-06,1.903631283098903e-05,2.044461536311592e-05
3.5773502692,63.57735026920001,8,0,0.00225053859706148,6.265095407737791,-0.3011944508366947,-5.004874602679635e-06,2.004650487388328e-05,-2.409555606693557e-06,2.010431198564817e-05,2.120437675204243e-05
4.422649730800001,62.4226497308,8,0,-0.09617730707228422,6.492382845091206,-0.642928861017668,-5.501673658704273e-06,2.085256694994968e-05,-5.143430888141344e-06,2.110117641498638e-05,2.149570143297321e-05
5.577350269200001,62.4226497308,8,0,-0.001455731435207941,6.871269147639511,-0.6541460147772794,-5.501673658704273e-06,2.19892258575946e-05,-5.233168118218235e-06,2.223605615639779e-05,2.252874202096376e-05
4.422649730800001,63.57735026920001,8,0,-0.1260897170981494,6.48490474258474,-0.500846497562108,-5.591410888781869e-06,2.085256694994968e-05,-4.006771980496864e-06,2.100348147036672e-05,2.185153414706935e-05
5.577350269200001,63.57735026920001,8,0,-0.03136814146109135,6.863791045132972,-0.5120636513218277,-5.591410888781869e-06,2.198922585759438e-05,-4.096509210574622e-06,2.214050810133581e-05,2.285983964192547e-05
6.422649730800001,62.4226497308,8,0,-0.1558775036128872,7.099765143406099,-0.8424036820515888,-6.178620126286118e-06,2.284395046178982e-05,-6.73922945641271e-06,2.323003756363119e-05,2.333953189149771e-05
7.577350269200001,62.4226497308,8,0,-0.05600315881318663,7.499262522604901,-0.8518418314705088,-6.178620126286118e-06,2.404244259938623e-05,-6.814734651764071e-06,2.442185346241856e-05,2.452161042416229e-05
6.422649730800001,63.57735026920001,8,0,-0.1810459020633952,7.093473043793471,-0.6925921648520922,-6.254125321637641e-06,2.284395046178982e-05,-5.540737318816737e-06,2.310536313997956e-05,2.36514783110224e-05
7.577350269200001,63.57735026920001,8,0,-0.08117155726370351,7.492970422992238,-0.7020303142709987,-6.254125321637641e-06,2.404244259938612e-05,-5.61624251416799e-06,2.430052264673763e-05,2.480596988146726e-05
8.4226497308,62.4226497308,8,0,-0.2293427957029839,7.736158886008594,-1.019116765181588,-6.922824055056423e-06,2.493918267178988e-05,-8.152934121452701e-06,2.545246256616142e-05,2.542000291874149e-05
9.5773502692,62.4226497308,8,0,-0.1250555205782411,8.153307986507565,-1.026627593976367,-6.922824055056423e-06,2.61906299732868e-05,-8.213020751810939e-06,2.669229200642031e-05,2.669237832651018e-05
8.4226497308,63.57735026920001,8,0,-0.2493716724892079,7.731151666812038,-0.8626858524944463,-6.982910685415095e-06,2.493918267178988e-05,-6.901486819955571e-06,2.53079443557504e-05,2.56837982568481e-05
9.5773502692,63.57735026920001,8,0,-0.1450843973644651,8.14830076731101,-0.8701966812892395,-6.982910685415095e-06,2.61906299732868e-05,-6.961573450313917e-06,2.655192225252524e-05,2.692757840837127e-05
10.4226497308,62.4226497308,8,0,-0.3145393179193996,8.397311634226391,-1.172461485400073,-7.724375124723191e-06,2.712302868385997e-05,-9.379691883200586e-06,2.774316348370531e-05,2.764433076532869e-05
11.5773502692,62.4226497308,8,0,-0.2065465388520802,8.829282750495668,-1.17793024191657,-7.724375124723191e-06,2.84189420326678e-05,-9.423441935332562e-06,2.902307415375486e-05,2.897273778691185e-05
10.4226497308,63.57735026920001,8,0,-0.3291226686300761,8.393665796548722,-1.010472316799135,-7.76812517685522e-06,2.712302868385997e-05,-8.083778534393078e-06,2.758513232026768e-05,2.785861257528352e-05
11.5773502692,63.57735026920001,8,0,-0.2211298895627931,8.825636912817854,-1.015941073315672,-7.76812517685522e-06,2.841894203266737e-05,-8.127528586525379e-06,2.886968351586308e-05,2.915846507145531e-05
12.4226497308,62.4226497308,8,0,-0.4095445238750171,9.079149743812216,-1.302063439838285,-8.573862271449826e-06,2.93809147992991e-05,-1.041650751870628e-05,3.008263149877661e-05,2.995795295661259e-05
13.5773502692,62.4226497308,8,0,-0.298524096771744,9.523231452225309,-1.305400185334241,-8.573862271449826e-06,3.071315992453838e-05,-1.044320148267392e-05,3.139531345427411e-05,3.132120383515388e-05
12.4226497308,63.57735026920001,8,0,-0.4184425118643591,9.076925246814881,-1.135532799183389,-8.600556235417852e-06,2.93809147992991e-05,-9.084262393467112e-06,2.991654584867805e-05,3.012300055591311e-05
13.5773502692,63.57735026920001,8,0,-0.3074220847611135,9.521006955227863,-1.138869544679345,-8.600556235417852e-06,3.071315992453805e-05,-9.110956357434759e-06,3.123412261423602e-05,3.145830800909509e-05
14.4226497308,62.4226497308,8,0,-0.5125258849071477,9.777764175997916,-1.407740469544305,-9.462294172501203e-06,3.169886607111904e-05,-1.126192375635444e-05,3.245529627933714e-05,3.232678182804031e-05
15.5773502692,62.4226497308,8,0,-0.3991297058515402,10.23134889222035,-1.408874256385884,-9.462294172501203e-06,3.305962021978633e-05,-1.127099405108707e-05,3.379382448295373e-05,3.371082111715471e-05
14.4226497308,63.57735026920001,8,0,-0.515549316484385,9.777008318103606,-1.237646200960975,-9.471364467232915e-06,3.169886607111904e-05,-9.901169607687797e-06,3.228579039536231e-05,3.244376198318952e-05
15.5773502692,63.57735026920001,8,0,-0.402153137428841,10.23059303432578,-1.238779987802459,-9.471364467232915e-06,3.305962021978557e-05,-9.910239902419671e-06,3.362929168016679e-05,3.380076485586863e-05
16.4226497308,62.4226497308,8,0,-0.6217189416971025,10.48939246507788,-1.489475845713417,-1.038101458549303e-05,3.40634310416069e-05,-1.191580676570734e-05,3.484824627067511e-05,3.472792754570841e-05
17.5773502692,62.4226497308,8,0,-0.5065766068760409,10.94996180436213,-1.488351585040659,-1.038101458549303e-05,3.544513905945964e-05,-1.190681268032527e-05,3.620593256956287e-05,3.612267469622579e-05
16.4226497308,63.57735026920001,8,0,-0.6187209132367042,10.49014197219298,-1.316762343481811,-1.037202050011184e-05,3.40634310416069e-05,-1.053409874785449e-05,3.467921458352063e-05,3.479846538649849e-05
17.5773502692,63.57735026920001,8,0,-0.5035785784156697,10.95071131147712,-1.315638082809135,-1.037202050011184e-05,3.544513905945931e-05,-1.052510466247308e-05,3.604182431893257e-05,3.616723105435448e-05
18.4226497308,62.4226497308,8,0,-0.7354075684427257,11.21040061626938,-1.547403219147772,-1.132162471203222e-05,3.646160802681618e-05,-1.237922575318218e-05,3.725036119080458e-05,3.714476016900883e-05
19.5773502692,62.4226497308,8,0,-0.6191294979925495,11.67551289807008,-1.543980839349609,-1.132162471203222e-05,3.785694487221829e-05,-1.235184671479687e-05,3.862066692158429e-05,3.854240245993147e-05
18.4226497308,63.57735026920001,8,0,-0.7262812223144715,11.21268220280144,-1.372986113472535,-1.129424567364746e-05,3.646160802681618e-05,-1.098388890778028e-05,3.708504531308983e-05,3.717071050837216e-05
19.5773502692,63.57735026920001,8,0,-0.6100031518642863,11.67779448460218,-1.369563733674467,-1.129424567364746e-05,3.78569448722184e-05,-1.095650986939574e-05,3.846013352839024e-05,3.854350169336052e-05
20.4226497308,62.4226497308,8,0,-0.8519086143574102,11.93726798568365,-1.58180131298882,-1.227592195449063e-05,3.88807844456736e-05,-1.265441050391056e-05,3.965173254047446e-05,3.956423452586404e-05
21.5773502692,62.4226497308,8,0,-0.7350882070075246,12.40454961508319,-1.576056705829837,-1.227592195449063e-05,4.028262933387222e-05,-1.26084536466387e-05,4.102822379525701e-05,4.095828935599091e-05
20.4226497308,63.57735026920001,8,0,-0.8365896619334023,11.94109772378965,-1.40657070196406,-1.222996509721861e-05,3.88807844456736e-05,-1.125256561571248e-05,3.949279849969197e-05,3.954757220974314e-05
21.5773502692,63.57735026920001,8,0,-0.7197692545835439,12.40837935318909,-1.400826094805063,-1.222996509721861e-05,4.02826293338719e-05,-1.120660875844051e-05,4.087386763720134e-05,4.091795269001067e-05
22.4226497308,62.4226497308,8,0,-0.9695623533206725,12.66657738161256,-1.593095957165658,-1.32358614359162e-05,4.130869750381674e-05,-1.274476765732527e-05,4.204328331984582e-05,4.197541886043233e-05
23.5773502692,62.4226497308,8,0,-0.8527768963005991,13.13371920969286,-1.585023156166755,-1.32358614359162e-05,4.271012298805762e-05,-1.268018524933404e-05,4.341961790290888e-05,4.336021351443491e-05
22.4226497308,63.57735026920001,8,0,-0.9480348839903727,12.67195924894514,-1.417917771635629,-1.31712790279253e-05,4.130869750381674e-05,-1.134334217308504e-05,4.189288602071349e-05,4.19181971157068e-05
23.5773502692,63.57735026920001,8,0,-0.8312494269702904,13.13910107702547,-1.409844970636767,-1.31712790279253e-05,4.271012298805773e-05,-1.127875976509414e-05,4.327355112441396e-05,4.328053522654487e-05
24.4226497308,62.4226497308,8,0,-1.08672945457023,13.39501179017988,-1.581866906702617,-1.419354368676864e-05,4.37334212922318e-05,-1.265493525362093e-05,4.441652654041094e-05,4.436867890592288e-05
25.5773502692,62.4226497308,8,0,-0.9705396650551243,13.8597709482403,-1.571480937762802,-1.419354368676864e-05,4.512769876641306e-05,-1.257184750210242e-05,4.578646554405675e-05,4.573906293925743e-05
24.4226497308,63.57735026920001,8,0,-1.059033537397338,13.4019357694731,-1.407582222430026,-1.411045593524996e-05,4.37334212922318e-05,-1.126065777944021e-05,4.427636239287991e-05,4.427302444160531e-05
25.5773502692,63.57735026920001,8,0,-0.942843747882296,13.86669492753327,-1.397196253490225,-1.411045593524996e-05,4.51276987664123e-05,-1.11775700279218e-05,4.565035761386265e-05,4.562221729239185e-05
26.4226497308,62.4226497308,8,0,-1.201794531185554,14.11935832689864,-1.548856930787675,-1.514122916131268e-05,4.614338227102409e-05,-1.23908554463014e-05,4.676342170482662e-05,4.673522858649842e-05
27.57735026920001,62.4226497308,8,0,-1.08674274244022,14.57956548187998,-1.536196811034911,-1.514122916131268e-05,4.752400373596809e-05,-1.228957448827929e-05,4.812086056505892e-05,4.808641971429672e-05
26.4226497308,63.57735026920001,8,0,-1.168034211845085,14.12779840673362,-1.376279247669566,-1.503994820329117e-05,4.614338227102366e-05,-1.101023398135653e-05,4.663477182362845e-05,4.660335457764698e-05
27.57735026920001,63.57735026920001,8,0,-1.052982423099671,14.58800556171528,-1.363619127916897,-1.503994820329117e-05,4.752400373596863e-05,-1.090895302333517e-05,4.799597767152118e-05,4.793467863949163e-05
28.4226497308,62.4226497308,8,0,-1.313175763906505,14.83651929625123,-1.494980871814553,-1.607137788150179e-05,4.852740235912912e-05,-1.195984697451643e-05,4.907630119056569e-05,4.906689197340802e-05
29.5773502692,62.4226497308,8,0,-1.199782884415503,15.29009081421523,-1.480112300597728,-1.607137788150179e-05,4.988811691302114e-05,-1.184089840478182e-05,5.041531591714435e-05,5.039440087302755e-05
28.4226497308,63.57735026920001,8,0,-1.273526240661638,14.84643167706244,-1.324891552578159,-1.595242931176719e-05,4.852740235912912e-05,-1.059913242062527e-05,4.896006791992617e-05,4.890111763742852e-05
29.5773502692,63.57735026920001,8,0,-1.160133361170627,15.30000319502648,-1.310022981361361,-1.595242931176719e-05,4.988811691302125e-05,-1.048018385089089e-05,5.030255461655799e-05,5.021015402047572e-05
30.4226497308,62.4226497308,8,0,-1.419339659344097,15.54352963918534,-1.421332713790992,-1.697671062124938e-05,5.087476657286835e-05,-1.137066171032794e-05,5.134784665158161e-05,5.1355990521444e-05
31.5773502692,62.4226497308,8,0,-1.308101122160933,15.988483787918,-1.404350089909294,-1.697671062124938e-05,5.220962901906633e-05,-1.123480071927435e-05,5.266275122826205e-05,5.265559339744216e-05
30.4226497308,63.57735026920001,8,0,-1.374052662326273,15.55485138843993,-1.254474908016191,-1.684084963019601e-05,5.087476657286878e-05,-1.003579926412953e-05,5.124458599878369e-05,5.115876062687601e-05
31.5773502692,63.57735026920001,8,0,-1.262814125143135,15.99980553717248,-1.237492284134533,-1.684084963019601e-05,5.220962901906644e-05,-9.899938273076267e-06,5.256266867829195e-05,5.244136568902011e-05
32.4226497308,62.4226497308,8,0,-1.518819695824774,16.23757958582857,-1.32918912492865,-1.785028669530213e-05,5.317531043131122e-05,-1.06335129994292e-05,5.357110083325427e-05,5.359530623083747e-05
33.57735026920001,62.4226497308,8,0,-1.410200676150278,16.67205566452655,-1.310216626832655,-1.785028669530213e-05,5.447873866740519e-05,-1.048173301466124e-05,5.485651189193663e-05,5.486304656030893e-05
32.4226497308,63.57735026920001,8,0,-1.468226367568807,16.25022791789256,-1.166260595417026,-1.769850671053423e-05,5.317531043131122e-05,-9.330084763336209e-06,5.348105298599327e-05,5.336920674106407e-05
33.57735026920001,63.57735026920001,8,0,-1.359607347894301,16.68470399659058,-1.14728809732091,-1.769850671053423e-05,5.447873866740529e-05,-9.178304778567278e-06,5.476935466259288e-05,5.462151057456003e-05
34.42264973080001,62.4226497308,8,0,-1.610237437648136,16.91604101730885,-1.220008407636897,-1.868559261432112e-05,5.541952120550683e-05,-9.760067261095173e-06,5.573950370352833e-05,5.577809108415416e-05
35.5773502692,62.4226497308,8,0,-1.504667649566311,17.33832016963615,-1.199199979174957,-1.868559261432112e-05,5.668635866248873e-05,-9.593599833399654e-06,5.699040867897512e-05,5.70102988851218e-05
34.42264973080001,63.57735026920001,8,0,-1.554748295082908,16.92991330295016,-1.061653725514214,-1.851912518662543e-05,5.541952120550683e-05,-8.493229804113715e-06,5.566262329591678e-05,5.552585894649547e-05
35.5773502692,63.57735026920001,8,0,-1.449178507001029,17.35219245527767,-1.040845297052193,-1.851912518662543e-05,5.668635866248938e-05,-8.326762376417544e-06,5.691614167565186e-05,5.674428081297438e-05
36.4226497308,62.4226497308,8,0,-1.692324650053772,17.57649587407168,-1.095424261782758,-1.947663557942941e-05,5.759864651707237e-05,-8.763394094262063e-06,5.784694424277239e-05,5.78981040199311e-05
37.5773502692,62.4226497308,8,0,-1.590193040639336,17.98502231172942,-1.072962447140708,-1.947663557942941e-05,5.88242258300456e-05,-8.583699577125663e-06,5.905876940451818e-05,5.909142495458615e-05
36.4226497308,63.57735026920001,8,0,-1.632426477675043,17.59147041716636,-0.9422268476609683,-1.929694106229322e-05,5.759864651707237e-05,-7.537814781287747e-06,5.778293149896516e-05,5.762263027973628e-05
37.5773502692,63.57735026920001,8,0,-1.530294868260553,17.99999685482432,-0.919765033018864,-1.929694106229322e-05,5.882422583004625e-05,-7.358120264150912e-06,5.899710594001206e-05,5.880390378335393e-05
38.4226497308,62.4226497308,8,0,-1.763945005515756,18.21676491627268,-0.9572342113763516,-2.021803595066856e-05,5.970480373648519e-05,-7.657873691010813e-06,5.988782103283454e-05,5.994966300601506e-05
39.5773502692,62.4226497308,8,0,-1.665594649887279,18.61016633878659,-0.9333278729472567,-2.021803595066856e-05,6.088500800402691e-05,-7.466622983578054e-06,6.105649609929095e-05,6.110109203295234e-05
38.4226497308,63.57735026920001,8,0,-1.700194769704837,18.23270247522528,-0.8097086779336633,-2.00267852432357e-05,5.970480373648475e-05,-6.477669423469307e-06,5.983615440221916e-05,5.965398919337994e-05
39.5773502692,63.57735026920001,8,0,-1.601844414076314,18.62610389773937,-0.7858023395045143,-2.00267852432357e-05,6.088500800402702e-05,-6.286418716036114e-06,6.100692966440742e-05,6.07951922208251e-05
40.4226497308,62.4226497308,8,0,-1.82411411490328,18.83493522501585,-0.8073829361199958,-2.090511334770318e-05,6.173108401197336e-05,-6.459063488959966e-06,6.185710619149772e-05,6.192770362629137e-05
41.5773502692,62.4226497308,8,0,-1.729837583792337,19.21204134945962,-0.7822639639476714,-2.090511334770318e-05,6.286240238530466e-05,-6.258111711581371e-06,6.297912265380043e-05,6.303461947057775e-05
40.4226497308,63.57735026920001,8,0,-1.75713018911074,18.85168120646399,-0.6659681394534335,-2.070416157032556e-05,6.173108401197336e-05,-5.327745115627468e-06,6.181707662623068e-05,6.161501186689267e-05
41.5773502692,63.57735026920001,8,0,-1.662853657999779,19.22878733090783,-0.6408491672812988,-2.070416157032556e-05,6.286240238530488e-05,-5.126793338250391e-06,6.294096049271405e-05,6.271359776564245e-05
42.4226497308,62.4226497308,8,0,-1.872016820382311,19.42938500738983,-0.6479410714959672,-2.153396183113526e-05,6.367164547995329e-05,-5.183528571967738e-06,6.375040835408268e-05,6.382783811366629e-05
43.57735026920001,62.4226497308,8,0,-1.782052247297792,19.7892432997279,-0.6218602504842838,-2.153396183113526e-05,6.475122035696753e-05,-4.974882003874271e-06,6.48228691503264e-05,6.488803590390079e-05
42.4226497308,63.57735026920001,8,0,-1.8024679643513,19.44677222139758,-0.5129942118691204,-2.132531526304222e-05,6.367164547995329e-05,-4.103953694952964e-06,6.372115498893238e-05,6.350143573689076e-05
43.57735026920001,63.57735026920001,8,0,-1.712503391266754,19.80663051373577,-0.4869133908573693,-2.132531526304222e-05,6.475122035696785e-05,-3.895307126858955e-06,6.479526736973964e-05,6.455526320381482e-05
44.4226497308,62.4226497308,8,0,-1.907020927305094,19.99880450789911,-0.4810802864933935,-2.210151057369558e-05,6.552179116712121e-05,-3.848642291947148e-06,6.556403138819291e-05,6.564641053117492e-05
45.5773502692,62.4226497308,8,0,-1.821548950034838,20.34069241698013,-0.4543025273156506,-2.210151057369558e-05,6.654745489436428e-05,-3.634420218525205e-06,6.658469014127511e-05,6.665813075391256e-05
44.4226497308,63.57735026920001,8,0,-1.835613569497672,20.01665634735096,-0.3528723205879552,-2.188728850027332e-05,6.552179116712121e-05,-2.822978564703642e-06,6.554457807619917e-05,6.530971014060616e-05
45.5773502692,63.57735026920001,8,0,-1.750141592227397,20.35854425643206,-0.3260945614102259,-2.188728850027332e-05,6.65474548943645e-05,-2.608756491281807e-06,6.656668978510295e-05,6.631707003669839e-05
46.42264973080001,62.4226497308,8,0,-1.928686809245236,20.54221210976927,-0.3090456157725117,-2.260556747740017e-05,6.727802819865786e-05,-2.472364926180094e-06,6.729502638539269e-05,6.738054512687101e-05
47.57735026920001,62.4226497308,8,0,-1.847828504343064,20.86564532937796,-0.2818447782736264,-2.260556747740017e-05,6.824832785748392e-05,-2.254758226189011e-06,6.826231501807066e-05,6.834249767525775e-05
46.42264973080001,63.57735026920001,8,0,-1.856151242581595,20.56034600143519,-0.1877581584193086,-2.238796077740925e-05,6.727802819865786e-05,-1.502065267354469e-06,6.728431832557882e-05,6.70370411962008e-05
47.57735026920001,63.57735026920001,8,0,-1.775292937679433,20.88377922104383,-0.1605573209204503,-2.238796077740925e-05,6.824832785748381e-05,-1.284458567363603e-06,6.825287832785555e-05,6.799667908793709e-05
48.4226497308,62.4226497308,8,0,-1.936772577479348,21.05896501026268,-0.1341261172027499,-2.304484425614406e-05,6.893810609482406e-05,-1.073008937621999e-06,6.894123523182671e-05,6.902818593065458e-05
49.57735026920001,62.4226497308,8,0,-1.860588449844131,21.36370152080355,-0.1067796627555963,-2.304484425614406e-05,6.985231562644666e-05,-8.542373020447701e-07,6.985427937308844e-05,6.993956853424488e-05
48.4226497308,63.57735026920001,8,0,-1.863848698953587,21.07719597989412,-0.01984992574987059,-2.282607262056677e-05,6.893810609482406e-05,-1.587994059989647e-07,6.893817479601231e-05,6.868142901788197e-05
49.57735026920001,63.57735026920001,8,0,-1.78766457131838,21.38193249043495,0.007496528697283067,-2.282607262056677e-05,6.985231562644655e-05,5.997222957826454e-08,6.985232532846018e-05,6.959256272531385e-05
50.42264973080001,62.4226497308,8,0,-1.931234751562456,21.54876415716284,0.04137504664789428,-2.341896253073013e-05,7.050103310417104e-05,3.310003731831542e-07,7.050132473777394e-05,7.058812651495499e-05
51.57735026920001,62.4226497308,8,0,-1.85972478678296,21.83480401628082,0.06859134279829616,-2.341896253073013e-05,7.135915268152498e-05,5.487307423863693e-07,7.135994691261872e-05,7.14486372663943e-05
50.42264973080001,63.57735026920001,8,0,-1.858657961828087,21.56690835459643,0.1486399938171643,-2.320123216152702e-05,7.050103310417104e-05,1.189119950537314e-06,7.05048055565423e-05,7.024169616740009e-05
51.57735026920001,63.57735026920001,8,0,-1.787147997048592,21.85294821371441,0.1758562899676339,-2.320123216152702e-05,7.135915268152498e-05,1.406850319741072e-06,7.13643851007685e-05,7.11040280047153e-05
52.4226497308,62.4226497308,8,0,-1.912224593067723,22.01165342528931,0.2151700350708322,-2.372844143804816e-05,7.196707063537996e-05,1.721360280566657e-06,7.197481091886703e-05,7.206002956204015e-05
53.5773502692,62.4226497308,8,0,-1.845329329777663,22.27923447844955,0.2419870969097034,-2.372844143804816e-05,7.276981379486069e-05,1.935896775277627e-06,7.277952205153978e-05,7.28698736257325e-05
52.4226497308,63.57735026920001,8,0,-1.840712428164012,22.02953146651524,0.3155129300058961,-2.351390494333703e-05,7.196707063537996e-05,2.524103440047169e-06,7.198374931253099e-05,7.171750692586191e-05
53.5773502692,63.57735026920001,8,0,-1.773817164873932,22.29711251967555,0.3423299918447944,-2.351390494333703e-05,7.276981379486091e-05,2.738639934758355e-06,7.278928394112275e-05,7.253123067056305e-05
54.42264973080001,62.4226497308,8,0,-1.880080464537469,22.44801328198549,0.385014276434368,-2.397466811210829e-05,7.333770687398353e-05,3.080114211474944e-06,7.33620735812276e-05,7.344443650395228e-05
55.57735026920001,62.4226497308,8,0,-1.817682999036229,22.69760314399045,0.4111742768023602,-2.397466811210829e-05,7.408647645999842e-05,3.289394214418882e-06,7.411405382588737e-05,7.420432741576613e-05
54.42264973080001,63.57735026920001,8,0,-1.810320463556248,22.46545328223079,0.4786104746862556,-2.376538810916463e-05,7.333770687398353e-05,3.828883797490044e-06,7.337543650823469e-05,7.310937756056507e-05
55.57735026920001,63.57735026920001,8,0,-1.747922998055008,22.71504314423575,0.5047704750542207,-2.376538810916463e-05,7.408647645999842e-05,4.038163800433765e-06,7.41281206075341e-05,7.387518049365449e-05
56.4226497308,62.4226497308,8,0,-1.835316746304043,22.85854943100694,0.5487320717153773,-2.415985313297848e-05,7.461561157626542e-05,4.389856573723018e-06,7.466436187682674e-05,7.47427680479906e-05
57.57735026920001,62.4226497308,8,0,-1.77724554332445,23.09083424292531,0.5739923627121827,-2.415985313297848e-05,7.531246601202054e-05,4.591938901697462e-06,7.536543220750742e-05,7.545392430033604e-05
56.4226497308,63.57735026920001,8,0,-1.767955970312417,22.87538962500485,0.6358388761847403,-2.395777080500361e-05,7.461561157626542e-05,5.086711009477923e-06,7.468119070569275e-05,7.441867827762064e-05
57.57735026920001,63.57735026920001,8,0,-1.709884767332806,23.10767443692329,0.6610991671815187,-2.395777080500361e-05,7.531246601202076e-05,5.28879333745215e-06,7.538285849685515e-05,7.513773890419092e-05
58.4226497308,62.4226497308,8,0,-1.778609981618877,23.24427712854516,0.7042391484027126,-2.428697364401653e-05,7.58045747966396e-05,5.633913187221701e-06,7.588379196546133e-05,7.59573168807032e-05
59.57735026920001,62.4226497308,8,0,-1.724642334391085,23.46014771745633,0.728375456028786,-2.428697364401653e-05,7.645218656337311e-05,5.827003648230288e-06,7.653637829788332e-05,7.662145473413249e-05
58.4226497308,63.57735026920001,8,0,-1.714246494616122,23.26036800029585,0.7851906192443475,-2.409388318300827e-05,7.58045747966396e-05,6.28152495395478e-06,7.590322154210195e-05,7.564762799901948e-05
59.57735026920001,63.57735026920001,8,0,-1.66027884738833,23.47623858920702,0.8093269268704479,-2.409388318300827e-05,7.645218656337311e-05,6.474615414963584e-06,7.655631116304243e-05,7.632161028580533e-05
60.4226497308,62.4226497308,8,0,-1.710783022137996,23.6065020275759,0.849561645486268,-2.435970729290231e-05,7.690943290595328e-05,6.796493163890144e-06,7.702333834013701e-05,7.709123425442734e-05
61.5773502692,62.4226497308,8,0,-1.660648982735815,23.80703818518463,0.8723704556508571,-2.435970729290231e-05,7.751104137877947e-05,6.978963645206857e-06,7.76304302107618e-05,7.771055791885346e-05
60.4226497308,63.57735026920001,8,0,-1.649959528365813,23.62170790101895,0.9247627045893929,-2.417723681158576e-05,7.690943290595328e-05,7.398101636715143e-06,7.704461100487124e-05,7.679928347940947e-05
61.5773502692,63.57735026920001,8,0,-1.599825488963649,23.82224405862761,0.9475715147539819,-2.417723681158576e-05,7.751104137877925e-05,7.580572118031856e-06,7.765212316905958e-05,7.743032862701928e-05
62.42264973080001,62.4226497308,8,0,-1.63278800799774,23.94679852230891,0.982851217390206,-2.438236044343989e-05,7.793598567778668e-05,7.862809739121648e-06,7.808682072956982e-05,7.814851248901405e-05
63.57735026920001,62.4226497308,8,0,-1.586174596122715,24.133252169809,1.004151326810138,-2.438236044343989e-05,7.849534662028698e-05,8.033210614481106e-06,7.865192671259859e-05,7.872570296172449e-05
62.42264973080001,63.57735026920001,8,0,-1.575987716211055,23.96099859525558,1.052771335202771,-2.421195956807984e-05,7.793598567778668e-05,8.422170681622165e-06,7.810929512166873e-05,7.787752457049006e-05
63.57735026920001,63.57735026920001,8,0,-1.529374304336031,24.14745224275568,1.07407144462273,-2.421195956807984e-05,7.849534662028698e-05,8.592571556981839e-06,7.867474852586267e-05,7.846824146143309e-05
64.4226497308,62.4226497308,8,0,-1.545689037031265,24.266986629324,1.102396163521439,-2.435979422195925e-05,7.889090844346181e-05,8.819169308171512e-06,7.907888876436476e-05,7.913396564246302e-05
65.57735026920001,62.4226497308,8,0,-1.502244532364928,24.44076464798935,1.122029416152166,-2.435979422195925e-05,7.941224249945786e-05,8.976235329217325e-06,7.960599085768879e-05,7.967216955641193e-05
64.4226497308,63.57735026920001,8,0,-1.493333696682607,24.28007546441117,1.16756292052085,-2.420272820091328e-05,7.889090844346181e-05,9.340503364166797e-06,7.910204342233334e-05,7.888703762688336e-05
65.57735026920001,63.57735026920001,8,0,-1.449889192016298,24.45385348307641,1.187196173151603,-2.420272820091328e-05,7.941224249945753e-05,9.497569385212828e-06,7.96294291267715e-05,7.944049313801416e-05
66.4226497308,62.4226497308,8,0,-1.450645355141965,24.56910845375231,1.20662871059189,-2.429735189945614e-05,7.978166333612096e-05,9.653029684735122e-06,8.000500675638301e-05,8.005321067999264e-05
67.57735026920001,62.4226497308,8,0,-1.409983485209771,24.73175593348109,1.224459985873339,-2.429735189945614e-05,8.02696057753073e-05,9.795679886986713e-06,8.049851590901527e-05,8.055603047548362e-05
66.4226497308,63.57735026920001,8,0,-1.403095287724877,24.58099597060659,1.267621515490169,-2.415470169720487e-05,7.978166333612096e-05,1.014097212392135e-05,8.002843866670452e-05,7.983329909196229e-05
67.57735026920001,63.57735026920001,8,0,-1.362433417792656,24.74364345033547,1.285452790771577,-2.415470169720487e-05,8.026960577530763e-05,1.028362232617262e-05,8.052217561418609e-05,8.035300940457897e-05
68.42264973080002,62.4226497308,8,0,-1.34889583580919,24.85540524779444,1.29412878647796,-2.420079087282496e-05,8.061641346158955e-05,1.035303029182368e-05,8.087144096587812e-05,8.091265134598256e-05
69.57735026920001,62.4226497308,8,0,-1.310599687456657,25.00858984120458,1.310045347613373,-2.420079087282496e-05,8.107596724181996e-05,1.048036278090698e-05,8.133615575288462e-05,8.13841378877756e-05
68.42264973080002,63.57735026920001,8,0,-1.306451672781352,24.8660162885514,1.351573009006856,-2.407345838374144e-05,8.061641346158955e-05,1.081258407205484e-05,8.089485932237438e-05,8.07225611529574e-05
69.57735026920001,63.57735026920001,8,0,-1.268155524428783,25.01920088196168,1.367489570142295,-2.407345838374144e-05,8.107596724182039e-05,1.093991656113836e-05,8.135975299774229e-05,8.121248499297942e-05
70.4226497308,62.4226497308,8,0,-1.241745415083036,25.12829597795659,1.363624816742962,-2.407622211063099e-05,8.140394346152751e-05,1.090899853394369e-05,8.168525159020916e-05,8.17194665299649e-05
71.57735026920001,62.4226497308,8,0,-1.205370922106171,25.27379394986405,1.377535163410451,-2.407622211063099e-05,8.184043737724989e-05,1.102028130728361e-05,8.212632177241421e-05,8.216411487590507e-05
70.4226497308,63.57735026920001,8,0,-1.204651157303156,25.13756954240156,1.418186556208191,-2.396493933729134e-05,8.140394346152751e-05,1.134549244966553e-05,8.170846709540742e-05,8.156184092668743e-05
71.57735026920001,63.57735026920001,8,0,-1.168276664326336,25.28306751430884,1.432096902875639,-2.396493933729134e-05,8.184043737724934e-05,1.145677522300511e-05,8.214967306012326e-05,8.202637524752185e-05
72.4226497308,62.4226497308,8,0,-1.130554015689673,25.39035818255542,1.413992239074211,-2.393005939625129e-05,8.215358939672908e-05,1.131193791259369e-05,8.245429137594306e-05,8.24816040649096e-05
73.57735026920001,62.4226497308,8,0,-1.095632906354226,25.53004261989721,1.425824637802509,-2.393005939625129e-05,8.257264270875443e-05,1.140659710242007e-05,8.287718772084126e-05,8.290435231422047e-05
72.4226497308,63.57735026920001,8,0,-1.099000952414211,25.39824644837429,1.466373903077326,-2.38354002064249e-05,8.215358939672908e-05,1.17309912246186e-05,8.247720144500555e-05,8.235891377936352e-05
73.57735026920001,63.57735026920001,8,0,-1.064079843078801,25.53793088571593,1.478206301805624,-2.38354002064249e-05,8.2572642708754e-05,1.182565041444499e-05,8.290019512295356e-05,8.280289162303351e-05
74.4226497308,62.4226497308,8,0,-1.016728338280155,25.64431173059749,1.444250560052275,-2.376898006697448e-05,8.287518020853608e-05,1.15540044804182e-05,8.318721221128869e-05,8.320777931741639e-05
75.57735026920001,62.4226497308,8,0,-0.9827704625626668,25.78014323346744,1.453951445989175,-2.376898006697448e-05,8.328267471714593e-05,1.16316115679134e-05,8.359770351182674e-05,8.36140090572604e-05
74.4226497308,63.57735026920001,8,0,-0.9908593091150868,25.65077898788875,1.495187373628561,-2.369137297947928e-05,8.287518020853608e-05,1.196149898902849e-05,8.320978243409434e-05,8.312230980722987e-05
75.57735026920001,63.57735026920001,8,0,-0.9569014333976256,25.7866104907586,1.504888259565448,-2.369137297947928e-05,8.328267471714561e-05,1.203910607652358e-05,8.362033608788847e-05,8.355099867168282e-05
76.42264973080002,62.4226497308,8,0,-0.9017167284745859,25.8930058969427,1.453559869078549,-2.359989824867283e-05,8.35789922529963e-05,1.162847895262839e-05,8.389348028147009e-05,8.39074750570498e-05
77.57735026920001,62.4226497308,8,0,-0.8682117239293108,26.0270259151238,1.461092324741377,-2.359989824867283e-05,8.39810523075396e-05,1.168873859793101e-05,8.429761800514418e-05,8.430300933895852e-05
76.42264973080002,63.57735026920001,8,0,-0.8816301800404505,25.89802753405123,1.50381737589638,-2.353963860337043e-05,8.35789922529963e-05,1.203053900717104e-05,8.391572247137596e-05,8.386130963269281e-05
77.57735026920001,63.57735026920001,8,0,-0.8481251754951753,26.03204755223233,1.511349831559167,-2.353963860337043e-05,8.39810523075396e-05,1.209079865247334e-05,8.431988980805468e-05,8.428040607990066e-05
78.4226497308,62.4226497308,8,0,-0.7870071538844501,26.13940995688763,1.441217775275449,-2.342995085794034e-05,8.427571758514796e-05,1.152974220220359e-05,8.458339935547223e-05,8.459093377043305e-05
79.57735026920001,62.4226497308,8,0,-0.7534254492889918,26.27373677526946,1.446560295466937,-2.342995085794034e-05,8.467869804029346e-05,1.157248236373549e-05,8.498750980189511e-05,8.498202366408654e-05
78.4226497308,63.57735026920001,8,0,-0.7727604333737981,26.14297163701529,1.491590332168568,-2.338721069640838e-05,8.427571758514796e-05,1.193272265734855e-05,8.460534648212325e-05,8.458593032775775e-05
79.57735026920001,63.57735026920001,8,0,-0.7391787287783664,26.27729845539702,1.496932852360056,-2.338721069640838e-05,8.467869804029313e-05,1.197546281888045e-05,8.500945477782506e-05,8.500154164867519e-05
80.4226497308,62.4226497308,8,0,-0.6741281529499181,26.38660728535346,1.406657746716054,-2.32664959177225e-05,8.497644583549098e-05,1.125326197372843e-05,8.526814051750372e-05,8.526912344046762e-05
81.57735026920001,62.4226497308,8,0,-0.6399213488488185,26.52343450175785,1.409803494959315,-2.32664959177225e-05,8.538692748470418e-05,1.127842795967452e-05,8.567882377176844e-05,8.566240472276219e-05
80.4226497308,63.57735026920001,8,0,-0.6657394909679448,26.38870445084895,1.457967952867663,-2.324132993177658e-05,8.497644583549098e-05,1.16637436229413e-05,8.528981880924052e-05,8.530688204591156e-05
81.57735026920001,63.57735026920001,8,0,-0.6315326868668807,26.5255316672532,1.461113701110937,-2.324132993177658e-05,8.538692748470374e-05,1.168890960888749e-05,8.570046785813375e-05,8.572547620388262e-05
82.4226497308,62.4226497308,8,0,-0.5646524522442222,26.63779272932827,1.349449811428573,-2.311712203064412e-05,8.569265869564583e-05,1.079559849142858e-05,8.595977517442005e-05,8.595363794350309e-05
83.57735026920001,62.4226497308,8,0,-0.5292531561961455,26.77938991352057,1.350406563147303,-2.311712203064412e-05,8.611745024822274e-05,1.080325250517843e-05,8.638390952953669e-05,8.635602061715831e-05
82.4226497308,63.57735026920001,8,0,-0.5621011143275902,26.63843056380743,1.402548755500633,-2.310946801689423e-05,8.569265869564583e-05,1.122039004400506e-05,8.598117371110772e-05,8.603545583585805e-05
83.57735026920001,63.57735026920001,8,0,-0.5267018182795136,26.78002774799973,1.403505507219444,-2.310946801689423e-05,8.611745024822274e-05,1.122804405775555e-05,8.640524029784917e-05,8.646374178179133e-05
84.42264973080002,62.4226497308,8,0,-0.460202793348282,26.89627281229352,1.269304531032381,-2.298966718854931e-05,8.643623523401788e-05,1.015443624825905e-05,8.667130649969235e-05,8.665645350395504e-05
85.57735026920001,62.4226497308,8,0,-0.4230240245697159,27.04498788740779,1.2680954834039,-2.298966718854931e-05,8.688238045936067e-05,1.01447638672312e-05,8.711605639955721e-05,8.707486874132795e-05
84.42264973080002,63.57735026920001,8,0,-0.4634269203574357,26.89546678054123,1.325072684200176,-2.299933956957678e-05,8.643623523401788e-05,1.060058147360141e-05,8.669234472922892e-05,8.678326281254909e-05
85.57735026920001,63.57735026920001,8,0,-0.4262481515788608,27.04418185565553,1.323863636571777,-2.299933956957678e-05,8.688238045936078e-05,1.059090909257421e-05,8.713699071176488e-05,8.722792455676989e-05
86.4226497308,62.4226497308,8,0,-0.3624593645398493,27.16546812877826,1.166081085233805,-2.289224446955012e-05,8.72194655037223e-05,9.328648681870442e-06,8.741669269235442e-05,8.738938215064113e-05
87.57735026920002,62.4226497308,8,0,-0.3228936776762152,27.3237308762328,1.162746694051439,-2.289224446955012e-05,8.769425374608592e-05,9.30197355241151e-06,8.788951763773165e-05,8.783023352721008e-05
86.4226497308,63.57735026920001,8,0,-0.3713510743594215,27.16324520132337,1.225429615529284,-2.291891959900884e-05,8.72194655037223e-05,9.803436924234275e-06,8.743718652275996e-05,8.756166304289734e-05
87.57735026920002,63.57735026920001,8,0,-0.331785387495751,27.32150794877805,1.222095224346958,-2.291891959900884e-05,8.769425374608635e-05,9.776761794775667e-06,8.79098680130365e-05,8.802879179925667e-05
88.42264973080002,62.4226497308,8,0,-0.2731680945164401,27.44891709630685,1.039800212019302,-2.283327157949808e-05,8.805506918379506e-05,8.318401696154418e-06,8.821085366727136e-05,8.816289853268608e-05
89.57735026920001,62.4226497308,8,0,-0.2305866057118484,27.61924305152521,1.034401192465239,-2.283327157949808e-05,8.856604704945016e-05,8.275209539721916e-06,8.871951496148018e-05,8.863090485301638e-05
88.42264973080002,63.57735026920001,8,0,-0.2875654799938143,27.44531774993751,1.103672445226095,-2.287646373593021e-05,8.805506918379506e-05,8.829379561808761e-06,8.823048113382633e-05,8.838055504549522e-05
89.57735026920001,63.57735026920001,8,0,-0.2449839911892315,27.61564370515584,1.098273425672127,-2.287646373593021e-05,8.856604704945005e-05,8.786187405377018e-06,8.873895570648876e-05,8.887446135013591e-05
90.42264973080002,62.4226497308,8,0,-0.1941489322047136,27.75028004970455,0.8906626355504612,-2.282150062281872e-05,8.895621530481831e-05,7.125301084403689e-06,8.906965125281854e-05,8.898367818196051e-05
91.57735026920001,62.4226497308,8,0,-0.1479004629082414,27.93527392689044,0.8832842363585148,-2.282150062281872e-05,8.951119693637597e-05,7.066273890868119e-06,8.962221298409233e-05,8.947946651990176e-05
90.42264973080002,63.57735026920001,8,0,-0.213824663383237,27.74536111690992,0.9600353394951556,-2.288052781635429e-05,8.895621530481831e-05,7.680282715961245e-06,8.908791924495778e-05,8.924585245353885e-05
91.57735026920001,63.57735026920001,8,0,-0.1675761940867648,27.9303549940958,0.9526569403032364,-2.288052781635429e-05,8.951119693637597e-05,7.621255522425891e-06,8.964024762836715e-05,8.976660551291719e-05
92.42264973080002,62.4226497308,8,0,-0.1273031053064368,28.07334248711907,0.7190734802545732,-2.286604392667585e-05,8.993653844302616e-05,5.752587842036585e-06,9.000983193162306e-05,8.984948803580288e-05
93.57735026920001,62.4226497308,8,0,-0.07671369070387879,28.2757001455293,0.7098311085662281,-2.286604392667585e-05,9.054361141825685e-05,5.678648868529825e-06,9.061465225175983e-05,9.036461727924012e-05
92.42264973080002,63.57735026920001,8,0,-0.1519494298087993,28.06718090599347,0.7949576021583014,-2.293998290018293e-05,8.993653844302616e-05,6.35966081726641e-06,9.002604607217493e-05,9.015426444883491e-05
93.57735026920001,63.57735026920001,8,0,-0.1013600152062502,28.26953856440367,0.7857152304699292,-2.293998290018293e-05,9.054361141825674e-05,6.285721843759433e-06,9.063058443429519e-05,9.069261529843687e-05
94.4226497308,62.4226497308,8,0,-0.0746182184486921,28.42201610676686,0.5256730115199533,-2.29763911844493e-05,9.10101461164129e-05,4.205384092159626e-06,9.104892096172953e-05,9.073863051150662e-05
95.57735026920002,62.4226497308,8,0,-0.01899125814186142,28.64452394799418,0.5147192474360665,-2.29763911844493e-05,9.167766964009486e-05,4.117753979488532e-06,9.171462959066684e-05,9.124532442136791e-05
94.4226497308,63.57735026920001,8,0,-0.1038282560056416,28.41471359737762,0.6091134519801445,-2.306402129712015e-05,9.10101461164129e-05,4.872907615841157e-06,9.106216141226527e-05,9.108253091685262e-05
95.57735026920002,63.57735026920001,8,0,-0.04820129569882958,28.63722143860487,0.5981596878962714,-2.306402129712015e-05,9.167766964009465e-05,4.785277503170171e-06,9.17275402065422e-05,9.160944934747241e-05
96.4226497308,62.4226497308,8,0,-0.03816991950780135,28.80033610839955,0.3113738544161654,-2.31624126291446e-05,9.21916114824848e-05,2.490990835329323e-06,9.220505772370582e-05,9.158816823394584e-05
97.57735026920001,62.4226497308,8,0,0.02321272231921601,29.04586667570762,0.2989068479413609,-2.31624126291446e-05,9.292820318440901e-05,2.391254783530887e-06,9.294051574947437e-05,9.201814103914786e-05
96.4226497308,63.57735026920001,8,0,-0.07141527010727167,28.79202477074968,0.4034478171565964,-2.326214868094301e-05,9.21916114824848e-05,3.227582537252771e-06,9.221416435233564e-05,9.196523549533236e-05
97.57735026920001,63.57735026920001,8,0,-0.01003262828026319,29.03755533805772,0.390980810681846,-2.326214868094301e-05,9.29282031844089e-05,3.127846485454768e-06,9.29492497937884e-05,9.241034289733644e-05
98.42264973080002,62.4226497308,8,0,-0.02011873281712351,29.21245307659306,0.07740461368758576,-2.343434240628924e-05,9.349594483135147e-05,6.192369095006861e-07,9.349676466099242e-05,9.224900949973423e-05
99.57735026920002,62.4226497308,8,0,0.0477568774464503,29.48395551764736,0.0636778002655828,-2.343434240628924e-05,9.431045215451436e-05,5.094224021246624e-07,9.431100315545319e-05,9.244978105874614e-05
98.42264973080002,63.57735026920001,8,0,-0.05672356860915873,29.20330186764505,0.179218029082933,-2.354415691366535e-05,9.349594483135147e-05,1.433744232663464e-06,9.350033551749569e-05,9.264906320065319e-05
99.57735026920002,63.57735026920001,8,0,0.01115204165439643,29.47480430869927,0.1654912156609165,-2.354415691366535e-05,9.431045215451414e-05,1.323929725287332e-06,9.431417015637509e-05,9.285615179613647e-05
0.4226497308,64.4226497308,8,0,-0.02683759378833916,5.62322223235211,-0.1678192321599205,-4.584458086004373e-06,1.801578121855742e-05,-1.342553857279364e-06,1.803570206403045e-05,2.001673619979631e-05
1.5773502692,64.4226497308,8,0,0.05252624349841795,5.940677581499139,-0.1807888518800193,-4.584458086004373e-06,1.896814726599851e-05,-1.446310815040154e-06,1.899033002077267e-05,2.033123136532688e-05
0.4226497308,65.57735026920001,8,0,-0.06142324637514274,5.61457581920541,-0.04877347622989341,-4.688215043764784e-06,1.801578121855742e-05,-3.901878098391473e-07,1.801745752352588e-05,2.039326093355871e-05
1.5773502692,65.57735026920001,8,0,0.01794059091161437,5.932031168352438,-0.06174309594988384,-4.688215043764784e-06,1.896814726599851e-05,-4.939447675990707e-07,1.897072537631438e-05,2.070083670276921e-05
2.4226497308,64.4226497308,8,0,-0.05113146283727832,6.141470754429429,-0.3904837629217854,-5.076797284622834e-06,1.969361158444399e-05,-3.123870103374283e-06,1.979171320202975e-05,2.071967217021854e-05
3.5773502692,64.4226497308,8,0,0.03467181463903279,6.484683864334674,-0.4022432509372836,-5.076797284622834e-06,2.072325091415973e-05,-3.217946007498269e-06,2.082320434904401e-05,2.146641701943006e-05
2.4226497308,65.57735026920001,8,0,-0.08249009754525582,6.13363109575257,-0.2617788467073863,-5.170873188746873e-06,1.969361158444443e-05,-2.094230773659091e-06,1.973763071291813e-05,2.108060198570152e-05
3.5773502692,65.57735026920001,8,0,0.003313179931037524,6.476844205657743,-0.2735383347228981,-5.170873188746873e-06,2.072325091415994e-05,-2.188306677783185e-06,2.076940198699541e-05,2.181056426445695e-05
4.422649730800001,64.4226497308,8,0,-0.09295038878872086,6.696153638623986,-0.5947857953240477,-5.654364155023095e-06,2.150205195462773e-05,-4.758286362592382e-06,2.170891032174001e-05,2.21025075925343e-05
5.577350269200001,64.4226497308,8,0,-0.001443331961868966,7.062181865931394,-0.6050675817994217,-5.654364155023095e-06,2.260013663654995e-05,-4.840540654395373e-06,2.280595681904372e-05,2.309359450733306e-05
4.422649730800001,65.57735026920001,8,0,-0.1203684860564929,6.689299114307044,-0.4575252100837428,-5.736618446826412e-06,2.150205195462773e-05,-3.660201680669942e-06,2.16244619267511e-05,2.243234708282815e-05
5.577350269200001,65.57735026920001,8,0,-0.02886142922965895,7.05532734161438,-0.4678069965591845,-5.736618446826412e-06,2.260013663654974e-05,-3.742455972473475e-06,2.27231696739573e-05,2.340112705520845e-05
6.422649730800001,64.4226497308,8,0,-0.1501522269643365,7.28305579339216,-0.7793775223220115,-6.306931760999604e-06,2.342590032042638e-05,-6.235020178576092e-06,2.374925699204787e-05,2.38718702947535e-05
7.577350269200001,64.4226497308,8,0,-0.0536569221668679,7.669037012582034,-0.7879731073167224,-6.306931760999604e-06,2.4583843977996e-05,-6.303784858533779e-06,2.490216228201272e-05,2.500707237357847e-05
6.422649730800001,65.57735026920001,8,0,-0.1730737869503769,7.27732540339565,-0.6346345651258223,-6.375696440957725e-06,2.342590032042638e-05,-5.077076521006578e-06,2.36405896553879e-05,2.416204597238867e-05
7.577350269200001,65.57735026920001,8,0,-0.0765784821529083,7.663306622585525,-0.6432301501205195,-6.375696440957725e-06,2.4583843977996e-05,-5.145841200964157e-06,2.479621212358702e-05,2.527213514227341e-05
8.4226497308,64.4226497308,8,0,-0.2206887686847678,7.89807345602151,-0.9432595244385277,-7.024662824608465e-06,2.545038607421665e-05,-7.546076195508221e-06,2.588298510162257e-05,2.587049179116795e-05
9.5773502692,64.4226497308,8,0,-0.1198976539928527,8.301237914789171,-0.9500073163443986,-7.024662824608465e-06,2.665987945051963e-05,-7.600058530755189e-06,2.708324816466537e-05,2.709419542953925e-05
8.4226497308,65.57735026920001,8,0,-0.2386828804339016,7.893574928084226,-0.7920728524006007,-7.078645159855866e-06,2.545038607421665e-05,-6.336582819204805e-06,2.575610095385655e-05,2.611675267428948e-05
9.5773502692,65.57735026920001,8,0,-0.1378917657419865,8.296739386851888,-0.7988206443065122,-7.078645159855866e-06,2.665987945051963e-05,-6.390565154452098e-06,2.695982916771522e-05,2.731420151493423e-05
10.4226497308,64.4226497308,8,0,-0.3026053270097115,8.537230551302699,-1.085723832754145,-7.798121487473234e-06,2.75612220257764e-05,-8.685790662033162e-06,2.808681141196859e-05,2.801051768692496e-05
11.5773502692,64.4226497308,8,0,-0.19818696580742,8.954903996111863,-1.090499006819066,-7.798121487473234e-06,2.88142423602039e-05,-8.723992054552525e-06,2.932675608645351e-05,2.929025301194407e-05
10.4226497308,65.57735026920001,8,0,-0.31533912451631,8.534047101925914,-0.9290962909507352,-7.836322879992922e-06,2.756122202577597e-05,-7.432770327605882e-06,2.794719632325316e-05,2.821124835992163e-05
11.5773502692,65.57735026920001,8,0,-0.210920763313946,8.95172054673537,-0.9338714650156555,-7.836322879992922e-06,2.881424236020433e-05,-7.470971720125244e-06,2.919109431659768e-05,2.946457707665605e-05
12.4226497308,64.4226497308,8,0,-0.3940329703973418,9.196683650516631,-1.206306782535263,-8.618252425684797e-06,2.974461405797109e-05,-9.650454260282104e-06,3.034221512189607e-05,3.024019991035976e-05
13.5773502692,64.4226497308,8,0,-0.2866327692385493,9.626284455151801,-1.20901339840315,-8.618252425684797e-06,3.10334164718766e-05,-9.672107187225199e-06,3.161471621559712e-05,3.155576777641516e-05
12.4226497308,65.57735026920001,8,0,-0.4012506127117792,9.194879239938022,-1.045206480797061,-8.639905352628109e-06,2.974461405797109e-05,-8.361651846376487e-06,3.019471006668068e-05,3.03953469020354e-05
13.5773502692,65.57735026920001,8,0,-0.2938504115529779,9.624480044573227,-1.047913096664907,-8.639905352628109e-06,3.103341647187671e-05,-8.383304773319257e-06,3.14714458378572e-05,3.168492863849751e-05
14.4226497308,64.4226497308,8,0,-0.4931764808428802,9.872719158025856,-1.304752346716569,-9.4763400651179e-06,3.198724249035704e-05,-1.043801877373255e-05,3.263406736436966e-05,3.252699245545892e-05
15.5773502692,64.4226497308,8,0,-0.3834182533201296,10.31175206811686,-1.305317758152583,-9.4763400651179e-06,3.330434122063004e-05,-1.044254206522066e-05,3.393236436833238e-05,3.386485975822867e-05
14.4226497308,65.57735026920001,8,0,-0.4946842446724316,9.872342217068468,-1.140115005432321,-9.480863356606554e-06,3.198724249035704e-05,-9.120920043458568e-06,3.248285622095945e-05,3.263740217929732e-05
15.5773502692,65.57735026920001,8,0,-0.384926017149708,10.31137512715936,-1.140680416868416,-9.480863356606554e-06,3.330434122062972e-05,-9.125443334947331e-06,3.378551002192252e-05,3.395002654927599e-05
16.4226497308,64.4226497308,8,0,-0.5983008348553827,10.56174617393047,-1.38098577085457,-1.03639596106816e-05,3.427622842446182e-05,-1.104788616683656e-05,3.494962357539356e-05,3.484881713223354e-05
17.5773502692,64.4226497308,8,0,-0.4867886273609243,11.00779500390831,-1.37935718659229,-1.03639596106816e-05,3.561437491439532e-05,-1.103485749273832e-05,3.626720061768423e-05,3.619917136784141e-05
16.4226497308,65.57735026920001,8,0,-0.5939579434895919,10.56283189677192,-1.213717459612842,-1.035093093658423e-05,3.427622842446182e-05,-9.709739676902734e-06,3.479827002533499e-05,3.491584281904723e-05
17.5773502692,65.57735026920001,8,0,-0.4824457359950882,11.00888072674994,-1.212088875350602,-1.035093093658423e-05,3.561437491439586e-05,-9.696711002804819e-06,3.612020611542014e-05,3.624187756897242e-05
18.4226497308,64.4226497308,8,0,-0.7077185789610017,11.26028810002003,-1.435096616862733,-1.127292993269123e-05,3.659909678323291e-05,-1.148077293490187e-05,3.727781016087025e-05,3.718946181221008e-05
19.5773502692,64.4226497308,8,0,-0.5950382716969993,11.71100932907604,-1.43123953574876,-1.127292993269123e-05,3.795126047040093e-05,-1.144991628599008e-05,3.860832386088187e-05,3.85446313849824e-05
18.4226497308,65.57735026920001,8,0,-0.697433029323975,11.26285948742929,-1.266076155966608,-1.124207328378015e-05,3.659909678323291e-05,-1.012860924773287e-05,3.712931070739914e-05,3.721474098764229e-05
19.5773502692,65.57735026920001,8,0,-0.5847527220599638,11.71358071648534,-1.262219074852798,-1.124207328378015e-05,3.795126047040104e-05,-1.009775259882238e-05,3.846409723932706e-05,3.854661852646134e-05
20.4226497308,64.4226497308,8,0,-0.8197799492601723,11.96497552979658,-1.467329785375608,-1.219527626146981e-05,3.894374565475717e-05,-1.173863828300486e-05,3.960873102918059e-05,3.953610633716521e-05
21.5773502692,64.4226497308,8,0,-0.7065002607295998,12.41809428391887,-1.461227934818933,-1.219527626146981e-05,4.030310191712404e-05,-1.168982347855146e-05,4.094597338639325e-05,4.088969670830344e-05
20.4226497308,65.57735026920001,8,0,-0.8035083477755807,11.96904343016772,-1.297410252579776,-1.214646145701603e-05,3.894374565475717e-05,-1.037928202063821e-05,3.946556921920748e-05,3.952144330684875e-05
21.5773502692,65.57735026920001,8,0,-0.6902286592450353,12.4221621842899,-1.291308402023047,-1.214646145701603e-05,4.030310191712372e-05,-1.033046721618438e-05,4.080693434976908e-05,4.085283659663852e-05
22.4226497308,64.4226497308,8,0,-0.9328670172906102,12.67254234925464,-1.478082733804089,-1.312320833473366e-05,4.129842913144733e-05,-1.182466187043272e-05,4.193333382606876e-05,4.187796700129143e-05
23.5773502692,64.4226497308,8,0,-0.8195396625042575,13.12585176840005,-1.469739087782887,-1.312320833473366e-05,4.265835738888357e-05,-1.175791270226309e-05,4.327122159938953e-05,4.322438128232216e-05
22.4226497308,65.57735026920001,8,0,-0.9106172945675475,12.67810477993527,-1.308091701624533,-1.305645916656437e-05,4.12984291314469e-05,-1.046473361299627e-05,4.179752979696001e-05,4.182527802943517e-05
23.5773502692,65.57735026920001,8,0,-0.7972899397811135,13.13141419908101,-1.299748055603371,-1.305645916656437e-05,4.265835738888411e-05,-1.039798444482697e-05,4.313934560920709e-05,4.315064414154387e-05
24.4226497308,64.4226497308,8,0,-1.045392577366838,13.37982632721003,-1.46790693365798,-1.40491173093419e-05,4.365175830896555e-05,-1.174325546926384e-05,4.424319160261278e-05,4.420554398137186e-05
25.5773502692,64.4226497308,8,0,-0.9325514499811942,13.8311908367526,-1.457345372290998,-1.40491173093419e-05,4.500585183759328e-05,-1.165876297832798e-05,4.557577635166301e-05,4.553971604475029e-05
24.4226497308,65.57735026920001,8,0,-1.017228413721606,13.38686736812134,-1.298645242579473,-1.396462481840621e-05,4.365175830896555e-05,-1.038916194063579e-05,4.411634544200082e-05,4.411683839980566e-05
25.5773502692,65.57735026920001,8,0,-0.904387286335953,13.83823187766395,-1.288083681212572,-1.396462481840621e-05,4.500585183759339e-05,-1.030466944970058e-05,4.545263369493769e-05,4.543116409136173e-05
26.4226497308,64.4226497308,8,0,-1.155803961876157,14.08377484008243,-1.437511600321778,-1.496559255006964e-05,4.59927226577647e-05,-1.150009280257423e-05,4.653036827180306e-05,4.651020349667798e-05
27.57735026920001,64.4226497308,8,0,-1.043963320817779,14.53113740431594,-1.424778792269516,-1.496559255006964e-05,4.733481035046523e-05,-1.139823033815613e-05,4.78518627139193e-05,4.78274524601868e-05
26.4226497308,65.57735026920001,8,0,-1.121849807070105,14.09226337878381,-1.269750638734199,-1.486373008565138e-05,4.599272265776427e-05,-1.015800510987359e-05,4.641369768708058e-05,4.638758401953136e-05
27.57735026920001,65.57735026920001,8,0,-1.010009166011682,14.5396259430175,-1.257017830681923,-1.486373008565138e-05,4.733481035046534e-05,-1.005614264545538e-05,4.773865282500052e-05,4.768624616521719e-05
28.4226497308,64.4226497308,8,0,-1.262591510743446,14.78145579569977,-1.38776785688122,-1.586545747093884e-05,4.8310731754834e-05,-1.110214285504976e-05,4.878734518422909e-05,4.878395200290319e-05
29.5773502692,64.4226497308,8,0,-1.152243246715039,15.2228488518134,-1.372934992100372,-1.586545747093884e-05,4.96349109231749e-05,-1.098347993680297e-05,5.009216223116255e-05,5.007990838762305e-05
28.4226497308,65.57735026920001,8,0,-1.223037204661293,14.7913443722203,-1.222245460838554,-1.574679455269238e-05,4.8310731754834e-05,-9.777963686708434e-06,4.868171879493042e-05,4.862962387244483e-05
29.5773502692,65.57735026920001,8,0,-1.112688940632912,15.23273742833383,-1.207412596057665,-1.574679455269238e-05,4.963491092317457e-05,-9.659300768461321e-06,4.99897443722028e-05,4.990831755374232e-05
30.4226497308,64.4226497308,8,0,-1.364301050371147,15.4700733241166,-1.319711730951511,-1.674182202048095e-05,5.059567547747003e-05,-1.055769384761208e-05,5.100699226784782e-05,5.101932423513254e-05
31.5773502692,64.4226497308,8,0,-1.255911183019671,15.9036327935225,-1.302875797195028,-1.674182202048095e-05,5.189635388568774e-05,-1.042300637756023e-05,5.228979340350652e-05,5.228989967535314e-05
30.4226497308,65.57735026920001,8,0,-1.319405227020546,15.48129727995439,-1.15712692992431,-1.660713455042926e-05,5.059567547747047e-05,-9.257015439394483e-06,5.091296004054866e-05,5.083560682301712e-05
31.5773502692,65.57735026920001,8,0,-1.211015359669098,15.91485674936018,-1.140290996167869,-1.660713455042926e-05,5.189635388568785e-05,-9.122327969342953e-06,5.219871505142374e-05,5.209031453879952e-05
32.4226497308,64.4226497308,8,0,-1.459549467532406,16.14698741078849,-1.234544697075336,-1.758814822473448e-05,5.283799928854907e-05,-9.876357576602685e-06,5.318257130796961e-05,5.320934058473141e-05
33.57735026920001,64.4226497308,8,0,-1.353554077930554,16.57096896919589,-1.215829071388318,-1.758814822473448e-05,5.410994396377129e-05,-9.726632571106547e-06,5.443832109397147e-05,5.445072442359638e-05
32.4226497308,65.57735026920001,8,0,-1.409641132366954,16.15946449457985,-1.075551612672544,-1.743842321923813e-05,5.283799928854907e-05,-8.604412901380351e-06,5.310039354455621e-05,5.299867761297464e-05
33.57735026920001,65.57735026920001,8,0,-1.303645742765057,16.58344605298743,-1.056835986985405,-1.743842321923813e-05,5.410994396377183e-05,-8.454687895883238e-06,5.435884531085731e-05,5.422566396766362e-05
34.42264973080001,64.4226497308,8,0,-1.547042297770266,16.80973636890684,-1.133630834237336,-1.839832444799032e-05,5.502879021871809e-05,-9.069046673898691e-06,5.530776177922061e-05,5.534750723104833e-05
35.5773502692,64.4226497308,8,0,-1.443843132958305,17.22253302815469,-1.1131850432547,-1.839832444799032e-05,5.626718019646163e-05,-8.905480346037601e-06,5.653178537447873e-05,5.655617958560049e-05
34.42264973080001,65.57735026920001,8,0,-1.492520188483183,16.82336689622874,-0.978832087019407,-1.823475812012918e-05,5.502879021871852e-05,-7.830656696155257e-06,5.523743780139909e-05,5.511247342046763e-05
35.5773502692,65.57735026920001,8,0,-1.389321023671239,17.23616355547652,-0.9583862960367844,-1.823475812012918e-05,5.626718019646185e-05,-7.667090368294275e-06,5.646391820310744e-05,5.630829554757454e-05
36.4226497308,64.4226497308,8,0,-1.625592180761005,17.45606088415447,-1.018490037702971,-1.916674368575879e-05,5.715986857390311e-05,-8.147920301623769e-06,5.737670165785819e-05,5.742784228455672e-05
37.5773502692,64.4226497308,8,0,-1.525552178689714,17.85622089243964,-0.9964886213800398,-1.916674368575879e-05,5.836034859875861e-05,-7.971908971040318e-06,5.856474239029238e-05,5.860059671071682e-05
36.4226497308,65.57735026920001,8,0,-1.566921737233423,17.47072849503637,-0.8684300345959922,-1.899073235517605e-05,5.715986857390311e-05,-6.947440276767938e-06,5.731799899209732e-05,5.717114532519389e-05
37.5773502692,65.57735026920001,8,0,-1.466881735162113,17.87088850332161,-0.8464286182731828,-1.899073235517605e-05,5.836034859875883e-05,-6.771428946185463e-06,5.85082610037654e-05,5.833267262994279e-05
38.4226497308,64.4226497308,8,0,-1.694137055538867,18.08392830948789,-0.8907870802526849,-1.988838122531469e-05,5.922388023479235e-05,-7.126296642021479e-06,5.938403714961579e-05,5.944491682126404e-05
39.5773502692,64.4226497308,8,0,-1.597576032302877,18.47017240243185,-0.8674275675633761,-1.988838122531469e-05,6.038261251362423e-05,-6.939420540507009e-06,6.053231141529005e-05,6.057888783506916e-05
38.4226497308,65.57735026920001,8,0,-1.631845021700566,18.09950131794747,-0.7459455453986724,-1.970150512379978e-05,5.922388023479235e-05,-5.967564363189379e-06,5.933652166157515e-05,5.91693942907953e-05
39.5773502692,65.57735026920001,8,0,-1.535283998464566,18.48574541089147,-0.7225860327093772,-1.970150512379978e-05,6.038261251362434e-05,-5.780688261675018e-06,6.048679341466515e-05,6.029383307538609e-05
40.4226497308,64.4226497308,8,0,-1.751757060820803,18.69155592668725,-0.7523166390908784,-2.055886733597637e-05,6.121438461405585e-05,-6.018533112727028e-06,6.13249764571809e-05,6.139390309163626e-05
41.5773502692,64.4226497308,8,0,-1.658947780823952,19.06279304667466,-0.72781670747481,-2.055886733597637e-05,6.232809597401807e-05,-5.82253365979848e-06,6.243022354843235e-05,6.248659516781088e-05
40.4226497308,65.57735026920001,8,0,-1.686423909844566,18.70788921443132,-0.6131027190955474,-2.036286788304766e-05,6.121438461405585e-05,-4.904821752764379e-06,6.128804354818378e-05,6.110251444300944e-05
41.5773502692,65.57735026920001,8,0,-1.59361462984776,19.07912633441854,-0.5886027874795331,-2.036286788304766e-05,6.232809597401753e-05,-4.708822299836265e-06,6.239507748060884e-05,6.218743424199385e-05
42.4226497308,64.4226497308,8,0,-1.797689252248931,19.27743200815172,-0.6049846766355407,-2.117455121371795e-05,6.312593382788462e-05,-4.839877413084326e-06,6.319534369676776e-05,6.327062439747164e-05
43.57735026920001,64.4226497308,8,0,-1.708854069490762,19.63277273918439,-0.5795786173064753,-2.117455121371795e-05,6.419195602098266e-05,-4.636628938451803e-06,6.425486856319887e-05,6.431994001144034e-05
42.4226497308,65.57735026920001,8,0,-1.729939760704956,19.29436938103771,-0.4717319024982866,-2.097130273908602e-05,6.312593382788462e-05,-3.773855219986293e-06,6.316825038024739e-05,6.296643846796432e-05
43.57735026920001,65.57735026920001,8,0,-1.641104577946805,19.64971011207031,-0.4463258431692619,-2.097130273908602e-05,6.419195602098244e-05,-3.570606745354095e-06,6.42293654474615e-05,6.400979779373262e-05
44.4226497308,64.4226497308,8,0,-1.831339431334791,19.84033368791622,-0.4507867775078739,-2.173255313060431e-05,6.495413934639975e-05,-3.606294220062992e-06,6.499162992153104e-05,6.507160267840822e-05
45.5773502692,64.4226497308,8,0,-1.746647649942219,20.17910081348651,-0.4247214252253798,-2.173255313060431e-05,6.597044072311061e-05,-3.397771401803039e-06,6.600333732460122e-05,6.607586766083582e-05
44.4226497308,65.57735026920001,8,0,-1.761831825248014,19.85771058943792,-0.3237491054188533,-2.152403031234398e-05,6.495413934639975e-05,-2.589992843350826e-06,6.497352735893215e-05,6.475778138456331e-05
45.5773502692,65.57735026920001,8,0,-1.677140043855423,20.19647771500828,-0.2976837531363185,-2.152403031234398e-05,6.597044072311083e-05,-2.381470025090548e-06,6.598664274533921e-05,6.575795123225914e-05
46.42264973080001,64.4226497308,8,0,-1.852290583950596,20.37934086624994,-0.2917841972131623,-2.223080256164185e-05,6.669572323916026e-05,-2.334273577705298e-06,6.671103895851811e-05,6.679410101303997e-05
47.57735026920001,64.4226497308,8,0,-1.771856641695607,20.7010766352699,-0.265314505921982,-2.223080256164185e-05,6.766093054622014e-05,-2.122516047375856e-06,6.767345796801536e-05,6.775208604060805e-05
46.42264973080001,65.57735026920001,8,0,-1.781704740507341,20.39698732711075,-0.1711332838307315,-2.201904503131209e-05,6.669572323916026e-05,-1.369066270645852e-06,6.670100485942459e-05,6.647388002008648e-05
47.57735026920001,65.57735026920001,8,0,-1.701270798252333,20.71872309613078,-0.1446635925394699,-2.201904503131209e-05,6.766093054622036e-05,-1.157308740315759e-06,6.766466412150696e-05,6.742966399541927e-05
48.4226497308,64.4226497308,8,0,-1.860307635478682,20.89384561019079,-0.1300784711955657,-2.266806092168441e-05,6.834855206099347e-05,-1.040627769564526e-06,6.835152643768042e-05,6.843615916453773e-05
49.57735026920001,64.4226497308,8,0,-1.78419016816563,21.198315479443,-0.103462926948208,-2.266806092168441e-05,6.92619616687501e-05,-8.277034155856639e-07,6.926382471370843e-05,6.934709666771735e-05
48.4226497308,65.57735026920001,8,0,-1.789332850818971,20.91158930635572,-0.01590227022600036,-2.245513656770528e-05,6.834855206099347e-05,-1.272181618080029e-07,6.834859661990125e-05,6.811282637638044e-05
49.57735026920001,65.57735026920001,8,0,-1.713215383505927,21.21605917560789,0.01071327402133023,-2.245513656770528e-05,6.926196166874999e-05,8.570619217064188e-08,6.926198169105203e-05,6.902347673573262e-05
50.42264973080001,64.4226497308,8,0,-1.85533843420296,21.3835567579272,0.03221452996885149,-2.304392839579122e-05,6.991165237272938e-05,2.577162397508119e-07,6.991183099980064e-05,6.999662106707627e-05
51.57735026920001,64.4226497308,8,0,-1.783540233803287,21.67074955952588,0.05871846884712489,-2.304392839579122e-05,7.077323077752545e-05,4.697477507769991e-07,7.07738187871398e-05,7.086021722377629e-05
50.42264973080001,65.57735026920001,8,0,-1.784661263860843,21.40122605051272,0.1399118305683736,-2.283189688476487e-05,6.991165237272938e-05,1.119294644546989e-06,6.991502935931008e-05,6.967349378884794e-05
51.57735026920001,65.57735026920001,8,0,-1.712863063461171,21.68841885211141,0.1664157694466605,-2.283189688476487e-05,7.077323077752545e-05,1.331326155573284e-06,7.077796433152683e-05,7.053872304446853e-05
52.4226497308,64.4226497308,8,0,-1.837511065874022,21.84849967568329,0.1929902270841281,-2.33588351513435e-05,7.138520781488572e-05,1.543921816673025e-06,7.13914972244219e-05,7.14751538024835e-05
53.5773502692,64.4226497308,8,0,-1.769979903006645,22.11862432715279,0.2191304840530524,-2.33588351513435e-05,7.219558176929425e-05,1.753043872424419e-06,7.220362144022846e-05,7.229159562231559e-05
52.4226497308,65.57735026920001,8,0,-1.767803713956638,21.86592651366263,0.2942869713852612,-2.314971309559134e-05,7.138520781488572e-05,2.35429577108209e-06,7.139986337650892e-05,7.115555539219074e-05
53.5773502692,65.57735026920001,8,0,-1.700272551089252,22.13605116513218,0.3204272283541991,-2.314971309559134e-05,7.219558176929436e-05,2.563417826833593e-06,7.221280842933294e-05,7.197554345037089e-05
54.42264973080001,64.4226497308,8,0,-1.807127774343723,22.28901134161572,0.3501798265457661,-2.361401795119249e-05,7.277053851264528e-05,2.801438612366129e-06,7.279089032470343e-05,7.287225818253759e-05
55.57735026920001,64.4226497308,8,0,-1.743758017622842,22.54249036849924,0.3757136964712207,-2.361401795119249e-05,7.353097559329586e-05,3.005709571769766e-06,7.355421953150004e-05,7.36422159793525e-05
54.42264973080001,65.57735026920001,8,0,-1.739037454542204,22.3060339215661,0.4452344616269932,-2.340974699178793e-05,7.277053851264528e-05,3.561875693015946e-06,7.280350423797505e-05,7.25594949376671e-05
55.57735026920001,65.57735026920001,8,0,-1.675667697821322,22.55951294844963,0.4707683315525427,-2.340974699178793e-05,7.353097559329586e-05,3.766146652420341e-06,7.356754049672547e-05,7.333489201200342e-05
56.4226497308,64.4226497308,8,0,-1.764655911044681,22.70573113414559,0.501772964573696,-2.381148382265945e-05,7.407006435810161e-05,4.014183716589568e-06,7.411120311617256e-05,7.418927154534432e-05
57.57735026920001,64.4226497308,8,0,-1.705290843157034,22.94319140569618,0.52647060711033,-2.381148382265945e-05,7.478244517275339e-05,4.21176485688264e-06,7.482740452779662e-05,7.491389734944596e-05
56.4226497308,65.57735026920001,8,0,-1.698795530947207,22.72219622916996,0.5908205664051542,-2.361390268236702e-05,7.407006435810161e-05,4.726564531241234e-06,7.412720615987932e-05,7.388661046751039e-05
57.57735026920001,65.57735026920001,8,0,-1.639430463059568,22.95965650072051,0.6155182089417205,-2.361390268236702e-05,7.478244517275328e-05,4.924145671533764e-06,7.484401262144358e-05,7.461853624515663e-05
58.4226497308,64.4226497308,8,0,-1.710716455984492,23.09958787548469,0.6458379118800763,-2.395396295953812e-05,7.528725436633859e-05,5.166703295040611e-06,7.535445617855822e-05,7.54283637989854e-05
59.57735026920001,64.4226497308,8,0,-1.655151160116985,23.32184905895472,0.6694852491968931,-2.395396295953812e-05,7.595403791674866e-05,5.355881993575145e-06,7.602576613652994e-05,7.610928647387483e-05
58.4226497308,65.57735026920001,8,0,-1.647656889806205,23.11535276702926,0.7291858556813082,-2.376478426100326e-05,7.528725436633859e-05,5.833486845450465e-06,7.537306812958709e-05,7.513901174586959e-05
59.57735026920001,65.57735026920001,8,0,-1.592091593938699,23.33761395049929,0.7528331929981249,-2.376478426100326e-05,7.595403791674866e-05,6.022665543984999e-06,7.60448920843576e-05,7.582905148032647e-05
60.4226497308,64.4226497308,8,0,-1.646070741623014,23.47178381945752,0.7805389023213163,-2.404485342875966e-05,7.642656481556247e-05,6.24431121857053e-06,7.652349248758266e-05,7.659252809838352e-05
61.5773502692,64.4226497308,8,0,-1.594055412860732,23.67984513450665,0.8029398581535669,-2.404485342875966e-05,7.705074876070985e-05,6.423518865228536e-06,7.715268205980835e-05,7.723184609404011e-05
60.4226497308,65.57735026920001,8,0,-1.586334859403768,23.48671779001234,0.8585618954647924,-2.386564578210192e-05,7.642656481556247e-05,6.86849516371834e-06,7.654402418434087e-05,7.631961266767623e-05
61.5773502692,65.57735026920001,8,0,-1.534319530641441,23.69477910506164,0.8809628512969347,-2.386564578210192e-05,7.705074876071039e-05,7.047702810375478e-06,7.717364677801842e-05,7.696981102133718e-05
62.42264973080001,64.4226497308,8,0,-1.571606065868605,23.82377637163384,0.9041503200994568,-2.40881605080866e-05,7.749336924192315e-05,7.233202560795655e-06,7.762196808455918e-05,7.768556780986651e-05
63.57735026920001,64.4226497308,8,0,-1.522849591031193,24.01880227098349,0.9251283759102122,-2.40881605080866e-05,7.80784469399721e-05,7.401027007281698e-06,7.821230556951384e-05,7.828584059439765e-05
62.42264973080001,65.57735026920001,8,0,-1.515664583706681,23.83776174217432,0.9772850323556156,-2.392033606160083e-05,7.749336924192315e-05,7.818280258844925e-06,7.764382955888734e-05,7.743212010548827e-05
63.57735026920001,65.57735026920001,8,0,-1.466908108869269,24.03278764152396,0.9982630881663168,-2.392033606160083e-05,7.80784469399721e-05,7.986104705330534e-06,7.823452826997488e-05,7.804497365858242e-05
64.4226497308,64.4226497308,8,0,-1.488320899766332,24.15725838617353,1.015067661125796,-2.408843358819108e-05,7.849388355556835e-05,8.120541289006371e-06,7.865434055941496e-05,7.871208158091349e-05
65.57735026920001,64.4226497308,8,0,-1.442494546171917,24.34056380055119,1.034466744620185,-2.408843358819108e-05,7.904379979870133e-05,8.275733956961476e-06,7.920955272132171e-05,7.927632082786143e-05
64.4226497308,65.57735026920001,8,0,-1.436590010448001,24.17019110850311,1.083807191517379,-2.393324092023609e-05,7.849388355556835e-05,8.67045753213903e-06,7.867704461351097e-05,7.848102078979179e-05
65.57735026920001,65.57735026920001,8,0,-1.390763656853568,24.35349652288085,1.103206275011794,-2.393324092023609e-05,7.904379979870155e-05,8.825650200094352e-06,7.923255446579582e-05,7.905947015370696e-05
66.4226497308,64.4226497308,8,0,-1.397310378915102,24.47413789606982,1.111815366860181,-2.405070352938418e-05,7.94350895705555e-05,8.894522934881446e-06,7.962585722734718e-05,7.967744835730978e-05
67.57735026920001,64.4226497308,8,0,-1.354051437739995,24.64717366077025,1.129500126377848,-2.405070352938418e-05,7.995419686465677e-05,9.036001011022781e-06,8.015009103852028e-05,8.020910990117585e-05
66.4226497308,65.57735026920001,8,0,-1.350151020201523,24.48592773574821,1.176703778622812,-2.390922545324344e-05,7.94350895705555e-05,9.413630228982499e-06,7.964901854103155e-05,7.947156781985442e-05
67.57735026920001,65.57735026920001,8,0,-1.306892079026444,24.65896350044853,1.194388538140452,-2.390922545324344e-05,7.995419686465644e-05,9.555108305123617e-06,8.017349382230254e-05,8.001899021758252e-05
68.42264973080002,64.4226497308,8,0,-1.299752716584806,24.77651810200227,1.193051804674713,-2.39804231746732e-05,8.032466009967511e-05,9.544414437397705e-06,8.054254485904069e-05,8.058781402593103e-05
69.57735026920001,64.4226497308,8,0,-1.25866795938912,24.94085713078502,1.208907358299098,-2.39804231746732e-05,8.081767718602336e-05,9.671258866392782e-06,8.104033138531155e-05,8.109079139197601e-05
68.42264973080002,65.57735026920001,8,0,-1.257471240253078,24.78708847108521,1.254678940468257,-2.385357874567801e-05,8.032466009967511e-05,1.003743152374606e-05,8.056587480672042e-05,8.040976822173057e-05
69.57735026920001,65.57735026920001,8,0,-1.216386483057364,24.95142749986806,1.270534494092642,-2.385357874567801e-05,8.081767718602368e-05,1.016427595274113e-05,8.106385292631074e-05,8.092997118586069e-05
70.4226497308,64.4226497308,8,0,-1.196897094178712,25.06667837232406,1.257571829355831,-2.388341339923112e-05,8.117088846677995e-05,1.006057463484665e-05,8.141120265798304e-05,8.145008092502005e-05
71.57735026920001,64.4226497308,8,0,-1.15756592096842,25.22400306516523,1.271503108304036,-2.388341339923112e-05,8.164286254530345e-05,1.017202486643229e-05,8.188742449626753e-05,8.19287008179208e-05
70.4226497308,65.57735026920001,8,0,-1.159747016983534,25.07596589162285,1.316568589171364,-2.377196316764559e-05,8.117088846677995e-05,1.053254871337091e-05,8.143450008096705e-05,8.130237252547531e-05
71.57735026920001,65.57735026920001,8,0,-1.12041584377317,25.23329058446431,1.330499868119569,-2.377196316764559e-05,8.164286254530432e-05,1.064399894495655e-05,8.191086897370111e-05,8.179958894202231e-05
72.4226497308,64.4226497308,8,0,-1.090053476047714,25.3470568973908,1.304307498584931,-2.376581664126533e-05,8.198262485248874e-05,1.043445998867945e-05,8.223939984635912e-05,8.227190060427389e-05
73.57735026920001,64.4226497308,8,0,-1.052030658777431,25.49914816647194,1.316238329281073,-2.376581664126533e-05,8.243889865973213e-05,1.052990663424859e-05,8.26992632174658e-05,8.27309199648764e-05
72.4226497308,65.57735026920001,8,0,-1.058237927524577,25.35501078452159,1.361341724490247,-2.367036999569591e-05,8.198262485248874e-05,1.089073379592197e-05,8.226253806544702e-05,8.215686647453708e-05
73.57735026920001,65.57735026920001,8,0,-1.020215110254322,25.50710205360261,1.373272555186416,-2.367036999569591e-05,8.243889865973181e-05,1.098618044149133e-05,8.272250824593665e-05,8.263575042926479e-05
74.4226497308,64.4226497308,8,0,-0.98058466700419,25.62023550181588,1.332327625640572,-2.363405933586611e-05,8.276922133941414e-05,1.065862100512458e-05,8.303547870729763e-05,8.306166864360017e-05
75.57735026920001,64.4226497308,8,0,-0.9434026222891179,25.76896368067617,1.342199712994218,-2.363405933586611e-05,8.321540587599501e-05,1.073759770395374e-05,8.348449093213955e-05,8.350627147784571e-05
74.4226497308,65.57735026920001,8,0,-0.9542591007277306,25.62681689338499,1.388100692713127,-2.355508263703673e-05,8.276922133941414e-05,1.110480554170502e-05,8.305838907810427e-05,8.298146341371323e-05
75.57735026920001,65.57735026920001,8,0,-0.9170770560126673,25.77554507224524,1.397972780066827,-2.355508263703673e-05,8.32154058759949e-05,1.118378224053461e-05,8.350747107728238e-05,8.344708489737508e-05
76.42264973080002,64.4226497308,8,0,-0.8699007890219006,25.88892695578811,1.340836931774261,-2.349482408950057e-05,8.354048688973947e-05,1.072669545419409e-05,8.380856322508779e-05,8.382851746962153e-05
77.57735026920001,64.4226497308,8,0,-0.8330713465566078,26.03624472564928,1.348608917213257,-2.349482408950057e-05,8.398244019932298e-05,1.078887133770605e-05,8.425251588001845e-05,8.426430705748043e-05
76.42264973080002,65.57735026920001,8,0,-0.849175494517822,25.89410827941413,1.396081095472214,-2.343264820598833e-05,8.354048688973947e-05,1.116864876377771e-05,8.383121554440294e-05,8.378509303837395e-05
77.57735026920001,65.57735026920001,8,0,-0.8123460520525381,26.04142604927527,1.403853080911169,-2.343264820598833e-05,8.398244019932287e-05,1.123082464728935e-05,8.427520303139389e-05,8.424292696933213e-05
78.4226497308,64.4226497308,8,0,-0.7594562052016958,26.15596494909422,1.329175607491968,-2.33550318159208e-05,8.430665280126284e-05,1.063340485993574e-05,8.456857256285288e-05,8.458229775407862e-05
79.57735026920001,64.4226497308,8,0,-0.7224718725843839,26.30390227956346,1.334822379353781,-2.33550318159208e-05,8.475046479267058e-05,1.067857903483025e-05,8.501353013226978e-05,8.501527490569714e-05
78.4226497308,65.57735026920001,8,0,-0.7443981469036167,26.15972946366874,1.384652106418017,-2.330985764102656e-05,8.430665280126284e-05,1.107721685134413e-05,8.459095264305421e-05,8.457737682089986e-05
79.57735026920001,65.57735026920001,8,0,-0.7074138142863236,26.30766679413791,1.390298878279803,-2.330985764102656e-05,8.475046479267036e-05,1.112239102623843e-05,8.503591106256343e-05,8.503327687704742e-05
80.4226497308,64.4226497308,8,0,-0.6507487698591827,26.42429670626242,1.296820107079681,-2.322183342855932e-05,8.507834847592708e-05,1.037456085663745e-05,8.53262375264214e-05,8.533352869162956e-05
81.57735026920001,64.4226497308,8,0,-0.6130835290042542,26.57495766968214,1.300332538506799,-2.322183342855932e-05,8.553033136618623e-05,1.04026603080544e-05,8.577853086118314e-05,8.577003705291658e-05
80.4226497308,65.57735026920001,8,0,-0.6413822860535534,26.42663832721383,1.353317968362088,-2.319373397714243e-05,8.507834847592708e-05,1.082654374689671e-05,8.534832228501994e-05,8.536857007614158e-05
81.57735026920001,65.57735026920001,8,0,-0.6037170451985796,26.57729929063373,1.356830399789233,-2.319373397714243e-05,8.553033136618677e-05,1.085464319831387e-05,8.580058233648432e-05,8.582870807539051e-05
82.4226497308,64.4226497308,8,0,-0.5453211377999079,26.69697803452891,1.243385986289346,-2.310261006858283e-05,8.586658662073244e-05,9.947087890314768e-06,8.609311690776254e-05,8.609327718445931e-05
83.57735026920001,64.4226497308,8,0,-0.5064308420073234,26.85253921769925,1.244771267473461,-2.310261006858283e-05,8.633327017024345e-05,9.958170139787691e-06,8.655934027073438e-05,8.653987728562984e-05
82.4226497308,65.57735026920001,8,0,-0.5416270546423219,26.69790155531831,1.301721429978304,-2.309152781911007e-05,8.586658662073244e-05,1.041377143982643e-05,8.611484739166188e-05,8.616943015425188e-05
83.57735026920001,65.57735026920001,8,0,-0.5027367588497373,26.85346273848865,1.303106711162392,-2.309152781911007e-05,8.633327017024345e-05,1.042485368929914e-05,8.658100215579208e-05,8.664016218575233e-05
84.42264973080002,64.4226497308,8,0,-0.4447637260928898,26.97717041276369,1.168633552012095,-2.30049802537082e-05,8.668275630171812e-05,9.349068416096757e-06,8.688160922967726e-05,8.687288526359253e-05
85.57735026920001,64.4226497308,8,0,-0.404086199571271,27.13988051885017,1.167916270185848,-2.30049802537082e-05,8.717088661997754e-05,9.343330161486782e-06,8.736861918227652e-05,8.733607987758047e-05
84.42264973080002,65.57735026920001,8,0,-0.4466764776293859,26.97669222487957,1.229649841794469,-2.301071850831769e-05,8.668275630171812e-05,9.837198734355748e-06,8.690286213026312e-05,8.699092904475835e-05
85.57735026920001,65.57735026920001,8,0,-0.4059989511077671,27.13940233096605,1.228932559968303,-2.301071850831769e-05,8.717088661997754e-05,9.831460479746423e-06,8.738976612825825e-05,8.74785098937145e-05
86.4226497308,64.4226497308,8,0,-0.350718788846784,27.26813955207275,1.072477027799741,-2.293681176596791e-05,8.753862159771022e-05,8.579816222397925e-06,8.770495400820422e-05,8.768338235106392e-05
87.57735026920002,64.4226497308,8,0,-0.3076737617909249,27.44031966029619,1.069701130333139,-2.293681176596791e-05,8.805516192238053e-05,8.557609042665116e-06,8.821986788687096e-05,8.816903574026746e-05
86.4226497308,65.57735026920001,8,0,-0.3581211820910175,27.26628895376169,1.137044568383394,-2.295901894570061e-05,8.753862159771022e-05,9.096356547067148e-06,8.772551244278449e-05,8.784364479299504e-05
87.57735026920002,65.57735026920001,8,0,-0.315076155035185,27.43846906198502,1.134268670916806,-2.295901894570061e-05,8.80551619223802e-05,9.074149367334448e-06,8.824028041506414e-05,8.835363104053233e-05
88.42264973080002,64.4226497308,8,0,-0.2648849393159454,27.57325468902764,0.95499785229155,-2.290623555703314e-05,8.844632295634119e-05,7.6399828183324e-06,8.85772153376677e-05,8.853424953666255e-05
89.57735026920001,64.4226497308,8,0,-0.2188739814742773,27.75729852039431,0.9502296058592102,-2.290623555703314e-05,8.899845445044122e-05,7.601836846873682e-06,8.912740661678431e-05,8.904637879487797e-05
88.42264973080002,65.57735026920001,8,0,-0.2776002631354091,27.57007585807278,1.024014289054012,-2.294438152849153e-05,8.844632295634119e-05,8.192114312432098e-06,8.859673998639364e-05,8.873649418258381e-05
89.57735026920001,65.57735026920001,8,0,-0.2315893052937046,27.75411968943959,1.019246042621659,-2.294438152849153e-05,8.899845445044165e-05,8.153968340973271e-06,8.914674272961107e-05,8.927250949152112e-05
90.42264973080002,64.4226497308,8,0,-0.1890213330332076,27.89598771082924,0.8164626195910051,-2.292165843436966e-05,8.941837774108013e-05,6.531700956728041e-06,8.951323956367205e-05,8.943085451884432e-05
91.57735026920001,64.4226497308,8,0,-0.1394279770950995,28.09436113458167,0.8097946515117871,-2.292165843436966e-05,9.001349801233743e-05,6.478357212094297e-06,9.010632704045641e-05,8.996913247282648e-05
90.42264973080002,65.57735026920001,8,0,-0.2068025812444008,27.89154239877644,0.8908526534980726,-2.297500217900324e-05,8.941837774108013e-05,7.126821227984581e-06,8.953124165663724e-05,8.967411528920723e-05
91.57735026920001,65.57735026920001,8,0,-0.1572092253062927,28.08991582252888,0.8841846854188545,-2.297500217900324e-05,9.001349801233743e-05,7.073477483350837e-06,9.01240958963147e-05,9.023530742420922e-05
92.42264973080002,64.4226497308,8,0,-0.1249506095645359,28.23991105830444,0.6573460404556527,-2.299177079725007e-05,9.046767587422583e-05,5.258768323645221e-06,9.052857826861887e-05,9.036915722780615e-05
93.57735026920001,64.4226497308,8,0,-0.07114088263550666,28.45514996602056,0.6489025163927675,-2.299177079725007e-05,9.111339259737419e-05,5.19122013114214e-06,9.117240578184564e-05,9.09237672287602e-05
92.42264973080002,65.57735026920001,8,0,-0.1474666737322838,28.23428204226251,0.7380606308492101,-2.305931898975331e-05,9.046767587422583e-05,5.904485046793681e-06,9.054439639245564e-05,9.065147880512819e-05
93.57735026920001,65.57735026920001,8,0,-0.09365694680324577,28.44952094997866,0.7296171067862843,-2.305931898975331e-05,9.111339259737429e-05,5.836936854290275e-06,9.118794543680546e-05,9.12272880275013e-05
94.4226497308,64.4226497308,8,0,-0.07455957868986207,28.60869320798319,0.4783591479999864,-2.312554521819411e-05,9.16074659284981e-05,3.826873183999891e-06,9.163936800979303e-05,9.132480257919991e-05
95.57735026920002,64.4226497308,8,0,-0.01588318533946964,28.84339878138476,0.4683021023011249,-2.312554521819411e-05,9.231158264870281e-05,3.746416818408999e-06,9.234197136622362e-05,9.186584153132492e-05
94.4226497308,65.57735026920001,8,0,-0.1013783672201871,28.60198851085061,0.5663737380255207,-2.320600158378509e-05,9.16074659284981e-05,4.530989904204166e-06,9.165215119683776e-05,9.164280066464904e-05
95.57735026920002,65.57735026920001,8,0,-0.0427019738697858,28.83669408425222,0.5563166923266862,-2.320600158378509e-05,9.231158264870292e-05,4.45053353861349e-06,9.235443306034968e-05,9.220219307819878e-05
96.4226497308,64.4226497308,8,0,-0.03979653075498213,29.006090400447,0.2804827871408222,-2.333222121877354e-05,9.285132650603436e-05,2.243862297126578e-06,9.28621594696825e-05,9.223065233651092e-05
97.57735026920001,64.4226497308,8,0,0.02441104600851673,29.26292070750099,0.2690195769186116,-2.333222121877354e-05,9.362181742719636e-05,2.152156615348893e-06,9.363171744029033e-05,9.268629503934654e-05
96.4226497308,65.57735026920001,8,0,-0.07036509134759772,28.99844826029884,0.3767941522860984,-2.342392690055138e-05,9.285132650603436e-05,3.014353218288787e-06,9.287085946535384e-05,9.257871737043951e-05
97.57735026920001,65.57735026920001,8,0,-0.006157514584071322,29.25527856735295,0.3653309420638471,-2.342392690055138e-05,9.362181742719668e-05,2.922647536510777e-06,9.364005930691435e-05,9.304800845361908e-05
98.42264973080002,64.4226497308,8,0,-0.02266395449358338,29.4359331625683,0.06500620779073107,-2.36212711844341e-05,9.421311728381341e-05,5.200496623258485e-07,9.421369107712164e-05,9.293047666821062e-05
99.57735026920002,64.4226497308,8,0,0.04775023964747849,29.71758993913255,0.0523980079955176,-2.36212711844341e-05,9.505808761350616e-05,4.191840639641408e-07,9.50584577594465e-05,9.314195058173492e-05
98.42264973080002,65.57735026920001,8,0,-0.05628582061415255,29.42752769603816,0.1706274990023239,-2.372213678279581e-05,9.421311728381341e-05,1.365019992018591e-06,9.421706694499415e-05,9.329925885862533e-05
99.57735026920002,65.57735026920001,8,0,0.01412837352693597,29.70918447260251,0.1580192992071375,-2.372213678279581e-05,9.505808761350648e-05,1.2641543936571e-06,9.506145105445001e-05,9.351639664737428e-05
0.4226497308,66.42264973080002,8,0,-0.02690216911982146,5.843550704908371,-0.1567584606619685,-4.760927505110125e-06,1.872088399100264e-05,-1.254067685295748e-06,1.873761572777156e-05,2.065778844667427e-05
1.5773502692,66.42264973080002,8,0,0.05009580678591807,6.151542608531329,-0.1686206082853728,-4.760927505110125e-06,1.964485970187152e-05,-1.348964866282982e-06,1.966348559682006e-05,2.096059063752115e-05
0.4226497308,67.57735026920001,8,0,-0.05853456278217872,5.835642606492781,-0.04126149680331843,-4.855824686097196e-06,1.872088399100264e-05,-3.300919744265475e-07,1.872203931948739e-05,2.100396631877418e-05
1.5773502692,67.57735026920001,8,0,0.01846341312356081,6.143634510115739,-0.05312364442674979,-4.855824686097196e-06,1.964485970187152e-05,-4.249891554139983e-07,1.964670252996662e-05,2.130064624731722e-05
2.4226497308,66.42264973080002,8,0,-0.04992778126234687,6.346334614100509,-0.3609828653304,-5.236836591319917e-06,2.03482129901315e-05,-2.8878629226432e-06,2.042944556026693e-05,2.133435781909802e-05
3.5773502692,66.42264973080002,8,0,0.03320731943833222,6.678875016903225,-0.3717502982246191,-5.236836591319917e-06,2.134583419853965e-05,-2.974002385796952e-06,2.14287565074301e-05,2.205270655856438e-05
2.4226497308,67.57735026920001,8,0,-0.0786409356468587,6.339156325504381,-0.2362802142794355,-5.322976054473452e-06,2.03482129901315e-05,-1.890241714235484e-06,2.038296190440912e-05,2.166670183320074e-05
3.5773502692,67.57735026920001,8,0,0.004494165053838595,6.67169672830717,-0.2470476471736816,-5.322976054473452e-06,2.134583419853987e-05,-1.976381177389453e-06,2.138240064172073e-05,2.237010436372842e-05
4.422649730800001,66.42264973080002,8,0,-0.08973496095314593,6.883867327702059,-0.5489166092507086,-5.794245737211713e-06,2.21001634174091e-05,-4.391332874005669e-06,2.227193424994799e-05,2.26645656761016e-05
5.577350269200001,66.42264973080002,8,0,-0.001131249014349134,7.238282175457246,-0.5583149084304991,-5.794245737211713e-06,2.316340796067466e-05,-4.466519267443993e-06,2.333462805750234e-05,2.361784713289225e-05
4.422649730800001,67.57735026920001,8,0,-0.114797092099308,6.877601794915519,-0.416011041342527,-5.8694321306502e-06,2.21001634174091e-05,-3.328088330740216e-06,2.219881734261878e-05,2.296915918111996e-05
5.577350269200001,67.57735026920001,8,0,-0.02619338016052919,7.232016642670634,-0.4254093405223311,-5.8694321306502e-06,2.316340796067445e-05,-3.403274724178649e-06,2.326280197561666e-05,2.390240484829444e-05
6.422649730800001,66.42264973080002,8,0,-0.1443401226667835,7.452316211031206,-0.7191526968187218,-6.423741361358671e-06,2.396288397343328e-05,-5.753221574549775e-06,2.423280639545897e-05,2.436668003248377e-05
7.577350269200001,66.42264973080002,8,0,-0.05092641074037596,7.825971058736836,-0.7269647572722456,-6.423741361358671e-06,2.508384851655017e-05,-5.815718058177965e-06,2.534996927998571e-05,2.545924810384324e-05
6.422649730800001,67.57735026920001,8,0,-0.1651722838763612,7.447108170728812,-0.5790321289290296,-6.486237844987404e-06,2.396288397343328e-05,-4.632257031432236e-06,2.41380537819845e-05,2.463557500401128e-05
7.577350269200001,67.57735026920001,8,0,-0.07175857194996293,7.820763018434405,-0.5868441893826346,-6.486237844987404e-06,2.508384851655006e-05,-4.694753515061077e-06,2.525743202671336e-05,2.570538745293353e-05
8.4226497308,66.42264973080002,8,0,-0.2118166370932864,8.047904468881429,-0.8706218247517071,-7.116136813803658e-06,2.59227476100952e-05,-6.964974598013657e-06,2.628583153559571e-05,2.629072151203157e-05
9.5773502692,66.42264973080002,8,0,-0.1142374368456176,8.438221269872104,-0.8766776707770072,-7.116136813803658e-06,2.709369801306722e-05,-7.013421366216057e-06,2.744945697643548e-05,2.746978103708163e-05
8.4226497308,67.57735026920001,8,0,-0.2279655598272932,8.043867238197926,-0.7242530243803803,-7.164583582005678e-06,2.59227476100952e-05,-5.794024195043043e-06,2.617448467212738e-05,2.651975233257532e-05
9.5773502692,67.57735026920001,8,0,-0.1303863595796697,8.43418403918842,-0.7303088704056532,-7.164583582005678e-06,2.709369801306668e-05,-5.842470963245226e-06,2.734100913187146e-05,2.767482611082875e-05
10.4226497308,66.42264973080002,8,0,-0.290300968211068,8.666934249630817,-1.002544186786035,-7.86251049798007e-06,2.796643037338746e-05,-8.020353494288279e-06,2.84097857494474e-05,2.835330427832533e-05
11.5773502692,66.42264973080002,8,0,-0.189184405966448,9.071400498609297,-1.006712250580248,-7.86251049798007e-06,2.917982912032291e-05,-8.053698004641986e-06,2.961253078870651e-05,2.95880751381236e-05
10.4226497308,67.57735026920001,8,0,-0.3014158049955107,8.664155540434706,-0.8508693434192398,-7.895855008333398e-06,2.796643037338746e-05,-6.806954747353919e-06,2.828657630643325e-05,2.854067759193993e-05
11.5773502692,67.57735026920001,8,0,-0.2002992427509267,9.068621789413042,-0.8550374072133584,-7.895855008333398e-06,2.917982912032247e-05,-6.840299257706867e-06,2.949269027592011e-05,2.975115405199159e-05
12.4226497308,66.42264973080002,8,0,-0.3779921494580853,9.305799724565892,-1.114388414486043,-8.654214657918585e-06,3.008095283817732e-05,-8.915107315888345e-06,3.058729886888985e-05,3.05053497583209e-05
13.5773502692,66.42264973080002,8,0,-0.2739490632701811,9.721972069317509,-1.11656851725261,-8.654214657918585e-06,3.132946987243217e-05,-8.932548138020882e-06,3.182228921576689e-05,3.177661976550162e-05
12.4226497308,67.57735026920001,8,0,-0.3838057568355979,9.304346322721514,-0.9583237852042281,-8.671655480051122e-06,3.008095283817732e-05,-7.666590281633825e-06,3.045649199818442e-05,3.065073615900771e-05
13.5773502692,67.57735026920001,8,0,-0.2797626706476848,9.720518667473167,-0.9605038879708901,-8.671655480051122e-06,3.132946987243227e-05,-7.684031103767121e-06,3.169514373776074e-05,3.189796372100841e-05
14.4226497308,66.42264973080002,8,0,-0.4731470253571697,9.960992952392955,-1.205838426884587,-9.482864843057305e-06,3.225369506794319e-05,-9.646707415076694e-06,3.280386158479843e-05,3.271586669104344e-05
15.5773502692,66.42264973080002,8,0,-0.3667709288885876,10.38649733826728,-1.205956535782872,-9.482864843057305e-06,3.353020822556617e-05,-9.647652286262978e-06,3.406455217187145e-05,3.401066700540492e-05
14.4226497308,67.57735026920001,8,0,-0.4734619824191197,9.960914213127467,-1.046274282181592,-9.483809714243155e-06,3.225369506794319e-05,-8.370194257452737e-06,3.266920597952579e-05,3.281982599989562e-05
15.5773502692,67.57735026920001,8,0,-0.3670858859504924,10.38641859900198,-1.04639239107985,-9.483809714243155e-06,3.353020822556671e-05,-8.371139128638804e-06,3.393370877528108e-05,3.409117302150303e-05
16.4226497308,66.42264973080002,8,0,-0.5740735108589696,10.62910525540364,-1.276768257761681,-1.034031943907162e-05,3.447239562597883e-05,-1.021414606209344e-05,3.504705314544369e-05,3.496366505187074e-05
17.5773502692,66.42264973080002,8,0,-0.4659409533035497,11.06163548562532,-1.27477294823004,-1.034031943907162e-05,3.576998631664387e-05,-1.019818358584032e-05,3.632713555725856e-05,3.627250382007849e-05
16.4226497308,67.57735026920001,8,0,-0.5687526854413707,10.63043546175804,-1.114569421428659,-1.032435696281882e-05,3.447239562597883e-05,-8.916555371429272e-06,3.491178412037727e-05,3.502729213486785e-05
17.5773502692,67.57735026920001,8,0,-0.4606201278860143,11.06296569197947,-1.112574111897019,-1.032435696281882e-05,3.576998631664311e-05,-8.900592895176151e-06,3.619571946227338e-05,3.631347009301819e-05
18.4226497308,66.42264973080002,8,0,-0.6791238192551177,11.30682658155792,-1.327224335677119,-1.121865748686271e-05,3.672514411638943e-05,-1.061779468541696e-05,3.730597063859478e-05,3.723303968998983e-05
19.5773502692,66.42264973080002,8,0,-0.5697947402886756,11.74414289742369,-1.323084773430884,-1.121865748686271e-05,3.803709306398674e-05,-1.058467818744707e-05,3.859931690835173e-05,3.85484337209838e-05
18.4226497308,67.57735026920001,8,0,-0.6680849865985974,11.30958628972205,-1.16323071722743,-1.118554098889315e-05,3.672514411638943e-05,-9.305845737819438e-06,3.717283678558909e-05,3.72577534990858e-05
19.5773502692,67.57735026920001,8,0,-0.5587559076321105,11.746902605588,-1.159091154981221,-1.118554098889315e-05,3.803709306398728e-05,-9.272729239849769e-06,3.846999298806954e-05,3.855140578316608e-05
20.4226497308,66.42264973080002,8,0,-0.7866892215065429,11.99094494866729,-1.357414230899887,-1.211016146775477e-05,3.900037521294055e-05,-1.08593138471991e-05,3.957082053280068e-05,3.951147300985288e-05
21.5773502692,66.42264973080002,8,0,-0.6767069860497821,12.43087389049433,-1.351119404584115,-1.211016146775477e-05,4.032016203842168e-05,-1.080895523667292e-05,4.087145473988681e-05,4.08271512458461e-05
20.4226497308,67.57735026920001,8,0,-0.7699030179976907,11.9951414995445,-1.192440877714881,-1.205980285722821e-05,3.900037521294055e-05,-9.539527021719049e-06,3.944211880647255e-05,3.949889668220893e-05
21.5773502692,67.57735026920001,8,0,-0.659920782540921,12.43507044137158,-1.186146051399028,-1.205980285722821e-05,4.032016203842179e-05,-9.489168411192222e-06,4.07464576906876e-05,4.079383767413291e-05
22.4226497308,66.42264973080002,8,0,-0.8951974651175871,12.67834760742805,-1.367700565082443,-1.300730997431872e-05,4.128687031586383e-05,-1.094160452065954e-05,4.183263449670547e-05,4.17883857890007e-05
23.5773502692,66.42264973080002,8,0,-0.7850883563923796,13.11878404232888,-1.359259449807218,-1.300730997431872e-05,4.260817962056633e-05,-1.087407559845774e-05,4.313472589860221e-05,4.309884916300776e-05
22.4226497308,67.57735026920001,8,0,-0.8726878243833118,12.68397501761176,-1.202536901994766,-1.2939781052116e-05,4.128687031586427e-05,-9.620295215958131e-06,4.171024649786864e-05,4.174028328558065e-05
23.5773502692,67.57735026920001,8,0,-0.7625787156581403,13.12441145251244,-1.194095786719366,-1.2939781052116e-05,4.260817962056633e-05,-9.552766293754924e-06,4.301589227256851e-05,4.303107979084244e-05
24.4226497308,66.42264973080002,8,0,-1.003113535948239,13.36602506201263,-1.358598602848777,-1.390278336464446e-05,4.357377102719899e-05,-1.086878882279021e-05,4.408307866846061e-05,4.405444615273917e-05
25.5773502692,66.42264973080002,8,0,-0.8933855794746099,13.80493688790714,-1.348040915003469,-1.390278336464446e-05,4.489050650488254e-05,-1.078432732002775e-05,4.538095179912813e-05,4.53547223063492e-05
24.4226497308,67.57735026920001,8,0,-0.9749597016939591,13.3730635205762,-1.194006668138361,-1.381832186188162e-05,4.357377102719899e-05,-9.552053345106889e-06,4.396850512090063e-05,4.397269294531408e-05
25.5773502692,67.57735026920001,8,0,-0.8652317452203664,13.81197534647057,-1.183448980293027,-1.381832186188162e-05,4.48905065048821e-05,-9.467591842344213e-06,4.526975095734315e-05,4.525443141925337e-05
26.4226497308,66.42264973080002,8,0,-1.108944023208679,14.05107858906814,-1.330775999232038,-1.478948374552229e-05,4.5850606703585e-05,-1.06462079938563e-05,4.631433282987612e-05,4.630118511957625e-05
27.57735026920001,66.42264973080002,8,0,-1.000085102738538,14.48651427094871,-1.3181532105947,-1.478948374552229e-05,4.715691374922669e-05,-1.05452256847576e-05,4.760249102559282e-05,4.758669345928702e-05
26.4226497308,67.57735026920001,8,0,-1.075283253508986,14.0594937814932,-1.167487618526934,-1.468850143642331e-05,4.585060670358543e-05,-9.339900948215473e-06,4.620872543168208e-05,4.618775841231739e-05
27.57735026920001,67.57735026920001,8,0,-0.9664243330388804,14.49492946337362,-1.154864829889569,-1.468850143642331e-05,4.715691374922669e-05,-9.238918639116554e-06,4.750005412629387e-05,4.745591670361288e-05
28.4226497308,66.42264973080002,8,0,-1.211244971702107,14.73073143100716,-1.285053245882487,-1.566056905425247e-05,4.810733655658461e-05,-1.02804259670599e-05,4.851902178502765e-05,4.852078660002903e-05
29.5773502692,66.42264973080002,8,0,-1.103720275631801,15.16083021528839,-1.270439555331349,-1.566056905425247e-05,4.939763290942828e-05,-1.016351644265079e-05,4.979218113764323e-05,4.978726817993551e-05
28.4226497308,67.57735026920001,8,0,-1.172275130232313,14.74047389137461,-1.123766201777056,-1.554365952984309e-05,4.810733655658461e-05,-8.990129614216448e-06,4.842321267999144e-05,4.837776577247758e-05
29.5773502692,67.57735026920001,8,0,-1.064750434162007,15.17057267565584,-1.10915251122593,-1.554365952984309e-05,4.939763290942828e-05,-8.873220089807444e-06,4.9699328299926e-05,4.962814597433759e-05
30.4226497308,66.42264973080002,8,0,-1.308632794524385,15.40234343314308,-1.222403520009639,-1.65094996889925e-05,5.033440522167736e-05,-9.77922816007711e-06,5.069018554665763e-05,5.070598036106777e-05
31.5773502692,66.42264973080002,8,0,-1.202881694569846,15.82534783296124,-1.205896528510311,-1.65094996889925e-05,5.160341842113184e-05,-9.647172228082488e-06,5.194331653319854e-05,5.194946713765374e-05
30.4226497308,67.57735026920001,8,0,-1.264614150526322,15.4133480941426,-1.063776870077911,-1.637744375699831e-05,5.033440522167736e-05,-8.510214960623288e-06,5.06047151068188e-05,5.053555169311711e-05
31.5773502692,67.57735026920001,8,0,-1.158863050571819,15.83635249396061,-1.047269878578529,-1.637744375699831e-05,5.16034184211314e-05,-8.378159028628231e-06,5.186058276295356e-05,5.176425001814668e-05
32.4226497308,66.42264973080002,8,0,-1.39979758504109,16.06342856446167,-1.143950868252909,-1.733009512370083e-05,5.252280947431022e-05,-9.151606946023274e-06,5.282127800727157e-05,5.284999771741902e-05
33.57735026920001,66.42264973080002,8,0,-1.296230095877831,16.47769852111471,-1.125671761326483,-1.733009512370083e-05,5.376561934426934e-05,-9.005374090611867e-06,5.404965216029071e-05,5.406680623862586e-05
32.4226497308,67.57735026920001,8,0,-1.351053299903936,16.07561463574596,-0.9885996345080066,-1.718386226828936e-05,5.252280947431022e-05,-7.908797076064053e-06,5.274642171933353e-05,5.265445966043654e-05
33.57735026920001,67.57735026920001,8,0,-1.247485810740668,16.48988459239904,-0.9703205275814588,-1.718386226828936e-05,5.376561934426944e-05,-7.76256422065167e-06,5.397731274053598e-05,5.3857859307634e-05
34.42264973080001,66.42264973080002,8,0,-1.483518013161793,16.71167451877898,-1.050965927524623,-1.811659725714092e-05,5.466417287062217e-05,-8.407727420196983e-06,5.490618596998754e-05,5.49465661506327e-05
35.5773502692,66.42264973080002,8,0,-1.382511011706749,17.11570252459916,-1.031059033361882,-1.811659725714092e-05,5.58762568880827e-05,-8.248472266895058e-06,5.610542504004075e-05,5.613330640759306e-05
34.42264973080001,67.57735026920001,8,0,-1.430432962061061,16.72494578155403,-0.8994554253420303,-1.795734210383862e-05,5.466417287062174e-05,-7.195643402736242e-06,5.484198113064008e-05,5.472833287066008e-05
35.5773502692,67.57735026920001,8,0,-1.329425960605981,17.12897378737435,-0.8795485311792625,-1.795734210383862e-05,5.58762568880827e-05,-7.036388249434099e-06,5.60435210168673e-05,5.590311122439654e-05
36.4226497308,66.42264973080002,8,0,-1.558676915638407,17.3449634395802,-0.9448586720639773,-1.886373688170706e-05,5.675082453916735e-05,-7.558869376511818e-06,5.693926202539791e-05,5.698992795915818e-05
37.5773502692,66.42264973080002,8,0,-1.460570312300028,17.73738985293371,-0.92349032765385,-1.886373688170706e-05,5.792810377922789e-05,-7.3879226212308e-06,5.810538720717189e-05,5.814352130403169e-05
36.4226497308,67.57735026920001,8,0,-1.501694663878176,17.35920900252026,-0.7976987670563966,-1.869279012642637e-05,5.675082453916735e-05,-6.381590136451173e-06,5.688553476438235e-05,5.675152986727659e-05
37.5773502692,67.57735026920001,8,0,-1.403588060539825,17.75163541587366,-0.7763304226462964,-1.869279012642637e-05,5.792810377922757e-05,-6.210643381170371e-06,5.805375143195838e-05,5.789467435207562e-05
38.4226497308,66.42264973080002,8,0,-1.624276686122474,17.96139274440723,-0.8271679590000853,-1.95667995911177e-05,5.877587813100113e-05,-6.617343672000683e-06,5.891536599091371e-05,5.897487306783429e-05
39.5773502692,66.42264973080002,8,0,-1.529369739252684,18.3410205318864,-0.80452467676906,-1.95667995911177e-05,5.991476149343861e-05,-6.43619741415248e-06,6.004484496735654e-05,6.009257498072806e-05
38.4226497308,67.57735026920001,8,0,-1.563894600172983,17.97648826589461,-0.6848075386954545,-1.938565333326923e-05,5.877587813100113e-05,-5.478460309563636e-06,5.887175891245741e-05,5.871895373400052e-05
39.5773502692,67.57735026920001,8,0,-1.468987653303183,18.35611605337381,-0.662164256464402,-1.938565333326923e-05,5.991476149343872e-05,-5.297314051715216e-06,6.000312894082447e-05,5.982778240034751e-05
40.4226497308,66.42264973080002,8,0,-1.679453627214333,18.55929503473872,-0.6995479061100912,-2.022168763487684e-05,6.073330701293535e-05,-5.596383248880729e-06,6.082991061528409e-05,6.089677912981856e-05
41.5773502692,66.42264973080002,8,0,-1.588001578445205,18.92510322981523,-0.6758338863456113,-2.022168763487684e-05,6.183073159816488e-05,-5.40667109076489e-06,6.191970042671023e-05,6.197620381199111e-05
40.4226497308,67.57735026920001,8,0,-1.61621624117543,18.57510438124844,-0.5623698329563728,-2.003197547676013e-05,6.073330701293535e-05,-4.498958663650982e-06,6.079591111503029e-05,6.062608844987289e-05
41.5773502692,67.57735026920001,8,0,-1.524764192406276,18.94091257632506,-0.5386558131917438,-2.003197547676013e-05,6.183073159816521e-05,-4.309246505533951e-06,6.188740196732826e-05,6.169827247091152e-05
42.4226497308,66.42264973080002,8,0,-1.723490530783118,19.13725615277916,-0.5637513621495284,-2.08249746207293e-05,6.261801211351978e-05,-4.510010897196227e-06,6.267890807917784e-05,6.275165398621655e-05
43.57735026920001,66.42264973080002,8,0,-1.635701715564917,19.48841141365196,-0.5391854397355643,-2.08249746207293e-05,6.36714778961382e-05,-4.313483517884515e-06,6.372649214004158e-05,6.379079857885613e-05
42.4226497308,67.57735026920001,8,0,-1.657981404345771,19.15363343438849,-0.432068139322281,-2.062844724141726e-05,6.261801211351978e-05,-3.456545114578248e-06,6.265387717916318e-05,6.246903779888666e-05
43.57735026920001,67.57735026920001,8,0,-1.570192589127588,19.50478869526123,-0.4075022169083169,-2.062844724141726e-05,6.367147789613798e-05,-3.260017735266536e-06,6.370298369272097e-05,6.350262381467811e-05
44.4226497308,66.42264973080002,8,0,-1.755826890926683,19.69413057350184,-0.4216109136742234,-2.137395050976686e-05,6.442587934794722e-05,-3.372887309393787e-06,6.445901454488067e-05,6.45361768955556e-05
45.5773502692,66.42264973080002,8,0,-1.671860448167126,20.02999634454007,-0.3964230602257685,-2.137395050976686e-05,6.543347666106191e-05,-3.171384481806148e-06,6.546243249496304e-05,6.553344373508576e-05
44.4226497308,67.57735026920001,8,0,-1.688659281730714,19.71092247580083,-0.2956612495349283,-2.117244768217895e-05,6.442587934794722e-05,-2.365289996279427e-06,6.444221590915011e-05,6.42445634662204e-05
45.5773502692,67.57735026920001,8,0,-1.604692838971102,20.04678824683928,-0.2704733960864057,-2.117244768217895e-05,6.543347666106256e-05,-2.163787168691245e-06,6.544698972190579e-05,6.523799427467857e-05
46.42264973080001,66.42264973080002,8,0,-1.776066313073965,20.22905348412666,-0.2750180083497416,-2.186665498913801e-05,6.615382419966447e-05,-2.200144066797933e-06,6.616757065418057e-05,6.6247735958453e-05
47.57735026920001,66.42264973080002,8,0,-1.696030582945795,20.54919640463934,-0.2494455324153131,-2.186665498913801e-05,6.71142529612025e-05,-1.995564259322504e-06,6.712544012537692e-05,6.720195176469642e-05
46.42264973080001,67.57735026920001,8,0,-1.707873043915688,20.24610180141622,-0.1549644131575547,-2.166207518166318e-05,6.615382419966447e-05,-1.239715305260437e-06,6.615819931135414e-05,6.595011988516757e-05
47.57735026920001,67.57735026920001,8,0,-1.627837313787536,20.56624472192883,-0.1293919372231532,-2.166207518166318e-05,6.711425296120229e-05,-1.035135497785226e-06,6.711727028886193e-05,6.690225242601908e-05
48.4226497308,66.42264973080002,8,0,-1.783980851384681,20.74144909007067,-0.1259008624893317,-2.230189799648752e-05,6.77998217693339e-05,-1.007206899914653e-06,6.78026364604739e-05,6.788445997354034e-05
49.57735026920001,66.42264973080002,8,0,-1.707932513514557,21.04564244155117,-0.100184461453696,-2.230189799648752e-05,6.871240182377539e-05,-8.014756916295681e-07,6.871416624659903e-05,6.879489127052059e-05
48.4226497308,67.57735026920001,8,0,-1.715403781956337,20.75859335742776,-0.01182835568418672,-2.209616678820248e-05,6.77998217693339e-05,-9.462684547349373e-08,6.779984667099401e-05,6.758388414637022e-05
49.57735026920001,67.57735026920001,8,0,-1.639355444086204,21.06278670890829,0.01388804535148959,-2.209616678820248e-05,6.87124018237755e-05,1.111043628119167e-07,6.871243580783396e-05,6.849400409764776e-05
50.42264973080001,66.42264973080002,8,0,-1.779512175021545,21.23103488364799,0.02379813834044913,-2.267926686698733e-05,6.936292136769081e-05,1.90385106723593e-07,6.936301981833281e-05,6.944524363820812e-05
51.57735026920001,66.42264973080002,8,0,-1.707456142444155,21.51925901395756,0.04941831988048394,-2.267926686698733e-05,7.022759375861949e-05,3.953465590438715e-07,7.022801433626346e-05,7.031160805264842e-05
50.42264973080001,67.57735026920001,8,0,-1.71119169091493,21.24811500467464,0.1318821872064806,-2.247430541466749e-05,6.936292136769081e-05,1.055057497651845e-06,6.936595148313514e-05,6.914477990802666e-05
51.57735026920001,67.57735026920001,8,0,-1.63913565833754,21.53633913498421,0.157502368746407,-2.247430541466749e-05,7.022759375861949e-05,1.260018949971256e-06,7.023187515535195e-05,7.001261253511667e-05
52.4226497308,66.42264973080002,8,0,-1.762769624153403,21.69782180851762,0.1721448389319021,-2.299912024410498e-05,7.08432454865791e-05,1.377158711455217e-06,7.084829774629267e-05,7.09297655891327e-05
53.5773502692,66.42264973080002,8,0,-1.69465967334522,21.97026161175035,0.1974329971547175,-2.299912024410498e-05,7.16605648962773e-05,1.57946397723774e-06,7.166715305689777e-05,7.175223897152085e-05
52.4226497308,67.57735026920001,8,0,-1.695334535559247,21.71468058066616,0.2743097651440682,-2.279681497832252e-05,7.08432454865791e-05,2.194478121152546e-06,7.085610075698475e-05,7.063249478561367e-05
53.5773502692,67.57735026920001,8,0,-1.627224584751064,21.98712038389889,0.299597923366843,-2.279681497832252e-05,7.16605648962773e-05,2.396783386934744e-06,7.16757665836582e-05,7.14582119616636e-05
54.42264973080001,66.42264973080002,8,0,-1.7340253624667,22.14211043982892,0.3172348484056867,-2.326256951175657e-05,7.224197369742587e-05,2.537878787245494e-06,7.225883072821313e-05,7.23384992824608e-05
55.57735026920001,66.42264973080002,8,0,-1.669765447876953,22.3991500981879,0.3419630226293762,-2.326256951175657e-05,7.301309267250284e-05,2.735704181035009e-06,7.303252273168801e-05,7.311771885608982e-05
54.42264973080001,67.57735026920001,8,0,-1.668083564536862,22.15859588931137,0.4136247202902533,-2.306474411796705e-05,7.224197369742587e-05,3.308997762322026e-06,7.227068670081038e-05,7.204749116903005e-05
55.57735026920001,67.57735026920001,8,0,-1.603823649947115,22.41563554767036,0.4383528945139697,-2.306474411796705e-05,7.301309267250284e-05,3.506823156111758e-06,7.30450816199227e-05,7.283171472741761e-05
56.4226497308,66.42264973080002,8,0,-1.693706959562545,22.56448346956972,0.4572136171370942,-2.347144904625591e-05,7.356131267027312e-05,3.657708937096753e-06,7.359577032434847e-05,7.367271715103454e-05
57.57735026920001,66.42264973080002,8,0,-1.633153133510699,22.8066987737771,0.4811647960498643,-2.347144904625591e-05,7.428795858289527e-05,3.849318368398915e-06,7.432583604515673e-05,7.440978111737308e-05
56.4226497308,67.57735026920001,8,0,-1.629837149128473,22.58045092217823,0.5480443562148364,-2.32798396149537e-05,7.356131267027312e-05,4.384354849718691e-06,7.361091123174641e-05,7.339101082083218e-05
57.57735026920001,67.57735026920001,8,0,-1.569283323076636,22.82266622638558,0.5719955351275795,-2.32798396149537e-05,7.428795858289516e-05,4.575964281020636e-06,7.434158269685832e-05,7.413481260619295e-05
58.4226497308,66.42264973080002,8,0,-1.642387839953363,22.96579493246212,0.5902945677545535,-2.362827703382046e-05,7.480445405584147e-05,4.722356542036427e-06,7.486106082109093e-05,7.493448884766483e-05
59.57735026920001,66.42264973080002,8,0,-1.585350676502821,23.19394358626429,0.6132653154728139,-2.362827703382046e-05,7.548890001724798e-05,4.906122523782512e-06,7.554957394288088e-05,7.563095305966845e-05
58.4226497308,67.57735026920001,8,0,-1.581132512704759,22.98110876427427,0.6758503129303673,-2.344451105207464e-05,7.480445405584147e-05,5.406802503442939e-06,7.487878413513644e-05,7.466507395155022e-05
59.57735026920001,67.57735026920001,8,0,-1.524095349254217,23.20925741807644,0.698821060648655,-2.344451105207464e-05,7.548890001724798e-05,5.59056848518924e-06,7.556781558526121e-05,7.536997310305692e-05
60.4226497308,66.42264973080002,8,0,-1.580776112353832,23.34715672480387,0.7147749159336201,-2.373620893937535e-05,7.597552240925544e-05,5.718199327468961e-06,7.605743595090586e-05,7.612667468424216e-05
61.5773502692,66.42264973080002,8,0,-1.527023517544277,23.56216710404209,0.736577463940802,-2.373620893937535e-05,7.66205535469701e-05,5.892619711526416e-06,7.670697794304515e-05,7.678454713704208e-05
60.4226497308,67.57735026920001,8,0,-1.522635984334608,23.36169175680867,0.7954038081479389,-2.356178855531768e-05,7.597552240925544e-05,6.363230465183511e-06,7.607711601400264e-05,7.58724737414753e-05
61.5773502692,67.57735026920001,8,0,-1.468883389525044,23.57670213604693,0.8172063561551072,-2.356178855531768e-05,7.662055354697021e-05,6.537650849240857e-06,7.672709795112967e-05,7.654043186502171e-05
62.42264973080001,66.42264973080002,8,0,-1.509702341283166,23.70992305298605,0.8290489570345544,-2.379898593449497e-05,7.707951564258188e-05,6.632391656276435e-06,7.718841195044685e-05,7.725291559498575e-05
63.57735026920001,66.42264973080002,8,0,-1.458962622424949,23.91288192841892,0.8495127403203404,-2.379898593449497e-05,7.768839226888048e-05,6.796101922562723e-06,7.780204023849651e-05,7.787464956600504e-05
62.42264973080001,67.57735026920001,8,0,-1.45513225252107,23.72356557517657,0.9051585353218525,-2.363527566820868e-05,7.707951564258188e-05,7.24126828257482e-06,7.720950740997844e-05,7.70167674717048e-05
63.57735026920001,67.57735026920001,8,0,-1.404392533662852,23.92652445060944,0.9256223186077063,-2.363527566820868e-05,7.768839226888048e-05,7.40497854886165e-06,7.782350553029897e-05,7.765018242712602e-05
64.4226497308,66.42264973080002,8,0,-1.430106841360719,24.05567349735089,0.9316187438787599,-2.382088069023501e-05,7.812224066461142e-05,7.452949951030079e-06,7.82582783815109e-05,7.831762106948916e-05
65.57735026920001,66.42264973080002,8,0,-1.382071905221419,24.24781324190809,0.9505913925252383,-2.382088069023501e-05,7.869865989828303e-05,7.604731140201906e-06,7.883949304940088e-05,7.890610775234514e-05
64.4226497308,67.57735026920001,8,0,-1.379513111636795,24.06832192978187,1.003671148087643,-2.366909950106324e-05,7.812224066461142e-05,8.029369184701148e-06,7.828033562958501e-05,7.810226552278257e-05
65.57735026920001,67.57735026920001,8,0,-1.33147817549754,24.2604616743389,1.022643796734122,-2.366909950106324e-05,7.869865989828249e-05,8.181150373872976e-06,7.886185749099857e-05,7.870396455399051e-05
66.4226497308,66.42264973080002,8,0,-1.343027062935772,24.38619538935389,1.021102232021069,-2.380664291287758e-05,7.911024689628105e-05,8.168817856168552e-06,7.927208820060841e-05,7.932595648814348e-05
67.57735026920001,66.42264973080002,8,0,-1.297355616548924,24.56888117490128,1.038450061536026,-2.380664291287758e-05,7.965830425292323e-05,8.307600492288205e-06,7.982479867026687e-05,7.988451788303094e-05
66.4226497308,67.57735026920001,8,0,-1.296766184229041,24.39776060903057,1.0896094016013,-2.366786027675739e-05,7.911024689628105e-05,8.716875212810404e-06,7.929474085971298e-05,7.91340194691899e-05
67.57735026920001,67.57735026920001,8,0,-1.251094737842211,24.58044639457789,1.106957231116433,-2.366786027675739e-05,7.965830425292302e-05,8.855657848931466e-06,7.984770252747438e-05,7.970725231640133e-05
68.42264973080002,66.42264973080002,8,0,-1.249585597061462,24.70346617599816,1.096239114697556,-2.376144685139521e-05,8.005076024084328e-05,8.769912917580449e-06,8.023564851179294e-05,8.02838311021108e-05
69.57735026920001,66.42264973080002,8,0,-1.205906235216869,24.87818362337654,1.111847188096799,-2.376144685139521e-05,8.05749125829784e-05,8.894777504774389e-06,8.076414152702655e-05,8.081621370992979e-05
68.42264973080002,67.57735026920001,8,0,-1.207964067996761,24.71387155826434,1.1617581574645,-2.36365822642011e-05,8.005076024084328e-05,9.294065259716003e-06,8.025861308899043e-05,8.011781029693656e-05
69.57735026920001,67.57735026920001,8,0,-1.164284706152186,24.88858900564264,1.17736623086377,-2.36365822642011e-05,8.057491258297818e-05,9.41892984691016e-06,8.078730708392723e-05,8.066624271204792e-05
70.4226497308,66.42264973080002,8,0,-1.150979260933013,25.00963638720531,1.155894703491333,-2.369084274474989e-05,8.095161984780341e-05,9.247157627930661e-06,8.115551325777975e-05,8.119788745140292e-05
71.57735026920001,66.42264973080002,8,0,-1.10889334051712,25.17798006886889,1.169666564154758,-2.369084274474989e-05,8.145665089279413e-05,9.357332513238066e-06,8.166442330665851e-05,8.170825689724775e-05
70.4226497308,67.57735026920001,8,0,-1.114254299163878,25.0188176276476,1.219023584115241,-2.358066785944249e-05,8.095161984780341e-05,9.752188672921928e-06,8.117858115386475e-05,8.106013731993715e-05
71.57735026920001,67.57735026920001,8,0,-1.072168378747967,25.18716130931124,1.232795444778667,-2.358066785944249e-05,8.145665089279435e-05,9.862363558229333e-06,8.168764683690929e-05,8.158784498645237e-05
72.4226497308,66.42264973080002,8,0,-1.048469635625458,25.30701373277999,1.199062326840168,-2.360071382022545e-05,8.182121965339632e-05,9.592498614721342e-06,8.203897878210708e-05,8.207549215750903e-05
73.57735026920001,66.42264973080002,8,0,-1.007553857969713,25.47067684340297,1.210919522450773,-2.360071382022545e-05,8.231220898526526e-05,9.687356179606185e-06,8.253326183185367e-05,8.256842810107153e-05
72.4226497308,67.57735026920001,8,0,-1.016850447330564,25.31491852985371,1.260435993323799,-2.350585625534077e-05,8.182121965339632e-05,1.008348794659039e-05,8.206200488875844e-05,8.196820751868457e-05
73.57735026920001,67.57735026920001,8,0,-0.9759346696748015,25.47858164047676,1.272293188934418,-2.350585625534077e-05,8.231220898526547e-05,1.017834551147534e-05,8.255640215751461e-05,8.24796696155675e-05
74.4226497308,66.42264973080002,8,0,-0.9433753211095626,25.59804874077555,1.224864812235483,-2.349724002017104e-05,8.26684562273694e-05,9.79891849788386e-06,8.28940827193983e-05,8.29247264669428e-05
75.57735026920001,66.42264973080002,8,0,-0.9031839683048881,25.75881415199425,1.234746345897609,-2.349724002017104e-05,8.31507524610255e-05,9.877970767180875e-06,8.337899381781113e-05,8.340521576163579e-05
74.4226497308,67.57735026920001,8,0,-0.9170245646772788,25.60463642988362,1.285151841442535,-2.341818775087419e-05,8.26684562273694e-05,1.028121473154028e-05,8.291697087136303e-05,8.284992347558002e-05
75.57735026920001,67.57735026920001,8,0,-0.876833211872631,25.76540184110221,1.295033375104608,-2.341818775087419e-05,8.315075246102517e-05,1.036026700083686e-05,8.340195772724206e-05,8.335001373599283e-05
76.42264973080002,66.42264973080002,8,0,-0.8370660543605553,25.88532221412149,1.23255568623748,-2.338686914525096e-05,8.35026839286772e-05,9.860445489899843e-06,8.372960603635123e-05,8.375437206453417e-05
77.57735026920001,66.42264973080002,8,0,-0.7971328529610631,26.04505501971946,1.24041754078131,-2.338686914525096e-05,8.398188234547111e-05,9.923340326250477e-06,8.421068096386606e-05,8.422779552918299e-05
76.42264973080002,67.57735026920001,8,0,-0.8161011089103249,25.89056345048405,1.292455488336624,-2.332397430890028e-05,8.35026839286772e-05,1.033964390669299e-05,8.375229161529773e-05,8.371386523438996e-05
77.57735026920001,67.57735026920001,8,0,-0.7761679075108052,26.05029625608213,1.300317342880467,-2.332397430890028e-05,8.398188234547143e-05,1.040253874304373e-05,8.423340579322968e-05,8.420783575405041e-05
78.4226497308,66.42264973080002,8,0,-0.730958710102211,26.17153463340397,1.221520767794699,-2.327629557905025e-05,8.433367779497446e-05,9.77216614235759e-06,8.455507725554778e-05,8.457388230246307e-05
79.57735026920001,66.42264973080002,8,0,-0.6907983246720342,26.33217617512468,1.227335653249248,-2.327629557905025e-05,8.481560242013658e-05,9.818685225993981e-06,8.503811800319411e-05,8.504598548628316e-05
78.4226497308,67.57735026920001,8,0,-0.7154523488899898,26.17541122370703,1.281761345939963,-2.322977649541359e-05,8.433367779497446e-05,1.025409076751971e-05,8.457750727890951e-05,8.456925603372411e-05
79.57735026920001,67.57735026920001,8,0,-0.6752919634597774,26.33605276542788,1.287576231394621,-2.322977649541359e-05,8.481560242013702e-05,1.030060985115697e-05,8.506055172689306e-05,8.506270408105994e-05
80.4226497308,66.42264973080002,8,0,-0.6265150749600501,26.45949747651619,1.191280844698323,-2.317244622108511e-05,8.517160398481983e-05,9.530246757586585e-06,8.538077696144294e-05,8.539331859258383e-05
81.57735026920001,66.42264973080002,8,0,-0.5856242635294189,26.62306072223871,1.195038317162341,-2.317244622108511e-05,8.56622937219874e-05,9.560306537298728e-06,8.587184037486657e-05,8.58701471023682e-05
80.4226497308,67.57735026920001,8,0,-0.6164951483891734,26.46200245815891,1.252617061844148,-2.314238644137248e-05,8.517160398481983e-05,1.002093649475318e-05,8.5402888047403e-05,8.542589141240686e-05
81.57735026920001,67.57735026920001,8,0,-0.5756043369585697,26.62556570388132,1.256374534308233,-2.314238644137248e-05,8.566229372198707e-05,1.005099627446587e-05,8.589391961286025e-05,8.592468960701839e-05
82.4226497308,66.42264973080002,8,0,-0.5252411582322631,26.75212626573139,1.141496111325965,-2.308247271892835e-05,8.602699697692626e-05,9.131968890607723e-06,8.621773964342393e-05,8.622321109824184e-05
83.57735026920001,66.42264973080002,8,0,-0.48309965114424,26.92069229408348,1.143203204362556,-2.308247271892835e-05,8.653269506198253e-05,9.145625634900448e-06,8.672312812643873e-05,8.67109713635485e-05
82.4226497308,67.57735026920001,8,0,-0.5206889101345791,26.75326432775582,1.204708371957918,-2.30688159746353e-05,8.602699697692626e-05,9.637666975663341e-06,8.623943433748359e-05,8.629399039991506e-05
83.57735026920001,67.57735026920001,8,0,-0.478547403046556,26.92183035610791,1.206415464994508,-2.30688159746353e-05,8.653269506198253e-05,9.651323719956067e-06,8.674475457584873e-05,8.68041407348156e-05
84.42264973080002,66.42264973080002,8,0,-0.4286876786839251,27.05243499371412,1.071973009680914,-2.301374856675985e-05,8.691074212283231e-05,8.575784077447315e-06,8.707774882699213e-05,8.707426131044152e-05
85.57735026920001,66.42264973080002,8,0,-0.3847588709436618,27.22815022467517,1.071655507305395,-2.301374856675985e-05,8.743788781571547e-05,8.573244058443161e-06,8.760400155786541e-05,8.757902763796776e-05
84.42264973080002,67.57735026920001,8,0,-0.4295343516854722,27.05222332546373,1.137866221291323,-2.30162885857645e-05,8.691074212283231e-05,9.102929770330587e-06,8.709887092084445e-05,8.718388551304159e-05
85.57735026920001,67.57735026920001,8,0,-0.3856055439451822,27.22793855642489,1.137548718915804,-2.30162885857645e-05,8.74378878157158e-05,9.100389751326432e-06,8.762501750658577e-05,8.771121720620756e-05
86.4226497308,66.42264973080002,8,0,-0.3384512482413475,27.36353142524949,0.9826740567258258,-2.29738691345719e-05,8.783406155939144e-05,7.861392453806606e-06,8.797332036259516e-05,8.795671941689243e-05
87.57735026920002,66.42264973080002,8,0,-0.2921828229487824,27.54860512641975,0.9803785203798968,-2.29738691345719e-05,8.838928266290222e-05,7.843028163039174e-06,8.852720306481599e-05,8.848382621903335e-05
86.4226497308,67.57735026920001,8,0,-0.3445726784969949,27.36200106768558,1.052076694664592,-2.299223342533884e-05,8.783406155939144e-05,8.416613557316738e-06,8.799363004306904e-05,8.810538259250886e-05
87.57735026920002,67.57735026920001,8,0,-0.2983042532044022,27.54707476885595,1.049781158318731,-2.299223342533884e-05,8.838928266290255e-05,8.398249266549848e-06,8.854736685579309e-05,8.865493076134888e-05
88.42264973080002,66.42264973080002,8,0,-0.2561756608532146,27.68861262316207,0.8737311603047897,-2.297065221325994e-05,8.880850092280118e-05,6.989849282438318e-06,8.891766779782969e-05,8.887909569856944e-05
89.57735026920001,66.42264973080002,8,0,-0.2070002873494783,27.88531411717701,0.8695278010446584,-2.297065221325994e-05,8.939860540484602e-05,6.956222408357267e-06,8.950615875246288e-05,8.943188519724835e-05
88.42264973080002,67.57735026920001,8,0,-0.2673846188801594,27.68581038365533,0.9474942205603669,-2.300427908734077e-05,8.880850092280118e-05,7.579953764482936e-06,8.893681773562142e-05,8.90664456395738e-05
89.57735026920001,67.57735026920001,8,0,-0.2182092453764506,27.88251187767017,0.9432908613002086,-2.300427908734077e-05,8.939860540484569e-05,7.546326890401668e-06,8.952512134050402e-05,8.964117702616265e-05
90.42264973080002,66.42264973080002,8,0,-0.1835525883469593,28.03095990654691,0.7454628238610168,-2.30121362079478e-05,8.984591377162766e-05,5.963702590888135e-06,8.992464310322691e-05,8.984550769108442e-05
91.57735026920001,66.42264973080002,8,0,-0.1308888631214664,28.24161480744888,0.7394492852189674,-2.30121362079478e-05,9.047787847433358e-05,5.915594281751739e-06,9.05549128254155e-05,9.042275586076704e-05
90.42264973080002,67.57735026920001,8,0,-0.1995886913924254,28.02695088078554,0.8244584116992429,-2.306024451708419e-05,8.984591377162766e-05,6.595667293593944e-06,8.994215691888598e-05,9.00704996707012e-05
91.57735026920001,67.57735026920001,8,0,-0.1469249661669325,28.23760578168751,0.818444873057207,-2.306024451708419e-05,9.047787847433358e-05,6.547558984457656e-06,9.05721968928306e-05,9.066869956188137e-05
92.42264973080002,66.42264973080002,8,0,-0.1223208851826705,28.39393231843557,0.5983955159330576,-2.3106572687333e-05,9.095844012713995e-05,4.787164127464461e-06,9.100864583300554e-05,9.08502275614163e-05
93.57735026920001,66.42264973080002,8,0,-0.06557470610044636,28.62091703476447,0.5907016021660869,-2.3106572687333e-05,9.163939427612663e-05,4.725612817328695e-06,9.168802769709007e-05,9.144085379675504e-05
92.42264973080002,67.57735026920001,8,0,-0.1428379885610971,28.38880304259096,0.6835147845563115,-2.316812399746828e-05,9.095844012713995e-05,5.468118276450492e-06,9.102390073517115e-05,9.111089768423759e-05
93.57735026920001,67.57735026920001,8,0,-0.08609180947887296,28.61578775891986,0.6758208707894221,-2.316812399746828e-05,9.163939427612663e-05,5.406566966315376e-06,9.170301114194278e-05,9.172080553039749e-05
94.4226497308,66.42264973080002,8,0,-0.07426361164902051,28.78095756015012,0.4332893322295895,-2.326240960539696e-05,9.215847508179959e-05,3.466314657836716e-06,9.218449426660262e-05,9.186647218984948e-05
95.57735026920002,66.42264973080002,8,0,-0.0128301961985251,29.0266912219521,0.4240826803029741,-2.326240960539696e-05,9.289567606720554e-05,3.392661442423793e-06,9.292044338735309e-05,9.243865702913005e-05
94.4226497308,67.57735026920001,8,0,-0.09881468345353639,28.77481979219899,0.5254394554053601,-2.333606282081051e-05,9.215847508179959e-05,4.203515643242881e-06,9.219670999846395e-05,9.215955607548035e-05
95.57735026920002,67.57735026920001,8,0,-0.03738126800303121,29.02055345400101,0.5162328034786904,-2.333606282081051e-05,9.289567606720565e-05,4.129862427829523e-06,9.293234932041065e-05,9.27483370103863e-05
96.4226497308,66.42264973080002,8,0,-0.04120180262703155,29.1955192436798,0.2511679031480584,-2.348826116335033e-05,9.345862302187697e-05,2.009343225184467e-06,9.346725335498528e-05,9.28233354369426e-05
97.57735026920001,66.42264973080002,8,0,0.02553142210538173,29.46245214260945,0.240660554040134,-2.348826116335033e-05,9.425942171866592e-05,1.925284432321072e-06,9.426729124173644e-05,9.330211155242536e-05
96.4226497308,67.57735026920001,8,0,-0.06922140024810819,29.18851434427453,0.3512677402466372,-2.357231995621357e-05,9.345862302187697e-05,2.810141921973097e-06,9.347548984244204e-05,9.314357938917814e-05
97.57735026920001,67.57735026920001,8,0,-0.002488175515686031,29.45544724320422,0.340760391138767,-2.357231995621357e-05,9.425942171866603e-05,2.726083129110136e-06,9.427518685750466e-05,9.363462071448181e-05
98.42264973080002,66.42264973080002,8,0,-0.02498394078466859,29.64113922592291,0.05335229469357445,-2.379285999124927e-05,9.487163267558104e-05,4.268183575485956e-07,9.487201647472146e-05,9.35582705355842e-05
99.57735026920002,66.42264973080002,8,0,0.04766545442593806,29.93173680676534,0.04180806964164494,-2.379285999124927e-05,9.574342541810831e-05,3.344645571331595e-07,9.57436593770285e-05,9.377933377693629e-05
98.42264973080002,67.57735026920001,8,0,-0.05576854092317429,29.63344307588828,0.1623263875094702,-2.388521379166478e-05,9.487163267558104e-05,1.298611100075762e-06,9.487518266118147e-05,9.38971214064048e-05
99.57735026920002,67.57735026920001,8,0,0.01688085428742259,29.92404065673067,0.1507821624575001,-2.388521379166478e-05,9.574342541810821e-05,1.20625729966e-06,9.57464661191041e-05,9.412324530848725e-05
0.4226497308,68.42264973080002,8,0,-0.02704073614639912,6.044612886828021,-0.1464118793938402,-4.922220665130894e-06,1.936439382676678e-05,-1.171295035150722e-06,1.937850793093804e-05,2.124674058164205e-05
1.5773502692,68.42264973080002,8,0,0.04789117156565936,6.344340517676255,-0.1572243802886467,-4.922220665130894e-06,2.026357671931149e-05,-1.257795042309173e-06,2.027927071480372e-05,2.153920306245882e-05
0.4226497308,69.57735026920001,8,0,-0.05587407186609994,6.037404552898096,-0.03401401782573889,-5.008720672289996e-06,1.936439382676678e-05,-2.721121426059112e-07,1.936515329793501e-05,2.156383433049546e-05
1.5773502692,69.57735026920001,8,0,0.01905783584595855,6.33713218374633,-0.04482651872064021,-5.008720672289996e-06,2.026357671931149e-05,-3.586121497651217e-07,2.026484882567115e-05,2.185089679214915e-05
2.4226497308,68.42264973080002,8,0,-0.04880602261007128,6.533874137097184,-0.3330805235421375,-5.383278582029975e-06,2.094744205679904e-05,-2.6646441883371e-06,2.101468520392217e-05,2.189993529140631e-05
3.5773502692,68.42264973080002,8,0,0.03195830698052737,6.856931455459579,-0.342906786787481,-5.383278582029975e-06,2.191661401188623e-05,-2.743254294299848e-06,2.198535551444594e-05,2.259301158804354e-05
2.4226497308,69.57735026920001,8,0,-0.07500939126430239,6.527323294933763,-0.2119340291562802,-5.461888687992777e-06,2.094744205679948e-05,-1.695472233250242e-06,2.097462629511114e-05,2.220479693517327e-05
3.5773502692,69.57735026920001,8,0,0.005754938326278047,6.850380613296084,-0.2217602924015831,-5.461888687992777e-06,2.191661401188645e-05,-1.774082339212665e-06,2.194532331790441e-05,2.288460764510844e-05
4.422649730800001,68.42264973080002,8,0,-0.08658918193674459,7.056183001466393,-0.505348158837883,-5.922031783370696e-06,2.264905695024185e-05,-4.042785270703063e-06,2.279136086522188e-05,2.318320083806061e-05
5.577350269200001,68.42264973080002,8,0,-0.0005975680841536768,7.400149456876757,-0.5139129751203901,-5.922031783370696e-06,2.368095631647294e-05,-4.111303800963121e-06,2.382302043874775e-05,2.410255155861956e-05
4.422649730800001,69.57735026920001,8,0,-0.1094286920234844,7.050473123944844,-0.3763607380588476,-5.990550313631025e-06,2.264905695024228e-05,-3.010885904470781e-06,2.272797321070097e-05,2.346338001476521e-05
5.577350269200001,69.57735026920001,8,0,-0.02343707817091167,7.394439579355135,-0.3849255543414225,-5.990550313631025e-06,2.368095631647316e-05,-3.07940443473138e-06,2.376063994920238e-05,2.43648048248166e-05
6.422649730800001,68.42264973080002,8,0,-0.1385621990124459,7.608067991113743,-0.6617844060169734,-6.52985342973082e-06,2.445666733077393e-05,-5.294275248135787e-06,2.468118207332611e-05,2.482483676508294e-05
7.577350269200001,68.42264973080002,8,0,-0.04794698760257354,7.970528836753233,-0.6688673447542606,-6.52985342973082e-06,2.55440498676924e-05,-5.350938758034085e-06,2.57656945477286e-05,2.587880592622123e-05
6.422649730800001,69.57735026920001,8,0,-0.157450035645085,7.603346031955583,-0.5258615889023005,-6.586516939628738e-06,2.445666733077393e-05,-4.206892711218404e-06,2.459854572360276e-05,2.507301454075516e-05
7.577350269200001,69.57735026920001,8,0,-0.066834824235249,7.965806877594927,-0.5329445276395606,-6.586516939628738e-06,2.554404986769196e-05,-4.263556221116484e-06,2.56848705224591e-05,2.610645465714412e-05
8.4226497308,68.42264973080002,8,0,-0.2029229595395612,8.186067482259045,-0.8012814408179516,-7.198207456333831e-06,2.635775431086059e-05,-6.410251526543613e-06,2.66611514070618e-05,2.668123656150293e-05
9.5773502692,68.42264973080002,8,0,-0.1082813475182647,8.564633930344231,-0.806708361419657,-7.198207456333831e-06,2.749345365511615e-05,-6.453666891357256e-06,2.779104373582311e-05,2.781954866559722e-05
8.4226497308,69.57735026920001,8,0,-0.2173947478108116,8.182449535191232,-0.6593190227858581,-7.241622821147582e-06,2.635775431086059e-05,-5.274552182286864e-06,2.656349902647698e-05,2.689338885902926e-05
9.5773502692,69.57735026920001,8,0,-0.122753135789524,8.561015983276382,-0.6647459433875634,-7.241622821147582e-06,2.749345365511604e-05,-5.317967547100507e-06,2.769582091362746e-05,2.800989296449556e-05
10.4226497308,68.42264973080002,8,0,-0.2779061775366602,8.786757433310814,-0.9230134076308857,-7.918705714765964e-06,2.833994872862393e-05,-7.384107261047086e-06,2.871207457207907e-05,2.867303061322286e-05
11.5773502692,68.42264973080002,8,0,-0.179825493784882,9.179080168317928,-0.9266490052075107,-7.918705714765964e-06,2.951691693364527e-05,-7.413192041660086e-06,2.988038740155711e-05,2.986647455348379e-05
10.4226497308,69.57735026920001,8,0,-0.2876011044074978,8.784333701593106,-0.7758923820032045,-7.947790495378476e-06,2.833994872862393e-05,-6.207139056025636e-06,2.860347296563107e-05,2.884725247830385e-05
11.5773502692,69.57735026920001,8,0,-0.1895204206556835,9.176656436600362,-0.7795279795797753,-7.947790495378476e-06,2.95169169336457e-05,-6.236223836638202e-06,2.977465794298264e-05,3.001845710886023e-05
12.4226497308,68.42264973080002,8,0,-0.3617883679766867,9.40677036227469,-1.026400916909778,-8.683139067345148e-06,3.039109585366035e-05,-8.211207335278225e-06,3.081781920952391e-05,3.075363613788201e-05
13.5773502692,68.42264973080002,8,0,-0.2608439496877866,9.810548035430291,-1.028142532135851,-8.683139067345148e-06,3.160242887312716e-05,-8.225140257086812e-06,3.201797603977538e-05,3.198396272082334e-05
12.4226497308,69.57735026920001,8,0,-0.3664326752463061,9.405609285457285,-0.8749842894764681,-8.697071989154006e-06,3.039109585366035e-05,-6.999874315811744e-06,3.070200567277842e-05,3.088937770758951e-05
13.5773502692,69.57735026920001,8,0,-0.2654882569573966,9.809386958612922,-0.8767259047025278,-8.697071989154006e-06,3.160242887312727e-05,-7.013807237620222e-06,3.190532656952443e-05,3.209757240222103e-05
14.4226497308,68.42264973080002,8,0,-0.4528887649644533,10.04280774376767,-1.111081421114883,-9.483490242900383e-06,3.249929579202809e-05,-8.888651368919062e-06,3.296461761172364e-05,3.289359168341401e-05
15.5773502692,68.42264973080002,8,0,-0.3496426840726379,10.45579206733493,-1.110854210724136,-9.483490242900383e-06,3.373824876272988e-05,-8.886833685793085e-06,3.419032634110591e-05,3.414841764241218e-05
14.4226497308,69.57735026920001,8,0,-0.4522828705889648,10.04295921736154,-0.9562122997771867,-9.481672559773918e-06,3.249929579202809e-05,-7.649698398217494e-06,3.284492881993606e-05,3.299116396979768e-05
15.5773502692,69.57735026920001,8,0,-0.3490367896971311,10.45594354092887,-0.9559850893864396,-9.481672559773918e-06,3.37382487627301e-05,-7.647880715091517e-06,3.407396921733609e-05,3.422430683910451e-05
16.4226497308,68.42264973080002,8,0,-0.5495679854555138,10.69164796526438,-1.176885695711058,-1.031193592566915e-05,3.465292787721043e-05,-9.415085565688463e-06,3.514049169312301e-05,3.507263801146241e-05
17.5773502692,68.42264973080002,8,0,-0.4445682485566778,11.11164691285973,-1.174639142170666,-1.031193592566915e-05,3.591292471999646e-05,-9.397113137365326e-06,3.638567765396521e-05,3.634282905820692e-05
16.4226497308,69.57735026920001,8,0,-0.5435771760141428,10.69314566762472,-1.01938609036275,-1.029396349734504e-05,3.465292787721043e-05,-8.155088722901997e-06,3.501984403204507e-05,3.513289816724068e-05
17.5773502692,69.57735026920001,8,0,-0.438577439115289,11.11314461522014,-1.017139536822276,-1.029396349734504e-05,3.591292471999668e-05,-8.137116294578209e-06,3.626842975830064e-05,3.638207296982391e-05
18.4226497308,68.42264973080002,8,0,-0.6502260305294238,11.35015182322489,-1.223820161708891,-1.116084475627407e-05,3.684066665874319e-05,-9.790561293671128e-06,3.733480934136451e-05,3.727564089730223e-05
19.5773502692,68.42264973080002,8,0,-0.5440059246718683,11.77503224665512,-1.21952580367087,-1.116084475627407e-05,3.811530792903386e-05,-9.75620642936696e-06,3.859357480826532e-05,3.855393918897622e-05
18.4226497308,69.57735026920001,8,0,-0.638774409094828,11.35301472858354,-1.064490002922679,-1.112648989197028e-05,3.684066665874319e-05,-8.515920023381435e-06,3.721570596220896e-05,3.729979636895082e-05
19.5773502692,69.57735026920001,8,0,-0.5325543032372995,11.77789515201366,-1.060195644884726,-1.112648989197028e-05,3.811530792903353e-05,-8.48156515907781e-06,3.847786154311427e-05,3.855788852018374e-05
20.4226497308,68.42264973080002,8,0,-0.7533009315438099,12.01526727330829,-1.252054394949083,-1.202277679958683e-05,3.905149601982159e-05,-1.001643515959267e-05,3.953795619733839e-05,3.949044666589069e-05
21.5773502692,68.42264973080002,8,0,-0.6463782516027532,12.44295799307252,-1.245704587429273,-1.202277679958683e-05,4.033456817911427e-05,-9.965636699434187e-06,4.080456117250331e-05,4.077073438292398e-05
20.4226497308,69.57735026920001,8,0,-0.7363681114912546,12.01950047832143,-1.09167037503743,-1.197197833942916e-05,3.905149601982159e-05,-8.733363000299442e-06,3.942250678638673e-05,3.947993711962748e-05
21.5773502692,69.57735026920001,8,0,-0.6294454315501889,12.4471911980857,-1.085320567517688,-1.197197833942916e-05,4.033456817911438e-05,-8.682564540141505e-06,4.069243284190417e-05,4.074092858922965e-05
22.4226497308,68.42264973080002,8,0,-0.8572690183559093,12.68403480905492,-1.261912885460178,-1.289048870598285e-05,4.127472660366048e-05,-1.009530308368142e-05,4.174110120722455e-05,4.170672855412196e-05
23.5773502692,68.42264973080002,8,0,-0.7501449830359488,13.11253095033477,-1.253520351477276,-1.289048870598285e-05,4.256021502750001e-05,-1.002816281181821e-05,4.300996118152341e-05,4.298362446849862e-05
22.4226497308,69.57735026920001,8,0,-0.834888927734819,12.6896298317102,-1.101226832480142,-1.282334843411958e-05,4.127472660366048e-05,-8.809814659841136e-06,4.163104694201268e-05,4.166315782635865e-05
23.5773502692,69.57735026920001,8,0,-0.7277648924148856,13.11812597298993,-1.092834298497321,-1.282334843411958e-05,4.256021502749968e-05,-8.742674387978572e-06,4.290311475181552e-05,4.292174348892554e-05
24.4226497308,68.42264973080002,8,0,-0.9606474406152894,13.35359446385655,-1.253869939480366,-1.375694738105416e-05,4.350002023683318e-05,-1.003095951584293e-05,4.393603577676992e-05,4.391535370923368e-05
25.5773502692,68.42264973080002,8,0,-0.8538051774998654,13.78096351631824,-1.243467852336125,-1.375694738105416e-05,4.478212739421827e-05,-9.947742818688997e-06,4.520173306735309e-05,4.518398941955104e-05
24.4226497308,69.57735026920001,8,0,-0.9329085415642493,13.36052918861931,-1.093606544807081,-1.367373068390104e-05,4.350002023683318e-05,-8.748852358456648e-06,4.383277570398756e-05,4.384045321041332e-05
25.5773502692,69.57735026920001,8,0,-0.8260662784487529,13.78789824108129,-1.083204457662853,-1.367373068390104e-05,4.478212739421914e-05,-8.665635661302823e-06,4.510153573547037e-05,4.509182918446517e-05
26.4226497308,68.42264973080002,8,0,-1.061999236768822,14.02119504284817,-1.22854655126606,-1.461535359193876e-05,4.571742352652919e-05,-9.82837241012848e-06,4.611506979198298e-05,4.610803241064523e-05
27.57735026920001,68.42264973080002,8,0,-0.9559017870758151,14.4455848416202,-1.216188886452781,-1.461535359193876e-05,4.699059292284527e-05,-9.729511091622245e-06,4.737237568527979e-05,4.736392910048242e-05
26.4226497308,69.57735026920001,8,0,-1.029045463933555,14.02943348605699,-1.069400376726374,-1.451649227343296e-05,4.571742352652919e-05,-8.555203013810991e-06,4.601968698083515e-05,4.600364363064215e-05
27.57735026920001,69.57735026920001,8,0,-0.9229480142405029,14.45382328482919,-1.057042711913162,-1.451649227343296e-05,4.699059292284581e-05,-8.456341695305299e-06,4.727988864616978e-05,4.724339105072699e-05
28.4226497308,68.42264973080002,8,0,-1.159940940187202,14.68420582146575,-1.186708099731165,-1.545917566577164e-05,4.791741138084017e-05,-9.493664797849324e-06,4.827097117850607e-05,4.827712602736764e-05
29.5773502692,68.42264973080002,8,0,-1.055028796818424,15.10385439494086,-1.172470014148216,-1.545917566577164e-05,4.91763571012655e-05,-9.379760113185725e-06,4.951487646742934e-05,4.951612973920271e-05
28.4226497308,69.57735026920001,8,0,-1.12197271196611,14.69369787852103,-1.029339884677958,-1.534527098110837e-05,4.791741138084017e-05,-8.234719077423666e-06,4.8184258149626e-05,4.814519395800627e-05
29.5773502692,69.57735026920001,8,0,-1.017060568597332,15.11334645199614,-1.015101799095076,-1.534527098110837e-05,4.91763571012655e-05,-8.120814392760609e-06,4.943087835283637e-05,4.936921789912653e-05
30.4226497308,68.42264973080002,8,0,-1.253152453615954,15.34013061749676,-1.129261830048591,-1.628219234556846e-05,5.00909399388824e-05,-9.034094640388728e-06,5.039693847607766e-05,5.041554785063429e-05
31.5773502692,68.42264973080002,8,0,-1.149840698634264,15.75337763742352,-1.113239859606679,-1.628219234556846e-05,5.133068099866266e-05,-8.905918876853428e-06,5.162269015954708e-05,5.163380011658239e-05
30.4226497308,69.57735026920001,8,0,-1.210427199104078,15.35081193112473,-0.9742941975760715,-1.615401658203283e-05,5.00909399388824e-05,-7.794353580608572e-06,5.031942198018182e-05,5.025811992380444e-05
31.5773502692,69.57735026920001,8,0,-1.107115444122353,15.76405895105163,-0.9582722271341318,-1.615401658203283e-05,5.13306809986631e-05,-7.666177817073055e-06,5.154770017166572e-05,5.146262147715834e-05
32.4226497308,68.42264973080002,8,0,-1.340388722301538,15.98662386922808,-1.057253243795644,-1.707854300674738e-05,5.222950735937109e-05,-8.458025950365154e-06,5.248659805839683e-05,5.251672025716641e-05
33.57735026920001,68.42264973080002,8,0,-1.239063870221252,16.39192327754922,-1.039565154027134,-1.707854300674738e-05,5.344540558433451e-05,-8.316521232217076e-06,5.368974006020586e-05,5.371065067442221e-05
32.4226497308,69.57735026920001,8,0,-1.293220482918646,15.9984159290738,-0.9052659656753653,-1.693703828859871e-05,5.222950735937109e-05,-7.242127725402923e-06,5.241856351571097e-05,5.233594726619466e-05
33.57735026920001,69.57735026920001,8,0,-1.191895630838387,16.40371533739484,-0.8875778759068285,-1.693703828859871e-05,5.344540558433418e-05,-7.100623007254628e-06,5.362404105717073e-05,5.351741614014962e-05
34.42264973080001,68.42264973080002,8,0,-1.420492597470488,16.6215081435218,-0.9718607232800044,-1.7842782826723e-05,5.432522013724614e-05,-7.774885786240035e-06,5.453401925261329e-05,5.457456686663484e-05
35.5773502692,68.42264973080002,8,0,-1.321509277892907,17.01744142183212,-0.9526448967463024,-1.7842782826723e-05,5.551301997217711e-05,-7.621159173970419e-06,5.571043508467754e-05,5.574089938008574e-05
34.42264973080001,69.57735026920001,8,0,-1.369250393380923,16.63431869454392,-0.8233857439134845,-1.768905621445408e-05,5.432522013724527e-05,-6.587085951307876e-06,5.447553520339275e-05,5.43727036111158e-05
35.5773502692,69.57735026920001,8,0,-1.270267073803261,17.03025197285456,-0.8041699173798907,-1.768905621445408e-05,5.551301997217721e-05,-6.433359339039126e-06,5.565409691875338e-05,5.552792356301687e-05
36.4226497308,68.42264973080002,8,0,-1.492408205194962,17.24279235823393,-0.8743879371518224,-1.856994014321102e-05,5.637086211050454e-05,-6.995103497214579e-06,5.653374185100951e-05,5.658352647049303e-05
37.5773502692,68.42264973080002,8,0,-1.396085832532287,17.62808184888463,-0.8538022320783207,-1.856994014321102e-05,5.752673058245664e-05,-6.830417856626566e-06,5.767969723809728e-05,5.771929397996669e-05
36.4226497308,69.57735026920001,8,0,-1.437512991665895,17.2565161616162,-0.7299043781577429,-1.840525450262382e-05,5.637086211050454e-05,-5.839235025261943e-06,5.648468469483841e-05,5.636293074649829e-05
37.5773502692,69.57735026920001,8,0,-1.341190619003211,17.64180565226693,-0.7093186730842819,-1.840525450262382e-05,5.752673058245675e-05,-5.674549384674255e-06,5.763260058195663e-05,5.748899284465043e-05
38.4226497308,68.42264973080002,8,0,-1.555194116786645,17.84868993222005,-0.7662537979314277,-1.92555731194933e-05,5.835996307653347e-05,-6.130030383451422e-06,5.848081148199596e-05,5.853858001847942e-05
39.5773502692,68.42264973080002,8,0,-1.461813697080066,18.22221161104637,-0.7444738610236129,-1.92555731194933e-05,5.948052811301241e-05,-5.955790888188903e-06,5.959299510481284e-05,5.964114359224957e-05
38.4226497308,69.57735026920001,8,0,-1.497114285032545,17.86320989015844,-0.6261831683714654,-1.908133362423089e-05,5.835996307653303e-05,-5.009465346971723e-06,5.844089065341935e-05,5.830170919713865e-05
39.5773502692,69.57735026920001,8,0,-1.403733865325921,18.23673156898493,-0.6044032314637049,-1.908133362423089e-05,5.948052811301252e-05,-4.835225851709639e-06,5.955485587858985e-05,5.939602946622077e-05
40.4226497308,68.42264973080002,8,0,-1.608035648329795,18.43763606785958,-0.6489799530172359,-1.989582292894301e-05,6.028686393581449e-05,-5.191839624137887e-06,6.037081910697609e-05,6.043528460420241e-05
41.5773502692,68.42264973080002,8,0,-1.517836865040254,18.79843120101775,-0.6261970130028665,-1.989582292894301e-05,6.136924933528899e-05,-5.009576104022932e-06,6.144637981582424e-05,6.150235462355382e-05
40.4226497308,69.57735026920001,8,0,-1.547281141624593,18.45282469453588,-0.5136817780830453,-1.97135594088274e-05,6.028686393581449e-05,-4.109454224664362e-06,6.033960268336441e-05,6.018468948347467e-05
41.5773502692,69.57735026920001,8,0,-1.45708235833506,18.81361982769401,-0.4908988380686622,-1.97135594088274e-05,6.136924933528888e-05,-3.927190704549298e-06,6.14167741824921e-05,6.124502845151992e-05
42.4226497308,68.42264973080002,8,0,-1.650255689420026,19.00830341728548,-0.5241759777186545,-2.048746093997247e-05,6.214677548684955e-05,-4.193407821749236e-06,6.219994159384003e-05,6.226981007673801e-05
43.57735026920001,68.42264973080002,8,0,-1.563434393512297,19.35558860091639,-0.5005941827907097,-2.048746093997247e-05,6.318863103774229e-05,-4.004753462325678e-06,6.32365206924783e-05,6.32994673481207e-05
42.4226497308,69.57735026920001,8,0,-1.58737090294556,19.0240246139041,-0.3939440338568997,-2.029880658054907e-05,6.214677548684955e-05,-3.151552270855198e-06,6.217688218212224e-05,6.200812600485842e-05
43.57735026920001,69.57735026920001,8,0,-1.500549607037788,19.37130979753519,-0.3703622389289278,-2.029880658054907e-05,6.318863103774283e-05,-2.962897911431422e-06,6.321491044532459e-05,6.303260832375404e-05
44.4226497308,68.42264973080002,8,0,-1.681323564377507,19.55961547394542,-0.3935225939148733,-2.102792778516436e-05,6.393582836812734e-05,-3.148180751318987e-06,6.396498092389203e-05,6.403897507072964e-05
45.5773502692,68.42264973080002,8,0,-1.598029771120589,19.89279064697309,-0.3693559846925255,-2.102792778516436e-05,6.493535388721035e-05,-2.954847877540204e-06,6.496073841276895e-05,6.502969047019006e-05
44.4226497308,69.57735026920001,8,0,-1.61687927311804,19.57572654676029,-0.2685819040294563,-2.083459491138595e-05,6.393582836812734e-05,-2.14865523223565e-06,6.394944154196329e-05,6.376891055811368e-05
45.5773502692,69.57735026920001,8,0,-1.533585479861132,19.90890171978792,-0.244415294807271,-2.083459491138595e-05,6.493535388721024e-05,-1.955322358458168e-06,6.49464964521529e-05,6.475604335330058e-05
46.42264973080001,68.42264973080002,8,0,-1.700861552924061,20.09075715471718,-0.2587533563498743,-2.151536269313074e-05,6.565111213743422e-05,-2.070026850798995e-06,6.566340013919008e-05,6.574028012283659e-05
47.57735026920001,68.42264973080002,8,0,-1.621198020711581,20.4094112835671,-0.2342225856852466,-2.151536269313074e-05,6.660707452398398e-05,-1.873780685481973e-06,6.661703412506157e-05,6.66909317578218e-05
46.42264973080001,69.57735026920001,8,0,-1.635446164484927,20.10711100182696,-0.1392580580311816,-2.131911652781334e-05,6.565111213743422e-05,-1.114064464249453e-06,6.565467970515076e-05,6.546460330396127e-05
47.57735026920001,69.57735026920001,8,0,-1.555782632272465,20.42576513067681,-0.114727287366459,-2.131911652781334e-05,6.660707452398377e-05,-9.178182989316719e-07,6.660946962228665e-05,6.641329229427018e-05
48.4226497308,68.42264973080002,8,0,-1.708648832038865,20.60118218337503,-0.1216353283780631,-2.194862200922439e-05,6.729070205243118e-05,-9.730826270245045e-07,6.729335464327054e-05,6.737193624536807e-05
49.57735026920001,68.42264973080002,8,0,-1.632670269147143,20.90509643494192,-0.09696425034152686,-2.194862200922439e-05,6.820244480713184e-05,-7.757140027322149e-07,6.820411345370963e-05,6.828182347062081e-05
48.4226497308,69.57735026920001,8,0,-1.642859290608191,20.6176295687327,-0.007667484040426494,-2.175125338493237e-05,6.729070205243118e-05,-6.133987232341195e-08,6.729071261649469e-05,6.709345963841812e-05
49.57735026920001,69.57735026920001,8,0,-1.566880727716497,20.92154382029948,0.0170035939960826,-2.175125338493237e-05,6.820244480713151e-05,1.360287519686608e-07,6.820249623306273e-05,6.800302239004956e-05
50.42264973080001,68.42264973080002,8,0,-1.70462273804875,21.09061704339163,0.01605068948403094,-2.23272863964693e-05,6.885367272929221e-05,1.284055158722475e-07,6.885371793601214e-05,6.893288791907546e-05
51.57735026920001,68.42264973080002,8,0,-1.63233565337991,21.37976538206699,0.04063843637079308,-2.23272863964693e-05,6.972111774531829e-05,3.251074909663447e-07,6.972140480773954e-05,6.980174184607825e-05
50.42264973080001,69.57735026920001,8,0,-1.639055413017457,21.10700887464946,0.1244813164873182,-2.213058442137542e-05,6.885367272929221e-05,9.958505318985456e-07,6.885639761987445e-05,6.865445196970081e-05
51.57735026920001,69.57735026920001,8,0,-1.566768328348617,21.39615721332481,0.1490690633740126,-2.213058442137542e-05,6.972111774531829e-05,1.192552506992101e-06,6.972498844536824e-05,6.952462792730551e-05
52.4226497308,68.42264973080002,8,0,-1.688877380829029,21.55906142744805,0.1525298096018108,-2.265165676061133e-05,7.034009847249698e-05,1.220238476814487e-06,7.03441012946994e-05,7.042282997712324e-05
53.5773502692,68.42264973080002,8,0,-1.620240565862091,21.83360868731581,0.1768141046213419,-2.265165676061133e-05,7.116374025210024e-05,1.414512836970735e-06,7.116907182060385e-05,7.125082038018551e-05
52.4226497308,69.57735026920001,8,0,-1.624119260776729,21.57525095746113,0.2554850320522859,-2.245738240045443e-05,7.034009847249698e-05,2.043880256418287e-06,7.035135131028378e-05,7.014728587126289e-05
53.5773502692,69.57735026920001,8,0,-1.555482445809791,21.84979821732888,0.2797693270718848,-2.245738240045443e-05,7.116374025210024e-05,2.238154616575078e-06,7.117711495968379e-05,7.097824305235843e-05
54.42264973080001,68.42264973080002,8,0,-1.661659764414223,22.00678526440668,0.2860520451051406,-2.292273945765085e-05,7.175104065763275e-05,2.288416360841125e-06,7.176486730723212e-05,7.184221829604016e-05
55.57735026920001,68.42264973080002,8,0,-1.596585367107184,22.26708285363484,0.3098193642453028,-2.292273945765085e-05,7.253193342531721e-05,2.478554913962422e-06,7.254802011638612e-05,7.262995704665183e-05
54.42264973080001,69.57735026920001,8,0,-1.59828024670678,22.02263014383354,0.3836636410656712,-2.273260090452853e-05,7.175104065763275e-05,3.06930912852537e-06,7.177596077692893e-05,7.157241049102305e-05
55.57735026920001,69.57735026920001,8,0,-1.533205849399741,22.2829277330617,0.4074309602060096,-2.273260090452853e-05,7.253193342531721e-05,3.259447681648077e-06,7.255980552863336e-05,7.236474894063127e-05
56.4226497308,68.42264973080002,8,0,-1.623363675554446,22.43432254498498,0.4149101517672527,-2.314222179776221e-05,7.308852308439548e-05,3.319281214138022e-06,7.311713751694771e-05,7.319227459251246e-05
57.57735026920001,68.42264973080002,8,0,-1.561718803892072,22.68090203163447,0.4379563314308712,-2.314222179776221e-05,7.382826154434397e-05,3.50365065144697e-06,7.385989891422126e-05,7.394081594724473e-05
56.4226497308,69.57735026920001,8,0,-1.561907196451499,22.44968666476072,0.5073774592609099,-2.295785236045337e-05,7.308852308439548e-05,4.05901967408728e-06,7.313138855132573e-05,7.293102344961769e-05
57.57735026920001,69.57735026920001,8,0,-1.500262324789088,22.69626615141036,0.5304236389245013,-2.295785236045337e-05,7.382826154434441e-05,4.243389111396011e-06,7.387474989313308e-05,7.368577572965724e-05
58.4226497308,68.42264973080002,8,0,-1.574521689994851,22.84246228910235,0.5374559214053637,-2.33124392392654e-05,7.435549667712338e-05,4.29964737124291e-06,7.440279474612202e-05,7.447498594654114e-05
59.57735026920001,68.42264973080002,8,0,-1.51613046412817,23.07602719256907,0.5595885365442801,-2.33124392392654e-05,7.505619138752355e-05,4.476708292354241e-06,7.510709824414796e-05,7.518582416982773e-05
58.4226497308,69.57735026920001,8,0,-1.515501382957868,22.85721736586159,0.6250427602053987,-2.313537831815445e-05,7.435549667712338e-05,5.00034208164319e-06,7.441957190056769e-05,7.42250707550395e-05
59.57735026920001,69.57735026920001,8,0,-1.457110157091186,23.09078226932832,0.647175375344288,-2.313537831815445e-05,7.505619138752355e-05,5.177403002754304e-06,7.512439198927812e-05,7.494369988467607e-05
60.4226497308,68.42264973080002,8,0,-1.515795712562267,23.23223709625133,0.6521146250159878,-2.343633595720032e-05,7.555579527805407e-05,5.216917000127903e-06,7.562448091947196e-05,7.569309992597518e-05
61.5773502692,68.42264973080002,8,0,-1.460441670708302,23.45365326366719,0.6731549360103362,-2.343633595720032e-05,7.622004378030165e-05,5.385239488082689e-06,7.629274274814655e-05,7.636816484199026e-05
60.4226497308,69.57735026920001,8,0,-1.459688216577284,23.24626397024758,0.7351456877969218,-2.326801346924537e-05,7.555579527805407e-05,5.881165502375375e-06,7.564321737201689e-05,7.545724249122739e-05
61.5773502692,69.57735026920001,8,0,-1.404334174723319,23.46768013766344,0.7561859987912701,-2.326801346924537e-05,7.622004378030165e-05,6.049487990330161e-06,7.631192048550658e-05,7.614163785460006e-05
62.42264973080001,68.42264973080002,8,0,-1.447966509442301,23.60490979171279,0.7573974183921469,-2.351742066358559e-05,7.669408454103474e-05,6.059179347137175e-06,7.678559140011455e-05,7.685011636389177e-05
63.57735026920001,68.42264973080002,8,0,-1.395395264359817,23.81519477204272,0.7771818676775302,-2.351742066358559e-05,7.732493948202454e-05,6.217454941420241e-06,7.742068317167142e-05,7.749176749255273e-05
62.42264973080001,69.57735026920001,8,0,-1.395207978014649,23.6180994245697,0.8362542860158449,-2.335914506930263e-05,7.669408454103474e-05,6.69003428812676e-06,7.680579169181908e-05,7.663096519347056e-05
63.57735026920001,69.57735026920001,8,0,-1.342636732932165,23.82838440489963,0.8560387353011875,-2.335914506930263e-05,7.732493948202454e-05,6.8483098824095e-06,7.744125684622714e-05,7.728343698148139e-05
64.4226497308,68.42264973080002,8,0,-1.371922708199806,23.96195872363135,0.8519116454983044,-2.355971964514446e-05,7.777580608218015e-05,6.815293163986436e-06,7.789026696695256e-05,7.795027692154532e-05
65.57735026920001,68.42264973080002,8,0,-1.321844748356218,24.1622705630057,0.8702929123153441,-2.355971964514446e-05,7.83767416003032e-05,6.962343298522753e-06,7.849548670391088e-05,7.856129684869475e-05
64.4226497308,69.57735026920001,8,0,-1.322905996687502,23.97421290150942,0.9270285852636725,-2.341266951060754e-05,7.777580608218015e-05,7.41622868210938e-06,7.791151023493881e-05,7.775039188748276e-05
65.57735026920001,69.57735026920001,8,0,-1.272828036843888,24.17452474088388,0.9454098520807934,-2.341266951060754e-05,7.837674160030353e-05,7.563278816646347e-06,7.851704216996861e-05,7.837366462756548e-05
66.4226497308,68.42264973080002,8,0,-1.288649733008919,24.30506227780699,0.9343690994489772,-2.356772896787413e-05,7.880711907538949e-05,7.474952795591817e-06,7.894338459177132e-05,7.899855352882143e-05
67.57735026920001,68.42264973080002,8,0,-1.240743265484235,24.49668814790573,0.9512167478476413,-2.356772896787413e-05,7.93819966856857e-05,7.60973398278113e-06,7.95224272888378e-05,7.958214106777779e-05
66.4226497308,69.57735026920001,8,0,-1.243722670612535,24.31629404340609,1.006228800735963,-2.343294778068498e-05,7.880711907538949e-05,8.049830405887706e-06,7.896532430737773e-05,7.882039071597754e-05
67.57735026920001,69.57735026920001,8,0,-1.195816203087851,24.50791991350482,1.023076449134627,-2.343294778068498e-05,7.93819966856857e-05,8.184611593077019e-06,7.954462400774753e-05,7.941759634655497e-05
68.42264973080002,68.42264973080002,8,0,-1.19921911023946,24.63608315873919,1.003592421649094,-2.354636767975762e-05,7.979484139615696e-05,8.028739373192755e-06,7.995054810353756e-05,8.000063658704087e-05
69.57735026920001,68.42264973080002,8,0,-1.153132850706332,24.8204281968717,1.018793201786638,-2.354636767975762e-05,8.034787651055449e-05,8.150345614293107e-06,8.050747689318586e-05,8.05604000694998e-05
68.42264973080002,69.57735026920001,8,0,-1.158683696539433,24.64621701216419,1.072721810948705,-2.342476143865754e-05,7.979484139615696e-05,8.581774487589639e-06,7.997290840064145e-05,7.984653286345519e-05
69.57735026920001,69.57735026920001,8,0,-1.112597437006333,24.8305620502966,1.087922591086249,-2.342476143865754e-05,8.034787651055417e-05,8.70338072868999e-06,8.053004422186685e-05,8.042120359032058e-05
70.4226497308,68.42264973080002,8,0,-1.104778525050452,24.95705293855004,1.058519930973684,-2.350093363100148e-05,8.074639222340049e-05,8.468159447789472e-06,8.09180796445504e-05,8.096292336672381e-05
71.57735026920001,68.42264973080002,8,0,-1.060134353320327,25.13562962547054,1.071977815711827,-2.350093363100148e-05,8.128212228416198e-05,8.575822525694614e-06,8.145729847215249e-05,8.15028739835578e-05
70.4226497308,69.57735026920001,8,0,-1.068890832415441,24.9660248617088,1.125486188568829,-2.339327055309644e-05,8.074639222340049e-05,9.003889508550633e-06,8.094064838455034e-05,8.083508003879481e-05
71.57735026920001,69.57735026920001,8,0,-1.024246660685327,25.14460154862925,1.138944073306918,-2.339327055309644e-05,8.128212228416187e-05,9.111552586455341e-06,8.148002868916577e-05,8.139114079726528e-05
72.4226497308,68.42264973080002,8,0,-1.006542936025775,25.27015730268584,1.098209271951001,-2.343706323743115e-05,8.166973771741529e-05,8.785674175608004e-06,8.185301251840163e-05,8.18925061856189e-05
73.57735026920001,68.42264973080002,8,0,-0.9629383529648328,25.44457563492961,1.109845328858242,-2.343706323743115e-05,8.219299271414659e-05,8.878762630865934e-06,8.237924101117192e-05,8.241705054112605e-05
72.4226497308,69.57735026920001,8,0,-0.9755134509398884,25.27791467395731,1.163616146542413,-2.334397478217349e-05,8.166973771741529e-05,9.308929172339303e-06,8.187563128984589e-05,8.179297093629848e-05
73.57735026920001,69.57735026920001,8,0,-0.9319088678789198,25.45233300620118,1.175252203449546,-2.334397478217349e-05,8.219299271414692e-05,9.402017627596366e-06,8.240197928070876e-05,8.233473053372587e-05
74.4226497308,68.42264973080002,8,0,-0.9057869658924913,25.57772232653266,1.121840349858078,-2.33606961520821e-05,8.257334101761851e-05,8.974722798864624e-06,8.276308559698835e-05,8.279715841221758e-05
75.57735026920001,68.42264973080002,8,0,-0.8627973081449367,25.74968095752288,1.13159256231035,-2.33606961520821e-05,8.308921691058916e-05,9.052740498482798e-06,8.328133653843491e-05,8.331108807293342e-05
74.4226497308,69.57735026920001,8,0,-0.8797810660197305,25.58422380150085,1.186324836479355,-2.328267845246382e-05,8.257334101761851e-05,9.490598691834842e-06,8.27856368932433e-05,8.27278045696034e-05
75.57735026920001,69.57735026920001,8,0,-0.8367914082721484,25.75618243249118,1.1960770489316,-2.328267845246382e-05,8.308921691058948e-05,9.568616391452799e-06,8.330396806057425e-05,8.325994320937522e-05
76.42264973080002,68.42264973080002,8,0,-0.803838686124613,25.88220200479107,1.128718078652251,-2.327804539943161e-05,8.34661173642311e-05,9.029744629218011e-06,8.3656738892597e-05,8.368531350201979e-05
77.57735026920001,68.42264973080002,8,0,-0.7610190781398316,26.05348043673019,1.136541238384688,-2.327804539943161e-05,8.397995266004848e-05,9.0923299070775e-06,8.417229839905834e-05,8.419378672709558e-05
76.42264973080002,69.57735026920001,8,0,-0.782976926838062,25.8874174446127,1.192947490629478,-2.321546012157196e-05,8.34661173642311e-05,9.543579925035822e-06,8.367913075676378e-05,8.364781554868122e-05
77.57735026920001,69.57735026920001,8,0,-0.7401573188532709,26.05869587655187,1.200770650361914,-2.321546012157196e-05,8.397995266004859e-05,9.606165202895312e-06,8.419473304351622e-05,8.4175363846789e-05
78.4226497308,68.42264973080002,8,0,-0.7020748058895405,26.18616713042128,1.11827550313189,-2.319557308318355e-05,8.435739466205973e-05,8.946204025055116e-06,8.45431092186794e-05,8.456602689456416e-05
79.57735026920001,68.42264973080002,8,0,-0.6589618533370292,26.35861894063133,1.124141300178451,-2.319557308318355e-05,8.487475009268987e-05,8.993130401427612e-06,8.506151936707768e-05,8.507453271967372e-05
78.4226497308,69.57735026920001,8,0,-0.6864326804321319,26.19007766178563,1.182944931960657,-2.314864670681133e-05,8.435739466205973e-05,9.463559455685257e-06,8.456525769994824e-05,8.456183099105305e-05
79.57735026920001,69.57735026920001,8,0,-0.6433197278796019,26.36252947199575,1.188810729007151,-2.314864670681133e-05,8.487475009269008e-05,9.51048583205721e-06,8.508367414617274e-05,8.509013056657555e-05
80.4226497308,68.42264973080002,8,0,-0.6019171651547621,26.49229548695093,1.090077869046922,-2.311997131805598e-05,8.525687929036678e-05,8.720622952375378e-06,8.543202407789487e-05,8.544890011183993e-05
81.57735026920001,68.42264973080002,8,0,-0.5580304191112981,26.66784247112479,1.093975303553073,-2.311997131805598e-05,8.578352024288835e-05,8.751802428424581e-06,8.595906736603455e-05,8.596318502286905e-05
80.4226497308,69.57735026920001,8,0,-0.5915240064716949,26.4948937766217,1.15590798811224,-2.308879184200678e-05,8.525687929036678e-05,9.247263904897923e-06,8.54538339179339e-05,8.547918822788682e-05
81.57735026920001,69.57735026920001,8,0,-0.5476372604282131,26.67044076079562,1.159805422618337,-2.308879184200678e-05,8.578352024288857e-05,9.278443380946692e-06,8.598084718085383e-05,8.601381395018581e-05
82.4226497308,68.42264973080002,8,0,-0.5048303210512666,26.80336318128315,1.043828204320103,-2.305814757239057e-05,8.617462643694708e-05,8.350625634560827e-06,8.633399106167996e-05,8.634392549608222e-05
83.57735026920001,68.42264973080002,8,0,-0.4596735676474397,26.98399019489846,1.045764438404573,-2.305814757239057e-05,8.6716507477793e-05,8.366115507236582e-06,8.687567570871463e-05,8.686984290241353e-05
82.4226497308,69.57735026920001,8,0,-0.4996670301592037,26.80465400400616,1.111563334425802,-2.304265769971438e-05,8.617462643694708e-05,8.89250667540642e-06,8.635533513398039e-05,8.640957141422429e-05
83.57735026920001,69.57735026920001,8,0,-0.4545102767553768,26.98528101762147,1.113499568510326,-2.304265769971438e-05,8.6716507477793e-05,8.907996548082608e-06,8.689695291065405e-05,8.695617519119902e-05
84.42264973080002,68.42264973080002,8,0,-0.4123199083147728,27.12223680763893,0.9793749417818511,-2.301721315271842e-05,8.712101371109639e-05,7.834999534254809e-06,8.726017917467466e-05,8.726116773122766e-05
85.57735026920001,68.42264973080002,8,0,-0.3653823632678117,27.30998698782678,0.9793766986707156,-2.301721315271842e-05,8.768426425165992e-05,7.835013589365726e-06,8.782272390702867e-05,8.780436963952521e-05
84.42264973080002,69.57735026920001,8,0,-0.4123152232776564,27.12223797889821,1.049781259352387,-2.301719909760707e-05,8.712101371109639e-05,8.398250074819098e-06,8.728087734289156e-05,8.736268247524255e-05
85.57735026920001,69.57735026920001,8,0,-0.3653776782306775,27.30998815908613,1.049783016241292,-2.301719909760707e-05,8.768426425166014e-05,8.39826412993034e-06,8.784331736328117e-05,8.792667725196875e-05
86.4226497308,68.42264973080002,8,0,-0.3259313505922279,27.45186599999284,0.8967220597420618,-2.30044731218894e-05,8.810671628045087e-05,7.173776477936494e-06,8.822238768523106e-05,8.821011191192555e-05
87.57735026920002,68.42264973080002,8,0,-0.276688861767135,27.64883595529322,0.8948376619821047,-2.30044731218894e-05,8.869762614635199e-05,7.158701295856837e-06,8.881220432336049e-05,8.877541850665132e-05
86.4226497308,69.57735026920001,8,0,-0.330956411285519,27.45060973481952,0.9705857929797018,-2.301954830396928e-05,8.810671628045087e-05,7.764686343837614e-06,8.824218593322845e-05,8.834757455800981e-05
87.57735026920002,69.57735026920001,8,0,-0.2817139224603897,27.64757969012004,0.9687013952197989,-2.301954830396928e-05,8.869762614635243e-05,7.749611161758391e-06,8.883185886339948e-05,8.893349260620554e-05
88.42264973080002,68.42264973080002,8,0,-0.2472484009454332,27.79527580285587,0.7960421419029744,-2.302741552531008e-05,8.914268128989511e-05,6.368337135223795e-06,8.923299745031374e-05,8.919833054388496e-05
89.57735026920001,68.42264973080002,8,0,-0.1951647844053124,28.00361026901635,0.7923442606580413,-2.302741552531008e-05,8.976768468837656e-05,6.338754085264331e-06,8.985666933887401e-05,8.978844112206302e-05
88.42264973080002,69.57735026920001,8,0,-0.2571094175986062,27.79281054869257,0.8741675667130471,-2.30569985752696e-05,8.914268128989511e-05,6.993340533704376e-06,8.925154836447002e-05,8.937129686222529e-05
89.57735026920001,69.57735026920001,8,0,-0.2050258010584765,28.00114501485309,0.8704696854681276,-2.30569985752696e-05,8.976768468837667e-05,6.963757483745021e-06,8.987503668593045e-05,8.99814822852963e-05
90.42264973080002,68.42264973080002,8,0,-0.1778908980427341,28.15555817067892,0.6776926627496879,-2.309369741027988e-05,9.024009886460672e-05,5.421541301997503e-06,9.030489929191372e-05,9.022875654077022e-05
91.57735026920001,68.42264973080002,8,0,-0.1224195536052788,28.37744354842874,0.6722818259074425,-2.309369741027988e-05,9.090575499785618e-05,5.378254607259539e-06,9.096915342777438e-05,9.084161005790736e-05
90.42264973080002,69.57735026920001,8,0,-0.1923197962887215,28.15195094611742,0.760899679405993,-2.313698410501784e-05,9.024009886460672e-05,6.087197435247944e-06,9.032174523247998e-05,9.043613037084721e-05
91.57735026920001,69.57735026920001,8,0,-0.1368484518512663,28.37383632386724,0.7554888425637747,-2.313698410501784e-05,9.090575499785618e-05,6.043910740510198e-06,9.098577597048051e-05,9.106806661711802e-05
92.42264973080002,68.42264973080002,8,0,-0.1195110405702797,28.53586179661646,0.5422356881237036,-2.321112476711806e-05,9.141036658162887e-05,4.337885504989629e-06,9.145139404825181e-05,9.129409577583442e-05
93.57735026920001,68.42264973080002,8,0,-0.06009701125672606,28.77351791387067,0.535244565959004,-2.321112476711806e-05,9.212333493339151e-05,4.281956527672033e-06,9.216306468532279e-05,9.191745622982586e-05
92.42264973080002,69.57735026920001,8,0,-0.1381540330093705,28.53120104850668,0.6313567320939661,-2.326705374443533e-05,9.141036658162887e-05,5.05085385675173e-06,9.146595460518293e-05,9.153393214712664e-05
93.57735026920001,69.57735026920001,8,0,-0.07874000369578038,28.76885716576104,0.6243656099293887,-2.326705374443533e-05,9.212333493339195e-05,4.994924879435109e-06,9.21773636926535e-05,9.217476419838849e-05
94.4226497308,68.42264973080002,8,0,-0.07378740811542794,28.93937937444513,0.3904610421282364,-2.338762320552547e-05,9.266504392471675e-05,3.123688337025891e-06,9.268605951713615e-05,9.236535748143774e-05
95.57735026920002,68.42264973080002,8,0,-0.00987006348903563,29.1950487529507,0.3820594952168153,-2.338762320552547e-05,9.343205206023347e-05,3.056475961734522e-06,9.345204108827699e-05,9.296568600367566e-05
94.4226497308,69.57735026920001,8,0,-0.09619153321256935,28.93377834317085,0.4863370590678395,-2.34548355808169e-05,9.266504392471675e-05,3.890696472542716e-06,9.269762506625505e-05,9.263453349317547e-05
95.57735026920002,69.57735026920001,8,0,-0.0322741885861495,29.18944772167653,0.4779355121564861,-2.34548355808169e-05,9.343205206023379e-05,3.823484097251889e-06,9.34633111740833e-05,9.324981451508513e-05
96.4226497308,68.42264973080002,8,0,-0.0424158950223168,29.36933131636029,0.223412829295679,-2.363119591715964e-05,9.401579292837078e-05,1.787302634365432e-06,9.402258074852696e-05,9.336826977587722e-05
97.57735026920001,68.42264973080002,8,0,0.0265675695406129,29.64526517461201,0.2138136638216555,-2.363119591715964e-05,9.484359450312593e-05,1.710509310573244e-06,9.484976815752773e-05,9.386782057364347e-05
96.4226497308,69.57735026920001,8,0,-0.06801366961964028,29.36293187271096,0.3268880261401812,-2.370798924095161e-05,9.401579292837078e-05,2.615104209121449e-06,9.403031405240873e-05,9.366189137610196e-05
97.57735026920001,69.57735026920001,8,0,0.0009697949433071784,29.63886573096275,0.3172888606661306,-2.370798924095161e-05,9.484359450312614e-05,2.538310885329045e-06,9.485717990556128e-05,9.417242527516166e-05
98.42264973080002,68.42264973080002,8,0,-0.02709667872198551,29.82894488876473,0.04241901344755278,-2.394986528292213e-05,9.547430098702471e-05,3.393521075804222e-07,9.547454205971554e-05,9.413471760384165e-05
99.57735026920002,68.42264973080002,8,0,0.04751336994402067,30.12738508342875,0.03188434363604056,-2.394986528292213e-05,9.636962157101678e-05,2.550747490883245e-07,9.63697567591235e-05,9.436434305299712e-05
98.42264973080002,69.57735026920001,8,0,-0.05518913155268557,29.82192177555705,0.1543340864465894,-2.403414264141423e-05,9.547430098702471e-05,1.234672691572715e-06,9.547748983279594e-05,9.444499161613128e-05
99.57735026920002,69.57735026920001,8,0,0.01942091711328509,30.12036197022094,0.1437994166350229,-2.403414264141423e-05,9.636962157101635e-05,1.150395333080183e-06,9.637236936555071e-05,9.467912280906543e-05
0.4226497308,70.4226497308,8,0,-0.0272424223766341,6.227450990931515,-0.1367495359691663,-5.06913654435044e-06,1.994963710888215e-05,-1.093996287753331e-06,1.996159069562919e-05,2.178579217050855e-05
1.5773502692,70.4226497308,8,0,0.04589198208159773,6.519988608764442,-0.1465694390818338,-5.06913654435044e-06,2.082724996238094e-05,-1.17255551265467e-06,2.084051612275678e-05,2.206914033769102e-05
0.4226497308,71.57735026920001,8,0,-0.05342883067699011,6.220904388856426,-0.02704792928184558,-5.147695769251509e-06,1.994963710888215e-05,-2.163834342547646e-07,1.995010350227101e-05,2.207509851773496e-05
1.5773502692,71.57735026920001,8,0,0.01970557378124171,6.513442006689353,-0.0368678323944046,-5.147695769251509e-06,2.082724996238094e-05,-2.949426591552368e-07,2.082808719577932e-05,2.235369906287039e-05
2.4226497308,70.4226497308,8,0,-0.04777510101971671,6.704931685832791,-0.3067484213284177,-5.516825671929325e-06,2.14940014754807e-05,-2.453987370627342e-06,2.154962434080258e-05,2.241833172047241e-05
3.5773502692,70.4226497308,8,0,0.03089041201270604,7.019593737962482,-0.3156834870000154,-5.516825671929325e-06,2.243798763186978e-05,-2.525467896000123e-06,2.249491009596282e-05,2.308899215265449e-05
2.4226497308,71.57735026920001,8,0,-0.07160194281051724,6.698974975385227,-0.1887501517798648,-5.588306197301836e-06,2.149400147548114e-05,-1.510001214238919e-06,2.151503305065111e-05,2.269685795935083e-05
3.5773502692,71.57735026920001,8,0,0.007063570221851334,7.013637027514701,-0.197685217451476,-5.588306197301836e-06,2.243798763186956e-05,-1.581481739611808e-06,2.246028006106445e-05,2.335578495450908e-05
4.422649730800001,70.4226497308,8,0,-0.08355878012885398,7.213775902738377,-0.4640631292885815,-6.038408818603033e-06,2.315092991286589e-05,-3.712505034308652e-06,2.326850195701013e-05,2.365987326613045e-05
5.577350269200001,70.4226497308,8,0,9.191805785491169e-05,7.548378695485212,-0.4718422964015474,-6.038408818603033e-06,2.415473829110639e-05,-3.774738371212379e-06,2.427226002778691e-05,2.454888904111252e-05
4.422649730800001,71.57735026920001,8,0,-0.104303225763267,7.208589791329773,-0.3385870820084508,-6.100642155506273e-06,2.315092991286589e-05,-2.708696656067607e-06,2.321350241567912e-05,2.391652363552293e-05
5.577350269200001,71.57735026920001,8,0,-0.02065252757657632,7.543192584076536,-0.3463662491214438,-6.100642155506273e-06,2.415473829110617e-05,-2.770929992971551e-06,2.421804950775782e-05,2.478956320672882e-05
6.422649730800001,70.4226497308,8,0,-0.1329154410510713,7.750849718333491,-0.6072693886292858,-6.626009186030219e-06,2.490905145150803e-05,-4.858155109034286e-06,2.509506086908464e-05,2.524733585891581e-05
7.577350269200001,70.4226497308,8,0,-0.04483098264425589,8.103187551960753,-0.6136733028518293,-6.626009186030219e-06,2.596606495238981e-05,-4.909386422814635e-06,2.614990479179765e-05,2.626651227663825e-05
6.422649730800001,71.57735026920001,8,0,-0.1499925456444124,7.746580442185156,-0.4751427010190766,-6.677240499810243e-06,2.490905145150803e-05,-3.801141608152613e-06,2.502299915099224e-05,2.547541278132109e-05
7.577350269200001,71.57735026920001,8,0,-0.06190808723760588,8.098918275812382,-0.4815466152416066,-6.677240499810243e-06,2.59660649523897e-05,-3.852372921932853e-06,2.607933060131724e-05,2.647614909433045e-05
8.4226497308,70.4226497308,8,0,-0.1941670119671906,8.312991155639269,-0.7352473004688254,-7.271727362806425e-06,2.675690530761941e-05,-5.881978403750603e-06,2.700921510029379e-05,2.704265998604706e-05
9.5773502692,70.4226497308,8,0,-0.1022001344361207,8.680858665763548,-0.7401012720363261,-7.271727362806425e-06,2.786050783799225e-05,-5.920810176290609e-06,2.810821873786135e-05,2.814395854469782e-05
8.4226497308,71.57735026920001,8,0,-0.2071109361475001,8.309755174594192,-0.5972969841722477,-7.310559135347353e-06,2.675690530761941e-05,-4.778375873377982e-06,2.692364553284578e-05,2.723832399165376e-05
9.5773502692,71.57735026920001,8,0,-0.1151440586164303,8.677622684718472,-0.6021509557398164,-7.310559135347353e-06,2.786050783799225e-05,-4.817207645918531e-06,2.802468872611617e-05,2.831988822247383e-05
10.4226497308,70.4226497308,8,0,-0.2656497237118964,8.897040906472132,-0.8471473266241132,-7.967711841055773e-06,2.868305067968034e-05,-6.777178612992906e-06,2.89937134154492e-05,2.897005906683403e-05
11.5773502692,70.4226497308,8,0,-0.1703475316603531,9.278249674678305,-0.8503149951160439,-7.967711841055773e-06,2.982667698429886e-05,-6.802519960928352e-06,3.013032958744951e-05,3.01257091069145e-05
10.4226497308,71.57735026920001,8,0,-0.2740968396900709,8.894929127477861,-0.7041940385469204,-7.993053188990514e-06,2.868305067968121e-05,-5.633552308375363e-06,2.889812184225816e-05,2.913135104113595e-05
11.5773502692,71.57735026920001,8,0,-0.1787946476386093,9.276137895683707,-0.7073617070387428,-7.993053188990514e-06,2.982667698429875e-05,-5.658893656309942e-06,3.003718759868201e-05,3.026674445944808e-05
12.4226497308,70.4226497308,8,0,-0.3457231976738315,9.499865488757706,-0.9423597879075479,-8.706206623562425e-06,3.067614812216372e-05,-7.538878303260384e-06,3.103368985669993e-05,3.098525564035969e-05
13.5773502692,70.4226497308,8,0,-0.2476255306995352,9.892256156654891,-0.9437377083456715,-8.706206623562425e-06,3.185332012585528e-05,-7.549901666765372e-06,3.220167000293558e-05,3.217793040122101e-05
12.4226497308,71.57735026920001,8,0,-0.3493976521755848,9.498946875132267,-0.7952132874461306,-8.717229987067684e-06,3.067614812216372e-05,-6.361706299569045e-06,3.09313358332739e-05,3.111145745431609e-05
13.5773502692,71.57735026920001,8,0,-0.2512999852013067,9.89133754302938,-0.7965912078843085,-8.717229987067684e-06,3.185332012585506e-05,-6.372729663074467e-06,3.210204869644974e-05,3.228386285589516e-05
14.4226497308,70.4226497308,8,0,-0.432775742689349,10.11837448197304,-1.020488649427725,-9.479581962184343e-06,3.272501893646518e-05,-8.1639091954218e-06,3.311619278961989e-05,3.306026418566279e-05
15.5773502692,70.4226497308,8,0,-0.3324129563648555,10.51982562727101,-1.020001907464326,-9.479581962184343e-06,3.392937237235911e-05,-8.160015259714611e-06,3.430952314771556e-05,3.427817015323346e-05
14.4226497308,71.57735026920001,8,0,-0.4314777641203942,10.11869897661527,-0.8699444699409166,-9.475688026477479e-06,3.272501893646518e-05,-6.959555759527333e-06,3.301002893414781e-05,3.315147719984459e-05
15.5773502692,71.57735026920001,8,0,-0.3311149777958917,10.52015012191328,-0.8694577279775043,-9.475688026477479e-06,3.392937237235922e-05,-6.955661823820035e-06,3.420626720883529e-05,3.434943826741171e-05
16.4226497308,70.4226497308,8,0,-0.5252272888244707,10.74953350564066,-1.081329913148719,-1.028035412875084e-05,3.48186890491097e-05,-8.650639305189754e-06,3.52297709798336e-05,3.51757703065127e-05
17.5773502692,70.4226497308,8,0,-0.423118546398773,11.15796847534345,-1.078928780881758,-1.028035412875084e-05,3.604399395821807e-05,-8.631430247054068e-06,3.644262854788763e-05,3.641015356268677e-05
16.4226497308,71.57735026920001,8,0,-0.5188242694457643,10.75113426048534,-0.9281667995101597,-1.026114507061472e-05,3.48186890491097e-05,-7.425334396081278e-06,3.512240915124239e-05,3.52326390134597e-05
17.5773502692,71.57735026920001,8,0,-0.4167155270200578,11.15956923018817,-0.9257656672430771,-1.026114507061472e-05,3.604399395821817e-05,-7.406125337944616e-06,3.633826108012054e-05,3.644762725748105e-05
18.4226497308,70.4226497308,8,0,-0.6215312469181127,11.39037451336182,-1.124854535821673,-1.110119960082742e-05,3.694642344029232e-05,-8.998836286573382e-06,3.736413976893865e-05,3.731725168450724e-05
19.5773502692,70.4226497308,8,0,-0.5181830563955421,11.8037672754521,-1.120512098816642,-1.110119960082742e-05,3.818660172656317e-05,-8.964096790533139e-06,3.859086661924331e-05,3.856110658470237e-05
18.4226497308,71.57735026920001,8,0,-0.6099514149048071,11.39326947136515,-0.9698322500377898,-1.10664601047875e-05,3.694642344029232e-05,-7.758658000302319e-06,3.725784423973358e-05,3.734078502182297e-05
19.5773502692,71.57735026920001,8,0,-0.5066032243822995,11.80666223345518,-0.9654898130327595,-1.10664601047875e-05,3.818660172656241e-05,-7.723918504262076e-06,3.848758079896719e-05,3.856594916926212e-05
20.4226497308,70.4226497308,8,0,-0.7201763770437641,12.03800479177421,-1.151195461091678,-1.193496823995941e-05,3.909775643531248e-05,-9.209563688733426e-06,3.950992592614178e-05,3.947296384114798e-05
21.5773502692,70.4226497308,8,0,-0.6160811544026021,12.45438568233886,-1.144906084592733,-1.193496823995941e-05,4.034689910700643e-05,-9.159248676741862e-06,4.074501915444642e-05,4.072034929491857e-05
20.4226497308,71.57735026920001,8,0,-0.7034047063800362,12.04219770944014,-0.9950526271299215,-1.188465322796823e-05,3.909775643531248e-05,-7.960421017039372e-06,3.940662136056959e-05,3.94644220363091e-05
21.5773502692,71.57735026920001,8,0,-0.5993094837388289,12.45857860000497,-0.9887632506309896,-1.188465322796823e-05,4.034689910700697e-05,-7.910106005047917e-06,4.064468402247611e-05,4.069393141096873e-05
22.4226497308,70.4226497308,8,0,-0.8196895008462404,12.68961580587134,-1.160638108644004,-1.277469904740504e-05,4.126252217946528e-05,-9.285104869152035e-06,4.165848091497702e-05,4.163287076515547e-05
23.5773502692,70.4226497308,8,0,-0.7153239939335609,13.10707783352206,-1.152416568093596,-1.277469904740504e-05,4.251490826241743e-05,-9.219332544748771e-06,4.289659550917385e-05,4.287854033117555e-05
22.4226497308,71.57735026920001,8,0,-0.797765392711856,12.69509683290494,-1.004089848274958,-1.270892672300189e-05,4.126252217946528e-05,-8.032718786199662e-06,4.155976800150743e-05,4.159369570289621e-05
23.5773502692,71.57735026920001,8,0,-0.6933998857991677,13.11255886055569,-0.9958683077246041,-1.270892672300189e-05,4.251490826241754e-05,-7.966946461796832e-06,4.280076929426947e-05,4.282238808872322e-05
24.4226497308,70.4226497308,8,0,-0.9186396253777263,13.34249274564853,-1.153613503969924,-1.361364099772755e-05,4.343088848637747e-05,-9.228908031759389e-06,4.380175046817401e-05,4.37880652860251e-05
25.5773502692,70.4226497308,8,0,-0.8144630897324818,13.75919888822951,-1.14349458165864,-1.361364099772755e-05,4.46810069141204e-05,-9.14795665326912e-06,4.503771270879325e-05,4.502726410751142e-05
24.4226497308,71.57735026920001,8,0,-0.8916558325475643,13.34923869385607,-0.9973487005020981,-1.353268961923706e-05,4.343088848637747e-05,-7.978789604016785e-06,4.370892520729323e-05,4.371983931370772e-05
25.5773502692,71.57735026920001,8,0,-0.7874792969022839,13.76594483643719,-0.9872297781908144,-1.353268961923706e-05,4.468100691412083e-05,-7.897838225526515e-06,4.494765993990986e-05,4.494302927195755e-05
26.4226497308,70.4226497308,8,0,-1.015643780623888,13.99402532877853,-1.130693156908605,-1.444528036101926e-05,4.559339607659038e-05,-9.045545255268839e-06,4.593218921227238e-05,4.59304510200528e-05
27.57735026920001,70.4226497308,8,0,-0.9120958539149049,14.40821703561446,-1.118731501368388,-1.444528036101926e-05,4.683597119709817e-05,-8.949852010947104e-06,4.716101852370246e-05,4.715880473246575e-05
26.4226497308,71.57735026920001,8,0,-0.9837460325168776,14.00199976580528,-0.9753712668451853,-1.434958711669823e-05,4.559339607659038e-05,-7.802970134761483e-06,4.584626376610325e-05,4.58348738691787e-05
27.57735026920001,71.57735026920001,8,0,-0.8801981058079313,14.41619147264106,-0.963409611304982,-1.434958711669823e-05,4.683597119709774e-05,-7.707276890439856e-06,4.707772893974162e-05,4.704824866309645e-05
28.4226497308,70.4226497308,8,0,-1.109374627059685,14.6417201219598,-1.092584797552745,-1.526337490415883e-05,4.774100409191909e-05,-8.74067838042196e-06,4.8042710704386e-05,4.805256929045968e-05
29.5773502692,70.4226497308,8,0,-1.006872899495353,15.05172703221713,-1.078854852738705,-1.526337490415883e-05,4.897102482269108e-05,-8.630838821909641e-06,4.92596480742501e-05,4.926602576059434e-05
28.4226497308,71.57735026920001,8,0,-1.072761440888823,14.65087341850251,-0.9388322062063147,-1.515353534564624e-05,4.774100409191909e-05,-7.510657649650518e-06,4.79644348287378e-05,4.793144606203883e-05
29.5773502692,71.57735026920001,8,0,-0.970259713324527,15.0608803287597,-0.9251022613922071,-1.515353534564624e-05,4.897102482269064e-05,-7.400818091137656e-06,4.91838563773716e-05,4.913101143524693e-05
30.4226497308,70.4226497308,8,0,-1.198569676964598,15.28321437780374,-1.040128142745157,-1.606199446852971e-05,4.986514175054366e-05,-8.321025141961257e-06,5.012666487286594e-05,5.014750978449034e-05
31.5773502692,70.4226497308,8,0,-1.097506998286757,15.68746509251511,-1.024723976996946,-1.606199446852971e-05,5.107789389467775e-05,-8.19779181597557e-06,5.132720606238645e-05,5.134231245380217e-05
30.4226497308,71.57735026920001,8,0,-1.15749190163618,15.29348382163585,-0.8885341247283829,-1.593876114254445e-05,4.986514175054366e-05,-7.108272997827063e-06,5.005654757163946e-05,5.000274519086893e-05
31.5773502692,71.57735026920001,8,0,-1.056429222958339,15.69773453634721,-0.8731299589802397,-1.593876114254445e-05,5.107789389467775e-05,-6.985039671841917e-06,5.125941214447009e-05,5.118480072879423e-05
32.4226497308,70.4226497308,8,0,-1.282041803211682,15.9162911582656,-0.9742899811055692,-1.683556669688986e-05,5.195776514901928e-05,-7.794319848844554e-06,5.217783624866502e-05,5.220887152387061e-05
33.57735026920001,70.4226497308,8,0,-1.182783400965905,16.31332476724872,-0.9573248778633922,-1.683556669688986e-05,5.31488659759686e-05,-7.658599022907137e-06,5.33577680718262e-05,5.338155226184603e-05
32.4226497308,71.57735026920001,8,0,-1.236801527899445,15.92760122709366,-0.8254023777367953,-1.669984587095315e-05,5.195776514901928e-05,-6.603219021894362e-06,5.21161676023524e-05,5.204246713038875e-05
33.57735026920001,71.57735026920001,8,0,-1.137543125653703,16.32463483607663,-0.8084372744947537,-1.669984587095315e-05,5.314886597596817e-05,-6.46749819595803e-06,5.329825764094239e-05,5.320359977766408e-05
34.42264973080001,70.4226497308,8,0,-1.358690586870175,16.53889533869445,-0.8961580141268478,-1.757892614894012e-05,5.401141755331839e-05,-7.169264113014782e-06,5.419045750498499e-05,5.423075494738354e-05
35.5773502692,70.4226497308,8,0,-1.261571094651908,16.92737330756752,-0.8777637238557617,-1.757892614894012e-05,5.517685145993759e-05,-7.022109790846094e-06,5.534589550008628e-05,5.537813909231918e-05
34.42264973080001,71.57735026920001,8,0,-1.309639146147332,16.55115819887516,-0.7504787757994336,-1.743177182677159e-05,5.401141755331839e-05,-6.003830206395468e-06,5.413733074717876e-05,5.404480724150306e-05
35.5773502692,71.57735026920001,8,0,-1.212519653929092,16.93963616774813,-0.7320844855283068,-1.743177182677159e-05,5.517685145993727e-05,-5.856675884226455e-06,5.529476115193003e-05,5.518189612523973e-05
36.4226497308,70.4226497308,8,0,-1.427513981334064,17.14914996302225,-0.8069330602686754,-1.82873647106868e-05,5.601929106673845e-05,-6.455464482149403e-06,5.615923373219236e-05,5.62077733689893e-05
37.5773502692,70.4226497308,8,0,-1.332834489536755,17.52786793021149,-0.787258652682122,-1.82873647106868e-05,5.715544496830616e-05,-6.298069221456976e-06,5.728665961603611e-05,5.732699221971346e-05
36.4226497308,71.57735026920001,8,0,-1.375048894436606,17.16226623474662,-0.664913822572672,-1.812996944999443e-05,5.601929106673845e-05,-5.319310580581375e-06,5.61145676559517e-05,5.60044712544423e-05
37.5773502692,71.57735026920001,8,0,-1.280369402639253,17.54098420193603,-0.6452394149861728,-1.812996944999443e-05,5.71554449683067e-05,-5.161915319889382e-06,5.724382240399855e-05,5.711469941682518e-05
38.4226497308,70.4226497308,8,0,-1.487619743518796,17.74537235081402,-0.7079194041413801,-1.895668105991136e-05,5.79752873174199e-05,-5.663355233131041e-06,5.807937362035218e-05,5.813507614926959e-05
39.5773502692,70.4226497308,8,0,-1.395644989310244,18.11327136764823,-0.6871296986705203,-1.895668105991136e-05,5.907898436792252e-05,-5.497037589364162e-06,5.917567102029625e-05,5.922358365096656e-05
38.4226497308,71.57735026920001,8,0,-1.432180528929764,17.75923215446128,-0.5699572728286197,-1.879036341614427e-05,5.79752873174199e-05,-4.559658182628958e-06,5.804293533943362e-05,5.79166970175927e-05
39.5773502692,71.57735026920001,8,0,-1.340205774721238,18.12713117129538,-0.5491675673576922,-1.879036341614427e-05,5.90789843679222e-05,-4.393340538861538e-06,5.914090252380484e-05,5.899756704814821e-05
40.4226497308,70.4226497308,8,0,-1.538236097053766,18.32608933777766,-0.6005132417252572,-1.958322698079418e-05,5.987407475853152e-05,-4.804105933802058e-06,5.9946624352917e-05,6.000837827286882e-05
41.5773502692,70.4226497308,8,0,-1.449191905941896,18.68226610222515,-0.5787868298301658,-1.958322698079418e-05,6.094260505187397e-05,-4.630294638641327e-06,6.100911146195866e-05,6.106396955180675e-05
40.4226497308,71.57735026920001,8,0,-1.480298998667,18.34057361237435,-0.4669469550574643,-1.940941568563388e-05,5.987407475853152e-05,-3.735575640459714e-06,5.991805235453436e-05,5.977728220825693e-05
41.5773502692,71.57735026920001,8,0,-1.391254807555138,18.6967503768218,-0.4452205431623594,-1.940941568563388e-05,6.094260505187386e-05,-3.561764345298875e-06,6.098205626772796e-05,6.082663361064072e-05
42.4226497308,70.4226497308,8,0,-1.578721141605939,18.89005105720516,-0.4861893252949384,-2.016394849890313e-05,6.171114029634127e-05,-3.889514602359507e-06,6.175730756893973e-05,6.18239924947142e-05
43.57735026920001,70.4226497308,8,0,-1.492792221436159,19.23376673788428,-0.4637162288623231,-2.016394849890313e-05,6.274228733837864e-05,-3.709729830898584e-06,6.278376556226347e-05,6.284482251080569e-05
42.4226497308,71.57735026920001,8,0,-1.51879288445237,18.90503312149356,-0.3572959450401587,-1.998416372744243e-05,6.171114029634127e-05,-2.858367560321269e-06,6.173613489758283e-05,6.158261446148239e-05
43.57735026920001,71.57735026920001,8,0,-1.43286396428258,19.24874880217272,-0.3348228486076111,-1.998416372744243e-05,6.274228733837875e-05,-2.678582788860889e-06,6.27639639791549e-05,6.259864115323501e-05
44.4226497308,70.4226497308,8,0,-1.608570598779365,19.43624273317403,-0.3664860411044344,-2.069642010263319e-05,6.348283322518038e-05,-2.931888328835475e-06,6.350835425186401e-05,6.357886122253146e-05
45.5773502692,70.4226497308,8,0,-1.525898769935607,19.76693004854906,-0.3434650755948228,-2.069642010263319e-05,6.447489517130548e-05,-2.747720604758582e-06,6.449705053270088e-05,6.456346226168245e-05
44.4226497308,71.57735026920001,8,0,-1.547181357420328,19.45159004351379,-0.2424782978387424,-2.051225237855608e-05,6.348283322518038e-05,-1.939826382709939e-06,6.349403157314331e-05,6.332970129437005e-05
45.5773502692,71.57735026920001,8,0,-1.464509528576587,19.78227735888875,-0.2194573323291036,-2.051225237855608e-05,6.447489517130527e-05,-1.755658658632829e-06,6.448396127317383e-05,6.431096805167173e-05
46.42264973080001,70.4226497308,8,0,-1.627423580455374,19.96389404870585,-0.2429892542027401,-2.117887069642187e-05,6.5186399820223e-05,-1.943914033621921e-06,6.51973368649162e-05,6.527058605406598e-05
47.57735026920001,70.4226497308,8,0,-1.548106505070322,20.28116235024605,-0.2196251827515212,-2.117887069642187e-05,6.613820472484361e-05,-1.757001462012169e-06,6.61470424627665e-05,6.621788314302977e-05
46.42264973080001,71.57735026920001,8,0,-1.565119389918844,19.97947009633998,-0.1240136411251227,-2.099195812481228e-05,6.5186399820223e-05,-9.921091290009815e-07,6.518925508440179e-05,6.501619788866006e-05
47.57735026920001,71.57735026920001,8,0,-1.485802314533784,20.29673839788022,-0.1006495696739308,-2.099195812481228e-05,6.613820472484372e-05,-8.051965573914466e-07,6.614006495221232e-05,6.596165487710593e-05
48.4226497308,70.4226497308,8,0,-1.635066172196533,20.4724857647088,-0.1173153255168088,-2.161020036279594e-05,6.682000738482538e-05,-9.385226041344705e-07,6.682249748379306e-05,6.689745349113617e-05
49.57735026920001,70.4226497308,8,0,-1.559156621924495,20.77612396579695,-0.09381590067139339,-2.161020036279594e-05,6.773092198808983e-05,-7.505272053711471e-07,6.773249819715639e-05,6.780677712059529e-05
48.4226497308,71.57735026920001,8,0,-1.572401039275497,20.48815204793906,-0.00345100010872533,-2.142220496403283e-05,6.682000738482538e-05,-2.760800086980264e-08,6.682000954422754e-05,6.664043134509321e-05
49.57735026920001,71.57735026920001,8,0,-1.496491489003477,20.79179024902714,0.02004842473659523,-2.142220496403283e-05,6.773092198808961e-05,1.603873978927618e-07,6.773099412267836e-05,6.754942615424965e-05
50.42264973080001,70.4226497308,8,0,-1.63143273535972,20.96175338988186,0.008906253965646947,-2.198998746505659e-05,6.838275703590973e-05,7.125003172517557e-08,6.838277107932033e-05,6.84584558625019e-05
51.57735026920001,70.4226497308,8,0,-1.55893841322542,21.25173067841907,0.03233326058769395,-2.198998746505659e-05,6.925268890152134e-05,2.586660847015516e-07,6.92528722258483e-05,6.932955166621988e-05
50.42264973080001,71.57735026920001,8,0,-1.568960717701144,20.97737139429651,0.1176477371671249,-2.180257141208087e-05,6.838275703590973e-05,9.411818973369991e-07,6.838521253299904e-05,6.820142048890062e-05
51.57735026920001,71.57735026920001,8,0,-1.496466395566844,21.26734868283371,0.1410747437890635,-2.180257141208087e-05,6.925268890152134e-05,1.128597950312508e-06,6.925618591095486e-05,6.907370732833347e-05
52.4226497308,70.4226497308,8,0,-1.616604940611096,21.43168782990988,0.1340501574659448,-2.231848607388341e-05,6.987468500820049e-05,1.072401259727559e-06,6.987780347551486e-05,6.995330692935228e-05
53.5773502692,70.4226497308,8,0,-1.547488848942752,21.70815219658326,0.1571998400954862,-2.231848607388341e-05,7.070407810822062e-05,1.25759872076389e-06,7.070832837345828e-05,7.078634219607293e-05
52.4226497308,71.57735026920001,8,0,-1.554872453599058,21.44712095166289,0.2377242949685022,-2.21332886128473e-05,6.987468500820049e-05,1.901794359748018e-06,6.988451142707053e-05,6.969889071029187e-05
53.5773502692,71.57735026920001,8,0,-1.485756361930723,21.72358531833623,0.2608739775980572,-2.21332886128473e-05,7.070407810822051e-05,2.086991820784458e-06,7.071580556474176e-05,7.053463663448974e-05
54.42264973080001,70.4226497308,8,0,-1.5908086472411,21.88253306918354,0.2565120089594871,-2.259661412651835e-05,7.129675273918022e-05,2.052096071675897e-06,7.130796384937889e-05,7.138245203228515e-05
55.57735026920001,70.4226497308,8,0,-1.524989971892357,22.14580777057852,0.279185038156308,-2.259661412651835e-05,7.208657684336513e-05,2.233480305250464e-06,7.209974639456671e-05,7.217801912505706e-05
54.42264973080001,71.57735026920001,8,0,-1.53034723604947,21.89764842198145,0.3552400219826554,-2.241522989294346e-05,7.129675273918022e-05,2.841920175861243e-06,7.131829388572092e-05,7.113328367668079e-05
55.57735026920001,71.57735026920001,8,0,-1.464528560700726,22.16092312337643,0.3779130511795035,-2.241522989294346e-05,7.208657684336513e-05,3.023304409436028e-06,7.211075106895661e-05,7.193307188761919e-05
56.4226497308,70.4226497308,8,0,-1.554408832663995,22.31478105374157,0.3747242688953802,-2.282593310751804e-05,7.265082643810421e-05,2.997794151163042e-06,7.267435194320603e-05,7.274707297004076e-05
57.57735026920001,70.4226497308,8,0,-1.49176429459258,22.56535920602723,0.3967293519232585,-2.282593310751804e-05,7.34025608949612e-05,3.173834815386068e-06,7.34287238561963e-05,7.350618989407285e-05
56.4226497308,71.57735026920001,8,0,-1.495728611256482,22.32945110909345,0.4686910760025179,-2.26498924432955e-05,7.265082643810421e-05,3.749528608020143e-06,7.268769270852625e-05,7.250576205663333e-05
57.57735026920001,71.57735026920001,8,0,-1.433084073185057,22.58002926137915,0.4906961590303962,-2.26498924432955e-05,7.340256089496131e-05,3.925569272243169e-06,7.344265269939915e-05,7.327059248450323e-05
58.4226497308,70.4226497308,8,0,-1.50790285116395,22.72916404501854,0.4871708901091354,-2.300862035973947e-05,7.393964722499048e-05,3.897367120873083e-06,7.397880042226183e-05,7.404908807581496e-05
59.57735026920001,70.4226497308,8,0,-1.448268460756025,22.96770160665024,0.5083269228037317,-2.300862035973947e-05,7.465525990988557e-05,4.066615382429853e-06,7.46975739125744e-05,7.477319656770215e-05
58.4226497308,71.57735026920001,8,0,-1.451486763978234,22.74326806681497,0.5766224757209411,-2.283937209818232e-05,7.393964722499048e-05,4.612979805767529e-06,7.399458555242412e-05,7.381820964640263e-05
59.57735026920001,71.57735026920001,8,0,-1.391852373570309,22.98180562844667,0.5977785084156323,-2.283937209818232e-05,7.465525990988557e-05,4.782228067325058e-06,7.471386817657025e-05,7.454949712800221e-05
60.4226497308,70.4226497308,8,0,-1.451912357587615,23.12664479607223,0.5924004958443303,-2.314743538113815e-05,7.516679323350123e-05,4.739203966754642e-06,7.52238730228293e-05,7.529114817047157e-05
61.5773502692,70.4226497308,8,0,-1.395085495500527,23.35395224442059,0.6125383677253732,-2.314743538113815e-05,7.584871557854628e-05,4.900306941802986e-06,7.59093197445454e-05,7.598210977327239e-05
60.4226497308,71.57735026920001,8,0,-1.398211365904996,23.14007004399289,0.6776407889750843,-2.29863324060903e-05,7.516679323350123e-05,5.421126311800674e-06,7.524159022019998e-05,7.507322748204651e-05
61.5773502692,71.57735026920001,8,0,-1.341384503817908,23.36737749234124,0.6977786608560864,-2.29863324060903e-05,7.584871557854628e-05,5.582229286848692e-06,7.592747425961763e-05,7.577279793722284e-05
62.42264973080001,70.4226497308,8,0,-1.387174268393436,23.50840496211656,0.6890379248056363,-2.324568162855224e-05,7.633663529348772e-05,5.512303398445091e-06,7.641285928913503e-05,7.647662921301854e-05
63.57735026920001,70.4226497308,8,0,-1.332916009539625,23.7254379975318,0.7080019611384532,-2.324568162855224e-05,7.698773439973345e-05,5.664015689107625e-06,7.706768653949391e-05,7.713671984499213e-05
62.42264973080001,71.57735026920001,8,0,-1.336603504839421,23.52104765300506,0.7704253130863796,-2.309396933789019e-05,7.633663529348772e-05,6.163402504691037e-06,7.643205639102632e-05,7.627412664339091e-05
63.57735026920001,71.57735026920001,8,0,-1.28234524598561,23.7380806884203,0.7893893494191964,-2.309396933789019e-05,7.698773439973345e-05,6.315114795353571e-06,7.708725572933322e-05,7.694421168481677e-05
64.4226497308,70.4226497308,8,0,-1.314531148187299,23.87583219326581,0.7757940883656658,-2.330716542881201e-05,7.745428793700044e-05,6.206352706925326e-06,7.754976678282219e-05,7.760962252142399e-05
65.57735026920001,70.4226497308,8,0,-1.26256874301462,24.08368181395653,0.7934431355339816,-2.330716542881201e-05,7.80778367990726e-05,6.347545084271853e-06,7.817709191915175e-05,7.824152602855248e-05
64.4226497308,71.57735026920001,8,0,-1.267467022405124,23.88759822471136,0.8537376961247133,-2.316597305146548e-05,7.745428793700044e-05,6.829901568997706e-06,7.757005474968011e-05,7.742491849524837e-05
65.57735026920001,71.57735026920001,8,0,-1.215504617232479,24.09544784540194,0.8713867432929884,-2.316597305146548e-05,7.807783679907216e-05,6.971093946343907e-06,7.819769274160476e-05,7.806814888352191e-05
66.4226497308,70.4226497308,8,0,-1.234921404471913,24.23050636835682,0.8514741874166638,-2.333615358899557e-05,7.852555750231935e-05,6.811793499333311e-06,7.863931165525804e-05,7.869492337623112e-05
67.57735026920001,70.4226497308,8,0,-1.184950833900992,24.4303886506405,0.8676823702160539,-2.333615358899557e-05,7.912520434917038e-05,6.941458961728431e-06,7.924263567406591e-05,7.930172445903031e-05
66.4226497308,71.57735026920001,8,0,-1.191699583673503,24.24131182355642,0.9264300432730165,-2.320648812660035e-05,7.852555750231935e-05,7.411440346184132e-06,7.866036447485818e-05,7.853030304218271e-05
67.57735026920001,71.57735026920001,8,0,-1.141729013102565,24.44119410584018,0.942638226072393,-2.320648812660035e-05,7.91252043491706e-05,7.541105808579144e-06,7.926394748146707e-05,7.91497012963534e-05
68.42264973080002,70.4226497308,8,0,-1.149369647567477,24.57418541468842,0.9149844359664181,-2.333733120396666e-05,7.955688904505692e-05,7.319875487731345e-06,7.968690839139312e-05,7.973801860318173e-05
69.57735026920001,70.4226497308,8,0,-1.101058174633185,24.76743130642559,0.9296416362418095,-2.333733120396666e-05,8.013662672026842e-05,7.437133089934476e-06,8.027008952681083e-05,8.032319528929963e-05
68.42264973080002,71.57735026920001,8,0,-1.110283780166163,24.58395688153875,0.987451645367897,-2.322007360176272e-05,7.955688904505692e-05,7.899613162943176e-06,7.970845996024573e-05,7.959565585434194e-05
69.57735026920001,71.57735026920001,8,0,-1.061972307231871,24.77720277327592,1.002108845643329,-2.322007360176272e-05,8.013662672026842e-05,8.016870765146632e-06,8.029185090620295e-05,8.019462811051469e-05
70.4226497308,70.4226497308,8,0,-1.058977528153184,24.90879112060651,0.9653375308173981,-2.331576098657539e-05,8.055531360846337e-05,7.722700246539185e-06,8.069865935538437e-05,8.074507328186281e-05
71.57735026920001,70.4226497308,8,0,-1.011966180165775,25.09683651255614,0.9783496553064885,-2.331576098657539e-05,8.111944978431227e-05,7.826797242451908e-06,8.126588741464928e-05,8.131248870607173e-05
70.4226497308,71.57735026920001,8,0,-1.024278529515501,24.91746587026593,1.035854552798403,-2.321166399066234e-05,8.055531360846337e-05,8.286836422387225e-06,8.072049745755905e-05,8.062701357681861e-05
71.57735026920001,71.57735026920001,8,0,-0.9772671815280827,25.1055112622156,1.048866677287575,-2.321166399066234e-05,8.111944978431238e-05,8.390933418300599e-06,8.128789012892328e-05,8.120934038309278e-05
72.4226497308,70.4226497308,8,0,-0.9649153040392129,25.23639528827241,1.001657187433812,-2.327684520354341e-05,8.152839716570309e-05,8.013257499470496e-06,8.168134448677987e-05,8.172291589543347e-05
73.57735026920001,70.4226497308,8,0,-0.9188212333908412,25.4207715708659,1.012946307965998,-2.327684520354341e-05,8.208152601348355e-05,8.103570463727987e-06,8.223711645201473e-05,8.227680840541623e-05
72.4226497308,71.57735026920001,8,0,-0.9348109826202124,25.24392136862716,1.07079829340641,-2.318653223928641e-05,8.152839716570309e-05,8.566386347251282e-06,8.170330204459669e-05,8.163105721377624e-05
73.57735026920001,71.57735026920001,8,0,-0.8887169119718408,25.42829765122065,1.082087413938515,-2.318653223928641e-05,8.208152601348355e-05,8.656699311508122e-06,8.225919665920975e-05,8.220088221538516e-05
74.4226497308,70.4226497308,8,0,-0.8684143135388496,25.55920649561926,1.023182128074172,-2.322629099981972e-05,8.24841922368127e-05,8.185457024593372e-06,8.264241110926196e-05,8.267901972106054e-05
75.57735026920001,70.4226497308,8,0,-0.8228330024645096,25.74153173991662,1.032686588814353,-2.322629099981972e-05,8.303116796970478e-05,8.261492710514825e-06,8.319150830340079e-05,8.322398896084395e-05
74.4226497308,71.57735026920001,8,0,-0.8430690848983655,25.56554280277938,1.091554094685655,-2.315025531389827e-05,8.24841922368127e-05,8.73243275748524e-06,8.266435493288593e-05,8.261509087881041e-05
75.57735026920001,71.57735026920001,8,0,-0.7974877738240256,25.74786804707674,1.10105855542585,-2.315025531389827e-05,8.303116796970478e-05,8.808468443406801e-06,8.321353528634664e-05,8.317690499066256e-05
76.42264973080002,70.4226497308,8,0,-0.7707604484849426,25.87955764300801,1.029269956861857,-2.317007954955822e-05,8.343119281641357e-05,8.234159654894858e-06,8.358996332501564e-05,8.362147544719442e-05
77.57735026920001,70.4226497308,8,0,-0.725267742430697,26.06152846722499,1.036944550682239,-2.317007954955822e-05,8.397710528906452e-05,8.295556405457909e-06,8.413743017278931e-05,8.41624594834887e-05
76.42264973080002,71.57735026920001,8,0,-0.7502948649636725,25.88467403888833,1.097509015943199,-2.310868279899441e-05,8.343119281641357e-05,8.780072127545589e-06,8.361178064389746e-05,8.358701090499147e-05
77.57735026920001,71.57735026920001,8,0,-0.7048021589093816,26.06664486310549,1.105183609763675,-2.310868279899441e-05,8.397710528906506e-05,8.841468878109399e-06,8.41592928698299e-05,8.414562698761801e-05
78.4226497308,70.4226497308,8,0,-0.6732886288661861,26.19989435527534,1.019401386099039,-2.311443909659206e-05,8.437829283997403e-05,8.155211088792312e-06,8.453274988741408e-05,8.455894462596224e-05
79.57735026920001,70.4226497308,8,0,-0.6274426038792624,26.38327845522304,1.025217705193606,-2.311443909659206e-05,8.492844513981711e-05,8.201741641548845e-06,8.508387400932468e-05,8.510117814339793e-05
78.4226497308,71.57735026920001,8,0,-0.6577784446139363,26.2037719013384,1.088170423579383,-2.306790854383531e-05,8.437829283997403e-05,8.705363388635066e-06,8.455433301213671e-05,8.455525483339577e-05
79.57735026920001,71.57735026920001,8,0,-0.611932419627049,26.38715600128595,1.093986742673869,-2.306790854383531e-05,8.492844513981667e-05,8.751893941390948e-06,8.510546570539708e-05,8.51157628376766e-05
80.4226497308,70.4226497308,8,0,-0.5773781864458778,26.52276419766649,0.9931852878649889,-2.306582155476e-05,8.533474798168945e-05,7.945482302919912e-06,8.548014879395177e-05,8.550057300981548e-05
81.57735026920001,70.4226497308,8,0,-0.5307208774908894,26.70939343348644,0.997132352337102,-2.306582155476e-05,8.589463568914931e-05,7.977058818696816e-06,8.604044186334002e-05,8.604950655976111e-05
80.4226497308,71.57735026920001,8,0,-0.5668526811870001,26.52539557398121,1.06317125129758,-2.303424503898336e-05,8.533474798168945e-05,8.505370010380639e-06,8.550137833945054e-05,8.552870920450895e-05
81.57735026920001,71.57735026920001,8,0,-0.5201953722320205,26.71202480980113,1.067118315769666,-2.303424503898336e-05,8.58946356891492e-05,8.536946526157326e-06,8.606164348608767e-05,8.609639165526296e-05
82.4226497308,70.4226497308,8,0,-0.4844489694057748,26.85080654827399,0.9503650346170587,-2.303088194071767e-05,8.631014013000139e-05,7.602920276936469e-06,8.644214615409571e-05,8.645582166862898e-05
83.57735026920001,70.4226497308,8,0,-0.4365080080918542,27.04257039352967,0.9524502970172848,-2.303088194071767e-05,8.688543166576843e-05,7.619602376138278e-06,8.701732463834664e-05,8.701696164004042e-05
82.4226497308,71.57735026920001,8,0,-0.4788882696718746,26.85219672320747,1.022276476587872,-2.301419984151597e-05,8.631014013000139e-05,8.178211812702972e-06,8.646287336102614e-05,8.651653379538887e-05
83.57735026920001,71.57735026920001,8,0,-0.430947308357954,27.04396056846315,1.024361738988071,-2.301419984151597e-05,8.688543166576843e-05,8.194893911904564e-06,8.70379872124257e-05,8.709670101790836e-05
84.42264973080002,70.4226497308,8,0,-0.3959578864496152,27.18674285346057,0.89082656226419,-2.301645951940722e-05,8.731434344023351e-05,7.12661249811352e-06,8.742930621259888e-05,8.743413084341307e-05
85.57735026920001,70.4226497308,8,0,-0.3462481177757644,27.38558192815598,0.8910773760275302,-2.301645951940722e-05,8.791086066431972e-05,7.128619008220241e-06,8.802527082527143e-05,8.801271833101714e-05
84.42264973080002,71.57735026920001,8,0,-0.3952890497474293,27.18691006263612,0.9653912152749258,-2.301445300930067e-05,8.731434344023351e-05,7.723129722199407e-06,8.744933503739092e-05,8.75278166713662e-05
85.57735026920001,71.57735026920001,8,0,-0.3455792810735598,27.3857491373316,0.9656420290382389,-2.301445300930067e-05,8.791086066431994e-05,7.725136232305911e-06,8.804519777367279e-05,8.812547931808188e-05
86.4226497308,70.4226497308,8,0,-0.3133955188733086,27.53336687933936,0.8146085394221371,-2.302955916386607e-05,8.835749042898459e-05,6.516868315377096e-06,8.845272881485283e-05,8.844424362657696e-05
87.57735026920002,70.4226497308,8,0,-0.2614206867732127,27.74126620773974,0.8130741649488342,-2.302955916386607e-05,8.898118841418575e-05,6.504593319590674e-06,8.907554124492e-05,8.904460517124356e-05
86.4226497308,71.57735026920001,8,0,-0.3174871841355218,27.53234396302381,0.8925707875722679,-2.304183415965271e-05,8.835749042898459e-05,7.140566300578143e-06,8.847179862122407e-05,8.857088578734972e-05
87.57735026920002,71.57735026920001,8,0,-0.2655123520354437,27.74024329142412,0.8910364130989786,-2.304183415965271e-05,8.898118841418553e-05,7.128291304791829e-06,8.909447138859232e-05,8.919009624474544e-05
88.42264973080002,70.4226497308,8,0,-0.2382823445516804,27.89353446438559,0.721914957556912,-2.307733107407385e-05,8.944993616167522e-05,5.775319660455296e-06,8.952399017101459e-05,8.949283595320715e-05
89.57735026920001,70.4226497308,8,0,-0.1835369548076651,28.11251602336165,0.7186691613292686,-2.307733107407385e-05,9.01068808386034e-05,5.749353290634149e-06,9.017984544948977e-05,9.011706367843345e-05
88.42264973080002,71.57735026920001,8,0,-0.2469378011586034,27.89137060023386,0.8040330421730298,-2.310329744389461e-05,8.944993616167522e-05,6.432264337384239e-06,8.954176004065823e-05,8.965192060654905e-05
89.57735026920001,71.57735026920001,8,0,-0.1921924114146067,28.11035215920985,0.8007872459454271,-2.310329744389461e-05,9.010688083860318e-05,6.406297967563417e-06,9.019743773918925e-05,9.029443776982758e-05
90.42264973080002,70.4226497308,8,0,-0.1721640401771287,28.27015217815046,0.613130368592321,-2.316704667108718e-05,9.060221820222317e-05,4.905042948738568e-06,9.06550626067102e-05,9.05817272823104e-05
91.57735026920001,70.4226497308,8,0,-0.1141355262250956,28.50226623395859,0.6082746481956571,-2.316704667108718e-05,9.129856036964757e-05,4.866197185565257e-06,9.135025534200662e-05,9.122698413135797e-05
90.42264973080002,71.57735026920001,8,0,-0.1851126279014936,28.26691503121937,0.7001731395204787,-2.320589243426027e-05,9.060221820222317e-05,5.601385116163829e-06,9.067109848033641e-05,9.077213161179288e-05
91.57735026920001,71.57735026920001,8,0,-0.1270841139494605,28.4990290870275,0.6953174191239097,-2.320589243426027e-05,9.129856036964757e-05,5.562539352991277e-06,9.136607654382516e-05,9.143469829528186e-05
92.42264973080002,70.4226497308,8,0,-0.1166052591629585,28.66616420136586,0.4888378890699209,-2.330606819041415e-05,9.182500965170112e-05,3.910703112559367e-06,9.185820918020023e-05,9.170217880403023e-05
93.57735026920001,70.4226497308,8,0,-0.054776590928582,28.91347887430337,0.4825053301535761,-2.330606819041415e-05,9.256695367051363e-05,3.860042641228609e-06,9.25990918626038e-05,9.235517794426451e-05
92.42264973080002,71.57735026920001,8,0,-0.1334920829397879,28.66194249542166,0.5815808914214852,-2.335672866174464e-05,9.182500965170112e-05,4.652647131371881e-06,9.187197521800578e-05,9.192200084762176e-05
93.57735026920001,71.57735026920001,8,0,-0.07166341470542914,28.90925716835909,0.5752483325052217,-2.335672866174464e-05,9.256695367051342e-05,4.601986660041774e-06,9.261260858611827e-05,9.259076949583992e-05
94.4226497308,70.4226497308,8,0,-0.07318122461585475,29.08453666633619,0.3498399626196609,-2.350180925183968e-05,9.312906231196847e-05,2.798719700957287e-06,9.314584968694837e-05,9.28232019928686e-05
95.57735026920002,70.4226497308,8,0,-0.007034112192546793,29.34912511602942,0.3421997025488679,-2.350180925183968e-05,9.392282766104818e-05,2.737597620390943e-06,9.393878134599862e-05,9.344886833263911e-05
94.4226497308,71.57735026920001,8,0,-0.09355525147126631,29.07944315962234,0.4490606312546508,-2.356293133240592e-05,9.312906231196847e-05,3.592485050037206e-06,9.315670536587058e-05,9.30694779081022e-05
95.57735026920002,71.57735026920001,8,0,-0.02740813904795836,29.34403160931557,0.4414203711838849,-2.356293133240592e-05,9.392282766104818e-05,3.531362969471079e-06,9.394935791695122e-05,9.370856496425082e-05
96.4226497308,70.4226497308,8,0,-0.04346643267200889,29.52823863685889,0.1971817247309646,-2.376168349403754e-05,9.452513678408605e-05,1.577453797847717e-06,9.453039571710366e-05,9.386753071821818e-05
97.57735026920001,70.4226497308,8,0,0.02751471541060191,29.81216322918933,0.1884439617660916,-2.376168349403754e-05,9.537691056107737e-05,1.507551694128733e-06,9.538167942116085e-05,9.438567128711631e-05
96.4226497308,71.57735026920001,8,0,-0.06676713391172484,29.52241346154896,0.3036534468549485,-2.383158559775668e-05,9.452513678408605e-05,2.429227574839588e-06,9.453760021907894e-05,9.413572624871388e-05
97.57735026920001,71.57735026920001,8,0,0.00421401417088596,29.8063380538794,0.2949156838900078,-2.383158559775668e-05,9.537691056107737e-05,2.359325471120062e-06,9.538858311769815e-05,9.466366552479441e-05
98.42264973080002,70.4226497308,8,0,-0.02901973527982094,30.00021886836867,0.03217664517558079,-2.409303824759036e-05,9.602391616700357e-05,2.574131614046463e-07,9.602405407730091e-05,9.466216101141267e-05
99.57735026920002,70.4226497308,8,0,0.04730346565818166,30.30551167212068,0.0225980914342962,-2.409303824759036e-05,9.693979457825962e-05,1.807847314743696e-07,9.693986208700941e-05,9.489940441709505e-05
98.42264973080002,71.57735026920001,8,0,-0.05456254525645399,29.99383316587451,0.1466614465825866,-2.416966667752026e-05,9.602391616700357e-05,1.173291572660693e-06,9.602677942369528e-05,9.4945204820906e-05
99.57735026920002,71.57735026920001,8,0,0.02176065568152197,30.29912596962641,0.1370828928413427,-2.416966667752026e-05,9.69397945782593e-05,1.096663142730742e-06,9.694227713697882e-05,9.518644520616228e-05
0.4226497308,72.4226497308,8,0,-0.02749789183920348,6.393084605614413,-0.1277361933169953,-5.202460938376981e-06,2.047986905143748e-05,-1.021889546535962e-06,2.049003017439687e-05,2.227719039057582e-05
1.5773502692,72.4226497308,8,0,0.04407876456669757,6.679391231238017,-0.1366189432722452,-5.202460938376981e-06,2.133878892830829e-05,-1.092951546177961e-06,2.135003592222156e-05,2.255253061468057e-05
0.4226497308,73.57735026920001,8,0,-0.05118522505304068,6.387162772310953,-0.02037120870813014,-5.273522938018492e-06,2.047986905143748e-05,-1.629696696650411e-07,2.048012687036245e-05,2.254000930777088e-05
1.5773502692,73.57735026920001,8,0,0.02039143135286037,6.673469397934557,-0.02925395866325807,-5.273522938018492e-06,2.133878892830829e-05,-2.340316693060646e-07,2.133930344357861e-05,2.281118979121746e-05
2.4226497308,72.4226497308,8,0,-0.04684125112710147,6.860342213699408,-0.2819372056690891,-5.63816577456625e-06,2.199056808473978e-05,-2.255497645352713e-06,2.203652406164774e-05,2.2891538765883e-05
3.5773502692,72.4226497308,8,0,0.0299732400304098,7.167600178329453,-0.290029502289567,-5.63816577456625e-06,2.291234197862992e-05,-2.320236018316536e-06,2.295940450115184e-05,2.354238603508265e-05
2.4226497308,73.57735026920001,8,0,-0.06842070878152851,6.854947349285936,-0.1667154689329715,-5.70290414752964e-06,2.199056808474022e-05,-1.333723751463772e-06,2.200661689195962e-05,2.314489038173155e-05
3.5773502692,73.57735026920001,8,0,0.00839378237592836,7.162205313915764,-0.1748077655533138,-5.70290414752964e-06,2.29123419786297e-05,-1.39846212442651e-06,2.292941792786904e-05,2.378539686612397e-05
4.422649730800001,72.4226497308,8,0,-0.08067948637335776,7.357322772248216,-0.4250087473355892,-6.144032574193316e-06,2.360797646029297e-05,-3.400069978684713e-06,2.370480164761893e-05,2.409612693179938e-05
5.577350269200001,72.4226497308,8,0,0.0008817514259247261,7.683567723445345,-0.432047683775045,-6.144032574193316e-06,2.458671131388437e-05,-3.45638147020036e-06,2.468359335157607e-05,2.495812792672293e-05
4.422649730800001,73.57735026920001,8,0,-0.09944998354543855,7.352630147955196,-0.3026668906366652,-6.200344065709559e-06,2.360797646029297e-05,-2.421335125093321e-06,2.365706698406809e-05,2.433016189306188e-05
5.577350269200001,73.57735026920001,8,0,-0.01788874574617383,7.678875099152254,-0.3097058270761345,-6.200344065709559e-06,2.458671131388415e-05,-2.477646616609076e-06,2.463647918966335e-05,2.517798114051374e-05
6.422649730800001,72.4226497308,8,0,-0.1274771648688815,7.881205063282867,-0.5555568357786287,-6.712890978206713e-06,2.532183793440028e-05,-4.44445468622903e-06,2.547525758062379e-05,2.563525730085051e-05
7.577350269200001,72.4226497308,8,0,-0.04167146289048329,8.224427871196459,-0.5613277863433531,-6.712890978206713e-06,2.635150635814105e-05,-4.490622290746825e-06,2.650328248446708e-05,2.662320815941951e-05
6.422649730800001,73.57735026920001,8,0,-0.1428663663747227,7.877357762906406,-0.4268482828110589,-6.759058582724237e-06,2.532183793440028e-05,-3.414786262488471e-06,2.541245199796154e-05,2.584388372712964e-05
7.577350269200001,73.57735026920001,8,0,-0.05706066439633384,8.220580570819962,-0.4326192333757562,-6.759058582724237e-06,2.635150635814094e-05,-3.46095386700605e-06,2.644170159467725e-05,2.681534417928128e-05
8.4226497308,72.4226497308,8,0,-0.1856772128919779,8.429108684761641,-0.6724716860737138,-7.337454029063641e-06,2.712168956155083e-05,-5.37977348858971e-06,2.733039849992775e-05,2.737567838815502e-05
9.5773502692,72.4226497308,8,0,-0.09613461129195988,8.787279091161713,-0.676802491518595,-7.337454029063641e-06,2.819620078075105e-05,-5.414419932148759e-06,2.840127204671816e-05,2.844351442576181e-05
8.4226497308,73.57735026920001,8,0,-0.1972260274118778,8.426221481131666,-0.5381577836736191,-7.372100472623341e-06,2.712168956155083e-05,-4.305262269388953e-06,2.72555082390299e-05,2.755527357244865e-05
9.5773502692,73.57735026920001,8,0,-0.1076834258118597,8.784391887531738,-0.5424885891186764,-7.372100472623341e-06,2.819620078075105e-05,-4.339908712949411e-06,2.832809646517508e-05,2.860533781652978e-05
10.4226497308,72.4226497308,8,0,-0.2537176546594484,8.998126580227707,-0.7748993452060167,-8.0103977590924e-06,2.899697918045622e-05,-6.199194761648133e-06,2.925479360649679e-05,2.924477920796579e-05
11.5773502692,72.4226497308,8,0,-0.1609463167852936,9.369211931724326,-0.7776549575585345,-8.0103977590924e-06,3.011023523494607e-05,-6.221239660468276e-06,3.036239192741734e-05,3.036603926574894e-05
10.4226497308,73.57735026920001,8,0,-0.2610659542660905,8.996289505326047,-0.6357423383947713,-8.032442657912326e-06,2.899697918045622e-05,-5.08593870715817e-06,2.917079986635541e-05,2.939337874846559e-05
11.5773502692,73.57735026920001,8,0,-0.168294616391981,9.367374856822485,-0.6384979507472757,-8.032442657912326e-06,3.011023523494553e-05,-5.107983605978205e-06,3.02804877855657e-05,3.049628236896855e-05
12.4226497308,72.4226497308,8,0,-0.3300437305236792,9.585351059418125,-0.8622156414528072,-8.724420785210271e-06,3.093715837455694e-05,-6.897725131622457e-06,3.123482795973299e-05,3.120038958707816e-05
13.5773502692,72.4226497308,8,0,-0.23454873244216,9.967331051744202,-0.8632934242487605,-8.724420785210271e-06,3.208309835153517e-05,-6.906347393990085e-06,3.237324641573826e-05,3.235861699857475e-05
12.4226497308,73.57735026920001,8,0,-0.3329178179796632,9.584632537554128,-0.7189731443306099,-8.733043047578224e-06,3.093715837455694e-05,-5.751785154644879e-06,3.11445619564786e-05,3.13171548782635e-05
13.5773502692,73.57735026920001,8,0,-0.2374228198980899,9.966612529880422,-0.7200509271265633,-8.733043047578224e-06,3.208309835153582e-05,-5.760407417012506e-06,3.22853387384377e-05,3.245691665978622e-05
14.4226497308,72.4226497308,8,0,-0.4131165316993268,10.1878945450081,-0.934003183645623,-9.472288537444324e-06,3.293175576938537e-05,-7.472025469164984e-06,3.325840135335865e-05,3.321592490593284e-05
15.5773502692,72.4226497308,8,0,-0.3153969311236211,10.57877294731092,-0.9333289785141616,-9.472288537444324e-06,3.410439097629385e-05,-7.466631828113293e-06,3.442191915250784e-05,3.439990625516865e-05
14.4226497308,73.57735026920001,8,0,-0.4113186513486546,10.18834401509577,-0.7874237827821184,-9.466894896392308e-06,3.293175576938537e-05,-6.299390262256947e-06,3.316446193117097e-05,3.330078629922289e-05
15.5773502692,73.57735026920001,8,0,-0.3135990507729396,10.57922241739863,-0.7867495776505622,-9.466894896392308e-06,3.410439097629395e-05,-6.293996621204497e-06,3.433051390543219e-05,3.446651924770399e-05
16.4226497308,72.4226497308,8,0,-0.5014192748811359,10.80290632796936,-0.9900317792035658,-1.024686674199512e-05,3.497043566940685e-05,-7.920254233628526e-06,3.531464302472986e-05,3.527300626281765e-05
17.5773502692,72.4226497308,8,0,-0.4019657001809076,11.20072062677027,-0.9875567715659134,-1.024686674199512e-05,3.616387856580959e-05,-7.900454172527307e-06,3.649769905949687e-05,3.64743784946691e-05
16.4226497308,73.57735026920001,8,0,-0.4948192545141352,10.80455633306111,-0.8408514171533589,-1.022706668089412e-05,3.497043566940685e-05,-6.726811337226871e-06,3.521935510567815e-05,3.532642293208303e-05
17.5773502692,73.57735026920001,8,0,-0.3953656798138887,11.2023706318621,-0.8383764095156658,-1.022706668089412e-05,3.616387856580981e-05,-6.707011276125326e-06,3.640504286598398e-05,3.650999053904101e-05
18.4226497308,72.4226497308,8,0,-0.593462251546768,11.42758656847802,-1.030242311435411,-1.104114845973208e-05,3.704304682036709e-05,-8.241938491483289e-06,3.739367035812024e-05,3.735774394459157e-05
19.5773502692,72.4226497308,8,0,-0.49275479791726,11.83041638299606,-1.025940660900733,-1.104114845973208e-05,3.825153626392118e-05,-8.207525287205861e-06,3.85908509807347e-05,3.856977100368185e-05
18.4226497308,73.57735026920001,8,0,-0.5819911834543645,11.43045433550112,-0.8791811309910277,-1.100673525545486e-05,3.704304682036709e-05,-7.033449047928221e-06,3.729906887815632e-05,3.738054324592326e-05
19.5773502692,73.57735026920001,8,0,-0.4812837298248387,11.83328415001923,-0.874879480456444,-1.100673525545486e-05,3.82515362639214e-05,-6.999035843651552e-06,3.849891460798841e-05,3.857536986493535e-05
20.4226497308,72.4226497308,8,0,-0.6877873409309614,12.05919865786419,-1.054733841473733,-1.184827841727043e-05,3.913966557791016e-05,-8.437870731789867e-06,3.948639836628724e-05,3.945883267123099e-05
21.5773502692,72.4226497308,8,0,-0.5862935937594673,12.46517364655016,-1.048600989104329,-1.184827841727043e-05,4.035759054396809e-05,-8.38880791283463e-06,4.069243609589148e-05,4.067576725905014e-05
20.4226497308,73.57735026920001,8,0,-0.6714330679459186,12.06328722611045,-0.9024932207166007,-1.17992155983153e-05,3.913966557791016e-05,-7.219945765732805e-06,3.939422755717475e-05,3.945210404669377e-05
21.5773502692,73.57735026920001,8,0,-0.5699393207744516,12.46926221479631,-0.8963603683471012,-1.17992155983153e-05,4.035759054396776e-05,-7.17088294677681e-06,4.060291246189299e-05,4.065255975707986e-05
22.4226497308,72.4226497308,8,0,-0.7829727912530853,12.69508087932783,-1.063753488154506,-1.266157763547213e-05,4.125063704685152e-05,-8.510027905236049e-06,4.158439717926334e-05,4.156655532932731e-05
23.5773502692,72.4226497308,8,0,-0.6811458367991694,13.10238869714349,-1.055805014601132,-1.266157763547213e-05,4.247256050029851e-05,-8.446440116809052e-06,4.279417882811667e-05,4.278329900838514e-05
22.4226497308,73.57735026920001,8,0,-0.7617768617778351,12.70037986169664,-0.9110130564736322,-1.259798984704638e-05,4.125063704685152e-05,-7.288104451789058e-06,4.149611879998833e-05,4.153158151205679e-05
23.5773502692,73.57735026920001,8,0,-0.6599499073239463,13.1076876795122,-0.9030645829204609,-1.259798984704638e-05,4.247256050029819e-05,-7.224516663363687e-06,4.270848964233137e-05,4.273265789732814e-05
24.4226497308,72.4226497308,8,0,-0.8776387691811616,13.33265809137446,-1.05768849434304,-1.347457053447928e-05,4.336661690774318e-05,-8.461507954744319e-06,4.367979124231023e-05,4.367225143019763e-05
25.5773502692,72.4226497308,8,0,-0.7759150961288248,13.7395527835838,-1.047959380097546,-1.347457053447928e-05,4.458730098437123e-05,-8.383675040780371e-06,4.488837389917807e-05,4.488417093314621e-05
24.4226497308,73.57735026920001,8,0,-0.8516944645265303,13.33914416753811,-0.9051029847644259,-1.339673762051539e-05,4.336661690774318e-05,-7.240823878115407e-06,4.359659787821583e-05,4.361046488693525e-05
25.5773502692,73.57735026920001,8,0,-0.7499707914741212,13.74603885974775,-0.8953738705189596,-1.339673762051539e-05,4.458730098437209e-05,-7.162990964151676e-06,4.480768132867768e-05,4.480760179661156e-05
26.4226497308,72.4226497308,8,0,-0.970453969673001,13.96945392776725,-1.037059809800271,-1.42810158451674e-05,4.547861574459361e-05,-8.296478478402166e-06,4.576519318327084e-05,4.576802993746847e-05
27.57735026920001,72.4226497308,8,0,-0.8692512085114528,14.37426497241345,-1.025603940619219,-1.42810158451674e-05,4.669304887853218e-05,-8.204831524953756e-06,4.696782656291821e-05,4.697085814115817e-05
26.4226497308,73.57735026920001,8,0,-0.9399049851902697,13.97709117388793,-0.8852556680578536,-1.418936889171921e-05,4.547861574459361e-05,-7.082045344462828e-06,4.568802435251533e-05,4.568098607072476e-05
27.57735026920001,73.57735026920001,8,0,-0.8387022240287214,14.38190221853413,-0.8737997988769514,-1.418936889171921e-05,4.669304887853218e-05,-6.990398391015611e-06,4.689304779930302e-05,4.686997937255884e-05
28.4226497308,72.4226497308,8,0,-1.060143381822395,14.60310377906194,-1.002516503550909,-1.507494184508121e-05,4.757804679845611e-05,-8.020132028407271e-06,4.783366570443197e-05,4.784661525155035e-05
29.5773502692,72.4226497308,8,0,-0.9598578694901283,15.004245828391,-0.9894062687777072,-1.507494184508121e-05,4.878147294644331e-05,-7.915250150221658e-06,4.902581943970195e-05,4.903639996864348e-05
28.4226497308,73.57735026920001,8,0,-1.025182755760741,14.61184393557735,-0.8520882350525361,-1.497005996689625e-05,4.757804679845611e-05,-6.816705880420288e-06,4.776322552254818e-05,4.773597639565957e-05
29.5773502692,73.57735026920001,8,0,-0.9248972434284743,15.01298598490642,-0.8389780002793614,-1.497005996689625e-05,4.878147294644331e-05,-6.711824002234891e-06,4.895764297665991e-05,4.891293096024067e-05
30.4226497308,72.4226497308,8,0,-1.145497132786375,15.23136860839483,-0.954830354617589,-1.585068571163226e-05,4.965677725309254e-05,-7.638642836940712e-06,4.987870561426146e-05,4.990126882863508e-05
31.5773502692,72.4226497308,8,0,-1.046501325289503,15.62735183838231,-0.9401562013456688,-1.585068571163226e-05,5.084472694305499e-05,-7.52124961076535e-06,5.105610010579294e-05,5.107434977902361e-05
30.4226497308,73.57735026920001,8,0,-1.106366057394713,15.24115137724274,-0.8063366433722552,-1.573329248545727e-05,4.965677725309254e-05,-6.450693146978041e-06,4.981548137380504e-05,4.976879484485453e-05
31.5773502692,73.57735026920001,8,0,-1.007370249897842,15.63713460723023,-0.791662490100362,-1.573329248545727e-05,5.084472694305499e-05,-6.333299920802896e-06,5.099500310226735e-05,5.093010389750114e-05
32.4226497308,72.4226497308,8,0,-1.225380189544513,15.85214946993761,-0.8948900483826336,-1.660293618249253e-05,5.170718245543597e-05,-7.159120387061069e-06,5.189424491514281e-05,5.192575558955449e-05
33.57735026920001,72.4226497308,8,0,-1.128019973775316,16.2415903330144,-0.8787598775457476,-1.660293618249253e-05,5.287550504466632e-05,-7.03007902036598e-06,5.305288437433866e-05,5.307875857149462e-05
32.4226497308,73.57735026920001,8,0,-1.182366400646331,15.86290291716216,-0.7488497247287988,-1.647389481579799e-05,5.170718245543597e-05,-5.990797797830391e-06,5.183852627870948e-05,5.177329812363397e-05
33.57735026920001,73.57735026920001,8,0,-1.085006184877162,16.25234378023884,-0.7327195538919806,-1.647389481579799e-05,5.2875505044666e-05,-5.861756431135845e-06,5.29991507987639e-05,5.291563853752894e-05
34.42264973080001,72.4226497308,8,0,-1.298742592171258,16.46350245029274,-0.8236945151421219,-1.732677825518221e-05,5.372220191467375e-05,-6.589556121136975e-06,5.387466459007201e-05,5.391433772936924e-05
35.5773502692,72.4226497308,8,0,-1.203334568976477,16.84513454307186,-0.8062328339053731,-1.732677825518221e-05,5.486709819301112e-05,-6.449862671242985e-06,5.501087093426011e-05,5.504417946058525e-05
34.42264973080001,73.57735026920001,8,0,-1.252178108873298,16.47514357111723,-0.6805824803499507,-1.718708480528833e-05,5.372220191467375e-05,-5.444659842799605e-06,5.382656326495417e-05,5.374383609924623e-05
35.5773502692,73.57735026920001,8,0,-1.156770085678481,16.85677566389649,-0.6631207991132562,-1.718708480528833e-05,5.486709819301156e-05,-5.304966392906049e-06,5.49646103456055e-05,5.486417350276375e-05
36.4226497308,72.4226497308,8,0,-1.364629824249675,17.06365364578118,-0.7423450757741625,-1.80177383542239e-05,5.56953955258995e-05,-5.9387606061933e-06,5.581481736222709e-05,5.586178548391742e-05
37.5773502692,72.4226497308,8,0,-1.271458647667778,17.43633835210877,-0.7236918513799507,-1.80177383542239e-05,5.681344964488227e-05,-5.789534811039606e-06,5.692526366495469e-05,5.696568494911423e-05
36.4226497308,73.57735026920001,8,0,-1.314887892531543,17.07608912871071,-0.6025883109013973,-1.78685125590695e-05,5.56953955258995e-05,-4.820706487211179e-06,5.577428718644251e-05,5.567526282385675e-05
37.5773502692,73.57735026920001,8,0,-1.221716715949609,17.44877383503844,-0.5839350865071042,-1.78685125590695e-05,5.68134496448827e-05,-4.671480692056834e-06,5.688643054403929e-05,5.677086265513606e-05
38.4226497308,72.4226497308,8,0,-1.422192895163583,17.65101372327965,-0.6520361956346581,-1.867182824314719e-05,5.762099823062574e-05,-5.216289565077264e-06,5.771005624813851e-05,5.776339812684567e-05
39.5773502692,72.4226497308,8,0,-1.331508757918367,18.01375027226052,-0.6323453867148373,-1.867182824314719e-05,5.870920787756835e-05,-5.058763093718699e-06,5.87917985239994e-05,5.883889159317102e-05
38.4226497308,73.57735026920001,8,0,-1.369684071377504,17.66414092922631,-0.5160099897668193,-1.851430177178905e-05,5.762099823062618e-05,-4.128079918134554e-06,5.767691361314243e-05,5.756295690023988e-05
39.5773502692,73.57735026920001,8,0,-1.278999934132323,18.02687747820703,-0.4963191808470121,-1.851430177178905e-05,5.870920787756835e-05,-3.970553446776097e-06,5.876021206346111e-05,5.863139879105916e-05
40.4226497308,72.4226497308,8,0,-1.470697712066433,18.22419158753413,-0.5540447818553836,-1.928558594863989e-05,5.949397124976235e-05,-4.432358254843069e-06,5.955626620847325e-05,5.961503057332715e-05
41.5773502692,72.4226497308,8,0,-1.382714065574495,18.57612617350188,-0.5334825521293617,-1.928558594863989e-05,6.054977500766559e-05,-4.267860417034894e-06,6.060677242553497e-05,6.065998823461318e-05
40.4226497308,73.57735026920001,8,0,-1.415865099463437,18.23789974068488,-0.4220693121175455,-1.91210881108309e-05,5.949397124976235e-05,-3.376554496940364e-06,5.953021070302869e-05,5.94028469276809e-05
41.5773502692,73.57735026920001,8,0,-1.327881452971499,18.58983432665263,-0.4015070823914558,-1.91210881108309e-05,6.054977500766559e-05,-3.212056659131646e-06,6.058213664677383e-05,6.044204054160619e-05
42.4226497308,72.4226497308,8,0,-1.509533351649934,18.78200668990841,-0.4497180828506365,-1.985611207720652e-05,6.131004808902687e-05,-3.597744662805092e-06,6.134989663860908e-05,6.141312225224448e-05
43.57735026920001,72.4226497308,8,0,-1.424424940975552,19.12244033260594,-0.428460727476532,-1.985611207720652e-05,6.233134901711946e-05,-3.427685819812256e-06,6.236707200149116e-05,6.242576499212313e-05
42.4226497308,73.57735026920001,8,0,-1.452847070652575,18.79617826015776,-0.3220554668389953,-1.968605323421444e-05,6.131004808902687e-05,-2.576443734711963e-06,6.133053174160281e-05,6.119143895833153e-05
43.57735026920001,73.57735026920001,8,0,-1.367738659978192,19.13661190285529,-0.3007981114649992,-1.968605323421444e-05,6.233134901711946e-05,-2.406384891719994e-06,6.234899601160637e-05,6.21996398940986e-05
44.4226497308,72.4226497308,8,0,-1.538218897578126,19.32349955696635,-0.3404603556102812,-2.038110011782308e-05,6.306577370035482e-05,-2.723682844882249e-06,6.308799284751444e-05,6.315472577309094e-05
45.5773502692,72.4226497308,8,0,-1.456120179167637,19.65189443060831,-0.3186919911367478,-2.038110011782308e-05,6.405095832128069e-05,-2.549535929093983e-06,6.407020057510155e-05,6.413364092362616e-05
44.4226497308,73.57735026920001,8,0,-1.480169925648668,19.33801179994872,-0.217312277994697,-2.020695320203471e-05,6.306577370035482e-05,-1.738498223957576e-06,6.30748464391997e-05,6.29258436870167e-05
45.5773502692,73.57735026920001,8,0,-1.398071207238225,19.66640667359049,-0.1955439135211366,-2.020695320203471e-05,6.405095832128014e-05,-1.564351308169093e-06,6.405821872008889e-05,6.390166841023551e-05
46.42264973080001,72.4226497308,8,0,-1.556408582449464,19.84794018567693,-0.2277185518454621,-2.085885961237982e-05,6.475853546012572e-05,-1.821748414763697e-06,6.476822505571209e-05,6.483753355426189e-05
47.57735026920001,72.4226497308,8,0,-1.477412576386511,20.16392420992874,-0.2056286359975888,-2.085885961237982e-05,6.570648753288116e-05,-1.64502908798071e-06,6.571430208142991e-05,6.578168883377854e-05
46.42264973080001,73.57735026920001,8,0,-1.497502140188343,19.86266679624221,-0.1092245427510193,-2.068214028559646e-05,6.475853546012572e-05,-8.73796342008154e-07,6.476076946657963e-05,6.460380168057076e-05
47.57735026920001,73.57735026920001,8,0,-1.418506134125416,20.17865082049391,-0.08713462690317303,-2.068214028559646e-05,6.570648753288083e-05,-6.970770152253843e-07,6.570789370307987e-05,6.554624072567392e-05
48.4226497308,72.4226497308,8,0,-1.563895057122095,20.35483403854465,-0.1129673355445941,-2.128833141362642e-05,6.638658496904053e-05,-9.03738684356753e-07,6.638891380478227e-05,6.645990109343126e-05
49.57735026920001,72.4226497308,8,0,-1.488052667371369,20.65820359754755,-0.09074809270058709,-2.128833141362642e-05,6.729669364604924e-05,-7.259847416046968e-07,6.729818104472433e-05,6.736865616568073e-05
48.4226497308,73.57735026920001,8,0,-1.504643742871157,20.36964686710738,0.000796249081534868,-2.11105774708736e-05,6.638658496904053e-05,6.369992652278944e-09,6.638658508497802e-05,6.622370541960959e-05
49.57735026920001,73.57735026920001,8,0,-1.428801353120449,20.67301642611021,0.02301549192559611,-2.11105774708736e-05,6.729669364604902e-05,1.841239354047688e-07,6.729678951369203e-05,6.713213433875146e-05
50.42264973080001,72.4226497308,8,0,-1.560610699277793,20.8439254696927,0.002306218977737189,-2.16690946134431e-05,6.794905006243888e-05,1.844975182189752e-08,6.794905101200478e-05,6.802086599590838e-05
51.57735026920001,72.4226497308,8,0,-1.487930516170413,21.13464620212222,0.0244623867964389,-2.16690946134431e-05,6.882121225972742e-05,1.956990943715112e-07,6.882131806689087e-05,6.88939813171125e-05
50.42264973080001,73.57735026920001,8,0,-1.501527585094498,20.85869624823853,0.1113264936387784,-2.149184527089321e-05,6.794905006243888e-05,8.906119491102274e-07,6.795126708514472e-05,6.778461732109905e-05
51.57735026920001,73.57735026920001,8,0,-1.428847401987118,21.14941698066804,0.1334826614574937,-2.149184527089321e-05,6.882121225972742e-05,1.067861291659949e-06,6.882436874649625e-05,6.865880506088065e-05
52.4226497308,72.4226497308,8,0,-1.546626961886363,21.3151985152717,0.11661788762313,-2.200136509025372e-05,6.944593681837852e-05,9.329431009850401e-07,6.944831622204944e-05,6.952016225527154e-05
53.5773502692,72.4226497308,8,0,-1.477075542073401,21.59340419452355,0.1385209258003979,-2.200136509025372e-05,7.028055385613406e-05,1.108167406403183e-06,7.028388059322925e-05,7.035780507192181e-05
52.4226497308,73.57735026920001,8,0,-1.488218860080532,21.32980054072316,0.2209450173425859,-2.182614078483623e-05,6.944593681837852e-05,1.767560138740687e-06,6.945449358637643e-05,6.928628325443735e-05
53.5773502692,73.57735026920001,8,0,-1.418667440267543,21.60800621997511,0.2428480555198673,-2.182614078483623e-05,7.028055385613439e-05,1.942784444158938e-06,7.029079738862501e-05,7.012639782016711e-05
54.42264973080001,72.4226497308,8,0,-1.522151846013378,21.76887508255401,0.2285011661075544,-2.228598597328602e-05,7.087812174098353e-05,1.828009328860435e-06,7.088708789925092e-05,7.095822961086954e-05
55.57735026920001,72.4226497308,8,0,-1.455654447288965,22.03486467745166,0.2499657562966742,-2.228598597328602e-05,7.167609052567648e-05,1.999726050373393e-06,7.168672899738018e-05,7.176097714080529e-05
54.42264973080001,73.57735026920001,8,0,-1.464912938842283,21.78318480934679,0.3282472641942145,-2.211426925177273e-05,7.087812174098353e-05,2.625978113553716e-06,7.089665655555776e-05,7.072914136458575e-05
55.57735026920001,73.57735026920001,8,0,-1.39841554011787,22.04917440424444,0.3497118543833478,-2.211426925177273e-05,7.167609052567648e-05,2.797694835066783e-06,7.16969491621021e-05,7.153575278621186e-05
56.4226497308,72.4226497308,8,0,-1.48752565727199,22.20541066632239,0.3365214313901768,-2.252441063632828e-05,7.224733465804921e-05,2.692171451121415e-06,7.226644986357643e-05,7.233621809034957e-05
57.57735026920001,72.4226497308,8,0,-1.423967389893478,22.45964373583644,0.357369182371736,-2.252441063632828e-05,7.301003386659137e-05,2.858953458973888e-06,7.303141826295613e-05,7.310505806122969e-05
56.4226497308,73.57735026920001,8,0,-1.43193165465459,22.21930916697674,0.43185883245796,-2.235762862847607e-05,7.224733465804921e-05,3.45487065966368e-06,7.227886618111287e-05,7.211432627373329e-05
57.57735026920001,73.57735026920001,8,0,-1.368373387276058,22.47354223649086,0.4527065834394515,-2.235762862847607e-05,7.301003386659159e-05,3.621652667515612e-06,7.304440516750163e-05,7.288840701599523e-05
58.4226497308,72.4226497308,8,0,-1.443215267874532,22.62548780416805,0.4392891279402314,-2.271867910053294e-05,7.355613318763736e-05,3.514313023521851e-06,7.35881931947089e-05,7.365598807912732e-05
59.57735026920001,72.4226497308,8,0,-1.382442610991381,22.86857843170065,0.459350520459436,-2.271867910053294e-05,7.428540507023516e-05,3.674804163675488e-06,7.432019572930105e-05,7.439231690862227e-05
58.4226497308,73.57735026920001,8,0,-1.389718221156779,22.63886206584748,0.5304481132649701,-2.255818796037968e-05,7.355613318763736e-05,4.243584906119761e-06,7.360295047045374e-05,7.344366894464117e-05
59.57735026920001,73.57735026920001,8,0,-1.328945564273629,22.88195269338009,0.5505095057841748,-2.255818796037968e-05,7.428540507023516e-05,4.404076046273398e-06,7.433544934135938e-05,7.41865920030131e-05
60.4226497308,72.4226497308,8,0,-1.389807154216012,23.03000755033735,0.5354717765001978,-2.287138893376111e-05,7.480786988445232e-05,4.283774212001583e-06,7.485481410444885e-05,7.49201064362185e-05
61.5773502692,72.4226497308,8,0,-1.331629776293412,23.26271706202775,0.554587830421026,-2.287138893376111e-05,7.550599841952351e-05,4.436702643368208e-06,7.555599550737013e-05,7.562572541188056e-05
60.4226497308,73.57735026920001,8,0,-1.3388310104271,23.04275158628457,0.622737843384083,-2.271846050239438e-05,7.480786988445232e-05,4.981902747072664e-06,7.487145062424078e-05,7.471969264771558e-05
61.5773502692,73.57735026920001,8,0,-1.280653632504473,23.27546109797508,0.6418538973049248,-2.271846050239438e-05,7.550599841952383e-05,5.134831178439398e-06,7.557306038731212e-05,7.543322763628045e-05
62.42264973080001,72.4226497308,8,0,-1.327999511442078,23.4200792980271,0.623804678193338,-2.298566187503633e-05,7.600665336284038e-05,4.990437425546703e-06,7.606950840016228e-05,7.613183928718515e-05
63.57735026920001,72.4226497308,8,0,-1.272192327509574,23.64330803375712,0.6418283282814367,-2.298566187503633e-05,7.667633957003043e-05,5.134626626251493e-06,7.67424302522761e-05,7.680894913332963e-05
62.42264973080001,73.57735026920001,8,0,-1.279936444540337,23.43209506475254,0.7075154540920259,-2.284147267433111e-05,7.600665336284038e-05,5.660123632736207e-06,7.608761286873796e-05,7.594560557036747e-05
63.57735026920001,73.57735026920001,8,0,-1.224129260607833,23.65532380048256,0.7255391041802195,-2.284147267433111e-05,7.667633957003043e-05,5.804312833441756e-06,7.67609009269799e-05,7.663191313046503e-05
64.4226497308,72.4226497308,8,0,-1.258593760570282,23.79700931054005,0.7031002684184425,-2.306510748225694e-05,7.715730480218437e-05,5.62480214734754e-06,7.723616322285638e-05,7.729514215527552e-05
65.57735026920001,72.4226497308,8,0,-1.204899156921619,24.0117877251347,0.7198974537281312,-2.306510748225694e-05,7.780164004596833e-05,5.759179629825049e-06,7.788378099498944e-05,7.794633634742912e-05
64.4226497308,73.57735026920001,8,0,-1.213801266410949,23.80820743407988,0.7836421738914513,-2.293072999977894e-05,7.715730480218437e-05,6.269137391131611e-06,7.725537749063731e-05,7.712529062700986e-05
65.57735026920001,73.57735026920001,8,0,-1.160106662762313,24.02298584867443,0.800439359201167,-2.293072999977894e-05,7.7801640045968e-05,6.403514873609337e-06,7.79033046349262e-05,7.778691545484124e-05
66.4226497308,72.4226497308,8,0,-1.182485760188059,24.16228833158238,0.7722561587789338,-2.311378509786769e-05,7.826531126921407e-05,6.178049270231471e-06,7.835934673480004e-05,7.841464801757272e-05
67.57735026920001,72.4226497308,8,0,-1.130615918839208,24.36976769697779,0.787706649045124,-2.311378509786769e-05,7.888774936540028e-05,6.301653192360992e-06,7.898498568042659e-05,7.904290510208324e-05
66.4226497308,73.57735026920001,8,0,-1.141284452811751,24.17258865842646,0.8500609208021421,-2.299018117573877e-05,7.826531126921407e-05,6.800487366417137e-06,7.837936580974442e-05,7.826329294822258e-05
67.57735026920001,73.57735026920001,8,0,-1.089414611462908,24.38006802382183,0.8655114110682917,-2.299018117573877e-05,7.888774936540017e-05,6.924091288546333e-06,7.900526206657601e-05,7.890315563594672e-05
68.42264973080002,72.4226497308,8,0,-1.100657014135036,24.51757863410528,0.8302619871709073,-2.313616535251634e-05,7.933677724044491e-05,6.642095897367258e-06,7.944429634588512e-05,7.94956536533149e-05
69.57735026920001,72.4226497308,8,0,-1.05029627475967,24.71902159160674,0.8442599869111305,-2.313616535251634e-05,7.99411061129493e-05,6.754079895289044e-06,8.005162692704996e-05,8.010432861387505e-05
68.42264973080002,73.57735026920001,8,0,-1.063329014827756,24.5269106339321,0.9058030962339836,-2.30241813545945e-05,7.933677724044491e-05,7.246424769871869e-06,7.946486573730236e-05,7.936480530806847e-05
69.57735026920001,73.57735026920001,8,0,-1.012968275452391,24.72835359143356,0.9198010959741661,-2.30241813545945e-05,7.99411061129493e-05,7.358408767793329e-06,8.007240575417024e-05,7.99861929799321e-05
70.4226497308,72.4226497308,8,0,-1.014166130134399,24.86470083633869,0.8762052722296304,-2.313709228550102e-05,8.037837558039131e-05,7.009642177837044e-06,8.049690589940315e-05,8.054410421028151e-05
71.57735026920001,72.4226497308,8,0,-0.9649733360346815,25.06147201273756,0.8886598586551524,-2.313709228550102e-05,8.096868910958792e-05,7.109278869241219e-06,8.108991931005832e-05,8.113691852308382e-05
70.4226497308,73.57735026920001,8,0,-0.980953899666539,24.87300389395565,0.9499944633791922,-2.303745559409744e-05,8.037837558039131e-05,7.599955707033538e-06,8.051781639696764e-05,8.043565131351337e-05
71.57735026920001,73.57735026920001,8,0,-0.9317611055668396,25.06977507035445,0.9624490498046329,-2.303745559409744e-05,8.09686891095877e-05,7.699592398437063e-06,8.111099493075764e-05,8.104220664493123e-05
72.4226497308,72.4226497308,8,0,-0.9241407339589935,25.20562076473291,0.9092765351405449,-2.31217469604551e-05,8.139729903431248e-05,7.274212281124359e-06,8.152371198343823e-05,8.156657510230497e-05
73.57735026920001,72.4226497308,8,0,-0.8757515204732291,25.39917761867596,0.9201119987780476,-2.31217469604551e-05,8.197796959614166e-05,7.360895990224381e-06,8.210669617463276e-05,8.214760439379095e-05
72.4226497308,73.57735026920001,8,0,-0.8952461642590039,25.2128444071579,0.9818603553691921,-2.303506325135513e-05,8.139729903431248e-05,7.854882842953537e-06,8.15447920297624e-05,8.148226537923587e-05
73.57735026920001,73.57735026920001,8,0,-0.8468569507732395,25.40640126110096,0.992695819006695,-2.303506325135513e-05,8.197796959614166e-05,7.94156655205356e-06,8.212789994562829e-05,8.207797286830383e-05
74.4226497308,72.4226497308,8,0,-0.831769981765361,25.54243657870197,0.9287740064598926,-2.309561320461073e-05,8.240121303725858e-05,7.430192051679141e-06,8.253187919403073e-05,8.257024886294503e-05
75.57735026920001,72.4226497308,8,0,-0.7837989798218521,25.73432058647601,0.9379301730713067,-2.309561320461073e-05,8.297686506058069e-05,7.503441384570453e-06,8.310939560984613e-05,8.314390573477504e-05
74.4226497308,73.57735026920001,8,0,-0.8073535374682379,25.54854068977625,1.000730509375075,-2.302236387171936e-05,8.240121303725858e-05,8.005844075000598e-06,8.255298506547928e-05,8.251166703953191e-05
75.57735026920001,73.57735026920001,8,0,-0.7593825355247565,25.74042469755017,1.009886675986543,-2.302236387171936e-05,8.297686506058036e-05,8.079093407892344e-06,8.313058606017418e-05,8.310083406125591e-05
76.42264973080002,72.4226497308,8,0,-0.7382977423432058,25.87736629425756,0.9341082757628012,-2.30644458109043e-05,8.339821033549874e-05,7.472866206102409e-06,8.352918375661425e-05,8.356288179387164e-05
77.57735026920001,72.4226497308,8,0,-0.6903406860653734,26.06919451936889,0.9415408943225533,-2.30644458109043e-05,8.397369501083273e-05,7.532327154580426e-06,8.410604476508575e-05,8.413388880269723e-05
76.42264973080002,73.57735026920001,8,0,-0.7184774261838669,25.88232137329739,1.00604386017955,-2.300498486242628e-05,8.339821033549874e-05,8.048350881436402e-06,8.355018782817945e-05,8.353142437855099e-05
77.57735026920001,73.57735026920001,8,0,-0.67052036990607,26.07414959840858,1.013476478739289,-2.300498486242628e-05,8.39736950108323e-05,8.10781182991431e-06,8.41270958694272e-05,8.411865198097436e-05
78.4226497308,72.4226497308,8,0,-0.6450164439982897,26.21273575594904,0.9248072660607,-2.303424122555376e-05,8.439676757423555e-05,7.3984581284856e-06,8.452399442568847e-05,8.455274987478932e-05
79.57735026920001,72.4226497308,8,0,-0.5966521887298937,26.40619277702262,0.930488549979124,-2.303424122555376e-05,8.49771386374563e-05,7.443908399832992e-06,8.510524118388635e-05,8.512609259628072e-05
78.4226497308,73.57735026920001,8,0,-0.6298663535492679,26.21652327856129,0.9973536489632809,-2.298879095420669e-05,8.439676757423555e-05,7.978829191706248e-06,8.454477186610674e-05,8.454959599317184e-05
79.57735026920001,73.57735026920001,8,0,-0.581502098280863,26.40998029963491,1.003034932881691,-2.298879095420669e-05,8.497713863745641e-05,8.024279463053532e-06,8.51260290968559e-05,8.513972932733962e-05
80.4226497308,72.4226497308,8,0,-0.5532615003071193,26.55096701227976,0.9005219219715243,-2.301121041080659e-05,8.540570363954093e-05,7.204175375772194e-06,8.552524905106027e-05,8.55485527835752e-05
81.57735026920001,72.4226497308,8,0,-0.5040539755679685,26.74779711123637,0.9044413293137686,-2.301121041080659e-05,8.599619393641073e-05,7.235530634510149e-06,8.611612928832913e-05,8.612939275799635e-05
80.4226497308,73.57735026920001,8,0,-0.5428097473943589,26.55357995050795,0.9743332090802765,-2.297985515206831e-05,8.540570363954093e-05,7.794665672642212e-06,8.554566337843679e-05,8.557463025509702e-05
81.57735026920001,73.57735026920001,8,0,-0.4936022226552081,26.75041004946456,0.9782526164226293,-2.297985515206831e-05,8.599619393641073e-05,7.826020931381034e-06,8.613651798187555e-05,8.617266835187176e-05
82.4226497308,72.4226497308,8,0,-0.4644061475839942,26.89456695215149,0.8610329901304883,-2.300175323398997e-05,8.643413916495195e-05,6.888263921043906e-06,8.654242465478905e-05,8.655923350589189e-05
83.57735026920001,72.4226497308,8,0,-0.413906287710069,27.09656639164719,0.8631983232483488,-2.300175323398997e-05,8.704013748343906e-05,6.90558658598679e-06,8.714836960535442e-05,8.715274029393467e-05
82.4226497308,73.57735026920001,8,0,-0.4586319259363307,26.8960105075634,0.9367827799413361,-2.298443056904698e-05,8.643413916495195e-05,7.494262239530688e-06,8.656231268441684e-05,8.66151791576997e-05
83.57735026920001,73.57735026920001,8,0,-0.4081320660624055,27.0980099470591,0.9389481130592237,-2.298443056904698e-05,8.704013748343906e-05,7.511584904473789e-06,8.71681959545755e-05,8.722610306539653e-05
84.42264973080002,72.4226497308,8,0,-0.3798564468691037,27.24611596196897,0.8062592421367962,-2.30124333995563e-05,8.749145623579598e-05,6.45007393709437e-06,8.758549835108568e-05,8.759362751075186e-05
85.57735026920001,72.4226497308,8,0,-0.3276041599181561,27.45512510977276,0.8066981379277498,-2.30124333995563e-05,8.811848367920735e-05,6.453585103421999e-06,8.821209783119847e-05,8.820464699951244e-05
84.42264973080002,73.57735026920001,8,0,-0.378686058093245,27.24640855916293,0.8846376725632856,-2.300892223322873e-05,8.749145623579598e-05,7.077101380506285e-06,8.760465518731244e-05,8.767974023969673e-05
85.57735026920001,73.57735026920001,8,0,-0.326433771142324,27.45541770696662,0.8850765683541986,-2.300892223322873e-05,8.811848367920702e-05,7.080612546833589e-06,8.823115681479679e-05,8.830817614044267e-05
86.4226497308,72.4226497308,8,0,-0.3010461265857556,27.60825626765993,0.7362674445576307,-2.304995261920236e-05,8.858725695778035e-05,5.890139556461046e-06,8.86648960192333e-05,8.865976631029436e-05
87.57735026920002,72.4226497308,8,0,-0.2465723790077314,27.82615125797202,0.7350293135349019,-2.304995261920236e-05,8.924094192871664e-05,5.880234508279215e-06,8.931787044110271e-05,8.929215590214857e-05
86.4226497308,73.57735026920001,8,0,-0.3043478093132315,27.60743084697805,0.8179780659245991,-2.305985766738478e-05,8.858725695778035e-05,6.543824527396793e-06,8.868306087985901e-05,8.877595025401994e-05
87.57735026920002,73.57735026920001,8,0,-0.2498740617352073,27.82532583729015,0.8167399349017618,-2.305985766738478e-05,8.924094192871664e-05,6.533919479214095e-06,8.933590125851884e-05,8.942549699808694e-05
88.42264973080002,72.4226497308,8,0,-0.2294308706343386,27.98367953571308,0.6512843172721362,-2.312112241460035e-05,8.973131921078932e-05,5.21027453817709e-06,8.979142537545946e-05,8.97634768213731e-05
89.57735026920001,72.4226497308,8,0,-0.1722599807490939,28.21236309525406,0.648442772797984,-2.312112241460035e-05,9.041736988941226e-05,5.187542182383872e-06,9.047659333795552e-05,9.041875992756516e-05
88.42264973080002,73.57735026920001,8,0,-0.2370083225652664,27.98178517273035,0.7370406521000163,-2.314385477039313e-05,8.973131921078932e-05,5.896325216800131e-06,8.980826918270112e-05,8.990916941484349e-05
89.57735026920001,73.57735026920001,8,0,-0.1798374326800314,28.21046873227129,0.7341991076258505,-2.314385477039313e-05,9.041736988941215e-05,5.873592861006804e-06,9.049326738761018e-05,9.058104028763115e-05
90.42264973080002,72.4226497308,8,0,-0.1664815923663125,28.37511322500461,0.551710640853294,-2.323283167557588e-05,9.093354759390779e-05,4.413685126826352e-06,9.097619005792482e-05,9.090553997982264e-05
91.57735026920001,72.4226497308,8,0,-0.1061338393784244,28.61650423695616,0.5473664392506269,-2.323283167557588e-05,9.165772062976244e-05,4.378931514005015e-06,9.169943006998645e-05,9.158016470856559e-05
90.42264973080002,73.57735026920001,8,0,-0.1780661299734074,28.37221709060283,0.642232270335098,-2.326758528839717e-05,9.093354759390779e-05,5.137858162680784e-06,9.099130587038001e-05,9.107961408996779e-05
91.57735026920001,73.57735026920001,8,0,-0.1177183769855192,28.61360810255439,0.6378880687324309,-2.326758528839717e-05,9.165772062976244e-05,5.103104549859447e-06,9.171434186731469e-05,9.176987217654454e-05
92.42264973080002,72.4226497308,8,0,-0.1136761796959567,28.78530510935187,0.4381375757309163,-2.339200786250856e-05,9.220391729368276e-05,3.50510060584733e-06,9.223048161156113e-05,9.207589243055723e-05
93.57735026920001,72.4226497308,8,0,-0.04967084628232765,29.04132644300639,0.4324220635294832,-2.339200786250856e-05,9.29719812946463e-05,3.459376508235866e-06,9.299768650396676e-05,9.275562102507337e-05
92.42264973080002,73.57735026920001,8,0,-0.1289175455663543,28.78149476788428,0.5341455758512922,-2.343773196011975e-05,9.220391729368276e-05,4.273164606810338e-06,9.224337908565515e-05,9.227651001042047e-05
93.57735026920001,73.57735026920001,8,0,-0.06491221215274301,29.03751610153872,0.5284300636498591,-2.343773196011975e-05,9.297198129464609e-05,4.227440509198873e-06,9.301034872233163e-05,9.297041222708827e-05
94.4226497308,72.4226497308,8,0,-0.07248915284411073,29.21700533233867,0.3113651405735703,-2.360556955497209e-05,9.355240838575902e-05,2.490921124588563e-06,9.356564689312673e-05,9.324174640622984e-05
95.57735026920002,72.4226497308,8,0,-0.004348127667751278,29.48956943304411,0.304444176844315,-2.360556955497209e-05,9.437010068787533e-05,2.43555341475452e-06,9.438266956863875e-05,9.389013705193849e-05
94.4226497308,73.57735026920001,8,0,-0.09094505612216164,29.21239135651916,0.4135766783380551,-2.366093726480624e-05,9.355240838575902e-05,3.308613426704441e-06,9.357575202262284e-05,9.346611678044456e-05
95.57735026920002,73.57735026920001,8,0,-0.02280403094581196,29.48495545722456,0.406655714608854,-2.366093726480624e-05,9.437010068787523e-05,3.253245716870832e-06,9.439251343318628e-05,9.412650458914697e-05
96.4226497308,72.4226497308,8,0,-0.04437864685447312,29.67294531437215,0.172422664695206,-2.388036792143203e-05,9.498892792347445e-05,1.379381317561648e-06,9.499292943782103e-05,9.43231830649993e-05
97.57735026920001,72.4226497308,8,0,0.02836928203906464,29.9639370299463,0.1645009543104034,-2.388036792143203e-05,9.586190307019689e-05,1.316007634483227e-06,9.586551880210511e-05,9.485789612903829e-05
96.4226497308,73.57735026920001,8,0,-0.06550320788065012,29.6676641741156,0.281544558035471,-2.394374160451056e-05,9.498892792347445e-05,2.252356464283768e-06,9.499959079448177e-05,9.456712908084227e-05
97.57735026920001,73.57735026920001,8,0,0.007244721012868993,29.95865588968968,0.2736228476506956,-2.394374160451056e-05,9.586190307019668e-05,2.188982781205565e-06,9.587190102520332e-05,9.511054977056183e-05
98.42264973080002,72.4226497308,8,0,-0.03077011966174759,30.15581281113833,0.02259087977802946,-2.422311463182826e-05,9.652321709137206e-05,1.807270382242357e-07,9.652328471712016e-05,9.514292347623231e-05
99.57735026920002,72.4226497308,8,0,0.0470439102518263,30.46706893079263,0.01391661767726935,-2.422311463182826e-05,9.745698545033494e-05,1.113329414181548e-07,9.74570109167449e-05,9.538691960630713e-05
98.42264973080002,73.57735026920001,8,0,-0.05390148526375604,30.15002996973783,0.1393119246485114,-2.429250872863428e-05,9.652321709137206e-05,1.114495397188092e-06,9.652578727327218e-05,9.540005707871764e-05
99.57735026920002,73.57735026920001,8,0,0.02391254464983561,30.4612860893922,0.1306376625476971,-2.429250872863428e-05,9.745698545033515e-05,1.045101300381577e-06,9.74592282042284e-05,9.564758506407585e-05
0.4226497308,74.4226497308,8,0,-0.02779926273870315,6.542497315487536,-0.1193328323800954,-5.322955493153878e-06,2.095823081975107e-05,-9.546626590407632e-07,2.096689747902767e-05,2.272317891194398e-05
1.5773502692,74.4226497308,8,0,0.04243301015817647,6.823426407075054,-0.1273316139478433,-5.322955493153878e-06,2.180101809451363e-05,-1.018652911582746e-06,2.181057871557292e-05,2.299150780558265e-05
0.4226497308,75.57735026920001,8,0,-0.04912934691925552,6.537164794442398,-0.01398442303477592,-5.386945745695535e-06,2.095823081975107e-05,-1.118753842782073e-07,2.095834958954894e-05,2.296078865977339e-05
1.5773502692,75.57735026920001,8,0,0.02110292597762409,6.818093886029916,-0.02198320460259154,-5.386945745695535e-06,2.180101809451363e-05,-1.758656368207323e-07,2.180130248873009e-05,2.322548660583234e-05
2.4226497308,74.4226497308,8,0,-0.04600873598172028,7.000919966394499,-0.2585810885691998,-5.747963928257104e-06,2.243975088124777e-05,-2.068648708553598e-06,2.247765357265269e-05,2.3321563067924e-05
3.5773502692,74.4226497308,8,0,0.02917985994564476,7.301674350103959,-0.2658769932401255,-5.747963928257104e-06,2.334201403237615e-05,-2.127015945921004e-06,2.338084326424534e-05,2.395496192034572e-05
2.4226497308,75.57735026920001,8,0,-0.06546448177087361,6.996056029947211,-0.1457981946781655,-5.806331165624564e-06,2.243975088124777e-05,-1.166385557425324e-06,2.245178684970675e-05,2.355089020708342e-05
3.5773502692,75.57735026920001,8,0,0.009724114156473451,7.296810413656599,-0.1530940993491048,-5.806331165624564e-06,2.334201403237594e-05,-1.224752794792838e-06,2.335487374970165e-05,2.417521143264609e-05
4.422649730800001,74.4226497308,8,0,-0.07797904316959814,7.487489735962479,-0.3881039612944583,-6.239524726912697e-06,2.402235038961561e-05,-3.104831690355666e-06,2.410177989952072e-05,2.449354601266418e-05
5.577350269200001,74.4226497308,8,0,0.001725152094239846,7.806306517017831,-0.3944454694905833,-6.239524726912697e-06,2.497880073278167e-05,-3.155563755924667e-06,2.505833956747693e-05,2.533158626466745e-05
4.422649730800001,75.57735026920001,8,0,-0.09488973169268888,7.483262063831706,-0.2685476683986872,-6.290256792481968e-06,2.402235038961561e-05,-2.148381347189497e-06,2.406036890082845e-05,2.470588476732409e-05
5.577350269200001,75.57735026920001,8,0,-0.01518553642886866,7.802078844886987,-0.2748891765948528,-6.290256792481968e-06,2.497880073278145e-05,-2.199113412758823e-06,2.501741825862999e-05,2.553139005438534e-05
6.422649730800001,74.4226497308,8,0,-0.122308661241862,7.999672687955721,-0.5065574886810851,-6.791125866338534e-06,2.569679953045179e-05,-4.052459909448681e-06,2.58226850896391e-05,2.598973377372245e-05
7.577350269200001,74.4226497308,8,0,-0.03854542358138291,8.334725638597638,-0.5117377191288089,-6.791125866338534e-06,2.670195838237754e-05,-4.093901753030472e-06,2.682659526287168e-05,2.694978595540876e-05
6.422649730800001,75.57735026920001,8,0,-0.1361226091023142,7.996219200990608,-0.3809126321904343,-6.832567709919891e-06,2.569679953045179e-05,-3.047301057523474e-06,2.576801025978161e-05,2.61795770850381e-05
7.577350269200001,75.57735026920001,8,0,-0.05235937144184444,8.331272151632486,-0.3860928626380498,-6.832567709919891e-06,2.670195838237743e-05,-3.088742901104398e-06,2.677293138505595e-05,2.712495169860268e-05
8.4226497308,74.4226497308,8,0,-0.1775565552493554,8.53485026713828,-0.6128605247543321,-7.396061190508561e-06,2.745356609904197e-05,-4.902884198034656e-06,2.762516398957643e-05,2.768102539512866e-05
9.5773502692,74.4226497308,8,0,-0.09020058712849366,8.884274139621727,-0.6167124566407303,-7.396061190508561e-06,2.850183771649232e-05,-4.933699653125842e-06,2.867056290824167e-05,2.871875651534022e-05
8.4226497308,75.57735026920001,8,0,-0.1878283736129216,8.532282312547387,-0.481826572573175,-7.426876645599259e-06,2.745356609904197e-05,-3.8546125805854e-06,2.755973555367351e-05,2.784499057955582e-05
9.5773502692,75.57735026920001,8,0,-0.1004724054920598,8.881706185030835,-0.4856785044594241,-7.426876645599259e-06,2.850183771649232e-05,-3.885428035675393e-06,2.860657754341277e-05,2.886679877226391e-05
10.4226497308,74.4226497308,8,0,-0.2422605062439973,9.090352756979584,-0.7061711961444626,-8.047515825564458e-06,2.928293722732987e-05,-5.6493695691557e-06,2.949546282913707e-05,2.949760736644643e-05
11.5773502692,74.4226497308,8,0,-0.1517828452424985,9.452263400985579,-0.7085631662743098,-8.047515825564458e-06,3.036866915934785e-05,-5.668505330194478e-06,3.057664746837883e-05,3.058773634306574e-05
10.4226497308,75.57735026920001,8,0,-0.2486390932566884,9.088758110226411,-0.5704547046422956,-8.066651586602532e-06,2.928293722732987e-05,-4.563637637138365e-06,2.942182516229855e-05,2.963376570588506e-05
11.5773502692,75.57735026920001,8,0,-0.1581614322551985,9.450668754232371,-0.5728466747721294,-8.066651586602532e-06,3.036866915934774e-05,-4.582773398177035e-06,3.050479196217001e-05,3.070735014364435e-05
12.4226497308,74.4226497308,8,0,-0.3149514142662833,9.663487165789419,-0.7858647782738384,-8.73863425828364e-06,3.117512006193916e-05,-6.286918226190708e-06,3.142117044165422e-05,3.139921797591217e-05
13.5773502692,74.4226497308,8,0,-0.221823671952404,10.03599813504494,-0.7866964294434133,-8.73863425828364e-06,3.229265296970571e-05,-6.293571435547307e-06,3.253258434774691e-05,3.252609804973252e-05
12.4226497308,75.57735026920001,8,0,-0.3171691507181396,9.662932731676454,-0.6461731648031688,-8.745287467639209e-06,3.117512006193916e-05,-5.169385318425351e-06,3.134177324190149e-05,3.150665323693903e-05
13.5773502692,75.57735026920001,8,0,-0.2240414084042515,10.03544370093201,-0.6470048159726489,-8.745287467639209e-06,3.229265296970582e-05,-5.176038527781191e-06,3.245521998947471e-05,3.261680546080062e-05
14.4226497308,74.4226497308,8,0,-0.3941644422588064,10.25156045461876,-0.8515136694463971,-9.462574578923189e-06,3.312032500858708e-05,-6.812109355571177e-06,3.339104214647545e-05,3.336058378092721e-05
15.5773502692,74.4226497308,8,0,-0.2988553460456678,10.63279683947132,-0.8507124587239957,-9.462574578923189e-06,3.426403416314475e-05,-6.805699669791966e-06,3.452726284677899e-05,3.451356112301893e-05
14.4226497308,75.57735026920001,8,0,-0.392027880332475,10.25209459510035,-0.7085500251266617,-9.456164893144195e-06,3.312032500858708e-05,-5.668400201013293e-06,3.330816124814742e-05,3.343909214582497e-05
15.5773502692,75.57735026920001,8,0,-0.2967187841193182,10.63333097995297,-0.7077488144042197,-9.456164893144195e-06,3.426403416314497e-05,-5.661990515233757e-06,3.444658614358792e-05,3.457546892393276e-05
16.4226497308,74.4226497308,8,0,-0.4784478761918356,10.85189908243895,-0.9028698491052876,-1.021255246976503e-05,3.510883536475811e-05,-7.2229587928423e-06,3.539481511150697e-05,3.536423336493622e-05
17.5773502692,74.4226497308,8,0,-0.3814203219714551,11.24000929932047,-0.9003881614631039,-1.021255246976503e-05,3.627316601540267e-05,-7.203105291704831e-06,3.655054672124223e-05,3.65353358084499e-05
16.4226497308,75.57735026920001,8,0,-0.471830042479418,10.85355354086706,-0.757328517774717,-1.019269896862778e-05,3.510883536475811e-05,-6.058628142197736e-06,3.531050782671516e-05,3.541411671928635e-05
17.5773502692,75.57735026920001,8,0,-0.3748024882590557,11.24166375774851,-0.7548468301325469,-1.019269896862778e-05,3.627316601540246e-05,-6.038774641060375e-06,3.646854656487435e-05,3.656896832783755e-05
18.4226497308,74.4226497308,8,0,-0.5663705246422395,11.46186583099674,-0.9398499395404729,-1.098187834365255e-05,3.713106707890334e-05,-7.518799516323784e-06,3.742304330898771e-05,3.739691287865626e-05
19.5773502692,74.4226497308,8,0,-0.4680789710750188,11.85503204526562,-0.9356627968294006,-1.098187834365255e-05,3.831056572170999e-05,-7.485302374635205e-06,3.85931161897788e-05,3.857968276568279e-05
18.4226497308,75.57735026920001,8,0,-0.5552048107460101,11.46465725947079,-0.7924126091896012,-1.094838120196387e-05,3.713106707890334e-05,-6.33930087351681e-06,3.733912676791256e-05,3.741883624565426e-05
19.5773502692,75.57735026920001,8,0,-0.4569132571787717,11.85782347373975,-0.7882254664785424,-1.094838120196387e-05,3.83105657217102e-05,-6.30580373182834e-06,3.851155244858936e-05,3.858586696839981e-05
20.4226497308,74.4226497308,8,0,-0.6565283803963591,12.0788747955994,-0.9625227618825241,-1.176399065374787e-05,3.917762205023516e-05,-7.700182095060192e-06,3.946696277264759e-05,3.944777222394041e-05
21.5773502692,74.4226497308,8,0,-0.5574164387423557,12.47532256221541,-0.9566260719699515,-1.176399065374787e-05,4.03669653500832e-05,-7.653008575759612e-06,4.064634032808587e-05,4.063666684248945e-05
20.4226497308,75.57735026920001,8,0,-0.64080387396276,12.0828059222078,-0.8138548494016139,-1.171681713444707e-05,3.917762205023516e-05,-6.510838795212911e-06,3.938500712129008e-05,3.944266608862553e-05
21.5773502692,75.57735026920001,8,0,-0.5416919323087837,12.4792536888237,-0.8079581594890549,-1.171681713444707e-05,4.036696535008287e-05,-6.463665275912439e-06,4.05667364346164e-05,4.061645409431651e-05
22.4226497308,74.4226497308,8,0,-0.7475511316356429,12.70040530356442,-0.9710990962308699,-1.255248786408559e-05,4.123933787671466e-05,-7.768792769846959e-06,4.151838893282898e-05,4.150743128509984e-05
23.5773502692,74.4226497308,8,0,-0.6480492344572792,13.09841289227788,-0.9635083536215514,-1.255248786408559e-05,4.243336064285502e-05,-7.708066828972411e-06,4.270218088729104e-05,4.269750936528795e-05
22.4226497308,75.57735026920001,8,0,-0.7273091513443082,12.70546579863739,-0.8218462504633924,-1.24917619232117e-05,4.123933787671509e-05,-6.574770003707139e-06,4.143971991300387e-05,4.147642545530687e-05
23.5773502692,75.57735026920001,8,0,-0.6278072541659721,13.10347338735074,-0.8142555078541552,-1.24917619232117e-05,4.243336064285513e-05,-6.514044062833242e-06,4.26258253901385e-05,4.265212290099558e-05
24.4226497308,74.4226497308,8,0,-0.8381089552832943,13.32401536479414,-0.9659232266544563,-1.334116094874185e-05,4.330733633156787e-05,-7.727385813235651e-06,4.356964369079782e-05,4.356749092597884e-05
25.5773502692,74.4226497308,8,0,-0.7386320202744239,13.72192310482962,-0.9566725545240041,-1.334116094874185e-05,4.450105955167431e-05,-7.653380436192033e-06,4.475312492788652e-05,4.475424667134736e-05
24.4226497308,75.57735026920001,8,0,-0.8134404962688446,13.33018247954775,-0.8167078241410968,-1.32671555716985e-05,4.330733633156787e-05,-6.533662593128774e-06,4.349535105035526e-05,4.351187042450082e-05
25.5773502692,75.57735026920001,8,0,-0.7139635612599831,13.7280902195832,-0.8074571520106582,-1.32671555716985e-05,4.450105955167421e-05,-6.459657216085265e-06,4.468107871817973e-05,4.46850468948098e-05
26.4226497308,74.4226497308,8,0,-0.9269198637450859,13.9473550843812,-0.9474657750045197,-1.412402763148923e-05,4.537307216101591e-05,-7.579726200036157e-06,4.561350829708373e-05,4.562027426875461e-05
27.57735026920001,74.4226497308,8,0,-0.8278649026153131,14.34357492890029,-0.9366071888371928,-1.412402763148923e-05,4.656173169457318e-05,-7.492857510697543e-06,4.679214224807079e-05,4.679954992036011e-05
26.4226497308,75.57735026920001,8,0,-0.8979636339656203,13.95459414182607,-0.7988833333098062,-1.403715894215084e-05,4.537307216101591e-05,-6.39106666647845e-06,4.554445779710113e-05,4.554145040788974e-05
27.57735026920001,75.57735026920001,8,0,-0.7989086728358474,14.35081398634516,-0.7880247471424794,-1.403715894215084e-05,4.656173169457318e-05,-6.304197977139835e-06,4.672524937448422e-05,4.670801184719509e-05
28.4226497308,74.4226497308,8,0,-1.012757720483612,14.56818028961546,-0.9163172999299992,-1.489536893723993e-05,4.742838310315637e-05,-7.330538399439993e-06,4.764319772114721e-05,4.765869116510823e-05
29.5773502692,74.4226497308,8,0,-0.9145013748800519,14.96120567202971,-0.9039200737156762,-1.489536893723993e-05,4.860745925039909e-05,-7.231360589725409e-06,4.881266326538231e-05,4.882663304513233e-05
28.4226497308,75.57735026920001,8,0,-0.9796984505788227,14.57644510709166,-0.7689327815245504,-1.479619112752556e-05,4.742838310315637e-05,-6.151462252196403e-06,4.758004537856674e-05,4.755818284444908e-05
29.5773502692,75.57735026920001,8,0,-0.8814421049752719,14.96947048950586,-0.7565355553103086,-1.479619112752556e-05,4.860745925039898e-05,-6.052284442482469e-06,4.87515640534263e-05,4.871433176486187e-05
30.4226497308,74.4226497308,8,0,-1.094460899396019,15.18436645553801,-0.8731821533988537,-1.564976804249767e-05,4.946554137723845e-05,-6.98545722719083e-06,4.965235235815884e-05,4.967617125627421e-05
31.5773502692,74.4226497308,8,0,-0.9973569143584511,15.57278239568828,-0.8593321789396687,-1.564976804249767e-05,5.063078919768926e-05,-6.87465743151735e-06,5.080857318209913e-05,5.082921093215953e-05
30.4226497308,75.57735026920001,8,0,-1.057527634171363,15.19359977184418,-0.7275261758426512,-1.55389682468237e-05,4.946554137723845e-05,-5.82020940674121e-06,4.959556011840586e-05,4.955559289006321e-05
31.5773502692,75.57735026920001,8,0,-0.9604236491338307,15.5820157119943,-0.713676201383412,-1.55389682468237e-05,5.063078919768883e-05,-5.709409611067296e-06,5.075371888841191e-05,5.069781210623071e-05
32.4226497308,74.4226497308,8,0,-1.170941445109469,15.79392286422599,-0.8188721387156076,-1.638215091573109e-05,5.147730632161073e-05,-6.550977109724861e-06,5.163504327915552e-05,5.166663686145148e-05
33.57735026920001,74.4226497308,8,0,-1.075318114136238,16.17641618811892,-0.8036711850176789,-1.638215091573109e-05,5.262478629328951e-05,-6.429369480141431e-06,5.277421863113137e-05,5.280148737206464e-05
32.4226497308,75.57735026920001,8,0,-1.130405568581768,15.80405683335792,-0.6754371422556106,-1.626054328614799e-05,5.147730632161073e-05,-5.403497138044885e-06,5.158489565177769e-05,5.152769033987763e-05
33.57735026920001,75.57735026920001,8,0,-1.034782237608536,16.18655015725084,-0.6602361885576818,-1.626054328614799e-05,5.262478629328951e-05,-5.281889508461455e-06,5.272588717860727e-05,5.265274062222538e-05
34.42264973080001,74.4226497308,8,0,-1.241194500717532,16.39500681043418,-0.7542995925900075,-1.708782785064345e-05,5.345697739396341e-05,-6.03439674072006e-06,5.358578764291597e-05,5.362449981074047e-05
35.5773502692,74.4226497308,8,0,-1.147352134295319,16.77037627612303,-0.7378643934385031,-1.708782785064345e-05,5.458308579102996e-05,-5.902915147508025e-06,5.470442342364422e-05,5.473816109794645e-05
34.42264973080001,75.57735026920001,8,0,-1.197367302980187,16.40596360986852,-0.6135360429567697,-1.695634625743141e-05,5.345697739396341e-05,-4.908288343654157e-06,5.354240902452234e-05,5.346896863746518e-05
35.5773502692,75.57735026920001,8,0,-1.10352493655801,16.78133307555723,-0.5971008438051704,-1.695634625743141e-05,5.458308579102953e-05,-4.776806750441363e-06,5.466273594162641e-05,5.457389476340849e-05
36.4226497308,74.4226497308,8,0,-1.304307708396691,16.98593757452313,-0.6804696100924038,-1.776253472648791e-05,5.539844640519136e-05,-5.443756880739231e-06,5.54995712928951e-05,5.554467288066201e-05
37.5773502692,74.4226497308,8,0,-1.21251618944598,17.35310365032597,-0.6629307315991333,-1.776253472648791e-05,5.64999446325999e-05,-5.303445852793067e-06,5.659451044626343e-05,5.663444276083158e-05
36.4226497308,75.57735026920001,8,0,-1.257537365747843,16.99763016018534,-0.542782331666269,-1.762222369854137e-05,5.539844640519136e-05,-4.342258653330152e-06,5.546294379521934e-05,5.537441718094195e-05
37.5773502692,75.57735026920001,8,0,-1.165745846797131,17.36479623598819,-0.5252434531730662,-1.762222369854137e-05,5.64999446325999e-05,-4.20194762538453e-06,5.655944842693541e-05,5.645655897239091e-05
38.4226497308,74.4226497308,8,0,-1.35947025670704,17.56520982455861,-0.598471236309614,-1.840247268110941e-05,5.729624764395317e-05,-4.787769890476912e-06,5.737187594343792e-05,5.742258992228658e-05
39.5773502692,74.4226497308,8,0,-1.269966751880241,17.92322384386581,-0.5799717005401086,-1.840247268110941e-05,5.837028970187477e-05,-4.639773604320869e-06,5.844032716518432e-05,5.848607813114482e-05
38.4226497308,75.57735026920001,8,0,-1.310138161321892,17.57754284840489,-0.4642159790694145,-1.825447639495397e-05,5.729624764395317e-05,-3.713727832555316e-06,5.734185757531479e-05,5.723954143340274e-05
39.5773502692,75.57735026920001,8,0,-1.220634656495093,17.93555686771209,-0.4457164432999906,-1.825447639495397e-05,5.837028970187477e-05,-3.565731546399924e-06,5.841175007512645e-05,5.829654750696437e-05
40.4226497308,74.4226497308,8,0,-1.405981244316635,18.13150608264316,-0.5094675541111144,-1.900434484792776e-05,5.914560445991141e-05,-4.075740432888915e-06,5.919870871645623e-05,5.925423066789274e-05
41.5773502692,74.4226497308,8,0,-1.318968139901254,18.47955850030468,-0.4901612181238969,-1.900434484792776e-05,6.018976171289598e-05,-3.921289744991175e-06,6.023827258293882e-05,6.028937421748202e-05
40.4226497308,75.57735026920001,8,0,-1.354497681684019,18.14437697330131,-0.3789478974881378,-1.884989416002991e-05,5.914560445991141e-05,-3.031583179905102e-06,5.917505176188673e-05,5.906038714094964e-05
41.5773502692,75.57735026920001,8,0,-1.267484577268674,18.49242939096269,-0.3596415615008796,-1.884989416002991e-05,6.018976171289555e-05,-2.877132492007037e-06,6.021593576110581e-05,6.009022975635926e-05
42.4226497308,74.4226497308,8,0,-1.443257050091198,18.68370789350156,-0.4146846966211233,-1.956538887509308e-05,6.094247089927793e-05,-3.317477572968987e-06,6.097663212751057e-05,6.10361473328355e-05
43.57735026920001,74.4226497308,8,0,-1.358900176122639,19.02113538937579,-0.3947344070205048,-1.956538887509308e-05,6.195475338690063e-05,-3.157875256164038e-06,6.198532386200378e-05,6.204122587620516e-05
42.4226497308,75.57735026920001,8,0,-1.390056277823063,18.69700808656859,-0.2881493856681503,-1.940578655828867e-05,6.094247089927793e-05,-2.305195085345203e-06,6.095900153572807e-05,6.083356601588528e-05
43.57735026920001,75.57735026920001,8,0,-1.305699403854504,19.03443558244282,-0.268199096067586,-1.940578655828867e-05,6.195475338690063e-05,-2.145592768540688e-06,6.196889650904528e-05,6.183455582869528e-05
44.4226497308,74.4226497308,8,0,-1.470837439682919,19.22090536230014,-0.3153999002466243,-2.008340409682545e-05,6.268356711110678e-05,-2.523199201972994e-06,6.270279294355363e-05,6.276549087368495e-05
45.5773502692,74.4226497308,8,0,-1.389264636662325,19.54719657438251,-0.2949754606357491,-2.008340409682545e-05,6.36624407473539e-05,-2.359803685085993e-06,6.367906117935105e-05,6.373914110165794e-05
44.4226497308,75.57735026920001,8,0,-1.416372267387125,19.23452165537409,-0.193040695715789,-1.992000857993807e-05,6.268356711110678e-05,-1.544325565726312e-06,6.269078451383238e-05,6.255628092658157e-05
45.5773502692,75.57735026920001,8,0,-1.334799464366531,19.56081286745646,-0.1726162561047919,-1.992000857993807e-05,6.36624407473539e-05,-1.380930048838335e-06,6.366814421051263e-05,6.352708075037841e-05
46.42264973080001,74.4226497308,8,0,-1.488390194123894,19.74240477884081,-0.2129287853418123,-2.055677244426911e-05,6.436640744758972e-05,-1.703430282734499e-06,6.437494864601031e-05,6.44400353077447e-05
47.57735026920001,74.4226497308,8,0,-1.409690264480878,20.05720449741288,-0.1922047871701191,-2.055677244426911e-05,6.531080660330591e-05,-1.537638297360953e-06,6.531768970764877e-05,6.538126366161276e-05
46.42264973080001,75.57735026920001,8,0,-1.433126198999396,19.75622077762194,-0.09487889087719326,-2.039098045889562e-05,6.436640744758972e-05,-7.590311270175461e-07,6.436810675875119e-05,6.422634913028473e-05
47.57735026920001,75.57735026920001,8,0,-1.35442626935637,20.07102049619404,-0.07415489270551356,-2.039098045889562e-05,6.531080660330602e-05,-5.932391416441085e-07,6.5311833211022e-05,6.516598604859961e-05
48.4226497308,74.4226497308,8,0,-1.495714111504263,20.24773411124288,-0.1086121041522152,-2.098447244580794e-05,6.598932044518061e-05,-8.688968332177215e-07,6.599149053241197e-05,6.605819893350206e-05
49.57735026920001,74.4226497308,8,0,-1.419936183670516,20.55084582257787,-0.08776568004843191,-2.098447244580794e-05,6.689865557918558e-05,-7.021254403874553e-07,6.690005793103273e-05,6.696639213594964e-05
48.4226497308,75.57735026920001,8,0,-1.440123647227562,20.26163172731205,0.005054787598310784,-2.081770105297784e-05,6.598932044518061e-05,4.043830078648628e-08,6.598932515463859e-05,6.584222247827658e-05
49.57735026920001,75.57735026920001,8,0,-1.364345719393824,20.56474343864701,0.02590121170206695,-2.081770105297784e-05,6.689865557918547e-05,2.072096936165356e-07,6.689877795031121e-05,6.675009784384668e-05
50.42264973080001,74.4226497308,8,0,-1.492740303725802,20.73664622856455,-0.003802228339008741,-2.136608595477421e-05,6.755146017438721e-05,-3.041782671206993e-08,6.755146277579771e-05,6.761906165956488e-05
51.57735026920001,74.4226497308,8,0,-1.419893621427632,21.02803295775723,0.01698920898937412,-2.136608595477421e-05,6.842562036196524e-05,1.359136719149929e-07,6.842567179354058e-05,6.849399475626173e-05
50.42264973080001,75.57735026920001,8,0,-1.437296470850151,20.75050718678347,0.105467795108124,-2.119975445614725e-05,6.755146017438721e-05,8.437423608649922e-07,6.755346545704686e-05,6.740300385556294e-05
51.57735026920001,75.57735026920001,8,0,-1.364449788551981,21.04189391597615,0.1262592324364391,-2.119975445614725e-05,6.842562036196524e-05,1.010073859491513e-06,6.84284661431121e-05,6.827890088664466e-05
52.4226497308,74.4226497308,8,0,-1.479531782059897,21.20911979303872,0.1001503390367679,-2.170179753702264e-05,6.905280876337181e-05,8.012027122941429e-07,6.905457702975875e-05,6.912237797038201e-05
53.5773502692,74.4226497308,8,0,-1.409585916138545,21.48890325672413,0.1207113096868029,-2.170179753702264e-05,6.989215915442803e-05,9.656904774944233e-07,6.989470444294387e-05,6.996421974135815e-05
52.4226497308,75.57735026920001,8,0,-1.424702526993082,21.22282710680543,0.2050691379187268,-2.15373097718222e-05,6.905280876337181e-05,1.640553103349814e-06,6.906023560499792e-05,6.890845940752893e-05
53.5773502692,75.57735026920001,8,0,-1.354756661071722,21.50261057049087,0.2256301085688025,-2.15373097718222e-05,6.989215915442814e-05,1.80504086855042e-06,6.990106726457493e-05,6.975254824191404e-05
54.42264973080001,74.4226497308,8,0,-1.456281393728608,21.66535784372066,0.2019101487363322,-2.199238673490807e-05,7.0494170214889e-05,1.615281189890658e-06,7.050122241380963e-05,7.056858533738253e-05
55.57735026920001,74.4226497308,8,0,-1.389166859319182,21.93381598135836,0.2220692121276458,-2.199238673490807e-05,7.12995446278021e-05,1.776553697021167e-06,7.130800156752073e-05,7.137790108116185e-05
54.42264973080001,75.57735026920001,8,0,-1.402523891351771,21.67879721931487,0.3025819503504694,-2.183111422777756e-05,7.0494170214889e-05,2.420655602803756e-06,7.051003414351327e-05,7.035902635986711e-05
55.57735026920001,75.57735026920001,8,0,-1.335409356942345,21.94725535695257,0.3227410137417153,-2.183111422777756e-05,7.12995446278021e-05,2.581928109933723e-06,7.131743635215895e-05,7.117186655747896e-05
56.4226497308,74.4226497308,8,0,-1.423308233501836,22.10578416978666,0.3001694334829304,-2.22392136830352e-05,7.187715593011878e-05,2.401355467863443e-06,7.189247093299629e-05,7.19588081243618e-05
57.57735026920001,74.4226497308,8,0,-1.358917482492609,22.36334717382357,0.3197611384180211,-2.22392136830352e-05,7.264984494222951e-05,2.558089107344169e-06,7.266708252325071e-05,7.273655993714681e-05
56.4226497308,75.57735026920001,8,0,-1.371063687008261,22.11884530641005,0.3967555599966219,-2.208248004355448e-05,7.187715593011878e-05,3.174044479972975e-06,7.190395383579787e-05,7.1755816455378e-05
57.57735026920001,75.57735026920001,8,0,-1.306672935999016,22.37640831044704,0.4163472649317533,-2.208248004355448e-05,7.264984494222972e-05,3.330778119454026e-06,7.267911334750877e-05,7.253835704796882e-05
58.4226497308,74.4226497308,8,0,-1.381052706449997,22.53103763954648,0.3936599638651813,-2.244419877227717e-05,7.320416261170871e-05,3.149279710921451e-06,7.323007857097444e-05,7.32948572323795e-05
59.57735026920001,74.4226497308,8,0,-1.319241454407915,22.7782826477148,0.4125266030239591,-2.244419877227717e-05,7.394589763621369e-05,3.300212824191673e-06,7.397413760874836e-05,7.404240199596337e-05
58.4226497308,75.57735026920001,8,0,-1.330741668693419,22.54361539898562,0.4863768419282764,-2.229326565900743e-05,7.320416261170871e-05,3.891014735426211e-06,7.324378073955031e-05,7.31006152081882e-05
59.57735026920001,75.57735026920001,8,0,-1.268930416651337,22.79086040715395,0.5052434810871084,-2.229326565900743e-05,7.394589763621369e-05,4.041947848696867e-06,7.398831837164317e-05,7.385419247635223e-05
60.4226497308,74.4226497308,8,0,-1.330070458262324,22.94196470724123,0.481163968296688,-2.260979723223242e-05,7.447834342978179e-05,3.849311746373504e-06,7.451648244058989e-05,7.457922587567238e-05
61.5773502692,74.4226497308,8,0,-1.27065929694044,23.17960935252877,0.4991571112523898,-2.260979723223242e-05,7.51912773656444e-05,3.993256890019118e-06,7.523202195911546e-05,7.529831122623211e-05
60.4226497308,75.57735026920001,8,0,-1.282088743713967,22.95396013587832,0.5702807102794327,-2.246585208858735e-05,7.447834342978179e-05,4.562245682235462e-06,7.453198917435216e-05,7.439587730616179e-05
61.5773502692,75.57735026920001,8,0,-1.222677582392064,23.19160478116593,0.5882738532351074,-2.246585208858735e-05,7.519127736564462e-05,4.706190825880859e-06,7.524794344838118e-05,7.512221051478967e-05
62.42264973080001,74.4226497308,8,0,-1.271025416349065,23.33961036132027,0.5615240138233238,-2.273896962137322e-05,7.57035734893041e-05,4.492192110586591e-06,7.57547944730485e-05,7.581508196668579e-05
63.57735026920001,74.4226497308,8,0,-1.213801657802676,23.56850539550583,0.5785058073130871,-2.273896962137322e-05,7.639025859186078e-05,4.628046458504697e-06,7.644424659214896e-05,7.650784053497053e-05
62.42264973080001,75.57735026920001,8,0,-1.225740633709588,23.35093155698014,0.6473596516430439,-2.260311527345479e-05,7.57035734893041e-05,5.178877213144351e-06,7.577173310944509e-05,7.564471856664295e-05
63.57735026920001,75.57735026920001,8,0,-1.168516875163198,23.5798265911657,0.6643414451327936,-2.260311527345479e-05,7.639025859186078e-05,5.314731561062349e-06,7.646154125854279e-05,7.634590390310275e-05
64.4226497308,74.4226497308,8,0,-1.204682197330366,23.72520780348493,0.6336518107497214,-2.283514927424511e-05,7.688441072901606e-05,5.069214485997771e-06,7.694879216938933e-05,7.700625760132878e-05
65.57735026920001,74.4226497308,8,0,-1.149401893757065,23.94632901777814,0.6494960502393234,-2.283514927424511e-05,7.754777437189568e-05,5.195968401914587e-06,7.761496714527421e-05,7.767519978175211e-05
64.4226497308,75.57735026920001,8,0,-1.162430892024905,23.7357706298113,0.7165722661096061,-2.270839535832873e-05,7.688441072901606e-05,5.732578128876849e-06,7.69668345469368e-05,7.68509048556412e-05
65.57735026920001,75.57735026920001,8,0,-1.107150588451631,23.95689184410439,0.7324165055991403,-2.270839535832873e-05,7.754777437189535e-05,5.859332044793122e-06,7.763331151562329e-05,7.752940777944579e-05
66.4226497308,74.4226497308,8,0,-1.131898134226939,24.10016715637332,0.6965359723660119,-2.290220775462486e-05,7.802605340777617e-05,5.572287778928095e-06,7.810290691957937e-05,7.815723605250535e-05
67.57735026920001,74.4226497308,8,0,-1.078288218943609,24.31460681750664,0.7111289641259863,-2.290220775462486e-05,7.866937239117612e-05,5.68903171300789e-06,7.874897078417276e-05,7.880524145492686e-05
66.4226497308,75.57735026920001,8,0,-1.092983489533619,24.10989581754665,0.7769508452908709,-2.27854638205449e-05,7.802605340777617e-05,6.215606762326967e-06,7.812176945847062e-05,7.801883829425062e-05
67.57735026920001,75.57735026920001,8,0,-1.039373574250316,24.32433547867986,0.7915438370508453,-2.27854638205449e-05,7.86693723911758e-05,6.332350696406763e-06,7.876808549773747e-05,7.867748440372428e-05
68.42264973080002,74.4226497308,8,0,-1.053615160081394,24.46606348921709,0.7492488280575941,-2.294441930363413e-05,7.913429529355981e-05,5.993990624460752e-06,7.922221030979862e-05,7.92731364612017e-05
69.57735026920001,74.4226497308,8,0,-1.001375659450463,24.67502149174081,0.7624900752859257,-2.294441930363413e-05,7.976116930113097e-05,6.099920602287406e-06,7.985166164046063e-05,7.990344398858517e-05
68.42264973080002,75.57735026920001,8,0,-1.018305167472257,24.47489098736938,0.8276080790039358,-2.283848932580672e-05,7.913429529355981e-05,6.620864632031487e-06,7.924165174902245e-05,7.915354085932624e-05
69.57735026920001,75.57735026920001,8,0,-0.9660656668413354,24.68384898989306,0.8408493262323352,-2.283848932580672e-05,7.976116930113086e-05,6.726794609858682e-06,7.987130914756177e-05,7.979550517388363e-05
70.4226497308,74.4226497308,8,0,-0.970851754815734,24.8246244257593,0.7909524505058589,-2.296642515601778e-05,8.021547956628232e-05,6.327619604046871e-06,8.031239868378607e-05,8.035969598442873e-05
71.57735026920001,74.4226497308,8,0,-0.9196580282094278,25.02939933218452,0.8027552097961447,-2.296642515601778e-05,8.0829804285558e-05,6.422041678369158e-06,8.092904494369048e-05,8.097589209079754e-05
70.4226497308,75.57735026920001,8,0,-0.9393777300418371,24.83249293195277,0.8677430404154277,-2.287200308169609e-05,8.021547956628232e-05,6.941944323323422e-06,8.033221556704635e-05,8.026063506302317e-05
71.57735026920001,75.57735026920001,8,0,-0.8881840034354944,25.03726783837814,0.8795457997056323,-2.287200308169609e-05,8.082980428555844e-05,7.036366397645058e-06,8.094902496034759e-05,8.088942923776792e-05
72.4226497308,74.4226497308,8,0,-0.8846951203757616,25.17771755843898,0.8209041125756001,-2.297319843195362e-05,8.127645228330534e-05,6.567232900604801e-06,8.137977599833657e-05,8.14232483677888e-05
73.57735026920001,74.4226497308,8,0,-0.8342000950655297,25.37969765967991,0.8311958776647345,-2.297319843195362e-05,8.188239258702813e-05,6.649567021317876e-06,8.198770975304641e-05,8.202925233929693e-05
72.4226497308,75.57735026920001,8,0,-0.857250413471367,25.18457873516508,0.896646650540853,-2.289086431124044e-05,8.127645228330534e-05,7.173173204326824e-06,8.139979605550491e-05,8.134632061706679e-05
73.57735026920001,75.57735026920001,8,0,-0.8067553881611262,25.38655883640605,0.9069384156300416,-2.289086431124044e-05,8.188239258702823e-05,7.255507325040333e-06,8.200785262143814e-05,8.196577690415988e-05
74.4226497308,74.4226497308,8,0,-0.7962936975117607,25.52733783923613,0.8384614343387583,-2.297001010342654e-05,8.232451604356502e-05,6.707691474710066e-06,8.243123471893676e-05,8.247069645086958e-05
75.57735026920001,74.4226497308,8,0,-0.7461300772779698,25.7279923201713,0.8471844120961085,-2.297001010342654e-05,8.292647948637052e-05,6.777475296768868e-06,8.30348098703325e-05,8.307074022093132e-05
74.4226497308,75.57735026920001,8,0,-0.7730324234924497,25.53315315774096,0.9137068646895125,-2.29002262813686e-05,8.232451604356502e-05,7.3096549175161e-06,8.245130834706969e-05,8.241734454443643e-05
75.57735026920001,75.57735026920001,8,0,-0.7228688032586676,25.73380763867609,0.9224298424466729,-2.29002262813686e-05,8.292647948637041e-05,7.379438739573384e-06,8.305496803396593e-05,8.303159399368533e-05
76.42264973080002,74.4226497308,8,0,-0.7068500780796185,25.87559505287803,0.8430875134380976,-2.29623962921572e-05,8.336738423167338e-05,6.744700107504781e-06,8.347423414638964e-05,8.350947335479114e-05
77.57735026920001,74.4226497308,8,0,-0.6566325178534713,26.07646529378262,0.8501991621035914,-2.29623962921572e-05,8.396999495438714e-05,6.801593296828731e-06,8.407804213742886e-05,8.410807079744929e-05
76.42264973080002,75.57735026920001,8,0,-0.6878856816382841,25.88033615198836,0.9184138537772372,-2.29055031028332e-05,8.336738423167338e-05,7.347310830217897e-06,8.349422425696144e-05,8.348095945791921e-05
77.57735026920001,75.57735026920001,8,0,-0.6376681214121369,26.08120639289295,0.9255255024428122,-2.29055031028332e-05,8.396999495438714e-05,7.404204019542497e-06,8.409808000437114e-05,8.409439928817621e-05
78.4226497308,74.4226497308,8,0,-0.6176143018099882,26.22470140503013,0.8343563511439318,-2.295612688981607e-05,8.44131359375444e-05,6.674850809151455e-06,8.451677516304543e-05,8.454748173798453e-05
79.57735026920001,74.4226497308,8,0,-0.5669415552898203,26.4273923911108,0.8398300526631287,-2.295612688981607e-05,8.502120889578642e-05,6.71864042130503e-06,8.512562090343904e-05,8.514937731032137e-05
78.4226497308,75.57735026920001,8,0,-0.6030177644254815,26.22835053937626,0.9103654709240486,-2.291233727766255e-05,8.44131359375444e-05,7.282923767392389e-06,8.453654573277813e-05,8.454485936700988e-05
79.57735026920001,75.57735026920001,8,0,-0.5523450179053677,26.43104152545671,0.9158391724432726,-2.291233727766255e-05,8.502120889578577e-05,7.326713379546181e-06,8.514540344350572e-05,8.51620993589603e-05
80.4226497308,74.4226497308,8,0,-0.5298774584464683,26.57695917927749,0.8119588909622546,-2.295717521045068e-05,8.547017134044512e-05,6.495671127698037e-06,8.55673699588162e-05,8.559298983844757e-05
81.57735026920001,74.4226497308,8,0,-0.4783345208372101,26.78313092971452,0.8157848277217847,-2.295717521045068e-05,8.608868659175622e-05,6.526278621774278e-06,8.618624701221411e-05,8.620306623187705e-05
80.4226497308,75.57735026920001,8,0,-0.5196749604210726,26.57950980378384,0.8892732973761149,-2.29265677163745e-05,8.547017134044512e-05,7.11418637900892e-06,8.558677370282136e-05,8.561707168144736e-05
81.57735026920001,75.57735026920001,8,0,-0.4681320228118144,26.78568155422087,0.8930992341356857,-2.29265677163745e-05,8.608868659175622e-05,7.144793873085486e-06,8.620562751688782e-05,8.624283919062205e-05
82.4226497308,74.4226497308,8,0,-0.4449654472030478,26.93474833506917,0.7757099758813135,-2.297168809910509e-05,8.654716702998378e-05,6.205679807050508e-06,8.663500487278211e-05,8.665444146321883e-05
83.57735026920001,74.4226497308,8,0,-0.392125730514949,27.14610720182156,0.7778962771755744,-2.297168809910509e-05,8.718124363024096e-05,6.223170217404595e-06,8.726906924140572e-05,8.727754513514563e-05
82.4226497308,75.57735026920001,8,0,-0.439135310418334,26.93620586926535,0.8549695509134067,-2.295419768875095e-05,8.654716702998378e-05,6.839756407307253e-06,8.665387055204688e-05,8.670576242491613e-05
83.57735026920001,75.57735026920001,8,0,-0.3862955937302353,27.14756473601775,0.8571558522076539,-2.295419768875095e-05,8.718124363024096e-05,6.857246817661231e-06,8.728787676951512e-05,8.734472471189075e-05
84.42264973080002,74.4226497308,8,0,-0.364232677808646,27.30051383698795,0.7255565040092742,-2.300595563857802e-05,8.765303042060834e-05,5.804452032074194e-06,8.77290941047597e-05,8.774009309358519e-05
85.57735026920001,74.4226497308,8,0,-0.3096602710235521,27.51880346412833,0.7261307191323835,-2.300595563857802e-05,8.830789930202947e-05,5.809045753059068e-06,8.838363576029579e-05,8.838069394510628e-05
84.42264973080002,75.57735026920001,8,0,-0.3627014374801734,27.30089664707007,0.8074151141869153,-2.300136191759261e-05,8.765303042060834e-05,6.459320913495322e-06,8.774721408456512e-05,8.781886742785244e-05
85.57735026920001,75.57735026920001,8,0,-0.3081290306951159,27.5191862742103,0.8079893293101194,-2.300136191759261e-05,8.830789930202904e-05,6.463914634480955e-06,8.840166289702878e-05,8.847528713097887e-05
86.4226497308,74.4226497308,8,0,-0.2890554329516828,27.67675242644869,0.6615870203996959,-2.306637932660433e-05,8.879685211099714e-05,5.292696163197567e-06,8.885942176071997e-05,8.885730099694385e-05
87.57735026920002,74.4226497308,8,0,-0.2323075133482302,27.9037441048625,0.6605979633801971,-2.306637932660433e-05,8.947782714623857e-05,5.284783707041577e-06,8.953983291455799e-05,8.951881482634394e-05
86.4226497308,75.57735026920001,8,0,-0.2916929183369579,27.67609305510237,0.7467088998048882,-2.307429178276016e-05,8.879685211099714e-05,5.973671198439105e-06,8.887654054842093e-05,8.896337141612932e-05
87.57735026920002,75.57735026920001,8,0,-0.2349449987334875,27.90308473351625,0.7457198427853352,-2.307429178276016e-05,8.947782714623879e-05,5.965758742282681e-06,8.955682458167209e-05,8.964042277846649e-05
88.42264973080002,74.4226497308,8,0,-0.2208245526479615,28.06599847278283,0.5840429253229978,-2.315943734669974e-05,8.998785475502341e-05,4.672343402583982e-06,9.003606955053532e-05,9.001109542459829e-05
89.57735026920001,74.4226497308,8,0,-0.1614540272078626,28.30348057454322,0.5815629210241253,-2.315943734669974e-05,9.07003010603046e-05,4.652503368193003e-06,9.074780854637657e-05,9.069451720126667e-05
88.42264973080002,75.57735026920001,8,0,-0.227437897445153,28.06434513658353,0.6730987134831597,-2.317927738109131e-05,8.998785475502341e-05,5.384789707865278e-06,9.005187415208271e-05,9.014386986840266e-05
89.57735026920001,75.57735026920001,8,0,-0.1680673720050541,28.30182723834393,0.6706187091842331,-2.317927738109131e-05,9.07003010603046e-05,5.364949673473864e-06,9.076345270889196e-05,9.084226153475226e-05
90.42264973080002,74.4226497308,8,0,-0.1609370488689708,28.47080847419176,0.4933314062829469,-2.329164533573411e-05,9.12353367565088e-05,3.946651250263575e-06,9.126932751205149e-05,9.12012959723865e-05
91.57735026920001,74.4226497308,8,0,-0.09849551547942248,28.72057460774996,0.4894589489156433,-2.329164533573411e-05,9.198463515718339e-05,3.915671591325147e-06,9.201787717327516e-05,9.190241954667365e-05
90.42264973080002,75.57735026920001,8,0,-0.1712636018486275,28.46822683594685,0.5869937063673653,-2.332262499467309e-05,9.12353367565088e-05,4.695949650938922e-06,9.128344054364383e-05,9.135966294738405e-05
91.57735026920001,75.57735026920001,8,0,-0.1088220684590793,28.71799296950504,0.5831212490000075,-2.332262499467309e-05,9.198463515718339e-05,4.66496999200006e-06,9.203179837899537e-05,9.207483822831246e-05
92.42264973080002,74.4226497308,8,0,-0.1107862157421566,28.89374372294103,0.3900401128735412,-2.346951086872772e-05,9.254860888600501e-05,3.120320902988329e-06,9.256958544228466e-05,9.241663220351166e-05
93.57735026920001,74.4226497308,8,0,-0.04482734235332497,29.15757921649636,0.3849029259587479,-2.346951086872772e-05,9.334011536667099e-05,3.079223407669984e-06,9.336040472651952e-05,9.312036373366065e-05
92.42264973080002,75.57735026920001,8,0,-0.1244853808483253,28.89031893166449,0.4889784229567896,-2.351060836404623e-05,9.254860888600501e-05,3.911827383654316e-06,9.258156199867337e-05,9.259883557445775e-05
93.57735026920001,75.57735026920001,8,0,-0.05852650745948385,29.15415442521985,0.4838412360420505,-2.351060836404623e-05,9.33401153666711e-05,3.870729888336404e-06,9.337216147126285e-05,9.331524766629043e-05
94.4226497308,74.4226497308,8,0,-0.07174976913376607,29.33735060620482,0.2749534904466773,-2.36994797461919e-05,9.393692175516241e-05,2.199627923573418e-06,9.394720330938158e-05,9.36227038245698e-05
95.57735026920002,74.4226497308,8,0,-0.001833194546855488,29.61701690455246,0.2687119520009663,-2.36994797461919e-05,9.477592065020534e-05,2.14969561600773e-06,9.478567122064343e-05,9.429139094552172e-05
94.4226497308,75.57735026920001,8,0,-0.08839387165575285,29.33318958057432,0.3798283523270569,-2.374941205375786e-05,9.393692175516241e-05,3.038626818616455e-06,9.395653260185717e-05,9.382613721073048e-05
95.57735026920002,75.57735026920001,8,0,-0.01847729706887868,29.61285587892181,0.3735868138813594,-2.374941205375786e-05,9.47759206502049e-05,2.988694511050875e-06,9.479475813260987e-05,9.450550131142314e-05
96.4226497308,74.4226497308,8,0,-0.04517553214690828,29.80413798736615,0.1490705710394921,-2.398787209276302e-05,9.540938198528918e-05,1.192564568315937e-06,9.541235980666142e-05,9.473725202560508e-05
97.57735026920001,74.4226497308,8,0,0.02912860594574873,30.10135453973677,0.1419214394150959,-2.398787209276302e-05,9.630103164240107e-05,1.135371515320767e-06,9.630371069202357e-05,9.528668002861025e-05
96.4226497308,75.57735026920001,8,0,-0.06423988314535301,29.79937189961653,0.2605267781783976,-2.404506514575835e-05,9.540938198528918e-05,2.084214225427181e-06,9.541847251831376e-05,9.495809053840714e-05
97.57735026920001,75.57735026920001,8,0,0.01006425494726848,30.09658845198702,0.2533776465540286,-2.404506514575835e-05,9.630103164240064e-05,2.027021172432229e-06,9.630956645069797e-05,9.551522320084569e-05
98.42264973080002,74.4226497308,8,0,-0.03236418320915924,30.29655110581,0.01362388906661735,-2.43408062709173e-05,9.69748548851593e-05,1.089911125329388e-07,9.697487936481036e-05,9.557927568365327e-05
99.57735026920002,74.4226497308,8,0,0.04674162324948483,30.61297433164457,0.005804233742018241,-2.43408062709173e-05,9.792412456266302e-05,4.643386993614593e-08,9.792412897133562e-05,9.582923387633349e-05
98.42264973080002,75.57735026920001,8,0,-0.05321659740823392,30.29133800226023,0.1322825987546371,-2.440336351351453e-05,9.69748548851593e-05,1.058260790037097e-06,9.697716150704023e-05,9.581177641553456e-05
99.57735026920002,75.57735026920001,8,0,0.02588920905043679,30.60776122809491,0.1244629434300109,-2.440336351351453e-05,9.792412456266335e-05,9.957035474400869e-07,9.792615069993847e-05,9.60648422028083e-05
0.4226497308,76.4226497308,8,0,-0.02814002181534825,6.676626202353641,-0.1114978375572971,-5.431349031692026e-06,2.138771586498393e-05,-8.919827004583766e-07,2.139513048993756e-05,2.312595638550581e-05
1.5773502692,76.4226497308,8,0,0.04093722013490297,6.952935170154646,-0.1186630601609639,-5.431349031692026e-06,2.221664276838694e-05,-9.493044812877108e-07,2.222478905218351e-05,2.338817019265969e-05
0.4226497308,77.57735026920001,8,0,-0.0472472820917027,6.671849387284553,-0.007881974631947144,-5.48867081252109e-06,2.138771586498393e-05,-6.305579705557715e-08,2.138775284938327e-05,2.333959325616714e-05
1.5773502692,77.57735026920001,8,0,0.02182995985854852,6.948158355085558,-0.01504719723566814,-5.48867081252109e-06,2.221664276838694e-05,-1.203775778853451e-07,2.221677352573088e-05,2.359865121719874e-05
2.4226497308,76.4226497308,8,0,-0.04528041423010665,7.127447787034419,-0.2366015779987354,-5.846855555163876e-06,2.284405724989422e-05,-1.892812623989883e-06,2.287524177298635e-05,2.371038548859149e-05
3.5773502692,76.4226497308,8,0,0.02848636389936621,7.42251489955231,-0.2431450097242169,-5.846855555163876e-06,2.37292585874479e-05,-1.945160077793735e-06,2.376120637026607e-05,2.432848024093655e-05
2.4226497308,77.57735026920001,8,0,-0.06272956549822006,7.123085499217527,-0.1259514108045939,-5.899203008968325e-06,2.284405724989466e-05,-1.007611286436751e-06,2.285288513484232e-05,2.391680756209813e-05
3.5773502692,77.57735026920001,8,0,0.01103721263119839,7.4181526117352,-0.1324948425300348,-5.899203008968325e-06,2.372925858744768e-05,-1.059958740240279e-06,2.373873556682783e-05,2.452696890011905e-05
4.422649730800001,76.4226497308,8,0,-0.07547886018210859,7.604922342257308,-0.3532453362554765,-6.325470226388593e-06,2.439613458336907e-05,-2.825962690043812e-06,2.446098505942566e-05,2.485371789136941e-05
5.577350269200001,76.4226497308,8,0,0.002582620295383364,7.917168264167276,-0.3589294393775792,-6.325470226388593e-06,2.533287234909897e-05,-2.871435515020633e-06,2.539784932843646e-05,2.567059908611601e-05
4.422649730800001,77.57735026920001,8,0,-0.09063646850771567,7.601132940175906,-0.2361531155391575,-6.370943051365414e-06,2.439613458336907e-05,-1.88922492431326e-06,2.442510883977102e-05,2.504526674266012e-05
5.577350269200001,77.57735026920001,8,0,-0.01257498803020596,7.913378862085945,-0.2418372186612059,-6.370943051365414e-06,2.533287234909919e-05,-1.934697749289647e-06,2.536236073302651e-05,2.585112144397495e-05
6.422649730800001,76.4226497308,8,0,-0.1174582351649636,8.106777733744021,-0.4601511922401434,-6.861288539523099e-06,2.603565533611284e-05,-3.681209537921147e-06,2.613831795169349e-05,2.631192188792508e-05
7.577350269200001,76.4226497308,8,0,-0.03551648003435925,8.434544754266438,-0.4647793075066974,-6.861288539523099e-06,2.701895639768009e-05,-3.718234460053579e-06,2.71206667567471e-05,2.724716717184775e-05
6.422649730800001,77.57735026920001,8,0,-0.1297998758759729,8.103692323566269,-0.337238559544237,-6.898313461656128e-06,2.603565533611284e-05,-2.697908476353896e-06,2.609081525114235e-05,2.648365130222968e-05
7.577350269200001,77.57735026920001,8,0,-0.04785812074536855,8.431459344088687,-0.341866674810913,-6.898313461656128e-06,2.701895639768009e-05,-2.734933398487304e-06,2.707400019576806e-05,2.740590031104463e-05
8.4226497308,76.4226497308,8,0,-0.1698871811330873,8.630636532157148,-0.5562820292102607,-7.448148205351597e-06,2.775394664780934e-05,-4.450256233682085e-06,2.789403970455439e-05,2.795946453226067e-05
9.5773502692,76.4226497308,8,0,-0.08449304405484215,8.972213080470128,-0.559694470074159,-7.448148205351597e-06,2.877867629274829e-05,-4.477555760593272e-06,2.891650591107104e-05,2.897025182716605e-05
8.4226497308,77.57735026920001,8,0,-0.1789870234368158,8.628361571581216,-0.4281908235928924,-7.475447732262783e-06,2.775394664780934e-05,-3.425526588743139e-06,2.783702093327863e-05,2.810824800277968e-05
9.5773502692,77.57735026920001,8,0,-0.09359288635857066,8.969938119894197,-0.4316032644568449,-7.475447732262783e-06,2.877867629274829e-05,-3.452826115654759e-06,2.886070210065424e-05,2.910484857244522e-05
10.4226497308,76.4226497308,8,0,-0.2313994273589777,9.174049767531137,-0.6408220900944926,-8.079717981573638e-06,2.954207879798682e-05,-5.126576720755941e-06,2.971592021282561e-05,2.972898235714974e-05
11.5773502692,76.4226497308,8,0,-0.1429890285185205,9.527691362892966,-0.6428923768316208,-8.079717981573638e-06,3.060300358407231e-05,-5.143139014652967e-06,3.07732087728041e-05,3.079108541950159e-05
10.4226497308,77.57735026920001,8,0,-0.2369201919912829,9.172669576372792,-0.508206491833807,-8.096280275470338e-06,2.954207879798595e-05,-4.065651934670456e-06,2.965155214119303e-05,2.985296074670382e-05
11.5773502692,77.57735026920001,8,0,-0.1485097931507173,9.526311171735054,-0.5102767785708809,-8.096280275470338e-06,3.060300358407274e-05,-4.082214228567048e-06,3.071035939450643e-05,3.090024064696051e-05
12.4226497308,76.4226497308,8,0,-0.3006096255126756,9.73452593556814,-0.7131582933716742,-8.749571550095074e-06,3.139097069422819e-05,-5.705266346973394e-06,3.159268267534364e-05,3.158192726721697e-05
13.5773502692,76.4226497308,8,0,-0.2096228427090057,10.09847306678282,-0.7137896835688663,-8.749571550095074e-06,3.248281208787223e-05,-5.71031746855093e-06,3.267958008999614e-05,3.268044431366701e-05
12.4226497308,77.57735026920001,8,0,-0.3022933327052599,9.734105008769994,-0.576678119166142,-8.754622671672827e-06,3.139097069422819e-05,-4.613424953329136e-06,3.152307661250466e-05,3.168014448140865e-05
13.5773502692,77.57735026920001,8,0,-0.2113065499016078,10.0980521399846,-0.5773095093633747,-8.754622671672827e-06,3.248281208787201e-05,-4.618476074906997e-06,3.261172316777062e-05,3.276360148197267e-05
14.4226497308,76.4226497308,8,0,-0.3761263484865531,10.3095559160111,-0.7728629234869238,-9.451249047965845e-06,3.329148001002475e-05,-6.18290338789539e-06,3.351391772628516e-05,3.349423776495981e-05
15.5773502692,76.4226497308,8,0,-0.2830029771347173,10.68204940141844,-0.7719853418605774,-9.451249047965845e-06,3.440896046624678e-05,-6.17588273488462e-06,3.462529733181245e-05,3.461904577440303e-05
14.4226497308,77.57735026920001,8,0,-0.3737861308162782,10.31014097042867,-0.6331778664592377,-9.444228394955021e-06,3.329148001002475e-05,-5.065422931673901e-06,3.344105642989418e-05,3.356639003335968e-05
15.5773502692,77.57735026920001,8,0,-0.2806627594644242,10.68263445583608,-0.6323002848328914,-9.444228394955021e-06,3.440896046624699e-05,-5.058402278663131e-06,3.455434831470872e-05,3.467619214301284e-05
16.4226497308,76.4226497308,8,0,-0.4565629270108382,10.89663453300747,-0.8196780782552274,-1.017830899284066e-05,3.523448084723256e-05,-6.557424626041819e-06,3.546997609989574e-05,3.544930743400557e-05
17.5773502692,76.4226497308,8,0,-0.3617393297266909,11.27592892214406,-0.8172454977759464,-1.017830899284066e-05,3.637236401464233e-05,-6.53796398220757e-06,3.660080449717609e-05,3.659281646226938e-05
16.4226497308,77.57735026920001,8,0,-0.4500760457327555,10.89825625332699,-0.6774426823290877,-1.015884834900641e-05,3.523448084723256e-05,-5.419541458632701e-06,3.539566919476373e-05,3.549556690022712e-05
17.5773502692,77.57735026920001,8,0,-0.3552524484486259,11.27755064246351,-0.6750101018497523,-1.015884834900641e-05,3.637236401464212e-05,-5.400080814798019e-06,3.652851372791092e-05,3.6624338257818e-05
18.4226497308,76.4226497308,8,0,-0.5405467721648987,11.4932794962784,-0.8535020394970244,-1.09243732679504e-05,3.72109318058228e-05,-6.828016315976195e-06,3.745186520763517e-05,3.74345069000366e-05
19.5773502692,76.4226497308,8,0,-0.4444528851829217,11.87765504420631,-0.8494903202690512,-1.09243732679504e-05,3.836405844960652e-05,-6.79592256215241e-06,3.859721214956077e-05,3.859053891209551e-05
18.4226497308,77.57735026920001,8,0,-0.5298488542235105,11.49595397576375,-0.7093612090241672,-1.089227951412623e-05,3.72109318058228e-05,-5.674889672193338e-06,3.737772468953423e-05,3.745539655700083e-05
19.5773502692,77.57735026920001,8,0,-0.4337549672415242,11.88032952369169,-0.7053494897961399,-1.089227951412623e-05,3.836405844960663e-05,-5.642795918369119e-06,3.85251410466697e-05,3.859711869692578e-05
20.4226497308,76.4226497308,8,0,-0.6267277650282446,12.09704841872005,-0.8743775445688422,-1.168316758306642e-05,3.921193715192674e-05,-6.995020356550738e-06,3.945116151767602e-05,3.943944471645577e-05
21.5773502692,76.4226497308,8,0,-0.5297843442189762,12.48482210195712,-0.8687826989780103,-1.168316758306642e-05,4.037525820163796e-05,-6.950261591824082e-06,4.060621396533384e-05,4.060266649284782e-05
20.4226497308,77.57735026920001,8,0,-0.6118081767859898,12.10077831578061,-0.7289624133549806,-1.163840881833965e-05,3.921193715192674e-05,-5.831699306839844e-06,3.937859099735208e-05,3.943574989933237e-05
21.5773502692,77.57735026920001,8,0,-0.5148647559767037,12.48855199901775,-0.7233675677641486,-1.163840881833965e-05,4.037525820163818e-05,-5.786940542113189e-06,4.0535724121009e-05,4.05852108132922e-05
22.4226497308,76.4226497308,8,0,-0.7137861976994495,12.70555452169227,-0.8824817832954918,-1.244855944999206e-05,4.122880342757483e-05,-7.059854266363934e-06,4.145994295122247e-05,4.145508631306908e-05
23.5773502692,76.4226497308,8,0,-0.6164022081824267,13.09509047976036,-0.8753186069230379,-1.244855944999206e-05,4.23974113017791e-05,-7.002548855384303e-06,4.262002321631294e-05,4.262071879499922e-05
22.4226497308,77.57735026920001,8,0,-0.694684394039609,12.71032997260696,-0.7364057990198627,-1.239125403901232e-05,4.122880342757396e-05,-5.891246392158902e-06,4.139013611140778e-05,4.142779252207602e-05
23.5773502692,77.57735026920001,8,0,-0.5973004045224686,13.09986593067552,-0.729242622647436,-1.239125403901232e-05,4.239741130177964e-05,-5.833940981179488e-06,4.255227425120705e-05,4.258030764613963e-05
24.4226497308,76.4226497308,8,0,-0.8004406339939569,13.31648152566909,-0.8781178315083858,-1.321459524931593e-05,4.325309338933624e-05,-7.024942652067087e-06,4.347074147136143e-05,4.347330202386837e-05
25.5773502692,76.4226497308,8,0,-0.7030107119750277,13.7062012137448,-0.8694188197367259,-1.321459524931593e-05,4.442225245356339e-05,-6.955350557893807e-06,4.463132898756899e-05,4.463697024098885e-05
24.4226497308,77.57735026920001,8,0,-0.7772432692693672,13.32228086685023,-0.7319729484800462,-1.314500315514216e-05,4.325309338933624e-05,-5.85578358784037e-06,4.340468662336603e-05,4.342355169524736e-05
25.5773502692,77.57735026920001,8,0,-0.6798133472504828,13.71200055492577,-0.7232739367082778,-1.314500315514216e-05,4.442225245356285e-05,-5.786191493666222e-06,4.456728228450062e-05,4.45748221566241e-05
26.4226497308,76.4226497308,8,0,-0.8854559341144133,13.92759809325112,-0.8617071600769465,-1.397553746376701e-05,4.527667864569511e-05,-6.893657280615572e-06,4.547651409902841e-05,4.54866340480864e-05
27.57735026920001,76.4226497308,8,0,-0.7883578754400324,14.31599032794864,-0.8515216200205832,-1.397553746376701e-05,4.644185534978767e-05,-6.812172960164666e-06,4.663327018798182e-05,4.66442905214075e-05
26.4226497308,77.57735026920001,8,0,-0.8582944939639301,13.9343884532886,-0.7160600720654839,-1.389405314331546e-05,4.527667864569467e-05,-5.728480576523871e-06,4.541500275664899e-05,4.541569682887622e-05
27.57735026920001,77.57735026920001,8,0,-0.7611964352894773,14.32278068798641,-0.7058745320091342,-1.389405314331546e-05,4.644185534978811e-05,-5.646996256073074e-06,4.657369656625996e-05,4.656173869498779e-05
28.4226497308,76.4226497308,8,0,-0.9676515651563857,14.53677205514575,-0.8337828253744802,-1.472590265261703e-05,4.72917918285915e-05,-6.670262602995842e-06,4.747062978566361e-05,4.748817834553757e-05
29.5773502692,76.4226497308,8,0,-0.8712438202142252,14.92240303491439,-0.8221760910082706,-1.472590265261703e-05,4.844868476789742e-05,-6.577408728066165e-06,4.86194246921722e-05,4.863606628372658e-05
28.4226497308,77.57735026920001,8,0,-0.9367002735128889,14.54450987805662,-0.6891712079612803,-1.463304877768654e-05,4.72917918285915e-05,-5.513369663690242e-06,4.741426789475634e-05,4.739743081840396e-05
29.5773502692,77.57735026920001,8,0,-0.8402925285707372,14.93014085782523,-0.6775644735949622,-1.463304877768654e-05,4.844868476789731e-05,-5.420515788759697e-06,4.856491474501374e-05,4.853454229304751e-05
30.4226497308,76.4226497308,8,0,-1.045910206654199,15.14198451778867,-0.7949829495883211,-1.546050027552437e-05,4.929107862224709e-05,-6.359863596706568e-06,4.944686934833532e-05,4.94715291042784e-05
31.5773502692,76.4226497308,8,0,-0.9505293840824747,15.52350780807556,-0.7820356135018871,-1.546050027552437e-05,5.043564849310778e-05,-6.256284908015097e-06,5.05838107656533e-05,5.060616803976882e-05
30.4226497308,77.57735026920001,8,0,-1.01138397709023,15.15061607517966,-0.6519117157307479,-1.535692158683246e-05,4.929107862224709e-05,-5.215293725845983e-06,4.93960902960517e-05,4.936244093663899e-05
31.5773502692,77.57735026920001,8,0,-0.9160031545184699,15.5321393654667,-0.6389643796441921,-1.535692158683246e-05,5.043564849310821e-05,-5.111715037153537e-06,5.053478703105609e-05,5.048719061990087e-05
32.4226497308,76.4226497308,8,0,-1.11918656374093,15.74134383199262,-0.7460441315567491,-1.617447206956506e-05,5.126764951336911e-05,-5.968353052453993e-06,5.139943572834305e-05,5.143075866645277e-05
33.57735026920001,76.4226497308,8,0,-1.025144964696093,16.11751022817196,-0.7318512181566473,-1.617447206956506e-05,5.239614870190714e-05,-5.854809745253178e-06,5.252089800130588e-05,5.254894321860374e-05
32.4226497308,77.57735026920001,8,0,-1.081338794674028,15.75080577425934,-0.6049817329894136,-1.606092876236436e-05,5.126764951336911e-05,-4.839853863915309e-06,5.13545145707874e-05,5.130488293135598e-05
33.57735026920001,77.57735026920001,8,0,-0.9872971956292274,16.12697217043854,-0.590788819589366,-1.606092876236436e-05,5.239614870190671e-05,-4.726310556714929e-06,5.247762842804268e-05,5.241411018804288e-05
34.42264973080001,76.4226497308,8,0,-1.186516224197873,16.33309930175857,-0.6877944842025496,-1.686333135884004e-05,5.32151307449857e-05,-5.502355873620397e-06,5.332297201423959e-05,5.336041825206967e-05
35.5773502692,76.4226497308,8,0,-1.094099443886615,16.7027664230036,-0.6724645047510657,-1.686333135884004e-05,5.432413210872079e-05,-5.379716038008526e-06,5.442562519421737e-05,5.445922472051553e-05
34.42264973080001,77.57735026920001,8,0,-1.14563627899397,16.34331928805954,-0.5491693137357453,-1.674069152322833e-05,5.32151307449857e-05,-4.393354509885962e-06,5.328404055469429e-05,5.32193842572506e-05
35.5773502692,77.57735026920001,8,0,-1.053219498682749,16.71298640930442,-0.533839334284302,-1.674069152322833e-05,5.432413210872036e-05,-4.270714674274416e-06,5.438823754397803e-05,5.431020667175049e-05
36.4226497308,76.4226497308,8,0,-1.247024342032506,16.91565443519015,-0.6211460659845636,-1.752300144265614e-05,5.512771366623448e-05,-4.969168527876508e-06,5.521258490017921e-05,5.525555105884359e-05
37.5773502692,76.4226497308,8,0,-1.156488985406515,17.27779586169411,-0.6047999139364226,-1.752300144265614e-05,5.621413794574637e-05,-4.838399311491381e-06,5.629342283432888e-05,5.633234860620775e-05
36.4226497308,77.57735026920001,8,0,-1.203434603237373,16.92655186988893,-0.4853430310455646,-1.739223222627074e-05,5.512771366623448e-05,-3.882744248364517e-06,5.51796473593684e-05,5.510105847367841e-05
37.5773502692,77.57735026920001,8,0,-1.112899246611382,17.2886932963929,-0.4689968789974778,-1.739223222627074e-05,5.621413794574637e-05,-3.751975031979823e-06,5.626191976204788e-05,5.617088336339486e-05
38.4226497308,76.4226497308,8,0,-1.299933899795132,17.48757948744821,-0.5470865539972932,-1.814985206930299e-05,5.700020147967038e-05,-4.376692431978346e-06,5.706387149803806e-05,5.711171252692296e-05
39.5773502692,76.4226497308,8,0,-1.211505463692191,17.84129323185998,-0.5298562180919318,-1.814985206930299e-05,5.806134271290567e-05,-4.238849744735455e-06,5.812023816950663e-05,5.816417680862939e-05
38.4226497308,77.57735026920001,8,0,-1.253986337380944,17.49906637805176,-0.4144438998427867,-1.801200938206043e-05,5.700020147967038e-05,-3.315551198742293e-06,5.703682057072882e-05,5.694552594861325e-05
39.5773502692,77.57735026920001,8,0,-1.165557901277967,17.85278012246367,-0.3972135639374388,-1.801200938206043e-05,5.806134271290611e-05,-3.177708511499511e-06,5.80945127721147e-05,5.799206395950994e-05
40.4226497308,76.4226497308,8,0,-1.344573293575212,18.04762301903841,-0.4666700888053581,-1.87407329546714e-05,5.882805229578307e-05,-3.733360710442865e-06,5.887294767402496e-05,5.892499428810063e-05
41.5773502692,76.4226497308,8,0,-1.258444268414911,18.39213911967962,-0.4486971798841021,-1.87407329546714e-05,5.986160059770669e-05,-3.589577439072817e-06,5.990256107103989e-05,5.995112201568448e-05
40.4226497308,77.57735026920001,8,0,-1.296645536451899,18.05960495831924,-0.3374765510648792,-1.859694968330146e-05,5.882805229578307e-05,-2.699812408519034e-06,5.885158078301616e-05,5.874893766206286e-05
41.5773502692,77.57735026920001,8,0,-1.210516511291561,18.40412105896059,-0.3195036421436504,-1.859694968330146e-05,5.986160059770712e-05,-2.556029137149203e-06,5.988241270916797e-05,5.977021706154146e-05
42.4226497308,76.4226497308,8,0,-1.380382996328544,18.59472219003016,-0.3810073000252713,-1.929300334027546e-05,6.060741740515933e-05,-3.04805840020217e-06,6.063647633325754e-05,6.069204932291869e-05
43.57735026920001,76.4226497308,8,0,-1.296711237223355,18.92940922645091,-0.3624414043924693,-1.929300334027546e-05,6.16114785144216e-05,-2.899531235139754e-06,6.163744921246653e-05,6.169017264349996e-05
42.4226497308,77.57735026920001,8,0,-1.330873941308155,18.60709945378526,-0.2554996613675147,-1.91444761752143e-05,6.060741740515933e-05,-2.043997290940118e-06,6.062051188754702e-05,6.050799984454863e-05
43.57735026920001,77.57735026920001,8,0,-1.247202182202965,18.94178649020601,-0.2369337657348483,-1.91444761752143e-05,6.16114785144216e-05,-1.895470125878786e-06,6.162259940425301e-05,6.150238049328084e-05
44.4226497308,76.4226497308,8,0,-1.406921083696079,19.12801152943189,-0.2912545922731813,-1.980455669137296e-05,6.233517376113889e-05,-2.330036738185451e-06,6.235169432754121e-05,6.241011649263995e-05
45.5773502692,76.4226497308,8,0,-1.325828494191944,19.45238188744843,-0.2722514787087881,-1.980455669137296e-05,6.330828483518851e-05,-2.178011829670305e-06,6.332255134716672e-05,6.337891634658948e-05
44.4226497308,77.57735026920001,8,0,-1.35624611419094,19.14068027180817,-0.1696157080168567,-1.965253178285754e-05,6.233517376113889e-05,-1.356925664134853e-06,6.23407877772193e-05,6.22199977799383e-05
45.5773502692,77.57735026920001,8,0,-1.275153524686814,19.46505062982467,-0.1506125944525177,-1.965253178285754e-05,6.330828483518841e-05,-1.204900755620141e-06,6.331265951873977e-05,6.318618401882734e-05
46.42264973080001,76.4226497308,8,0,-1.423867448126801,19.64682995532156,-0.1986028298008621,-2.027383979826301e-05,6.400894981553043e-05,-1.588822638406897e-06,6.401643691094304e-05,6.407704307453227e-05
47.57735026920001,76.4226497308,8,0,-1.345439010509233,19.96054370579183,-0.1793225484107095,-2.027383979826301e-05,6.495009106694124e-05,-1.434580387285676e-06,6.495612773733749e-05,6.501556091152533e-05
46.42264973080001,77.57735026920001,8,0,-1.372453364419528,19.65968347624838,-0.0809601733746325,-2.011959754714119e-05,6.400894981553043e-05,-6.4768138699706e-07,6.401019637504134e-05,6.388281752178143e-05
47.57735026920001,77.57735026920001,8,0,-1.294024926801961,19.97339722671865,-0.06167989198433083,-2.011959754714119e-05,6.495009106694124e-05,-4.934391358746466e-07,6.495080659833921e-05,6.481986940729857e-05
48.4226497308,76.4226497308,8,0,-1.431026577973219,20.15072587134426,-0.1042656024340056,-2.069986574658971e-05,6.56271440506802e-05,-8.341248194720452e-07,6.562915891247554e-05,6.569130429396828e-05
49.57735026920001,76.4226497308,8,0,-1.355309753001653,20.45359317123052,-0.08487052103901002,-2.069986574658971e-05,6.653574595033899e-05,-6.789641683120802e-07,6.653706704315803e-05,6.659895171076628e-05
48.4226497308,77.57735026920001,8,0,-1.379306360919518,20.16365592560769,0.009309635023220953,-2.05447050954286e-05,6.56271440506802e-05,7.447708018576762e-08,6.562716014304242e-05,6.549496460185993e-05
49.57735026920001,77.57735026920001,8,0,-1.303589535947961,20.46652322549391,0.02870471641836566,-2.05447050954286e-05,6.653574595033888e-05,2.296377313469253e-07,6.653589734308933e-05,6.640230708790845e-05
50.42264973080001,76.4226497308,8,0,-1.428328834321522,20.63946022442795,-0.009467283954917504,-2.108222044937123e-05,6.718893578562665e-05,-7.573827163934004e-08,6.718895203183033e-05,6.725201915544134e-05
51.57735026920001,76.4226497308,8,0,-1.355333341203846,20.93144219689865,0.009879888484629475,-2.108222044937123e-05,6.806488170303876e-05,7.90391078770358e-08,6.806489922233887e-05,6.812858517834066e-05
50.42264973080001,77.57735026920001,8,0,-1.376736374482748,20.65235833938764,0.1000259557215155,-2.092744306985491e-05,6.718893578562665e-05,8.00207645772124e-07,6.719075247136453e-05,6.705557908752798e-05
51.57735026920001,77.57735026920001,8,0,-1.303740881365072,20.94434031185835,0.1193731281610489,-2.092744306985491e-05,6.806488170303876e-05,9.549850252883914e-07,6.80674436378652e-05,6.793300889567803e-05
52.4226497308,76.4226497308,8,0,-1.415830215880526,21.11300747269702,0.08456889354912524,-2.14210626689753e-05,6.869428808533489e-05,6.765511483930019e-07,6.869555788843436e-05,6.875896214389831e-05
53.5773502692,76.4226497308,8,0,-1.345528191072006,21.3942155719311,0.1037070468020833,-2.14210626689753e-05,6.953791238303712e-05,8.296563744166667e-07,6.953980421224679e-05,6.960461801889681e-05
52.4226497308,77.57735026920001,8,0,-1.36479514053925,21.12576624153234,0.190021930761904,-2.126795744295147e-05,6.869428808533489e-05,1.520175446095232e-06,6.870070958034913e-05,6.856444658690267e-05
53.5773502692,77.57735026920001,8,0,-1.294493115730722,21.40697434076646,0.2091600840148757,-2.126795744295147e-05,6.953791238303723e-05,1.673280672119005e-06,6.954562011871636e-05,6.941213663306563e-05
54.42264973080001,76.4226497308,8,0,-1.393710657854212,21.57155447733112,0.1766325291332712,-2.171711768699837e-05,7.014394285374294e-05,1.413060233066169e-06,7.014937666080298e-05,7.02125706034143e-05
55.57735026920001,76.4226497308,8,0,-1.326037179581868,21.84224839042049,0.1954040084055678,-2.171711768699837e-05,7.095602459301106e-05,1.563232067244543e-06,7.096261636445137e-05,7.102787207798105e-05
54.42264973080001,77.57735026920001,8,0,-1.343653379794789,21.58406879684597,0.278142746541895,-2.15669458528201e-05,7.014394285374294e-05,2.22514197233516e-06,7.015743778442743e-05,7.002200501322271e-05
55.57735026920001,77.57735026920001,8,0,-1.275979901522446,21.85476270993535,0.2969142258141375,-2.15669458528201e-05,7.095602459301106e-05,2.3753138065131e-06,7.0971267257338e-05,7.084050636764948e-05
56.4226497308,76.4226497308,8,0,-1.362270961315067,22.01549739373755,0.2655373037434202,-2.197166499119825e-05,7.15394084290122e-05,2.124298429947362e-06,7.155147133664305e-05,7.161394780177087e-05
57.57735026920001,76.4226497308,8,0,-1.297124916226182,22.27608157409309,0.2837896429701492,-2.197166499119825e-05,7.232116097007882e-05,2.270317143761194e-06,7.2334824769745e-05,7.239983498174875e-05
56.4226497308,77.57735026920001,8,0,-1.313598056710565,22.02766561988868,0.3632563713768964,-2.182564627738475e-05,7.15394084290122e-05,2.906050971015171e-06,7.156201615905332e-05,7.142934710108217e-05
57.57735026920001,77.57735026920001,8,0,-1.248452011621626,22.28824980024443,0.381508710603517,-2.182564627738475e-05,7.232116097007947e-05,3.052069684828136e-06,7.234589012316832e-05,7.221958854802799e-05
58.4226497308,76.4226497308,8,0,-1.321928492654688,22.4454366924998,0.3501316201310489,-2.218652053049484e-05,7.288294021012311e-05,2.801052961048391e-06,7.290356774826251e-05,7.296486185310795e-05
59.57735026920001,76.4226497308,8,0,-1.259173752201764,22.6964556543115,0.3677191202935103,-2.218652053049484e-05,7.36359970955582e-05,2.941752962348082e-06,7.365856974499336e-05,7.372265679339076e-05
58.4226497308,77.57735026920001,8,0,-1.275028492221549,22.45716169260809,0.4442637308104628,-2.204582052919542e-05,7.288294021012311e-05,3.554109846483702e-06,7.291619481396451e-05,7.278821881390633e-05
59.57735026920001,77.57735026920001,8,0,-1.212273751768624,22.70818065441978,0.4618512309728564,-2.204582052919542e-05,7.36359970955582e-05,3.694809847782851e-06,7.367165312389413e-05,7.35515041441276e-05
60.4226497308,76.4226497308,8,0,-1.273211826221697,22.86217048632088,0.4293085005453462,-2.236401423296613e-05,7.417751501720415e-05,3.43446800436277e-06,7.42080506862997e-05,7.426774079020987e-05
61.5773502692,76.4226497308,8,0,-1.212678693740596,23.10430301624528,0.4460936320526749,-2.236401423296613e-05,7.490391260697737e-05,3.568749056421399e-06,7.493663584628085e-05,7.49991430236929e-05
60.4226497308,77.57735026920001,8,0,-1.228451475535667,22.87336057399239,0.5201081992669849,-2.222973318090804e-05,7.417751501720415e-05,4.160865594135879e-06,7.422238910105752e-05,7.410101388782008e-05
61.5773502692,77.57735026920001,8,0,-1.167918343054593,23.11549310391668,0.5368933307742457,-2.222973318090804e-05,7.490391260697705e-05,4.295146646193966e-06,7.49513711248754e-05,7.483901709668466e-05
62.42264973080001,76.4226497308,8,0,-1.216754525783443,23.26668637344519,0.5020146593034779,-2.250696358126317e-05,7.542680001565135e-05,4.016117274427823e-06,7.546795646149208e-05,7.55256641442153e-05
63.57735026920001,76.4226497308,8,0,-1.158241410998163,23.50073883258631,0.5178692793528,-2.250696358126317e-05,7.612895739307472e-05,4.1429542348224e-06,7.617244182055464e-05,7.62327443633187e-05
62.42264973080001,77.57735026920001,8,0,-1.174475538985233,23.27725612014474,0.5897843314814398,-2.238012662086853e-05,7.542680001565135e-05,4.718274651851519e-06,7.548367016687436e-05,7.53707648133062e-05
63.57735026920001,77.57735026920001,8,0,-1.115962424199952,23.51130857928586,0.6056389515307213,-2.238012662086853e-05,7.612895739307472e-05,4.845111612245771e-06,7.618849740078032e-05,7.608552338312218e-05
64.4226497308,76.4226497308,8,0,-1.153288271122227,23.66015202923631,0.5672587207617433,-2.261864409098017e-05,7.663511711045396e-05,4.538069766093947e-06,7.668696231322657e-05,7.674235138939162e-05
65.57735026920001,76.4226497308,8,0,-1.096563547183881,23.88705092498969,0.5820651090785448,-2.261864409098017e-05,7.731581379771411e-05,4.656520872628358e-06,7.737002790568313e-05,7.742754345747271e-05
64.4226497308,77.57735026920001,8,0,-1.113804568944126,23.67002295478083,0.6523458066692899,-2.250019298444587e-05,7.663511711045396e-05,5.218766453354319e-06,7.670375229229748e-05,7.660113054993501e-05
65.57735026920001,77.57735026920001,8,0,-1.057079845005761,23.89692185053429,0.6671521949860372,-2.250019298444587e-05,7.731581379771433e-05,5.337217559888297e-06,7.738710887414434e-05,7.729503695665818e-05
66.4226497308,76.4226497308,8,0,-1.083635534577848,24.04390478488675,0.6241186086478187,-2.270275753855851e-05,7.780740373929985e-05,4.992948869182549e-06,7.786937304000687e-05,7.792214752254072e-05
67.57735026920001,76.4226497308,8,0,-1.028439533769673,24.26468878811944,0.6377703374505135,-2.270275753855851e-05,7.846975574899795e-05,5.102162699604108e-06,7.853404083266332e-05,7.858823888991301e-05
66.4226497308,77.57735026920001,8,0,-1.047230924437383,24.05300593742186,0.7069126098600267,-2.259354370813711e-05,7.780740373929985e-05,5.655300878880214e-06,7.788697744091119e-05,7.779638117984971e-05
67.57735026920001,77.57735026920001,8,0,-0.9920349236291903,24.27378994065463,0.7205643386627757,-2.259354370813711e-05,7.846975574899817e-05,5.764514709302206e-06,7.855188904194643e-05,7.84721726630252e-05
68.42264973080002,76.4226497308,8,0,-1.008701998905988,24.41944042541285,0.6717481872647413,-2.276339873682944e-05,7.894917096044592e-05,5.37398549811793e-06,7.90201051468122e-05,7.907000583177572e-05
69.57735026920001,76.4226497308,8,0,-0.9547491067431126,24.63525199406435,0.6841508530694927,-2.276339873682944e-05,7.959660566640042e-05,5.473206824555942e-06,7.966971677113402e-05,7.97201262270355e-05
68.42264973080002,77.57735026920001,8,0,-0.9756282234265781,24.42770886928271,0.7526775255090262,-2.266417741039121e-05,7.894917096044592e-05,6.02142020407221e-06,7.903829735917947e-05,7.896137949416179e-05
69.57735026920001,77.57735026920001,8,0,-0.9216753312637209,24.64352043793414,0.7650801913137778,-2.266417741039121e-05,7.95966056664002e-05,6.120641530510222e-06,7.968810888069691e-05,7.962212592911812e-05
70.4226497308,76.4226497308,8,0,-0.929468883190836,24.78840141859323,0.7093832860070686,-2.280502156108526e-05,8.006645964605099e-05,5.675066288056549e-06,8.014466866567721e-05,8.019146749277735e-05
71.57735026920001,76.4226497308,8,0,-0.8764496966371018,25.00047816480816,0.7204551414023567,-2.280502156108526e-05,8.07026898846958e-05,5.763641131218853e-06,8.078286228964941e-05,8.08290753832829e-05
70.4226497308,77.57735026920001,8,0,-0.8999439354699232,24.79578265552346,0.7889120658376159,-2.271644671792252e-05,8.006645964605099e-05,6.311296526700927e-06,8.016325343478876e-05,8.010155909802716e-05
71.57735026920001,77.57735026920001,8,0,-0.8469247489161802,25.00785940173843,0.7999839212329581,-2.271644671792252e-05,8.070268988469591e-05,6.399871369863665e-06,8.080160585281367e-05,8.075064843941982e-05
72.4226497308,76.4226497308,8,0,-0.846985308919888,25.1525647533281,0.7363472834067991,-2.283240479120612e-05,8.116579545778581e-05,5.890778267254393e-06,8.124914660918358e-05,8.129263686125657e-05
73.57735026920001,76.4226497308,8,0,-0.7945688325566662,25.36223065878098,0.7460198156835545,-2.283240479120612e-05,8.179479317414447e-05,5.968158525468436e-06,8.187983317729061e-05,8.192150248106068e-05
72.4226497308,77.57735026920001,8,0,-0.8211918895152976,25.15901310817924,0.8149719979517133,-2.275502453299235e-05,8.116579545778581e-05,6.519775983613706e-06,8.126795432533372e-05,8.12228978635577e-05
73.57735026920001,77.57735026920001,8,0,-0.768775413152067,25.36867901363216,0.8246445302285228,-2.275502453299235e-05,8.179479317414458e-05,6.597156241828182e-06,8.189876091475923e-05,8.186401794280978e-05
74.4226497308,76.4226497308,8,0,-0.7623607952168179,25.51382952155031,0.7520564634042737,-2.285061816193406e-05,8.225414310513443e-05,6.01645170723419e-06,8.234017176593806e-05,8.238014989889539e-05
75.57735026920001,76.4226497308,8,0,-0.710196659082567,25.72248606608731,0.7602749734931391,-2.285061816193406e-05,8.288011273874544e-05,6.082199787945113e-06,8.296751069847803e-05,8.300433232742923e-05
74.4226497308,77.57735026920001,8,0,-0.740444768313087,25.51930852827624,0.830302667605609,-2.278487008122287e-05,8.225414310513443e-05,6.642421340844872e-06,8.235905112255514e-05,8.233188414393655e-05
75.57735026920001,77.57735026920001,8,0,-0.6882806321788628,25.72796507281314,0.8385211776945015,-2.278487008122287e-05,8.288011273874512e-05,6.708169421556012e-06,8.298647315644158e-05,8.296899829736141e-05
76.42264973080002,76.4226497308,8,0,-0.676757922464355,25.87420432418468,0.7560253828589456,-2.286498881123368e-05,8.333886017536244e-05,6.048203062871565e-06,8.342490025079327e-05,8.346113043789163e-05
77.57735026920001,76.4226497308,8,0,-0.6244786165376732,26.0833215478914,0.7627496220795018,-2.286498881123368e-05,8.396621184648262e-05,6.101996976636014e-06,8.405327453796421e-05,8.408494365599557e-05
76.42264973080002,77.57735026920001,8,0,-0.6588266178764224,25.87868715033166,0.8344443417491174,-2.281119489746988e-05,8.333886017536244e-05,6.67555473399294e-06,8.344370952619535e-05,8.343547044458162e-05
77.57735026920001,77.57735026920001,8,0,-0.6065473119497229,26.08780437403846,0.8411685809696194,-2.281119489746988e-05,8.396621184648284e-05,6.729348647756955e-06,8.407213139164318e-05,8.40727818977323e-05
78.4226497308,76.4226497308,8,0,-0.5913851490395956,26.23579452090677,0.7478725041412676,-2.288106809365212e-05,8.442765058613334e-05,5.982980033130141e-06,8.451098089413618e-05,8.454312363501913e-05
79.57735026920001,76.4226497308,8,0,-0.5386082815198581,26.44690199098572,0.7530774275510762,-2.288106809365212e-05,8.506097299637019e-05,6.02461942040861e-06,8.514497135303186e-05,8.517108139867165e-05
78.4226497308,77.57735026920001,8,0,-0.5775053532799976,26.23926446984667,0.8270378054209141,-2.283942870637333e-05,8.442765058613334e-05,6.616302443367313e-06,8.452957817979293e-05,8.454100389800649e-05
79.57735026920001,77.57735026920001,8,0,-0.5247284857602965,26.45037193992548,0.8322427288307227,-2.283942870637333e-05,8.506097299636976e-05,6.657941830645782e-06,8.516358168583888e-05,8.518289873888077e-05
80.4226497308,76.4226497308,8,0,-0.5074897086981762,26.6007892779637,0.7273263488902486,-2.290459849020512e-05,8.552851745644236e-05,5.818610791121989e-06,8.560651921390026e-05,8.563398525553097e-05
81.57735026920001,76.4226497308,8,0,-0.4538203079038565,26.81546688114097,0.7310030423931911,-2.290459849020512e-05,8.61725502659742e-05,5.848024339145529e-06,8.625087750599382e-05,8.627070434789151e-05
80.4226497308,77.57735026920001,8,0,-0.4976851926902208,26.60324040696569,0.8078304500817695,-2.287518494218125e-05,8.552851745644236e-05,6.462643600654155e-06,8.562475198774916e-05,8.565611215626716e-05
81.57735026920001,77.57735026920001,8,0,-0.4440157918959278,26.81791801014286,0.8115071435846983,-2.287518494218125e-05,8.617255026597387e-05,6.492057148677587e-06,8.626908947118695e-05,8.630706041457079e-05
82.4226497308,76.4226497308,8,0,-0.42635045823799,26.97144830050769,0.6942324180891728,-2.294148010676772e-05,8.664971492821499e-05,5.553859344713382e-06,8.67200343875146e-05,8.674168370583014e-05
83.57735026920001,76.4226497308,8,0,-0.3713833506262043,27.19131673095483,0.6963892518110627,-2.294148010676772e-05,8.730932021955642e-05,5.571114014488502e-06,8.737965423023569e-05,8.739170414872883e-05
82.4226497308,77.57735026920001,8,0,-0.4205989016462661,26.97288618965562,0.7766830795068788,-2.292422543699255e-05,8.664971492821499e-05,6.21346463605503e-06,8.673772891404076e-05,8.678850150866702e-05
83.57735026920001,77.57735026920001,8,0,-0.3656317940344804,27.19275462010276,0.7788399132288093,-2.292422543699255e-05,8.730932021955642e-05,6.230719305830475e-06,8.739729458543752e-05,8.745287478034174e-05
84.42264973080002,76.4226497308,8,0,-0.3492704884473063,27.35008806824015,0.6485610990738313,-2.29977360176235e-05,8.779969820912632e-05,5.18848879259065e-06,8.786040736212606e-05,8.787392731695356e-05
85.57735026920001,76.4226497308,8,0,-0.2925927975194034,27.57679883195176,0.6492251518181423,-2.29977360176235e-05,8.847983050026115e-05,5.193801214545138e-06,8.854029322145194e-05,8.85413650702877e-05
84.42264973080002,77.57735026920001,8,0,-0.34749968112909,27.35053077006971,0.7335776354656042,-2.299242359566885e-05,8.779969820912632e-05,5.868621083724834e-06,8.787735848944935e-05,8.794557939717611e-05
85.57735026920001,77.57735026920001,8,0,-0.2908219902012323,27.57724153378114,0.7342416882099287,-2.299242359566885e-05,8.847983050026061e-05,5.87393350567943e-06,8.855715731437245e-05,8.862730017187391e-05
86.4226497308,76.4226497308,8,0,-0.2775692578901996,27.73906732810304,0.5904167418475665,-2.307947548773107e-05,8.898707085624189e-05,4.723333934780532e-06,8.903681804899078e-05,8.903743813779885e-05
87.57735026920002,76.4226497308,8,0,-0.2187630801306222,27.97429203914135,0.589635530698018,-2.307947548773107e-05,8.969274498935682e-05,4.717084245584144e-06,8.974205048223295e-05,8.972529720922935e-05
86.4226497308,77.57735026920001,8,0,-0.2796524876223652,27.73854652067,0.6786260084869059,-2.308572517692757e-05,8.898707085624189e-05,5.429008067895248e-06,8.905278006232233e-05,8.913372176537319e-05
87.57735026920002,77.57735026920001,8,0,-0.2208463098627513,27.97377123170846,0.677844797337371,-2.308572517692757e-05,8.969274498935725e-05,5.422758378698968e-06,8.975789335312122e-05,8.983557051422428e-05
88.42264973080002,76.4226497308,8,0,-0.2125739606857415,28.14077153772586,0.5200480351577217,-2.319285390437506e-05,9.022052808927133e-05,4.160384281261774e-06,9.025866948405125e-05,9.023650561674068e-05
89.57735026920001,76.4226497308,8,0,-0.1512192847449221,28.38619024148914,0.5178915705311704,-2.319285390437506e-05,9.095678420056115e-05,4.143132564249363e-06,9.099436622468247e-05,9.094529388794686e-05
88.42264973080002,77.57735026920001,8,0,-0.2183245330229591,28.13933389464155,0.6120800490689227,-2.321010562138671e-05,9.022052808927133e-05,4.896640392551381e-06,9.027334875653379e-05,9.035681674400369e-05
89.57735026920001,77.57735026920001,8,0,-0.1569698570821307,28.38475259840487,0.6099235844424256,-2.321010562138671e-05,9.095678420056126e-05,4.879388675539404e-06,9.100889556907008e-05,9.107903917822424e-05
90.42264973080002,76.4226497308,8,0,-0.1556097980295821,28.55759590077897,0.4378597473693083,-2.334402807431784e-05,9.150879472091637e-05,3.502877978954467e-06,9.153549694251254e-05,9.147006624555401e-05
91.57735026920001,76.4226497308,8,0,-0.09128774163811126,28.81488412634486,0.4344229171078582,-2.334402807431784e-05,9.228065939761402e-05,3.475383336862866e-06,9.230676879258871e-05,9.219498271779923e-05
90.42264973080002,77.57735026920001,8,0,-0.1647746787269631,28.55530468060463,0.5343428319565138,-2.337152271640998e-05,9.150879472091637e-05,4.274742655652111e-06,9.154854718710308e-05,9.161332669049283e-05
91.57735026920001,77.57735026920001,8,0,-0.1004526223354922,28.81259290617051,0.5309060016950502,-2.337152271640998e-05,9.228065939761402e-05,4.247248013560401e-06,9.231964058505719e-05,9.23508048857017e-05
92.42264973080002,76.4226497308,8,0,-0.1079887907902259,28.9919265928431,0.3444258186055641,-2.353910540480321e-05,9.286055612973011e-05,2.755406548844513e-06,9.287686030502754e-05,9.272575644785346e-05
93.57735026920001,76.4226497308,8,0,-0.04028523590246724,29.26274081239414,0.3398310851181896,-2.353910540480321e-05,9.367299878838321e-05,2.718648680945517e-06,9.368876093368462e-05,9.345094077350083e-05
92.42264973080002,77.57735026920001,8,0,-0.1202414134230443,28.9888634371849,0.4459811509372564,-2.357586327270166e-05,9.286055612973011e-05,3.567849207498051e-06,9.288788126000675e-05,9.289030735158015e-05
93.57735026920001,77.57735026920001,8,0,-0.05253785853529447,29.2596776567359,0.4413864174499633,-2.357586327270166e-05,9.36729987883831e-05,3.531091339599706e-06,9.3699578534868e-05,9.362677730402254e-05
94.4226497308,76.4226497308,8,0,-0.07099674932290867,29.44611974648553,0.2405036994435484,-2.378408539502173e-05,9.428438058821202e-05,1.924029595548387e-06,9.429221850691842e-05,9.396773826150427e-05
95.57735026920002,76.4226497308,8,0,0.0004935407914778978,29.73208090694308,0.2349040716387172,-2.378408539502173e-05,9.514226406958466e-05,1.879232573109737e-06,9.514968735016831e-05,9.465447093036632e-05
94.4226497308,77.57735026920001,8,0,-0.08592909013591843,29.44238666128228,0.3477391346151551,-2.382888241746076e-05,9.428438058821202e-05,2.781913076921241e-06,9.430075886610116e-05,9.41511661404792e-05
95.57735026920002,77.57735026920001,8,0,-0.0144388000215141,29.7283478217399,0.3421395068102561,-2.382888241746076e-05,9.514226406958488e-05,2.737116054482049e-06,9.515800488873167e-05,9.484735313221921e-05
96.4226497308,76.4226497308,8,0,-0.04587800909564521,29.92247774981566,0.1270497284953904,-2.408479182895858e-05,9.578863120668661e-05,1.016397827963123e-06,9.579078565834044e-05,9.511169835657826e-05
97.57735026920001,76.4226497308,8,0,0.02979068903822757,30.22515254235115,0.1206319455043813,-2.408479182895858e-05,9.669665558429308e-05,9.650555640350507e-07,9.669858327558518e-05,9.567413424679427e-05
96.4226497308,77.57735026920001,8,0,-0.06299209707159648,29.91819922782167,0.2405527756962943,-2.413613409288644e-05,9.578863120668661e-05,1.924422205570354e-06,9.579635096839962e-05,9.531052420747736e-05
97.57735026920001,77.57735026920001,8,0,0.01267660106232071,30.22087402035734,0.2341349927052717,-2.413613409288644e-05,9.669665558429362e-05,1.873079941642174e-06,9.670391399846011e-05,9.587974412599273e-05
98.42264973080002,76.4226497308,8,0,-0.03381754958309457,30.42322241689011,0.005235227766041731,-2.444679409217799e-05,9.738136577371482e-05,4.188182212833385e-08,9.738136937322535e-05,9.59734094935922e-05
99.57735026920002,76.4226497308,8,0,0.04640233778609826,30.74410196636688,-0.001776935348767939,-2.444679409217799e-05,9.834400442214515e-05,-1.421548279014351e-08,9.834400483357654e-05,9.622860878311063e-05
98.42264973080002,77.57735026920001,8,0,-0.05251665122255034,30.41854764148025,0.1255650588198468,-2.450289139709636e-05,9.738136577371482e-05,1.004520470558774e-06,9.738343545085144e-05,9.618249854316694e-05
99.57735026920002,77.57735026920001,8,0,0.02770323614660697,30.73942719095688,0.1185528957050371,-2.450289139709636e-05,9.834400442214472e-05,9.484231656402969e-07,9.834583493868313e-05,9.644041907462257e-05
0.4226497308,78.42264973080002,8,0,-0.02851493959151674,6.796353670366886,-0.104187926180813,-5.528330742986362e-06,2.177114369684725e-05,-8.335034094465038e-07,2.177750431475263e-05,2.348764276672405e-05
1.5773502692,78.42264973080002,8,0,0.0395749236850933,7.068713123473326,-0.1105668217096968,-5.528330742986362e-06,2.258822205616657e-05,-8.845345736775744e-07,2.259517710437995e-05,2.374454666811642e-05
0.4226497308,79.5773502692,8,0,-0.04552532766861273,6.792101073347612,-0.002053131265857249,-5.57936190721765e-06,2.177114369684725e-05,-1.642505012685799e-08,2.177114616281854e-05,2.367848468095709e-05
1.5773502692,79.5773502692,8,0,0.02256453560799732,7.064460526454052,-0.008432026794781729,-5.57936190721765e-06,2.258822205616657e-05,-6.745621435825383e-08,2.258826244243414e-05,2.393265942809456e-05
2.4226497308,78.42264973080002,8,0,-0.0446581936119963,7.240668563457861,-0.2159104900958177,-5.935441070324676e-06,2.320586595795475e-05,-1.727283920766542e-06,2.323143871175315e-05,2.405992762148771e-05
3.5773502692,78.42264973080002,8,0,0.02787148650657634,7.530787283932152,-0.2217425864699864,-5.935441070324676e-06,2.407622211937762e-05,-1.773940691759891e-06,2.41024129515821e-05,2.466466050848189e-05
2.4226497308,79.5773502692,8,0,-0.06021045060967123,7.236780499208306,-0.107115969917972,-5.982097841317592e-06,2.320586595795432e-05,-8.569277593437757e-07,2.321215422647229e-05,2.424451682183229e-05
3.5773502692,79.5773502692,8,0,0.01231922950891051,7.526899219682633,-0.1129480662920594,-5.982097841317592e-06,2.40762221193773e-05,-9.035845303364751e-07,2.408301125991155e-05,2.48423523191385e-05
4.422649730800001,78.42264973080002,8,0,-0.07319537548343469,7.710237408045772,-0.3203118752322879,-6.402415127983608e-06,2.473131600613321e-05,-2.562495001858303e-06,2.478395423213769e-05,2.517820183450401e-05
5.577350269200001,78.42264973080002,8,0,0.003420759599654044,8.016701948378126,-0.3253756861532422,-6.402415127983608e-06,2.565070962713028e-05,-2.603005489225938e-06,2.570346971776082e-05,2.597648994204822e-05
4.422649730800001,79.5773502692,8,0,-0.08669887127261067,7.706861534098341,-0.2053876726075868,-6.442925615351026e-06,2.473131600613278e-05,-1.643101380860695e-06,2.475295173476998e-05,2.534983840825506e-05
5.577350269200001,79.5773502692,8,0,-0.01008273618946731,8.013326074430914,-0.2104514835284599,-6.442925615351026e-06,2.565070962713049e-05,-1.683611868227679e-06,2.567277476108066e-05,2.613848069060865e-05
6.422649730800001,78.42264973080002,8,0,-0.1129637347225518,8.203024683327145,-0.4161931416094402,-6.923903697773882e-06,2.63400499744249e-05,-3.329545132875521e-06,2.642315977209772e-05,2.660297651536017e-05
7.577350269200001,78.42264973080002,8,0,-0.03263713208925445,8.524331093860335,-0.4203042544996186,-6.923903697773882e-06,2.730396920602447e-05,-3.362434035996949e-06,2.738634955573287e-05,2.751628155643671e-05
6.422649730800001,79.5773502692,8,0,-0.123926702429622,8.200283941400377,-0.2957032376595483,-6.956792600895092e-06,2.63400499744249e-05,-2.365625901276387e-06,2.638201447762091e-05,2.675724964596591e-05
7.577350269200001,79.5773502692,8,0,-0.04360009979636059,8.521590351933423,-0.299814350549659,-6.956792600895092e-06,2.730396920602404e-05,-2.398514804397272e-06,2.734589648214069e-05,2.765911558786655e-05
8.4226497308,78.42264973080002,8,0,-0.1627342222482153,8.716872857851445,-0.5025739229691972,-7.494247797475444e-06,2.802418052292319e-05,-4.020591383753578e-06,2.813759841165842e-05,2.821177221927928e-05
9.5773502692,78.42264973080002,8,0,-0.07908966571162956,9.051451083997788,-0.505581823773821,-7.494247797475444e-06,2.902791520136222e-05,-4.044654590190568e-06,2.913955547137386e-05,2.91985830053592e-05
8.4226497308,79.5773502692,8,0,-0.1707552910608525,8.714867590648286,-0.3771070881642097,-7.518311003913355e-06,2.802418052292319e-05,-3.016856705313677e-06,2.808808354158439e-05,2.834582216806297e-05
9.5773502692,79.5773502692,8,0,-0.08711073452423035,9.049445816794774,-0.3801149889689419,-7.518311003913355e-06,2.902791520136266e-05,-3.040919911751535e-06,2.909106292091036e-05,2.932007349323059e-05
10.4226497308,78.42264973080002,8,0,-0.221231364372549,9.249536001396853,-0.5786764538579962,-8.107569167109638e-06,2.977550029596796e-05,-4.62941163086397e-06,2.99164077822923e-05,2.993935859423596e-05
11.5773502692,78.42264973080002,8,0,-0.1346725491149194,9.595771262427371,-0.5804613953109802,-8.107569167109638e-06,3.081420607905952e-05,-4.643691162487841e-06,3.095222439435498e-05,3.097638435406014e-05
10.4226497308,79.5773502692,8,0,-0.2259912082471005,9.248346040428215,-0.448838230971511,-8.121848698733293e-06,2.977550029596796e-05,-3.590705847772088e-06,2.986036349731781e-05,3.005142351381431e-05
11.5773502692,79.5773502692,8,0,-0.139432392989471,9.594581301458733,-0.4506231724245085,-8.121848698733293e-06,3.081420607905952e-05,-3.604985379396068e-06,3.089747200572757e-05,3.107525760308293e-05
12.4226497308,78.42264973080002,8,0,-0.2871501319827838,9.798709365338782,-0.6439098814389786,-8.757847914615932e-06,3.158559007467032e-05,-5.151279051511829e-06,3.174936139045449e-05,3.174871346931657e-05
13.5773502692,78.42264973080002,8,0,-0.1980872582201183,10.15496086038944,-0.6443799321902035,-8.757847914615932e-06,3.265434455982231e-05,-5.155039457521628e-06,3.281415423001903e-05,3.282173009262736e-05
12.4226497308,79.5773502692,8,0,-0.2884036006528068,9.798395998171276,-0.5103155707949255,-8.761608320626002e-06,3.158559007467032e-05,-4.082524566359404e-06,3.168859947649171e-05,3.183783021392086e-05
13.5773502692,79.5773502692,8,0,-0.1993407268901231,10.15464749322201,-0.5107856215461776,-8.761608320626002e-06,3.265434455982253e-05,-4.08628497236942e-06,3.275489328280328e-05,3.289738324201046e-05
14.4226497308,78.42264973080002,8,0,-0.3591702825974448,10.36205539316198,-0.6978554111879116,-9.438989218841403e-06,3.344591348419627e-05,-5.582843289503293e-06,3.362684657547547e-05,3.361688259232997e-05
15.5773502692,78.42264973080002,8,0,-0.2680159464289198,10.72667273783608,-0.6969437808977474,-9.438989218841403e-06,3.453976551821857e-05,-5.575550247181979e-06,3.471577574375812e-05,3.471626299806447e-05
14.4226497308,79.5773502692,8,0,-0.3567392684902861,10.36266314668877,-0.561123906935219,-9.431696176519927e-06,3.344591348419627e-05,-4.488991255481752e-06,3.356308492904161e-05,3.368267856044697e-05
15.5773502692,79.5773502692,8,0,-0.2655849323217794,10.72728049136279,-0.5602122766450819,-9.431696176519927e-06,3.453976551821836e-05,-4.481698213160655e-06,3.465366737393776e-05,3.476859224136314e-05
16.4226497308,78.42264973080002,8,0,-0.4359686867085206,10.93722669520302,-0.7402526511043932,-1.014488115362968e-05,3.534790037401647e-05,-5.922021208835146e-06,3.55398154887889e-05,3.552807116189708e-05
17.5773502692,78.42264973080002,8,0,-0.3431342324185449,11.30856451236292,-0.7379153456572928,-1.014488115362968e-05,3.646191382549618e-05,-5.903322765258342e-06,3.664810210227388e-05,3.664659190584673e-05
16.4226497308,79.5773502692,8,0,-0.4297358721830635,10.93878489883438,-0.6010009696694163,-1.012618271005331e-05,3.534790037401647e-05,-4.808007757355331e-06,3.547463570136424e-05,3.557061499002412e-05
17.5773502692,79.5773502692,8,0,-0.3369014178930789,11.31012271599432,-0.5986636642224107,-1.012618271005331e-05,3.646191382549629e-05,-4.789309313779286e-06,3.658467694670409e-05,3.667586820736896e-05
18.4226497308,78.42264973080002,8,0,-0.5162301423241726,11.5218865451163,-0.7709873446940484,-1.086944569153039e-05,3.728302105823148e-05,-6.167898757552387e-06,3.747973058882834e-05,3.747025085290308e-05
19.5773502692,78.42264973080002,8,0,-0.4221223734148722,11.8983176207535,-0.7672011684889727,-1.086944569153039e-05,3.841231428514309e-05,-6.137609347911781e-06,3.860267527921614e-05,3.860200820051572e-05
18.4226497308,79.5773502692,8,0,-0.5061336724437902,11.52441066258639,-0.6298256913301248,-1.083915628188924e-05,3.728302105823148e-05,-5.038605530640998e-06,3.741455263509474e-05,3.748994388705617e-05
19.5773502692,79.5773502692,8,0,-0.4120259035344715,11.90084173822367,-0.6260395151250491,-1.083915628188924e-05,3.84123142851433e-05,-5.008316121000393e-06,3.853930907016263e-05,3.860878678791753e-05
20.4226497308,78.42264973080002,8,0,-0.5986571398676599,12.11372743611695,-0.7900805281275529,-1.160668479647007e-05,3.924285350746836e-05,-6.320644225020424e-06,3.943851609045916e-05,3.943348142925394e-05
21.5773502692,78.42264973080002,8,0,-0.5036752960131601,12.49365481153495,-0.784841418772017,-1.160668479647007e-05,4.038263563372235e-05,-6.278731350176136e-06,4.057151942130514e-05,4.057335118778401e-05
20.4226497308,79.5773502692,8,0,-0.584686181586068,12.11722017568735,-0.6476077623457084,-1.156477192162529e-05,3.924285350746836e-05,-5.180862098765667e-06,3.93745853036105e-05,3.943097867086736e-05
21.5773502692,79.5773502692,8,0,-0.4897043377315504,12.49714755110542,-0.6423686529901589,-1.156477192162529e-05,4.038263563372257e-05,-5.138949223921271e-06,4.050942012182374e-05,4.055840576789114e-05
22.4226497308,78.42264973080002,8,0,-0.6819789716760476,12.7104881807756,-0.7976790184177727,-1.235072325398383e-05,4.121914535582276e-05,-6.381432147342181e-06,4.140852058389487e-05,4.140907361135439e-05
23.5773502692,78.42264973080002,8,0,-0.5865118937055125,13.09235649265774,-0.7910006742935336,-1.235072325398383e-05,4.236475029146917e-05,-6.328005394348269e-06,4.254710564628497e-05,4.255243997514028e-05
22.4226497308,79.5773502692,8,0,-0.6641700540115365,12.71494041019173,-0.6544784014619973,-1.22972965009903e-05,4.121914535582276e-05,-5.235827211695979e-06,4.134690328073487e-05,4.138522638719146e-05
23.5773502692,79.5773502692,8,0,-0.5687029760410285,13.09680872207376,-0.6478000573378124,-1.22972965009903e-05,4.236475029146885e-05,-5.1824004587025e-06,4.248730878383513e-05,4.251671523093779e-05
24.4226497308,78.42264973080002,8,0,-0.7649604950104529,13.30996995817726,-0.794047041317137,-1.309584955057526e-05,4.320387226217559e-05,-6.352376330537096e-06,4.338249243596885e-05,4.338916887097493e-05
25.5773502692,78.42264973080002,8,0,-0.6693839181627936,13.6922762655679,-0.785959784956725,-1.309584955057526e-05,4.43507911843475e-05,-6.2876782796538e-06,4.452232948532278e-05,4.453178836286751e-05
24.4226497308,79.5773502692,8,0,-0.7433944780491015,13.3153614624176,-0.6506821760457298,-1.30311514996912e-05,4.320387226217559e-05,-5.205457408365838e-06,4.332407755317393e-05,4.334498357677197e-05
25.5773502692,79.5773502692,8,0,-0.6478179012014516,13.6976677698082,-0.6425949196852635,-1.30311514996912e-05,4.435079118434739e-05,-5.140759357482108e-06,4.446569924639173e-05,4.447636593624187e-05
26.4226497308,78.42264973080002,8,0,-0.8464107632697009,13.91005161599123,-0.7795587414877566,-1.383655573525603e-05,4.518929378178769e-05,-6.236469931902053e-06,4.535356762935149e-05,4.536652916313791e-05
27.57735026920001,78.42264973080002,8,0,-0.7510846985688215,14.29135587479475,-0.7701085515280716,-1.383655573525603e-05,4.633320655819824e-05,-6.160868412224572e-06,4.64905004078381e-05,4.650446394883171e-05
26.4226497308,79.5773502692,8,0,-0.8212102567107213,13.91635174263084,-0.6365696444363698,-1.376095421557898e-05,4.518929378178726e-05,-5.092557155490958e-06,4.529907250954945e-05,4.530313782145576e-05
27.57735026920001,79.5773502692,8,0,-0.7258841920098056,14.2976560014345,-0.6271194544766983,-1.376095421557898e-05,4.633320655819824e-05,-5.016955635813586e-06,4.643773476420359e-05,4.643053825875575e-05
28.4226497308,78.42264973080002,8,0,-0.9251916448589452,14.50870443158346,-0.7546912826184418,-1.456757680881539e-05,4.716800749695422e-05,-6.037530260947534e-06,4.731526871024406e-05,4.73344348615723e-05
29.5773502692,78.42264973080002,8,0,-0.8304578279780612,14.88763969910699,-0.7439389238052171,-1.456757680881539e-05,4.830481329952483e-05,-5.951511390441737e-06,4.844534197409942e-05,4.84640227783865e-05
28.4226497308,79.5773502692,8,0,-0.8965186880241496,14.51587267079216,-0.6125905572970615,-1.4481557938311e-05,4.716800749695422e-05,-4.900724458376492e-06,4.726524775071684e-05,4.725307423396311e-05
29.5773502692,79.5773502692,8,0,-0.8017848711432745,14.89480793831566,-0.6018381984839046,-1.4481557938311e-05,4.830481329952472e-05,-4.814705587871237e-06,4.839698063683559e-05,4.837288387207838e-05
30.4226497308,78.42264973080002,8,0,-1.000226459646091,15.1040064338766,-0.7200182389888442,-1.528392981796876e-05,4.913300175612197e-05,-5.760145911910754e-06,4.92615130786782e-05,4.928664021607112e-05
31.5773502692,78.42264973080002,8,0,-0.9064058647134914,15.47928881360699,-0.708038422440489,-1.528392981796876e-05,5.025884889531317e-05,-5.664307379523912e-06,5.038100077227903e-05,5.040448493429899e-05
30.4226497308,79.5773502692,8,0,-0.9682802821837377,15.11199297824218,-0.5792873465899993,-1.51880912855817e-05,4.913300175612197e-05,-4.634298772719994e-06,4.921636836315497e-05,4.918863696385998e-05
31.5773502692,79.5773502692,8,0,-0.8744596872511021,15.48727535797273,-0.5673075300416711,-1.51880912855817e-05,5.02588488953136e-05,-4.538460240333369e-06,5.033743514435012e-05,5.02975062190182e-05
32.4226497308,78.42264973080002,8,0,-1.07050858452458,15.69415629319366,-0.6762029984233467,-1.598095250503358e-05,5.107770700583936e-05,-5.409623987386774e-06,5.11866287175946e-05,5.121736048769638e-05
33.57735026920001,78.42264973080002,8,0,-0.9778990159369769,16.06459456754407,-0.6630835120190268,-1.598095250503358e-05,5.218902182889059e-05,-5.304668096152215e-06,5.22920621872853e-05,5.232033308167525e-05
32.4226497308,79.5773502692,8,0,-1.035523287446068,15.70290261746328,-0.5372886455419826,-1.587599661379805e-05,5.107770700583936e-05,-4.298309164335861e-06,5.114662203052029e-05,5.110412045990239e-05
33.57735026920001,79.5773502692,8,0,-0.942913718858474,16.07334089181366,-0.5241691591375544,-1.587599661379805e-05,5.218902182889049e-05,-4.193353273100435e-06,5.225354674277766e-05,5.219896229304204e-05
34.42264973080001,78.42264973080002,8,0,-1.135109916136612,16.27748670516994,-0.623991934654516,-1.665434109577311e-05,5.299604538945308e-05,-4.991935477236128e-06,5.308537547650277e-05,5.312127707425337e-05
35.5773502692,78.42264973080002,8,0,-1.043983703852972,16.6419915543045,-0.609832694721871,-1.665434109577311e-05,5.408955993685676e-05,-4.878661557774968e-06,5.41735710910065e-05,5.420652416210805e-05
34.42264973080001,79.5773502692,8,0,-1.097351942982676,16.28692619845842,-0.4873026162290832,-1.65410671763113e-05,5.299604538945308e-05,-3.898420929832665e-06,5.305064128199128e-05,5.299427726052513e-05
35.5773502692,79.5773502692,8,0,-1.006225730699081,16.6514310475928,-0.4731433762963704,-1.65410671763113e-05,5.408955993685622e-05,-3.785147010370964e-06,5.414023577788946e-05,5.407227632666166e-05
36.4226497308,78.42264973080002,8,0,-1.193189032572916,16.85247713077679,-0.564207159288479,-1.730018660885477e-05,5.488247804454408e-05,-4.513657274307832e-06,5.495297012720952e-05,5.499355295677884e-05
37.5773502692,78.42264973080002,8,0,-1.103790865145437,17.21006980048671,-0.5491191484110786,-1.730018660885477e-05,5.595525605367382e-05,-4.392953187288629e-06,5.602105566749165e-05,5.605850852307582e-05
36.4226497308,79.5773502692,8,0,-1.152954336899578,16.86253580469513,-0.4301099081471934,-1.717948252183475e-05,5.488247804454408e-05,-3.440879265177547e-06,5.492352920812747e-05,5.48543350076679e-05
37.5773502692,79.5773502692,8,0,-1.063556169472109,17.22012847440501,-0.4150218972698337,-1.717948252183475e-05,5.595525605367371e-05,-3.32017517815867e-06,5.599291903513633e-05,5.591295999263157e-05
38.4226497308,78.42264973080002,8,0,-1.243998867789409,17.41776570962417,-0.49773872424053,-1.791500894462544e-05,5.673204936502887e-05,-3.98190979392424e-06,5.67851135538034e-05,5.682985384253228e-05
39.5773502692,78.42264973080002,8,0,-1.156543802409295,17.76758597114463,-0.4818427947158091,-1.791500894462544e-05,5.778151014959024e-05,-3.854742357726473e-06,5.783055275456642e-05,5.787225287926036e-05
38.4226497308,79.5773502692,8,0,-1.201609722390244,17.4283629959741,-0.366556126170359,-1.778784150842806e-05,5.67320493650293e-05,-2.932449009362872e-06,5.676088707077024e-05,5.668001834999679e-05
39.5773502692,79.5773502692,8,0,-1.11415465701013,17.77818325749455,-0.3506601966456516,-1.778784150842806e-05,5.778151014959067e-05,-2.805281573165213e-06,5.780753556612169e-05,5.771703576981433e-05
40.4226497308,78.42264973080002,8,0,-1.286893702069029,17.97216013868619,-0.4255362093483498,-1.849578795756984e-05,5.854042740545103e-05,-3.404289674786799e-06,5.857801860765814e-05,5.862637198269996e-05
41.5773502692,78.42264973080002,8,0,-1.201565392295861,18.31347337777886,-0.4089617464581887,-1.849578795756984e-05,5.956436712272904e-05,-3.271693971665509e-06,5.959863327540434e-05,5.964426465161478e-05
40.4226497308,79.5773502692,8,0,-1.242695134362041,17.98320978061294,-0.2975437446886119,-1.836319225444888e-05,5.854042740545103e-05,-2.380349957508895e-06,5.85588423692125e-05,5.846757294543987e-05
41.5773502692,79.5773502692,8,0,-1.157366824588837,18.32452301970575,-0.2809692817985049,-1.836319225444888e-05,5.956436712272948e-05,-2.24775425438804e-06,5.958057239332088e-05,5.948106122248774e-05
42.4226497308,78.42264973080002,8,0,-1.321335277730512,18.51464730263585,-0.3485996921266904,-1.903999073084631e-05,6.030393959061912e-05,-2.788797537013523e-06,6.032843734083105e-05,6.03798505453029e-05
43.57735026920001,78.42264973080002,8,0,-1.238284457650446,18.84685058295611,-0.3314831449247507,-1.903999073084631e-05,6.13005494315799e-05,-2.651865159398006e-06,6.132242653863619e-05,6.137161591136038e-05
42.4226497308,79.5773502692,8,0,-1.275691151858781,18.52605833410378,-0.2240234620064837,-1.890305835323112e-05,6.030393959061912e-05,-1.79218769605187e-06,6.031407608684743e-05,6.021378962716439e-05
43.57735026920001,79.5773502692,8,0,-1.192640331778715,18.85826161442404,-0.2069069148045305,-1.890305835323112e-05,6.13005494315799e-05,-1.655255318436244e-06,6.130908888060259e-05,6.120215257992713e-05
44.4226497308,78.42264973080002,8,0,-1.346897869130695,19.04440145337294,-0.2679701532510176,-1.954559434391657e-05,6.201960294609796e-05,-2.143761226008141e-06,6.203368652266702e-05,6.208760698449243e-05
45.5773502692,78.42264973080002,8,0,-1.266241127952071,19.36702841808744,-0.2504534522617075,-1.954559434391657e-05,6.298748384024144e-05,-2.00362761809366e-06,6.299964239653892e-05,6.305196560808061e-05
44.4226497308,79.5773502692,8,0,-1.300186666492281,19.05607925403255,-0.1469850414829196,-1.940546073600133e-05,6.201960294609796e-05,-1.175880331863357e-06,6.202384802252052e-05,6.191602731756612e-05
45.5773502692,79.5773502692,8,0,-1.219529925313622,19.37870621874718,-0.1294683404935281,-1.940546073600133e-05,6.298748384024188e-05,-1.035746723948225e-06,6.299073875758868e-05,6.287800641835594e-05
46.42264973080001,78.42264973080002,8,0,-1.363272167075456,19.5607907623947,-0.1847194192247377,-2.001110354455721e-05,6.368514817332339e-05,-1.477755353797901e-06,6.369167054044191e-05,6.374755423943558e-05
47.57735026920001,78.42264973080002,8,0,-1.285091041196874,19.87351526590903,-0.1669483096914049,-2.001110354455721e-05,6.462332168386637e-05,-1.335586477531239e-06,6.462859046248111e-05,6.468357909795731e-05
46.42264973080001,79.5773502692,8,0,-1.31588254165347,19.5726381687502,-0.06744773040681099,-1.986893466829126e-05,6.368514817332339e-05,-5.395818432544879e-07,6.36860193022982e-05,6.357223363240332e-05
47.57735026920001,79.5773502692,8,0,-1.237701415774888,19.88536267226452,-0.04967662087360016,-1.986893466829126e-05,6.462332168386637e-05,-3.974129669888013e-07,6.462378899353366e-05,6.450691855246861e-05
48.4226497308,78.42264973080002,8,0,-1.370267876920204,20.06338210732441,-0.0999397805240851,-2.043556289200418e-05,6.529903704497429e-05,-7.995182441926808e-07,6.530090098183942e-05,6.535821890158537e-05
49.57735026920001,78.42264973080002,8,0,-1.294608277958756,20.36602050317021,-0.08206210629199598,-2.043556289200418e-05,6.620695223251167e-05,-6.564968503359678e-07,6.620819579615961e-05,6.626534426346217e-05
48.4226497308,79.5773502692,8,0,-1.322594078967803,20.07530055681251,0.0135496179181141,-2.029254149814698e-05,6.529903704497429e-05,1.083969433449128e-07,6.529907136462588e-05,6.518096239281111e-05
49.57735026920001,79.5773502692,8,0,-1.246934480006355,20.37793895265831,0.03142729215028454,-2.029254149814698e-05,6.620695223251167e-05,2.514183372022763e-07,6.620713492446757e-05,6.608779949116868e-05
50.42264973080001,78.42264973080002,8,0,-1.367814973731243,20.55194399966417,-0.01473344798082004,-2.081856311567131e-05,6.686047277791032e-05,-1.178675838465603e-07,6.686051239046109e-05,6.691875574609457e-05
51.57735026920001,78.42264973080002,8,0,-1.294686961534777,20.84445604845003,0.003102575425590584,-2.081856311567131e-05,6.773800892426792e-05,2.482060340472467e-08,6.773801066344529e-05,6.77967837530943e-05
50.42264973080001,79.5773502692,8,0,-1.320252244647337,20.56383468193514,0.09495857031385302,-2.067587492841959e-05,6.686047277791032e-05,7.596685625108242e-07,6.686212090887148e-05,6.674138749353456e-05
51.57735026920001,79.5773502692,8,0,-1.24712423245087,20.85634673072101,0.1127945937202772,-2.067587492841959e-05,6.773800892426792e-05,9.023567497622176e-07,6.774031123942969e-05,6.762018602493398e-05
52.4226497308,78.42264973080002,8,0,-1.355963603794372,21.02644761117328,0.06979797828582769,-2.116024162108061e-05,6.836940323879e-05,5.583838262866216e-07,6.837027387070736e-05,6.842895824730821e-05
53.5773502692,78.42264973080002,8,0,-1.285341503744422,21.30893601137308,0.08744546230068755,-2.116024162108061e-05,6.921686843938939e-05,6.995636984055004e-07,6.921822216169127e-05,6.927806307782346e-05
52.4226497308,79.5773502692,8,0,-1.308903646421285,21.03821260051656,0.1757311283608065,-2.101906174896136e-05,6.836940323879e-05,1.405849026886452e-06,6.837493048798466e-05,6.825331277668289e-05
53.5773502692,79.5773502692,8,0,-1.238281546371327,21.32070100071639,0.1933786123756664,-2.101906174896136e-05,6.92168684393895e-05,1.547028899005331e-06,6.92234986214359e-05,6.910424869876608e-05
54.42264973080001,78.42264973080002,8,0,-1.334882666570375,21.48706590772954,0.1525638542164724,-2.146127725920883e-05,6.982651703799081e-05,1.220510833731779e-06,6.98305963898425e-05,6.988926489453959e-05
55.57735026920001,78.42264973080002,8,0,-1.266705521102643,21.75977448960047,0.1698788707595934,-2.146127725920883e-05,7.06446427836036e-05,1.359030966076747e-06,7.064965566619012e-05,7.070999448104218e-05
54.42264973080001,79.5773502692,8,0,-1.288709289121836,21.49860925209167,0.2548295724180173,-2.132275712686321e-05,6.982651703799081e-05,2.038636579344139e-06,6.983791460402376e-05,6.971717773627074e-05
55.57735026920001,79.5773502692,8,0,-1.220532143654103,21.7713178339626,0.2721445889612467,-2.132275712686321e-05,7.06446427836036e-05,2.177156711689974e-06,7.065752601027346e-05,7.054079508615575e-05
56.4226497308,78.42264973080002,8,0,-1.304857152363505,21.93417094893033,0.2324944912658806,-2.172287964670748e-05,7.123323275846785e-05,1.859955930127045e-06,7.124253577735459e-05,7.130076129195973e-05
57.57735026920001,78.42264973080002,8,0,-1.23902948814604,22.19748160580019,0.249337609082201,-2.172287964670748e-05,7.202316472907744e-05,1.994700872657608e-06,7.203377419360184e-05,7.209403664837795e-05
56.4226497308,79.5773502692,8,0,-1.259942171520146,21.94539969414117,0.3312359875922138,-2.15881347041774e-05,7.123323275846785e-05,2.64988790073771e-06,7.125214132430495e-05,7.113405902897869e-05
57.57735026920001,79.5773502692,8,0,-1.194114507302654,22.20871035101114,0.3480791054085342,-2.15881347041774e-05,7.202316472907776e-05,2.784632843268273e-06,7.204386860114628e-05,7.193126891325345e-05
58.4226497308,78.42264973080002,8,0,-1.266284346262883,22.36832945615939,0.3085506732501475,-2.194677347296873e-05,7.259168173672035e-05,2.46840538600118e-06,7.260779154894418e-05,7.26651781615672e-05
59.57735026920001,78.42264973080002,8,0,-1.202677231321005,22.6227579159269,0.3247883718330316,-2.194677347296873e-05,7.335496711602287e-05,2.598306974664253e-06,7.337267388867383e-05,7.343229043756015e-05
58.4226497308,79.5773502692,8,0,-1.222983816708381,22.37915458854802,0.4039613456629089,-2.181687188430523e-05,7.259168173672035e-05,3.231690765303271e-06,7.261932956944173e-05,7.250566788716763e-05
59.57735026920001,79.5773502692,8,0,-1.159376701766504,22.63358304831553,0.4201990442458201,-2.181687188430523e-05,7.335496711602287e-05,3.361592353966561e-06,7.3384641810037e-05,7.327774518350858e-05
60.4226497308,78.42264973080002,8,0,-1.21966903658572,22.79029678902487,0.3797325860069171,-2.21351783482942e-05,7.390468495414816e-05,3.037860688055337e-06,7.392870177906662e-05,7.39848854648273e-05
61.5773502692,78.42264973080002,8,0,-1.15812139622346,23.03648735047391,0.3952385303512991,-2.21351783482942e-05,7.464325663849528e-05,3.161908242810393e-06,7.466907591630467e-05,7.472749087940232e-05
60.4226497308,79.5773502692,8,0,-1.178319851667296,22.80063408525448,0.4720540465502805,-2.201113079353893e-05,7.390468495414816e-05,3.776432372402244e-06,7.394184232665985e-05,7.383434361538448e-05
61.5773502692,79.5773502692,8,0,-1.116772211305099,23.04682464670327,0.4875599908947168,-2.201113079353893e-05,7.464325663849452e-05,3.900479927157734e-06,7.468259151799462e-05,7.45829215144063e-05
62.42264973080001,78.42264973080002,8,0,-1.165617884806437,23.20100949802392,0.4450880939795937,-2.229078482979973e-05,7.517572470152169e-05,3.56070475183675e-06,7.520823430634153e-05,7.526288290822576e-05
63.57735026920001,78.42264973080002,8,0,-1.105938041696978,23.43972887046176,0.4597442629863816,-2.229078482979973e-05,7.58918828188352e-05,3.677954103891053e-06,7.592631507758414e-05,7.5982995718426e-05
62.42264973080001,79.5773502692,8,0,-1.12653476745484,23.21078027736182,0.5346078586437419,-2.217353547774494e-05,7.517572470152169e-05,4.276862869149935e-06,7.522267610677639e-05,7.512304339322528e-05
63.57735026920001,79.5773502692,8,0,-1.066854924345381,23.44949964979966,0.5492640276505163,-2.217353547774494e-05,7.58918828188352e-05,4.39411222120413e-06,7.594108094780915e-05,7.585010590947924e-05
64.4226497308,78.42264973080002,8,0,-1.10483312296493,23.60157663869722,0.5037203407595671,-2.241672730444555e-05,7.640891174220303e-05,4.029762726076537e-06,7.644997457559302e-05,7.650278708810831e-05
65.57735026920001,78.42264973080002,8,0,-1.04680052543408,23.83370702882062,0.5174180122502297,-2.241672730444555e-05,7.710530291257323e-05,4.139344098001837e-06,7.71483254618654e-05,7.720277070927636e-05
64.4226497308,79.5773502692,8,0,-1.068305998989685,23.61070841969103,0.5907692370558546,-2.230714593251981e-05,7.640891174220303e-05,4.726153896446837e-06,7.646544698642618e-05,7.637532859325077e-05
65.57735026920001,79.5773502692,8,0,-1.010273401458845,23.84283880981439,0.6044669085465172,-2.230714593251981e-05,7.710530291257312e-05,4.835735268372138e-06,7.716407452379521e-05,7.708320113440935e-05
66.4226497308,78.42264973080002,8,0,-1.038105743508811,23.99327003856836,0.5547946953888763,-2.251655441008288e-05,7.760894871822578e-05,4.43835756311101e-06,7.765811039472455e-05,7.770881543993797e-05
67.57735026920001,78.42264973080002,8,0,-0.9814728468630962,24.21980162515122,0.5674353008278236,-2.251655441008288e-05,7.828854347797435e-05,4.539482406622588e-06,7.833962339436775e-05,7.839137173389867e-05
66.4226497308,79.5773502692,8,0,-1.004397462338592,24.00169710886091,0.6397440403575695,-2.241542956657222e-05,7.760894871822578e-05,5.117952322860556e-06,7.767437355462834e-05,7.759534773217752e-05
67.57735026920001,79.5773502692,8,0,-0.9477645656928511,24.22822869544388,0.6523846457964083,-2.241542956657222e-05,7.828854347797468e-05,5.219077166371267e-06,7.835611901603988e-05,7.828668571710463e-05
68.42264973080002,78.42264973080002,8,0,-0.9663083355489821,24.37751370261608,0.5975451103910786,-2.25941976358496e-05,7.878109051681062e-05,4.780360883128629e-06,7.883741381150856e-05,7.888576694827616e-05
69.57735026920001,78.42264973080002,8,0,-0.9108026042550641,24.59953662779175,0.6090409820311032,-2.25941976358496e-05,7.944715929233763e-05,4.872327856248826e-06,7.950528783879509e-05,7.955392349907107e-05
68.42264973080002,79.5773502692,8,0,-0.9356526778420875,24.3851776170428,0.6808037073319966,-2.250223066272892e-05,7.878109051681062e-05,5.446429658655973e-06,7.88542570123826e-05,7.878781596883206e-05
69.57735026920001,79.5773502692,8,0,-0.8801469465481873,24.6072005422184,0.6922995789720348,-2.250223066272892e-05,7.944715929233742e-05,5.538396631776278e-06,7.952232217322793e-05,7.946559129289231e-05
70.4226497308,78.42264973080002,8,0,-0.8903877011752099,24.75587252618125,0.6312799987875847,-2.265393866470567e-05,7.993110224472017e-05,5.050239990300677e-06,7.999322019382673e-05,8.003899917151065e-05
71.57735026920001,78.42264973080002,8,0,-0.8357137046415843,24.97456851231575,0.6415550405519812,-2.265393866470567e-05,8.058719020312367e-05,5.132440324415849e-06,8.065093826726646e-05,8.069609400339265e-05
70.4226497308,79.5773502692,8,0,-0.8629875898034314,24.7627225540242,0.7132909935880088,-2.257173833059034e-05,7.993110224472017e-05,5.706327948704071e-06,8.0010458555188e-05,7.995799066849265e-05
71.57735026920001,79.5773502692,8,0,-0.808313593269788,24.98141854015877,0.7235660353524325,-2.257173833059034e-05,8.058719020312389e-05,5.78852828281946e-06,8.066832890386909e-05,8.062547545624487e-05
72.4226497308,78.42264973080002,8,0,-0.8113573567420467,25.13004045685735,0.655387773611967,-2.270037590706043e-05,8.106521534733714e-05,5.243102188895736e-06,8.113140442854704e-05,8.117440038788969e-05
73.57735026920001,78.42264973080002,8,0,-0.7571989381638593,25.3466741311701,0.664378094162186,-2.270037590706043e-05,8.171511637027539e-05,5.315024753297488e-06,8.178270981837283e-05,8.182406290009379e-05
72.4226497308,79.5773502692,8,0,-0.787383168608021,25.13603400389086,0.7366254014792352,-2.262845334265835e-05,8.106521534733714e-05,5.893003211833881e-06,8.114887400318919e-05,8.111164181801909e-05
73.57735026920001,79.5773502692,8,0,-0.7332247500298426,25.35266767820357,0.7456157220294811,-2.262845334265835e-05,8.171511637027529e-05,5.964925776235849e-06,8.180029487744509e-05,8.177238823162139e-05
74.4226497308,78.42264973080002,8,0,-0.7302899881395506,25.50182821027717,0.6693422227950816,-2.273839053026829e-05,8.219008226339856e-05,5.354737782360653e-06,8.225835394377655e-05,8.229835426467808e-05
75.57735026920001,78.42264973080002,8,0,-0.6763124940569449,25.71773818660759,0.6769967745469673,-2.273839053026829e-05,8.283781219238983e-05,5.415974196375738e-06,8.290722533427878e-05,8.29444798581645e-05
74.4226497308,79.5773502692,8,0,-0.7098778501344496,25.50693124477844,0.7503084639189496,-2.267715411625299e-05,8.219008226339856e-05,6.002467711351597e-06,8.227590543706106e-05,8.22550146859272e-05
75.57735026920001,79.5773502692,8,0,-0.6559003560518617,25.72284122110879,0.7579630156708352,-2.267715411625299e-05,8.283781219238962e-05,6.063704125366682e-06,8.292485719102368e-05,8.291282826662126e-05
76.42264973080002,78.42264973080002,8,0,-0.6483098875271631,25.87315060033912,0.672707913157398,-2.277311212035821e-05,8.331272983110689e-05,5.381663305259183e-06,8.338093801509567e-05,8.341769174490037e-05
77.57735026920001,78.42264973080002,8,0,-0.5941624550730413,26.0897403301556,0.6789891841826808,-2.277311212035821e-05,8.396249902055636e-05,5.431913473461446e-06,8.403156360921229e-05,8.406440506877679e-05
76.42264973080002,79.5773502692,8,0,-0.6315598314596516,25.87733811435599,0.7539290618385677,-2.272286195215568e-05,8.331272983110689e-05,6.031432494708541e-06,8.339842935824472e-05,8.33947794273866e-05
77.57735026920001,79.5773502692,8,0,-0.5774123990055475,26.09392784417241,0.7602103328637964,-2.272286195215568e-05,8.396249902055614e-05,6.08168266291037e-06,8.404910149282266e-05,8.405368090472627e-05
78.4226497308,78.42264973080002,8,0,-0.5665853534753111,26.24601349417167,0.6651458283655451,-2.280988392645833e-05,8.444051146412959e-05,5.321166626924361e-06,8.450647255151823e-05,8.453961950036465e-05
79.57735026920001,78.42264973080002,8,0,-0.5119032623837487,26.46474185853792,0.6700306349343191,-2.280988392645833e-05,8.509669655722835e-05,5.360245079474553e-06,8.5163222908452e-05,8.519121614813143e-05
78.4226497308,79.5773502692,8,0,-0.5535592026249585,26.24927003188426,0.7471689650029572,-2.277080547390727e-05,8.444051146412959e-05,5.977351720023658e-06,8.452376063247388e-05,8.453795699268175e-05
79.57735026920001,79.5773502692,8,0,-0.4988771115334227,26.4679983962504,0.7520537715718532,-2.277080547390727e-05,8.509669655722802e-05,6.016430172574826e-06,8.518052468599644e-05,8.520212239258342e-05
80.4226497308,78.42264973080002,8,0,-0.4863209887067246,26.6225003480032,0.6464194461156241,-2.285422744226407e-05,8.55810579045756e-05,5.171355568924993e-06,8.564267928906004e-05,8.567160355158161e-05
81.57735026920001,78.42264973080002,8,0,-0.4307280956125954,26.84487192037971,0.649899871934753,-2.285422744226407e-05,8.624817262170516e-05,5.199198975478023e-06,8.63100785481464e-05,8.633244969741261e-05
80.4226497308,79.5773502692,8,0,-0.4770398531891376,26.6248206318826,0.7298087857569944,-2.282638403571131e-05,8.55810579045756e-05,5.838470286055955e-06,8.565961121277701e-05,8.569179992992641e-05
81.57735026920001,79.5773502692,8,0,-0.4214469600949897,26.84719220425919,0.7332892115761231,-2.282638403571131e-05,8.624817262170537e-05,5.866313692608986e-06,8.632699207183897e-05,8.636545844142785e-05
82.4226497308,78.42264973080002,8,0,-0.408749781418801,27.00475822426329,0.6164014488634051,-2.29118058799508e-05,8.674222614277758e-05,4.931211590907241e-06,8.679763807195698e-05,8.682116479090034e-05
83.57735026920001,78.42264973080002,8,0,-0.3518610644061173,27.23231309231403,0.6184859727473003,-2.29118058799508e-05,8.742489074692978e-05,4.947887781978403e-06,8.748033308578746e-05,8.749551311096038e-05
82.4226497308,79.5773502692,8,0,-0.4031910510616026,27.00614790685259,0.701734524382431,-2.28951296888792e-05,8.674222614277758e-05,5.613876195059448e-06,8.681404239417904e-05,8.686358473467072e-05
83.57735026920001,79.5773502692,8,0,-0.3463023340489189,27.23370277490333,0.7038190482664481,-2.28951296888792e-05,8.742489074692978e-05,5.630552386131586e-06,8.749668755434877e-05,8.755083256495249e-05
84.42264973080002,78.42264973080002,8,0,-0.3351248093351922,27.39498313485222,0.5750812397261283,-2.298838589775439e-05,8.793204587899525e-05,4.600649917809027e-06,8.797973070125533e-05,8.799549836124547e-05
85.57735026920001,78.42264973080002,8,0,-0.2765490606663352,27.62928612952765,0.575796086462824,-2.298838589775439e-05,8.863495486302153e-05,4.606368691702591e-06,8.868245748743242e-05,8.868713514805746e-05
84.42264973080002,79.5773502692,8,0,-0.3332185513706163,27.39545969934336,0.6629448627294134,-2.298266712386066e-05,8.793204587899525e-05,5.303558901835308e-06,8.799540915300594e-05,8.806022742712744e-05
85.57735026920001,79.5773502692,8,0,-0.2746428027017682,27.62976269401875,0.6636597094661226,-2.298266712386066e-05,8.863495486302142e-05,5.309277675728981e-06,8.869805534449882e-05,8.87646722414813e-05
86.4226497308,78.42264973080002,8,0,-0.2667103619227449,27.79540450282768,0.5225734005991165,-2.308979676041492e-05,8.915866269858675e-05,4.180587204792932e-06,8.919757470878923e-05,8.920073677131681e-05
87.57735026920002,78.42264973080002,8,0,-0.2060530759961354,28.03803364653411,0.5219641401292557,-2.308979676041492e-05,8.988655012970607e-05,4.175713121034046e-06,8.992512154207152e-05,8.991228571415889e-05
86.4226497308,79.5773502692,8,0,-0.2683350565090405,27.79499832918111,0.6135593294890316,-2.309467084417381e-05,8.915866269858675e-05,4.908474635912253e-06,8.921229499795201e-05,8.92875415448577e-05
87.57735026920002,79.5773502692,8,0,-0.2076777705824577,28.03762747288744,0.6129500690192115,-2.309467084417381e-05,8.988655012970575e-05,4.903600552153692e-06,8.993973150165106e-05,9.001160223310704e-05
88.42264973080002,78.42264973080002,8,0,-0.2047722374578225,28.20826848700534,0.459127183068605,-2.32218859494693e-05,9.043027694838335e-05,3.67301746454884e-06,9.04599454036112e-05,9.0440486983317e-05
89.57735026920001,78.42264973080002,8,0,-0.1416387488738229,28.46080244134134,0.4572605908384985,-2.32218859494693e-05,9.118787881139134e-05,3.658084726707988e-06,9.121711181790319e-05,9.117201074449858e-05
88.42264973080002,79.5773502692,8,0,-0.2097498167382152,28.20702409218524,0.5538274159446582,-2.323681868731048e-05,9.043027694838335e-05,4.430619327557266e-06,9.047343573763459e-05,9.054876720094909e-05
89.57735026920001,79.5773502692,8,0,-0.1466163281541615,28.45955804652146,0.5519608237145924,-2.323681868731048e-05,9.118787881139199e-05,4.415686589716739e-06,9.123046366109441e-05,9.129226849695275e-05
90.42264973080002,78.42264973080002,8,0,-0.1505669396172093,28.63581987344089,0.3851370646465967,-2.339047010552778e-05,9.175507714670461e-05,3.081096517172774e-06,9.177568466756618e-05,9.171288075084538e-05
91.57735026920001,78.42264973080002,8,0,-0.08456587235879454,28.89982414247455,0.3821032411902253,-2.339047010552778e-05,9.254708995380559e-05,3.056825929521802e-06,9.256723562826565e-05,9.245904132735615e-05
90.42264973080002,79.5773502692,8,0,-0.1586571355008477,28.63379732446998,0.4841386655342729,-2.34147406931787e-05,9.175507714670461e-05,3.873109324274183e-06,9.178763067763301e-05,9.184160705690103e-05
91.57735026920001,79.5773502692,8,0,-0.09265606824243289,28.89780159350364,0.4811048420778745,-2.34147406931787e-05,9.254708995380559e-05,3.848838736622995e-06,9.257901744684071e-05,9.259892661729667e-05
92.42264973080002,78.42264973080002,8,0,-0.1053294749425264,29.08028220674756,0.3011543335757817,-2.360128008521413e-05,9.314116664154619e-05,2.409234668606253e-06,9.31535952696244e-05,9.300457123174221e-05
93.57735026920001,78.42264973080002,8,0,-0.03607656765352729,29.35729383590355,0.2970690641689353,-2.360128008521413e-05,9.397220152901418e-05,2.376552513351483e-06,9.398420981731021e-05,9.374882607112569e-05
92.42264973080002,79.5773502692,8,0,-0.1162235266943155,29.07755869380961,0.4050336945092396,-2.36339622404695e-05,9.314116664154619e-05,3.240269556073917e-06,9.316364001983657e-05,9.315219505410147e-05
93.57735026920001,79.5773502692,8,0,-0.04697061940533498,29.35457032296553,0.4009484251023526,-2.36339622404695e-05,9.397220152901396e-05,3.20758740081882e-06,9.399406837673705e-05,9.390643297334505e-05
94.4226497308,78.42264973080002,8,0,-0.07025943986714012,29.54383581513854,0.2078995857010899,-2.385989885968567e-05,9.459648216033701e-05,1.663196685608719e-06,9.46023199355432e-05,9.427844603100554e-05
95.57735026920002,78.42264973080002,8,0,0.002618186429523384,29.83534632032519,0.2029069015020116,-2.385989885968567e-05,9.547101367589697e-05,1.623255212016093e-06,9.547653369486127e-05,9.49811398307779e-05
94.4226497308,79.5773502692,8,0,-0.08357326439826895,29.54050735900575,0.3172160251460718,-2.389984033327906e-05,9.459648216033701e-05,2.537728201168574e-06,9.461006765823366e-05,9.444275327974514e-05
95.57735026920002,79.5773502692,8,0,-0.01069563810157881,29.83201786419251,0.3122233409469529,-2.389984033327906e-05,9.54710136758973e-05,2.497786727575623e-06,9.54840785396481e-05,9.515376968677981e-05
96.4226497308,78.42264973080002,8,0,-0.04650508616484395,30.02859337844005,0.1062759276445317,-2.417169097847954e-05,9.612870287994003e-05,8.502074211562535e-07,9.613020504383539e-05,9.544839719818233e-05
97.57735026920001,78.42264973080002,8,0,0.0303539809644704,30.33602964695731,0.1005508083851652,-2.417169097847954e-05,9.705101168549178e-05,8.044064670813212e-07,9.70523461356959e-05,9.602227426642399e-05
96.4226497308,79.5773502692,8,0,-0.0617720708565237,30.02477663226713,0.2215645283384741,-2.421749193255458e-05,9.612870287994003e-05,1.772516226707793e-06,9.61352291423832e-05,9.56262473628967e-05
97.57735026920001,79.5773502692,8,0,0.01508699627274446,30.3322129007842,0.2158394090791076,-2.421749193255458e-05,9.705101168549124e-05,1.726715272632861e-06,9.70571579527358e-05,9.620606397251027e-05
98.42264973080002,78.42264973080002,8,0,-0.0351450689619881,30.53657270066275,-0.002617416768350631,-2.454172238120856e-05,9.774514869729037e-05,-2.093933414680504e-08,9.774514959365747e-05,9.632741537948892e-05
99.57735026920002,78.42264973080002,8,0,0.04603066255271315,30.86127562672155,-0.008866281341925186,-2.454172238120856e-05,9.871925747546677e-05,-7.093025073540149e-08,9.871926767962883e-05,9.658719933565417e-05
98.42264973080002,79.5773502692,8,0,-0.05180870782485414,30.53240679094703,0.1191461805037674,-2.459171329779715e-05,9.774514869729037e-05,9.531694440301393e-07,9.774700528856322e-05,9.651424648963482e-05
99.57735026920002,79.5773502692,8,0,0.029367023689856,30.85710971700587,0.1128973159301929,-2.459171329779715e-05,9.871925747546688e-05,9.031785274415428e-07,9.872091126285348e-05,9.677640017484579e-05
0.4226497308,80.4226497308,8,0,-0.02891998935333273,6.9025011378846,-0.09735887189461301,-5.614544876238344e-06,2.211113963271338e-05,-7.788709751569041e-07,2.211660857215969e-05,2.381025206401016e-05
1.5773502692,80.4226497308,8,0,0.03833067605459251,7.171503799516301,-0.1029951837319649,-5.614544876238344e-06,2.291814761760849e-05,-8.239614698557192e-07,2.292409492719019e-05,2.406256926490973e-05
0.4226497308,81.57735026920001,8,0,-0.04395015425279336,6.898743596659735,0.003517126217220459,-5.659635370936725e-06,2.211113963271338e-05,2.813700973776367e-08,2.211114675973013e-05,2.39794053350738e-05
1.5773502692,81.57735026920001,8,0,0.02330051115513188,7.167746258291436,-0.00211918562006367,-5.659635370936725e-06,2.291814761760849e-05,-1.695348496050936e-08,2.291815013197976e-05,2.422937677952869e-05
2.4226497308,80.4226497308,8,0,-0.04414339286865721,7.341278430775335,-0.1964123694142328,-6.014281601799971e-06,2.3527405692776e-05,-1.571298955313862e-06,2.35482849726649e-05,2.437202434453551e-05
3.5773502692,80.4226497308,8,0,0.02731627641923495,7.627117107926904,-0.2015712316426967,-6.014281601799971e-06,2.43849217242307e-05,-1.612569853141573e-06,2.44062919781842e-05,2.496515414386976e-05
2.4226497308,81.57735026920001,8,0,-0.05790035881108313,7.337839189289729,-0.08922286548246253,-6.055552499627248e-06,2.3527405692776e-05,-7.137829238597002e-07,2.353171063693425e-05,2.453579217457819e-05
3.5773502692,81.57735026920001,8,0,0.01355931047682679,7.623677866441369,-0.09438172771087218,-6.055552499627248e-06,2.438492172423092e-05,-7.550538216869775e-07,2.43896031444896e-05,2.512296315765539e-05
4.422649730800001,80.4226497308,8,0,-0.07114117266945419,7.804016380335885,-0.2891689450146046,-6.470864856810961e-06,2.502976535521039e-05,-2.313351560116837e-06,2.507218037412751e-05,2.54685025876288e-05
5.577350269200001,80.4226497308,8,0,0.004211288280120851,8.105426224134186,-0.2936465624933426,-6.470864856810961e-06,2.593399488660529e-05,-2.349172499946741e-06,2.597651458718721e-05,2.625054631061341e-05
4.422649730800001,81.57735026920001,8,0,-0.08308148594589015,7.801031302016777,-0.1761402535902694,-6.506685796640269e-06,2.502976535521039e-05,-1.409122028722155e-06,2.504549821930331e-05,2.562106258097906e-05
5.577350269200001,81.57735026920001,8,0,-0.007729024996333322,8.102441145815003,-0.180617871068994,-6.506685796640269e-06,2.593399488660508e-05,-1.444942968551952e-06,2.595007674458241e-05,2.639472452970073e-05
6.422649730800001,80.4226497308,8,0,-0.1088546499416756,8.288891407832066,-0.374519026525731,-6.979448006079014e-06,2.661153622501595e-05,-2.996152212205849e-06,2.667821441530675e-05,2.686402811561146e-05
7.577350269200001,80.4226497308,8,0,-0.02995066415407432,8.604507350982471,-0.3781448783895608,-6.979448006079014e-06,2.755838405446717e-05,-3.025159027116486e-06,2.762450069348717e-05,2.775804785347184e-05
6.422649730800001,81.57735026920001,8,0,-0.1185235882452216,8.286474173256179,-0.2561630478444509,-7.008454820989652e-06,2.661153622501595e-05,-2.049304382755607e-06,2.664273607516494e-05,2.700147918924423e-05
7.577350269200001,81.57735026920001,8,0,-0.03961960245762031,8.602090116406584,-0.259788899708267,-7.008454820989652e-06,2.755838405446717e-05,-2.078311197666136e-06,2.758959518799364e-05,2.788550179819505e-05
8.4226497308,80.4226497308,8,0,-0.1561490143421511,8.793944491613502,-0.4515494567106391,-7.534832439185684e-06,2.826554158463692e-05,-3.612395653685113e-06,2.83564369651524e-05,2.843872141863987e-05
9.5773502692,80.4226497308,8,0,-0.07405380834139041,9.122325315616544,-0.4541837309783271,-7.534832439185684e-06,2.925068405664605e-05,-3.633469847826617e-06,2.934018978666436e-05,2.940433644426665e-05
8.4226497308,81.57735026920001,8,0,-0.1631737457228155,8.792188308768335,-0.3284066477094437,-7.555906633327676e-06,2.826554158463692e-05,-2.627253181675549e-06,2.831364964615601e-05,2.855847694242814e-05
9.5773502692,81.57735026920001,8,0,-0.08107853972209078,9.120569132771234,-0.3310409219771859,-7.555906633327676e-06,2.925068405664562e-05,-2.648327375817487e-06,2.929826102239765e-05,2.951305661983128e-05
10.4226497308,80.4226497308,8,0,-0.2118334339515879,9.317114345622306,-0.5195304482668808,-8.131558465142926e-06,2.998423265315265e-05,-4.156243586135046e-06,3.009719970710099e-05,3.012919759089542e-05
11.5773502692,80.4226497308,8,0,-0.1269209703221543,9.65676420014004,-0.5210614537089333,-8.131558465142926e-06,3.100318221670585e-05,-4.168491629671467e-06,3.111387231566089e-05,3.114394004637526e-05
10.4226497308,81.57735026920001,8,0,-0.215916115130431,9.316093675327595,-0.3921617528227168,-8.143806508679454e-06,2.998423265315265e-05,-3.137294022581734e-06,3.004866037011162e-05,3.022961540142347e-05
11.5773502692,81.57735026920001,8,0,-0.1310036515009974,9.65574352984533,-0.3936927582648235,-8.143806508679454e-06,3.100318221670585e-05,-3.149542066118588e-06,3.10664285553853e-05,3.123271072202306e-05
12.4226497308,80.4226497308,8,0,-0.2746785843123263,9.856267184617886,-0.5779024937515702,-8.763985217493753e-06,3.17597978582271e-05,-4.623219950012562e-06,3.189123339979558e-05,3.189978176513527e-05
13.5773502692,80.4226497308,8,0,-0.1873316833980945,10.20565478827481,-0.578244168376307,-8.763985217493753e-06,3.280796066919788e-05,-4.625953347010456e-06,3.293625396432392e-05,3.295003728787576e-05
12.4226497308,81.57735026920001,8,0,-0.2755897166448675,9.856039401534751,-0.4468821423801684,-8.766718614491376e-06,3.17597978582271e-05,-3.575057139041347e-06,3.183848871088666e-05,3.197991980606367e-05
13.5773502692,81.57735026920001,8,0,-0.1882428157306539,10.20542700519161,-0.4472238170049052,-8.766718614491376e-06,3.280796066919766e-05,-3.577790536039242e-06,3.288479212676046e-05,3.301823766702683e-05
14.4226497308,80.4226497308,8,0,-0.3434319381281479,10.4092233825031,-0.6262637142720896,-9.426360908012556e-06,3.358426037451245e-05,-5.010109714176716e-06,3.372966994330809e-05,3.372851980790089e-05
15.5773502692,80.4226497308,8,0,-0.2540379859665642,10.76679919114944,-0.625353316482938,-9.426360908012556e-06,3.465698780045145e-05,-5.002826531863504e-06,3.479847094611085e-05,3.480511808276374e-05
14.4226497308,81.57735026920001,8,0,-0.3410042106903743,10.40983031436255,-0.492172786029782,-9.419077725699235e-06,3.358426037451245e-05,-3.937382288238256e-06,3.36741988782969e-05,3.378796445691562e-05
15.5773502692,81.57735026920001,8,0,-0.2516102585287729,10.76740612300895,-0.4912623882405084,-9.419077725699235e-06,3.465698780045167e-05,-3.930099105924068e-06,3.474442244061955e-05,3.485257929396497e-05
16.4226497308,80.4226497308,8,0,-0.4168311961199347,10.97378140222154,-0.6643579848757982,-1.011288494936102e-05,3.544956544400488e-05,-5.314863879006385e-06,3.560403657368346e-05,3.560036721239231e-05
17.5773502692,80.4226497308,8,0,-0.3257782823462607,11.33799305731624,-0.6621540205928712,-1.011288494936102e-05,3.654220040928897e-05,-5.29723216474297e-06,3.669208123867817e-05,3.669642996444201e-05
16.4226497308,81.57735026920001,8,0,-0.4109539580320933,10.9752507117435,-0.5277786142153149,-1.00952532350975e-05,3.544956544400488e-05,-4.222228913722519e-06,3.55472114471512e-05,3.563910796741671e-05
17.5773502692,81.57735026920001,8,0,-0.3199010442584105,11.33946236683824,-0.5255746499324286,-1.00952532350975e-05,3.654220040928908e-05,-4.204597199459429e-06,3.663677493505828e-05,3.672332942793864e-05
18.4226497308,80.4226497308,8,0,-0.4936162448502981,11.54773940833524,-0.6920640345205512,-1.081776351018914e-05,3.734765910255299e-05,-5.536512276164409e-06,3.750623955037775e-05,3.750386358842191e-05
19.5773502692,80.4226497308,8,0,-0.4012896524999454,11.91704577773665,-0.6885444433256324,-1.081776351018914e-05,3.845557821075722e-05,-5.508355546605058e-06,3.860904745263607e-05,3.861375052091857e-05
18.4226497308,81.57735026920001,8,0,-0.4842306683301709,11.55008580246527,-0.5535741459950492,-1.078960678062876e-05,3.734765910255299e-05,-4.428593167960394e-06,3.744930131535082e-05,3.752219988562784e-05
19.5773502692,81.57735026920001,8,0,-0.3919040759798365,11.91939217186661,-0.5500545548000626,-1.078960678062876e-05,3.845557821075701e-05,-4.400436438400501e-06,3.855368597660712e-05,3.862053310427137e-05
20.4226497308,80.4226497308,8,0,-0.57254000407183,12.12891497084918,-0.7093855920539422,-1.15352599897092e-05,3.927055990997482e-05,-5.675084736431538e-06,3.942854745241977e-05,3.942950315067444e-05
21.5773502692,80.4226497308,8,0,-0.4793189789559222,12.50179907131281,-0.7045461892310896,-1.15352599897092e-05,4.038921221136572e-05,-5.636369513848717e-06,4.054172038804092e-05,4.054829384917351e-05
20.4226497308,81.57735026920001,8,0,-0.5596349298773937,12.13214123939778,-0.5695540543800807,-1.149654476712589e-05,3.927055990997482e-05,-4.556432435040645e-06,3.937259170162831e-05,3.942797471292622e-05
21.5773502692,81.57735026920001,8,0,-0.4664139047614766,12.50502533986145,-0.5647146515571603,-1.149654476712589e-05,4.038921221136583e-05,-4.517717212457282e-06,4.04873664687433e-05,4.053561299336664e-05
22.4226497308,80.4226497308,8,0,-0.6523784804077697,12.71516323698787,-0.716442542533419,-1.225974172689516e-05,4.121042514268741e-05,-5.731540340267352e-06,4.136357937668504e-05,4.136893374767709e-05
23.5773502692,80.4226497308,8,0,-0.5586332178321043,13.09014428729053,-0.7102956927952393,-1.225974172689516e-05,4.233536829359539e-05,-5.682365542361914e-06,4.24828279322189e-05,4.249217294670328e-05
22.4226497308,81.57735026920001,8,0,-0.6359868811060472,12.71926113681331,-0.5758246486699887,-1.221056692898999e-05,4.121042514268741e-05,-4.60659718935991e-06,4.13095501951224e-05,4.134826865289543e-05
23.5773502692,81.57735026920001,8,0,-0.5422416185303729,13.094242187116,-0.5696777989318497,-1.221056692898999e-05,4.23353682935955e-05,-4.557422391454798e-06,4.243039818011316e-05,4.246084692344046e-05
24.4226497308,80.4226497308,8,0,-0.7319402826654584,13.30439389337175,-0.7134629742270486,-1.298572401922687e-05,4.315961268492197e-05,-5.707703793816389e-06,4.330430032264658e-05,4.331456353964068e-05
25.5773502692,80.4226497308,8,0,-0.6380290823198935,13.68003869475401,-0.7060364575007855,-1.298572401922687e-05,4.428654708906875e-05,-5.648291660006284e-06,4.442547120722488e-05,4.443813722428166e-05
24.4226497308,81.57735026920001,8,0,-0.7121362380620719,13.3093449045226,-0.5725961737087149,-1.292631188541671e-05,4.315961268492197e-05,-4.580769389669719e-06,4.325298981655957e-05,4.327563974682929e-05
25.5773502692,81.57735026920001,8,0,-0.6182250377165164,13.68498970590482,-0.5651696569823703,-1.292631188541671e-05,4.428654708906864e-05,-4.521357255858963e-06,4.437573531372345e-05,4.438911686751969e-05
26.4226497308,80.4226497308,8,0,-0.8100757835362713,13.89458717169046,-0.7007759374639296,-1.370791224466843e-05,4.511073957623847e-05,-5.606207499711437e-06,4.524402426707962e-05,4.525937059428147e-05
27.57735026920001,80.4226497308,8,0,-0.7163423380269114,14.2695209537279,-0.6921119574901126,-1.370791224466843e-05,4.62355409223508e-05,-5.5368956599209e-06,4.636312824769747e-05,4.637944820144634e-05
26.4226497308,81.57735026920001,8,0,-0.7869718369397503,13.90036315833959,-0.5601757691997946,-1.363860040487887e-05,4.511073957623847e-05,-4.481406153598357e-06,4.519607615955221e-05,4.520318764761196e-05
27.57735026920001,81.57735026920001,8,0,-0.6932383914303992,14.27529694037699,-0.5515117892260722,-1.363860040487887e-05,4.623554092235069e-05,-4.412094313808578e-06,4.631671211226141e-05,4.631379325918544e-05
28.4226497308,80.4226497308,8,0,-0.8856860391942241,14.48380907372781,-0.6788047020737568,-1.442124258440377e-05,4.705673786728438e-05,-5.430437616590054e-06,4.717642443227916e-05,4.719681528896777e-05
29.5773502692,80.4226497308,8,0,-0.7924568366474611,14.85672588391487,-0.66895898446706,-1.442124258440377e-05,4.817548829784554e-05,-5.35167187573648e-06,4.828966457579502e-05,4.8309826093441e-05
28.4226497308,81.57735026920001,8,0,-0.8594307922430331,14.49037288546561,-0.5389608982536124,-1.434247684355019e-05,4.705673786728438e-05,-4.311687186028899e-06,4.713234055784944e-05,4.712447362046293e-05
29.5773502692,81.57735026920001,8,0,-0.7662015896962071,14.86328969565292,-0.5291151806470105,-1.434247684355019e-05,4.81754882978463e-05,-4.232921445176084e-06,4.824705627043526e-05,4.822868794469201e-05
30.4226497308,80.4226497308,8,0,-0.9577315079107027,15.07022591312571,-0.6480602887980131,-1.512092155581482e-05,4.899090812833084e-05,-5.184482310384105e-06,4.909554972685611e-05,4.91208060645552e-05
31.5773502692,80.4226497308,8,0,-0.8653133432509543,15.43989857176471,-0.6371012160385489,-1.512092155581482e-05,5.009992610424782e-05,-5.096809728308391e-06,5.019934956407586e-05,5.02234337451809e-05
30.4226497308,81.57735026920001,8,0,-0.9285073138857181,15.07753196163196,-0.5094330418083495,-1.503324897373986e-05,4.899090812833084e-05,-4.075464334466795e-06,4.905569858820482e-05,4.903349185353467e-05
31.5773502692,81.57735026920001,8,0,-0.8360891492259785,15.44720462027092,-0.4984739690489393,-1.503324897373986e-05,5.009992610424771e-05,-3.987791752391515e-06,5.016090734841728e-05,5.012804269848723e-05
32.4226497308,80.4226497308,8,0,-1.025240545824382,15.65211819726485,-0.6091350589033858,-1.58024643044499e-05,5.090697066790703e-05,-4.873080471227086e-06,5.099584609431114e-05,5.102569364214068e-05
33.57735026920001,80.4226497308,8,0,-0.9339181478189129,16.01740778928673,-0.5971427946646233,-1.58024643044499e-05,5.200283944397266e-05,-4.777142357316987e-06,5.208687726410319e-05,5.211488076097728e-05
32.4226497308,81.57735026920001,8,0,-0.9932611745211606,15.66011304009066,-0.4721514618951143,-1.570652619054024e-05,5.090697066790703e-05,-3.777211695160914e-06,5.096047288185312e-05,5.092466761912466e-05
33.57735026920001,81.57735026920001,8,0,-0.9019387765157001,16.0254026321125,-0.4601591976565009,-1.570652619054024e-05,5.200283944397255e-05,-3.681273581252007e-06,5.205283908286137e-05,5.200653653202157e-05
34.42264973080001,80.4226497308,8,0,-1.087317605825847,16.22789380774676,-0.5626961715571955,-1.646173138484012e-05,5.279911426945031e-05,-4.501569372457564e-06,5.28721814237266e-05,5.290628077060594e-05
35.5773502692,80.4226497308,8,0,-0.9973513971574972,16.58775864242016,-0.5497617348440494,-1.646173138484012e-05,5.387870877347051e-05,-4.398093878752395e-06,5.394739032103733e-05,5.397923868727727e-05
34.42264973080001,81.57735026920001,8,0,-1.052825774590826,16.23651676555552,-0.427746858554603,-1.635825589113506e-05,5.279911426945031e-05,-3.421974868436824e-06,5.284141906354032e-05,5.279286970297701e-05
35.5773502692,81.57735026920001,8,0,-0.9628595659224768,16.59638160022892,-0.4148124218414568,-1.635825589113506e-05,5.387870877347051e-05,-3.318499374731654e-06,5.391788436727661e-05,5.385930296489843e-05
36.4226497308,80.4226497308,8,0,-1.143151026315747,16.79610038547579,-0.5094787560757361,-1.709496359259102e-05,5.466204205457513e-05,-4.075830048605889e-06,5.471987269043304e-05,5.475784043849065e-05
37.5773502692,80.4226497308,8,0,-1.054775041373273,17.14960432524569,-0.4957030158400422,-1.709496359259102e-05,5.572255387388482e-05,-3.965624126720337e-06,5.577650562922324e-05,5.581206206508685e-05
36.4226497308,81.57735026920001,8,0,-1.106415719020654,16.80528421229956,-0.3769147786621195,-1.698475767070574e-05,5.466204205457513e-05,-3.015318229296956e-06,5.469375359497748e-05,5.463343032194366e-05
37.5773502692,81.57735026920001,8,0,-1.018039734078188,17.15878815206943,-0.3631390384264662,-1.698475767070574e-05,5.572255387388471e-05,-2.905112307411729e-06,5.575156165705505e-05,5.568195233108876e-05
38.4226497308,80.4226497308,8,0,-1.192020271433253,17.35543678836847,-0.4502786915621618,-1.769881429928118e-05,5.64910139399257e-05,-3.602229532497295e-06,5.653471406401683e-05,5.657613840880349e-05
39.5773502692,80.4226497308,8,0,-1.105440261033917,17.70175682996581,-0.4357712637549881,-1.769881429928118e-05,5.752997406471773e-05,-3.486170110039905e-06,5.757034047401494e-05,5.76094121741914e-05
38.4226497308,81.57735026920001,8,0,-1.153333797280591,17.3651084069065,-0.3204086759631846,-1.758275487682309e-05,5.649101393992526e-05,-2.563269407705477e-06,5.651318232831574e-05,5.644216862409953e-05
39.5773502692,81.57735026920001,8,0,-1.066753786881227,17.71142844850395,-0.3059012481558347,-1.758275487682309e-05,5.752997406471762e-05,-2.447209985246678e-06,5.754990160685501e-05,5.747059615228984e-05
40.4226497308,80.4226497308,8,0,-1.233302473213873,17.90476346706338,-0.3859449354353224,-1.827037868793509e-05,5.828188507317391e-05,-3.08755948348258e-06,5.831300482502723e-05,5.835745744202893e-05
41.5773502692,80.4226497308,8,0,-1.148694227116473,18.24319645145298,-0.3708229759057509,-1.827037868793509e-05,5.929718402634271e-05,-2.966583807246007e-06,5.932553802954836e-05,5.936788135482151e-05
40.4226497308,81.57735026920001,8,0,-1.192977247801393,17.9148447734165,-0.25903256628925,-1.814940301169765e-05,5.828188507317391e-05,-2.072260530314e-06,5.829592865049945e-05,5.821541532925653e-05
41.5773502692,81.57735026920001,8,0,-1.108369001703957,18.25327775780625,-0.2439106067595701,-1.814940301169765e-05,5.929718402634314e-05,-1.951284854076561e-06,5.930947284586057e-05,5.922187163507737e-05
42.4226497308,80.4226497308,8,0,-1.266478128097645,18.44311159648931,-0.3173713910121996,-1.880721928710391e-05,6.003113961124389e-05,-2.538971128097597e-06,6.005157605831703e-05,6.009862139584227e-05
43.57735026920001,80.4226497308,8,0,-1.183986045150394,18.77307992827831,-0.3017582884615454,-1.880721928710391e-05,6.102104460661091e-05,-2.414066307692363e-06,6.103929122784818e-05,6.108461640232824e-05
42.4226497308,81.57735026920001,8,0,-1.224843187962639,18.45352033152306,-0.1936332665914038,-1.868231446669889e-05,6.003113961124389e-05,-1.549066132731231e-06,6.003876020678812e-05,5.995003685457753e-05
43.57735026920001,81.57735026920001,8,0,-1.142351105015424,18.78348866331192,-0.1780201640407767,-1.868231446669889e-05,6.102104460661048e-05,-1.424161312326214e-06,6.102740592438193e-05,6.093296492482026e-05
44.4226497308,80.4226497308,8,0,-1.291135813738401,18.96969080753923,-0.2454883493164248,-1.930738724999426e-05,6.173591923511624e-05,-1.963906794531399e-06,6.174781523247199e-05,6.17970178841492e-05
45.5773502692,80.4226497308,8,0,-1.210871746168756,19.29074707781781,-0.2295123319736398,-1.930738724999426e-05,6.269908804595198e-05,-1.836098655789119e-06,6.270936417313117e-05,6.275733992146821e-05
44.4226497308,81.57735026920001,8,0,-1.248533100824253,18.98034148576776,-0.1250922479619984,-1.917957911125182e-05,6.173591923511624e-05,-1.000737983695987e-06,6.173901332166021e-05,6.164345773238669e-05
45.5773502692,81.57735026920001,8,0,-1.168269033254645,19.3013977560462,-0.1091162306190779,-1.917957911125182e-05,6.269908804595154e-05,-8.729298449526232e-07,6.270141461308132e-05,6.260163211091024e-05
46.42264973080001,80.4226497308,8,0,-1.306975815002262,19.48389538160025,-0.1712535789090056,-1.976943891328744e-05,6.339404587312261e-05,-1.370028631272045e-06,6.339968792601483e-05,6.345061851278276e-05
47.57735026920001,80.4226497308,8,0,-1.229018208152839,19.79572580899794,-0.1550462562148832,-1.976943891328744e-05,6.432953715531568e-05,-1.240370049719066e-06,6.433411043989188e-05,6.438436881081545e-05
46.42264973080001,81.57735026920001,8,0,-1.263756287817718,19.49470026339639,-0.0543171686348716,-1.963978033173381e-05,6.339404587312261e-05,-4.345373490789728e-07,6.339461438063206e-05,6.329368043402898e-05
47.57735026920001,81.57735026920001,8,0,-1.185798680968304,19.80653069079404,-0.03810984594072213,-1.963978033173381e-05,6.432953715531558e-05,-3.048787675257771e-07,6.432981389555632e-05,6.422621723563904e-05
48.4226497308,80.4226497308,8,0,-1.313812578022195,19.98530879886163,-0.0956431678189758,-2.019244728876032e-05,6.500403821877495e-05,-7.651453425518064e-07,6.50057561170751e-05,6.505799596470375e-05
49.57735026920001,80.4226497308,8,0,-1.238205920271082,20.28773542986608,-0.07933803385112458,-2.019244728876032e-05,6.591131811178831e-05,-6.347042708089966e-07,6.591248775877532e-05,6.596462927653014e-05
48.4226497308,81.57735026920001,8,0,-1.27033222077452,19.99617888817355,0.01776681880766686,-2.00620062170173e-05,6.500403821877495e-05,1.421345504613349e-07,6.500409759092651e-05,6.489930194424913e-05
49.57735026920001,81.57735026920001,8,0,-1.194725563023398,20.29860551917804,0.03407195277554519,-2.00620062170173e-05,6.591131811178842e-05,2.725756222043615e-07,6.591153415927668e-05,6.580566676443771e-05
50.42264973080001,80.4226497308,8,0,-1.311575945634958,20.47370656648875,-0.01964224227031226,-2.057600827922286e-05,6.656512176927195e-05,-1.571379381624981e-07,6.656519260927461e-05,6.661833742036566e-05
51.57735026920001,80.4226497308,8,0,-1.238330535844783,20.76668820564945,-0.003373170726883568,-2.057600827922286e-05,6.744406668675405e-05,-2.698536581506854e-08,6.744406875506048e-05,6.749766797089535e-05
50.42264973080001,81.57735026920001,8,0,-1.268191754852609,20.48455261418433,0.09022587241490918,-2.044585570687581e-05,6.656512176927195e-05,7.218069793192734e-07,6.656661869634754e-05,6.645952662113885e-05
51.57735026920001,81.57735026920001,8,0,-1.194946345062434,20.77753425334503,0.1064949439583108,-2.044585570687581e-05,6.744406668675405e-05,8.519595516664862e-07,6.744613125231567e-05,6.733954015056344e-05
52.4226497308,80.4226497308,8,0,-1.300311163916587,20.94905729209015,0.05576430269319552,-2.09202415582052e-05,6.807723226582175e-05,4.461144215455641e-07,6.807779131772065e-05,6.813145398413223e-05
53.5773502692,80.4226497308,8,0,-1.229403196065924,21.2326891634928,0.07186454142467619,-2.09202415582052e-05,6.89281278800297e-05,5.749163313974095e-07,6.892904755560913e-05,6.898365902296581e-05
52.4226497308,81.57735026920001,8,0,-1.257377193965972,20.95979078457781,0.1621262544691761,-2.079143964835335e-05,6.807723226582175e-05,1.297010035753408e-06,6.808196437620761e-05,6.797417504214598e-05
53.5773502692,81.57735026920001,8,0,-1.186469226115309,21.24342265598046,0.1782264932006974,-2.079143964835335e-05,6.89281278800297e-05,1.425811945605579e-06,6.893379222789964e-05,6.882801628085459e-05
54.42264973080001,80.4226497308,8,0,-1.280177685455801,21.41152200858751,0.1296009254169421,-2.122578620032857e-05,6.954101257584467e-05,1.036807403335537e-06,6.954397327993204e-05,6.959778594980673e-05
55.57735026920001,80.4226497308,8,0,-1.211549642621649,21.68603417992412,0.145402096144134,-2.122578620032857e-05,7.036454908985448e-05,1.163216769153072e-06,7.036824221612983e-05,7.042340687747e-05
54.42264973080001,81.57735026920001,8,0,-1.238041230183632,21.42205612240555,0.2325429896683317,-2.109937683451206e-05,6.954101257584467e-05,1.860343917346654e-06,6.955055720355878e-05,6.944368868143563e-05
55.57735026920001,81.57735026920001,8,0,-1.16941318734948,21.69656829374216,0.2483441603953881,-2.109937683451206e-05,7.036454908985448e-05,1.986753283163105e-06,7.037533673939702e-05,7.027189572200382e-05
56.4226497308,80.4226497308,8,0,-1.251446828276601,21.86145179599913,0.2009102868576017,-2.149379128728443e-05,7.09578032098185e-05,1.607282294860814e-06,7.096478838194804e-05,7.101840387665097e-05
57.57735026920001,80.4226497308,8,0,-1.185008171309893,22.12720642386596,0.2162860450814465,-2.149379128728443e-05,7.175506709341899e-05,1.730288360651572e-06,7.176309303657782e-05,7.181834498117024e-05
56.4226497308,81.57735026920001,8,0,-1.21044480634642,21.87170230148168,0.3005682723076901,-2.137078522149389e-05,7.09578032098185e-05,2.40454617846152e-06,7.097345616834989e-05,7.086913038730217e-05
57.57735026920001,81.57735026920001,8,0,-1.14400614937964,22.1374569293488,0.3159440305315077,-2.137078522149389e-05,7.175506709341986e-05,2.527552244252062e-06,7.177221416939229e-05,7.167259879643986e-05
58.4226497308,80.4226497308,8,0,-1.214498378044685,22.29938378136887,0.2687617190523268,-2.172590183483809e-05,7.232962680281613e-05,2.150093752418614e-06,7.234191289439139e-05,7.239500555805551e-05
59.57735026920001,80.4226497308,8,0,-1.15012650850124,22.55687125954266,0.2835908701097274,-2.172590183483809e-05,7.310208923733748e-05,2.26872696087782e-06,7.311565692351429e-05,7.317053044837574e-05
58.4226497308,81.57735026920001,8,0,-1.174953975224859,22.30926988207383,0.3653195233675093,-2.160726862637861e-05,7.232962680281613e-05,2.922556186940074e-06,7.235235288059516e-05,7.225218072682397e-05
59.57735026920001,81.57735026920001,8,0,-1.110582105681414,22.56675736024761,0.3801486744248964,-2.160726862637861e-05,7.310208923733748e-05,3.041189395399171e-06,7.312649667250463e-05,7.303215959871188e-05
60.4226497308,80.4226497308,8,0,-1.169816243849414,22.72603562807708,0.3322592303070976,-2.192424048277978e-05,7.365916700492617e-05,2.658073842456781e-06,7.367764299173515e-05,7.372990904258377e-05
61.5773502692,80.4226497308,8,0,-1.10735771631915,22.97586973819813,0.3464268789237429,-2.192424048277978e-05,7.440866933528933e-05,2.771415031389943e-06,7.442859801978784e-05,7.448263489237135e-05
60.4226497308,81.57735026920001,8,0,-1.132035847538342,22.73548072715484,0.4259470216024376,-2.181089929384657e-05,7.365916700492617e-05,3.407576172819501e-06,7.368956365174709e-05,7.359513033305621e-05
61.5773502692,81.57735026920001,8,0,-1.069577320008078,22.9853148372759,0.4401146702190557,-2.181089929384657e-05,7.440866933528933e-05,3.520917361752446e-06,7.444086837788398e-05,7.435321611063679e-05
62.42264973080001,80.4226497308,8,0,-1.117983293296438,23.14229864843796,0.3905489952914487,-2.209138545729896e-05,7.494974230963861e-05,3.124391962331589e-06,7.497488447576133e-05,7.502604190347782e-05
63.57735026920001,80.4226497308,8,0,-1.057255249444438,23.38521082384596,0.4039475799984109,-2.209138545729896e-05,7.567847883586259e-05,3.231580639987287e-06,7.570517485001668e-05,7.575793161728538e-05
62.42264973080001,81.57735026920001,8,0,-1.082253734077925,23.15123103824259,0.4816410610695011,-2.198419677964343e-05,7.494974230963861e-05,3.853128488556009e-06,7.498801770436977e-05,7.490086842006706e-05
63.57735026920001,81.57735026920001,8,0,-1.021525690225926,23.39414321365058,0.4950396457765039,-2.198419677964343e-05,7.567847883586259e-05,3.960317166212032e-06,7.571861102962618e-05,7.563899657679609e-05
64.4226497308,80.4226497308,8,0,-1.059675500113975,23.54922968761621,0.4428263125541543,-2.223034535045769e-05,7.620527540046305e-05,3.542610500433235e-06,7.623713893706244e-05,7.628692693588114e-05
65.57735026920001,80.4226497308,8,0,-1.000467295649177,23.7860625054754,0.4553565275951341,-2.223034535045769e-05,7.691577385404063e-05,3.642852220761073e-06,7.694922422179162e-05,7.700027930950475e-05
64.4226497308,81.57735026920001,8,0,-1.026261593338101,23.55758316431018,0.5316386192514601,-2.213010363013006e-05,7.620527540046305e-05,4.253108954011681e-06,7.625124177676102e-05,7.617286761132129e-05
65.57735026920001,81.57735026920001,8,0,-0.9670533888732393,23.79441598216963,0.5441688342923585,-2.213010363013006e-05,7.691577385404139e-05,4.353350674338868e-06,7.696358633861972e-05,7.689330224566648e-05
66.4226497308,80.4226497308,8,0,-0.9956555366799886,23.94804193178027,0.488342047905434,-2.234453126280018e-05,7.743025861104086e-05,3.906736383243472e-06,7.746848656341761e-05,7.751666437072688e-05
67.57735026920001,80.4226497308,8,0,-0.9377305331529318,24.1797419458885,0.4999136634770661,-2.234453126280018e-05,7.812535865336554e-05,3.999309307816529e-06,7.816514207522036e-05,7.821410222069164e-05
66.4226497308,81.57735026920001,8,0,-0.9647978951555816,23.95575634216138,0.5752295531960051,-2.225195833822696e-05,7.743025861104086e-05,4.601836425568041e-06,7.748334136747257e-05,7.741516513728472e-05
67.57735026920001,81.57735026920001,8,0,-0.9068728916285611,24.18745635626946,0.5868011687676237,-2.225195833822696e-05,7.812535865336511e-05,4.694409350140989e-06,7.818021527538614e-05,7.812048643748597e-05
68.42264973080002,80.4226497308,8,0,-0.9267659348232318,24.34009478880574,0.5264086176703274,-2.243772682247893e-05,7.862971607203693e-05,4.21126894136262e-06,7.867356573918878e-05,7.871991049263904e-05
69.57735026920001,80.4226497308,8,0,-0.8698634305966193,24.56770480571219,0.5369412171368998,-2.243772682247893e-05,7.931254612275629e-05,4.295529737095198e-06,7.935786138652879e-05,7.940436654058192e-05
68.42264973080002,81.57735026920001,8,0,-0.8986790029121012,24.34711652178352,0.6117623740102465,-2.235346602674554e-05,7.862971607203693e-05,4.894098992081972e-06,7.868897880312144e-05,7.86323402610037e-05
69.57735026920001,81.57735026920001,8,0,-0.841776498685479,24.57472653869001,0.6222949734768324,-2.235346602674554e-05,7.931254612275639e-05,4.978359787814659e-06,7.937345444982661e-05,7.932542961276075e-05
70.4226497308,80.4226497308,8,0,-0.8539219214344884,24.72688297593817,0.5564055990436899,-2.25140565293409e-05,7.980916306014971e-05,4.451244792349519e-06,7.985754947552079e-05,7.990185216141621e-05
71.57735026920001,80.4226497308,8,0,-0.7977592002513845,24.95153386067058,0.5658292587408097,-2.25140565293409e-05,8.048311571434697e-05,4.526634069926478e-06,8.053282710609441e-05,8.057655210568529e-05
70.4226497308,81.57735026920001,8,0,-0.8287921622424399,24.73316541573618,0.6406496808183059,-2.243866725176475e-05,7.980916306014971e-05,5.125197446546447e-06,7.987334821168617e-05,7.982948741083379e-05
71.57735026920001,81.57735026920001,8,0,-0.7726294410592907,24.95781630046878,0.6500733405153444,-2.243866725176475e-05,8.048311571434751e-05,5.200586724122755e-06,8.054876960161151e-05,8.051350957342209e-05
72.4226497308,80.4226497308,8,0,-0.7781040115596536,25.11002492626541,0.5777850838969859,-2.257795277800322e-05,8.097456297329704e-05,4.622280671175887e-06,8.102611856933991e-05,8.106817601007972e-05
73.57735026920001,80.4226497308,8,0,-0.7223784926803054,25.33292700178281,0.5860410269035652,-2.257795277800322e-05,8.164326919984921e-05,4.688328215228521e-06,8.169596795064929e-05,8.17366175508887e-05
72.4226497308,81.57735026920001,8,0,-0.7560881635419463,25.11552888826984,0.6613733622159805,-2.25119052339501e-05,8.097456297329704e-05,5.290986897727844e-06,8.104214734506889e-05,8.10121837842629e-05
73.57735026920001,81.57735026920001,8,0,-0.7003626446626079,25.33843096378719,0.6696293052225869,-2.25119052339501e-05,8.16432691998491e-05,5.357034441780695e-06,8.171210606779343e-05,8.169056490217391e-05
74.4226497308,80.4226497308,8,0,-0.7003504118088717,25.49125059562002,0.590076915772355,-2.26341217942844e-05,8.213228223543116e-05,4.72061532617884e-06,8.218543121483917e-05,8.222502971230391e-05
75.57735026920001,80.4226497308,8,0,-0.6447418924523953,25.71368467304593,0.5971181752692338,-2.26341217942844e-05,8.279958446770887e-05,4.77694540215387e-06,8.285366467959389e-05,8.289095501157259e-05
74.4226497308,81.57735026920001,8,0,-0.6815737198169778,25.495944768618,0.6734896948069738,-2.257779171830872e-05,8.213228223543116e-05,5.387917558455791e-06,8.220154602408023e-05,8.218644881964889e-05
75.57735026920001,81.57735026920001,8,0,-0.6259652004605378,25.71837884604376,0.6805309543039882,-2.257779171830872e-05,8.279958446770843e-05,5.444247634431906e-06,8.286985590802082e-05,8.286284775899341e-05
76.42264973080002,80.4226497308,8,0,-0.6217492523580388,25.87238871494263,0.5928939660867144,-2.268750857949982e-05,8.328904328970283e-05,4.743151728693715e-06,8.334208859243309e-05,8.337897002690224e-05
77.57735026920001,80.4226497308,8,0,-0.5659222408847402,26.09569676083582,0.5986860963511971,-2.268750857949982e-05,8.395896742738242e-05,4.789488770809576e-06,8.401271427549558e-05,8.404632654442738e-05
76.42264973080002,81.57735026920001,8,0,-0.6063035716523357,25.87625013511905,0.6766344832966499,-2.264117153738272e-05,8.328904328970283e-05,5.413075866373199e-06,8.33581507841975e-05,8.335869025905366e-05
77.57735026920001,81.57735026920001,8,0,-0.5504765601790638,26.09955818101214,0.6824266135612138,-2.264117153738272e-05,8.39589674273821e-05,5.459412908489711e-06,8.402882116166863e-05,8.403695822248333e-05
78.4226497308,80.4226497308,8,0,-0.5434306279603938,26.25535349175589,0.5859376136250686,-2.274326080287797e-05,8.445187567598716e-05,4.687500909000548e-06,8.450309574881381e-05,8.453688698844769e-05
79.57735026920001,80.4226497308,8,0,-0.4870367745407025,26.48092890543466,0.590459487147962,-2.274326080287797e-05,8.512860191702346e-05,4.723675897183696e-06,8.518028923173483e-05,8.520976652822656e-05
78.4226497308,81.57735026920001,8,0,-0.5313722985660112,26.25836807410449,0.6705283937546188,-2.270708581469483e-05,8.445187567598716e-05,5.364227150036951e-06,8.451896509286311e-05,8.45356261901987e-05
79.57735026920001,81.57735026920001,8,0,-0.4749784451462933,26.48394348778336,0.6750502672774853,-2.270708581469483e-05,8.512860191702378e-05,5.400402138219882e-06,8.519617249763144e-05,8.521974445073245e-05
80.4226497308,80.4226497308,8,0,-0.4665583887875568,26.64213071995816,0.569003590376261,-2.280669142008671e-05,8.562806501489616e-05,4.552028723010088e-06,8.567581687328579e-05,8.570588283172551e-05
81.57735026920001,80.4226497308,8,0,-0.4092390288777343,26.87140815959745,0.5722483178600155,-2.280669142008671e-05,8.631589733381403e-05,4.577986542880124e-06,8.636389094237885e-05,8.63884182396267e-05
80.4226497308,81.57735026920001,8,0,-0.4579057821644827,26.64429387161393,0.6549826302409533,-2.278073360021749e-05,8.562806501489616e-05,5.239861041927626e-06,8.569134430360642e-05,8.572416165661554e-05
81.57735026920001,81.57735026920001,8,0,-0.40058642225467,26.87357131125318,0.6582273577246671,-2.278073360021749e-05,8.631589733381392e-05,5.265818861797337e-06,8.637940231219611e-05,8.641813683082493e-05
82.4226497308,80.4226497308,8,0,-0.3923215821413155,27.03476321153784,0.5419883460427369,-2.288323963208248e-05,8.682509954263413e-05,4.335906768341896e-06,8.686792388932109e-05,8.689306224908376e-05
83.57735026920001,80.4226497308,8,0,-0.3337104165609492,27.2692078738593,0.5439643520681959,-2.288323963208248e-05,8.752843352959852e-05,4.351714816545568e-06,8.75712960108319e-05,8.758923991481305e-05
82.4226497308,81.57735026920001,8,0,-0.3870522327400376,27.03608054888816,0.6299050944133544,-2.286743158387864e-05,8.682509954263413e-05,5.039240755306835e-06,8.688294432717165e-05,8.69311763723741e-05
83.57735026920001,81.57735026920001,8,0,-0.3284410671596714,27.27052521120962,0.6318811004388269,-2.286743158387864e-05,8.752843352959852e-05,5.055048803510615e-06,8.758627115245049e-05,8.763885129202855e-05
84.42264973080002,80.4226497308,8,0,-0.3219254077884068,27.4353354189754,0.5048960627701338,-2.297842964010322e-05,8.8050613666952e-05,4.03916850216107e-06,8.808733713868867e-05,8.810514548017425e-05
85.57735026920001,80.4226497308,8,0,-0.261651351200956,27.67643164532521,0.5056283436487145,-2.297842964010322e-05,8.877390234600141e-05,4.045026749189716e-06,8.881049416754407e-05,8.881844803097919e-05
84.42264973080002,81.57735026920001,8,0,-0.3199726587788581,27.43582360622779,0.5953071476513241,-2.297257139307458e-05,8.8050613666952e-05,4.762457181210593e-06,8.810166285616353e-05,8.816313481739849e-05
85.57735026920001,81.57735026920001,8,0,-0.2596986021913983,27.67691983257763,0.5960394285298913,-2.297257139307458e-05,8.877390234600152e-05,4.76831542823913e-06,8.882474621352434e-05,8.888782912668698e-05
86.4226497308,80.4226497308,8,0,-0.2565815144964425,27.84595707506291,0.4578464206461366,-2.309782650643894e-05,8.931232785179847e-05,3.662771365169092e-06,8.934215686295509e-05,8.934772295572181e-05
87.57735026920002,80.4226497308,8,0,-0.1942717512514935,28.09519612804271,0.4573780024109877,-2.309782650643894e-05,9.006004501073786e-05,3.659024019287901e-06,9.008961643762383e-05,9.008042639054737e-05
86.4226497308,81.57735026920001,8,0,-0.25783062978992,27.84564479623954,0.5513110655135729,-2.310157385231938e-05,8.931232785179847e-05,4.410488524108584e-06,8.93555719002116e-05,8.942533685433985e-05
87.57735026920002,81.57735026920001,8,0,-0.1955208665449533,28.09488384921941,0.5508426472784919,-2.310157385231938e-05,9.006004501073807e-05,4.406741178227935e-06,9.010293060063957e-05,9.016914096652233e-05
88.42264973080002,80.4226497308,8,0,-0.1974974349590122,28.26874563966019,0.401083173368351,-2.324698830359699e-05,9.06179839948798e-05,3.208665386946808e-06,9.064058420783184e-05,9.062377907696095e-05
89.57735026920001,80.4226497308,8,0,-0.132780727182177,28.52761247076753,0.3994767770498141,-2.324698830359699e-05,9.139458448820183e-05,3.195814216398513e-06,9.141685225033241e-05,9.137554278790947e-05
88.42264973080002,81.57735026920001,8,0,-0.2017811584752369,28.26767470878113,0.4981582350336721,-2.325983947414566e-05,9.06179839948798e-05,3.985265880269376e-06,9.065284039575322e-05,9.072043511577305e-05
89.57735026920001,81.57735026920001,8,0,-0.1370644506984195,28.5265415398884,0.4965518387150809,-2.325983947414566e-05,9.139458448820161e-05,3.972414709720647e-06,9.14289820833894e-05,9.1482794629323e-05
90.42264973080002,80.4226497308,8,0,-0.1458649323954964,28.70580731260735,0.3349835424591334,-2.343141363375146e-05,9.19752753462599e-05,2.679868339673067e-06,9.199083061111584e-05,9.19307186716907e-05
91.57735026920001,80.4226497308,8,0,-0.07837522952472398,28.97576612409044,0.332323450820716,-2.343141363375146e-05,9.278515178070916e-05,2.658587606565728e-06,9.280035435437755e-05,9.269572368243405e-05
90.42264973080002,81.57735026920001,8,0,-0.1529585100979789,28.70403391818173,0.4362180967653457,-2.345269436685891e-05,9.19752753462599e-05,3.489744774122765e-06,9.200164576805237e-05,9.204544982479531e-05
91.57735026920001,81.57735026920001,8,0,-0.08546880722720651,28.97399272966481,0.4335580051269012,-2.345269436685891e-05,9.278515178070916e-05,3.46846404101521e-06,9.281102021878267e-05,9.282029289248367e-05
92.42264973080002,80.4226497308,8,0,-0.1028470164196555,29.15921635069028,0.2600683779710379,-2.365648353309512e-05,9.339176993534461e-05,2.080547023768304e-06,9.34010146996345e-05,9.325431714088189e-05
93.57735026920001,80.4226497308,8,0,-0.03222741767976434,29.44169474564984,0.256462482914506,-2.365648353309512e-05,9.42392051202233e-05,2.051699863316048e-06,9.424813070883618e-05,9.401541783945859e-05
92.42264973080002,81.57735026920001,8,0,-0.1124627365704445,29.15681242065258,0.365997776080834,-2.368533069354748e-05,9.339176993534461e-05,2.927982208646672e-06,9.341007355679977e-05,9.33856960481936e-05
93.57735026920001,81.57735026920001,8,0,-0.04184313783057192,29.43929081561207,0.3623918810242749,-2.368533069354748e-05,9.423920512022308e-05,2.899135048194199e-06,9.425702099362953e-05,9.415556312873019e-05
94.4226497308,80.4226497308,8,0,-0.06956338008983298,29.63099241638649,0.1770129645983163,-2.392739674939666e-05,9.487482643650864e-05,1.41610371678653e-06,9.487904621972615e-05,9.455633974089379e-05
95.57735026920002,80.4226497308,8,0,0.004529498715291069,29.92736393160699,0.1725949576835811,-2.392739674939666e-05,9.576394098217012e-05,1.380759661468649e-06,9.57679229616814e-05,9.527306516002768e-05
94.4226497308,81.57735026920001,8,0,-0.08134473186242452,29.62804707844334,0.2881522828059751,-2.396274080471443e-05,9.487482643650864e-05,2.305218262447801e-06,9.488600457562259e-05,9.470235647507746e-05
95.57735026920002,81.57735026920001,8,0,-0.007251853057327118,29.92441859366373,0.2837342758912399,-2.396274080471443e-05,9.57639409821698e-05,2.269874207129919e-06,9.577469853833699e-05,9.542635659806571e-05
96.4226497308,80.4226497308,8,0,-0.04707401622600038,30.12307568917913,0.08665827551071925,-2.42490974032665e-05,9.643150141835401e-05,6.93266204085754e-07,9.643249705076983e-05,9.574912017033831e-05
97.57735026920001,80.4226497308,8,0,0.0308171907068342,30.43464051691047,0.0815899257969343,-2.42490974032665e-05,9.736619590154801e-05,6.527194063754745e-07,9.736707169509301e-05,9.633300122662614e-05
96.4226497308,81.57735026920001,8,0,-0.06058961546272457,30.11969678936995,0.2034950859100917,-2.428964420097667e-05,9.643150141835401e-05,1.627960687280734e-06,9.643698955282137e-05,9.590696475843735e-05
97.57735026920001,81.57735026920001,8,0,0.01730159147012778,30.43126161710136,0.1984267361962661,-2.428964420097667e-05,9.736619590154823e-05,1.587413889570129e-06,9.737137398343183e-05,9.649601054817246e-05
98.42264973080002,80.4226497308,8,0,-0.03636079096237843,30.63729948872011,-0.009977606390553537,-2.46261941220557e-05,9.806844699667425e-05,-7.982085112442829e-08,9.806845997883781e-05,9.664326355603126e-05
99.57735026920002,80.4226497308,8,0,0.04563014140790678,30.96526321820125,-0.01550416228768856,-2.46261941220557e-05,9.905233818511769e-05,-1.240332983015085e-07,9.905236928238035e-05,9.690703494738891e-05
98.42264973080002,81.57735026920001,8,0,-0.05109827335466655,30.63361511812204,0.1130087921647946,-2.467040656923256e-05,9.806844699667425e-05,9.040703373183571e-07,9.807011177531835e-05,9.680891362633889e-05
99.57735026920002,81.57735026920001,8,0,0.03089265901563643,30.96157884760325,0.1074822362677409,-2.467040656923256e-05,9.90523381851179e-05,8.598578901419275e-07,9.905383214377736e-05,9.707473494403548e-05
0.4226497308,82.42264973080002,8,0,-0.02935227172526811,6.995824220167334,-0.09096606252422824,-5.690586645654724e-06,2.241011932191568e-05,-7.27728500193826e-07,2.24148300577107e-05,2.409567036610066e-05
1.5773502692,82.42264973080002,8,0,0.03719004313551144,7.261993479610452,-0.09589980757353538,-5.690586645654724e-06,2.320862710024504e-05,-7.67198460588283e-07,2.321371798104575e-05,2.43440508853686e-05
0.4226497308,83.57735026920001,8,0,-0.04250892518997862,6.992535056801156,0.00884740976694106,-5.730056606048856e-06,2.241011932191568e-05,7.077927813552848e-08,2.241016382855188e-05,2.424415906695949e-05
1.5773502692,83.57735026920001,8,0,0.02403338967080093,7.258704316244275,0.003913664717823673,-5.730056606048856e-06,2.320862710024504e-05,3.130931774258938e-08,2.320863556878062e-05,2.449053885423013e-05
2.4226497308,82.42264973080002,8,0,-0.04373703001459206,7.429921405758409,-0.1780064227145439,-6.083895620653422e-06,2.381073812243858e-05,-1.424051381716351e-06,2.382768742878603e-05,2.464840140597818e-05
3.5773502692,82.42264973080002,8,0,0.02680381383289854,7.712084781148372,-0.1825269163225783,-6.083895620653422e-06,2.465722824860847e-05,-1.460215330580626e-06,2.467455867743138e-05,2.5231521972361e-05
2.4226497308,83.57735026920001,8,0,-0.05579167963612552,7.426907743353026,-0.07219515694328102,-6.120059569518022e-06,2.381073812243858e-05,-5.775612555462481e-07,2.381352409861509e-05,2.479228771753464e-05
3.5773502692,83.57735026920001,8,0,0.01474916421138328,7.709071118743061,-0.07671565055135604,-6.120059569518022e-06,2.465722824860868e-05,-6.137252044108484e-07,2.466028749470607e-05,2.537030115597314e-05
4.422649730800001,82.42264973080002,8,0,-0.06932589575150416,7.886799961908745,-0.2596714578225964,-6.531282835931808e-06,2.529322059470918e-05,-2.077371662580771e-06,2.532708511212208e-05,2.572604822243318e-05
5.577350269200001,82.42264973080002,8,0,0.004930210638081522,8.183824387467087,-0.2635938854767873,-6.531282835931808e-06,2.618429387138421e-05,-2.108751083814298e-06,2.621823964216958e-05,2.649399849698154e-05
4.422649730800001,83.57735026920001,8,0,-0.07978570282938291,7.884185010139275,-0.1482872982382045,-6.562662257165444e-06,2.529322059470918e-05,-1.186298385905636e-06,2.530426106954554e-05,2.5860314335613e-05
5.577350269200001,83.57735026920001,8,0,-0.005529596439779016,8.18120943569769,-0.1522097258923683,-6.562662257165444e-06,2.618429387138443e-05,-1.217677807138946e-06,2.619560963345324e-05,2.662104180038586e-05
6.422649730800001,82.42264973080002,8,0,-0.1051538503304874,8.364824230928757,-0.3349492495089264,-7.028351705800566e-06,2.685156061923641e-05,-2.679593996071411e-06,2.690446092006727e-05,2.709616289740903e-05
7.577350269200001,82.42264973080002,8,0,-0.02749273526919005,8.675468691173947,-0.3381183101724592,-7.028351705800566e-06,2.778349399997198e-05,-2.704946481379674e-06,2.783595979631135e-05,2.797335635940778e-05
6.422649730800001,83.57735026920001,8,0,-0.1136046787664124,8.362711523819776,-0.2184575769169665,-7.05370419110834e-06,2.685156061923641e-05,-1.747660615335732e-06,2.687406664859526e-05,2.721739252514251e-05
7.577350269200001,83.57735026920001,8,0,-0.03594356370511509,8.673355984064965,-0.22162663758054,-7.05370419110834e-06,2.778349399997198e-05,-1.77301310064432e-06,2.780603845395048e-05,2.80859255396046e-05
8.4226497308,82.42264973080002,8,0,-0.1501717795161164,8.862212392015955,-0.4030023969575945,-7.570319608064336e-06,2.847921707806395e-05,-3.224019175660756e-06,2.855115696418846e-05,2.864106630292632e-05
9.5773502692,82.42264973080002,8,0,-0.06943699479198084,9.185151530912497,-0.4052902450987008,-7.570319608064336e-06,2.944803449475358e-05,-3.242321960789606e-06,2.951889506560897e-05,2.958809033141674e-05
8.4226497308,83.57735026920001,8,0,-0.1562727078923274,8.860687159921904,-0.2819002198714451,-7.588622393192969e-06,2.847921707806395e-05,-2.255201758971561e-06,2.851443525143676e-05,2.874694910819329e-05
9.5773502692,83.57735026920001,8,0,-0.07553792316819186,9.183626298818446,-0.2841880680124159,-7.588622393192969e-06,2.944803449475358e-05,-2.273504544099327e-06,2.948289160170066e-05,2.968436606819278e-05
10.4226497308,82.42264973080002,8,0,-0.2032665983109525,9.377069030001937,-0.4631574349019059,-8.152108338596597e-06,3.016923417465496e-05,-3.705259479215247e-06,3.025859044934881e-05,3.029895862611938e-05
11.5773502692,82.42264973080002,8,0,-0.1198052023703773,9.710914613764238,-0.4644615571009982,-8.152108338596597e-06,3.117077092594186e-05,-3.715692456807986e-06,3.125835154840329e-05,3.129406289632898e-05
10.4226497308,83.57735026920001,8,0,-0.2067442575085505,9.376199615202401,-0.3379653409910023,-8.162541316189282e-06,3.016923417465452e-05,-2.703722727928019e-06,3.021685163305975e-05,3.038799002862929e-05
11.5773502692,83.57735026920001,8,0,-0.1232828615679389,9.710045198964847,-0.3392694631901218,-8.162541316189282e-06,3.117077092594186e-05,-2.714155705520974e-06,3.121753721912742e-05,3.137290947804693e-05
12.4226497308,82.42264973080002,8,0,-0.2632791642392545,9.90741481935869,-0.5148939900058321,-8.768425181052565e-06,3.191435075333921e-05,-4.119151920046657e-06,3.201835144879994e-05,3.203534371121766e-05
13.5773502692,82.42264973080002,8,0,-0.1774490711780974,10.25073519160332,-0.5151351187001278,-8.768425181052565e-06,3.294431187007309e-05,-4.121080949601023e-06,3.304585199786541e-05,3.306545629004607e-05
12.4226497308,83.57735026920001,8,0,-0.2639221740906552,9.90725406689584,-0.3861488504141512,-8.770354210606767e-06,3.191435075333921e-05,-3.08919080331321e-06,3.197290706131112e-05,3.210662659513025e-05
13.5773502692,83.57735026920001,8,0,-0.1780920810295163,10.2505744391404,-0.386389979108474,-8.770354210606767e-06,3.294431187007287e-05,-3.091119832867792e-06,3.300149763870732e-05,3.312625958805248e-05
14.4226497308,82.42264973080002,8,0,-0.3290202132197639,10.45121350884986,-0.5578340964202571,-9.413835489383135e-06,3.370709939889537e-05,-4.462672771362057e-06,3.382225463268287e-05,3.382916018842264e-05
15.5773502692,82.42264973080002,8,0,-0.241185782596546,10.80255123134274,-0.5569542372143372,-9.413835489383135e-06,3.476111256637399e-05,-4.455633897714698e-06,3.487318081507911e-05,3.488552546198614e-05
14.4226497308,83.57735026920001,8,0,-0.3266739220037791,10.45180008165386,-0.426082450485552,-9.40679661573518e-06,3.370709939889537e-05,-3.408659603884416e-06,3.377436808176063e-05,3.38822643709448e-05
15.5773502692,83.57735026920001,8,0,-0.2388394913805429,10.80313780414681,-0.4252025912795509,-9.40679661573518e-06,3.476111256637421e-05,-3.401620730236407e-06,3.482651025203088e-05,3.492807485573731e-05
16.4226497308,82.42264973080002,8,0,-0.3992845935722089,11.00639646214993,-0.591731976415754,-1.008282786915102e-05,3.553989635373756e-05,-4.733855811326032e-06,3.566236490989092e-05,3.566604698030728e-05
17.5773502692,82.42264973080002,8,0,-0.3098126179220762,11.36428436475047,-0.5896925993150619,-1.008282786915102e-05,3.661356006153915e-05,-4.717540794520496e-06,3.673240594425262e-05,3.674210615128857e-05
16.4226497308,83.57735026920001,8,0,-0.3938462546369395,11.00775604688375,-0.4575240129406095,-1.006651285234521e-05,3.553989635373756e-05,-3.660192103524876e-06,3.561321665564719e-05,3.570090497720879e-05
17.5773502692,83.57735026920001,8,0,-0.3043742789868338,11.36564394948418,-0.455484635839931,-1.006651285234521e-05,3.661356006153882e-05,-3.643877086719448e-06,3.66845629208502e-05,3.676650564998578e-05
18.4226497308,82.42264973080002,8,0,-0.4728640877630617,11.57088504794461,-0.6164644800704628,-1.076987311919748e-05,3.74051234236332e-05,-4.931715840563703e-06,3.753101046403359e-05,3.753507087595045e-05
19.5773502692,82.42264973080002,8,0,-0.3821201198513098,11.93386091959162,-0.6132449005589817,-1.076987311919748e-05,3.849405103857422e-05,-4.905959204471854e-06,3.861588997659598e-05,3.862543162144739e-05
18.4226497308,83.57735026920001,8,0,-0.4642785423990037,11.57303143428562,-0.4803485282029026,-1.074411648310531e-05,3.74051234236332e-05,-3.842788225623221e-06,3.748167489601288e-05,3.755189877825114e-05
19.5773502692,83.57735026920001,8,0,-0.37353457448727,11.93600730593256,-0.4771289486912725,-1.074411648310531e-05,3.8494051038574e-05,-3.81703158953018e-06,3.856791602352221e-05,3.86320320359018e-05
20.4226497308,82.42264973080002,8,0,-0.5485591017597442,12.1426111823421,-0.6320222753497404,-1.146947807150486e-05,3.929520306490252e-05,-5.056178202797923e-06,3.942079160168286e-05,3.942713596949727e-05
21.5773502692,82.42264973080002,8,0,-0.4569040662874779,12.50923132423117,-0.6276182297186181,-1.146947807150486e-05,4.039506349056972e-05,-5.020945837748945e-06,4.051629808093001e-05,4.052707223561459e-05
20.4226497308,83.57735026920001,8,0,-0.5368149800767519,12.14554721276285,-0.4945397221413003,-1.143424570645589e-05,3.929520306490252e-05,-3.956317777130403e-06,3.937222303274355e-05,3.9426372917583e-05
21.5773502692,83.57735026920001,8,0,-0.4451599446045038,12.51216735465184,-0.4901356765101375,-1.143424570645589e-05,4.03950634905695e-05,-3.9210854120811e-06,4.046911895358976e-05,4.051641930730674e-05
22.4226497308,82.42264973080002,8,0,-0.6251894728982825,12.7195363111466,-0.638501791417706,-1.217623536219179e-05,4.120266777398775e-05,-5.108014331341648e-06,4.132459024020863e-05,4.133421212506925e-05
23.5773502692,82.42264973080002,8,0,-0.5329765138038112,13.08838814752449,-0.6329241930557741,-1.217623536219179e-05,4.230922328312141e-05,-5.063393544446192e-06,4.242660707232929e-05,4.243942304585133e-05
22.4226497308,83.57735026920001,8,0,-0.6103158772665735,12.72325471005439,-0.5001823527761204,-1.213161457529655e-05,4.120266777398731e-05,-4.001458822208964e-06,4.127761583344864e-05,4.131647407165013e-05
23.5773502692,83.57735026920001,8,0,-0.5181029181720835,13.09210654643235,-0.4946047544141072,-1.213161457529655e-05,4.230922328312119e-05,-3.956838035312858e-06,4.238102574556634e-05,4.2412217947043e-05
24.4226497308,82.42264973080002,8,0,-0.7016046041206536,13.29966908484147,-0.6360978469579517,-1.288487000105927e-05,4.312022475478922e-05,-5.088782775663613e-06,4.323558247641613e-05,4.324896410897443e-05
25.5773502692,82.42264973080002,8,0,-0.6091761277398366,13.66938299036474,-0.6293716969802934,-1.288487000105927e-05,4.422936647135902e-05,-5.034973575842347e-06,4.434011773541422e-05,4.435546050355206e-05
24.4226497308,83.57735026920001,8,0,-0.6836682041803037,13.30415318482656,-0.4974551323867673,-1.283106080123822e-05,4.312022475478922e-05,-3.979641059094138e-06,4.319090035518015e-05,4.321500870383895e-05
25.5773502692,83.57735026920001,8,0,-0.5912397277994961,13.67386709034979,-0.4907289824091767,-1.283106080123822e-05,4.422936647135891e-05,-3.925831859273414e-06,4.429681233858718e-05,4.431252996395252e-05
26.4226497308,82.42264973080002,8,0,-0.7766930805993715,13.8810819306712,-0.6250968433840082,-1.359028340245494e-05,4.504081664262732e-05,-5.000774747072065e-06,4.514725516848056e-05,4.516457825063e-05
27.57735026920001,82.42264973080002,8,0,-0.6843779656626832,14.25034239041795,-0.6172602601706308,-1.359028340245494e-05,4.614859802186757e-05,-4.938082081365047e-06,4.625047113005612e-05,4.626863265046898e-05
26.4226497308,83.57735026920001,8,0,-0.7557955253635722,13.88630631948028,-0.4866241709790709,-1.352759073674765e-05,4.504081664262775e-05,-3.892993367832567e-06,4.510543635490313e-05,4.511527836309072e-05
27.57735026920001,83.57735026920001,8,0,-0.6634804104269385,14.25556677922682,-0.4787875877656123,-1.352759073674765e-05,4.614859802186736e-05,-3.830300702124898e-06,4.620999656561186e-05,4.621090651521053e-05
28.4226497308,82.42264973080002,8,0,-0.8493918692018152,14.46192666970206,-0.6058703703526659,-1.428759531720746e-05,4.695767883840804e-05,-4.846962962821327e-06,4.705342655032949e-05,4.707468765118014e-05
29.5773502692,82.42264973080002,8,0,-0.7575028259458128,14.82948284272607,-0.5969736981629569,-1.428759531720746e-05,4.806034735748007e-05,-4.775789585303655e-06,4.815166876596397e-05,4.817281646707265e-05
28.4226497308,83.57735026920001,8,0,-0.8256674100290597,14.46785778449525,-0.4680368054686625,-1.421642193968919e-05,4.695767883840804e-05,-3.7442944437493e-06,4.701491970764393e-05,4.701101152209456e-05
29.5773502692,83.57735026920001,8,0,-0.7337783667730662,14.83541395751923,-0.4591401332789129,-1.421642193968919e-05,4.806034735747996e-05,-3.673121066231303e-06,4.811446105569354e-05,4.810131090026509e-05
30.4226497308,82.42264973080002,8,0,-0.9186951465361615,15.04044926749376,-0.5788690569840305,-1.497218388291072e-05,4.886439377320894e-05,-4.630952455872243e-06,4.894827036990727e-05,4.897334735526625e-05
31.5773502692,82.42264973080002,8,0,-0.8275262181663559,15.40512498097298,-0.5689740134033101,-1.497218388291072e-05,4.995842091364661e-05,-4.551792107226481e-06,5.003809604890652e-05,5.00623095990399e-05
30.4226497308,83.57735026920001,8,0,-0.8923083636541866,15.04704596321425,-0.4421156644293894,-1.48930235342648e-05,4.886439377320894e-05,-3.536925315435115e-06,4.891340858359616e-05,4.889634374121475e-05
31.5773502692,83.57735026920001,8,0,-0.8011394352843899,15.41172167669344,-0.4322206208486555,-1.48930235342648e-05,4.995842091364651e-05,-3.457764966789244e-06,5.000447868996987e-05,4.997811447829683e-05
32.4226497308,82.42264973080002,8,0,-0.9836627512758351,15.61500374981953,-0.544616504605789,-1.56397238039383e-05,5.075494220044318e-05,-4.356932036846312e-06,5.082634275773388e-05,5.085503529603149e-05
33.57735026920001,82.42264973080002,8,0,-0.8934869609013827,15.97570691131734,-0.5337953295605683,-1.56397238039383e-05,5.18370516849366e-05,-4.270362636484546e-06,5.190454814511327e-05,5.193183993299637e-05
32.4226497308,83.57735026920001,8,0,-0.9548062844884893,15.62221786651637,-0.4093528190442599,-1.555315440357626e-05,5.075494220044318e-05,-3.274822552354079e-06,5.079535178675188e-05,5.076582227449983e-05
33.57735026920001,83.57735026920001,8,0,-0.8646304941140093,15.98292102801429,-0.3985316439989849,-1.555315440357626e-05,5.183705168493693e-05,-3.188253151991879e-06,5.187473993792353e-05,5.183610925825393e-05
34.42264973080001,82.42264973080002,8,0,-1.043428214050333,16.18406526355851,-0.5037031529377768,-1.628622249580787e-05,5.262375141462747e-05,-4.029625223502214e-06,5.268261089739308e-05,5.271466665365442e-05
35.5773502692,82.42264973080002,8,0,-0.9544953684324762,16.53979664602993,-0.4920377276656314,-1.628622249580787e-05,5.369094556204176e-05,-3.936301821325051e-06,5.374625729766165e-05,5.377658439114085e-05
34.42264973080001,83.57735026920001,8,0,-1.012320413324197,16.19184221374017,-0.3703038845110588,-1.619289909362957e-05,5.262375141462791e-05,-2.96243107608847e-06,5.265561846925461e-05,5.261442301721819e-05
35.5773502692,83.57735026920001,8,0,-0.9233875677063494,16.54757359621156,-0.3586384592387101,-1.619289909362957e-05,5.369094556204209e-05,-2.869107673909681e-06,5.372038123865947e-05,5.367052876727474e-05
36.4226497308,82.42264973080002,8,0,-1.097206285411005,16.74624222046592,-0.456779958174432,-1.690805388968795e-05,5.446574013381975e-05,-3.654239665395456e-06,5.451248252824119e-05,5.454761503335353e-05
37.5773502692,82.42264973080002,8,0,-1.009740953060837,17.09610354986659,-0.4443608700497828,-1.690805388968795e-05,5.551532412202177e-05,-3.554886960398262e-06,5.555892060645166e-05,5.559219218467417e-05
36.4226497308,83.57735026920001,8,0,-1.064088717078589,16.75452161254903,-0.3255819596492205,-1.680870118469071e-05,5.446574013381975e-05,-2.604655677193764e-06,5.448952835142655e-05,5.443757342139611e-05
37.5773502692,83.57735026920001,8,0,-0.9766233847284305,17.10438294194966,-0.3131628715245848,-1.680870118469071e-05,5.551532412202166e-05,-2.505302972196678e-06,5.55370135303274e-05,5.547707263816231e-05
38.4226497308,82.42264973080002,8,0,-1.14429986038341,17.30028742986445,-0.4045517949989803,-1.750198949711847e-05,5.627635966387297e-05,-3.236414359991842e-06,5.631183532827032e-05,5.634973671162512e-05
39.5773502692,82.42264973080002,8,0,-1.058499545500865,17.64348868939463,-0.3914773326994526,-1.750198949711847e-05,5.730596344246351e-05,-3.131818661595621e-06,5.733872731935545e-05,5.737480969701822e-05
38.4226497308,83.57735026920001,8,0,-1.109434627584507,17.30900373806432,-0.2758513226752712,-1.739739379872187e-05,5.627635966387341e-05,-2.206810581402169e-06,5.629288156217795e-05,5.623117781519748e-05
39.5773502692,83.57735026920001,8,0,-1.023634312702008,17.65220499759431,-0.2627768603756758,-1.739739379872187e-05,5.73059634424634e-05,-2.102214883005406e-06,5.732075003641333e-05,5.725193225642965e-05
40.4226497308,82.42264973080002,8,0,-1.184106187105038,17.84510810644358,-0.3477705317729508,-1.806522628389098e-05,5.805163089030348e-05,-2.782164254183607e-06,5.807704528160712e-05,5.811739563677802e-05
41.5773502692,82.42264973080002,8,0,-1.100139722559378,18.18097396462622,-0.3341456041535312,-1.806522628389098e-05,5.90592284648514e-05,-2.67316483322825e-06,5.908238475617809e-05,5.912110516788124e-05
40.4226497308,83.57735026920001,8,0,-1.147773046786694,17.85419139152317,-0.2218208349544877,-1.795622686293595e-05,5.805163089030348e-05,-1.774566679635901e-06,5.806198724679433e-05,5.799164296954547e-05
41.5773502692,83.57735026920001,8,0,-1.063806582241025,18.19005724970584,-0.2081959073350274,-1.795622686293595e-05,5.905922846485151e-05,-1.665567258680219e-06,5.906823246928477e-05,5.899181577953465e-05
42.4226497308,82.42264973080002,8,0,-1.216122246559258,18.37977463130901,-0.2872277658416748,-1.859541089403683e-05,5.978817661743624e-05,-2.297822126733399e-06,5.980501321808573e-05,5.984748763341914e-05
43.57735026920001,82.42264973080002,8,0,-1.134128428685729,18.70774990280313,-0.273162746407092,-1.859541089403683e-05,6.077210243191859e-05,-2.185301971256736e-06,6.078714208649719e-05,6.0828291903977e-05
42.4226497308,83.57735026920001,8,0,-1.178615528067182,18.38915131093203,-0.1642370390312871,-1.848289073856061e-05,5.978817661743624e-05,-1.313896312250297e-06,5.979369015513691e-05,5.971590249219066e-05
43.57735026920001,83.57735026920001,8,0,-1.096621710193662,18.71712658242611,-0.1501720195967314,-1.848289073856061e-05,6.077210243191848e-05,-1.201376156773851e-06,6.077665489515343e-05,6.069397137034731e-05
44.4226497308,82.42264973080002,8,0,-1.239949199347443,18.90352794753961,-0.22374724132188,-1.90906597959435e-05,6.14832487916047e-05,-1.78997793057504e-06,6.14931888138524e-05,6.153746270242643e-05
45.5773502692,82.42264973080002,8,0,-1.160035685024077,19.22318200483307,-0.2093567477637467,-1.90906597959435e-05,6.244221096348508e-05,-1.674853982109974e-06,6.245081129845494e-05,6.249414908455895e-05
44.4226497308,83.57735026920001,8,0,-1.201574549858943,18.91312160991173,-0.1038769698368056,-1.8975535847478e-05,6.14832487916047e-05,-8.31015758694445e-07,6.148539451372132e-05,6.140143904697537e-05
45.5773502692,83.57735026920001,8,0,-1.121661035535569,19.23277566720523,-0.08948647627868593,-1.8975535847478e-05,6.244221096348519e-05,-7.158918102294874e-07,6.244378461050493e-05,6.235620780616145e-05
46.42264973080001,82.42264973080002,8,0,-1.255295812230154,19.41578548445454,-0.1581770025957749,-1.954957498670012e-05,6.313475020003866e-05,-1.265416020766199e-06,6.313959145607767e-05,6.318534459633678e-05
47.57735026920001,82.42264973080002,8,0,-1.1775382948385,19.72681555402115,-0.1435786270704404,-1.954957498670012e-05,6.406784040873849e-05,-1.148629016563523e-06,6.407178482144811e-05,6.411703947042513e-05
46.42264973080001,83.57735026920001,8,0,-1.216366810829027,19.42551773480482,-0.0415407265083774,-1.943278798249674e-05,6.313475020003866e-05,-3.323258120670192e-07,6.313508459295058e-05,6.304630366222238e-05
47.57735026920001,83.57735026920001,8,0,-1.138609293437374,19.73654780437144,-0.02694235098292096,-1.943278798249674e-05,6.406784040873849e-05,-2.155388078633677e-07,6.406797950020762e-05,6.397691184396764e-05
48.4226497308,82.42264973080002,8,0,-1.261980799975429,19.91614552575414,-0.09138136131608487,-1.997125498052468e-05,6.474125032239356e-05,-7.31050890528679e-07,6.474282749642683e-05,6.478974706415558e-05
49.57735026920001,82.42264973080002,8,0,-1.186422475825029,20.21837882235574,-0.07669437166426998,-1.997125498052468e-05,6.564795021219837e-05,-6.135549733141598e-07,6.564904939570403e-05,6.569592351485434e-05
48.4226497308,83.57735026920001,8,0,-1.222815494237004,19.92593685218874,0.02195612490944873,-1.98537590633094e-05,6.474125032239356e-05,1.756489992755898e-07,6.474134149957387e-05,6.464913158596476e-05
49.57735026920001,83.57735026920001,8,0,-1.147257170086594,20.22817014879038,0.03664311456135849,-1.98537590633094e-05,6.564795021219848e-05,2.93144916490868e-07,6.564820147527339e-05,6.555506189328454e-05
50.42264973080001,82.42264973080002,8,0,-1.259934044821613,20.40438996364207,-0.0242327718552967,-2.035530091434282e-05,6.630199511951191e-05,-1.938621748423736e-07,6.630210354228048e-05,6.634988633528132e-05
51.57735026920001,82.42264973080002,8,0,-1.186585375864813,20.69778463946927,-0.009576806638754128,-2.035530091434282e-05,6.718217914699351e-05,-7.661445311003302e-08,6.718219591059379e-05,6.723036953632608e-05
50.42264973080001,83.57735026920001,8,0,-1.220851470911159,20.41416060711968,0.0857902315800252,-2.023805319261145e-05,6.630199511951191e-05,6.863218526402017e-07,6.630335584870107e-05,6.620915430297626e-05
51.57735026920001,83.57735026920001,8,0,-1.147502801954358,20.70755528294688,0.1004461967964187,-2.023805319261145e-05,6.718217914699351e-05,8.035695743713496e-07,6.71840257173019e-05,6.709023769185538e-05
52.4226497308,82.42264973080002,8,0,-1.249196684579183,20.88048541164618,0.04239628079544765,-2.070181771997033e-05,6.781691066493111e-05,3.391702463635812e-07,6.781723555672491e-05,6.786558956437299e-05
53.5773502692,82.42264973080002,8,0,-1.178035457182246,21.16513032123392,0.05690249979213092,-2.070181771997033e-05,6.867084539369434e-05,4.552199983370473e-07,6.867142505613148e-05,6.87205597540115e-05
52.4226497308,83.57735026920001,8,0,-1.210513433921397,20.89015622431062,0.1491381218910013,-2.058576796799697e-05,6.781691066493111e-05,1.19310497512801e-06,6.782093609347973e-05,6.772620746410669e-05
53.5773502692,83.57735026920001,8,0,-1.139352206524434,21.17480113389848,0.1636443408875761,-2.058576796799697e-05,6.867084539369467e-05,1.309154727100609e-06,6.867564558123187e-05,6.858262580517002e-05
54.42264973080001,82.42264973080002,8,0,-1.229920089018175,21.34458268091634,0.1076412757394373,-2.101141042959123e-05,6.928660065014681e-05,8.611302059154981e-07,6.928865365320687e-05,6.933729909206407e-05
55.57735026920001,82.42264973080002,8,0,-1.160891762604493,21.62069598657106,0.1218811909640364,-2.101141042959123e-05,7.011494056711099e-05,9.750495277122909e-07,7.011754874345284e-05,7.016729210908321e-05
54.42264973080001,83.57735026920001,8,0,-1.191946981752849,21.35407595773267,0.2111837653599323,-2.089749110779525e-05,6.928660065014681e-05,1.689470122879459e-06,6.929451240835382e-05,6.920073459686332e-05
55.57735026920001,83.57735026920001,8,0,-1.122918655339166,21.6301892633874,0.2254236805844501,-2.089749110779525e-05,7.011494056711099e-05,1.803389444675601e-06,7.0123873122442e-05,7.003302087938291e-05
56.4226497308,82.42264973080002,8,0,-1.202363770932058,21.79701465606415,0.1706534354037201,-2.12851757918339e-05,7.071233791615091e-05,1.365227483229761e-06,7.071740257334336e-05,7.076607248978936e-05
57.57735026920001,82.42264973080002,8,0,-1.135382104849416,22.06494132039471,0.1845138411109607,-2.12851757918339e-05,7.151611790914261e-05,1.476110728887686e-06,7.152198734532157e-05,7.15719778955044e-05
56.4226497308,83.57735026920001,8,0,-1.165402689046011,21.80625492653566,0.271125934527439,-2.117429254617576e-05,7.071233791615091e-05,2.169007476219512e-06,7.072513612801078e-05,7.063378656699998e-05
57.57735026920001,83.57735026920001,8,0,-1.098421022963405,22.07418159086608,0.2849863402347745,-2.117429254617576e-05,7.151611790914218e-05,2.279890721878196e-06,7.153013531322882e-05,7.14428226665641e-05
58.4226497308,82.42264973080002,8,0,-1.166892301495315,22.23829263518234,0.2306072050132829,-2.152468947293088e-05,7.209605027377972e-05,1.844857640106263e-06,7.210513792193352e-05,7.215357844723351e-05
59.57735026920001,82.42264973080002,8,0,-1.101840243810472,22.49850086592171,0.243979359315302,-2.152468947293088e-05,7.287667496599785e-05,1.951834874522416e-06,7.288676288245914e-05,7.293663529862003e-05
58.4226497308,83.57735026920001,8,0,-1.13123322335685,22.24720740471695,0.3281852915406431,-2.141771223851548e-05,7.209605027377972e-05,2.625482332325145e-06,7.211447483353059e-05,7.202701684087033e-05
59.57735026920001,83.57735026920001,8,0,-1.066181165672007,22.50741563545633,0.3415574458425809,-2.141771223851548e-05,7.287667496599785e-05,2.732459566740647e-06,7.289646609235872e-05,7.281402890706444e-05
60.4226497308,82.42264973080002,8,0,-1.123971317947867,22.66910122277336,0.2867073677703463,-2.173198919565186e-05,7.344030096723304e-05,2.29365894216277e-06,7.345411829699246e-05,7.350208862272572e-05
61.5773502692,82.42264973080002,8,0,-1.060702136307242,22.92217794933586,0.2994880188420039,-2.173198919565186e-05,7.419953114692055e-05,2.395904150736031e-06,7.42144883315079e-05,7.426387898217032e-05
60.4226497308,83.57735026920001,8,0,-1.089889581756762,22.67762165682114,0.3816111402311765,-2.162974398707855e-05,7.344030096723304e-05,3.052889121849412e-06,7.346480324486515e-05,7.338267265239649e-05
61.5773502692,83.57735026920001,8,0,-1.026620400116173,22.93069838338349,0.394391791302929,-2.162974398707855e-05,7.419953114692012e-05,3.155134330423432e-06,7.422549444534234e-05,7.414922418992183e-05
62.42264973080001,82.42264973080002,8,0,-1.074162724218085,23.09029188257424,0.3381957554496063,-2.190955422355726e-05,7.474826420361203e-05,2.70556604359685e-06,7.476719349061573e-05,7.481446560277779e-05
63.57735026920001,82.42264973080002,8,0,-1.012501356630596,23.3369373529242,0.3502880776980167,-2.190955422355726e-05,7.548820061466189e-05,2.802304621584133e-06,7.550835325239458e-05,7.55569058648644e-05
62.42264973080001,83.57735026920001,8,0,-1.041916531555712,23.09835343073983,0.4306878068308529,-2.181281564557014e-05,7.474826420361203e-05,3.445502454646823e-06,7.477899012045049e-05,7.470358219942709e-05
63.57735026920001,83.57735026920001,8,0,-0.9802551639682227,23.34499890108979,0.4427801290792497,-2.181281564557014e-05,7.548820061466189e-05,3.542241032633998e-06,7.552042873880548e-05,7.545156490951726e-05
64.4226497308,82.42264973080002,8,0,-1.018119191195632,23.50287526863205,0.3843575414118029,-2.206028162673166e-05,7.602369621257906e-05,3.074860331294424e-06,7.604778894522034e-05,7.609414709536488e-05
65.57735026920001,82.42264973080002,8,0,-0.9578637937163483,23.74389685854918,0.3956719839681163,-2.206028162673166e-05,7.674676098233047e-05,3.16537587174493e-06,7.677210592404878e-05,7.681947717098884e-05
64.4226497308,83.57735026920001,8,0,-0.98794734437858,23.51041823033631,0.4747406376307429,-2.196976608628051e-05,7.602369621257906e-05,3.797925101045943e-06,7.60604813769707e-05,7.599313797072466e-05
65.57735026920001,83.57735026920001,8,0,-0.9276919468992961,23.75143982025345,0.4860550801871104,-2.196976608628051e-05,7.674676098233047e-05,3.888440641496883e-06,7.678503752703823e-05,7.672476037992666e-05
66.4226497308,82.42264973080002,8,0,-0.9565780626378331,23.90801245685254,0.4245271316980002,-2.21874597659231e-05,7.72709023120384e-05,3.396217053584002e-06,7.729988662686149e-05,7.734512639263168e-05
67.57735026920001,82.42264973080002,8,0,-0.897501731519605,24.14431778132546,0.4349821881959715,-2.21874597659231e-05,7.797981828545713e-05,3.479857505567772e-06,7.801003213619623e-05,7.805589669755605e-05
66.4226497308,83.57735026920001,8,0,-0.9286979119765579,23.91498249451786,0.5131416283753686,-2.210381931393927e-05,7.72709023120384e-05,4.105133027002949e-06,7.731327962275665e-05,7.725527621717525e-05
67.57735026920001,83.57735026920001,8,0,-0.869621580858384,24.15128781899056,0.5235966848733263,-2.210381931393927e-05,7.797981828545648e-05,4.188773478986611e-06,7.802362701099145e-05,7.797305002961802e-05
68.42264973080002,82.42264973080002,8,0,-0.8903547651828791,24.30700519533515,0.4580936982834271,-2.229473940485333e-05,7.849470043721878e-05,3.664749586267417e-06,7.85280024216886e-05,7.857192894489211e-05
69.57735026920001,82.42264973080002,8,0,-0.8322074130856931,24.5395946037239,0.4676166131634634,-2.229473940485333e-05,7.919246866238501e-05,3.740932905307707e-06,7.922693071119197e-05,7.927098495809376e-05
68.42264973080002,83.57735026920001,8,0,-0.8649603255027287,24.31335380525519,0.5453147264292331,-2.221855608581288e-05,7.849470043721878e-05,4.362517811433864e-06,7.854192024588766e-05,7.849445239155146e-05
69.57735026920001,83.57735026920001,8,0,-0.8068129734055427,24.54594321364393,0.5548376413092829,-2.221855608581288e-05,7.919246866238501e-05,4.438701130474263e-06,7.92410152594789e-05,7.920117632315782e-05
70.4226497308,82.42264973080002,8,0,-0.8203358069646729,24.70128528030367,0.4845064251103608,-2.238610280652989e-05,7.970038154254348e-05,3.876051400882887e-06,7.973716007379715e-05,7.977958451402808e-05
71.57735026920001,82.42264973080002,8,0,-0.7628461761891749,24.93124380340566,0.4930338572958564,-2.238610280652989e-05,8.039025711184945e-05,3.944270858366851e-06,8.042808572487063e-05,8.047004832840501e-05
70.4226497308,83.57735026920001,8,0,-0.7975959878034606,24.70697023509398,0.5707408712737027,-2.231788334904625e-05,7.970038154254348e-05,4.565926970189621e-06,7.975144411348273e-05,7.971561201508662e-05
71.57735026920001,83.57735026920001,8,0,-0.7401063570279902,24.93692875819586,0.5792683034591033,-2.231788334904625e-05,8.039025711184913e-05,4.634146427672826e-06,8.044250320062463e-05,8.041435253111628e-05
72.4226497308,82.42264973080002,8,0,-0.7474714295107159,25.09240314581217,0.5032795606916586,-2.246583109108402e-05,8.089366721020751e-05,4.026236485533269e-06,8.093286156513841e-05,8.097359366706891e-05
73.57735026920001,82.42264973080002,8,0,-0.6903492298013951,25.32089194464945,0.5107582300888704,-2.246583109108402e-05,8.157913360671936e-05,4.086065840710963e-06,8.161923526260411e-05,8.165884130189471e-05
72.4226497308,83.57735026920001,8,0,-0.7275283111182231,25.09738892541029,0.5889628602556534,-2.240600173590655e-05,8.089366721020751e-05,4.711702882045227e-06,8.09473668243515e-05,8.092415573203724e-05
73.57735026920001,83.57735026920001,8,0,-0.6704061114089388,25.32587772424743,0.5964415296527432,-2.240600173590655e-05,8.157913360671892e-05,4.771532237221945e-06,8.163384226211464e-05,8.161822346284407e-05
74.4226497308,82.42264973080002,8,0,-0.672767952834219,25.48201573049331,0.5139973894974356,-2.253847003346414e-05,8.208066469984595e-05,4.111979115979485e-06,8.212105369562912e-05,8.215988601256512e-05
75.57735026920001,82.42264973080002,8,0,-0.6157061168721203,25.7102630743417,0.5203847351054026,-2.253847003346414e-05,8.276540673139113e-05,4.163077880843221e-06,8.280653639199405e-05,8.284351798421274e-05
74.4226497308,83.57735026920001,8,0,-0.6557350312130996,25.48627396089859,0.5995901434406787,-2.248737126860079e-05,8.208066469984595e-05,4.79672114752543e-06,8.213564431794939e-05,8.21258959666726e-05
75.57735026920001,83.57735026920001,8,0,-0.5986731952510285,25.71452130474687,0.6059774890485644,-2.248737126860079e-05,8.276540673139081e-05,4.847819912388515e-06,8.282119838723553e-05,8.281881530999e-05
76.42264973080002,82.42264973080002,8,0,-0.5972798249616718,25.87187365453688,0.5163192468413309,-2.260879436350686e-05,8.326781955448736e-05,4.130553974730647e-06,8.33080904616386e-05,8.334476491652061e-05
77.57735026920001,82.42264973080002,8,0,-0.5399568809960362,26.10116543039943,0.5215841270814117,-2.260879436350686e-05,8.395569488207498e-05,4.172673016651293e-06,8.399652586515009e-05,8.40305650311344e-05
76.42264973080002,83.57735026920001,8,0,-0.5832401443212039,25.875383574697,0.6023036627896754,-2.256667532158545e-05,8.326781955448736e-05,4.818429302317403e-06,8.332263448571999e-05,8.332699994105447e-05
77.57735026920001,83.57735026920001,8,0,-0.5259172003555683,26.10467535055954,0.6075685430298374,-2.256667532158545e-05,8.395569488207498e-05,4.860548344238699e-06,8.401111198821645e-05,8.402246682948988e-05
78.4226497308,82.42264973080002,8,0,-0.5221013558225138,26.2638077061593,0.5099847075840866,-2.268177050355948e-05,8.446186574436777e-05,4.079877660672694e-06,8.450069066391326e-05,8.453482810166592e-05
79.57735026920001,82.42264973080002,8,0,-0.4641839236919836,26.49547743468142,0.5141081735904487,-2.268177050355948e-05,8.515687492993414e-05,4.112865388723589e-06,8.519607589257581e-05,8.52267003161836e-05
78.4226497308,83.57735026920001,8,0,-0.5111054464719986,26.26655668349693,0.5968608557797872,-2.264878277550794e-05,8.446186574436777e-05,4.774886846238297e-06,8.451505426631638e-05,8.453390848149439e-05
79.57735026920001,83.57735026920001,8,0,-0.453188014341495,26.49822641201894,0.6009843217862575,-2.264878277550794e-05,8.515687492993381e-05,4.80787457429006e-06,8.521045322971193e-05,8.523572617150167e-05
80.4226497308,82.42264973080002,8,0,-0.4483580828054743,26.65971460057566,0.4948190769112212,-2.276251754543805e-05,8.56697731880865e-05,3.958552615289769e-06,8.570589001500517e-05,8.573684272272977e-05
81.57735026920001,82.42264973080002,8,0,-0.389503506565533,26.89513290553543,0.4977952478242629,-2.276251754543805e-05,8.63760281029658e-05,3.982361982594104e-06,8.641234417131483e-05,8.643870548205097e-05
80.4226497308,83.57735026920001,8,0,-0.4404216270376704,26.66169871451762,0.5831009412712016,-2.273870817813464e-05,8.56697731880865e-05,4.664807530169613e-06,8.571993154649109e-05,8.575320921475943e-05
81.57735026920001,83.57735026920001,8,0,-0.3815670507977744,26.8971170194772,0.5860771121841621,-2.273870817813464e-05,8.637602810296525e-05,4.688616897473297e-06,8.642637187681722e-05,8.646518149104784e-05
82.4226497308,82.42264973080002,8,0,-0.3771976827787382,27.06154193757809,0.4707393011757396,-2.285626613495443e-05,8.689869234647287e-05,3.765914409405917e-06,8.693098687737205e-05,8.695753141403036e-05
83.57735026920001,82.42264973080002,8,0,-0.3170568199666866,27.3021053888263,0.4725763668692756,-2.285626613495443e-05,8.76203827002175e-05,3.780610934954205e-06,8.765271721866058e-05,8.767312746122145e-05
82.4226497308,83.57735026920001,8,0,-0.3722988409292913,27.06276664804045,0.5609505953938312,-2.284156960940609e-05,8.689869234647287e-05,4.48760476315065e-06,8.69445510497164e-05,8.699142060358356e-05
83.57735026920001,83.57735026920001,8,0,-0.3121579781172397,27.30333009928866,0.5627876610872994,-2.284156960940609e-05,8.76203827002175e-05,4.502301288698395e-06,8.766624080929009e-05,8.771716031973383e-05
84.42264973080002,82.42264973080002,8,0,-0.3097803144592648,27.47127224796591,0.4377603979885489,-2.296831480464237e-05,8.81558954450583e-05,3.502083183908392e-06,8.818348066438665e-05,8.820318043654463e-05
85.57735026920001,82.42264973080002,8,0,-0.2480005083489525,27.71839147240716,0.4384817690929876,-2.296831480464237e-05,8.889725311838205e-05,3.507854152743901e-06,8.892474597779369e-05,8.893571604870109e-05
84.42264973080002,83.57735026920001,8,0,-0.3078566581805813,27.47175316203558,0.5304301071540449,-2.296254383580632e-05,8.81558954450583e-05,4.243440857232359e-06,8.819639329159715e-05,8.825459776545289e-05
85.57735026920001,83.57735026920001,8,0,-0.2460768520702601,27.71887238647686,0.5311514782584972,-2.296254383580632e-05,8.889725311838216e-05,4.249211826067977e-06,8.893759221398157e-05,8.899716445695954e-05
86.4226497308,82.42264973080002,8,0,-0.2472682471966667,27.8909059861028,0.396002477281456,-2.310398317991157e-05,8.944871375328629e-05,3.168019818251648e-06,8.947100189652261e-05,8.947888767595513e-05
87.57735026920002,82.42264973080002,8,0,-0.1834965138906837,28.14599291932674,0.3956480948423449,-2.310398317991157e-05,9.021397455295809e-05,3.165184758738759e-06,9.023607264194417e-05,9.023032454674967e-05
86.4226497308,83.57735026920001,8,0,-0.2482132670343873,27.89066973114337,0.4916600772405122,-2.310681823942473e-05,8.944871375328629e-05,3.933280617924098e-06,8.948306563261882e-05,8.954757734278335e-05
87.57735026920002,83.57735026920001,8,0,-0.1844415337284042,28.1457566643673,0.4913056948013198,-2.310681823942473e-05,9.021397455295809e-05,3.930445558410559e-06,9.024804543837581e-05,9.030876662055187e-05
88.42264973080002,82.42264973080002,8,0,-0.1908146090323299,28.32244329760414,0.3456983890069693,-2.326856138698676e-05,9.07844702395591e-05,2.765587112055754e-06,9.080123294198913e-05,9.078707584571322e-05
89.57735026920001,82.42264973080002,8,0,-0.1247010755583213,28.58689743150017,0.3443261966979034,-2.326856138698676e-05,9.15778326412472e-05,2.754609573583228e-06,9.159434770682133e-05,9.155671181093171e-05
88.42264973080002,83.57735026920001,8,0,-0.1944737885234069,28.32152850273137,0.44486868921805,-2.327953892546e-05,9.07844702395591e-05,3.5589495137444e-06,9.081222448154632e-05,9.087248566695889e-05
89.57735026920001,83.57735026920001,8,0,-0.1283602550494072,28.58598263662737,0.4434964969088893,-2.327953892546e-05,9.15778326412471e-05,3.547971975271114e-06,9.160522553619774e-05,9.165140546523405e-05
90.42264973080002,82.42264973080002,8,0,-0.1415510698453346,28.76786436944953,0.2872019888003254,-2.34672549190647e-05,9.217040683811477e-05,2.297615910402603e-06,9.218181860024803e-05,9.212449962773929e-05
91.57735026920001,82.42264973080002,8,0,-0.07275270222215191,29.04305783994226,0.284889559386953,-2.34672549190647e-05,9.299598724959296e-05,2.279116475095624e-06,9.3007136421199e-05,9.290608882602367e-05
90.42264973080002,83.57735026920001,8,0,-0.1477175482808502,28.76632274984065,0.3903995402350043,-2.348575435437124e-05,9.217040683811477e-05,3.123196321880035e-06,9.219148781109269e-05,9.222573655261512e-05
91.57735026920001,83.57735026920001,8,0,-0.07891918065766745,29.04151622033338,0.3880871108216861,-2.348575435437124e-05,9.299598724959296e-05,3.104696886573489e-06,9.301667167455744e-05,9.301591846549805e-05
92.42264973080002,82.42264973080002,8,0,-0.1005742660604882,29.22910815653231,0.2209969608061273,-2.37051241766194e-05,9.361360551375176e-05,1.767975686449018e-06,9.362026591783258e-05,9.347615771946523e-05
93.57735026920001,82.42264973080002,8,0,-0.02875892723064677,29.51636951185167,0.2178432556859558,-2.37051241766194e-05,9.447538957970986e-05,1.742746045487647e-06,9.44818140709102e-05,9.425202570194397e-05
92.42264973080002,83.57735026920001,8,0,-0.1089841463809273,29.2270056864522,0.3287199690509175,-2.373035381758072e-05,9.361360551375176e-05,2.62975975240734e-06,9.362833735058153e-05,9.359192469421569e-05
93.57735026920001,83.57735026920001,8,0,-0.03716880755107699,29.5142670417716,0.3255662639306783,-2.373035381758072e-05,9.447538957970997e-05,2.604530111445427e-06,9.448973480897733e-05,9.437542106373245e-05
94.4226497308,82.42264973080002,8,0,-0.06893077332049202,29.70804927566209,0.1477060777608315,-2.398701789515525e-05,9.512090230077508e-05,1.181648622086652e-06,9.51238329604422e-05,9.480283461132802e-05
95.57735026920002,82.42264973080002,8,0,0.006218350429384678,30.0086457706616,0.1438333041071428,-2.398701789515525e-05,9.60226917857736e-05,1.150666432857142e-06,9.602544990179273e-05,9.553180455461212e-05
94.4226497308,83.57735026920001,8,0,-0.07925816973011113,29.70546742655969,0.2604297633856055,-2.401800008438411e-05,9.512090230077508e-05,2.083438107084844e-06,9.513001012040756e-05,9.493132925044245e-05
95.57735026920002,83.57735026920001,8,0,-0.0041090459801989,30.00606392155934,0.2565569897319169,-2.401800008438411e-05,9.602269178577403e-05,2.052455917855335e-06,9.603146436821318e-05,9.566660229142545e-05
96.4226497308,82.42264973080002,8,0,-0.04760044428771337,30.20647286711584,0.06810071338987124,-2.431749971541335e-05,9.669879353020085e-05,5.448057071189699e-07,9.66994066950621e-05,9.601552032352005e-05
97.57735026920001,82.42264973080002,8,0,0.03117912504075449,30.52159114442971,0.06365622801428686,-2.431749971541335e-05,9.764414836214248e-05,5.092498241142948e-07,9.764467995190266e-05,9.660808643737085e-05
96.4226497308,83.57735026920001,8,0,-0.05945240528932594,30.20350987686544,0.1862700673825211,-2.435305559841819e-05,9.669879353020085e-05,1.490160539060169e-06,9.670337936331429e-05,9.615425505468388e-05
97.57735026920001,83.57735026920001,8,0,0.01932716403917034,30.51862815417942,0.1818255820069774,-2.435305559841819e-05,9.76441483621428e-05,1.454604656055819e-06,9.764848411624552e-05,9.675127413943099e-05
98.42264973080002,82.42264973080002,8,0,-0.03747795182149893,30.72604724677414,-0.01688964727016712,-2.470076724324811e-05,9.835333355113444e-05,-1.351171781613369e-07,9.835337064182506e-05,9.692278830028654e-05
99.57735026920002,82.42264973080002,8,0,0.0452033095488229,31.05677229225543,-0.02173145436874574,-2.470076724324811e-05,9.934550868757831e-05,-1.738516349499659e-07,9.934556960108802e-05,9.719000366519454e-05
98.42264973080002,83.57735026920001,8,0,-0.05038943741777935,30.72281937537507,0.1071322447852223,-2.473950170003695e-05,9.835333355113444e-05,8.570579582817782e-07,9.835482539150029e-05,9.706824962491247e-05
99.57735026920002,83.57735026920001,8,0,0.03229182395252472,31.05354442085629,0.1022904376866843,-2.473950170003695e-05,9.93455086875781e-05,8.183235014934745e-07,9.934685785551947e-05,9.733722367129142e-05
0.4226497308,84.4226497308,8,0,-0.02980994598230402,7.077009094619092,-0.0849649255119778,-5.756999102838646e-06,2.267027705956694e-05,-6.797194040958224e-07,2.267433964058426e-05,2.434563820804732e-05
1.5773502692,84.4226497308,8,0,0.03613957718557281,7.3408071872906,-0.08923221422703288,-5.756999102838646e-06,2.346167133758146e-05,-7.138577138162631e-07,2.34660308516049e-05,2.459066732563127e-05
0.4226497308,85.57735026920001,8,0,-0.04118938255603721,7.074164235475659,0.01395935923987788,-5.791137412559846e-06,2.267027705956694e-05,1.116748739190231e-07,2.267038660462729e-05,2.447439567656066e-05
1.5773502692,85.57735026920001,8,0,0.02476014061183962,7.337962328147166,0.009692070524782142,-5.791137412559846e-06,2.346167133758146e-05,7.753656419825714e-08,2.346172271647878e-05,2.471773542793349e-05
2.4226497308,84.4226497308,8,0,-0.04344005144953433,7.507185183567175,-0.160588054072937,-6.144756311492249e-06,2.405774462857458e-05,-1.284704432583496e-06,2.4071400116848e-05,2.489065720348815e-05
3.5773502692,84.4226497308,8,0,0.02631896839083758,7.786221262928663,-0.1645016546971735,-6.144756311492249e-06,2.489485286665905e-05,-1.316013237577388e-06,2.490879564238444e-05,2.546521567400043e-05
2.4226497308,85.57735026920001,8,0,-0.05387631978059648,7.50457611648441,-0.05594952431252831,-6.176065116485436e-06,2.405774462857458e-05,-4.475961945002264e-07,2.405940114638374e-05,2.501552132548254e-05
3.5773502692,85.57735026920001,8,0,0.0158827000597932,7.783612195845969,-0.05986312493665635,-6.176065116485436e-06,2.489485286665926e-05,-4.789049994932508e-07,2.489669813221148e-05,2.558574777602577e-05
4.422649730800001,84.4226497308,8,0,-0.06775699658523271,7.959083787138358,-0.2316664363260785,-6.58408941878343e-06,2.552327371611093e-05,-1.853331490608628e-06,2.554999641200594e-05,2.595217165452382e-05
5.577350269200001,84.4226497308,8,0,0.005557124350366927,8.252340270880756,-0.2350615204474552,-6.58408941878343e-06,2.640304316733812e-05,-1.880492163579641e-06,2.642982165754115e-05,2.670800166390754e-05
4.422649730800001,85.57735026920001,8,0,-0.07681055424232719,7.956820397724083,-0.121695254922706,-6.611250091754714e-06,2.552327371611093e-05,-9.73562039381648e-07,2.553064589357175e-05,2.606886440366613e-05
5.577350269200001,85.57735026920001,8,0,-0.003496433306745761,8.250076881466409,-0.1250903390439878,-6.611250091754714e-06,2.640304316733791e-05,-1.000722712351902e-06,2.641062485333153e-05,2.681853712587381e-05
6.422649730800001,84.4226497308,8,0,-0.1018790190462271,8.431233861340028,-0.2972923689067004,-7.070999950019947e-06,2.706145157152506e-05,-2.378338951253603e-06,2.710283188990395e-05,2.730040562655745e-05
7.577350269200001,84.4226497308,8,0,-0.02529270561138164,8.737579115079409,-0.300029919756106,-7.070999950019947e-06,2.798048733274321e-05,-2.400239358048848e-06,2.802152989224108e-05,2.816305334180724e-05
6.422649730800001,85.57735026920001,8,0,-0.1091791546446959,8.42940882744041,-0.1824128987544592,-7.092900356815354e-06,2.706145157152506e-05,-1.459303190035673e-06,2.70770322709637e-05,2.740597200959311e-05
7.577350269200001,85.57735026920001,8,0,-0.0325928412098504,8.735754081179792,-0.1851504496038782,-7.092900356815354e-06,2.798048733274321e-05,-1.481203596831026e-06,2.799611874786428e-05,2.826120123591311e-05
8.4226497308,84.4226497308,8,0,-0.1448338568431748,8.922009711969309,-0.3567111454452196,-7.601076111473607e-06,2.866629816377633e-05,-2.853689163561757e-06,2.872234699635782e-05,2.881952817928452e-05
9.5773502692,84.4226497308,8,0,-0.06528100070764964,9.24022113651141,-0.3586763211901178,-7.601076111473607e-06,2.962093243740263e-05,-2.869410569520943e-06,2.967615058093847e-05,2.975040307398945e-05
8.4226497308,85.57735026920001,8,0,-0.1500743254962189,8.920699594806049,-0.2373818612420538,-7.616797517432739e-06,2.866629816377633e-05,-1.899054889936431e-06,2.86911302713533e-05,2.891193508381339e-05
9.5773502692,85.57735026920001,8,0,-0.0705214693606937,9.23891101934815,-0.2393470369868437,-7.616797517432739e-06,2.962093243740263e-05,-1.91477629589475e-06,2.964553079470741e-05,2.983454379223734e-05
10.4226497308,84.4226497308,8,0,-0.1955787421302269,9.429662865103468,-0.409312542831963,-8.1695822668995e-06,3.033138416203528e-05,-3.274500342655704e-06,3.040088262752824e-05,3.044908917706019e-05
11.5773502692,84.4226497308,8,0,-0.1133824142567996,9.758448176597177,-0.4104129500172169,-8.1695822668995e-06,3.131774009651641e-05,-3.283303600137735e-06,3.138587281366453e-05,3.142706021456796e-05
10.4226497308,85.57735026920001,8,0,-0.1985131612908502,9.428929260313447,-0.2860180510218897,-8.178385524381477e-06,3.033138416203571e-05,-2.288144408175118e-06,3.036534302531688e-05,3.052698375236978e-05
11.5773502692,85.57735026920001,8,0,-0.1163168334174589,9.757714571807012,-0.2871184582071301,-8.178385524381477e-06,3.131774009651641e-05,-2.29694766565704e-06,3.135110738882111e-05,3.149615619629905e-05
12.4226497308,84.4226497308,8,0,-0.2530185014850925,9.952351500095054,-0.4546219173859095,-8.771540404828337e-06,3.204993960149224e-05,-3.636975339087276e-06,3.213078823564579e-05,3.215561284852779e-05
13.5773502692,84.4226497308,8,0,-0.1685143086120178,10.29036827158735,-0.454785881551749,-8.771540404828337e-06,3.306398991596913e-05,-3.638287052413992e-06,3.314294312950998e-05,3.316808462307104e-05
12.4226497308,85.57735026920001,8,0,-0.2534557392606822,9.952242190651155,-0.3278656280763788,-8.772852118155107e-06,3.204993960149224e-05,-2.62292502461103e-06,3.20920279159507e-05,3.22181628977754e-05
13.5773502692,85.57735026920001,8,0,-0.1689515463875897,10.29025896214353,-0.3280295922421911,-8.772852118155107e-06,3.306398991596935e-05,-2.624236737937529e-06,3.310510115659971e-05,3.322154944576856e-05
14.4226497308,84.4226497308,8,0,-0.3160219124226749,10.48816753663495,-0.4922912719104212,-9.401804149060519e-06,3.381495364716998e-05,-3.93833017528337e-06,3.390449284611877e-05,3.391882450795116e-05
15.5773502692,84.4226497308,8,0,-0.2295535162650229,10.83404112126556,-0.4914661720399952,-9.401804149060519e-06,3.48525744010618e-05,-3.931729376319961e-06,3.493973024771278e-05,3.495741224225602e-05
14.4226497308,85.57735026920001,8,0,-0.3138216461016832,10.4887176032152,-0.3625886776738351,-9.395203350097544e-06,3.381495364716998e-05,-2.900709421390681e-06,3.386358027534912e-05,3.39656044772663e-05
15.5773502692,85.57735026920001,8,0,-0.2273532499440134,10.83459118784588,-0.3617635778034632,-9.395203350097544e-06,3.485257440106202e-05,-2.894108622427706e-06,3.489984754190811e-05,3.499501407903867e-05
16.4226497308,84.4226497308,8,0,-0.3834365080143902,11.03516153424358,-0.5220905646144756,-1.005512605304091e-05,3.561926611599098e-05,-4.176724516915804e-06,3.571455314877355e-05,3.57249759693757e-05
17.5773502692,84.4226497308,8,0,-0.2953515109208671,11.38750152261768,-0.5202412774357495,-1.005512605304091e-05,3.667628608111325e-05,-4.161930219485997e-06,3.676876911296302e-05,3.678341133569793e-05
16.4226497308,85.57735026920001,8,0,-0.3785050755376251,11.03639439236277,-0.3899630689741234,-1.004033175561062e-05,3.561926611599098e-05,-3.119704551792987e-06,3.567249273564746e-05,3.575588114606559e-05
17.5773502692,85.57735026920001,8,0,-0.2904200784440842,11.38873438073694,-0.3881137817953297,-1.004033175561062e-05,3.667628608111347e-05,-3.104910254362638e-06,3.672781937596472e-05,3.680519902930506e-05
18.4226497308,84.4226497308,8,0,-0.4541020413091155,11.59136560380973,-0.543899441981003,-1.072621901523695e-05,3.745565156523844e-05,-4.351195535848024e-06,3.755368873780321e-05,3.756361454072723e-05
19.5773502692,84.4226497308,8,0,-0.3647481967039949,11.94878098223021,-0.5410069225493058,-1.072621901523695e-05,3.852789770049988e-05,-4.328055380394447e-06,3.862279353735072e-05,3.863673397086375e-05
18.4226497308,85.57735026920001,8,0,-0.4463886561580135,11.59329395009751,-0.4098686750733226,-1.070307885978365e-05,3.745565156523844e-05,-3.278949400586581e-06,3.751139990809292e-05,3.757879469676199e-05
19.5773502692,85.57735026920001,8,0,-0.3570348115529201,11.95070932851788,-0.4069761556416119,-1.070307885978365e-05,3.852789770049955e-05,-3.255809245132895e-06,3.858166836200356e-05,3.864297948161985e-05
20.4226497308,84.4226497308,8,0,-0.5268628213466746,12.15481454830513,-0.5576994949677824,-1.140981266695346e-05,3.931689681165376e-05,-4.461595959742259e-06,3.941481115420764e-05,3.942602318924672e-05
21.5773502692,84.4226497308,8,0,-0.4365845277107465,12.51592772284885,-0.5537595024355727,-1.140981266695346e-05,4.04002363352849e-05,-4.430076019484581e-06,4.049476351853497e-05,4.050928200569048e-05
20.4226497308,85.57735026920001,8,0,-0.5163561745941152,12.15744120999327,-0.4222820545138903,-1.137829272669579e-05,3.931689681165376e-05,-3.378256436111123e-06,3.937311503815599e-05,3.942583076557737e-05
21.5773502692,85.57735026920001,8,0,-0.4260778809581693,12.51855438453706,-0.4183420619817348,-1.137829272669579e-05,4.040023633528512e-05,-3.346736495853878e-06,4.045425955370627e-05,4.050043546335293e-05
22.4226497308,84.4226497308,8,0,-0.6005791161857572,12.72356544668565,-0.5635670654682867,-1.210070552914294e-05,4.119587272234269e-05,-4.508536523746293e-06,4.129105081245787e-05,4.130447269178554e-05
23.5773502692,84.4226497308,8,0,-0.509714156997862,13.08702528343723,-0.5585890282665414,-1.210070552914294e-05,4.228625223259743e-05,-4.468712226132331e-06,4.237789092311273e-05,4.239371523155141e-05
22.4226497308,85.57735026920001,8,0,-0.5873043503144726,12.72688413815347,-0.4272696266864303,-1.206088123152909e-05,4.119587272234269e-05,-3.418157013491442e-06,4.125066290689701e-05,4.128942236565228e-05
23.5773502692,85.57735026920001,8,0,-0.4964393911265681,13.09034397490509,-0.422291589484685,-1.206088123152909e-05,4.228625223259754e-05,-3.37833271587748e-06,4.233870268863374e-05,4.237036997155656e-05
24.4226497308,84.4226497308,8,0,-0.6741377895658229,13.29571587506145,-0.5616665705717936,-1.279381362665979e-05,4.308560103184929e-05,-4.493332564574348e-06,4.317578408818787e-05,4.319186927840399e-05
25.5773502692,84.4226497308,8,0,-0.5830142877023055,13.66020988251552,-0.5556725738755373,-1.279381362665979e-05,4.41790830542115e-05,-4.445380591004298e-06,4.426566555059868e-05,4.428322414699878e-05
24.4226497308,85.57735026920001,8,0,-0.6581537983758241,13.29971187285895,-0.4249813177765039,-1.274586165308979e-05,4.308560103184929e-05,-3.399850542212032e-06,4.313731151576567e-05,4.316260659759051e-05
25.5773502692,85.57735026920001,8,0,-0.5670302965123248,13.66420588031295,-0.4189873210802206,-1.274586165308979e-05,4.417908305421128e-05,-3.351898568641765e-06,4.422838262876501e-05,4.424608970571997e-05
26.4226497308,84.4226497308,8,0,-0.7464623006462605,13.8694209269098,-0.5522442674592368,-1.348421610359587e-05,4.497931680662835e-05,-4.417954139673895e-06,4.506266163872242e-05,4.508159573430801e-05
27.57735026920001,84.4226497308,8,0,-0.6553958633739136,14.23368667599918,-0.5452681379807206,-1.348421610359587e-05,4.607211405389651e-05,-4.362145103845765e-06,4.61518824758769e-05,4.617143260565417e-05
26.4226497308,85.57735026920001,8,0,-0.7278592887034057,13.87407167989578,-0.4156446115507442,-1.342840706776752e-05,4.497931680662922e-05,-3.325156892405954e-06,4.502660389193461e-05,4.503887296867651e-05
27.57735026920001,85.57735026920001,8,0,-0.6367928514311765,14.2383374289847,-0.4086684820724042,-1.342840706776752e-05,4.607211405389597e-05,-3.269347856579233e-06,4.611699004736132e-05,4.612131401442669e-05
28.4226497308,84.4226497308,8,0,-0.8165221548348867,14.44290915384154,-0.5356223522497665,-1.416719821854486e-05,4.687052701616082e-05,-4.284978817998132e-06,4.694563825518253e-05,4.69674477436356e-05
29.5773502692,84.4226497308,8,0,-0.7258131939052928,14.80574499755991,-0.5277088110508321,-1.416719821854486e-05,4.795903454731594e-05,-4.221670488406657e-06,4.803067085085552e-05,4.805236467294112e-05
28.4226497308,85.57735026920001,8,0,-0.7954193783043411,14.44818484797417,-0.3995589108554166,-1.410388988895323e-05,4.687052701616082e-05,-3.196471286843333e-06,4.691239055083537e-05,4.691210541659658e-05
29.5773502692,85.57735026920001,8,0,-0.7047104173747654,14.81102069169247,-0.3916453696565093,-1.410388988895323e-05,4.795903454731573e-05,-3.133162957252075e-06,4.799855275987705e-05,4.799014665985506e-05
30.4226497308,84.4226497308,8,0,-0.8833418517496971,15.01449750455526,-0.5121932712148395,-1.483829192924324e-05,4.87530654959766e-05,-4.097546169718716e-06,4.881900406731446e-05,4.884361748681855e-05
31.5773502692,84.4226497308,8,0,-0.7932730714611589,15.37477262570942,-0.5033971240824301,-1.483829192924324e-05,4.983389085943906e-05,-4.027176992659441e-06,4.989652390442939e-05,4.992044344674991e-05
30.4226497308,85.57735026920001,8,0,-0.8598854593964607,15.02036160264371,-0.3770901007822225,-1.476792275218364e-05,4.875306549597704e-05,-3.01672080625778e-06,4.878886263536748e-05,4.877657029496071e-05
31.5773502692,85.57735026920001,8,0,-0.7698166791079677,15.38063672379768,-0.3682939536497725,-1.476792275218364e-05,4.983389085943895e-05,-2.94635162919818e-06,4.986746761929522e-05,4.984707837917521e-05
32.4226497308,84.4226497308,8,0,-0.9460093370240337,15.58260529604778,-0.4824141211200184,-1.549331411531513e-05,5.062114441697213e-05,-3.859312968960147e-06,5.067741664043963e-05,5.070470079711855e-05
33.57735026920001,84.4226497308,8,0,-0.8568433908364419,15.93926908079815,-0.4727994576808197,-1.549331411531513e-05,5.169113577122323e-05,-3.782395661446557e-06,5.174432962270423e-05,5.177050576469473e-05
32.4226497308,85.57735026920001,8,0,-0.9203702345195044,15.58901507167392,-0.3486652018386575,-1.541639680780155e-05,5.062114441697213e-05,-2.78932161470926e-06,5.065058542822677e-05,5.062692683700379e-05
33.57735026920001,85.57735026920001,8,0,-0.8312042883319215,15.94567885642425,-0.3390505383993911,-1.541639680780155e-05,5.169113577122313e-05,-2.712404307195129e-06,5.171853260171956e-05,5.168700436187179e-05
34.42264973080001,84.4226497308,8,0,-1.003683930590293,16.14576721109843,-0.4468010250302843,-1.612840234676768e-05,5.246940221998722e-05,-3.574408200242274e-06,5.251593334980408e-05,5.254571593894147e-05
35.5773502692,84.4226497308,8,0,-0.9156612534497333,16.49785791966067,-0.4364404016329615,-1.612840234676768e-05,5.352567434567393e-05,-3.491523213063692e-06,5.356940145643694e-05,5.359782455404171e-05
34.42264973080001,85.57735026920001,8,0,-0.9760556015309829,16.15267429336299,-0.3147670093193501,-1.604551735958954e-05,5.246940221998635e-05,-2.518136074554801e-06,5.249253174210247e-05,5.245824834667812e-05
35.5773502692,85.57735026920001,8,0,-0.8880329243903597,16.50476500192548,-0.3044063859220544,-1.604551735958954e-05,5.352567434567382e-05,-2.435251087376435e-06,5.35469785386835e-05,5.350524857342242e-05
36.4226497308,84.4226497308,8,0,-1.055603677009825,16.70264528216952,-0.405923388270137,-1.674004799216705e-05,5.42929478445503e-05,-3.247387106161096e-06,5.433004334709764e-05,5.436212777574308e-05
37.5773502692,84.4226497308,8,0,-0.968940505623693,17.04929796771404,-0.39489697513422,-1.674004799216705e-05,5.533290590118388e-05,-3.15917580107376e-06,5.536750834872387e-05,5.539813439480826e-05
36.4226497308,85.57735026920001,8,0,-1.026199908647397,16.70999622426012,-0.27592863119098,-1.665183668707977e-05,5.42929478445503e-05,-2.20742904952784e-06,5.431011458997164e-05,5.426604805055777e-05
37.5773502692,85.57735026920001,8,0,-0.9395367372612844,17.05664890980458,-0.2649022180550224,-1.665183668707977e-05,5.533290590118366e-05,-2.119217744440179e-06,5.534849986943139e-05,5.529759064980743e-05
38.4226497308,84.4226497308,8,0,-1.101092044538827,17.25203979589263,-0.3603979637280014,-1.732512637923835e-05,5.608740098248747e-05,-2.883183709824011e-06,5.611569841898629e-05,5.614987388512336e-05
39.5773502692,84.4226497308,8,0,-1.015978641235757,17.59249340910491,-0.3487926433064231,-1.732512637923835e-05,5.710876182212431e-05,-2.790341146451385e-06,5.713490337665735e-05,5.716765774774228e-05
38.4226497308,85.57735026920001,8,0,-1.070144523414654,17.25977667617367,-0.2327278587733279,-1.723228381586583e-05,5.608740098248747e-05,-1.861822870186623e-06,5.609921849709789e-05,5.604630631372406e-05
39.5773502692,85.57735026920001,8,0,-0.985031120111592,17.60023028938592,-0.2211225383518174,-1.723228381586583e-05,5.710876182212421e-05,-1.768980306814539e-06,5.711928376344898e-05,5.706029294880425e-05
40.4226497308,84.4226497308,8,0,-1.139563889294479,17.79289903524868,-0.3108826836583587,-1.788092367394127e-05,5.784892802423135e-05,-2.48706146926687e-06,5.786934206071004e-05,5.790539056824474e-05
41.5773502692,84.4226497308,8,0,-1.056162986739938,18.12650264546684,-0.2987910939884699,-1.788092367394127e-05,5.884973885488583e-05,-2.390328751907759e-06,5.886835033888906e-05,5.890313025373536e-05
40.4226497308,85.57735026920001,8,0,-1.107319650174794,17.8009600950286,-0.185781329826724,-1.778419095658222e-05,5.784892802423135e-05,-1.486250638613792e-06,5.785622881978256e-05,5.779549729283887e-05
41.5773502692,85.57735026920001,8,0,-1.02391874762028,18.13456370524666,-0.1736897401568758,-1.778419095658222e-05,5.884973885488551e-05,-1.389517921255006e-06,5.885603698350994e-05,5.879012627969201e-05
42.4226497308,84.4226497308,8,0,-1.170530598916629,18.32432776873614,-0.2580702440451419,-1.840516013152212e-05,5.957427333908895e-05,-2.064561952361136e-06,5.958793613829489e-05,5.962563742078996e-05
43.57735026920001,84.4226497308,8,0,-1.088976082907444,18.65054583277288,-0.2455897675121657,-1.840516013152212e-05,6.055292753119916e-05,-1.964718140097326e-06,6.05651476854468e-05,6.06018240246091e-05
42.4226497308,85.57735026920001,8,0,-1.137249328161935,18.33264808642481,-0.1357384700313388,-1.830531631925804e-05,5.957427333908895e-05,-1.08590776025071e-06,5.957805847188184e-05,5.951061380079243e-05
43.57735026920001,85.57735026920001,8,0,-1.055694812152759,18.65886615046152,-0.1232579934982948,-1.830531631925804e-05,6.055292753119905e-05,-9.860639479863584e-07,6.055600991059844e-05,6.04843933278887e-05
44.4226497308,84.4226497308,8,0,-1.193604335801354,18.84559439680102,-0.2026814551776422,-1.889600939200515e-05,6.126078553840434e-05,-1.621451641421138e-06,6.126898458294706e-05,6.130811953466915e-05
45.5773502692,84.4226497308,8,0,-1.114000181784712,19.16401101286759,-0.1899131591223408,-1.889600939200515e-05,6.221603538660405e-05,-1.519305272978727e-06,6.222314926867154e-05,6.226156814957385e-05
44.4226497308,85.57735026920001,8,0,-1.159555546320569,18.85410659417122,-0.08327522415271879,-1.879386302356279e-05,6.126078553840434e-05,-6.662017932217504e-07,6.126217152021014e-05,6.118918954115121e-05
45.5773502692,85.57735026920001,8,0,-1.079951392303918,19.17252321023782,-0.0705069280973903,-1.879386302356279e-05,6.221603538660416e-05,-5.640554247791224e-07,6.221701722546718e-05,6.214094907775211e-05
46.42264973080001,84.4226497308,8,0,-1.208501312139399,19.35613667476444,-0.1454583964842563,-1.935211353865763e-05,6.290643840895773e-05,-1.163667171874051e-06,6.291055364535006e-05,6.295090665141658e-05
47.57735026920001,84.4226497308,8,0,-1.130920788251927,19.66645877031433,-0.1325059370783156,-1.935211353865763e-05,6.383740469560739e-05,-1.060047496626525e-06,6.384078148846553e-05,6.388076584723977e-05
46.42264973080001,85.57735026920001,8,0,-1.173961420390459,19.36477164770168,-0.02908761065296755,-1.924849386341081e-05,6.290643840895773e-05,-2.327008852237404e-07,6.290660318784525e-05,6.28293181051083e-05
47.57735026920001,85.57735026920001,8,0,-1.096380896502995,19.67509374325153,-0.01613515124710817,-1.924849386341081e-05,6.383740469560729e-05,-1.290812099768654e-07,6.383745483031427e-05,6.375821772568119e-05
48.4226497308,84.4226497308,8,0,-1.215044046246444,19.85556594702442,-0.08715743336974073,-1.977259370560815e-05,6.450984626747529e-05,-6.972594669579259e-07,6.451128833075156e-05,6.45526487686439e-05
49.57735026920001,84.4226497308,8,0,-1.139529191838633,20.15762536465567,-0.07412593788857591,-1.977259370560815e-05,6.541602452036902e-05,-5.930075031086073e-07,6.54170565057624e-05,6.545840785091262e-05
48.4226497308,85.57735026920001,8,0,-1.180293391630366,19.86425361067844,0.02611484824200337,-1.966834174175992e-05,6.450984626747529e-05,2.08918785936027e-07,6.450997589426145e-05,6.442966828784552e-05
49.57735026920001,85.57735026920001,8,0,-1.104778537222582,20.16631302830957,0.03914634372301912,-1.966834174175992e-05,6.54160245203687e-05,3.131707497841529e-07,6.541631269195256e-05,6.53352057179542e-05
50.42264973080001,84.4226497308,8,0,-1.213162570384942,20.3436698478789,-0.02854216781284923,-2.015705610353493e-05,6.607027356952044e-05,-2.283373425027938e-07,6.60704247334576e-05,6.611258784590552e-05
51.57735026920001,84.4226497308,8,0,-1.139723954529146,20.63742431130209,-0.01553711270028285,-2.015705610353493e-05,6.695153695978999e-05,-1.242969016022628e-07,6.695158130016831e-05,6.699408174732853e-05
50.42264973080001,85.57735026920001,8,0,-1.178482423418134,20.3523398846206,0.08161575597081736,-2.005301566263451e-05,6.607027356952044e-05,6.529260477665388e-07,6.607151105795749e-05,6.598949541117519e-05
51.57735026920001,85.57735026920001,8,0,-1.105043807562338,20.64609434804379,0.09462081108343795,-2.005301566263451e-05,6.695153695978999e-05,7.569664886675036e-07,6.695318338921459e-05,6.687151066589091e-05
52.4226497308,84.4226497308,8,0,-1.202894582827184,20.8204134481042,0.02962359780237954,-2.050559342353035e-05,6.758763870019519e-05,2.369887824190363e-07,6.758779808696085e-05,6.763056538080007e-05
53.5773502692,84.4226497308,8,0,-1.131511342545906,21.10594640922931,0.04249749492645036,-2.050559342353035e-05,6.844423758357052e-05,3.399799594116029e-07,6.844456244633121e-05,6.848797710428128e-05
52.4226497308,85.57735026920001,8,0,-1.16856419049622,20.82899604618694,0.1366984582243359,-2.040260224653746e-05,6.758763870019519e-05,1.093587665794687e-06,6.759103648553517e-05,6.750864845011983e-05
53.5773502692,85.57735026920001,8,0,-1.09718095021496,21.11452900731198,0.1495723553484067,-2.040260224653746e-05,6.84442375835703e-05,1.196578842787253e-06,6.844826624685543e-05,6.836732599341339e-05
54.42264973080001,84.4226497308,8,0,-1.18438455962618,21.28593885160594,0.08658280285473526,-2.081878167208852e-05,6.906251197283993e-05,6.92662422837882e-07,6.906384643880431e-05,6.910702573476691e-05
55.57735026920001,84.4226497308,8,0,-1.115004712859507,21.56345823867263,0.09922265980464315,-2.081878167208852e-05,6.989507013404001e-05,7.937812784371452e-07,6.989680657407799e-05,6.994088632220023e-05
54.42264973080001,85.57735026920001,8,0,-1.150678274426462,21.29436542290587,0.190652573004704,-2.071766281648937e-05,6.906251197283993e-05,1.525220584037631e-06,6.906898926588968e-05,6.898757285758989e-05
55.57735026920001,85.57735026920001,8,0,-1.08129842765979,21.57188480997256,0.2032924299546525,-2.071766281648937e-05,6.989507013404001e-05,1.62633943963722e-06,6.990236703070121e-05,6.982344126053389e-05
56.4226497308,84.4226497308,8,0,-1.157881862946747,21.74056327126325,0.1415919008033382,-2.109767257844019e-05,7.049610795839979e-05,1.132735206426706e-06,7.049960994288165e-05,7.054301518046713e-05
57.57735026920001,84.4226497308,8,0,-1.090422886922362,22.01039917536079,0.1538977006882092,-2.109767257844019e-05,7.13056156706924e-05,1.231181605505674e-06,7.130971655526437e-05,7.135420122659238e-05
56.4226497308,85.57735026920001,8,0,-1.125066396586837,21.74876713785322,0.2427803648398746,-2.099922617936046e-05,7.049610795839979e-05,1.942242918718997e-06,7.050641417433558e-05,7.042730906336474e-05
57.57735026920001,85.57735026920001,8,0,-1.057607420562435,22.01860304195084,0.2550861647248812,-2.099922617936046e-05,7.130561567069262e-05,2.040689317799049e-06,7.131689325936592e-05,7.124123817887974e-05
58.4226497308,84.4226497308,8,0,-1.123737901496118,22.18477563583856,0.1939273963448752,-2.134378179345842e-05,7.189027235588027e-05,1.551419170759002e-06,7.189672583169434e-05,7.194017671580205e-05
59.57735026920001,84.4226497308,8,0,-1.058087563438215,22.44737698807017,0.2058029585593998,-2.134378179345842e-05,7.267807641257512e-05,1.646423668475198e-06,7.268528352158719e-05,7.272990547825569e-05
58.4226497308,85.57735026920001,8,0,-1.092069735591099,22.19269267731481,0.2924029034317445,-2.124877729574337e-05,7.189027235588027e-05,2.339223227453956e-06,7.190495766428527e-05,7.182948668833295e-05
59.57735026920001,85.57735026920001,8,0,-1.026419397533195,22.45529402954643,0.3042784656460658,-2.124877729574337e-05,7.267807641257512e-05,2.434227725168527e-06,7.269384525225955e-05,7.26226823881891e-05
60.4226497308,84.4226497308,8,0,-1.08240241345045,22.61923179912469,0.2428920974308139,-2.155907316234119e-05,7.324746368795937e-05,1.943136779446511e-06,7.325741918317501e-05,7.33007407386183e-05
61.5773502692,84.4226497308,8,0,-1.01841983770822,22.87516210209361,0.2542459818345391,-2.155907316234119e-05,7.401525459686613e-05,2.033967854676313e-06,7.402607485848501e-05,7.407056291029341e-05
60.4226497308,85.57735026920001,8,0,-1.05212538837356,22.62680105539392,0.3388659610442006,-2.146824208711052e-05,7.324746368795937e-05,2.710927688353605e-06,7.326685757934006e-05,7.319631455773466e-05
61.5773502692,85.57735026920001,8,0,-0.9881428126313025,22.88273135836295,0.3502198454479258,-2.146824208711052e-05,7.401525459686646e-05,2.801758763583406e-06,7.403580307770768e-05,7.397031108999958e-05
62.42264973080001,84.4226497308,8,0,-1.034418952440972,23.0447484371046,0.2878210511942156,-2.174593939749479e-05,7.457073016068749e-05,2.302568409553725e-06,7.458448962728166e-05,7.462751169387422e-05
63.57735026920001,84.4226497308,8,0,-0.9719359062844033,23.29468062173087,0.2985673923919707,-2.174593939749479e-05,7.532052671456631e-05,2.388539139135766e-06,7.533521833792624e-05,7.537930189622023e-05
62.42264973080001,85.57735026920001,8,0,-1.005762042580328,23.05191266456976,0.3815456204290819,-2.165996866791285e-05,7.457073016068749e-05,3.052364963432655e-06,7.459492875244668e-05,7.453056661108821e-05
63.57735026920001,85.57735026920001,8,0,-0.9432789964237589,23.30184484919603,0.3922919616269048,-2.165996866791285e-05,7.532052671456631e-05,3.138335693015238e-06,7.534590958594312e-05,7.528721662772345e-05
64.4226497308,84.4226497308,8,0,-0.9804196620332402,23.4622957279954,0.3280871543692666,-2.190717950090269e-05,7.586368205921186e-05,2.624697234954133e-06,7.588129414404761e-05,7.592385078037475e-05
65.57735026920001,84.4226497308,8,0,-0.9192420416866112,23.70700620938192,0.3381464282043421,-2.190717950090269e-05,7.659781350337141e-05,2.705171425634737e-06,7.661638254485276e-05,7.66597957968071e-05
64.4226497308,85.57735026920001,8,0,-0.9535949318064443,23.4690019105521,0.4198535848891696,-2.18267053102223e-05,7.586368205921186e-05,3.358828679113357e-06,7.589254466841655e-05,7.583556378065726e-05
65.57735026920001,85.57735026920001,8,0,-0.8924173114598428,23.7137123919385,0.4299128587242451,-2.18267053102223e-05,7.659781350337108e-05,3.439302869793961e-06,7.662784970694772e-05,7.65770260460866e-05
66.4226497308,84.4226497308,8,0,-0.9211194234195856,23.87298891301328,0.3631064514732159,-2.20459732853533e-05,7.713046006037816e-05,2.904851611785727e-06,7.715172608504417e-05,7.719365471758607e-05
67.57735026920001,84.4226497308,8,0,-0.8610289224092762,24.11335091705452,0.3724061811151121,-2.20459732853533e-05,7.785154607250187e-05,2.979249448920897e-06,7.78737537174413e-05,7.791623939685778e-05
66.4226497308,85.57735026920001,8,0,-0.8963201443744566,23.87918873277457,0.4532422029886532,-2.197157544821791e-05,7.713046006037816e-05,3.625937623909226e-06,7.716361534950073e-05,7.711515182531912e-05
67.57735026920001,85.57735026920001,8,0,-0.8362296433640841,24.11955073681605,0.4625419326306714,-2.197157544821791e-05,7.785154607250263e-05,3.700335461045371e-06,7.788582616166858e-05,7.78438765296781e-05
68.42264973080002,84.4226497308,8,0,-0.857309454733155,24.27807883234368,0.3923431565442829,-2.216585332102104e-05,7.837569982728628e-05,3.138745252354263e-06,7.840019050372261e-05,7.844133038705092e-05
69.57735026920001,84.4226497308,8,0,-0.7980653983176262,24.51505505800579,0.4008185705538247,-2.216585332102104e-05,7.908662850427263e-05,3.206548564430598e-06,7.911200905993981e-05,7.915332097164453e-05
68.42264973080002,85.57735026920001,8,0,-0.8347083507076745,24.28372910835005,0.4812092411674539,-2.209805000894459e-05,7.837569982728628e-05,3.849673929339631e-06,7.841256158030894e-05,7.837367492509006e-05
69.57735026920001,85.57735026920001,8,0,-0.7754642942921457,24.52070533401216,0.4896846551770092,-2.209805000894459e-05,7.908662850427263e-05,3.917477241416074e-06,7.912453167686865e-05,7.909238635482654e-05
70.4226497308,84.4226497308,8,0,-0.7898504287371155,24.67894152122215,0.4153144552341247,-2.227067458893648e-05,7.960449321090055e-05,3.322515641872997e-06,7.963157580757417e-05,7.967176480221939e-05
71.57735026920001,84.4226497308,8,0,-0.7311917609843963,24.91357619223302,0.4229091144469891,-2.227067458893648e-05,8.030839722393318e-05,3.383272915575912e-06,8.033628650040075e-05,8.03761891036871e-05
70.4226497308,85.57735026920001,8,0,-0.7695980041693327,24.68400462736409,0.5033024568630541,-2.220991731523314e-05,7.960449321090055e-05,4.026419654904433e-06,7.964428551889151e-05,7.961594448783221e-05
71.57735026920001,85.57735026920001,8,0,-0.7109393364166223,24.91863929837493,0.5108971160759862,-2.220991731523314e-05,8.030839722393307e-05,4.08717692860789e-06,8.034911771053269e-05,8.032762047824392e-05
72.4226497308,84.4226497308,8,0,-0.7196651591709697,25.07706693563591,0.431595162301898,-2.236458205785583e-05,8.082234632137168e-05,3.452761298415184e-06,8.085122164897581e-05,8.089028917047253e-05
73.57735026920001,84.4226497308,8,0,-0.6613125730262635,25.31047728021474,0.438261576014021,-2.236458205785583e-05,8.152257735510816e-05,3.506092608112168e-06,8.155215075739776e-05,8.159041237169683e-05
72.4226497308,85.57735026920001,8,0,-0.7018880559388769,25.08151121144394,0.5191240415188502,-2.231125074815955e-05,8.082234632137168e-05,4.152992332150801e-06,8.086413764772154e-05,8.08472019386278e-05
73.57735026920001,85.57735026920001,8,0,-0.6435354697941253,25.31492155602294,0.5257904552309188,-2.231125074815955e-05,8.152257735510871e-05,4.206323641847351e-06,8.156515958942557e-05,8.155504889671602e-05
74.4226497308,84.4226497308,8,0,-0.6477308854863884,25.47404685663542,0.4408223238964656,-2.245197631886478e-05,8.203513464962245e-05,3.526578591171725e-06,8.206488285641378e-05,8.210263447214046e-05
75.57735026920001,84.4226497308,8,0,-0.5893890907592274,25.70741403554407,0.4465225784152895,-2.245197631886478e-05,8.273523618634838e-05,3.572180627322316e-06,8.276555545496049e-05,8.280192807414734e-05
74.4226497308,85.57735026920001,8,0,-0.6325302067697418,25.47784702631458,0.5283350159871392,-2.240637428271484e-05,8.203513464962245e-05,4.226680127897113e-06,8.207787990593472e-05,8.20730729331085e-05
75.57735026920001,85.57735026920001,8,0,-0.5741884120425533,25.71121420522334,0.5340352705059224,-2.240637428271484e-05,8.27352361863487e-05,4.272282164047379e-06,8.277861783833435e-05,8.278049396204654e-05
76.42264973080002,84.4226497308,8,0,-0.575071161986207,25.87156199757658,0.4426998634420818,-2.253747731641712e-05,8.3249055321834e-05,3.541598907536654e-06,8.327868908019294e-05,8.331487333177891e-05
77.57735026920001,84.4226497308,8,0,-0.5164312913710001,26.10612148003741,0.4474062874023531,-2.253747731641712e-05,8.395273376921649e-05,3.579250299218825e-06,8.39828008909891e-05,8.401697223518262e-05
76.42264973080002,85.57735026920001,8,0,-0.5625206980922046,25.87469961355008,0.5306596693649738,-2.249982592473511e-05,8.3249055321834e-05,4.24527735491979e-06,8.329164471895301e-05,8.32995077945793e-05
77.57735026920001,85.57735026920001,8,0,-0.5038808274769702,26.10925909601102,0.5353660933251638,-2.249982592473511e-05,8.395273376921681e-05,4.28292874660131e-06,8.399579534871913e-05,8.401005892601208e-05
78.4226497308,84.4226497308,8,0,-0.5027473315851321,26.27136831090904,0.4370033736300524,-2.262588610979965e-05,8.447057646017702e-05,3.496026989040419e-06,8.449909969548068e-05,8.453333762801289e-05
79.57735026920001,84.4226497308,8,0,-0.4434894903591973,26.50839967581278,0.4406992643788522,-2.262588610979965e-05,8.518167055488824e-05,3.525594115030817e-06,8.521048693083232e-05,8.524197521315176e-05
78.4226497308,85.57735026920001,8,0,-0.4928916229217748,26.27383223807488,0.5258901354689952,-2.259631898380958e-05,8.447057646017702e-05,4.207121083751961e-06,8.451188951186079e-05,8.453269764746926e-05
79.57735026920001,85.57735026920001,8,0,-0.4336337816958489,26.51086360297858,0.5295860262177678,-2.259631898380958e-05,8.518167055488813e-05,4.236688209742143e-06,8.522328990217576e-05,8.525002205712108e-05
80.4226497308,84.4226497308,8,0,-0.4318495377237612,26.67528246175515,0.4235851542954533,-2.272214449012015e-05,8.570638350779546e-05,3.388681234363627e-06,8.573285338178341e-05,8.576449045060647e-05
81.57735026920001,84.4226497308,8,0,-0.3716455083834402,26.91609857911643,0.4262655880347857,-2.272214449012015e-05,8.642883185987931e-05,3.410124704278285e-06,8.645546037612349e-05,8.648339104198348e-05
80.4226497308,85.57735026920001,8,0,-0.4247017144189478,26.67706941758135,0.5138911983058534,-2.270070102020571e-05,8.570638350779546e-05,4.111129586446827e-06,8.574534616921695e-05,8.577894486808437e-05
81.57735026920001,85.57735026920001,8,0,-0.3644976850786268,26.91788553494263,0.5165716320451856,-2.270070102020571e-05,8.642883185987931e-05,4.132573056361485e-06,8.646794144226704e-05,8.650666445132789e-05
82.4226497308,84.4226497308,8,0,-0.3634872016415578,27.08516640591746,0.4023795863747435,-2.283129216998695e-05,8.69633222602491e-05,3.219036690997948e-06,8.698691169454447e-05,8.701470882448476e-05
83.57735026920001,84.4226497308,8,0,-0.3020033201457837,27.33110193190055,0.4040523315145607,-2.283129216998695e-05,8.770112883819839e-05,3.232418652116486e-06,8.77247560628269e-05,8.774739540992783e-05
82.4226497308,85.57735026920001,8,0,-0.3590265479355947,27.08628156934395,0.4946054086184455,-2.281791020886906e-05,8.69633222602491e-05,3.956843268947564e-06,8.699896479846094e-05,8.704444423765425e-05
83.57735026920001,85.57735026920001,8,0,-0.2975426664398206,27.33221709532704,0.496278153758222,-2.281791020886906e-05,8.770112883819839e-05,3.970225230065776e-06,8.7736773389529e-05,8.778596635400037e-05
84.42264973080002,84.4226497308,8,0,-0.298778867605713,27.50291098166248,0.3734089153771227,-2.295842116166826e-05,8.82483382354045e-05,2.987271323016982e-06,8.82683958757178e-05,8.828988802299514e-05
85.57735026920001,84.4226497308,8,0,-0.2356790928006065,27.75531008088291,0.3740954636737026,-2.295842116166826e-05,8.900553553306577e-05,2.992763709389621e-06,8.90255308860973e-05,8.903931881924578e-05
84.42264973080002,85.57735026920001,8,0,-0.2969480721482034,27.50336868052686,0.468058577584782,-2.295292877529573e-05,8.82483382354045e-05,3.744468620678256e-06,8.827985108006566e-05,8.833488547070858e-05
85.57735026920001,85.57735026920001,8,0,-0.2338482973430969,27.75576777974728,0.4687451258813483,-2.295292877529573e-05,8.900553553306577e-05,3.749961007050787e-06,8.903692723240288e-05,8.90930382705189e-05
86.4226497308,84.4226497308,8,0,-0.2388412971214748,27.93041839927243,0.3367894937962302,-2.310862687020666e-05,8.956841191536894e-05,2.694315950369842e-06,8.958451613042392e-05,8.959468441559575e-05
87.57735026920002,84.4226497308,8,0,-0.1737904990182901,28.19062159168517,0.3365262173368402,-2.310862687020666e-05,9.034902149260716e-05,2.692209738694722e-06,9.036498994739074e-05,9.03625406454135e-05
86.4226497308,85.57735026920001,8,0,-0.2395433676796674,27.93024288163288,0.4343656909509938,-2.311073308188124e-05,8.956841191536894e-05,3.474925527607951e-06,8.959519645871915e-05,8.965469366509232e-05
87.57735026920002,85.57735026920001,8,0,-0.174492569576465,28.19044607404569,0.4341024144916038,-2.311073308188124e-05,9.034902149260737e-05,3.47281931593283e-06,9.037558961490291e-05,9.043101193966698e-05
88.42264973080002,84.4226497308,8,0,-0.1847776760301496,28.36958349155832,0.2927385007141979,-2.328695535654314e-05,9.093048931381074e-05,2.341908005713583e-06,9.094249263958058e-05,9.093102034955265e-05
89.57735026920001,84.4226497308,8,0,-0.1174451715863878,28.63891350933337,0.2915779347070638,-2.328695535654314e-05,9.173847936713589e-05,2.332623477656511e-06,9.175030408443826e-05,9.171627955458075e-05
88.42264973080002,85.57735026920001,8,0,-0.1878725187159676,28.36880978088687,0.3937372573798283,-2.329623988460059e-05,9.093048931381074e-05,3.149898059038626e-06,9.095220045873429e-05,9.100553025516484e-05
89.57735026920001,85.57735026920001,8,0,-0.1205400142722413,28.63813979866178,0.3925766913727077,-2.329623988460059e-05,9.173847936713546e-05,3.140613530981662e-06,9.175991119250647e-05,9.17988252084759e-05
90.42264973080002,84.4226497308,8,0,-0.1376647870727643,28.82227357395972,0.2415811188037257,-2.349834617780062e-05,9.234140726632929e-05,1.932648950429806e-06,9.234946769457723e-05,9.22950758019341e-05
91.57735026920001,84.4226497308,8,0,-0.06772815368571106,29.10202010750793,0.2395933605457652,-2.349834617780062e-05,9.318064686697394e-05,1.916746884366122e-06,9.318851818702082e-05,9.309111735197279e-05
90.42264973080002,85.57735026920001,8,0,-0.1429654757605325,28.82094840178777,0.3464860688842252,-2.351424824386392e-05,9.234140726632929e-05,2.771888551073801e-06,9.235798450394128e-05,9.238327722916446e-05
91.57735026920001,85.57735026920001,8,0,-0.07302884237347929,29.10069493533599,0.3444983106263189,-2.351424824386392e-05,9.318064686697394e-05,2.755986485010551e-06,9.319691665040134e-05,9.318673489102875e-05
92.42264973080002,84.4226497308,8,0,-0.09853899636778252,29.2903067561342,0.1837581045364983,-2.374757019328426e-05,9.380781281672365e-05,1.470064836291986e-06,9.381240853596046e-05,9.367116944096067e-05
93.57735026920001,84.4226497308,8,0,-0.02568819312415638,29.5817099691087,0.1810323080134597,-2.374757019328426e-05,9.468202245564716e-05,1.448258464107678e-06,9.468644992626909e-05,9.445985966914074e-05
92.42264973080002,85.57735026920001,8,0,-0.1058077870959577,29.28848955845216,0.2930343094017878,-2.376937656546878e-05,9.380781281672365e-05,2.344274475214302e-06,9.38194967938257e-05,9.377190314055961e-05
93.57735026920001,85.57735026920001,8,0,-0.03295698385235912,29.57989277142655,0.2903085128787763,-2.376937656546878e-05,9.468202245564684e-05,2.322468103030211e-06,9.469340547822266e-05,9.45671548674577e-05
94.4226497308,84.4226497308,8,0,-0.06838090663756269,29.77542854966973,0.1198336374085782,-2.403916174097598e-05,9.533607608425317e-05,9.58669099268626e-07,9.533800075397785e-05,9.501923685942535e-05
95.57735026920002,84.4226497308,8,0,0.007677268811002946,30.07966125146399,0.1164795709391908,-2.403916174097598e-05,9.624877418963596e-05,9.318365675135267e-07,9.625057883104682e-05,9.575879353576299e-05
94.4226497308,85.57735026920001,8,0,-0.07732508388908066,29.77319250535685,0.2339209005812514,-2.406599427273053e-05,9.533607608425317e-05,1.871367204650011e-06,9.534340803455811e-05,9.513091027443435e-05
95.57735026920002,85.57735026920001,8,0,-0.00126690844054167,30.07742520715101,0.2305668341120266,-2.406599427273053e-05,9.624877418963563e-05,1.844534672896213e-06,9.625584337222566e-05,9.587586696250358e-05
96.4226497308,84.4226497308,8,0,-0.04809854422034299,30.27928663025869,0.05050327944166873,-2.437734464571205e-05,9.693219605220408e-05,4.040262355333498e-07,9.693253245762073e-05,9.624911957611287e-05
97.57735026920001,84.4226497308,8,0,0.03143855129954076,30.59743501233823,0.04665290090768786,-2.437734464571205e-05,9.788664119844269e-05,3.732232072615029e-07,9.788692602319501e-05,9.684915855434215e-05
96.4226497308,85.57735026920001,8,0,-0.05836622031135619,30.27671971123594,0.1698089227214006,-2.440814767398509e-05,9.693219605220408e-05,1.358471381771205e-06,9.693599814022965e-05,9.636955953733976e-05
97.57735026920001,85.57735026920001,8,0,0.02117087520857375,30.59486809331566,0.1659585441873249,-2.440814767398509e-05,9.788664119844324e-05,1.327668353498599e-06,9.789024448223505e-05,9.697339604709981e-05
98.42264973080002,84.4226497308,8,0,-0.03850897210885584,30.8034036387379,-0.02339818153229808,-2.476595162173866e-05,9.860169882164836e-05,-1.871854522583847e-07,9.860176982562153e-05,9.716767501978321e-05
99.57735026920002,84.4226497308,8,0,0.04475174545625471,31.13644650899834,-0.02758919067720911,-2.476595162173866e-05,9.960082743242968e-05,-2.207135254176729e-07,9.96009253573384e-05,9.743783920822319e-05
98.42264973080002,85.57735026920001,8,0,-0.04968499649501368,30.80060963264136,0.1014928948153671,-2.479947969489713e-05,9.860169882164836e-05,8.119431585229368e-07,9.860303439349133e-05,9.729384892551829e-05
99.57735026920002,85.57735026920001,8,0,0.03357572107005247,31.13365250290163,0.09730188567049673,-2.479947969489713e-05,9.960082743242914e-05,7.784150853639739e-07,9.960204512257806e-05,9.756550596106644e-05
0.4226497308,86.4226497308,8,0,-0.03029216871778817,7.146669796198913,-0.07931124794450194,-5.814270776856052e-06,2.289357708281075e-05,-6.344899835560155e-07,2.289708246912765e-05,2.456173649952534e-05
1.5773502692,86.4226497308,8,0,0.0351667873340431,7.408505620406238,-0.08294415005546366,-5.814270776856052e-06,2.367908455543273e-05,-6.635532004437093e-07,2.368281630400007e-05,2.480394284766555e-05
0.4226497308,87.57735026920002,8,0,-0.03997990768060578,7.144247861458209,0.01887718613320438,-5.843333993744504e-06,2.289357708281075e-05,1.51017489065635e-07,2.289377548726422e-05,2.46715985969365e-05
1.5773502692,87.57735026920002,8,0,0.0254790483712255,7.406083685665534,0.01524428402212069,-5.843333993744504e-06,2.367908455543273e-05,1.219542721769655e-07,2.367921050023827e-05,2.491239779607071e-05
2.4226497308,86.4226497308,8,0,-0.04325351354364404,7.573597873017668,-0.1440500744295244,-6.197289541753795e-06,2.427011600449145e-05,-1.152400595436196e-06,2.428100922348795e-05,2.5100248053823e-05
3.5773502692,86.4226497308,8,0,0.02584819271873018,7.850004698067165,-0.1473847498299204,-6.197289541753795e-06,2.509933647963994e-05,-1.179077998639364e-06,2.511043777192592e-05,2.566756258348655e-05
2.4226497308,87.57735026920002,8,0,-0.05214598127823233,7.571374756084021,-0.04039751503605825,-6.223966944957559e-06,2.427011600449145e-05,-3.23180120288466e-07,2.427097225632278e-05,2.52068616584237e-05
3.5773502692,87.57735026920002,8,0,0.01695572498415965,7.847781581133589,-0.04373219043645425,-6.223966944957559e-06,2.509933647964016e-05,-3.49857523491634e-07,2.510031335991923e-05,2.577055269226504e-05
4.422649730800001,86.4226497308,8,0,-0.06644034345476069,8.021314966797943,-0.2049950697240611,-6.629661072493588e-06,2.572136016851722e-05,-1.639960557792489e-06,2.574213033996717e-05,2.614809532285002e-05
5.577350269200001,86.4226497308,8,0,0.00607464374913036,8.311374915613507,-0.2078874524523655,-6.629661072493588e-06,2.659154001496391e-05,-1.663099619618924e-06,2.661234126150877e-05,2.689362065188355e-05
4.422649730800001,87.57735026920002,8,0,-0.07415336406375328,8.019386711645696,-0.09622258891799421,-6.652800134320565e-06,2.572136016851722e-05,-7.697807113439536e-07,2.572593541160166e-05,2.624786547045771e-05
5.577350269200001,87.57735026920002,8,0,-0.001638376859808055,8.309446660461477,-0.09911497164639352,-6.652800134320565e-06,2.659154001496457e-05,-7.929197731711482e-07,2.659626737887061e-05,2.698821719779604e-05
6.422649730800001,86.4226497308,8,0,-0.09904383215474377,8.488492064066026,-0.2613478961083546,-7.107733914147999e-06,2.724240967073507e-05,-2.090783168866837e-06,2.727419507652486e-05,2.747770487453708e-05
7.577350269200001,86.4226497308,8,0,-0.02337473862979422,8.791168438165824,-0.2636760992953582,-7.107733914147999e-06,2.815043879303447e-05,-2.109408794362866e-06,2.818196078196107e-05,2.83279273177602e-05
6.422649730800001,87.57735026920002,8,0,-0.1052523739868256,8.486939928608004,-0.1478442558209983,-7.126359539644245e-06,2.724240967073507e-05,-1.182754046567987e-06,2.725258237426225e-05,2.756811632310914e-05
7.577350269200001,87.57735026920002,8,0,-0.0295832804619125,8.789616302707657,-0.1501724590079884,-7.126359539644245e-06,2.815043879303403e-05,-1.201379672063907e-06,2.816066431617779e-05,2.841207846945832e-05
8.4226497308,86.4226497308,8,0,-0.1401595494555878,8.973638848621263,-0.3124421270456744,-7.627421637154891e-06,2.882777195515251e-05,-2.499537016365395e-06,2.887056667881025e-05,2.897478280966808e-05
9.5773502692,86.4226497308,8,0,-0.06161959192749045,9.287798678733655,-0.3141051556592968,-7.627421637154891e-06,2.977025144548968e-05,-2.512841245274375e-06,2.981241489829998e-05,2.989180243556739e-05
8.4226497308,87.57735026920002,8,0,-0.1445942924251575,8.972530162878872,-0.1946321907535958,-7.6407258660636e-06,2.882777195515251e-05,-1.557057526028766e-06,2.884438440418586e-05,2.905407908532168e-05
9.5773502692,87.57735026920002,8,0,-0.06605433489706014,9.286689992991262,-0.1962952193671776,-7.6407258660636e-06,2.977025144548968e-05,-1.570361754937421e-06,2.978672355405958e-05,2.996409524007629e-05
10.4226497308,86.4226497308,8,0,-0.18880723640964,9.475134852461297,-0.3577364698063466,-8.184291038479884e-06,3.047147731700386e-05,-2.861891758450773e-06,3.052437518998111e-05,3.058001556430024e-05
11.5773502692,86.4226497308,8,0,-0.1076984682177029,9.799569925229045,-0.358652833191354,-8.184291038479884e-06,3.144478253530711e-05,-2.869222665530832e-06,3.149664898994817e-05,3.154322917261495e-05
10.4226497308,87.57735026920002,8,0,-0.1912508721026853,9.474523943538173,-0.2360733175184814,-8.191621945559131e-06,3.047147731700429e-05,-1.888586540147851e-06,3.049452664634729e-05,3.064700659360824e-05
11.5773502692,87.57735026920002,8,0,-0.1101421039107846,9.798959016305776,-0.236989680903394,-8.191621945559131e-06,3.144478253530711e-05,-1.895917447227152e-06,3.146744130906346e-05,3.160273895384787e-05
12.4226497308,86.4226497308,8,0,-0.2439489572677593,9.991258542937153,-0.3968075377498189,-8.773643497606552e-06,3.216718650321309e-05,-3.174460301998551e-06,3.222862942753197e-05,3.226079939593379e-05
13.5773502692,86.4226497308,8,0,-0.160587363460448,10.3247049181664,-0.3969138346926243,-8.773643497606552e-06,3.316752562890083e-05,-3.175310677540994e-06,3.322753940233981e-05,3.325802409580799e-05
12.4226497308,87.57735026920002,8,0,-0.2442324157820521,9.991187678308579,-0.2717651470388114,-8.774493873149429e-06,3.216718650321309e-05,-2.174121176310492e-06,3.219602920849088e-05,3.231473442591668e-05
13.5773502692,87.57735026920002,8,0,-0.160870821974723,10.3246340535379,-0.2718714439815763,-8.774493873149429e-06,3.316752562890104e-05,-2.17497155185261e-06,3.319570336907264e-05,3.330420987021073e-05
14.4226497308,86.4226497308,8,0,-0.3045057120699828,10.52021436539223,-0.4293424769818787,-9.390589770937724e-06,3.39082905389111e-05,-3.434739815855029e-06,3.397630001377306e-05,3.39975424425593e-05
15.5773502692,86.4226497308,8,0,-0.2192166916525831,10.86137044706182,-0.4285920102685019,-9.390589770937724e-06,3.49317587839199e-05,-3.428736082148015e-06,3.499797083810525e-05,3.502071943922493e-05
14.4226497308,87.57735026920002,8,0,-0.3025044675011408,10.52071467653444,-0.3014089463558057,-9.384586037231198e-06,3.39082905389111e-05,-2.411271570846446e-06,3.394183952496827e-05,3.403801861711872e-05
15.5773502692,87.57735026920002,8,0,-0.2172154470837229,10.86187075820411,-0.3006584796425102,-9.384586037231198e-06,3.493175878392012e-05,-2.405267837140082e-06,3.496437123821329e-05,3.505334595250099e-05
16.4226497308,86.4226497308,8,0,-0.3693726354282201,11.06015782388191,-0.4551316821364084,-1.003011869247583e-05,3.56880031447647e-05,-3.641053457091267e-06,3.576038316757987e-05,3.577703661857047e-05
17.5773502692,86.4226497308,8,0,-0.282486821107943,11.40770108116302,-0.4534931433918893,-1.003011869247583e-05,3.673063291660802e-05,-3.627945147135114e-06,3.680089610675587e-05,3.682015658260189e-05
16.4226497308,87.57735026920002,8,0,-0.3650031987763138,11.06125018304489,-0.3248029606559791,-1.001701038252012e-05,3.56880031447647e-05,-2.598423685247833e-06,3.572490477877068e-05,3.58039292676245e-05
17.5773502692,87.57735026920002,8,0,-0.278117384456019,11.40879344032607,-0.3231644219114601,-1.001701038252012e-05,3.673063291660824e-05,-2.585315375291681e-06,3.676634997251762e-05,3.683923368456034e-05
18.4226497308,86.4226497308,8,0,-0.4374329306350222,11.60921872520703,-0.4740617660390294,-1.06871603581977e-05,3.749944626517052e-05,-3.792494128312235e-06,3.757395248180587e-05,3.75892586227064e-05
19.5773502692,86.4226497308,8,0,-0.3492823174637696,11.96182117789204,-0.4715180160812726,-1.06871603581977e-05,3.855725362322555e-05,-3.772144128650181e-06,3.862938494973303e-05,3.86473645085347e-05
18.4226497308,87.57735026920002,8,0,-0.4306495974143916,11.61091455851219,-0.3418358462821641,-1.06668103585358e-05,3.749944626517052e-05,-2.734686770257313e-06,3.753823116968637e-05,3.760266644399961e-05
19.5773502692,87.57735026920002,8,0,-0.342498984243166,11.96351701119709,-0.3392920963244208,-1.06668103585358e-05,3.855725362322522e-05,-2.714336770595367e-06,3.859464403422215e-05,3.865309911410303e-05
20.4226497308,86.4226497308,8,0,-0.5075706953334342,12.16552273460344,-0.4861088820319663,-1.135664441274974e-05,3.933572930699776e-05,-3.88887105625573e-06,3.941020368672756e-05,3.942583407640115e-05
21.5773502692,86.4226497308,8,0,-0.4184850484535909,12.52186532212282,-0.482655837864051,-1.135664441274974e-05,4.040475706955588e-05,-3.861246702912408e-06,4.047666655123606e-05,4.049454660222061e-05
20.4226497308,87.57735026920002,8,0,-0.4983625775520375,12.16782476404879,-0.3524804117123231,-1.132902005940555e-05,3.933572930699776e-05,-2.819843293698585e-06,3.937493490844472e-05,3.942603554540928e-05
21.5773502692,87.57735026920002,8,0,-0.409276930672176,12.52416735156824,-0.3490273675442858,-1.132902005940555e-05,4.040475706955609e-05,-2.792218940354287e-06,4.044240566866858e-05,4.048730447674528e-05
22.4226497308,86.4226497308,8,0,-0.57868278805587,12.72721139710394,-0.4913324390969001,-1.203355403946193e-05,4.119002270117729e-05,-3.9306595127752e-06,4.126249563444299e-05,4.12793084970635e-05
23.5773502692,86.4226497308,8,0,-0.48898630134246,13.08599734395758,-0.4869780666536634,-1.203355403946193e-05,4.226638054173821e-05,-3.895824533229307e-06,4.233616868867067e-05,4.235460533988996e-05
22.4226497308,87.57735026920002,8,0,-0.5670711282072025,12.73011431206624,-0.3567877090267712,-1.199871905991604e-05,4.119002270117772e-05,-2.85430167221417e-06,4.122828822863748e-05,4.126672722034997e-05
23.5773502692,87.57735026920002,8,0,-0.4773746414938103,13.08890025891981,-0.3524333365835888,-1.199871905991604e-05,4.226638054173843e-05,-2.81946669266871e-06,4.2302978810038e-05,4.233488082520722e-05
24.4226497308,86.4226497308,8,0,-0.6496898669987314,13.29246076978649,-0.4898692009742051,-1.271297619022513e-05,4.305562635691573e-05,-3.91895360779364e-06,4.312438943880106e-05,4.314280999157834e-05
25.5773502692,86.4226497308,8,0,-0.5596980481439293,13.65242804520569,-0.4846326032478929,-1.271297619022513e-05,4.413552818317336e-05,-3.877060825983143e-06,4.420155526037691e-05,4.422092830401822e-05
24.4226497308,87.57735026920002,8,0,-0.6357256063954488,13.29595183493731,-0.3548814726919746,-1.267108340841528e-05,4.305562635691573e-05,-2.839051781535797e-06,4.309176249240179e-05,4.311798733894683e-05
25.5773502692,87.57735026920002,8,0,-0.5457337875406285,13.65591911035659,-0.3496448749656217,-1.267108340841528e-05,4.413552818317357e-05,-2.797158999724974e-06,4.416994038209253e-05,4.418932051745531e-05
26.4226497308,86.4226497308,8,0,-0.7195467066851768,13.85949879014012,-0.4819277227215179,-1.339014849350466e-05,4.492603349379653e-05,-3.855421781772143e-06,4.498968679566753e-05,4.500990238651102e-05
27.57735026920001,86.4226497308,8,0,-0.6295634695093346,14.21943173884349,-0.4758383061105619,-1.339014849350466e-05,4.600583233990664e-05,-3.806706448884496e-06,4.60667630778352e-05,4.608730135338815e-05
26.4226497308,87.57735026920002,8,0,-0.7033082623893301,13.86355840121422,-0.3469528669577276,-1.334143316061723e-05,4.492603349379697e-05,-2.775622935661821e-06,4.495906958404611e-05,4.497347604973818e-05
27.57735026920001,87.57735026920002,8,0,-0.6133250252135332,14.22349134991741,-0.3408634503467445,-1.334143316061723e-05,4.600583233990653e-05,-2.726907602773956e-06,4.603714003506435e-05,4.60444956265538e-05
28.4226497308,86.4226497308,8,0,-0.787251867911885,14.42662147819258,-0.4677830521323124,-1.40605031598721e-05,4.679499022454577e-05,-3.742264417058499e-06,4.685246789606798e-05,4.687453107695131e-05
29.5773502692,86.4226497308,8,0,-0.6975668187443813,14.7853616748626,-0.4608797498025809,-1.40605031598721e-05,4.787121081455581e-05,-3.687037998420647e-06,4.792603823715198e-05,4.794788371216857e-05
28.4226497308,87.57735026920002,8,0,-0.7688430616993935,14.4312236797457,-0.3332554783810567,-1.400527674123462e-05,4.679499022454577e-05,-2.666043827048454e-06,4.682420217003239e-05,4.682721839901423e-05
29.5773502692,87.57735026920002,8,0,-0.6791580125318988,14.78996387641568,-0.3263521760513252,-1.400527674123462e-05,4.78712108145557e-05,-2.610817408410602e-06,4.789873878459997e-05,4.789463720489258e-05
30.4226497308,86.4226497308,8,0,-0.8518567646519637,14.99220803832795,-0.4477716088906912,-1.471970807754864e-05,4.8656551134371e-05,-3.58217287112553e-06,4.87071289460702e-05,4.873101399780871e-05
31.5773502692,86.4226497308,8,0,-0.7627426758978757,15.3486643933443,-0.4401021384256495,-1.471970807754864e-05,4.972592019942006e-05,-3.520817107405196e-06,4.977397201273899e-05,4.97972130919972e-05
30.4226497308,87.57735026920002,8,0,-0.8314048434120869,14.99732101863792,-0.3141004757594508,-1.465835231382901e-05,4.8656551134371e-05,-2.512803806075607e-06,4.868147298621507e-05,4.867359907123728e-05
31.5773502692,87.57735026920002,8,0,-0.7422907546579811,15.35377737365434,-0.3064310052945445,-1.465835231382901e-05,4.972592019942027e-05,-2.451448042356356e-06,4.974924662985291e-05,4.97343436614618e-05
32.4226497308,86.4226497308,8,0,-0.9124741410623081,15.55473489405699,-0.4222861503631875,-1.536370516664497e-05,5.050513097383221e-05,-3.3782892029055e-06,5.054841905653693e-05,5.05740543619977e-05
33.57735026920001,86.4226497308,8,0,-0.8241846110173547,15.9078930142368,-0.4139062837049131,-1.536370516664497e-05,5.156460533437164e-05,-3.311250269639305e-06,5.160553598462129e-05,5.163022508695713e-05
32.4226497308,87.57735026920002,8,0,-0.8901278299734132,15.56032147182921,-0.289851855295772,-1.529666623337829e-05,5.050513097383221e-05,-2.318814842366176e-06,5.052555303773676e-05,5.050737803406777e-05
33.57735026920001,87.57735026920002,8,0,-0.8018382999284785,15.91347959200895,-0.2814719886373891,-1.529666623337829e-05,5.156460533437142e-05,-2.251775909099113e-06,5.158355897399015e-05,5.155860262588967e-05
34.42264973080001,86.4226497308,8,0,-0.968285944614097,16.11278865819651,-0.3917707380343384,-1.598874594932231e-05,5.23355524619201e-05,-3.134165904274708e-06,5.237147611612544e-05,5.239876353064434e-05
35.5773502692,86.4226497308,8,0,-0.8810532477840249,16.4617194455168,-0.3827435642724479,-1.598874594932231e-05,5.338234482388097e-05,-3.061948514179584e-06,5.34161159763743e-05,5.344227888149756e-05
34.42264973080001,87.57735026920002,8,0,-0.9442134812488927,16.11880677403781,-0.2609216927893388,-1.59165285592267e-05,5.23355524619201e-05,-2.087373542314711e-06,5.235150842205102e-05,5.232371558321762e-05
35.5773502692,87.57735026920002,8,0,-0.8569807844188384,16.46773756135803,-0.251894519027367,-1.59165285592267e-05,5.338234482388075e-05,-2.015156152218936e-06,5.339699151298843e-05,5.336281846443384e-05
36.4226497308,86.4226497308,8,0,-1.018550559289475,16.66507801416935,-0.3567156309605045,-1.65914242010618e-05,5.414309009277351e-05,-2.853725047684036e-06,5.417186118008211e-05,5.420068805371368e-05
37.5773502692,86.4226497308,8,0,-0.9325836955930455,17.00894546895507,-0.347110796443948,-1.65914242010618e-05,5.517469245713065e-05,-2.776886371551584e-06,5.520154431351734e-05,5.522918509436926e-05
36.4226497308,87.57735026920002,8,0,-0.9929376672454682,16.67148123718036,-0.2277653354157525,-1.651458552492978e-05,5.414309009277351e-05,-1.82212268332602e-06,5.41548353817206e-05,5.41182009467308e-05
37.5773502692,87.57735026920002,8,0,-0.9069708035490116,17.01534869196618,-0.2181605008992095,-1.651458552492978e-05,5.517469245713098e-05,-1.745284007193676e-06,5.518531317041367e-05,5.514284138638508e-05
38.4226497308,86.4226497308,8,0,-1.06260934681323,17.2104444630872,-0.3176520502308841,-1.71687054802721e-05,5.592350975932962e-05,-2.541216401847073e-06,5.594559087452521e-05,5.597583767807001e-05
39.5773502692,86.4226497308,8,0,-0.978092300903044,17.54851264672795,-0.3075449652637478,-1.71687054802721e-05,5.693771431025186e-05,-2.460359722109983e-06,5.695812989231386e-05,5.698723343177418e-05
38.4226497308,87.57735026920002,8,0,-1.035657120233911,17.2171825197319,-0.190876481365686,-1.708784880053403e-05,5.592350975932919e-05,-1.527011850925488e-06,5.593149314130325e-05,5.588688135651419e-05
39.5773502692,87.57735026920002,8,0,-0.9511400743236615,17.5552507033729,-0.1807693963984955,-1.708784880053403e-05,5.693771431025218e-05,-1.446155171187964e-06,5.694477661814457e-05,5.689499591820111e-05
40.4226497308,86.4226497308,8,0,-1.099892434534396,17.74787187693251,-0.2751467791779706,-1.771795329205607e-05,5.767310395381154e-05,-2.201174233423765e-06,5.768916731747907e-05,5.772071247855898e-05
41.5773502692,86.4226497308,8,0,-1.01698265797366,18.07951098317545,-0.2646177857394585,-1.771795329205607e-05,5.866802127254037e-05,-2.116942285915668e-06,5.868268556301312e-05,5.871321874704324e-05
40.4226497308,87.57735026920002,8,0,-1.07181511869811,17.75489120589158,-0.1507821143370298,-1.763372134454722e-05,5.767310395381154e-05,-1.206256914696238e-06,5.767793406854037e-05,5.762628984170887e-05
41.5773502692,87.57735026920002,8,0,-0.9889053421374019,18.08653031213441,-0.1402531208984092,-1.763372134454722e-05,5.866802127254005e-05,-1.122024967187274e-06,5.867214592268845e-05,5.861610743439649e-05
42.4226497308,86.4226497308,8,0,-1.129923685818564,18.27649479090475,-0.2297965859865457,-1.82369516273432e-05,5.938872227955003e-05,-1.838372687892366e-06,5.939960508490201e-05,5.943232795730331e-05
43.57735026920001,86.4226497308,8,0,-1.048750815020827,18.6011862740957,-0.2189300860490888,-1.82369516273432e-05,6.036279672912289e-05,-1.75144068839271e-06,6.037255237039066e-05,6.040446458752376e-05
42.4226497308,87.57735026920002,8,0,-1.10094635265232,18.28373912419631,-0.1080372797898979,-1.815001962784447e-05,5.938872227955003e-05,-8.642982383191833e-07,5.939113071507575e-05,5.933347067536606e-05
43.57735026920001,87.57735026920002,8,0,-1.019773481854564,18.60843060738733,-0.09717077985256289,-1.815001962784447e-05,6.036279672912311e-05,-7.773662388205031e-07,6.03647208845916e-05,6.030352590457289e-05
44.4226497308,86.4226497308,8,0,-1.152324792207575,18.79560536773026,-0.1822224765950681,-1.872392362924845e-05,6.106779701050289e-05,-1.457779812760545e-06,6.107445479611341e-05,6.110823732879581e-05
45.5773502692,86.4226497308,8,0,-1.072989613991631,19.11294608059404,-0.171106025309594,-1.872392362924845e-05,6.201981914909422e-05,-1.368848202476752e-06,6.202562025121622e-05,6.205884358479435e-05
44.4226497308,87.57735026920002,8,0,-1.122680922113104,18.80301633525388,-0.06321970927130033,-1.863499201896503e-05,6.106779701050289e-05,-5.057576741704026e-07,6.106859932950964e-05,6.10060017651643e-05
45.5773502692,87.57735026920002,8,0,-1.043345743897222,19.1203570481174,-0.05210325798582624,-1.863499201896503e-05,6.201981914909346e-05,-4.168260638866099e-07,6.202035768735587e-05,6.195514627826545e-05
46.42264973080001,86.4226497308,8,0,-1.166818435330448,19.30465897283949,-0.1330638048106038,-1.917754617132903e-05,6.270836346135072e-05,-1.06451043848483e-06,6.27118229533634e-05,6.274655043174471e-05
47.57735026920001,86.4226497308,8,0,-1.089392109844004,19.61436427478527,-0.1217871767845519,-1.917754617132903e-05,6.363747936718805e-05,-9.742974142764151e-07,6.36403448574815e-05,6.367479422240742e-05
46.42264973080001,87.57735026920002,8,0,-1.136747427260922,19.31217672485687,-0.0169243165811005,-1.908733314712045e-05,6.270836346135072e-05,-1.35394532648804e-07,6.27084194901752e-05,6.264201348918981e-05
47.57735026920001,87.57735026920002,8,0,-1.059321101774487,19.62188202680261,-0.005647688554994389,-1.908733314712045e-05,6.363747936718794e-05,-4.518150843995511e-08,6.363748553634231e-05,6.356942509446699e-05
48.4226497308,86.4226497308,8,0,-1.173230479536969,19.80327831082389,-0.08297228213929787,-1.959696018317741e-05,6.430907497826602e-05,-6.63778257114383e-07,6.431038774045408e-05,6.434594886225016e-05
49.57735026920001,86.4226497308,8,0,-1.097754027383128,20.10518411943926,-0.07162652202293485,-1.959696018317741e-05,6.521479240411212e-05,-5.730121761834787e-07,6.521576025112957e-05,6.525133364745133e-05
48.4226497308,87.57735026920002,8,0,-1.142975119226885,19.81084215090141,0.03024239609157294,-1.950619410224716e-05,6.430907497826602e-05,2.419391687325835e-07,6.430924957186954e-05,6.424020361873183e-05
49.57735026920001,87.57735026920002,8,0,-1.067498667073061,20.11274795951671,0.04158815620786821,-1.950619410224716e-05,6.521479240411191e-05,3.327052496629457e-07,6.521511904205885e-05,6.51453930224502e-05
50.42264973080001,86.4226497308,8,0,-1.171491172203773,20.29125608929982,-0.03260594110122527,-1.998177662249193e-05,6.586921242352243e-05,-2.608475288098022e-07,6.58694105612405e-05,6.590569704295082e-05
51.57735026920001,86.4226497308,8,0,-1.097975229141436,20.58531986154917,-0.02128241156882662,-1.998177662249193e-05,6.675140374027048e-05,-1.702592925506129e-07,6.67514872959485e-05,6.678806630094357e-05
50.42264973080001,87.57735026920002,8,0,-1.141295093450439,20.29880510898815,0.07766797349234794,-1.989118838623192e-05,6.586921242352243e-05,6.213437879387836e-07,6.58703378352304e-05,6.579984807809111e-05
51.57735026920001,87.57735026920002,8,0,-1.067779150388102,20.5928688812375,0.08899150302473305,-1.989118838623192e-05,6.675140374027048e-05,7.119320241978644e-07,6.675286618108539e-05,6.668266313773004e-05
52.4226497308,86.4226497308,8,0,-1.161635346321518,20.76855619476841,0.01737688778389061,-2.033207806404359e-05,6.738868810031613e-05,1.390151022711249e-07,6.738874317617608e-05,6.742564904451293e-05
53.5773502692,86.4226497308,8,0,-1.090060185168332,21.05485683938116,0.02858744687775697,-2.033207806404359e-05,6.824759003415436e-05,2.286995750220558e-07,6.82477376510104e-05,6.82851882360549e-05
52.4226497308,87.57735026920002,8,0,-1.131740522071171,20.776029900831,0.1247396295137233,-2.024239359129255e-05,6.738868810031613e-05,9.979170361097862e-07,6.73915290047897e-05,6.732080738206745e-05
53.5773502692,87.57735026920002,8,0,-1.060165360918004,21.06233054544367,0.135950188607549,-2.024239359129255e-05,6.824759003415414e-05,1.087601508860392e-06,6.825093174675663e-05,6.81814348205901e-05
54.42264973080001,86.4226497308,8,0,-1.143801637949633,21.23531338486079,0.0663235237750127,-2.064841594932745e-05,6.886804414191422e-05,5.305881902001016e-07,6.886883036981767e-05,6.890625106428009e-05
55.57735026920001,86.4226497308,8,0,-1.074117453583089,21.51405012232697,0.07733191174517842,-2.064841594932745e-05,6.970425435431275e-05,6.186552939614273e-07,6.970531334317725e-05,6.974348707421393e-05
54.42264973080001,87.57735026920002,8,0,-1.114445936695858,21.24265231017423,0.1708498003249646,-2.056034884556613e-05,6.886804414191422e-05,1.366798402599716e-06,6.887326627754739e-05,6.880352867036265e-05
55.57735026920001,87.57735026920002,8,0,-1.044761752329313,21.52138904764041,0.1818581882949812,-2.056034884556613e-05,6.970425435431275e-05,1.45486550635985e-06,6.971011627614606e-05,6.964249323656701e-05
56.4226497308,86.4226497308,8,0,-1.118230748175074,21.69183152098686,0.1135927503788544,-2.093180361094972e-05,7.030844546569801e-05,9.087420030308348e-07,7.031070815008749e-05,7.034853954205475e-05
57.57735026920001,86.4226497308,8,0,-1.050358198053764,21.9633217214721,0.1243121858041996,-2.093180361094972e-05,7.112291606715373e-05,9.94497486433597e-07,7.112560195984317e-05,7.116433761557728e-05
56.4226497308,87.57735026920002,8,0,-1.089645587040837,21.69897781127042,0.2154015755608603,-2.084604812754702e-05,7.030844546569801e-05,1.723212604486882e-06,7.031658877358488e-05,7.024904332484126e-05
57.57735026920001,87.57735026920002,8,0,-1.02177303691951,21.97046801175573,0.2261210109861514,-2.084604812754702e-05,7.112291606715395e-05,1.808968087889211e-06,7.113181050542321e-05,7.106720441720799e-05
58.4226497308,86.4226497308,8,0,-1.085262794179239,22.13858038353581,0.1585604464389125,-2.118370524820221e-05,7.171166746265797e-05,1.2684835715113e-06,7.171599753725172e-05,7.175413495216933e-05
59.57735026920001,86.4226497308,8,0,-1.019093783832848,22.40325642492137,0.1689074017299156,-2.118370524820221e-05,7.250569558681465e-05,1.351259213839325e-06,7.251056755339379e-05,7.25496931684536e-05
58.4226497308,87.57735026920002,8,0,-1.057670913403339,22.14547835372978,0.257813961958525,-2.110092960587451e-05,7.171166746265797e-05,2.0625116956682e-06,7.172312449967213e-05,7.165896020799214e-05
59.57735026920001,87.57735026920002,8,0,-0.9915019030569479,22.41015439511535,0.2681609172495146,-2.110092960587451e-05,7.250569558681465e-05,2.145287337996116e-06,7.251798545836308e-05,7.245750600178954e-05
60.4226497308,86.4226497308,8,0,-1.04533380594837,22.57619112717562,0.20062499557071,-2.140602108077527e-05,7.308007865172066e-05,1.60499996456568e-06,7.308689404333724e-05,7.312523134972077e-05
61.5773502692,86.4226497308,8,0,-0.9807325065950829,22.83459632458876,0.2105199799935515,-2.140602108077527e-05,7.385529424396009e-05,1.684159839948412e-06,7.386273738275039e-05,7.390207268642108e-05
60.4226497308,87.57735026920002,8,0,-1.018947180820847,22.5827877834575,0.2975269446006527,-2.13268612053927e-05,7.308007865172066e-05,2.380215556805221e-06,7.309507894214047e-05,7.303545459473725e-05
61.5773502692,87.57735026920002,8,0,-0.9543458814675425,22.84119298087072,0.3074219290235213,-2.13268612053927e-05,7.385529424396031e-05,2.45937543218817e-06,7.387117830929213e-05,7.381589372110307e-05
62.42264973080001,86.4226497308,8,0,-0.9989714333105395,23.00545044547615,0.2392124504895285,-2.160106894297465e-05,7.441661857217211e-05,1.913699603916228e-06,7.442615296799536e-05,7.446458176035888e-05
63.57735026920001,86.4226497308,8,0,-0.935775517308695,23.25823410948353,0.2485807394279568,-2.160106894297465e-05,7.517496956419424e-05,1.988645915423654e-06,7.518518463201342e-05,7.522454379344057e-05
62.42264973080001,87.57735026920002,8,0,-0.9739893294746045,23.01169597143513,0.3340063244923084,-2.152612263146684e-05,7.441661857217211e-05,2.672050595938467e-06,7.443521943329397e-05,7.438125287841488e-05
63.57735026920001,87.57735026920002,8,0,-0.91079341347276,23.26447963544251,0.3433746134307502,-2.152612263146684e-05,7.517496956419424e-05,2.746996907446002e-06,7.519447417918409e-05,7.514540369441491e-05
64.4226497308,86.4226497308,8,0,-0.9467899317991044,23.42729352128574,0.2737814455936068,-2.177156259878572e-05,7.572477121355363e-05,2.190251564748854e-06,7.573707064222326e-05,7.577547947654688e-05
65.57735026920001,86.4226497308,8,0,-0.8848120111180187,23.67520520401008,0.2825537579234221,-2.177156259878572e-05,7.646850626172666e-05,2.260430063387377e-06,7.648150723991456e-05,7.652070172147827e-05
64.4226497308,87.57735026920002,8,0,-0.9233970989197955,23.43314172950556,0.3667483266153173,-2.170138410014779e-05,7.572477121355363e-05,2.933986612922539e-06,7.574685544382061e-05,7.569961310469042e-05
65.57735026920001,87.57735026920002,8,0,-0.8614191782387008,23.68105341222994,0.375520638945092,-2.170138410014779e-05,7.646850626172677e-05,3.004165111560736e-06,7.64914840201686e-05,7.644959055566028e-05
66.4226497308,86.4226497308,8,0,-0.8894844951013487,23.84279584152623,0.3038278689606135,-2.19205870575453e-05,7.7008534288965e-05,2.430622951684908e-06,7.702346173534843e-05,7.706173523943624e-05
67.57735026920001,86.4226497308,8,0,-0.8285137484500762,24.08667882813132,0.3119409985585922,-2.19205870575453e-05,7.774018324878027e-05,2.495527988468737e-06,7.775580294553353e-05,7.779464405422658e-05
66.4226497308,87.57735026920002,8,0,-0.867849482840036,23.84820459459156,0.3952839889374946,-2.185568202076136e-05,7.7008534288965e-05,3.162271911499957e-06,7.703381494047389e-05,7.699430130509813e-05
67.57735026920001,87.57735026920002,8,0,-0.8068787361887546,24.09208758119668,0.4033971185354325,-2.185568202076136e-05,7.774018324878038e-05,3.22717694828346e-06,7.776631871830084e-05,7.773250129708463e-05
68.42264973080002,86.4226497308,8,0,-0.8278249964767079,24.25316395214062,0.3288893225648502,-2.205157115043796e-05,7.827238464403136e-05,2.631114580518802e-06,7.828963270282967e-05,7.832765010697437e-05
69.57735026920001,86.4226497308,8,0,-0.7676289721490015,24.49394804945145,0.3362867339206694,-2.205157115043796e-05,7.899473693596384e-05,2.690293871365356e-06,7.901264060579052e-05,7.905094090909461e-05
68.42264973080002,87.57735026920002,8,0,-0.8080985661943787,24.25809555971121,0.419183359056329,-2.199239185959097e-05,7.827238464403136e-05,3.353466872450632e-06,7.830041691324943e-05,7.826956342742871e-05
69.57735026920001,87.57735026920002,8,0,-0.7479025418666536,24.49887965702211,0.426580770412216,-2.199239185959097e-05,7.899473693596406e-05,3.412646163297728e-06,7.902355949735023e-05,7.899864446242584e-05
70.4226497308,86.4226497308,8,0,-0.762649191773038,24.65972522090474,0.3485494159765717,-2.216825759039751e-05,7.952124006031357e-05,2.788395327812574e-06,7.954035139361622e-05,7.957798345993057e-05
71.57735026920001,86.4226497308,8,0,-0.702975775590061,24.89841888563664,0.355181817374137,-2.216825759039751e-05,8.02373210545093e-05,2.841454538993096e-06,8.025702777016242e-05,8.029459968450606e-05
70.4226497308,87.57735026920002,8,0,-0.7449627880461245,24.66414682183646,0.4380595402508881,-2.211519837921677e-05,7.952124006031357e-05,3.504476322007104e-06,7.955144012021714e-05,7.953009231737852e-05
71.57735026920001,87.57735026920002,8,0,-0.6852893718631021,24.90284048656855,0.4446919416485617,-2.211519837921677e-05,8.023732105450984e-05,3.557535533188494e-06,8.026822463903749e-05,8.025295382374734e-05
72.4226497308,86.4226497308,8,0,-0.6948554229328598,25.06391666306027,0.362441952990759,-2.227467068383336e-05,8.076041766013915e-05,2.899535623926072e-06,8.078081275837554e-05,8.081791492259814e-05
73.57735026920001,86.4226497308,8,0,-0.6354349637902068,25.30159849963088,0.3682678635647647,-2.227467068383336e-05,8.147346316985098e-05,2.946142908518117e-06,8.14943744108417e-05,8.153102251692596e-05
72.4226497308,87.57735026920002,8,0,-0.679319661401979,25.06780060344299,0.4515726417047249,-2.222806339924072e-05,8.076041766013915e-05,3.612581133637799e-06,8.079208802333242e-05,8.078098853864432e-05
73.57735026920001,87.57735026920002,8,0,-0.6198992022593171,25.30548244001364,0.4573985522787305,-2.222806339924072e-05,8.147346316985109e-05,3.659188418229844e-06,8.150573245049012e-05,8.150074470159556e-05
74.4226497308,86.4226497308,8,0,-0.6253948438283974,25.4672728678078,0.3702550816498518,-2.237508179449711e-05,8.199558905204766e-05,2.962040653198814e-06,8.201660050774438e-05,8.205299765229858e-05
75.57735026920001,86.4226497308,8,0,-0.5659424331235803,25.70508251062707,0.3752414105948385,-2.237508179449711e-05,8.270901798050547e-05,3.001931284758708e-06,8.273045260687823e-05,8.276595264815697e-05
74.4226497308,87.57735026920002,8,0,-0.6120979666420912,25.47059708710438,0.4594336977071047,-2.233519116293819e-05,8.199558905204766e-05,3.675469581656838e-06,8.202794979867049e-05,8.202771250417932e-05
75.57735026920001,87.57735026920002,8,0,-0.5526455559373105,25.7084067299235,0.4644200266520102,-2.233519116293819e-05,8.270901798050503e-05,3.715360213216081e-06,8.274186031220391e-05,8.274765915190102e-05
76.42264973080002,86.4226497308,8,0,-0.5552631706683551,25.87141304347469,0.3717354850884684,-2.247397258091848e-05,8.323273227565367e-05,2.973883880707747e-06,8.325364446866136e-05,8.328909781571579e-05
77.57735026920001,86.4226497308,8,0,-0.4954810761184456,26.11054142167432,0.3758581422351779,-2.247397258091848e-05,8.395011741025259e-05,3.006865137881423e-06,8.397135187499686e-05,8.400540199742296e-05
76.42264973080002,87.57735026920002,8,0,-0.5442694182770396,25.87416148157251,0.4614086269133337,-2.244099132374454e-05,8.323273227565367e-05,3.69126901530667e-06,8.326495720512309e-05,8.327602276175341e-05
77.57735026920001,87.57735026920002,8,0,-0.4844873237271115,26.11328985977223,0.465531284059989,-2.244099132374454e-05,8.395011741025281e-05,3.724250272479912e-06,8.398269953548283e-05,8.39995923410803e-05
78.4226497308,86.4226497308,8,0,-0.4854919380407159,26.27802717662908,0.3666926928852184,-2.257599594303355e-05,8.447808051564561e-05,2.933541543081748e-06,8.449817328416088e-05,8.453230974372456e-05
79.57735026920001,86.4226497308,8,0,-0.425072196881084,26.5197061412676,0.3699372496324062,-2.257599594303355e-05,8.520311740956119e-05,2.95949799705925e-06,8.522342973576202e-05,8.525554429587613e-05
78.4226497308,87.57735026920002,8,0,-0.4768397867151526,26.28019021446047,0.457322304624815,-2.255003948905686e-05,8.447808051564561e-05,3.65857843699852e-06,8.450933699363807e-05,8.453188995152912e-05
79.57735026920001,87.57735026920002,8,0,-0.4164200455555207,26.521869179099,0.4605668613718401,-2.255003948905686e-05,8.520311740956119e-05,3.684534890974721e-06,8.523460565481331e-05,8.526258448875778e-05
80.4226497308,86.4226497308,8,0,-0.4171392199460522,26.68886127672399,0.355003589559767,-2.268593452520656e-05,8.573806746147361e-05,2.840028716478136e-06,8.575666200680995e-05,8.578882539528544e-05
81.57735026920001,86.4226497308,8,0,-0.3557664009894168,26.93435255255053,0.3573660076441518,-2.268593452520656e-05,8.647454128895323e-05,2.858928061153215e-06,8.649325701111566e-05,8.652254190149829e-05
80.4226497308,87.57735026920002,8,0,-0.4108394383879279,26.69043622211352,0.447062817994883,-2.266703518053218e-05,8.573806746147361e-05,3.576502543959064e-06,8.576755844313242e-05,8.58013650801276e-05
81.57735026920001,87.57735026920002,8,0,-0.3494666194312828,26.9359274979401,0.4494252360792814,-2.266703518053218e-05,8.647454128895334e-05,3.595401888634251e-06,8.650414368693717e-05,8.654264649271587e-05
82.4226497308,86.4226497308,8,0,-0.3512797540622339,27.10570165432369,0.336617188132163,-2.28086565364581e-05,8.701926909708557e-05,2.692937505057304e-06,8.703577405861812e-05,8.706471449329707e-05
83.57735026920001,86.4226497308,8,0,-0.2886339023376481,27.35628506122203,0.3381046308904547,-2.28086565364581e-05,8.777101931778061e-05,2.704837047123637e-06,8.778755727870873e-05,8.781224105441283e-05
82.4226497308,87.57735026920002,8,0,-0.3473132400400321,27.10669328282924,0.4305859657190831,-2.279675699439149e-05,8.701926909708557e-05,3.444687725752665e-06,8.704627552902613e-05,8.709035844842854e-05
83.57735026920001,87.57735026920002,8,0,-0.2846673883154462,27.35727668972758,0.4320734084773477,-2.279675699439149e-05,8.777101931778061e-05,3.456587267818782e-06,8.779802781452097e-05,8.784545392682378e-05
84.42264973080002,86.4226497308,8,0,-0.2889943881604626,27.5303581589509,0.3115597220154176,-2.29490685692742e-05,8.832834161917125e-05,2.492477776123341e-06,8.834229698182158e-05,8.836552590673155e-05
85.57735026920001,86.4226497308,8,0,-0.2247541695804669,27.78731903327089,0.3121914585911073,-2.29490685692742e-05,8.909922424213119e-05,2.497531668728859e-06,8.911313987105534e-05,8.912960167327305e-05
84.42264973080002,87.57735026920002,8,0,-0.2873097572916858,27.5307793166681,0.4079200498854647,-2.294401467666787e-05,8.832834161917125e-05,3.263360399083717e-06,8.835226317634222e-05,8.840423968700241e-05
85.57735026920001,87.57735026920002,8,0,-0.2230695387116635,27.78774019098818,0.4085517864612221,-2.294401467666787e-05,8.909922424213152e-05,3.268414291689777e-06,8.91230549089403e-05,8.917577529602607e-05
86.4226497308,86.4226497308,8,0,-0.2313587512792674,27.96464628354322,0.2799400878748028,-2.311206503092823e-05,8.967195510836169e-05,2.239520702998423e-06,8.968307139656793e-05,8.969552656034027e-05
87.57735026920002,86.4226497308,8,0,-0.1652048177202072,28.22926201777945,0.2797484952755952,-2.311206503092823e-05,9.046580231107041e-05,2.237987962204761e-06,9.047682581451713e-05,9.047758633859986e-05
86.4226497308,87.57735026920002,8,0,-0.2318696648773528,27.96451855514369,0.3791709882135013,-2.311359777172248e-05,8.967195510836169e-05,3.033367905708011e-06,8.969234703200408e-05,8.974707485528597e-05
87.57735026920002,87.57735026920002,8,0,-0.1657157313183291,28.22913428937979,0.3789793956142395,-2.311359777172248e-05,9.046580231106998e-05,3.031835164913916e-06,9.048603130420574e-05,9.053635866856843e-05
88.42264973080002,86.4226497308,8,0,-0.1794310401966444,28.4103680278902,0.2419556455610572,-2.330247375094142e-05,9.105672252140594e-05,1.935645164488457e-06,9.10649126233257e-05,9.105619984347967e-05
89.57735026920001,86.4226497308,8,0,-0.1110496372618694,28.6838936396293,0.2409873066217097,-2.330247375094142e-05,9.187729935662323e-05,1.927898452973678e-06,9.188536616395229e-05,9.18549415585644e-05
88.42264973080002,87.57735026920002,8,0,-0.1820132773682195,28.40972246859731,0.3445277499630837,-2.331022046245614e-05,9.105672252140594e-05,2.756221999704669e-06,9.107332621995348e-05,9.112012182754811e-05
89.57735026920001,87.57735026920002,8,0,-0.1136318744334721,28.68324808033629,0.3435594110238311,-2.331022046245614e-05,9.187729935662291e-05,2.748475288190649e-06,9.189369228163269e-05,9.192570862425288e-05
90.42264973080002,86.4226497308,8,0,-0.1342388051421421,28.86929140467232,0.1978983490890859,-2.352499730019271e-05,9.248912353906511e-05,1.583186792712687e-06,9.249452452758224e-05,9.244322496773413e-05
91.57735026920001,86.4226497308,8,0,-0.06332564542664709,29.1529440435343,0.1962152363440162,-2.352499730019271e-05,9.334008145565106e-05,1.56972189075213e-06,9.334535231096745e-05,9.325170341581928e-05
90.42264973080002,87.57735026920002,8,0,-0.13872710579568,28.86816932950893,0.3042680886622883,-2.353846220215332e-05,9.248912353906511e-05,2.434144709298307e-06,9.250188862557067e-05,9.251880380808191e-05
91.57735026920001,87.57735026920002,8,0,-0.06781394608018498,29.15182196837091,0.3025849759172457,-2.353846220215332e-05,9.334008145565106e-05,2.420679807337966e-06,9.33526138296538e-05,9.333358318739136e-05
92.42264973080002,86.4226497308,8,0,-0.09676461875854692,29.34312847029489,0.1481611453955971,-2.378414955626326e-05,9.397542279995048e-05,1.185289163164777e-06,9.397840530657567e-05,9.384033307810021e-05
93.57735026920001,86.4226497308,8,0,-0.02302904240354664,29.63807077571489,0.1458418717396583,-2.378414955626326e-05,9.486024971621049e-05,1.166734973917266e-06,9.486311803026242e-05,9.464002077427704e-05
92.42264973080002,87.57735026920002,8,0,-0.102949348507555,29.34158228785764,0.2587645099282336,-2.380270374551029e-05,9.397542279995048e-05,2.070116079425869e-06,9.398451839730037e-05,9.392655344462892e-05
93.57735026920001,87.57735026920002,8,0,-0.0292137721525636,29.63652459327761,0.2564452362722406,-2.380270374551029e-05,9.486024971621038e-05,2.051561890177925e-06,9.486911640879114e-05,9.473179893553853e-05
94.4226497308,86.4226497308,8,0,-0.06793052020077539,29.83351176995305,0.09324453593406441,-2.408418708060492e-05,9.552158208001038e-05,7.459562874725153e-07,9.552274516222557e-05,9.520673391250515e-05
95.57735026920002,86.4226497308,8,0,0.008900038333132798,30.14083400408868,0.09038564297246521,-2.408418708060492e-05,9.644354878241728e-05,7.230851437797217e-07,9.644463327848137e-05,9.595533530335011e-05
94.4226497308,87.57735026920002,8,0,-0.07555423476498646,29.831605841312,0.2084903737349132,-2.410705822429755e-05,9.552158208001038e-05,1.667922989879306e-06,9.552739555391423e-05,9.530221452912908e-05
95.57735026920002,87.57735026920002,8,0,0.001276323768903964,30.13892807544756,0.2056314807733547,-2.410705822429755e-05,9.644354878241706e-05,1.645051846186837e-06,9.64491606778491e-05,9.605537342140469e-05
96.4226497308,86.4226497308,8,0,-0.04858114299702088,30.34196910355174,0.03376315105080784,-2.442903494043186e-05,9.713316604576319e-05,2.701052084064627e-07,9.713331608568714e-05,9.645129830645552e-05
97.57735026920001,86.4226497308,8,0,0.03159408191203816,30.66267000318798,0.03048039543909774,-2.442903494043186e-05,9.809526874467189e-05,2.43843163512782e-07,9.80953900663765e-05,9.705769303882659e-05
96.4226497308,87.57735026920002,8,0,-0.05733515796149113,30.33978059981063,0.1540259884144765,-2.445529698532527e-05,9.713316604576319e-05,1.232207907315812e-06,9.713628784142244e-05,9.655417281541057e-05
97.57735026920001,87.57735026920002,8,0,0.02284006694759455,30.66048149944697,0.150743232802807,-2.445529698532527e-05,9.809526874467222e-05,1.205945862422456e-06,9.80982354184893e-05,9.716375921040147e-05
98.42264973080002,86.4226497308,8,0,-0.03946546182900157,30.86989654730592,-0.02954786028835444,-2.482220671569754e-05,9.881524132084214e-05,-2.363828823068355e-07,9.881535430605995e-05,9.737944966973082e-05
99.57735026920002,86.4226497308,8,0,0.04427611811482279,31.20486286708122,-0.03311827308516435,-2.482220671569754e-05,9.982014028016805e-05,-2.649461846813148e-07,9.982028107581891e-05,9.76521104006997e-05
98.42264973080002,87.57735026920002,8,0,-0.04898656262047574,30.86751627210806,0.09606450962734281,-2.485077001807196e-05,9.881524132084214e-05,7.685160770187424e-07,9.881643528523875e-05,9.748714134636003e-05
99.57735026920002,87.57735026920002,8,0,0.0347550173233131,31.20248259188321,0.09249409683054644,-2.485077001807196e-05,9.982014028016761e-05,7.399527746443715e-07,9.982123822131021e-05,9.77610513771056e-05
0.4226497308,88.42264973080002,8,0,-0.0307990401116216,7.205346237080426,-0.07396141332083252,-5.862833918021529e-06,2.308174719074666e-05,-5.916913065666602e-07,2.308477074490894e-05,2.474537537367774e-05
1.5773502692,88.42264973080002,8,0,0.03426010773692845,7.465582828474626,-0.0769878591935525,-5.862833918021529e-06,2.386245696492926e-05,-6.1590287354842e-07,2.386564697277929e-05,2.498523867752224e-05
0.4226497308,89.57735026920001,8,0,-0.03886956243903761,7.203328606498572,0.0236273084520738,-5.887045485003777e-06,2.308174719074666e-05,1.890184676165904e-07,2.308205551910223e-05,2.483707517875088e-05
1.5773502692,89.57735026920001,8,0,0.02618958540951244,7.463565197892772,0.02060086257929961,-5.887045485003777e-06,2.386245696492926e-05,1.648069006343969e-07,2.386268521333571e-05,2.507578871811922e-05
2.4226497308,88.42264973080002,8,0,-0.04317872595543015,7.629625485351728,-0.1282836466254977,-6.241872311338759e-06,2.444934453388987e-05,-1.026269173003982e-06,2.445792137015777e-05,2.527847636534853e-05
3.5773502692,88.42264973080002,8,0,0.02537934759581262,7.9038577795567,-0.1310637675605027,-6.241872311338759e-06,2.527204141650479e-05,-1.048510140484022e-06,2.528076033861153e-05,2.583975332337353e-05
2.4226497308,89.57735026920001,8,0,-0.05059238178196601,7.627772071395094,-0.02544653629872823,-6.264113278818366e-06,2.444934453388987e-05,-2.035722903898259e-07,2.444968185525665e-05,2.536751777864393e-05
3.5773502692,89.57735026920001,8,0,0.01796569176929497,7.902004365600138,-0.02822665723362485,-6.264113278818366e-06,2.5272041416505e-05,-2.258132578689988e-07,2.527244564281546e-05,2.592582285470728e-05
4.422649730800001,88.42264973080002,8,0,-0.06538071423250358,8.073889349445704,-0.1794943519742049,-6.668329765100573e-06,2.588875048961225e-05,-1.435954815793639e-06,2.59045762669544e-05,2.631491858762952e-05
5.577350269200001,88.42264973080002,8,0,0.006467922323884601,8.361283895671257,-0.1819054367851899,-6.668329765100573e-06,2.675093412828891e-05,-1.45524349428152e-06,2.676676878796762e-05,2.705181727359897e-05
4.422649730800001,89.57735026920001,8,0,-0.0718102737285724,8.072281959571821,-0.07172139713970378,-6.687618443588887e-06,2.588875048961268e-05,-5.737711771176303e-07,2.58912767674496e-05,2.639834096294886e-05
5.577350269200001,89.57735026920001,8,0,3.836282783398204e-05,8.359676505797447,-0.0741324819506211,-6.687618443588887e-06,2.675093412828956e-05,-5.930598556049688e-07,2.675356352094009e-05,2.71309793661527e-05
6.422649730800001,88.42264973080002,8,0,-0.09665892316593361,8.536928958270426,-0.2269085577793659,-7.138851720747328e-06,2.739549980499811e-05,-1.815268462234928e-06,2.741933785634216e-05,2.762892049787262e-05
7.577350269200001,88.42264973080002,8,0,-0.02175871158422371,8.836529804597266,-0.2288465137764326,-7.138851720747328e-06,2.829430234397863e-05,-1.830772110211461e-06,2.831793481921542e-05,2.846869714189762e-05
6.422649730800001,89.57735026920001,8,0,-0.1018268058248686,8.535636987605693,-0.1145582404066519,-7.154355368724132e-06,2.739549980499811e-05,-9.164659232532152e-07,2.740157625663013e-05,2.770462914407372e-05
7.577350269200001,89.57735026920001,8,0,-0.02692659424312271,8.835237833932677,-0.116496196403827,-7.154355368724132e-06,2.829430234397906e-05,-9.319695712306161e-07,2.830042681596971e-05,2.853923107996733e-05
8.4226497308,88.42264973080002,8,0,-0.1361676453240821,9.017368991881606,-0.2699525662952317,-7.649631658542347e-06,2.89645148902804e-05,-2.159620530361854e-06,2.899633258788413e-05,2.91074491929095e-05
9.5773502692,88.42264973080002,8,0,-0.05847996286894697,9.328119721702146,-0.2713309223734047,-7.649631658542347e-06,2.989676707974202e-05,-2.170647378987238e-06,2.992811349252546e-05,3.0012775605762e-05
8.4226497308,89.57735026920001,8,0,-0.1398432615325977,9.016450087829476,-0.1534210426124742,-7.660658507167893e-06,2.89645148902804e-05,-1.227368340899794e-06,2.89747947756732e-05,2.917396276279744e-05
9.5773502692,89.57735026920001,8,0,-0.06215557907749858,9.327200817649873,-0.1547993986906744,-7.660658507167893e-06,2.989676707974159e-05,-1.238395189525395e-06,2.990697282462802e-05,3.007348003364312e-05
10.4226497308,88.42264973080002,8,0,-0.1829810616953802,9.513698142588579,-0.3081586371687743,-8.196497911496078e-06,3.059021890563975e-05,-2.465269097350195e-06,3.0629352316027e-05,3.06921341358768e-05
11.5773502692,88.42264973080002,8,0,-0.1027899423974983,9.834462619780107,-0.3089074471183679,-8.196497911496078e-06,3.155251233721433e-05,-2.471259576946943e-06,3.159088583228993e-05,3.164284974393216e-05
10.4226497308,89.57735026920001,8,0,-0.1849778882274666,9.513198935955693,-0.1878719582218977,-8.202488391092447e-06,3.059021890564019e-05,-1.502975665775182e-06,3.060477118192024e-05,3.074843384487244e-05
11.5773502692,89.57735026920001,8,0,-0.1047867689295852,9.83396341314722,-0.1886207681714913,-8.202488391092447e-06,3.155251233721477e-05,-1.50896614537193e-06,3.156682600381e-05,3.169292467914593e-05
12.4226497308,88.42264973080002,8,0,-0.2361113586976473,10.02429781938364,-0.3411592128301372,-8.77499460333938e-06,3.226664210898575e-05,-2.729273702641098e-06,3.231196631147041e-05,3.235110455356394e-05
13.5773502692,88.42264973080002,8,0,-0.153715909682318,10.35387961544495,-0.3412239184273137,-8.77499460333938e-06,3.325538749716971e-05,-2.729791347418509e-06,3.329966450949473e-05,3.333537707020987e-05
12.4226497308,89.57735026920001,8,0,-0.2362839069566758,10.02425468231888,-0.2175660393070075,-8.775512248116466e-06,3.226664210898575e-05,-1.74052831445606e-06,3.228508703469517e-05,3.239653456019534e-05
13.5773502692,89.57735026920001,8,0,-0.1538884579413282,10.35383647838027,-0.2176307449041704,-8.775512248116466e-06,3.325538749716992e-05,-1.741045959233363e-06,3.327340960628997e-05,3.337434166973808e-05
14.4226497308,88.42264973080002,8,0,-0.2945254808531881,10.54746905978405,-0.3686809377178538,-9.38045678655744e-06,3.39875213759915e-05,-2.94944750174283e-06,3.403761135545054e-05,3.406535026680968e-05
15.5773502692,88.42264973080002,8,0,-0.2102353502878329,10.88462958204547,-0.3680212391012782,-9.38045678655744e-06,3.499900294277576e-05,-2.944169912810226e-06,3.504777899882585e-05,3.507540161152266e-05
14.4226497308,89.57735026920001,8,0,-0.2927662845426271,10.54790885886169,-0.2422457418697942,-9.375179197625757e-06,3.39875213759915e-05,-1.937965934958354e-06,3.400916346928018e-05,3.409954554786381e-05
15.5773502692,89.57735026920001,8,0,-0.2084761539772901,10.88506938112304,-0.2415860432532593,-9.375179197625757e-06,3.499900294277555e-05,-1.932688346026074e-06,3.502003721484757e-05,3.51030322792908e-05
16.4226497308,88.42264973080002,8,0,-0.3571605926448154,11.08145767309978,-0.3905386695728834,-1.000808003494323e-05,3.574639302803516e-05,-3.124309356583067e-06,3.57996662718783e-05,3.58221292806885e-05
17.5773502692,88.42264973080002,8,0,-0.2712917493695297,11.42493304620093,-0.3891274379037212,-1.000808003494323e-05,3.677681914733858e-05,-3.113019503229769e-06,3.68285462421242e-05,3.685217586764082e-05
16.4226497308,89.57735026920001,8,0,-0.3533973081933905,11.08239849421264,-0.2617354046600094,-9.996790181588961e-06,3.574639302803516e-05,-2.093883237280075e-06,3.577034223994438e-05,3.584495999202587e-05
17.5773502692,89.57735026920001,8,0,-0.2675284649180867,11.42587386731386,-0.2603241729907252,-9.996790181588961e-06,3.67768191473388e-05,-2.082593383925802e-06,3.67999895194802e-05,3.686845746742062e-05
18.4226497308,88.42264973080002,8,0,-0.4229383489644243,11.62447768213927,-0.4066296266248403,-1.065298486239757e-05,3.75366792620172e-05,-3.253037012998722e-06,3.759151582192473e-05,3.761179325071855e-05
19.5773502692,88.42264973080002,8,0,-0.3358091555701819,11.97299445571624,-0.4044518818460744,-1.065298486239757e-05,3.858222958274811e-05,-3.235615054768596e-06,3.86353314411995e-05,3.865705994873528e-05
18.4226497308,89.57735026920001,8,0,-0.4171310295545267,11.62592951199174,-0.2759358365333141,-1.063556290416788e-05,3.75366792620172e-05,-2.207486692266513e-06,3.756195544668018e-05,3.762332032909336e-05
19.5773502692,89.57735026920001,8,0,-0.3300018361602666,11.97444628556878,-0.2737580917546432,-1.063556290416788e-05,3.858222958274832e-05,-2.190064734037146e-06,3.860658059185732e-05,3.866214654462307e-05
20.4226497308,88.42264973080002,8,0,-0.4907780856221726,12.17473315717758,-0.4169277625907147,-1.131027639973302e-05,3.935176857146599e-05,-3.335422100725718e-06,3.940660751134209e-05,3.942627008253496e-05
21.5773502692,88.42264973080002,8,0,-0.4027056443771184,12.5270229221578,-0.4139797279403612,-1.131027639973302e-05,4.040863786640664e-05,-3.311837823522889e-06,4.046160228477436e-05,4.048252455184515e-05
20.4226497308,89.57735026920001,8,0,-0.4829166598877519,12.17669851361119,-0.2848191007231472,-1.128669212252975e-05,3.935176857146599e-05,-2.278552805785178e-06,3.937738732811294e-05,3.942670938087046e-05
21.5773502692,89.57735026920001,8,0,-0.3948442186426799,12.52898827859147,-0.2818710660727666,-1.128669212252975e-05,4.040863786640685e-05,-2.254968528582132e-06,4.04332168108103e-05,4.047670767963641e-05
22.4226497308,88.42264973080002,8,0,-0.5596090414355581,12.73043854802973,-0.4214784146897423,-1.197509977101757e-05,4.118509058684359e-05,-3.371827317517938e-06,4.123850371203619e-05,4.125834964987717e-05
23.5773502692,88.42264973080002,8,0,-0.4709057925140021,13.08525154371596,-0.4177666499688973,-1.197509977101757e-05,4.224952957390226e-05,-3.342133199751179e-06,4.230097882472266e-05,4.232168876626767e-05
22.4226497308,89.57735026920001,8,0,-0.5497110021800982,12.7329130578436,-0.2884235413074215,-1.194540565325119e-05,4.118509058684359e-05,-2.307388330459372e-06,4.121013050409595e-05,4.124804297841407e-05
23.5773502692,89.57735026920001,8,0,-0.4610077532585604,13.08772605352975,-0.2847117765866444,-1.194540565325119e-05,4.224952957390205e-05,-2.277694212693155e-06,4.227345063790733e-05,4.230537190566959e-05
24.4226497308,88.42264973080002,8,0,-0.6283817137269105,13.28983761948869,-0.4203932302868465,-1.264269157951706e-05,4.303018575334532e-05,-3.363145842294772e-06,4.308093061482031e-05,4.310135852940563e-05
25.5773502692,88.42264973080002,8,0,-0.5393522671841215,13.64595540565984,-0.4159338381289648,-1.264269157951706e-05,4.409853911185879e-05,-3.327470705031719e-06,4.414728038127027e-05,4.416811681912378e-05
24.4226497308,89.57735026920001,8,0,-0.6164900013059649,13.29281054759392,-0.2868490604725953,-1.260701644225422e-05,4.303018575334532e-05,-2.294792483780762e-06,4.30538382492188e-05,4.308075042949922e-05
25.5773502692,89.57735026920001,8,0,-0.5274605547631936,13.64892833376501,-0.2823896683148085,-1.260701644225422e-05,4.409853911185857e-05,-2.259117346518468e-06,4.412103068103884e-05,4.41417950245341e-05
26.4226497308,88.42264973080002,8,0,-0.69607843217329,13.85122108476991,-0.4138453465996977,-1.330842785077045e-05,4.488077021700234e-05,-3.310762772797582e-06,4.49278248849404e-05,4.494902297060931e-05
27.57735026920001,88.42264973080002,8,0,-0.6070166184988119,14.20746833946782,-0.4086632402825461,-1.330842785077045e-05,4.594951198109607e-05,-3.269305922260369e-06,4.599457024777749e-05,4.601573996278344e-05
26.4226497308,89.57735026920001,8,0,-0.6822594819942727,13.85467582231493,-0.2802526260880893,-1.326697100023362e-05,4.48807702170032e-05,-2.242021008704714e-06,4.490237377048694e-05,4.491864225279776e-05
27.57735026920001,89.57735026920001,8,0,-0.5931976683198852,14.21092307701248,-0.2750705197710054,-1.326697100023362e-05,4.594951198109585e-05,-2.200564158168043e-06,4.596994890886677e-05,4.597998375518848e-05
28.4226497308,88.42264973080002,8,0,-0.7617232144581392,14.41294301377429,-0.4020647756773898,-1.396786869728548e-05,4.673079621564423e-05,-3.216518205419118e-06,4.677337843881876e-05,4.679542269327061e-05
29.5773502692,88.42264973080002,8,0,-0.6729093427967823,14.76819850041972,-0.3961929934214158,-1.396786869728548e-05,4.779656267558051e-05,-3.169543947371327e-06,4.78371985379932e-05,4.785883853466198e-05
28.4226497308,89.57735026920001,8,0,-0.7460651284422815,14.41685753527825,-0.268843968185314,-1.39208944392379e-05,4.673079621564423e-05,-2.150751745482512e-06,4.674985701907715e-05,4.67558678876499e-05
29.5773502692,89.57735026920001,8,0,-0.6572512567809428,14.77211302192361,-0.2629721859293129,-1.39208944392379e-05,4.77965626755803e-05,-2.103777487434504e-06,4.781448546039118e-05,4.781428125602042e-05
30.4226497308,88.42264973080002,8,0,-0.8243909436011503,14.97343607072601,-0.3853339335390684,-1.461679987610449e-05,4.857450818120416e-05,-3.082671468312547e-06,4.861208145144881e-05,4.863498816104546e-05
31.5773502692,88.42264973080002,8,0,-0.7360892613482015,15.32664279973781,-0.3788129826231862,-1.461679987610449e-05,4.963412836823955e-05,-3.03050386098549e-06,4.966984322753249e-05,4.969205253329949e-05
30.4226497308,89.57735026920001,8,0,-0.8070017411588157,14.97778337133646,-0.2528814101594962,-1.456463226877738e-05,4.857450818120373e-05,-2.023051281275969e-06,4.859070925140681e-05,4.858691611924187e-05
31.5773502692,89.57735026920001,8,0,-0.7187000589058128,15.33099010034847,-0.2463604592436953,-1.456463226877738e-05,4.963412836823976e-05,-1.970883673949562e-06,4.964925119778434e-05,4.963938045298113e-05
32.4226497308,88.42264973080002,8,0,-0.8832158834188784,15.5312256117433,-0.3639832473227637,-1.525127131633505e-05,5.040649466431365e-05,-2.91186597858211e-06,5.043876349892863e-05,5.046251819750362e-05
33.57735026920001,88.42264973080002,8,0,-0.7956722354204189,15.88140020373714,-0.3568604615093984,-1.525127131633505e-05,5.145701844029517e-05,-2.854883692075187e-06,5.148754924989791e-05,5.151040516543205e-05
32.4226497308,89.57735026920001,8,0,-0.8642217879167147,15.53597413561884,-0.2326677753250201,-1.519428902982856e-05,5.040649466431365e-05,-1.861342202600161e-06,5.04196953365051e-05,5.040663517271582e-05
33.57735026920001,89.57735026920001,8,0,-0.7766781399182729,15.88614872761261,-0.225544989511709,-1.519428902982856e-05,5.145701844029495e-05,-1.804359916093672e-06,5.146922794728782e-05,5.145034971572788e-05
34.42264973080001,88.42264973080002,8,0,-0.9373995271824507,16.08494264949093,-0.3383867764927736,-1.586763260657658e-05,5.222173610011692e-05,-2.707094211942189e-06,5.224863260952287e-05,5.22732065194629e-05
35.5773502692,88.42264973080002,8,0,-0.8508392168336965,16.43118389088594,-0.3307156718883748,-1.586763260657658e-05,5.326045982430197e-05,-2.645725375106998e-06,5.328576538759864e-05,5.330933160691769e-05
34.42264973080001,89.57735026920001,8,0,-0.916943248237585,16.09005671922701,-0.2085463109694667,-1.580626376974188e-05,5.222173610011649e-05,-1.668370487755734e-06,5.223196365964287e-05,5.221026113846311e-05
35.5773502692,89.57735026920001,8,0,-0.8303829378887686,16.43629796062228,-0.2008752063651764,-1.580626376974188e-05,5.326045982430229e-05,-1.607001650921411e-06,5.326980623871812e-05,5.32426632117039e-05
36.4226497308,88.42264973080002,8,0,-0.9862177566712766,16.63333567117352,-0.3089577922357658,-1.64625653582869e-05,5.401564835309227e-05,-2.471662337886127e-06,5.403731191815272e-05,5.406267142314152e-05
37.5773502692,88.42264973080002,8,0,-0.9008436145170506,16.97483223979042,-0.3007974094655869,-1.64625653582869e-05,5.504013805894298e-05,-2.406379275724695e-06,5.506037863104353e-05,5.508470898906227e-05
36.4226497308,89.57735026920001,8,0,-0.9644567359510345,16.63877592635358,-0.1808965790044679,-1.639728229612617e-05,5.401564835309227e-05,-1.447172632035743e-06,5.402308337777182e-05,5.399344905035194e-05
37.5773502692,89.57735026920001,8,0,-0.8790825937968263,16.98027249497041,-0.1727361962343974,-1.639728229612617e-05,5.504013805894277e-05,-1.381889569875179e-06,5.504682027173114e-05,5.501223203398801e-05
38.4226497308,88.42264973080002,8,0,-1.029027275467016,17.17528127925143,-0.2761442716149408,-1.703311230489559e-05,5.578412191397817e-05,-2.209154172919526e-06,5.580087357908511e-05,5.582698560164311e-05
39.5773502692,88.42264973080002,8,0,-0.9450179432835046,17.51131860798548,-0.2675584956922687,-1.703311230489559e-05,5.679223390018032e-05,-2.140467965538149e-06,5.680774564814243e-05,5.683288545464956e-05
38.4226497308,89.57735026920001,8,0,-1.006131873006702,17.18100512986623,-0.1501302733395099,-1.696442609751443e-05,5.578412191397731e-05,-1.201042186716079e-06,5.578907872787148e-05,5.575230367772648e-05
39.5773502692,89.57735026920001,8,0,-0.9221225408230547,17.51704245860082,-0.1415444974169327,-1.696442609751443e-05,5.679223390018108e-05,-1.132355979335462e-06,5.679657979422237e-05,5.675543402611088e-05
40.4226497308,88.42264973080002,8,0,-1.065271272048444,17.70979361233443,-0.2404242782233512,-1.757670296042256e-05,5.752355657710892e-05,-1.92339422578681e-06,5.753586958018769e-05,5.756270441241213e-05
41.5773502692,88.42264973080002,8,0,-0.9827797117171064,18.03975985365978,-0.2314811313618479,-1.757670296042256e-05,5.851345530108497e-05,-1.851849050894783e-06,5.852472100653613e-05,5.855070703242478e-05
40.4226497308,89.57735026920001,8,0,-1.041422880417877,17.71575571024207,-0.1166869377263033,-1.750515778553086e-05,5.752355657710892e-05,-9.33495501810426e-07,5.752646006592088e-05,5.748340842579506e-05
41.5773502692,89.57735026920001,8,0,-0.958931320086557,18.04572195156735,-0.1077437908648406,-1.750515778553086e-05,5.851345530108476e-05,-8.619503269187249e-07,5.851589856615411e-05,5.846914112404181e-05
42.4226497308,88.42264973080002,8,0,-1.094484265146976,18.23603249725768,-0.2023012174464891,-1.809117564627647e-05,5.923089140334216e-05,-1.618409739571913e-06,5.923935911306799e-05,5.926689158255145e-05
43.57735026920001,88.42264973080002,8,0,-1.013636501925532,18.55942355014346,-0.1930721239624993,-1.809117564627647e-05,6.020106456199948e-05,-1.544576991699994e-06,6.020868181112597e-05,6.023554154116388e-05
42.4226497308,89.57735026920001,8,0,-1.069873349189868,18.24218522624696,-0.08102957261424273,-1.801734289840515e-05,5.923089140334216e-05,-6.482365809139419e-07,5.923225131554982e-05,5.91838514001896e-05
43.57735026920001,89.57735026920001,8,0,-0.9890255859683981,18.56557627913284,-0.07180047913033427,-1.801734289840515e-05,6.02010645619998e-05,-5.744038330426741e-07,6.020211909419361e-05,6.015074348915321e-05
44.4226497308,88.42264973080002,8,0,-1.116296085674378,18.75331028233951,-0.1622989705445181,-1.857479570002962e-05,6.090362977202593e-05,-1.298391764356145e-06,6.090893218177279e-05,6.093714169101134e-05
45.5773502692,88.42264973080002,8,0,-1.037190194770679,19.06973384595431,-0.1528579966091119,-1.857479570002962e-05,6.185290046287033e-05,-1.222863972872895e-06,6.185754845713129e-05,6.188529898846159e-05
44.4226497308,89.57735026920001,8,0,-1.091120155180125,18.75960426496307,-0.04364013418890104,-1.849926790854686e-05,6.090362977202593e-05,-3.491210735112084e-07,6.090401352670763e-05,6.0851248033436e-05
45.5773502692,89.57735026920001,8,0,-1.012014264276416,19.07602782857791,-0.03419916025354909,-1.849926790854686e-05,6.185290046287044e-05,-2.735932820283928e-07,6.185313335349598e-05,6.179816995046724e-05
46.42264973080001,88.42264973080002,8,0,-1.13043495572672,19.26109730596422,-0.1209569263904009,-1.902626970309688e-05,6.253985934366688e-05,-9.676554111232071e-07,6.254272917475332e-05,6.257159896862004e-05
47.57735026920001,88.42264973080002,8,0,-1.053140299536637,19.57027593072456,-0.1113800004710306,-1.902626970309688e-05,6.346739521794788e-05,-8.910400037682445e-07,6.346980124855988e-05,6.349844808627592e-05
46.42264973080001,89.57735026920001,8,0,-1.104896486608219,19.26748192324385,-0.005014942105357502,-1.894965429574138e-05,6.253985934366688e-05,-4.011953684286002e-08,6.253986428165543e-05,6.24837598633795e-05
47.57735026920001,89.57735026920001,8,0,-1.027601830418118,19.57666054800425,0.004561983814148352,-1.894965429574138e-05,6.34673952179481e-05,3.649587051318681e-08,6.346739925821801e-05,6.340990442166088e-05
48.4226497308,88.42264973080002,8,0,-1.13672963492541,19.759025963176,-0.07882494180121158,-1.944475560230211e-05,6.413826679010351e-05,-6.305995344096926e-07,6.41394561767243e-05,6.416897208965717e-05
49.57735026920001,88.42264973080002,8,0,-1.061286356068794,20.06079907860246,-0.06918906399280302,-1.944475560230211e-05,6.50435861363829e-05,-5.535125119424241e-07,6.504449268990027e-05,6.507402861701122e-05
48.4226497308,89.57735026920001,8,0,-1.111033960769383,19.765449881715,0.0343399764836448,-1.936766857983403e-05,6.413826679010351e-05,2.747198118691584e-07,6.413849273443457e-05,6.408010917663443e-05
49.57735026920001,89.57735026920001,8,0,-1.035590681912786,20.06722299714139,0.04397585429220244,-1.936766857983403e-05,6.504358613638268e-05,3.518068343376195e-07,6.504395269742847e-05,6.498499806049284e-05
50.42264973080001,88.42264973080002,8,0,-1.13511061668277,20.24689334499024,-0.03645827029857829,-1.982986864937705e-05,6.569814719731499e-05,-2.916661623886263e-07,6.569839585531938e-05,6.572854472888584e-05
51.57735026920001,88.42264973080002,8,0,-1.061529389272716,20.54121825463045,-0.02684072025586643,-1.982986864937705e-05,6.658112192623562e-05,-2.147257620469314e-07,6.658125532096181e-05,6.66116594736217e-05
50.42264973080001,89.57735026920001,8,0,-1.109463816568817,20.25330504501873,0.07391357081639252,-1.97529282490352e-05,6.569814719731499e-05,5.913085665311402e-07,6.569917012661544e-05,6.563958932095865e-05
51.57735026920001,89.57735026920001,8,0,-1.035882589158764,20.54762995465894,0.0835311208592128,-1.97529282490352e-05,6.658112192623562e-05,6.682489668737024e-07,6.658241501393543e-05,6.652307701895941e-05
52.4226497308,88.42264973080002,8,0,-1.125610370794656,20.72466243954781,0.005587495681332608,-2.018168313818114e-05,6.72194081031887e-05,4.469996545066086e-08,6.721941381846854e-05,6.725018174137044e-05
53.5773502692,88.42264973080002,8,0,-1.053872409431399,21.01161428500084,0.01510994189466461,-2.018168313818114e-05,6.808026363954779e-05,1.208795351573169e-07,6.808030502730237e-05,6.81115422739624e-05
52.4226497308,89.57735026920001,8,0,-1.100217180892455,20.73101073702336,0.1131944377262182,-2.010550356847454e-05,6.72194081031887e-05,9.055555018097454e-07,6.722175568278151e-05,6.716207056510635e-05
53.5773502692,89.57735026920001,8,0,-1.028479219529226,21.01796258247628,0.122716883939496,-2.010550356847454e-05,6.808026363954746e-05,9.817350715159677e-07,6.808299586584915e-05,6.802434570096182e-05
54.42264973080001,88.42264973080002,8,0,-1.10836264299711,21.19246189982612,0.0467614227775908,-2.050072997745165e-05,6.870256819384128e-05,3.740913822207264e-07,6.870296039836126e-05,6.873433089448672e-05
55.57735026920001,88.42264973080002,8,0,-1.038419966011673,21.47223260776788,0.05611325690563153,-2.050072997745165e-05,6.954188031766653e-05,4.489060552450522e-07,6.954243981775659e-05,6.957446051561531e-05
54.42264973080001,89.57735026920001,8,0,-1.083424418655633,21.1986964559115,0.1516754382557199,-2.042591530442722e-05,6.870256819384128e-05,1.213403506045759e-06,6.870669784968885e-05,6.864800144893233e-05
55.57735026920001,89.57735026920001,8,0,-1.013481741670195,21.47846716385325,0.1610272723837742,-2.042591530442722e-05,6.954188031766653e-05,1.288218179070193e-06,6.954649147050875e-05,6.948958550303714e-05
56.4226497308,88.42264973080002,8,0,-1.08360083569915,21.65058439822945,0.0865221310303592,-2.078799019282083e-05,7.014875074289354e-05,6.921770482428737e-07,7.015006787313666e-05,7.018202014268418e-05
57.57735026920001,88.42264973080002,8,0,-1.015376776401157,21.92348063542142,0.09562984903770372,-2.078799019282083e-05,7.096743945446946e-05,7.650387923016297e-07,7.096903411263911e-05,7.100177429140593e-05
56.4226497308,89.57735026920001,8,0,-1.0593135876796,21.65665621023433,0.1888582199773762,-2.071512844876219e-05,7.014875074289354e-05,1.51086575981901e-06,7.015503089954938e-05,7.009840562095182e-05
57.57735026920001,89.57735026920001,8,0,-0.9910895283816252,21.92955244742624,0.1979659379847207,-2.071512844876219e-05,7.096743945446925e-05,1.583727503877766e-06,7.097427828377332e-05,7.092014906173075e-05
58.4226497308,88.42264973080002,8,0,-1.051655506088172,22.09948360284249,0.1243425466619213,-2.104488450175614e-05,7.155967193396649e-05,9.947403732953703e-07,7.156234318445899e-05,7.159485048351402e-05
59.57735026920001,88.42264973080002,8,0,-0.9850454633907075,22.36592377363234,0.1331353503677073,-2.104488450175614e-05,7.235899244633606e-05,1.065082802941659e-06,7.236202862786459e-05,7.239541062445997e-05
58.4226497308,89.57735026920001,8,0,-1.028208029539481,22.10534547197966,0.2242576107082677,-2.097454207211006e-05,7.155967193396649e-05,1.794060885666141e-06,7.15683669666138e-05,7.151487420315032e-05
59.57735026920001,89.57735026920001,8,0,-0.9615979868420172,22.37178564276952,0.2330504144139995,-2.097454207211006e-05,7.235899244633606e-05,1.864403315311996e-06,7.236830221118423e-05,7.231795006533731e-05
60.4226497308,88.42264973080002,8,0,-1.012951027354737,22.53976982245825,0.1597144844392873,-2.127325914550175e-05,7.293762425375017e-05,1.277715875514299e-06,7.294195624474488e-05,7.297498446404938e-05
61.5773502692,88.42264973080002,8,0,-0.947823445319024,22.8002801506011,0.1681249438938159,-2.127325914550175e-05,7.371915523817873e-05,1.344999551150527e-06,7.372391596866998e-05,7.375784949966676e-05
60.4226497308,89.57735026920001,8,0,-0.9905231354762112,22.54537679542788,0.2574058574928307,-2.120597546986618e-05,7.293762425375017e-05,2.059246859942646e-06,7.294888362387456e-05,7.289955374964628e-05
61.5773502692,89.57735026920001,8,0,-0.9253955534404525,22.80588712357091,0.2658163169473593,-2.120597546986618e-05,7.371915523817928e-05,2.126530535578874e-06,7.373106347802134e-05,7.368544870292819e-05
62.42264973080001,88.42264973080002,8,0,-0.9680014652650923,22.97220437682547,0.192153042111767,-2.147536819030867e-05,7.428545517805356e-05,1.537224336894136e-06,7.429162394927929e-05,7.432513041370583e-05
63.57735026920001,88.42264973080002,8,0,-0.9041990299569074,23.22741411805821,0.200117717168185,-2.147536819030867e-05,7.505108440175178e-05,1.60094173734548e-06,7.505772205947036e-05,7.509210565747316e-05
62.42264973080001,89.57735026920001,8,0,-0.9467623317810405,22.97751416019648,0.287856695074004,-2.141165078985651e-05,7.428545517805356e-05,2.302853560592032e-06,7.429930713042339e-05,7.425512987061213e-05
63.57735026920001,89.57735026920001,8,0,-0.8829598964728556,23.23272390142922,0.2958213701305303,-2.141165078985651e-05,7.505108440175178e-05,2.366570961044243e-06,7.506559730045205e-05,7.502563281162414e-05
64.4226497308,88.42264973080002,8,0,-0.9174057252689201,23.39769275424778,0.221200802404093,-2.165385252425877e-05,7.560654139380802e-05,1.769606419232744e-06,7.561459001368226e-05,7.564852245209373e-05
65.57735026920001,88.42264973080002,8,0,-0.8547467669287503,23.64832858760846,0.228660825111725,-2.165385252425877e-05,7.635844889389005e-05,1.8292866008938e-06,7.63669835320416e-05,7.640170616147901e-05
64.4226497308,89.57735026920001,8,0,-0.8975123313818107,23.40266610271956,0.3151892399144013,-2.159417234259744e-05,7.560654139380802e-05,2.52151391931521e-06,7.562289148759508e-05,7.558480656525823e-05
65.57735026920001,89.57735026920001,8,0,-0.834853373041696,23.65330193608002,0.3226492626220469,-2.159417234259744e-05,7.63584488938894e-05,2.581194100976375e-06,7.637545049804417e-05,7.634199472949854e-05
66.4226497308,88.42264973080002,8,0,-0.8618420245159628,23.81727662031052,0.246431851788837,-2.181171577469949e-05,7.690475880460642e-05,1.971454814310696e-06,7.691460074498737e-05,7.694889623973422e-05
67.57735026920001,88.42264973080002,8,0,-0.8001221134545133,24.06415626455632,0.2533334744487782,-2.181171577469949e-05,7.764539773734381e-05,2.026667795590226e-06,7.765572117202698e-05,7.769066362560336e-05
66.4226497308,89.57735026920001,8,0,-0.8434376974224786,23.82187770208389,0.3390117183809023,-2.175650279341904e-05,7.690475880460642e-05,2.712093747047218e-06,7.692339343226136e-05,7.689228122857195e-05
67.57735026920001,89.57735026920001,8,0,-0.7817177863610016,24.0687573463298,0.3459133410409925,-2.175650279341904e-05,7.764539773734414e-05,2.76730672832794e-06,7.766465416817507e-05,7.763850373858325e-05
68.42264973080002,88.42264973080002,8,0,-0.8020617385378177,24.23212473891385,0.2674556389129683,-2.195229735445209e-05,7.818444855535456e-05,2.139645111303747e-06,7.819587682461622e-05,7.82304602677608e-05
69.57735026920001,88.42264973080002,8,0,-0.7410554643717058,24.47614983557829,0.2737507557007055,-2.195229735445209e-05,7.891652384534791e-05,2.190006045605644e-06,7.892840948391573e-05,7.896344473408359e-05
68.42264973080002,89.57735026920001,8,0,-0.7852747604373116,24.23632148343897,0.3589650501621775,-2.190193642015057e-05,7.818444855535456e-05,2.87172040129742e-06,7.820504346809799e-05,7.818171512835268e-05
69.57735026920001,89.57735026920001,8,0,-0.7242684862712538,24.48034658010321,0.3652601669498876,-2.190193642015057e-05,7.891652384534726e-05,2.922081335599101e-06,7.893769250548322e-05,7.891957373450463e-05
70.4226497308,88.42264973080002,8,0,-0.7388826641124107,24.64352286001537,0.2839207082426081,-2.207924281317201e-05,7.945037928333912e-05,2.271365665940865e-06,7.94630811346161e-05,7.949786214408406e-05
71.57735026920001,88.42264973080002,8,0,-0.6783455898990693,24.88567115686874,0.2895673610017095,-2.207924281317201e-05,8.017682417389921e-05,2.316538888013676e-06,8.018994237859014e-05,8.022493319439395e-05
70.4226497308,89.57735026920001,8,0,-0.723824923421672,24.64728729518806,0.3747263195626876,-2.20340695910998e-05,7.945037928333912e-05,2.997810556501501e-06,7.94725129910851e-05,7.945769881565512e-05
71.57735026920001,89.57735026920001,8,0,-0.6632878492083494,24.88943559204135,0.3803729723216671,-2.20340695910998e-05,8.017682417389899e-05,3.042983778573337e-06,8.019946779582907e-05,8.019002527209592e-05
72.4226497308,88.42264973080002,8,0,-0.6731817283279051,25.0528626178526,0.2955183553490375,-2.219647162493137e-05,8.070770575979063e-05,2.3641468427923e-06,8.072128259679158e-05,8.075614867142345e-05
73.57735026920001,88.42264973080002,8,0,-0.6128525137480496,25.29417947617202,0.3004812363396984,-2.219647162493137e-05,8.143165633474889e-05,2.403849890717587e-06,8.1445594918014e-05,8.148038529418685e-05
72.4226497308,89.57735026920001,8,0,-0.6599473790194583,25.05617120517971,0.3860121772188206,-2.215676857700603e-05,8.070770575979063e-05,3.088097417750565e-06,8.073087750592482e-05,8.072521127607374e-05
73.57735026920001,89.57735026920001,8,0,-0.5996181644396206,25.29748806349906,0.3909750582095357,-2.215676857700603e-05,8.143165633474868e-05,3.127800465676286e-06,8.145526154676265e-05,8.145504017406228e-05
74.4226497308,88.42264973080002,8,0,-0.60588715966413,25.46162946942436,0.3019862585853758,-2.23081424864647e-05,8.196192402988925e-05,2.415890068683006e-06,8.1975915921155e-05,8.201071720355626e-05
75.57735026920001,88.42264973080002,8,0,-0.5454898505109096,25.70321870603724,0.306237224441134,-2.23081424864647e-05,8.268669173972789e-05,2.449897795529072e-06,8.270098097244129e-05,8.273537430212674e-05
74.4226497308,89.57735026920001,8,0,-0.5945512507155319,25.46446344666151,0.3925822223151653,-2.227413475961891e-05,8.196192402988925e-05,3.140657778521322e-06,8.198557585863329e-05,8.198957032688147e-05
75.57735026920001,89.57735026920001,8,0,-0.5341539415623293,25.70605268327432,0.3968331881708557,-2.227413475961891e-05,8.268669173972767e-05,3.174665505366846e-06,8.27106916390862e-05,8.272010496463458e-05
76.42264973080002,88.42264973080002,8,0,-0.5379701207015435,25.87138968639306,0.3031121469327047,-2.241861613535938e-05,8.321882309301901e-05,2.424897175461638e-06,8.323273708023401e-05,8.326725314082573e-05
77.57735026920001,88.42264973080002,8,0,-0.4772166053918196,26.11440374763195,0.3066307587234574,-2.241861613535938e-05,8.394786527673569e-05,2.453046069787659e-06,8.396200656221587e-05,8.399571605311341e-05
76.42264973080002,89.57735026920001,8,0,-0.5285871559262754,25.87373542758687,0.394242419897114,-2.239046724103358e-05,8.321882309301901e-05,3.153939359176912e-06,8.32423653318265e-05,8.325636914484957e-05
77.57735026920001,89.57735026920001,8,0,-0.4678336406165693,26.1167494888257,0.3977610316879344,-2.239046724103358e-05,8.394786527673548e-05,3.182088253503475e-06,8.397166530173266e-05,8.399093549378532e-05
78.4226497308,88.42264973080002,8,0,-0.4704357847071581,26.28377639522253,0.2987375650227589,-2.253241562724092e-05,8.44844330924778e-05,2.389900520182071e-06,8.449777424534123e-05,8.453164310100289e-05
79.57735026920001,88.42264973080002,8,0,-0.4090284221520628,26.52940584544291,0.3015116690143778,-2.253241562724092e-05,8.522132144313894e-05,2.412093352115023e-06,8.523481857513453e-05,8.526736011276197e-05
78.4226497308,89.57735026920001,8,0,-0.4630381740629677,26.28562579788358,0.3908486088553473,-2.251022279530835e-05,8.44844330924778e-05,3.126788870842778e-06,8.450727236896203e-05,8.453138848501878e-05
79.57735026920001,89.57735026920001,8,0,-0.4016308115078635,26.53125524810399,0.3936227128470068,-2.251022279530835e-05,8.522132144313905e-05,3.148981702776055e-06,8.524432763110322e-05,8.527336716729815e-05
80.4226497308,88.42264973080002,8,0,-0.4043138207465704,26.70047464132525,0.2887617932664159,-2.265418393944922e-05,8.576496990883803e-05,2.310094346131327e-06,8.577727384718987e-05,8.580984242011932e-05
81.57735026920001,88.42264973080002,8,0,-0.3419482474841082,26.9499369343751,0.2907881556294778,-2.265418393944922e-05,8.651335678798759e-05,2.326305245035822e-06,8.652574847932954e-05,8.655621463433071e-05
80.4226497308,89.57735026920001,8,0,-0.3989101877781707,26.70182554956735,0.3823101531600964,-2.263797304054402e-05,8.576496990883803e-05,3.058481225280772e-06,8.578653861886087e-05,8.582046325884853e-05
81.57735026920001,89.57735026920001,8,0,-0.3365446145156898,26.95128784261727,0.3843365155232668,-2.263797304054402e-05,8.65133567879878e-05,3.074692124186134e-06,8.653500530349486e-05,8.657317889537074e-05
82.4226497308,88.42264973080002,8,0,-0.3406482351781595,27.12320543441407,0.2731459733326669,-2.278863870010137e-05,8.706677597826755e-05,2.185167786661335e-06,8.707764136447397e-05,8.710765330426017e-05
83.57735026920001,88.42264973080002,8,0,-0.2770163629578519,27.3777329232953,0.274430979633469,-2.278863870010137e-05,8.783035844491124e-05,2.195447837067752e-06,8.784125059900228e-05,8.786783955361827e-05
82.4226497308,89.57735026920001,8,0,-0.3372215517091552,27.12406210528132,0.3685937816631552,-2.277835864969435e-05,8.706677597826755e-05,2.948750253305241e-06,8.708656192998555e-05,8.71292597739723e-05
83.57735026920001,89.57735026920001,8,0,-0.2735896794888477,27.37858959416255,0.3698787879639572,-2.277835864969435e-05,8.783035844491124e-05,2.959030303711658e-06,8.785014507322949e-05,8.789578535097167e-05
84.42264973080002,88.42264973080002,8,0,-0.2804865024380163,27.55370871536096,0.2519174767234681,-2.294052378009042e-05,8.839625709110548e-05,2.015339813787745e-06,8.840537640883103e-05,8.843032400710698e-05
85.57735026920001,88.42264973080002,8,0,-0.2152797202081835,27.81453584428029,0.2524779034995128,-2.294052378009042e-05,8.917873847786347e-05,2.019823227996102e-06,8.918783449499757e-05,8.920687386321301e-05
84.42264973080002,89.57735026920001,8,0,-0.2789920310352665,27.55408233321165,0.3497276500681493,-2.293604036588217e-05,8.839625709110548e-05,2.797821200545194e-06,8.841383188331697e-05,8.846287391464571e-05
85.57735026920001,89.57735026920001,8,0,-0.2137852488054524,27.81490946213091,0.3502880768441533,-2.293604036588217e-05,8.917873847786326e-05,2.802304614753226e-06,8.919624661794738e-05,8.924566310606087e-05
86.4226497308,88.42264973080002,8,0,-0.2248679060515917,27.99372517096548,0.2251745368414467,-2.311455743613747e-05,8.97598148719308e-05,1.801396294731574e-06,8.976700167160899e-05,8.978178477496426e-05
87.57735026920002,88.42264973080002,8,0,-0.1577805023031837,28.26207478595911,0.2250383979483735,-2.311455743613747e-05,9.056486371691169e-05,1.800307183586988e-06,9.057199100241686e-05,9.057592073965519e-05
86.4226497308,89.57735026920001,8,0,-0.2252309431000032,27.99363441170338,0.3258056424640583,-2.311564654728271e-05,8.97598148719308e-05,2.606445139712466e-06,8.977485944146042e-05,8.982506574411031e-05
87.57735026920002,89.57735026920001,8,0,-0.1581435393515864,28.26198402669705,0.3256695035709851,-2.311564654728271e-05,9.05648637169118e-05,2.60535602856788e-06,9.057978929414663e-05,9.062523399795295e-05
88.42264973080002,88.42264973080002,8,0,-0.174811002883712,28.44497681339861,0.1930911428444276,-2.331537665994677e-05,9.116377460518252e-05,1.544729142755421e-06,9.116898533458457e-05,9.116314128893805e-05
89.57735026920001,88.42264973080002,8,0,-0.1055438252960927,28.72204552374909,0.1922986075939069,-2.331537665994677e-05,9.199498073623395e-05,1.538388860751255e-06,9.200011153072656e-05,9.197332170020456e-05
88.42264973080002,89.57735026920001,8,0,-0.1769244302184161,28.44444845656493,0.2969919092258699,-2.332171694195088e-05,9.116377460518252e-05,2.375935273806959e-06,9.11761003170617e-05,9.121675065910615e-05
89.57735026920001,89.57735026920001,8,0,-0.1076572526308146,28.72151716691534,0.2961993739753898,-2.332171694195088e-05,9.199498073623373e-05,2.369594991803118e-06,9.200715240768261e-05,9.203263597712626e-05
90.42264973080002,88.42264973080002,8,0,-0.1313001208676861,28.90914623703329,0.1559221669961266,-2.354747737640323e-05,9.261430805520068e-05,1.247377335969013e-06,9.26176566292621e-05,9.256964438825477e-05
91.57735026920001,88.42264973080002,8,0,-0.05956448995485086,29.19608876068463,0.1545265404799849,-2.354747737640323e-05,9.347513562615471e-05,1.236212323839879e-06,9.34784003333706e-05,9.338864785851669e-05
90.42264973080002,89.57735026920001,8,0,-0.1350217915775058,28.90821581935584,0.263525613365353,-2.355864238853269e-05,9.261430805520068e-05,2.108204906922824e-06,9.262387173172126e-05,9.26329645960314e-05
91.57735026920001,89.57735026920001,8,0,-0.06328616066467063,29.19515834300718,0.2621299868491435,-2.355864238853269e-05,9.347513562615471e-05,2.097039894793148e-06,9.348452869086707e-05,9.345720756616748e-05
92.42264973080002,88.42264973080002,8,0,-0.09527080387010134,29.38785446813635,0.1140086665824452,-2.38151501468934e-05,9.411735094113239e-05,9.12069332659562e-07,9.411911436093038e-05,9.398452634913829e-05
93.57735026920001,88.42264973080002,8,0,-0.02079269561693664,29.68576690114901,0.112077415119469,-2.38151501468934e-05,9.501108824017037e-05,8.96619320955752e-07,9.501277960643497e-05,9.479349319046122e-05
92.42264973080002,89.57735026920001,8,0,-0.1004208077715703,29.38656696716098,0.225725828962328,-2.383060015859781e-05,9.411735094113239e-05,1.805806631698624e-06,9.412426235097533e-05,9.405669090319825e-05
93.57735026920001,89.57735026920001,8,0,-0.02594269951837802,29.68447940017375,0.2237945774992705,-2.383060015859781e-05,9.501108824017069e-05,1.790356619994164e-06,9.501783081304388e-05,9.48702668681908e-05
94.4226497308,88.42264973080002,8,0,-0.06759412790700026,29.88263733363081,0.06778326741267866,-2.412241107620705e-05,9.56785147699442e-05,5.422661393014293e-07,9.567912839429146e-05,9.536638623488183e-05
95.57735026920002,88.42264973080002,8,0,0.009881362984652142,30.19253929719742,0.0653990639418921,-2.412241107620705e-05,9.660822066064403e-05,5.231925115351367e-07,9.660878747851589e-05,9.612259229828533e-05
94.4226497308,89.57735026920001,8,0,-0.07395200382927847,29.88104786465025,0.1839965037501849,-2.414148470397388e-05,9.56785147699442e-05,1.471972030001479e-06,9.568303534231176e-05,9.544622597879016e-05
95.57735026920002,89.57735026920001,8,0,0.003523487062382813,30.19094982821689,0.1816123002793576,-2.414148470397388e-05,9.660822066064414e-05,1.452898402234861e-06,9.661259093501386e-05,9.620619956710418e-05
96.4226497308,88.42264973080002,8,0,-0.04905983150698567,30.39492029489537,0.01777549927681145,-2.447292769673865e-05,9.730299280887077e-05,1.422039942144916e-07,9.730303432358277e-05,9.662328680444879e-05
97.57735026920001,88.42264973080002,8,0,0.03164407832796101,30.71773593423516,0.01503725496890458,-2.447292769673865e-05,9.827143972689014e-05,1.202980397512366e-07,9.827146920200007e-05,9.723500357101256e-05
96.4226497308,89.57735026920001,8,0,-0.05636181632817916,30.39309479869007,0.1388313640293269,-2.449483365120223e-05,9.730299280887077e-05,1.110650912234615e-06,9.730552470915714e-05,9.670923522506794e-05
97.57735026920001,89.57735026920001,8,0,0.02434209350681371,30.71591043803004,0.1360931197214878,-2.449483365120223e-05,9.827143972689068e-05,1.088744957771903e-06,9.82738535459396e-05,9.732358061238821e-05
98.42264973080002,88.42264973080002,8,0,-0.04035823029067842,30.9259917222051,-0.03538308443035686,-2.486993971469425e-05,9.899546009528885e-05,-2.830646754428548e-07,9.899562181419097e-05,9.755947016896632e-05
99.57735026920002,88.42264973080002,8,0,0.04377622922960178,31.26252956028622,-0.03835924477605952,-2.486993971469425e-05,0.0001000050736095322,-3.068739582084761e-07,0.0001000052621410117,9.783421263340891e-05
98.42264973080002,89.57735026920001,8,0,-0.04829465787903864,30.92400761530801,0.09081860484998336,-2.489374899745933e-05,9.899546009528885e-05,7.265488387998668e-07,9.899652529838522e-05,9.764938451055754e-05
99.57735026920002,89.57735026920001,8,0,0.03583980164121492,31.26054545338903,0.0878424445043078,-2.489374899745933e-05,0.0001000050736095319,7.027395560344624e-07,0.0001000060620875755,9.792515192637767e-05
0.4226497308,90.42264973080002,8,0,-0.03133155776861751,7.253502783311,-0.06887257331615994,-5.903063211508376e-06,2.323627415281009e-05,-5.509805865292795e-07,2.32388784714416e-05,2.489778542705857e-05
1.5773502692,90.42264973080002,8,0,0.03340886565882761,7.512464477020781,-0.07131628277268383,-5.903063211508376e-06,2.401315923393943e-05,-5.705302621814706e-07,2.401587912270111e-05,2.513574391517163e-05
0.4226497308,91.57735026920001,8,0,-0.03784811631925744,7.25187364367334,0.02823806182498034,-5.922612887160296e-06,2.323627415281009e-05,2.259044945998427e-07,2.323671168729885e-05,2.497194910490922e-05
1.5773502692,91.57735026920001,8,0,0.02689230710818769,7.510835337383121,0.02579435236856487,-5.922612887160296e-06,2.401315923393943e-05,2.06354818948519e-07,2.401351484365361e-05,2.520899451910659e-05
2.4226497308,90.42264973080002,8,0,-0.04321736400699239,7.675670024448379,-0.1131790171367709,-6.278831584381078e-06,2.45967179694404e-05,-9.05432137094167e-07,2.460335454101887e-05,2.542648122350067e-05
3.5773502692,90.42264973080002,8,0,0.02490155545380723,7.948145702291577,-0.115425291026796,-6.278831584381078e-06,2.541414500297e-05,-9.234023282143683e-07,2.542086960783757e-05,2.598283183343213e-05
2.4226497308,91.57735026920001,8,0,-0.04920742771383413,7.674172508521805,-0.01100063794576148,-6.296801775501713e-06,2.459671796944084e-05,-8.800510356609184e-08,2.459678064344663e-05,2.549853093735002e-05
3.5773502692,91.57735026920001,8,0,0.01891149174694684,7.946648186364929,-0.01324691183580019,-6.296801775501713e-06,2.541414500297021e-05,-1.059752946864015e-07,2.541423354283473e-05,2.605251372846887e-05
4.422649730800001,90.42264973080002,8,0,-0.06458219310875002,8.117149372194062,-0.1549983794876016,-6.700382515703249e-06,2.602654374550799e-05,-1.239987035900813e-06,2.603828496748955e-05,2.645360746440493e-05
5.577350269200001,90.42264973080002,8,0,0.006724260695303297,8.402375187410275,-0.1569463063676066,-6.700382515703249e-06,2.688222119115664e-05,-1.255570450940852e-06,2.689395276096069e-05,2.718343979731115e-05
4.422649730800001,91.57735026920001,8,0,-0.06977666478919708,8.115850754273813,-0.04803869878142664,-6.715965930744481e-06,2.602654374550756e-05,-3.843095902514131e-07,2.602767139864269e-05,2.652117597902656e-05
5.577350269200001,91.57735026920001,8,0,0.001529789014874439,8.401076569490099,-0.04998662566160772,-6.715965930744481e-06,2.688222119115642e-05,-3.998930052928618e-07,2.688341105262142e-05,2.724760226807534e-05
6.422649730800001,90.42264973080002,8,0,-0.09473266589998897,8.576830846090987,-0.1937621184128961,-7.164609207752754e-06,2.752164484021115e-05,-1.550096947303169e-06,2.753895430574416e-05,2.775481314444217e-05
7.577350269200001,90.42264973080002,8,0,-0.02046096163277733,8.873917663159833,-0.1953259135658095,-7.164609207752754e-06,2.841290529141769e-05,-1.562607308526476e-06,2.843005492367468e-05,2.858600182605499e-05
6.422649730800001,91.57735026920001,8,0,-0.0989027863078662,8.575788315989017,-0.08235456201206469,-7.177119568976386e-06,2.752164484021115e-05,-6.588364960965175e-07,2.752477194301215e-05,2.781620973698058e-05
7.577350269200001,91.57735026920001,8,0,-0.02463108204069053,8.87287513305772,-0.08391835716505935,-7.177119568976386e-06,2.841290529141725e-05,-6.713468573204748e-07,2.841607097139699e-05,2.864324794261009e-05
8.4226497308,90.42264973080002,8,0,-0.1328726592790765,9.053434110735443,-0.2289927572156933,-7.667939798281398e-06,2.907728728177668e-05,-1.831942057725546e-06,2.910010608831058e-05,2.921807982383961e-05
9.5773502692,90.42264973080002,8,0,-0.05588391743188703,9.361389078124201,-0.2301010082960092,-7.667939798281398e-06,3.000115218394295e-05,-1.840808066368074e-06,3.002362786316942e-05,3.011376034659421e-05
8.4226497308,91.57735026920001,8,0,-0.1358279954932344,9.052695276681904,-0.1135096444450172,-7.676805806923872e-06,2.907728728177668e-05,-9.080771555601379e-07,2.908289535321377e-05,2.927209630620462e-05
9.5773502692,91.57735026920001,8,0,-0.0588392536460085,9.360650244070808,-0.1146178955252247,-7.676805806923872e-06,3.000115218394338e-05,-9.169431642017979e-07,3.000673011569654e-05,3.016310378024493e-05
10.4226497308,90.42264973080002,8,0,-0.1781225515109335,9.545538315229809,-0.2602998043377963,-8.206422817018833e-06,3.068822064994413e-05,-2.082398434702371e-06,3.071607332943657e-05,3.078580322086745e-05
11.5773502692,90.42264973080002,8,0,-0.09868579690202139,9.863285333665457,-0.2608946258294187,-8.206422817018833e-06,3.164146170525108e-05,-2.087157006635349e-06,3.166877332244733e-05,3.172617797557e-05
10.4226497308,91.57735026920001,8,0,-0.1797087421554222,9.545141767568822,-0.1411446724243742,-8.211181388952408e-06,3.068822064994457e-05,-1.129157379394993e-06,3.069641311470438e-05,3.083159854574163e-05
11.5773502692,91.57735026920001,8,0,-0.1002719875465101,9.86288878600447,-0.1417394939160236,-8.211181388952408e-06,3.164146170525151e-05,-1.133915951328189e-06,3.164952582073441e-05,3.17669527357098e-05
12.4226497308,90.42264973080002,8,0,-0.2295372555923461,10.05161042236041,-0.2873752471314829,-8.775807555783837e-06,3.234878315602719e-05,-2.299001977051863e-06,3.238088856407e-05,3.242671482349494e-05
13.5773502692,90.42264973080002,8,0,-0.1479374984607453,10.37800945088682,-0.2874113909781333,-8.775807555783837e-06,3.332798024160641e-05,-2.299291127825067e-06,3.33593479891685e-05,3.340024232997886e-05
12.4226497308,91.57735026920001,8,0,-0.2296336391835765,10.0515863264626,-0.1649756114340136,-8.776096706557528e-06,3.234878315602719e-05,-1.319804891472109e-06,3.235936942813756e-05,3.246373882958736e-05
13.5773502692,91.57735026920001,8,0,-0.1480338820519576,10.37798535498908,-0.1650117552808266,-8.776096706557528e-06,3.332798024160662e-05,-1.320094042246613e-06,3.333832496564165e-05,3.343203965018105e-05
14.4226497308,90.42264973080002,8,0,-0.2861230343496031,10.57003195017981,-0.3099888220566113,-9.371619270062573e-06,3.405300066805506e-05,-2.479910576452891e-06,3.408837777852936e-05,3.41222878690473e-05
15.5773502692,90.42264973080002,8,0,-0.202656738009181,10.90389713554149,-0.3094327828012547,-9.371619270062573e-06,3.505459622414012e-05,-2.475462262410038e-06,3.508905315584099e-05,3.51214254607607e-05
14.4226497308,91.57735026920001,8,0,-0.2846402630020397,10.5704026430167,-0.1847893775459375,-9.367170956019882e-06,3.405300066805506e-05,-1.4783150203675e-06,3.406557997314563e-05,3.415022576495116e-05
15.5773502692,91.57735026920001,8,0,-0.2011739666615995,10.90426782837846,-0.1842333382907164,-9.367170956019882e-06,3.505459622414034e-05,-1.473866706325731e-06,3.506681819154462e-05,3.51440458992833e-05
16.4226497308,90.42264973080002,8,0,-0.3468531305420588,11.09912410543739,-0.3279832233224738,-9.989229302084497e-06,3.579467964183328e-05,-2.62386578657979e-06,3.583224211774607e-05,3.586017194031848e-05
17.5773502692,90.42264973080002,8,0,-0.2618239686272132,11.43924075309677,-0.3268123666221425,-9.989229302084497e-06,3.681502958481143e-05,-2.61449893297714e-06,3.685151280627025e-05,3.687932726475539e-05
16.4226497308,91.57735026920001,8,0,-0.3437308460078241,11.09990467657095,-0.2004394804503004,-9.979862448481792e-06,3.579467964183328e-05,-1.603515843602403e-06,3.580871842078138e-05,3.587890104460042e-05
17.5773502692,91.57735026920001,8,0,-0.2587016840930327,11.44002132423011,-0.1992686237500233,-9.979862448481792e-06,3.681502958481078e-05,-1.594148990000186e-06,3.682860250909179e-05,3.689274250356341e-05
18.4226497308,90.42264973080002,8,0,-0.410682272452298,11.63717133115525,-0.341269370527622,-1.062392033677155e-05,3.756749407765863e-05,-2.730154964220976e-06,3.760613049831133e-05,3.763103682703702e-05
19.5773502692,90.42264973080002,8,0,-0.3243971655806575,11.98231175864181,-0.3394711045990413,-1.062392033677155e-05,3.860291536011832e-05,-2.71576883679233e-06,3.864034310114294e-05,3.866559021937622e-05
18.4226497308,91.57735026920001,8,0,-0.4058868966427678,11.63837017510763,-0.2118417102200932,-1.060953420934296e-05,3.756749407765863e-05,-1.694733681760745e-06,3.758239347258972e-05,3.764059161310165e-05
19.5773502692,91.57735026920001,8,0,-0.319601789771109,11.98351060259427,-0.2100434442915125,-1.060953420934296e-05,3.860291536011853e-05,-1.6803475543321e-06,3.861725495016473e-05,3.866991191787917e-05
20.4226497308,90.42264973080002,8,0,-0.4765601309876493,12.18244331979871,-0.3498218159011851,-1.127094707499944e-05,3.936506672814599e-05,-2.798574527209481e-06,3.940370547054933e-05,3.942706910314892e-05
21.5773502692,90.42264973080002,8,0,-0.3893255494762555,12.53138164584428,-0.3473928168238976,-1.127094707499944e-05,4.041188170628271e-05,-2.77914253459118e-06,4.044921546959462e-05,4.047291471025603e-05
20.4226497308,91.57735026920001,8,0,-0.4700828001145934,12.18406265251697,-0.2189699436341082,-1.125151508238028e-05,3.936506672814599e-05,-1.751759549072866e-06,3.938021859681995e-05,3.942761258435481e-05
21.5773502692,91.57735026920001,8,0,-0.3828482186032178,12.53300097856247,-0.2165409445567122,-1.125151508238028e-05,4.041188170628249e-05,-1.732327556453698e-06,4.042639931403572e-05,4.046836899740555e-05
22.4226497308,90.42264973080002,8,0,-0.5434438094479983,12.73321556001811,-0.3536743353921876,-1.192559263824808e-05,4.118104483961634e-05,-2.8293946831375e-06,4.121870398077665e-05,4.124126918329841e-05
23.5773502692,90.42264973080002,8,0,-0.4555623276538601,13.08474148719466,-0.3506198296577147,-1.192559263824808e-05,4.2235622621146e-05,-2.804958637261717e-06,4.227191484804747e-05,4.229460703485517e-05
22.4226497308,91.57735026920001,8,0,-0.5352984608230806,12.73525189717434,-0.2218521127008853,-1.190115659237333e-05,4.118104483961634e-05,-1.774816901607083e-06,4.119587605935178e-05,4.123306950234471e-05
23.5773502692,91.57735026920001,8,0,-0.4474169790289602,13.08677782435082,-0.2187976069665479,-1.190115659237333e-05,4.223562262114578e-05,-1.750380855732384e-06,4.224976750044121e-05,4.228151372145012e-05
24.4226497308,90.42264973080002,8,0,-0.6103094436033283,13.28778849035301,-0.3529157166450345,-1.258322101181306e-05,4.300917072401229e-05,-2.823325733160276e-06,4.304499412844575e-05,4.306713549802838e-05
25.5773502692,90.42264973080002,8,0,-0.5220765321292276,13.64072013624941,-0.349248818183335,-1.258322101181306e-05,4.406796566170149e-05,-2.79399054546668e-06,4.410239407513664e-05,4.412438465824367e-05
24.4226497308,91.57735026920001,8,0,-0.6005310477055712,13.29023308932745,-0.2205663494339247,-1.255388582411979e-05,4.300917072401229e-05,-1.764530795471397e-06,4.302317636233535e-05,4.305054691341328e-05
25.5773502692,91.57735026920001,8,0,-0.5122981362314976,13.64316473522374,-0.2168994509721845,-1.255388582411979e-05,4.406796566170117e-05,-1.735195607777476e-06,4.408125645464395e-05,4.410314044754744e-05
26.4226497308,90.42264973080002,8,0,-0.6761629795573318,13.84450532965831,-0.3476857319046787,-1.323932579831011e-05,4.484334743855246e-05,-2.78148585523743e-06,4.487662859019271e-05,4.489853533371216e-05
27.57735026920001,90.42264973080002,8,0,-0.5878640235556101,14.1977011536652,-0.3434268261912461,-1.323932579831011e-05,4.590293491057312e-05,-2.747414609529969e-06,4.593482504726624e-05,4.595630515168051e-05
26.4226497308,91.57735026920001,8,0,-0.6648058976550439,13.84734460013389,-0.2152372979020013,-1.320525455260325e-05,4.484334743855246e-05,-1.72189838321601e-06,4.485611381887247e-05,4.487398292699585e-05
27.57735026920001,91.57735026920001,8,0,-0.5765069416533404,14.2005404241407,-0.2109783921886094,-1.320525455260325e-05,4.59029349105729e-05,-1.687827137508875e-06,4.591498137994661e-05,4.592737021143668e-05
28.4226497308,90.42264973080002,8,0,-0.7400501821425451,14.40176864355537,-0.3381712655964406,-1.388957549770044e-05,4.667769980509122e-05,-2.705370124771525e-06,4.670789507332205e-05,4.672966511216354e-05
29.5773502692,90.42264973080002,8,0,-0.6519577168247142,14.7541385048267,-0.3333474304119394,-1.388957549770044e-05,4.77348093889052e-05,-2.666779443295515e-06,4.776364694320335e-05,4.778475399886413e-05
28.4226497308,91.57735026920001,8,0,-0.727186621650596,14.40498453367836,-0.2060325676197616,-1.385098481622459e-05,4.667769980509122e-05,-1.648260540958093e-06,4.668891869814014e-05,4.669763260385315e-05
29.5773502692,91.57735026920001,8,0,-0.6390941563327828,14.75735439494961,-0.2012087324353281,-1.385098481622459e-05,4.773480938890498e-05,-1.609669859482625e-06,4.774532559125292e-05,4.774864131074313e-05
30.4226497308,90.42264973080002,8,0,-0.8010659093953096,14.95805569120457,-0.3246025548124342,-1.452985546302864e-05,4.850663093937087e-05,-2.596820438499473e-06,4.85333639402136e-05,4.855505290112247e-05
31.5773502692,90.42264973080002,8,0,-0.7134370671848309,15.30857106004649,-0.3192470056990923,-1.452985546302864e-05,4.955817704589661e-05,-2.553976045592738e-06,4.958361161502356e-05,4.96044597524957e-05
30.4226497308,91.57735026920001,8,0,-0.7867844450928478,14.96162605728018,-0.1931592914967712,-1.448701107012126e-05,4.850663093937087e-05,-1.54527433197417e-06,4.851610615609897e-05,4.851607301212753e-05
31.5773502692,91.57735026920001,8,0,-0.6991556028823878,15.31214142612203,-0.1878037423833209,-1.448701107012126e-05,4.955817704589639e-05,-1.502429939066567e-06,4.95669871740058e-05,4.956172670484789e-05
32.4226497308,90.42264973080002,8,0,-0.8583626708543335,15.51193257941786,-0.3072494957384635,-1.515630661026816e-05,5.032487439082063e-05,-2.457995965907708e-06,5.034793299055874e-05,5.036958015981119e-05
33.57735026920001,90.42264973080002,8,0,-0.771436838027391,15.85963591072563,-0.3014010440470613,-1.515630661026816e-05,5.136798438474394e-05,-2.411208352376491e-06,5.138982609620828e-05,5.141052113522055e-05
32.4226497308,91.57735026920001,8,0,-0.8427667996772064,15.51583154721214,-0.1768607464979551,-1.510951899673678e-05,5.032487439082063e-05,-1.414885971983641e-06,5.033252200649331e-05,5.032422700666408e-05
33.57735026920001,91.57735026920001,8,0,-0.7558409668502453,15.86353487851999,-0.1710122948065393,-1.510951899673678e-05,5.136798438474415e-05,-1.368098358452315e-06,5.137502246110506e-05,5.13617628793807e-05
34.42264973080001,90.42264973080002,8,0,-0.9111584706790676,16.06206723352546,-0.2864179695238905,-1.576536089299338e-05,5.212754192382473e-05,-2.291343756191124e-06,5.214686928281237e-05,5.216851143441645e-05
35.5773502692,90.42264973080002,8,0,-0.8251551544953779,16.40608049826022,-0.280120481945903,-1.576536089299338e-05,5.3159581718029e-05,-2.240963855567224e-06,5.31777920797017e-05,5.319843846814266e-05
34.42264973080001,91.57735026920001,8,0,-0.8943651704714979,16.06626555857735,-0.1574129952482757,-1.571498099237068e-05,5.212754192382473e-05,-1.259303961986206e-06,5.213338527185207e-05,5.211739450275496e-05
35.5773502692,91.57735026920001,8,0,-0.8083618542878268,16.41027882331204,-0.1511155076704238,-1.571498099237068e-05,5.315958171802878e-05,-1.20892406136339e-06,5.316488623386554e-05,5.314428261699031e-05
36.4226497308,90.42264973080002,8,0,-0.9587439221846816,16.60724117820665,-0.2624461461731925,-1.63537734935563e-05,5.391016690800901e-05,-2.09956916938554e-06,5.392584780744839e-05,5.394752637854611e-05
37.5773502692,90.42264973080002,8,0,-0.873860832158182,16.94677353831265,-0.2557479965429633,-1.63537734935563e-05,5.492876398832702e-05,-2.045983972343707e-06,5.494344215765261e-05,5.496414557546477e-05
36.4226497308,91.57735026920001,8,0,-0.9408821898375122,16.61170661129344,-0.1351215111334149,-1.630018829651479e-05,5.391016690800901e-05,-1.080972089067319e-06,5.391432737485184e-05,5.389128567873755e-05
37.5773502692,91.57735026920001,8,0,-0.8559990998110303,16.95123897139937,-0.1284233615033077,-1.630018829651479e-05,5.49287639883268e-05,-1.027386892026461e-06,5.493246848242275e-05,5.49052478826919e-05
38.4226497308,90.42264973080002,8,0,-1.000488609292428,17.1463601080177,-0.23570073363621,-1.691865163614992e-05,5.566874323309056e-05,-1.88560586908968e-06,5.568098678406035e-05,5.570275121137111e-05
39.5773502692,90.42264973080002,8,0,-0.9168999582083179,17.48071471235414,-0.2286542402910643,-1.691865163614992e-05,5.667180704609987e-05,-1.829233922328514e-06,5.668317258213833e-05,5.670404013859108e-05
38.4226497308,91.57735026920001,8,0,-0.9816979603720215,17.1510577702478,-0.1103177570101546,-1.68622796893887e-05,5.566874323309056e-05,-8.825420560812369e-07,5.567142777972388e-05,5.564205327955876e-05
39.5773502692,91.57735026920001,8,0,-0.8981093092879302,17.48541237458416,-0.1032712636649547,-1.68622796893887e-05,5.667180704609965e-05,-8.261701093196377e-07,5.66741275193028e-05,5.664108085522122e-05
40.4226497308,90.42264973080002,8,0,-1.035846663149183,17.67846321752913,-0.2065731501395767,-1.745747989610069e-05,5.739975962661256e-05,-1.652585201116614e-06,5.740887933630243e-05,5.743078805662369e-05
41.5773502692,90.42264973080002,8,0,-0.9537016946043924,18.00704309170829,-0.1992339949601974,-1.745747989610069e-05,5.838549924915004e-05,-1.593871959681579e-06,5.83938722964011e-05,5.84150113658481e-05
40.4226497308,91.57735026920001,8,0,-1.016275582671109,17.68335598764865,-0.08335569732240491,-1.739876665466647e-05,5.739975962661256e-05,-6.668455785792393e-07,5.740124586642283e-05,5.736632252114545e-05
41.5773502692,91.57735026920001,8,0,-0.934130614126337,18.01193586182774,-0.07601654214309336,-1.739876665466647e-05,5.838549924914982e-05,-6.08132337144747e-07,5.838671922199556e-05,5.834869202463813e-05
42.4226497308,90.42264973080002,8,0,-1.064361519020506,18.20273125532009,-0.1754756097927239,-1.796814186512169e-05,5.910022923224069e-05,-1.403804878341791e-06,5.910662129903258e-05,5.91287412620741e-05
43.57735026920001,90.42264973080002,8,0,-0.9837832686004067,18.52504425700049,-0.1679022379364348,-1.796814186512169e-05,6.006716823728187e-05,-1.343217903491479e-06,6.007294799490538e-05,6.009446429230288e-05
42.4226497308,91.57735026920001,8,0,-1.044165860737321,18.20778016989089,-0.05460823416256286,-1.790755489027213e-05,5.910022923224069e-05,-4.368658733005029e-07,5.910084881329314e-05,5.906121774708582e-05
43.57735026920001,91.57735026920001,8,0,-0.9635876103172043,18.53009317157136,-0.04703486230632796,-1.790755489027213e-05,6.006716823728209e-05,-3.762788984506237e-07,6.006762218241801e-05,6.002550471910274e-05
44.4226497308,90.42264973080002,8,0,-1.085669819359906,18.7184932647599,-0.1428371234501623,-1.844893803375962e-05,6.07677143027196e-05,-1.142696987601298e-06,6.077183492776736e-05,6.079424013546475e-05
45.5773502692,90.42264973080002,8,0,-1.006754116121673,19.03415607771283,-0.1350901255026669,-1.844893803375962e-05,6.17147027415784e-05,-1.080721004021335e-06,6.171834499389263e-05,6.174034026274483e-05
44.4226497308,91.57735026920001,8,0,-1.065011158166405,18.72365793005828,-0.02446356859290731,-1.838696205017911e-05,6.07677143027196e-05,-1.957085487432585e-07,6.076783527402313e-05,6.07243853193433e-05
45.5773502692,91.57735026920001,8,0,-0.9860954549281891,19.03932074301114,-0.01671657064530353,-1.838696205017911e-05,6.171470274157818e-05,-1.337325651624283e-07,6.171475855935228e-05,6.166947565568901e-05
46.42264973080001,90.42264973080002,8,0,-1.099504433333367,19.22523197726625,-0.1090994278025206,-1.889859976847978e-05,6.24003458739187e-05,-8.727954224201648e-07,6.240268830866793e-05,6.242545771912245e-05
47.57735026920001,90.42264973080002,8,0,-1.022319147113595,19.53397312214534,-0.1012409084169178,-1.889859976847978e-05,6.332656930855597e-05,-8.099272673353424e-07,6.332856372910531e-05,6.335113329189794e-05
46.42264973080001,91.57735026920001,8,0,-1.078548381638264,19.23047099019003,0.006678501527029954,-1.883573161339447e-05,6.24003458739187e-05,5.342801221623963e-08,6.240035465866149e-05,6.235401240405576e-05
47.57735026920001,91.57735026920001,8,0,-1.001363095418473,19.53921213506919,0.01453702091271407,-1.883573161339447e-05,6.332656930855619e-05,1.162961673017125e-07,6.332661046122475e-05,6.327911124397554e-05
48.4226497308,90.42264973080002,8,0,-1.10569657042097,19.72258783014463,-0.07471286486183948,-1.93162992894628e-05,6.399683831279958e-05,-5.977029188947158e-07,6.399791030514336e-05,6.402112534230471e-05
49.57735026920001,90.42264973080002,8,0,-1.030281108773168,20.02424967673584,-0.06680580376413714,-1.93162992894628e-05,6.490182385257321e-05,-5.344464301130971e-07,6.490267174047532e-05,6.492590209198556e-05
48.4226497308,91.57735026920001,8,0,-1.084611074160539,19.72785920420974,0.03841032760989105,-1.925304280068151e-05,6.399683831279958e-05,3.072826208791284e-07,6.399712186361739e-05,6.394884142310656e-05
49.57735026920001,91.57735026920001,8,0,-1.009195612512773,20.0295210508008,0.04631738870756628,-1.925304280068151e-05,6.490182385257277e-05,3.705391096605302e-07,6.490223172727984e-05,6.485347946001272e-05
50.42264973080001,90.42264973080002,8,0,-1.104176975252775,20.21036159040862,-0.04013224084420376,-1.970165559313578e-05,6.55564986695098e-05,-3.2105792675363e-07,6.555680092161635e-05,6.558054277512626e-05
51.57735026920001,90.42264973080002,8,0,-1.030542031701938,20.50490136461197,-0.03223985326667215,-1.970165559313578e-05,6.644011799211984e-05,-2.579188261333772e-07,6.644031105168031e-05,6.64642776325634e-05
50.42264973080001,91.57735026920001,8,0,-1.083130608379322,20.21562318212698,0.07032017448205122,-1.963851649251541e-05,6.55564986695098e-05,5.625613958564098e-07,6.555742733849883e-05,6.550818001982105e-05
51.57735026920001,91.57735026920001,8,0,-1.009495664828485,20.51016295633033,0.07821256205962349,-1.963851649251541e-05,6.644011799211984e-05,6.257004964769879e-07,6.644125502206428e-05,6.639221717613111e-05
52.4226497308,90.42264973080002,8,0,-1.094976201701655,20.68851557733037,-0.005812697527341338,-2.005473630730959e-05,6.707923080881851e-05,-4.650158021873071e-08,6.707923701304883e-05,6.710358387689666e-05
53.5773502692,90.42264973080002,8,0,-1.023103754663912,20.97600536548135,0.002002198368024669,-2.005473630730959e-05,6.794170017327143e-05,1.601758694419735e-08,6.794170090217337e-05,6.79664661606482e-05
52.4226497308,91.57735026920001,8,0,-1.07413647931403,20.69372550792728,0.1019959730291656,-1.999221714014672e-05,6.707923080881851e-05,8.159677842333249e-07,6.708114242515051e-05,6.703190644939862e-05
53.5773502692,91.57735026920001,8,0,-1.002264032276242,20.98121529607844,0.1098108689246129,-1.999221714014672e-05,6.794170017327197e-05,8.784869513969035e-07,6.794389420741776e-05,6.789553288878654e-05
54.42264973080001,90.42264973080002,8,0,-1.0782239755675,21.15717348887567,0.02779436967671853,-2.037605551291654e-05,6.856553434485615e-05,2.223549574137482e-07,6.856567331710162e-05,6.859069769081711e-05
55.57735026920001,90.42264973080002,8,0,-1.008067534910332,21.43779925150435,0.03546997100720183,-2.037605551291654e-05,6.940741163274217e-05,2.837597680576147e-07,6.940763583717383e-05,6.943324766324596e-05
54.42264973080001,91.57735026920001,8,0,-1.05775570535295,21.16229055642931,0.1330290306624567,-2.031465070227289e-05,6.856553434485615e-05,1.064232245299654e-06,6.856871995275893e-05,6.852047035772938e-05
55.57735026920001,91.57735026920001,8,0,-0.9875992646957821,21.44291631905799,0.1407046319929265,-2.031465070227289e-05,6.940741163274217e-05,1.125637055943412e-06,6.941094200446636e-05,6.936420483511944e-05
56.4226497308,90.42264973080002,8,0,-1.054147666045722,21.61661884968346,0.06024531443079303,-2.066656761109308e-05,7.001649845182365e-05,4.819625154463443e-07,7.001713883110294e-05,7.00429049870534e-05
57.57735026920001,90.42264973080002,8,0,-0.9856327620343892,21.89067846572879,0.06772143089539454,-2.066656761109308e-05,7.083867729995965e-05,5.417714471631562e-07,7.083947920407194e-05,7.086596979854376e-05
56.4226497308,91.57735026920001,8,0,-1.034211355473469,21.62160292732653,0.1630176704478601,-2.060675867937632e-05,7.001649845182365e-05,1.304141363582881e-06,7.002119011901561e-05,6.997488895711657e-05
57.57735026920001,91.57735026920001,8,0,-0.9656964514621453,21.89566254337182,0.1704937869124751,-2.060675867937632e-05,7.083867729995954e-05,1.363950295299801e-06,7.084376300197043e-05,7.079957452846918e-05
58.4226497308,90.42264973080002,8,0,-1.023069895786215,22.06729210989883,0.09110813487331207,-2.092765735443495e-05,7.143379066830522e-05,7.288650789864966e-07,7.143522859517894e-05,7.146179029532111e-05
59.57735026920001,90.42264973080002,8,0,-0.9560948032429923,22.33519248007172,0.09832676001661207,-2.092765735443495e-05,7.223749177882389e-05,7.866140801328966e-07,7.223915213865168e-05,7.226653735328656e-05
58.4226497308,91.57735026920001,8,0,-1.003820228737361,22.07210452666104,0.1915707736880505,-2.086990835328839e-05,7.143379066830522e-05,1.532566189504404e-06,7.144015172776924e-05,7.139673864242494e-05
59.57735026920001,91.57735026920001,8,0,-0.9368451361941386,22.34000489683393,0.1987893988313234,-2.086990835328839e-05,7.223749177882389e-05,1.590315190650587e-06,7.224428210367449e-05,7.220353577092568e-05
60.4226497308,90.42264973080002,8,0,-0.9854053270148135,22.50978643410258,0.1199662403576394,-2.116112619372947e-05,7.28196408507401e-05,9.597299228611151e-07,7.282209097309333e-05,7.284948949248414e-05
61.5773502692,90.42264973080002,8,0,-0.9198420160478014,22.77203967797063,0.1268720935398445,-2.116112619372947e-05,7.360640058234425e-05,1.014976748318756e-06,7.360911814893589e-05,7.363739729725511e-05
60.4226497308,91.57735026920001,8,0,-0.9669897185291321,22.514390336224,0.2183112068081705,-2.110587936827242e-05,7.28196408507401e-05,1.746489654465364e-06,7.282775888537036e-05,7.278814211267122e-05
61.5773502692,91.57735026920001,8,0,-0.9014264075620844,22.77664358009219,0.2252170599902807,-2.110587936827242e-05,7.360640058234468e-05,1.801736479922246e-06,7.361496853336866e-05,7.357851921231417e-05
62.42264973080001,90.42264973080002,8,0,-0.9416566663374439,22.94484222707792,0.146422076745904,-2.136917511394215e-05,7.417682045971928e-05,1.171376613967232e-06,7.418041054114753e-05,7.420867301416789e-05
63.57735026920001,90.42264973080002,8,0,-0.8773519700795589,23.20206101210946,0.1529631147755348,-2.136917511394215e-05,7.49484768148139e-05,1.223704918204278e-06,7.495236341626795e-05,7.49815194931993e-05
62.42264973080001,91.57735026920001,8,0,-0.9242138982583201,22.9492029190977,0.2428791211327316,-2.131684680970478e-05,7.417682045971928e-05,1.943032969061852e-06,7.418670327851339e-05,7.415175106509055e-05
63.57735026920001,91.57735026920001,8,0,-0.8599092020004351,23.20642170412924,0.2494201591624707,-2.131684680970478e-05,7.49484768148139e-05,1.995361273299766e-06,7.49588155300048e-05,7.49274725118161e-05
64.4226497308,90.42264973080002,8,0,-0.8924099330945818,23.37334044767703,0.1701006072776291,-2.155438414404428e-05,7.550861737904216e-05,1.360804858221033e-06,7.551338670115091e-05,7.554252473170639e-05
65.57735026920001,90.42264973080002,8,0,-0.8291869226093063,23.62623248961813,0.1762285070691893,-2.155438414404428e-05,7.626729350486547e-05,1.409828056553515e-06,7.627237293100734e-05,7.630237306765374e-05
64.4226497308,91.57735026920001,8,0,-0.8760688669839345,23.37742571420469,0.2649351230055424,-2.150536094571234e-05,7.550861737904216e-05,2.119480984044339e-06,7.552019216397703e-05,7.549072450103612e-05
65.57735026920001,91.57735026920001,8,0,-0.8128458564986678,23.63031775614576,0.2710630227969806,-2.150536094571234e-05,7.626729350486536e-05,2.168504182375845e-06,7.627931586496909e-05,7.62538361063893e-05
66.4226497308,90.42264973080002,8,0,-0.8383290352622925,23.79629476321241,0.1906526564524519,-2.171968872340926e-05,7.681880647048955e-05,1.525221251619615e-06,7.6824708124822e-05,7.685471645780641e-05
67.57735026920001,90.42264973080002,8,0,-0.7759885921489937,24.04565653566561,0.196323272505305,-2.171968872340926e-05,7.756689178784913e-05,1.57058618004244e-06,7.75731025633671e-05,7.76038983270451e-05
66.4226497308,91.57735026920001,8,0,-0.82320739245454,23.80007517391435,0.2841633211222777,-2.1674323794986e-05,7.681880647048955e-05,2.273306568978221e-06,7.683192219402736e-05,7.680870260665822e-05
67.57735026920001,91.57735026920001,8,0,-0.7608669493412412,24.04943694636755,0.2898339371752257,-2.1674323794986e-05,7.756689178784913e-05,2.318671497401805e-06,7.75804332987809e-05,7.75615144715221e-05
68.42264973080002,90.42264973080002,8,0,-0.7801496928617055,24.21484259445117,0.2077581346884573,-2.18683530927184e-05,7.811161605653311e-05,1.662065077507658e-06,7.811852311380572e-05,7.814937787855795e-05
69.57735026920001,90.42264973080002,8,0,-0.718472271123054,24.46155228140578,0.2129319375052384,-2.18683530927184e-05,7.885174511739694e-05,1.703455500041908e-06,7.885894713868102e-05,7.889047385860561e-05
68.42264973080002,91.57735026920001,8,0,-0.7663528853500905,24.21829179632908,0.3002742672963271,-2.182696267018355e-05,7.811161605653311e-05,2.402194138370617e-06,7.812604918008687e-05,7.810977600854606e-05
69.57735026920001,91.57735026920001,8,0,-0.7046754636114567,24.46500148328361,0.3054480701132709,-2.182696267018355e-05,7.885174511739672e-05,2.443584560906167e-06,7.886657006529578e-05,7.885484251873109e-05
70.4226497308,90.42264973080002,8,0,-0.718672741809157,24.63023509553029,0.2211291710972635,-2.200394085021353e-05,7.939169049914424e-05,1.769033368778108e-06,7.939940592264713e-05,7.943106137946147e-05
71.57735026920001,90.42264973080002,8,0,-0.6574203121886537,24.87524481401231,0.2257716746972648,-2.200394085021353e-05,8.012671965459029e-05,1.806173397578118e-06,8.013470454201852e-05,8.016687797239249e-05
70.4226497308,91.57735026920001,8,0,-0.7062927322089365,24.63333009793035,0.3130078155280051,-2.196680082141287e-05,7.939169049914424e-05,2.504062524224041e-06,7.940715386235421e-05,7.939844987882286e-05
71.57735026920001,91.57735026920001,8,0,-0.6450403025883968,24.87833981641251,0.3176503191279793,-2.196680082141287e-05,8.012671965459072e-05,2.541202553023834e-06,8.014253042902341e-05,8.013854629584005e-05
72.4226497308,90.42264973080002,8,0,-0.6547568414247973,25.04382610412927,0.2305131898589109,-2.213028277586276e-05,8.066404900635349e-05,1.844105518871287e-06,8.067231904306598e-05,8.070470058168108e-05
73.57735026920001,90.42264973080002,8,0,-0.5936750135890003,25.28815341547246,0.2345953781691002,-2.213028277586276e-05,8.139703094038305e-05,1.876763025352801e-06,8.140553582183625e-05,8.143824268284821e-05
72.4226497308,91.57735026920001,8,0,-0.6438710059312305,25.04654756300266,0.322135931612674,-2.209762526938206e-05,8.066404900635349e-05,2.577087452901392e-06,8.068020370578167e-05,8.067960171784916e-05
73.57735026920001,91.57735026920001,8,0,-0.5827891780954069,25.29087487434596,0.3262181199227684,-2.209762526938206e-05,8.139703094038337e-05,2.609744959382147e-06,8.141348030761565e-05,8.141769620353434e-05
74.4226497308,90.42264973080002,8,0,-0.5893105969215231,25.45706008556822,0.2356959718174224,-2.225144197860344e-05,8.19340407513555e-05,1.885567774539379e-06,8.194257138981889e-05,8.197556010664718e-05
75.57735026920001,90.42264973080002,8,0,-0.5281309174406452,25.70177880349173,0.2391947347993805,-2.225144197860344e-05,8.266819690512604e-05,1.913557878395044e-06,8.26769211995948e-05,8.270999650715323e-05
74.4226497308,91.57735026920001,8,0,-0.5799805623030219,25.45939259422284,0.3274654910387798,-2.222345187474794e-05,8.19340407513555e-05,2.619723928310239e-06,8.195051068609699e-05,8.195843034981506e-05
75.57735026920001,91.57735026920001,8,0,-0.518800882822144,25.70411131214635,0.3309642540206973,-2.222345187474794e-05,8.266819690512604e-05,2.647714032165578e-06,8.268490289010655e-05,8.269764902521901e-05
76.42264973080002,90.42264973080002,8,0,-0.5232840947136239,25.87145908076691,0.2365047464665494,-2.237167636769713e-05,8.320729633422503e-05,1.892037971732395e-06,8.321577226515439e-05,8.32491714702477e-05
77.57735026920001,90.42264973080002,8,0,-0.4617265216367823,26.11768937307428,0.2394033372602199,-2.237167636769713e-05,8.394598721114712e-05,1.915226698081759e-06,8.39546118263936e-05,8.39877884631474e-05
76.42264973080002,91.57735026920001,8,0,-0.5155545192639988,25.87339147462932,0.3288411060819335,-2.234848764134825e-05,8.320729633422503e-05,2.630728848655468e-06,8.322368496700618e-05,8.324039105351435e-05
77.57735026920001,91.57735026920001,8,0,-0.4539969461871385,26.11962176693676,0.3317396968755362,-2.234848764134825e-05,8.394598721114734e-05,2.653917575004289e-06,8.396255011619344e-05,8.398397117487934e-05
78.4226497308,90.42264973080002,8,0,-0.4576598341216078,26.28860865297375,0.232811360032146,-2.249539839156814e-05,8.448967555681327e-05,1.862490880257168e-06,8.449778091526115e-05,8.453124468344277e-05
79.57735026920001,90.42264973080002,8,0,-0.3954353918728861,26.53750642196864,0.2350998840672312,-2.249539839156814e-05,8.523636886379794e-05,1.88079907253785e-06,8.524457706399546e-05,8.527737769614249e-05
78.4226497308,91.57735026920001,8,0,-0.4515571033614343,26.29013433566379,0.3261480234051481,-2.247709019928762e-05,8.448967555681327e-05,2.609184187241185e-06,8.450558430595054e-05,8.453110642621506e-05
79.57735026920001,91.57735026920001,8,0,-0.3893326611126851,26.53903210465879,0.3284365474401384,-2.247709019928762e-05,8.523636886379827e-05,2.627492379521108e-06,8.525238981786614e-05,8.528232761017478e-05
80.4226497308,90.42264973080002,8,0,-0.3934430247760705,26.71014281285005,0.224535562488119,-2.262713192956346e-05,8.578721142094101e-05,1.796284499904952e-06,8.579465143415721e-05,8.582753423737068e-05
81.57735026920001,90.42264973080002,8,0,-0.3302566459287757,26.96288832823923,0.2262115083762506,-2.262713192956346e-05,8.654544796710855e-05,1.809692067010005e-06,8.655294701228496e-05,8.658445684748664e-05
80.4226497308,91.57735026920001,8,0,-0.3889738357411794,26.71126011010877,0.3193151307591966,-2.261372436245879e-05,8.578721142094101e-05,2.554521046073573e-06,8.580225896645614e-05,8.5836231671224e-05
81.57735026920001,91.57735026920001,8,0,-0.325787456893857,26.96400562549806,0.3209910766472334,-2.261372436245879e-05,8.654544796710887e-05,2.567928613177867e-06,8.656054826776467e-05,8.659830452463392e-05
82.4226497308,90.42264973080002,8,0,-0.3316512057370389,27.1377278868595,0.2116484498343576,-2.277146616784612e-05,8.710605020254003e-05,1.693187598674861e-06,8.711257272453959e-05,8.714361576336112e-05
83.57735026920001,90.42264973080002,8,0,-0.2672047687427277,27.39551363483675,0.2127172698586512,-2.277146616784612e-05,8.787940744647176e-05,1.70173815886921e-06,8.788594996495483e-05,8.79143437209843e-05
82.4226497308,91.57735026920001,8,0,-0.3288010190055708,27.13844043354237,0.308318105325851,-2.276291560765172e-05,8.710605020254003e-05,2.466544842606808e-06,8.711989186621894e-05,8.716123058605386e-05
83.57735026920001,91.57735026920001,8,0,-0.2643545820112596,27.39622618151961,0.3093869253501446,-2.276291560765172e-05,8.787940744647176e-05,2.475095402801157e-06,8.789324783516401e-05,8.793710033341324e-05
84.42264973080002,90.42264973080002,8,0,-0.2733031309418053,27.57304528110809,0.1941760876373558,-2.293300624390025e-05,8.845238740429933e-05,1.553408701098847e-06,8.845780319803657e-05,8.848448358474754e-05
85.57735026920001,90.42264973080002,8,0,-0.2072987048884949,27.83706298532133,0.194651832787743,-2.293300624390025e-05,8.924444051693905e-05,1.557214662301944e-06,8.924984445677776e-05,8.92714067024121e-05
84.42264973080002,91.57735026920001,8,0,-0.2720344772073853,27.57336244454169,0.2931827267172805,-2.292920028269699e-05,8.845238740429933e-05,2.345461813738244e-06,8.846473365809674e-05,8.851097239386435e-05
85.57735026920001,91.57735026920001,8,0,-0.206030051154066,27.83738014875497,0.2936584718676947,-2.292920028269699e-05,8.924444051693916e-05,2.349267774941557e-06,8.925673942688427e-05,8.930295027276833e-05
86.4226497308,90.42264973080002,8,0,-0.219406857126816,28.01777308295742,0.1722033276961625,-2.311632040917174e-05,8.983239935116518e-05,1.3776266215693e-06,8.983659989574458e-05,8.985378447193531e-05
87.57735026920002,90.42264973080002,8,0,-0.1515501658523117,28.28919984805544,0.1721093384746326,-2.311632040917174e-05,9.064667964645923e-05,1.376874707797061e-06,9.06508455759358e-05,9.065794700987445e-05
86.4226497308,91.57735026920001,8,0,-0.2196574950510044,28.01771042347637,0.273988364607946,-2.311707232294431e-05,8.983239935116518e-05,2.191906916863568e-06,8.98430324325141e-05,8.988896452633921e-05
87.57735026920002,91.57735026920001,8,0,-0.1518008037765091,28.28913718857435,0.2738943753863754,-2.311707232294431e-05,9.064667964645912e-05,2.191155003091003e-06,9.065722939313994e-05,9.069800736221859e-05
88.42264973080002,90.42264973080002,8,0,-0.170946965764414,28.47356643705431,0.1458778118065666,-2.332588344008957e-05,9.12521701711853e-05,1.167022494452533e-06,9.125514173977709e-05,9.125230734044674e-05
89.57735026920001,90.42264973080002,8,0,-0.100951083945434,28.75354996433023,0.1452474614815018,-2.332588344008957e-05,9.209212075301306e-05,1.161979691852015e-06,9.209504525903525e-05,9.207196742370357e-05
88.42264973080002,91.57735026920001,8,0,-0.1726278999645512,28.47314620350427,0.2508716345351442,-2.333092624268998e-05,9.12521701711853e-05,2.006973076281154e-06,9.126095775017556e-05,9.129584063025375e-05
89.57735026920001,91.57735026920001,8,0,-0.1026320181455898,28.75312973078012,0.2502412842100388,-2.333092624268998e-05,9.209212075301284e-05,2.00193027368031e-06,9.21008006128093e-05,9.212010865717083e-05
90.42264973080002,90.42264973080002,8,0,-0.1288708508332235,28.94203663204683,0.1154141352193171,-2.356601602830378e-05,9.271761390321643e-05,9.233130817545366e-07,9.271944669260169e-05,9.2674945555358e-05
91.57735026920001,90.42264973080002,8,0,-0.05646014380102482,29.23167946017563,0.114291616923974,-2.356601602830378e-05,9.358654238760282e-05,9.143329353917921e-07,9.358832636910028e-05,9.350265236370405e-05
90.42264973080002,91.57735026920001,8,0,-0.1318642329541566,28.9412882865166,0.2240301957676019,-2.357499617466658e-05,9.271761390321643e-05,1.792241566140815e-06,9.272451876828181e-05,9.2726319461417e-05
91.57735026920001,91.57735026920001,8,0,-0.05945352592195796,29.23093111464539,0.2229076774722181,-2.357499617466658e-05,9.358654238760282e-05,1.783261419777745e-06,9.359332754333083e-05,9.355825015186808e-05
92.42264973080002,90.42264973080002,8,0,-0.09407401026055595,29.42472884025877,0.08109811787879986,-2.384081990504079e-05,9.423439149703651e-05,6.487849430303989e-07,9.423528270595388e-05,9.410451772672687e-05
93.57735026920001,90.42264973080002,8,0,-0.0189883270687794,29.72507157302588,0.07953926102633326,-2.384081990504079e-05,9.513541969533783e-05,6.36314088210666e-07,9.513627048017705e-05,9.492113766954499e-05
92.42264973080002,91.57735026920001,8,0,-0.09823096186691682,29.42368960235719,0.1937266426663424,-2.385329075985988e-05,9.423439149703651e-05,1.549813141330739e-06,9.423947631474495e-05,9.416301848451725e-05
93.57735026920001,91.57735026920001,8,0,-0.02314527867513139,29.72403233512433,0.1921677858139842,-2.385329075985988e-05,9.513541969533793e-05,1.537342286511874e-06,9.514038513003062e-05,9.498334560574268e-05
94.4226497308,90.42264973080002,8,0,-0.06738429147039682,29.92309846598192,0.04329110443730786,-2.415410850549081e-05,9.580782252431846e-05,3.463288354984629e-07,9.580807248572569e-05,9.549912057622532e-05
95.57735026920002,90.42264973080002,8,0,0.01061658300499069,30.23510196388347,0.04136419951688024,-2.415410850549081e-05,9.67438330180231e-05,3.309135961350419e-07,9.674405945612789e-05,9.626157930043133e-05
94.4226497308,91.57735026920001,8,0,-0.0725227045915382,29.92181386270164,0.1602924161504013,-2.416952374485423e-05,9.580782252431846e-05,1.28233932920321e-06,9.581124889447562e-05,9.556379155996183e-05
95.57735026920002,91.57735026920001,8,0,0.005478169883867068,30.23381736060326,0.1583655112298923,-2.416952374485423e-05,9.674383301802331e-05,1.266924089839139e-06,9.674715161871381e-05,9.632927227677832e-05
96.4226497308,90.42264973080002,8,0,-0.04954506134271597,30.43848607967437,0.002434185055534858,-2.450933306003618e-05,9.744279150403212e-05,1.947348044427887e-08,9.744279228142006e-05,9.676615832365199e-05
97.57735026920001,90.42264973080002,8,0,0.03158657220200567,30.76301261385325,0.0002207891614626261,-2.450933306003618e-05,9.84163711065688e-05,1.766313291701009e-09,9.841637111291382e-05,9.738223512737688e-05
96.4226497308,91.57735026920001,8,0,-0.05544745039353849,30.43701048241166,0.1241316353724708,-2.452704022718865e-05,9.744279150403212e-05,9.930530829797661e-07,9.744481277861578e-05,9.683572670049529e-05
97.57735026920001,91.57735026920001,8,0,0.02568418315120269,30.76153701659063,0.1219182394784934,-2.452704022718865e-05,9.841637110656902e-05,9.753459158279472e-07,9.841830550199059e-05,9.745390520105039e-05
98.42264973080002,90.42264973080002,8,0,-0.0411972985314577,30.97209094588788,-0.04094780098372677,-2.490950411201097e-05,9.914364886566638e-05,-3.275824078698142e-07,9.91438651238676e-05,9.770891950976941e-05
99.57735026920002,90.42264973080002,8,0,0.04325105035362853,31.30988434142823,-0.04335211231749274,-2.490950411201097e-05,0.0001001570290522874,-3.468168985399419e-07,0.0001001572694877717,9.798536103681814e-05
98.42264973080002,91.57735026920001,8,0,-0.04760879542153695,30.97048807166536,0.08572472234380599,-2.49287386026812e-05,9.914364886566638e-05,6.85797778750448e-07,9.914459652817752e-05,9.778165781086057e-05
99.57735026920002,91.57735026920001,8,0,0.03683955346349421,31.30828146720549,0.08332041101001292,-2.49287386026812e-05,0.0001001570290522868,6.665632880801034e-07,0.0001001579170499207,9.805891609265824e-05
0.4226497308,92.42264973080002,8,0,-0.0318915778933464,7.291527253682329,-0.06400276968708594,-5.935274852204571e-06,2.335840047409813e-05,-5.120221574966876e-07,2.3360637703347e-05,2.50200109164756e-05
1.5773502692,92.42264973080002,8,0,0.03260325131007735,7.549506570496024,-0.06588320170885055,-5.935274852204571e-06,2.413233842453921e-05,-5.270656136708044e-07,2.413464802608224e-05,2.525646843234119e-05
0.4226497308,93.57735026920001,8,0,-0.03690606328475465,7.290273632334477,0.03273947411807678,-5.950318308378796e-06,2.335840047409813e-05,2.619157929446142e-07,2.335898561152395e-05,2.50771545497337e-05
1.5773502692,93.57735026920001,8,0,0.0275887659186691,7.548252949148172,0.03085904209633927,-5.950318308378796e-06,2.413233842453921e-05,2.468723367707142e-07,2.413284490344764e-05,2.531291897140279e-05
2.4226497308,92.42264973080002,8,0,-0.04337155583034624,7.712068054567608,-0.09862607770455675,-6.308443422311193e-06,2.471331501928062e-05,-7.89008621636454e-07,2.471833112725554e-05,2.554523098365265e-05
3.5773502692,92.42264973080002,8,0,0.02440507954195636,7.983174596056818,-0.1003555001355709,-6.308443422311193e-06,2.552663464374825e-05,-8.028440010845669e-07,2.553169553945329e-05,2.609768742932674e-05
2.4226497308,93.57735026920001,8,0,-0.04798334897980716,7.710915106280107,0.003038875353938118,-6.322278801759468e-06,2.471331501928018e-05,2.431100283150495e-08,2.471331978014259e-05,2.560076816902331e-05
3.5773502692,93.57735026920001,8,0,0.01979328639247724,7.982021647769245,0.001309452922937555,-6.322278801759468e-06,2.55266346437476e-05,1.047562338350044e-08,2.552663550514812e-05,2.615142238020486e-05
4.422649730800001,92.42264973080002,8,0,-0.06404848615276926,8.151382395791535,-0.1313393742725157,-6.726061072322089e-06,2.613566245545512e-05,-1.050714994180126e-06,2.6144059154276e-05,2.656498636831869e-05
5.577350269200001,92.42264973080002,8,0,0.0068327888812445,8.43490749592759,-0.1328390023549547,-6.726061072322089e-06,2.698623775586328e-05,-1.062712018839638e-06,2.699461063796872e-05,2.728921436634792e-05
4.422649730800001,93.57735026920001,8,0,-0.06804749437282354,8.150382643736386,-0.0250174617214818,-6.738058096982143e-06,2.613566245545469e-05,-2.001396937718544e-07,2.613596707206931e-05,2.661711006314762e-05
5.577350269200001,93.57735026920001,8,0,0.002833780661207985,8.433907743872512,-0.02651708980400212,-6.738058096982143e-06,2.698623775586307e-05,-2.121367184320169e-07,2.698657135469009e-05,2.733873826227879e-05
6.422649730800001,92.42264973080002,8,0,-0.09327180256992662,8.608438491712446,-0.1616928455156066,-7.185220561593722e-06,2.762162061553577e-05,-1.293542764124853e-06,2.763363460102441e-05,2.785603559664325e-05
7.577350269200001,92.42264973080002,8,0,-0.01949488969088753,8.903546143228603,-0.1628955907905774,-7.185220561593722e-06,2.850694357008424e-05,-1.303164726324619e-06,2.851883464446035e-05,2.868039199865542e-05
6.422649730800001,93.57735026920001,8,0,-0.09647912330309172,8.607636661529154,-0.05102747619703443,-7.194842523793217e-06,2.762162061553577e-05,-4.082198095762754e-07,2.762281715929005e-05,2.790344527616302e-05
7.577350269200001,93.57735026920001,8,0,-0.02270221042401621,8.902744313045456,-0.05223022147193748,-7.194842523793217e-06,2.850694357008467e-05,-4.178417717754998e-07,2.850816609833214e-05,2.872462533041967e-05
8.4226497308,92.42264973080002,8,0,-0.1302858353593832,9.082031324143522,-0.1893079181149095,-7.682539732464843e-06,2.916672890554677e-05,-1.514463344919276e-06,2.918228302361673e-05,2.930715241161037e-05
9.5773502692,92.42264973080002,8,0,-0.05384882668435509,9.387779358843634,-0.1901578390227186,-7.682539732464843e-06,3.008397300964711e-05,-1.521262712181749e-06,3.009928619384835e-05,3.019513730203676e-05
8.4226497308,93.57735026920001,8,0,-0.1325522911136492,9.081464710204957,-0.07465240510235327,-7.689339099727641e-06,2.916672890554677e-05,-5.972192408188262e-07,2.916914809613719e-05,2.934891099033344e-05
9.5773502692,93.57735026920001,8,0,-0.05611528243865704,9.387212744904925,-0.07550232601020307,-7.689339099727641e-06,3.008397300964668e-05,-6.040186080816246e-07,3.008638751303035e-05,3.023331107747041e-05
10.4226497308,92.42264973080002,8,0,-0.1742488064576162,9.570811956811946,-0.2138742370434683,-8.214245746113928e-06,3.076599730696431e-05,-1.710993896347746e-06,3.078476380992596e-05,3.086133601089244e-05
11.5773502692,92.42264973080002,8,0,-0.09540872910377196,9.886172266227323,-0.2143259129841225,-8.214245746113928e-06,3.171207823521045e-05,-1.71460730387298e-06,3.173047790066121e-05,3.179343984107395e-05
10.4226497308,93.57735026920001,8,0,-0.1754532756327123,9.570510839518036,-0.09561412101270153,-8.217859153639108e-06,3.076599730696388e-05,-7.649129681016123e-07,3.076974908781913e-05,3.089678495170203e-05
11.5773502692,93.57735026920001,8,0,-0.09661319827879566,9.885871148933703,-0.09606579695332863,-8.217859153639108e-06,3.171207823521088e-05,-7.68526375626629e-07,3.17157758249141e-05,3.18250291985375e-05
12.4226497308,92.42264973080002,8,0,-0.2242507596247472,10.07331553017878,-0.2351462790095083,-8.776254854942216e-06,3.24140103042719e-05,-1.881170232076066e-06,3.243547750086713e-05,3.248779665747674e-05
13.5773502692,92.42264973080002,8,0,-0.1432813306269463,10.39719324616999,-0.2351641438405556,-8.776254854942216e-06,3.338564345224551e-05,-1.881313150724445e-06,3.340661961387305e-05,3.345271092837008e-05
12.4226497308,93.57735026920001,8,0,-0.2242983991742067,10.07330362029142,-0.1136921355127389,-8.776397773590594e-06,3.24140103042719e-05,-9.095370841019114e-07,3.241903062897439e-05,3.251649985950066e-05
13.5773502692,93.57735026920001,8,0,-0.1433289701763876,10.39718133628269,-0.1137100003437727,-8.776397773590594e-06,3.338564345224573e-05,-9.096800027501815e-07,3.339054965104564e-05,3.34773885904401e-05
14.4226497308,92.42264973080002,8,0,-0.2793303901264643,10.58798782904661,-0.2529397575339406,-9.364247511641974e-06,3.410502536505032e-05,-2.023518060271525e-06,3.412856158532019e-05,3.416839550463042e-05
15.5773502692,92.42264973080002,8,0,-0.1965174911315488,10.91923942502627,-0.252497421967545,-9.364247511641974e-06,3.509878015298931e-05,-2.01997937574036e-06,3.512171051607082e-05,3.515876785835689e-05
14.4226497308,93.57735026920001,8,0,-0.2781508286159493,10.58828271942424,-0.1287204090416215,-9.360708827110429e-06,3.410502536505032e-05,-1.029763272332972e-06,3.411112363798313e-05,3.419009826069274e-05
15.5773502692,93.57735026920001,8,0,-0.1953379296210156,10.91953431540398,-0.1282780734752258,-9.360708827110429e-06,3.509878015298953e-05,-1.026224587801806e-06,3.51047012549352e-05,3.517636856001195e-05
16.4226497308,92.42264973080002,8,0,-0.3384907767702892,11.11321036947494,-0.2671279460318915,-9.973738781244874e-06,3.583306580373603e-05,-2.137023568255132e-06,3.585797688149757e-05,3.589109915275896e-05
17.5773502692,92.42264973080002,8,0,-0.2541282003321017,11.45066067522769,-0.2662075314797946,-9.973738781244874e-06,3.684541672099428e-05,-2.129660251838357e-06,3.68696221403911e-05,3.690149310339674e-05
16.4226497308,93.57735026920001,8,0,-0.3360363379642997,11.11382397917643,-0.1405840813747191,-9.966375464826906e-06,3.583306580373603e-05,-1.124672650997752e-06,3.583996926099437e-05,3.59056958997238e-05
17.5773502692,93.57735026920001,8,0,-0.251673761526094,11.45127428492926,-0.1396636668224188,-9.966375464826906e-06,3.684541672099449e-05,-1.117309334579351e-06,3.685208278922748e-05,3.691198494793112e-05
18.4226497308,92.42264973080002,8,0,-0.400714047058,11.64732399393837,-0.2776380147271885,-1.06001441457363e-05,3.759200801824918e-05,-2.221104117817508e-06,3.761758628301983e-05,3.764683702295699e-05
19.5773502692,92.42264973080002,8,0,-0.3150995104397731,11.98978214041128,-0.2762295142981329,-1.06001441457363e-05,3.86193824576679e-05,-2.209836114385063e-06,3.86441740266939e-05,3.867276052975693e-05
18.4226497308,93.57735026920001,8,0,-0.3969580459141406,11.64826299422434,-0.1492162097998617,-1.058887614230472e-05,3.759200801824918e-05,-1.193729678398894e-06,3.759940084610145e-05,3.765434501393196e-05
19.5773502692,93.57735026920001,8,0,-0.311343509295968,11.99072114069703,-0.14780770937105,-1.058887614230472e-05,3.861938245766725e-05,-1.1824616749684e-06,3.862648499425582e-05,3.867622138363536e-05
20.4226497308,92.42264973080002,8,0,-0.4649750241242159,12.18865099429463,-0.2844474475559349,-1.123884087263319e-05,3.937566320104217e-05,-2.275579580447479e-06,3.940122725840851e-05,3.94280082575281e-05
21.5773502692,92.42264973080002,8,0,-0.3784064427612086,12.53492531974666,-0.2825481235113635,-1.123884087263319e-05,4.041448617739826e-05,-2.260384988090908e-06,4.043920334873944e-05,4.046545991538769e-05
20.4226497308,93.57735026920001,8,0,-0.4599101600052684,12.18991721032436,-0.154594575511478,-1.122364628027635e-05,3.937566320104217e-05,-1.236756604091824e-06,3.938321932450232e-05,3.942854577553485e-05
21.5773502692,93.57735026920001,8,0,-0.3733415786423153,12.53619153577618,-0.152695251466866,-1.122364628027635e-05,4.041448617739761e-05,-1.221562011734928e-06,4.042170954591082e-05,4.046205786836163e-05
22.4226497308,92.42264973080002,8,0,-0.530253912909286,12.7355158017441,-0.2875805779758647,-1.188522516270499e-05,4.117785369590855e-05,-2.300644623806918e-06,4.120277912753767e-05,4.122778726677276e-05
23.5773502692,92.42264973080002,8,0,-0.443025923813281,13.08442775812812,-0.2851943992986485,-1.188522516270499e-05,4.222458956506061e-05,-2.281555194389188e-06,4.224862948489881e-05,4.227305266498515e-05
22.4226497308,93.57735026920001,8,0,-0.5238907697699342,12.73710658752894,-0.1567385943319248,-1.186613573328694e-05,4.117785369590855e-05,-1.253908754655399e-06,4.118526295939522e-05,4.122155561176577e-05
23.5773502692,93.57735026920001,8,0,-0.436662780673911,13.08601854391303,-0.1543524156546951,-1.186613573328694e-05,4.222458956506083e-05,-1.234819325237561e-06,4.223163596788867e-05,4.226302994224123e-05
24.4226497308,92.42264973080002,8,0,-0.5955480840277878,13.28626429266844,-0.2871052589528862,-1.253476530302367e-05,4.299248420376123e-05,-2.29684207162309e-06,4.301622583012273e-05,4.3039815095363e-05
25.5773502692,92.42264973080002,8,0,-0.507948809133778,13.63666139224448,-0.2842423780265028,-1.253476530302367e-05,4.404367550248935e-05,-2.273939024212022e-06,4.406651420300531e-05,4.408938361436694e-05
24.4226497308,93.57735026920001,8,0,-0.587913734890765,13.2881728799527,-0.1557063466119525,-1.25118622556126e-05,4.299248420376123e-05,-1.24565077289562e-06,4.299947217236262e-05,4.302708380780589e-05
25.5773502692,93.57735026920001,8,0,-0.5003144599967371,13.63856997952881,-0.1528434656854877,-1.25118622556126e-05,4.404367550248957e-05,-1.222747725483902e-06,4.405028377367947e-05,4.407304345786121e-05
26.4226497308,92.42264973080002,8,0,-0.6598830086258753,13.83928176066099,-0.2831296632176328,-1.318305103613159e-05,4.481360804101586e-05,-2.265037305741063e-06,4.483571465572586e-05,4.485807636279847e-05
27.57735026920001,92.42264973080002,8,0,-0.5721910490412858,14.19004959899935,-0.2798059270423621,-1.318305103613159e-05,4.586591155603093e-05,-2.238447416338897e-06,4.588711788964583e-05,4.590861548800854e-05
26.4226497308,93.57735026920001,8,0,-0.6510197121583605,13.84149758477773,-0.1515917238408167,-1.315646114672894e-05,4.481360804101542e-05,-1.212733790726533e-06,4.481994994464263e-05,4.483917122795184e-05
27.57735026920001,93.57735026920001,8,0,-0.5633277525737532,14.19226542311616,-0.1482679876654782,-1.315646114672894e-05,4.586591155603071e-05,-1.186143901323825e-06,4.58718702936416e-05,4.588631157096257e-05
28.4226497308,92.42264973080002,8,0,-0.7223223878987688,14.39300960001466,-0.2757991955609058,-1.382583932128779e-05,4.663548863036594e-05,-2.206393564487246e-06,4.665561121554784e-05,4.667686465206709e-05
29.5773502692,92.42264973080002,8,0,-0.6348040418571008,14.74308298418133,-0.2720356845265008,-1.382583932128779e-05,4.768570878286595e-05,-2.176285476212006e-06,4.770495206889789e-05,4.772522127602657e-05
28.4226497308,93.57735026920001,8,0,-0.7122863584734715,14.39551860737099,-0.144521676498431,-1.37957312330119e-05,4.663548863036594e-05,-1.156173411987448e-06,4.664101811769338e-05,4.665215806092642e-05
29.5773502692,93.57735026920001,8,0,-0.6247680124317494,14.74559199153788,-0.1407581654640395,-1.37957312330119e-05,4.76857087828666e-05,-1.126065323712316e-06,4.769086447208116e-05,4.769734923938418e-05
30.4226497308,92.42264973080002,8,0,-0.7819775085846654,14.94596073634921,-0.2652934895739777,-1.44590966165503e-05,4.84526563631852e-05,-2.122347916591822e-06,4.847055079317356e-05,4.849078921328289e-05
31.5773502692,92.42264973080002,8,0,-0.6948842082710591,15.29433393760364,-0.2611160755093013,-1.44590966165503e-05,4.949777596694848e-05,-2.088928604074411e-06,4.951482831568878e-05,4.953400309064227e-05
30.4226497308,93.57735026920001,8,0,-0.7708377377455102,14.94874567905913,-0.1346535391036352,-1.442567730403294e-05,4.845265636318563e-05,-1.077228312829082e-06,4.845726977942875e-05,4.846069247922296e-05
31.5773502692,93.57735026920001,8,0,-0.6837444374319208,15.29711888031349,-0.1304761250389046,-1.442567730403294e-05,4.94977759669487e-05,-1.043809000311237e-06,4.950203678420405e-05,4.950099381570766e-05
32.4226497308,92.42264973080002,8,0,-0.8380158423003303,15.49673382778232,-0.2518234565749763,-1.507903775758692e-05,5.02599609227437e-05,-2.014587652599811e-06,5.02754861043615e-05,5.029480006665942e-05
33.57735026920001,92.42264973080002,8,0,-0.7515818072733724,15.84246996789016,-0.2472623715115335,-1.507903775758692e-05,5.129716934306719e-05,-1.978098972092268e-06,5.13119035653324e-05,5.133012218211203e-05
32.4226497308,93.57735026920001,8,0,-0.8258529487979063,15.49977455115793,-0.1221724040345942,-1.504254907707964e-05,5.02599609227437e-05,-9.773792322767538e-07,5.026361781385048e-05,5.025975732459912e-05
33.57735026920001,93.57735026920001,8,0,-0.739418913770975,15.84551069126566,-0.117611318971192,-1.504254907707964e-05,5.129716934306687e-05,-9.408905517695361e-07,5.130050531786665e-05,5.129243644542326e-05
34.42264973080001,92.42264973080002,8,0,-0.8896688934572907,16.04402624687887,-0.2356283540210641,-1.568216145656642e-05,5.205261910477821e-05,-1.885026832168513e-06,5.206573141723277e-05,5.208422030919928e-05
35.5773502692,92.42264973080002,8,0,-0.8041090008467799,16.38626581732091,-0.2307177616862573,-1.568216145656642e-05,5.307933781610434e-05,-1.845742093490059e-06,5.309172174630074e-05,5.310913259092919e-05
34.42264973080001,93.57735026920001,8,0,-0.8765739805643094,16.04729997510211,-0.1072885151054198,-1.564287671788748e-05,5.205261910477821e-05,-8.583081208433582e-07,5.205533960788113e-05,5.204470365856269e-05
35.5773502692,93.57735026920001,8,0,-0.7910140879538163,16.38953954554409,-0.1023779227705859,-1.564287671788748e-05,5.307933781610412e-05,-8.190233821646874e-07,5.308177798587807e-05,5.306725678499109e-05
36.4226497308,92.42264973080002,8,0,-0.9362392888586317,16.58664584100853,-0.2169728437545552,-1.626528239715444e-05,5.38262581223142e-05,-1.735782750036442e-06,5.383700292806962e-05,5.385478009562815e-05
37.5773502692,92.42264973080002,8,0,-0.8517471626475075,16.92461434585303,-0.211750407067243,-1.626528239715444e-05,5.484016363684768e-05,-1.694003256537944e-06,5.485025161225676e-05,5.486701468135937e-05
36.4226497308,93.57735026920001,8,0,-0.9223127910257087,16.59012746546676,-0.09023465443792379,-1.622350290365567e-05,5.38262581223142e-05,-7.218772355033903e-07,5.38281178463918e-05,5.381128568761769e-05
37.5773502692,93.57735026920001,8,0,-0.8378206648145667,16.92809597031133,-0.08501221775050316,-1.622350290365567e-05,5.48401636368479e-05,-6.800977420040252e-07,5.484179077758959e-05,5.482145732555133e-05
38.4226497308,92.42264973080002,8,0,-0.9771070928407317,17.12352145793172,-0.1961440161887004,-1.682555986343571e-05,5.557695433965407e-05,-1.569152129509603e-06,5.558545525074357e-05,5.56026495025035e-05
39.5773502692,92.42264973080002,8,0,-0.8938534161604235,17.45653616465295,-0.1906504557647675,-1.682555986343571e-05,5.657599845981776e-05,-1.52520364611814e-06,5.658392061832803e-05,5.660020662404034e-05
38.4226497308,93.57735026920001,8,0,-0.9624575983770551,17.12718383154763,-0.07126350116823865,-1.678161138004468e-05,5.557695433965407e-05,-5.701080093459092e-07,5.557807728237372e-05,5.555569431338618e-05
39.5773502692,93.57735026920001,8,0,-0.8792039216967655,17.46019853826879,-0.0657699407444006,-1.678161138004468e-05,5.657599845981754e-05,-5.261595259552047e-07,5.657694192119422e-05,5.655149543109899e-05
40.4226497308,92.42264973080002,8,0,-1.011735325515013,17.65371221531066,-0.1734483640955661,-1.736052281389657e-05,5.730126734940612e-05,-1.387586912764529e-06,5.73077138570723e-05,5.732446881092841e-05
41.5773502692,92.42264973080002,8,0,-0.9298663808962333,17.98118799378578,-0.1677270047667175,-1.736052281389657e-05,5.828369468483148e-05,-1.34181603813374e-06,5.828964467258436e-05,5.830563278205483e-05
40.4226497308,93.57735026920001,8,0,-0.9964783673049311,17.65752645486318,-0.05064494716736914,-1.731475193926632e-05,5.730126734940612e-05,-4.051595773389531e-07,5.730181734213793e-05,5.727458788360356e-05
41.5773502692,93.57735026920001,8,0,-0.9146094226861328,17.98500223333837,-0.04492358783852058,-1.731475193926632e-05,5.82836946848317e-05,-3.593887027081646e-07,5.828412180838934e-05,5.825431208478681e-05
42.4226497308,92.42264973080002,8,0,-1.039674658602102,18.17641548793861,-0.149208698149543,-1.786809129787761e-05,5.899626928828521e-05,-1.193669585196344e-06,5.900090329932597e-05,5.901737539227025e-05
43.57735026920001,92.42264973080002,8,0,-0.9593111014790257,18.49786971643091,-0.143305002571378,-1.786809129787761e-05,5.996063197376213e-05,-1.146440020571024e-06,5.996485359457637e-05,5.998072839424674e-05
42.4226497308,93.57735026920001,8,0,-1.023931470393572,18.18035128499074,-0.02866336246506356,-1.782086173325202e-05,5.899626928828521e-05,-2.293068997205085e-07,5.899644041397171e-05,5.896511936637385e-05
43.57735026920001,93.57735026920001,8,0,-0.9435679132705133,18.50180551348297,-0.02275966688687148,-1.782086173325202e-05,5.996063197376191e-05,-1.820773350949718e-07,5.996073852902641e-05,5.992735677295888e-05
44.4226497308,92.42264973080002,8,0,-1.060567263476836,18.69097358500849,-0.1237610049718466,-1.834659411113266e-05,6.065956928280863e-05,-9.90088039774773e-07,6.066267105297593e-05,6.067902670781599e-05
45.5773502692,92.42264973080002,8,0,-0.9818031339580982,19.00603010308344,-0.1177220953598509,-1.834659411113266e-05,6.160473883703348e-05,-9.417767628788071e-07,6.160751212633917e-05,6.16234601774315e-05
44.4226497308,93.57735026920001,8,0,-1.04446350451164,18.69499952474979,-0.005614810693645167,-1.829828283423708e-05,6.065956928280863e-05,-4.491848554916134e-08,6.065957567124919e-05,6.062495949267882e-05
45.5773502692,93.57735026920001,8,0,-0.9656993749928837,19.01005604282481,0.000424098918309912,-1.829828283423708e-05,6.16047388370337e-05,3.392791346479296e-09,6.160473887304933e-05,6.156860815994789e-05
46.42264973080001,92.42264973080002,8,0,-1.074149789131923,19.19687909162399,-0.0974512563903506,-1.879478259852134e-05,6.22893329245023e-05,-7.796100511228048e-07,6.229120683587727e-05,6.230761910836329e-05
47.57735026920001,92.42264973080002,8,0,-0.9970517661835743,19.50527118341738,-0.09132542713118877,-1.879478259852134e-05,6.321450919988248e-05,-7.306034170495102e-07,6.321613636538601e-05,6.323234259858493e-05
46.42264973080001,93.57735026920001,8,0,-1.057814244440807,19.20096297779677,0.01819577803209051,-1.874577596444799e-05,6.22893329245023e-05,1.455662242567241e-07,6.228939829588527e-05,6.225231558246218e-05
47.57735026920001,93.57735026920001,8,0,-0.9807162214924405,19.50935506959024,0.02432160729125233,-1.874577596444799e-05,6.321450919988269e-05,1.945728583300187e-07,6.321462467820179e-05,6.317659033109353e-05
48.4226497308,92.42264973080002,8,0,-1.0802554533394,19.69377885365259,-0.07063218537387862,-1.921184053360815e-05,6.388429669435978e-05,-5.65057482991029e-07,6.388525728735116e-05,6.390190222486608e-05
49.57735026920001,92.42264973080002,8,0,-1.004862354182427,19.99535125028048,-0.06446841059205692,-1.921184053360815e-05,6.478901388424347e-05,-5.157472847364553e-07,6.478980552129525e-05,6.480644965241916e-05
48.4226497308,93.57735026920001,8,0,-1.063818720587749,19.6978880368405,0.04245746336147341,-1.916253033535319e-05,6.388429669435978e-05,3.396597068917873e-07,6.38846439931012e-05,6.384594586959919e-05
49.57735026920001,93.57735026920001,8,0,-0.9884256214307756,19.99946043346839,0.04862123814333577,-1.916253033535319e-05,6.478901388424347e-05,3.889699051466862e-07,6.478946443216531e-05,6.475038446057071e-05
50.42264973080001,92.42264973080002,8,0,-1.078815237760515,20.18147659235234,-0.04366004914702493,-1.959739003471551e-05,6.544377728573587e-05,-3.492803931761995e-07,6.544413592462341e-05,6.546118881441782e-05
51.57735026920001,92.42264973080002,8,0,-1.005137763593154,20.47618648902178,-0.03750749019339617,-1.959739003471551e-05,6.632790697574421e-05,-3.000599215471694e-07,6.632816893492609e-05,6.634542204322623e-05
50.42264973080001,93.57735026920001,8,0,-1.062408413884262,20.1855782983214,0.06685616210389553,-1.954816956308675e-05,6.544377728573587e-05,5.348492968311643e-07,6.544461872115673e-05,6.5405169209047e-05
51.57735026920001,93.57735026920001,8,0,-0.9887309397169002,20.48028819499084,0.0730087210575785,-1.954816956308675e-05,6.632790697574421e-05,5.84069768460628e-07,6.632890007406449e-05,6.628963581901002e-05
52.4226497308,92.42264973080002,8,0,-1.069858186394768,20.65993414430868,-0.01689140306387904,-1.99514935119102e-05,6.696767581090357e-05,-1.351312245110323e-07,6.696772833222005e-05,6.698535998383594e-05
53.5773502692,92.42264973080002,8,0,-0.9978789136595934,20.94785123524937,-0.0107989212823421,-1.99514935119102e-05,6.783142708372567e-05,-8.639137025873676e-08,6.783144833919027e-05,6.78494697225386e-05
52.4226497308,93.57735026920001,8,0,-1.053611568310633,20.66399579882971,0.09107750603866557,-1.990275365765779e-05,6.696767581090357e-05,7.286200483093246e-07,6.69692035972905e-05,6.692987010249856e-05
53.5773502692,93.57735026920001,8,0,-0.9816322955754586,20.95191288977041,0.09716998782027028,-1.990275365765779e-05,6.783142708372567e-05,7.773599025621622e-07,6.783314897977947e-05,6.779455608384806e-05
54.42264973080001,92.42264973080002,8,0,-1.05351081585268,21.12927133227474,0.009320090236698157,-2.027465167654837e-05,6.845647691596131e-05,7.456072189358526e-08,6.845649257929265e-05,6.847486576227952e-05
55.57735026920001,92.42264973080002,8,0,-0.9831844303374044,21.41057687433585,0.01530441022346105,-2.027465167654837e-05,6.930039354214462e-05,1.224352817876884e-07,6.930043537966529e-05,6.931936977907407e-05
54.42264973080001,93.57735026920001,8,0,-1.037552629221492,21.13326087893254,0.1148096685095988,-2.022677711665481e-05,6.845647691596131e-05,9.184773480767905e-07,6.845885498053327e-05,6.842049902353426e-05
55.57735026920001,93.57735026920001,8,0,-0.9672262437062171,21.41456642099364,0.1207939884963075,-2.022677711665481e-05,6.930039354214462e-05,9.663519079704599e-07,6.930300115501954e-05,6.926592095611922e-05
56.4226497308,92.42264973080002,8,0,-1.029995654717521,21.58976448271285,0.03462679306700004,-2.056779768126634e-05,6.991124286845514e-05,2.770143445360003e-07,6.99114548975803e-05,6.993072103589319e-05
57.57735026920001,92.42264973080002,8,0,-0.9612494239560423,21.86474940575877,0.04045610489673672,-2.056779768126634e-05,7.073619763759288e-05,3.236488391738937e-07,7.073648444936296e-05,7.075645971407056e-05
56.4226497308,93.57735026920001,8,0,-1.014450823171682,21.59365069059931,0.1377461392092715,-2.052116318662883e-05,6.991124286845514e-05,1.101969113674172e-06,6.991459977032612e-05,6.987806806097793e-05
57.57735026920001,93.57735026920001,8,0,-0.9457045924101672,21.86863561364537,0.143575451038954,-2.052116318662883e-05,7.073619763759331e-05,1.148603608311632e-06,7.073981169675362e-05,7.070506312064427e-05
58.4226497308,92.42264973080002,8,0,-0.9996289370609679,22.04184361536655,0.05869014614130416,-2.083228749088833e-05,7.133360271882171e-05,4.695211691304333e-07,7.13342006859696e-05,7.135449688985204e-05
59.57735026920001,92.42264973080002,8,0,-0.9323634149318654,22.31090570388296,0.06431928443620209,-2.083228749088833e-05,7.214078898437094e-05,5.145542754896168e-07,7.214150092186146e-05,7.21626261607941e-05
58.4226497308,93.57735026920001,8,0,-0.9846179016080159,22.04559637422978,0.1595884293349443,-2.078725438452948e-05,7.133360271882171e-05,1.276707434679555e-06,7.133802599402659e-05,7.13041419285134e-05
59.57735026920001,93.57735026920001,8,0,-0.9173523794789133,22.31465846274619,0.1652175676299236,-2.078725438452948e-05,7.214078898437094e-05,1.321740541039389e-06,7.214548861445138e-05,7.211386060975289e-05
60.4226497308,92.42264973080002,8,0,-0.9628174813730537,22.48608833833955,0.08118362795327139,-2.106988661106541e-05,7.272573666778498e-05,6.494690236261711e-07,7.272686093388079e-05,7.274830742286619e-05
61.5773502692,92.42264973080002,8,0,-0.8969074375915991,22.74972851346536,0.08656952994593511,-2.106988661106541e-05,7.351665719316244e-05,6.925562395674809e-07,7.351792488859106e-05,7.354028911701419e-05
60.4226497308,93.57735026920001,8,0,-0.9484550760592656,22.48967893966799,0.1800486936253732,-2.102679939512404e-05,7.272573666778498e-05,1.440389549002986e-06,7.273126878382889e-05,7.270082440622339e-05
61.5773502692,93.57735026920001,8,0,-0.882545032277811,22.75331911479381,0.1854345956181047,-2.102679939512404e-05,7.351665719316244e-05,1.483476764944838e-06,7.352247612540708e-05,7.349472063921295e-05
62.42264973080001,92.42264973080002,8,0,-0.9200547902861436,22.92322248828071,0.1017956110367196,-2.128275331954023e-05,7.409035579472719e-05,8.143648882937568e-07,7.409209417279206e-05,7.411479210030798e-05
63.57735026920001,92.42264973080002,8,0,-0.8553503567530409,23.18204022241313,0.1068977164246502,-2.128275331954023e-05,7.486680899712443e-05,8.551817313972015e-07,7.486871051730034e-05,7.489238174568525e-05
62.42264973080001,93.57735026920001,8,0,-0.9064491759186,22.9266238918726,0.1988522613365095,-2.12419364764376e-05,7.409035579472719e-05,1.590818090692076e-06,7.409699186207601e-05,7.40707402797999e-05
63.57735026920001,93.57735026920001,8,0,-0.8417447423854973,23.18544162600501,0.2039543667243723,-2.12419364764376e-05,7.486680899712443e-05,1.631634933794979e-06,7.487373355104062e-05,7.485055897111835e-05
64.4226497308,92.42264973080002,8,0,-0.8719164081608168,23.35410755889246,0.1202321132324759,-2.147341855322858e-05,7.543067731498451e-05,9.61856905859807e-07,7.543306407147978e-05,7.545709368449261e-05
65.57735026920001,92.42264973080002,8,0,-0.8082444339240569,23.6087954558395,0.1250127433390205,-2.147341855322858e-05,7.619474100582562e-05,1.000101946712164e-06,7.619730114848372e-05,7.622232574764337e-05
64.4226497308,93.57735026920001,8,0,-0.8591680612097781,23.35729464563022,0.2157400745874663,-2.143517351237546e-05,7.543067731498451e-05,1.72592059669973e-06,7.54383646617106e-05,7.541701281566205e-05
65.57735026920001,93.57735026920001,8,0,-0.7954960869730279,23.61198254257722,0.2205207046939838,-2.143517351237546e-05,7.619474100582552e-05,1.764165637551871e-06,7.620270994238631e-05,7.618477480784552e-05
66.4226497308,92.42264973080002,8,0,-0.8190545726698897,23.77973496179289,0.1362194497008564,-2.164476260197796e-05,7.675039553587315e-05,1.089755597606852e-06,7.67534127850697e-05,7.677883170525504e-05
67.57735026920001,92.42264973080002,8,0,-0.7562201796056449,24.03107253404987,0.1406441688020759,-2.164476260197796e-05,7.750440825264409e-05,1.125153350416607e-06,7.750760023422108e-05,7.753400219307881e-05
66.4226497308,93.57735026920001,8,0,-0.8072553217329252,23.78268477452713,0.2304710392970208,-2.160936484916706e-05,7.675039553587315e-05,1.843768314376167e-06,7.675903520469777e-05,7.67432367360984e-05
67.57735026920001,93.57735026920001,8,0,-0.7444209286686716,24.03402234678414,0.2348957583983894,-2.160936484916706e-05,7.75044082526442e-05,1.879166067187115e-06,7.751331455221509e-05,7.750122110605954e-05
68.42264973080002,92.42264973080002,8,0,-0.7621921929394055,24.20121716162638,0.1495067989817564,-2.17999887467072e-05,7.805364867155594e-05,1.196054391854051e-06,7.805723015050177e-05,7.80840712731656e-05
69.57735026920001,92.42264973080002,8,0,-0.6999805251617168,24.45006383273714,0.1535447623424239,-2.17999887467072e-05,7.880018868488821e-05,1.228358098739391e-06,7.880393819960532e-05,7.883171745987553e-05
68.42264973080002,93.57735026920001,8,0,-0.7514242906442563,24.20390913720017,0.2428243006482624,-2.176768503982175e-05,7.805364867155594e-05,1.942594405186099e-06,7.806309884533051e-05,7.805344650012002e-05
69.57735026920001,93.57735026920001,8,0,-0.6892126228665942,24.45275580831082,0.2468622640089163,-2.176768503982175e-05,7.880018868488788e-05,1.974898112071331e-06,7.880988324854515e-05,7.880416996402594e-05
70.4226497308,92.42264973080002,8,0,-0.7021161807055316,24.61977772227803,0.1598687033697464,-2.194259395608012e-05,7.934498165585412e-05,1.278949626957971e-06,7.934901879205898e-05,7.937728671480416e-05
71.57735026920001,92.42264973080002,8,0,-0.6402943421206579,24.86706507661752,0.1634929980176043,-2.194259395608012e-05,8.008684371887259e-05,1.307943984140835e-06,8.009103527188946e-05,8.012016345167004e-05
70.4226497308,93.57735026920001,8,0,-0.6924513949778737,24.62219391870994,0.2526014612470287,-2.191359959889715e-05,7.934498165585412e-05,2.02081168997623e-06,7.935506295786611e-05,7.935207937609224e-05
71.57735026920001,93.57735026920001,8,0,-0.6306295563930275,24.86948127304933,0.256225755894846,-2.191359959889715e-05,8.008684371887227e-05,2.049806047158768e-06,8.00971409307373e-05,8.009827226396026e-05
72.4226497308,92.42264973080002,8,0,-0.6396701526319513,25.03674029339026,0.1671075297818183,-2.207633672313445e-05,8.062930506095439e-05,1.336860238254547e-06,8.063365516181563e-05,8.066331886648375e-05
73.57735026920001,92.42264973080002,8,0,-0.5779893289021265,25.28346358830956,0.1702955152179075,-2.207633672313445e-05,8.136947494571229e-05,1.36236412174326e-06,8.137396027841314e-05,8.140437031935815e-05
72.4226497308,93.57735026920001,8,0,-0.6311688581356591,25.03886561701433,0.2596287653765282,-2.205083283964558e-05,8.062930506095439e-05,2.077030123012226e-06,8.063980761043941e-05,8.064393215309138e-05
73.57735026920001,93.57735026920001,8,0,-0.5694880344058433,25.2855889119336,0.2628167508126039,-2.205083283964558e-05,8.136947494571218e-05,2.102534006500831e-06,8.138015996653756e-05,8.138850980604536e-05
74.4226497308,92.42264973080002,8,0,-0.5757465118268019,25.45351655645884,0.1710559216692954,-2.220520208301283e-05,8.191185019012972e-05,1.368447373354363e-06,8.191634649334276e-05,8.194732357327914e-05
75.57735026920001,92.42264973080002,8,0,-0.5139442751748984,25.70072550306645,0.1737895784686202,-2.220520208301283e-05,8.265347702995256e-05,1.390316627748961e-06,8.26580853642239e-05,8.268964799631475e-05
74.4226497308,93.57735026920001,8,0,-0.5684567603618635,25.45533899432507,0.2637592766470019,-2.218333282861802e-05,8.191185019012972e-05,2.110074213176015e-06,8.192254222163842e-05,8.193410905230547e-05
75.57735026920001,93.57735026920001,8,0,-0.5066545237099502,25.70254794093273,0.2664929334463538,-2.218333282861802e-05,8.265347702995267e-05,2.13194346757083e-06,8.266431461920613e-05,8.268013626076874e-05
76.42264973080002,92.42264973080002,8,0,-0.5112779052746435,25.87159313826538,0.1715792749319321,-2.233336380749116e-05,8.319812036666893e-05,1.372634199455457e-06,8.32025835962411e-05,8.323470632968889e-05
77.57735026920001,92.42264973080002,8,0,-0.4490807029283488,26.12038194765056,0.1738455694513309,-2.233336380749116e-05,8.394448679482447e-05,1.390764555610647e-06,8.394903652752492e-05,8.398150896658357e-05
76.42264973080002,93.57735026920001,8,0,-0.5052344532228954,25.87310400127832,0.2648750784513612,-2.231523345133592e-05,8.319812036666893e-05,2.11900062761089e-06,8.320875814579349e-05,8.322795579210338e-05
77.57735026920001,93.57735026920001,8,0,-0.4430372508766007,26.1218928106635,0.2671413729707058,-2.231523345133592e-05,8.394448679482447e-05,2.137130983765646e-06,8.395523138140589e-05,8.397859937668847e-05
78.4226497308,92.42264973080002,8,0,-0.4472280420451451,26.29251748695445,0.1685782709253688,-2.246514372410802e-05,8.449383839189036e-05,1.34862616740295e-06,8.449808936787255e-05,8.453103267383111e-05
79.57735026920001,92.42264973080002,8,0,-0.3843538715190578,26.5440141690588,0.1703695440357869,-2.246514372410802e-05,8.52483284382034e-05,1.362956352286295e-06,8.525263982012455e-05,8.528555672516413e-05
78.4226497308,93.57735026920001,8,0,-0.4424513137506425,26.29371166902808,0.2628895267143909,-2.245081353922452e-05,8.449383839189036e-05,2.103116213715128e-06,8.450417708151746e-05,8.453096943579868e-05
79.57735026920001,93.57735026920001,8,0,-0.3795771432245818,26.54520835113232,0.264680799824809,-2.245081353922452e-05,8.524832843820307e-05,2.117446398598472e-06,8.525873508113392e-05,8.528942891734663e-05
80.4226497308,92.42264973080002,8,0,-0.3845818455119403,26.7178826935689,0.1619914971799727,-2.260496806049333e-05,8.580489009583003e-05,1.295931977439782e-06,8.580876285179005e-05,8.584189303417351e-05
81.57735026920001,92.42264973080002,8,0,-0.3207431221840924,26.97323758688029,0.1633058840240612,-2.260496806049333e-05,8.657095477576421e-05,1.306447072192489e-06,8.657486301581096e-05,8.66073080452141e-05
80.4226497308,93.57735026920001,8,0,-0.381076813927975,26.7187589514649,0.2577495821718669,-2.259445296574143e-05,8.580489009583003e-05,2.061996657374936e-06,8.581469514985207e-05,8.584866273153895e-05
81.57735026920001,93.57735026920001,8,0,-0.3172380906000996,26.9741138447764,0.2590639690158063,-2.259445296574143e-05,8.657095477576453e-05,2.072511752126451e-06,8.658079057924716e-05,8.661805844373991e-05
82.4226497308,92.42264973080002,8,0,-0.3243349022653046,27.14931123028089,0.1517981812279324,-2.275732067147368e-05,8.713726385871107e-05,1.214385449823459e-06,8.71406186350382e-05,8.717267829730787e-05
83.57735026920001,92.42264973080002,8,0,-0.2592415266377772,27.409684732791,0.1526400674416021,-2.275732067147368e-05,8.79183843662414e-05,1.221120539532817e-06,8.792175251734962e-05,8.795188354014118e-05
82.4226497308,93.57735026920001,8,0,-0.3220898723620946,27.14987248775669,0.2494382446691416,-2.275058558176405e-05,8.713726385871107e-05,1.995505957353132e-06,8.714632244847762e-05,8.718633920339282e-05
83.57735026920001,93.57735026920001,8,0,-0.2569964967345673,27.4102459902668,0.2502801308829333,-2.275058558176405e-05,8.79183843662414e-05,2.002241047063466e-06,8.792743984314197e-05,8.79695153995935e-05
84.42264973080002,92.42264973080002,8,0,-0.2674821618067131,27.58843756687215,0.1380210547953628,-2.29266929712792e-05,8.849698594343624e-05,1.104168438362902e-06,8.849972135394833e-05,8.852817619204972e-05
85.57735026920001,92.42264973080002,8,0,-0.2008447952422117,27.85498703313016,0.1384015724179688,-2.29266929712792e-05,8.929663434221026e-05,1.107212579343751e-06,8.929936525808489e-05,8.932343175432612e-05
84.42264973080002,93.57735026920001,8,0,-0.26646744814634,27.58869124528724,0.2379771046421967,-2.292364883029808e-05,8.849698594343624e-05,1.903816837137574e-06,8.850511786182897e-05,8.85486890336605e-05
85.57735026920001,93.57735026920001,8,0,-0.1998300815818297,27.85524071154529,0.2383576222647621,-2.292364883029808e-05,8.929663434221037e-05,1.906860978118097e-06,8.930473416217773e-05,8.934784463220246e-05
86.4226497308,92.42264973080002,8,0,-0.2150058353696833,28.03688962033917,0.1207293546118813,-2.311753036945432e-05,8.989005145338107e-05,9.658348368950503e-07,8.989211507575703e-05,8.991180346795881e-05
87.57735026920002,92.42264973080002,8,0,-0.1465393937783084,28.31075538670467,0.1206669180413056,-2.311753036945432e-05,9.071164875247757e-05,9.653353443304447e-07,9.071369536209857e-05,9.072400932113166e-05
86.4226497308,93.57735026920001,8,0,-0.2151723328913988,28.03684799595874,0.2234290169989429,-2.311802986201946e-05,8.989005145338107e-05,1.787432135991543e-06,8.989711889893108e-05,8.993902056245337e-05
87.57735026920002,93.57735026920001,8,0,-0.1467058913000514,28.31071376232413,0.2233665804282723,-2.311802986201946e-05,9.071164875247724e-05,1.786932643426178e-06,9.071866127243088e-05,9.075498764163733e-05
88.42264973080002,92.42264973080002,8,0,-0.1678624402195634,28.4962689898261,0.1000419522248589,-2.333417500056348e-05,9.132235071961916e-05,8.003356177988712e-07,9.132374734596649e-05,9.132409284155963e-05
89.57735026920001,92.42264973080002,8,0,-0.09728981492870137,28.77855949098955,0.09956283110328405,-2.333417500056348e-05,9.216922222310951e-05,7.965026488262724e-07,9.217059536221795e-05,9.215134565505049e-05
88.42264973080002,93.57735026920001,8,0,-0.1691400965435825,28.4959495757451,0.205900890161057,-2.333800796953554e-05,9.132235071961916e-05,1.647207121288456e-06,9.132826634589337e-05,9.135774602846971e-05
89.57735026920001,93.57735026920001,8,0,-0.09856747125269383,28.77824007690865,0.2054217690394822,-2.333800796953554e-05,9.216922222310983e-05,1.643374152315857e-06,9.217506718611697e-05,9.218854548687002e-05
90.42264973080002,92.42264973080002,8,0,-0.1269689383933112,28.96812993151321,0.07613058875567409,-2.358080454806916e-05,9.279959093155691e-05,6.090447100453927e-07,9.280038774299081e-05,9.275964973502643e-05
91.57735026920001,92.42264973080002,8,0,-0.05402495209621705,29.25990587670158,0.07526951064527529,-2.358080454806916e-05,9.367491876712203e-05,6.021560851622023e-07,9.367569184145493e-05,9.359431457455195e-05
90.42264973080002,93.57735026920001,8,0,-0.1292651466875991,28.96755587943964,0.1855465682011658,-2.358769317295202e-05,9.279959093155691e-05,1.484372545609326e-06,9.2804323562531e-05,9.279933582990244e-05
91.57735026920001,93.57735026920001,8,0,-0.05632116039050494,29.25933182462801,0.184685490090767,-2.358769317295202e-05,9.367491876712203e-05,1.477483920726136e-06,9.367957257805986e-05,9.363724662151009e-05
92.42264973080002,92.42264973080002,8,0,-0.09318792685161625,29.45395703651464,0.049223171730132,-2.386136699513688e-05,9.432721285832814e-05,3.93785373841056e-07,9.432754086482947e-05,9.420096130644794e-05
93.57735026920001,92.42264973080002,8,0,-0.01762352992125926,29.75621462423607,0.04802394294362608,-2.386136699513688e-05,9.523398562149242e-05,3.841915435490086e-07,9.523429546304981e-05,9.502368616077834e-05
92.42264973080002,93.57735026920001,8,0,-0.09638587028233481,29.45315755065696,0.1625697671256269,-2.387096082542904e-05,9.432721285832814e-05,1.300558137005015e-06,9.433079032535223e-05,9.424612226595915e-05
93.57735026920001,93.57735026920001,8,0,-0.02082147335196893,29.75541513837843,0.1613705383390397,-2.387096082542904e-05,9.523398562149253e-05,1.290964306712317e-06,9.523748367078755e-05,9.507169067054827e-05
94.4226497308,92.42264973080002,8,0,-0.06731185011279628,29.95514159018607,0.01960707044228356,-2.41795111925098e-05,9.591030256868565e-05,1.568565635382685e-07,9.591035378862318e-05,9.560572447294994e-05
95.57735026920002,92.42264973080002,8,0,0.01110144144270464,30.26879475640807,0.01812319855849071,-2.41795111925098e-05,9.685126206735166e-05,1.449855884679257e-07,9.685130548774129e-05,9.63731578594916e-05
94.4226497308,93.57735026920001,8,0,-0.07126884180298276,29.95415234226353,0.1372270077755217,-2.419138216758036e-05,9.591030256868565e-05,1.097816062204174e-06,9.591281122402982e-05,9.56556163380112e-05
95.57735026920002,93.57735026920001,8,0,0.007144449752518156,30.26780550848553,0.135743135891756,-2.419138216758036e-05,9.685126206735166e-05,1.085945087134048e-06,9.685369768211133e-05,9.642536252484215e-05
96.4226497308,92.42264973080002,8,0,-0.05004622718963958,30.4729566141756,-0.01236767570444324,-2.453851321834732e-05,9.755349814711363e-05,-9.894140563554595e-08,9.755351819224196e-05,9.68808235098432e-05
97.57735026920001,92.42264973080002,8,0,0.03141920199658443,30.7988183309205,-0.0140723791555833,-2.453851321834732e-05,9.85310832973483e-05,-1.125790332446664e-07,9.853110904301668e-05,9.75003584733786e-05
96.4226497308,93.57735026920001,8,0,-0.05459210305938278,30.47182014520816,0.1098304680748237,-2.455215084595655e-05,9.755349814711363e-05,8.786437445985895e-07,9.755507875547e-05,9.693446190740289e-05
97.57735026920001,93.57735026920001,8,0,0.02687332612684123,30.79768186195306,0.1081257646236159,-2.455215084595655e-05,9.85310832973483e-05,8.65006116988927e-07,9.853260305417991e-05,9.755560109988898e-05
98.42264973080002,92.42264973080002,8,0,-0.04199191242814848,31.00853062363164,-0.04628534407816513,-2.494119861867538e-05,9.926089152556376e-05,-3.70282752625321e-07,9.926116750524348e-05,9.782880030009061e-05
99.57735026920002,92.42264973080002,8,0,0.04269875499833553,31.34729329333758,-0.04813620733951215,-2.494119861867538e-05,0.0001002771795346816,-3.850896587160972e-07,0.0001002774756048288,9.810658509450133e-05
98.42264973080002,93.57735026920001,8,0,-0.04692754779168595,31.00729671479076,0.08075065706153375,-2.4956005524766e-05,9.926089152556376e-05,6.4600525649227e-07,9.926173142733958e-05,9.78848576747767e-05
99.57735026920002,93.57735026920001,8,0,0.03776311963475365,31.34605938449652,0.07889979380021382,-2.4956005524766e-05,0.000100277179534681,6.311983504017106e-07,0.0001002779748686557,9.816326417364822e-05
0.4226497308,94.4226497308,8,0,-0.03248178342751329,7.319730233367186,-0.05931101902140352,-5.959725893661791e-06,2.3449122173517e-05,-4.744881521712282e-07,2.345103592032825e-05,2.511290456035851e-05
1.5773502692,94.4226497308,8,0,0.03183429095491541,7.576994530896901,-0.06064333712090365,-5.959725893661791e-06,2.422091506610615e-05,-4.851466969672293e-07,2.422286459490543e-05,2.534823741352528e-05
0.4226497308,95.57735026920001,8,0,-0.03603463169304577,7.318842021300803,0.03716309255230761,-5.970384438458388e-06,2.3449122173517e-05,2.973047404184609e-07,2.344987327255175e-05,2.515343177250267e-05
1.5773502692,95.57735026920001,8,0,0.02828144268938293,7.576106318830518,0.03583077445271261,-5.970384438458388e-06,2.422091506610615e-05,2.866461956217009e-07,2.42215954292508e-05,2.538827865279059e-05
2.4226497308,94.4226497308,8,0,-0.04364394865005394,7.739089645976509,-0.08451479364393263,-6.330932352461378e-06,2.480000202604487e-05,-6.761183491514611e-07,2.480367266858032e-05,2.563551753962734e-05
3.5773502692,94.4226497308,8,0,0.02388122668572601,8.009190347319628,-0.08574061373599849,-6.330932352461378e-06,2.561030413007423e-05,-6.85924909887988e-07,2.561398619441659e-05,2.618504858700959e-05
2.4226497308,95.57735026920001,8,0,-0.04691280222902261,7.738272432581494,0.01677296935977818,-6.340738913198068e-06,2.4800002026044e-05,1.341837548782254e-07,2.480014657299403e-05,2.567491740028197e-05
3.5773502692,95.57735026920001,8,0,0.02061237310684794,8.008373133924977,0.01554714926769877,-6.340738913198068e-06,2.561030413007444e-05,1.243771941415901e-07,2.561042517172399e-05,2.622318214159168e-05
4.422649730800001,94.4226497308,8,0,-0.06378316778920823,8.176819438498921,-0.108348489327625,-6.745561687724602e-06,2.621684873742791e-05,-8.667879146210004e-07,2.622254607145767e-05,2.664973159534145e-05
5.577350269200001,94.4226497308,8,0,0.006784213909923675,8.459088965295448,-0.1094113851386774,-6.745561687724602e-06,2.706365731781749e-05,-8.752910811094189e-07,2.706932149882651e-05,2.736973813618981e-05
4.422649730800001,95.57735026920001,8,0,-0.06661755661868085,8.176110841291553,-0.002497416779075837,-6.75406485421302e-06,2.621684873742791e-05,-1.99793342326067e-08,2.621685176413931e-05,2.668673158389062e-05
5.577350269200001,95.57735026920001,8,0,0.003949825080396874,8.458380368087864,-0.003560312590155258,-6.75406485421302e-06,2.706365731781684e-05,-2.848250072124206e-08,2.706366331506216e-05,2.740490747081567e-05
6.422649730800001,94.4226497308,8,0,-0.09228193865824119,8.63194578388601,-0.1304826890813864,-7.200858830815179e-06,2.769605205936183e-05,-1.043861512651091e-06,2.770385649815558e-05,2.793312578059711e-05
7.577350269200001,94.4226497308,8,0,-0.01887143998956287,8.925587778560724,-0.131334550863767,-7.200858830815179e-06,2.857697804338596e-05,-1.050676406910136e-06,2.858469010136033e-05,2.87523229086915e-05
6.422649730800001,95.57735026920001,8,0,-0.09455357007783238,8.631377876031113,-0.02036694107836927,-7.207673725073954e-06,2.769605205936183e-05,-1.629355286269542e-07,2.769624220984908e-05,2.7966804747189e-05
7.577350269200001,95.57735026920001,8,0,-0.02114307140911809,8.92501987070597,-0.02121880286070927,-7.207673725073954e-06,2.85769780433864e-05,-1.697504228856742e-07,2.857717935206585e-05,2.878376076801571e-05
8.4226497308,94.4226497308,8,0,-0.1284159411492087,9.103319611122966,-0.150639712191941,-7.69358670057584e-06,2.923335550851286e-05,-1.205117697535528e-06,2.92431852025419e-05,2.937506302024926e-05
9.5773502692,94.4226497308,8,0,-0.05238839117253669,9.407429811029655,-0.1512403739500526,-7.69358670057584e-06,3.014568610823292e-05,-1.209922991600421e-06,3.015535555708857e-05,3.025722351691412e-05
8.4226497308,95.57735026920001,8,0,-0.1300177058375067,9.102919169950891,-0.03659838722694635,-7.698391994640733e-06,2.923335550851286e-05,-2.927870978155708e-07,2.923393578797122e-05,2.940475311598029e-05
9.5773502692,95.57735026920001,8,0,-0.05399015586079825,9.407029369857725,-0.03719904898496314,-7.698391994640733e-06,3.014568610823336e-05,-2.975923918797051e-07,3.014627113941325e-05,3.02843797409764e-05
10.4226497308,94.4226497308,8,0,-0.1713728202106481,9.589645511924903,-0.1685915136027634,-8.220109434213996e-06,3.08239638943282e-05,-1.348732108822108e-06,3.083560801726377e-05,3.091899447419769e-05
11.5773502692,94.4226497308,8,0,-0.09297625574301494,9.903231769795436,-0.1689083227700018,-8.220109434213996e-06,3.17647226679398e-05,-1.351266582160014e-06,3.177613574789111e-05,3.184482585588189e-05
10.4226497308,95.57735026920001,8,0,-0.1722176446564903,9.589434305813308,-0.05099666690132733,-8.222643907551414e-06,3.082396389432777e-05,-4.079733352106187e-07,3.08250295291505e-05,3.094422307726066e-05
11.5773502692,95.57735026920001,8,0,-0.0938210801887851,9.903020563684128,-0.05131347606849787,-8.222643907551414e-06,3.176472266794024e-05,-4.10507808547983e-07,3.176577620206597e-05,3.186732197210556e-05
12.4226497308,94.4226497308,8,0,-0.2202700151683499,10.08950946659251,-0.1841573023639618,-8.776471621812728e-06,3.246264630523072e-05,-1.473258418911694e-06,3.247580006792055e-05,3.253449166294774e-05
13.5773502692,94.4226497308,8,0,-0.1397696765557637,10.41151082104286,-0.1841646571697453,-8.776471621812728e-06,3.342865036858175e-05,-1.473317257357962e-06,3.344150427556502e-05,3.349286230649053e-05
12.4226497308,95.57735026920001,8,0,-0.2202896279838811,10.08950456338863,-0.06340679444515052,-8.776530460259321e-06,3.246264630523072e-05,-5.072543555612041e-07,3.246420609175945e-05,3.255494298206313e-05
13.5773502692,95.57735026920001,8,0,-0.1397892893712678,10.41150591783908,-0.06341414925104244,-8.776530460259321e-06,3.342865036858207e-05,-5.073131940083395e-07,3.343017481046379e-05,3.3510459622854e-05
14.4226497308,94.4226497308,8,0,-0.2741715787979673,10.60140526041791,-0.1972009907953487,-9.35847326048782e-06,3.414383409637567e-05,-1.577607926362789e-06,3.415813235524781e-05,3.420371061476646e-05
15.5773502692,94.4226497308,8,0,-0.191845393980079,10.93070999968946,-0.1968798661622113,-9.35847326048782e-06,3.513174831419033e-05,-1.57503892929769e-06,3.514568379681058e-05,3.518741366599045e-05
14.4226497308,95.57735026920001,8,0,-0.2733152464428077,10.6016193435067,-0.07371171356857029,-9.355904263422341e-06,3.414383409637567e-05,-5.896937085485623e-07,3.414583251468983e-05,3.421919750164576e-05
15.5773502692,95.57735026920001,8,0,-0.1909890616248924,10.93092408277836,-0.07339058893533799,-9.355904263422341e-06,3.513174831419066e-05,-5.87124711482704e-07,3.513368537086879e-05,3.519998875504489e-05
16.4226497308,94.4226497308,8,0,-0.3321039668609864,11.12375951409694,-0.2076285657066251,-9.961740305232706e-06,3.586171361859899e-05,-1.661028525653e-06,3.587676109876591e-05,3.591486059167856e-05
17.5773502692,94.4226497308,8,0,-0.2482382933880438,11.45922220798871,-0.2069660438198403,-9.961740305232706e-06,3.68681017002743e-05,-1.655728350558722e-06,3.688273222241982e-05,3.691857950132877e-05
16.4226497308,95.57735026920001,8,0,-0.3303372418292168,11.12420119535488,-0.08183005549734648,-9.956440130137398e-06,3.586171361859899e-05,-6.546404439787719e-07,3.586405184158859e-05,3.592530224877091e-05
17.5773502692,95.57735026920001,8,0,-0.246471568356319,11.45966388924647,-0.08116753361043974,-9.956440130137398e-06,3.686810170027376e-05,-6.493402688835179e-07,3.687035277684028e-05,3.692610431173081e-05
18.4226497308,94.4226497308,8,0,-0.3930708071004796,11.65495529347584,-0.2153854519144021,-1.058179081750221e-05,3.761031358480308e-05,-1.723083615315217e-06,3.762571065504461e-05,3.765907099801416e-05
19.5773502692,94.4226497308,8,0,-0.3079564323565633,11.99541279245151,-0.2143742689247934,-1.058179081750221e-05,3.863168608173007e-05,-1.714994151398347e-06,3.864662260281099e-05,3.867841247996714e-05
18.4226497308,95.57735026920001,8,0,-0.3903743191279547,11.65562941546897,-0.08771388979863592,-1.057370135358463e-05,3.761031358480308e-05,-7.017111183890874e-07,3.76128682307237e-05,3.766447463566808e-05
19.5773502692,95.57735026920001,8,0,-0.3052599443840203,11.99608691444471,-0.0867027068088646,-1.057370135358463e-05,3.863168608173029e-05,-6.936216544709169e-07,3.863413036235989e-05,3.868093781259166e-05
20.4226497308,94.4226497308,8,0,-0.4560666761415746,12.19335429553614,-0.2204539176325475,-1.121409680008195e-05,3.938358708662892e-05,-1.76363134106038e-06,3.939895069177279e-05,3.942890559707289e-05
21.5773502692,94.4226497308,8,0,-0.3699950719077667,12.53764071247138,-0.2190920335423327,-1.121409680008195e-05,4.041644633743461e-05,-1.752736268338662e-06,4.043131737910972e-05,4.045994944187075e-05
20.4226497308,95.57735026920001,8,0,-0.4524349852344254,12.19426221826293,-0.09134651128182239,-1.12032017273605e-05,3.938358708662892e-05,-7.307720902545792e-07,3.938622611552618e-05,3.942935112978976e-05
21.5773502692,95.57735026920001,8,0,-0.3663633810005997,12.53854863519823,-0.08998462719172953,-1.12032017273605e-05,4.041644633743483e-05,-7.198770175338362e-07,4.041895602970114e-05,4.045759116059946e-05
22.4226497308,94.4226497308,8,0,-0.5200899240598633,12.73731762910185,-0.222850552222592,-1.185414186027304e-05,4.11754883523738e-05,-1.782804417780736e-06,4.119046815706564e-05,4.121767414564654e-05
23.5773502692,94.4226497308,8,0,-0.4333497491286078,13.08427832882687,-0.2211407470929322,-1.185414186027304e-05,4.221637045154886e-05,-1.769125976743458e-06,4.223083753074917e-05,4.225677268980225e-05
22.4226497308,95.57735026920001,8,0,-0.5155304437140318,12.73845749918817,-0.0927402898257359,-1.184046341923544e-05,4.117548835237336e-05,-7.419223186058872e-07,4.117808390032155e-05,4.121330143800752e-05
23.5773502692,95.57735026920001,8,0,-0.428790268782794,13.08541819891312,-0.09103048469595414,-1.184046341923544e-05,4.221637045154821e-05,-7.282438775676331e-07,4.221882303268654e-05,4.224970028096637e-05
24.4226497308,94.4226497308,8,0,-0.5841545905849239,13.28522522142939,-0.2226238300893641,-1.249747486701527e-05,4.2980044381042e-05,-1.780990640714913e-06,4.299433445241116e-05,4.301912899175378e-05
25.5773502692,94.4226497308,8,0,-0.4970284341928903,13.63372984699753,-0.2205733264360171,-1.249747486701527e-05,4.40255582577464e-05,-1.764586611488136e-06,4.403932701458183e-05,4.406282659808849e-05
24.4226497308,95.57735026920001,8,0,-0.5786865808427368,13.28659222386494,-0.09193459550127341,-1.248107083778871e-05,4.2980044381042e-05,-7.354767640101872e-07,4.298248258611995e-05,4.301012731769073e-05
25.5773502692,95.57735026920001,8,0,-0.4915604244507215,13.635096849433,-0.08988409184795343,-1.248107083778871e-05,4.402555825774618e-05,-7.190727347836275e-07,4.402784579761022e-05,4.405125377460018e-05
26.4226497308,94.4226497308,8,0,-0.6473014553222529,13.83549388673007,-0.2198517608065182,-1.313975976641527e-05,4.479142160179403e-05,-1.758814086452146e-06,4.480476810363127e-05,4.482734651800478e-05
27.57735026920001,94.4226497308,8,0,-0.5600628144076731,14.18444845038839,-0.2174718695349567,-1.313975976641527e-05,4.583828529276899e-05,-1.739774956279654e-06,4.585111277254773e-05,4.587235617636866e-05
26.4226497308,95.57735026920001,8,0,-0.6409550785980529,13.83708048091112,-0.08899379943454015,-1.312072063624267e-05,4.479142160179403e-05,-7.119503954763212e-07,4.479360963264608e-05,4.481394594448991e-05
27.57735026920001,95.57735026920001,8,0,-0.5537164376834189,14.18603504456966,-0.0866139081629651,-1.312072063624267e-05,4.583828529276964e-05,-6.929112653037209e-07,4.584032106930825e-05,4.585653324634278e-05
28.4226497308,94.4226497308,8,0,-0.7086082584519051,14.3865940914149,-0.2146396151984876,-1.377682170017802e-05,4.660398769928921e-05,-1.717116921587901e-06,4.661619312789215e-05,4.663669635310898e-05
29.5773502692,94.4226497308,8,0,-0.6215187428516815,14.7349521538158,-0.2119454006765963,-1.377682170017802e-05,4.764906188649189e-05,-1.695563205412771e-06,4.766076048562806e-05,4.767990289195464e-05
28.4226497308,95.57735026920001,8,0,-0.701423686393384,14.38839023442953,-0.08400534179831431,-1.375526798400245e-05,4.660398769928921e-05,-6.720427343865146e-07,4.660585828001225e-05,4.661916077291886e-05
29.5773502692,95.57735026920001,8,0,-0.6143341707931782,14.73674829683036,-0.08131112727631463,-1.375526798400245e-05,4.764906188649168e-05,-6.504890182105171e-07,4.765078458297323e-05,4.766011062101102e-05
30.4226497308,94.4226497308,8,0,-0.7671991195566594,14.93706544506765,-0.2071177101335578,-1.440468953863542e-05,4.841236871986178e-05,-1.656941681068462e-06,4.842329321406872e-05,4.844185125308523e-05
31.5773502692,94.4226497308,8,0,-0.6805058809383135,15.28383839954103,-0.2041276690224758,-1.440468953863542e-05,4.945268758328194e-05,-1.633021352179806e-06,4.946312616923919e-05,4.948032634968066e-05
30.4226497308,95.57735026920001,8,0,-0.7592256765938652,14.93905880580848,-0.07707785220598422,-1.438076920974715e-05,4.841236871986222e-05,-6.166228176478737e-07,4.841388247815621e-05,4.842047280005777e-05
31.5773502692,95.57735026920001,8,0,-0.6725324379755726,15.28583176028165,-0.0740878110949022,-1.438076920974715e-05,4.945268758328172e-05,-5.927024887592176e-07,4.945406338480694e-05,4.945687105736341e-05
32.4226497308,94.4226497308,8,0,-0.8222531719906288,15.48553093744914,-0.1974392310965606,-1.501963490032932e-05,5.021150153742973e-05,-1.579513848772485e-06,5.022106176641996e-05,5.023781477939848e-05
33.57735026920001,94.4226497308,8,0,-0.7361865542495929,15.82979740841328,-0.1941749792727215,-1.501963490032932e-05,5.124430095032216e-05,-1.553399834181772e-06,5.125340363784812e-05,5.126883655902568e-05
32.4226497308,95.57735026920001,8,0,-0.8135485004602643,15.48770710533173,-0.06833930448504845,-1.499352088573823e-05,5.021150153742973e-05,-5.467144358803876e-07,5.021264750521843e-05,5.021290937312072e-05
33.57735026920001,95.57735026920001,8,0,-0.7274818827192471,15.83197357629579,-0.0650750526610738,-1.499352088573823e-05,5.124430095032194e-05,-5.206004212885904e-07,5.124532385764957e-05,5.124204620702068e-05
34.42264973080001,94.4226497308,8,0,-0.8730124197731941,16.03070993183442,-0.1857780708626483,-1.561820768874176e-05,5.199668171768871e-05,-1.486224566901186e-06,5.200484780633661e-05,5.201995563268569e-05
35.5773502692,94.4226497308,8,0,-0.7877838305834786,16.37162428859329,-0.1822640330722809,-1.561820768874176e-05,5.301942478796529e-05,-1.458112264578247e-06,5.30271678127524e-05,5.304102932491891e-05
34.42264973080001,95.57735026920001,8,0,-0.863641652332106,16.03305262369483,-0.05793518707808941,-1.55900953864186e-05,5.199668171768914e-05,-4.634814966247153e-07,5.19974762983064e-05,5.199185941923639e-05
35.5773502692,95.57735026920001,8,0,-0.7784130631424544,16.37396698045344,-0.05442114928768142,-1.55900953864186e-05,5.301942478796496e-05,-4.353691943014514e-07,5.302011545169064e-05,5.301125037738328e-05
36.4226497308,94.4226497308,8,0,-0.9187888144576712,16.57142991497459,-0.172326664312541,-1.619726813824421e-05,5.376360677948481e-05,-1.378613314500328e-06,5.377039768299935e-05,5.378404317510045e-05
37.5773502692,94.4226497308,8,0,-0.8345888193980375,16.90822989521312,-0.1685897619959693,-1.619726813824421e-05,5.477400672020041e-05,-1.348718095967754e-06,5.478041380638776e-05,5.47929210723769e-05
36.4226497308,95.57735026920001,8,0,-0.9088237416133538,16.57392118318566,-0.04602667172300948,-1.616737291971126e-05,5.376360677948481e-05,-3.682133737840758e-07,5.376409147221151e-05,5.375310965478482e-05
37.5773502692,95.57735026920001,8,0,-0.8246237465537387,16.91072116342412,-0.04228976940634294,-1.616737291971126e-05,5.477400672020019e-05,-3.383181552507435e-07,5.477441007619625e-05,5.476051593465142e-05
38.4226497308,94.4226497308,8,0,-0.9589705416246748,17.10663699514414,-0.157293803091155,-1.675401532931427e-05,5.550841481776099e-05,-1.25835042472924e-06,5.551389251124463e-05,5.552628141624341e-05
39.5773502692,94.4226497308,8,0,-0.8759671836752974,17.43865042694165,-0.153363136929147,-1.675401532931427e-05,5.650445511315352e-05,-1.226905095433176e-06,5.650959168837304e-05,5.652098123875168e-05
38.4226497308,95.57735026920001,8,0,-0.9484887651925984,17.10925743925203,-0.03278876616708915,-1.672257000001794e-05,5.550841481776056e-05,-2.623101293367132e-07,5.550865296478731e-05,5.549287907596547e-05
39.5773502692,95.57735026920001,8,0,-0.8654854072432032,17.44127087104961,-0.02885810000495927,-1.672257000001794e-05,5.65044551131533e-05,-2.308648000396742e-07,5.650463707610814e-05,5.648632610784468e-05
40.4226497308,94.4226497308,8,0,-0.9930275011162255,17.63540513288148,-0.1409024187693446,-1.72860121098771e-05,5.722771842611371e-05,-1.127219350154757e-06,5.723198123367988e-05,5.72433400634295e-05
41.5773502692,94.4226497308,8,0,-0.9113648492041131,17.96205574052993,-0.1368089438362604,-1.72860121098771e-05,5.820767024905906e-05,-1.094471550690083e-06,5.821163682282726e-05,5.822216125132069e-05
40.4226497308,95.57735026920001,8,0,-0.982111567961172,17.63813411617024,-0.01840844090112174,-1.725326431041194e-05,5.722771842611371e-05,-1.472675272089739e-07,5.722779122222413e-05,5.72078503584094e-05
41.5773502692,95.57735026920001,8,0,-0.900448916049041,17.96478472381877,-0.01431496596796976,-1.725326431041194e-05,5.820767024905928e-05,-1.14519727743758e-07,5.820771369789995e-05,5.818564423804987e-05
42.4226497308,94.4226497308,8,0,-1.020515962209405,18.15694408473857,-0.1233873288546437,-1.779120634686095e-05,5.891863384093095e-05,-9.870986308371495e-07,5.892180919422702e-05,5.893238188203745e-05
43.57735026920001,94.4226497308,8,0,-0.9403128928376896,18.47775636222543,-0.1191635216399848,-1.779120634686095e-05,5.988107067339153e-05,-9.533081731198786e-07,5.988399566247887e-05,5.989391954193053e-05
42.4226497308,95.57735026920001,8,0,-1.009252476303991,18.15975995621492,-0.003082724796894983,-1.775741588914471e-05,5.891863384093095e-05,-2.466179837515986e-08,5.891863582396309e-05,5.889519743741102e-05
43.57735026920001,95.57735026920001,8,0,-0.9290494069322941,18.48057223370171,0.001141082417574144,-1.775741588914471e-05,5.988107067339131e-05,9.128659340593148e-09,5.988107094172608e-05,5.985593894918064e-05
44.4226497308,94.4226497308,8,0,-1.04108237463829,18.67060603886463,-0.1049929458008425,-1.826794842993423e-05,6.057880522407745e-05,-8.399435664067402e-07,6.058104211129029e-05,6.059108593199997e-05
45.5773502692,94.4226497308,8,0,-0.9624315904474301,18.98520917562807,-0.100672463690732,-1.826794842993423e-05,6.152261463436776e-05,-8.053797095258558e-07,6.152464689210388e-05,6.153424227118693e-05
44.4226497308,95.57735026920001,8,0,-1.029561089011564,18.67348636027132,0.01298323048555408,-1.823338457305405e-05,6.057880522407745e-05,1.038658438844327e-07,6.057883944501735e-05,6.055260885832534e-05
45.5773502692,95.57735026920001,8,0,-0.9509103048206864,18.98808949703482,0.01730371259559688,-1.823338457305405e-05,6.152261463436798e-05,1.38429700764775e-07,6.15226747012213e-05,6.149520493452435e-05
46.42264973080001,94.4226497308,8,0,-1.054466318579768,19.17589092257104,-0.08597095461182036,-1.871500495751209e-05,6.220642400709114e-05,-6.877676368945628e-07,6.220788534986004e-05,6.221766641397212e-05
47.57735026920001,94.4226497308,8,0,-0.9774336070166534,19.4840217688235,-0.08158828957684422,-1.871500495751209e-05,6.313081654584852e-05,-6.527063166147538e-07,6.313211783024691e-05,6.314165955607285e-05
46.42264973080001,95.57735026920001,8,0,-1.042779211819995,19.17881269926098,0.02957811273305525,-1.867994363723277e-05,6.220642400709114e-05,2.36624901864442e-07,6.22065970622858e-05,6.217830665111432e-05
47.57735026920001,95.57735026920001,8,0,-0.9657465002568344,19.48694354551363,0.03396077776797717,-1.867994363723277e-05,6.313081654584906e-05,2.716862221438174e-07,6.313104210664211e-05,6.310197917145594e-05
48.4226497308,94.4226497308,8,0,-1.06050258105106,19.67245036588372,-0.06657796925301927,-1.913156855207036e-05,6.380024323566873e-05,-5.326237540241542e-07,6.380109841154133e-05,6.381088695558037e-05
49.57735026920001,94.4226497308,8,0,-0.9851263152302163,19.97395542916709,-0.06216809840676313,-1.913156855207036e-05,6.470475842551885e-05,-4.97344787254105e-07,6.470549602242382e-05,6.471525707082904e-05
48.4226497308,95.57735026920001,8,0,-1.048742925461116,19.6753902797812,0.04648642947815106,-1.909628958530053e-05,6.380024323566873e-05,3.718914358252084e-07,6.380066032954306e-05,6.377106057648552e-05
49.57735026920001,95.57735026920001,8,0,-0.9733666596402726,19.97689534306458,0.05089630032435299,-1.909628958530053e-05,6.470475842551885e-05,4.071704025948239e-07,6.470525300990124e-05,6.467535244916194e-05
50.42264973080001,94.4226497308,8,0,-1.059122352150416,20.16009031110533,-0.04707318159958239,-1.951726377576559e-05,6.535958687725737e-05,-3.765854527966591e-07,6.536000458804729e-05,6.537007023296229e-05
51.57735026920001,94.4226497308,8,0,-0.9854132345990596,20.45492678131075,-0.04267121790158326,-1.951726377576559e-05,6.624409628787364e-05,-3.413697432126661e-07,6.624443598875965e-05,6.625468294620254e-05
50.42264973080001,95.57735026920001,8,0,-1.047383782289012,20.16302495357068,0.06349049472747842,-1.948204806618138e-05,6.535958687725737e-05,5.079239578198273e-07,6.536034707133991e-05,6.533019765237195e-05
51.57735026920001,95.57735026920001,8,0,-0.973674664737656,20.4578614237761,0.0678924584254911,-1.948204806618138e-05,6.624409628787364e-05,5.431396674039288e-07,6.624495657892058e-05,6.621497614603413e-05
52.4226497308,94.4226497308,8,0,-1.050353541616571,20.63877226592978,-0.02771601878367069,-1.987214914591685e-05,6.688435408426854e-05,-2.217281502693656e-07,6.688449575460595e-05,6.689510287278324e-05
53.5773502692,94.4226497308,8,0,-0.9782945900207469,20.92700807231308,-0.02335686543776375,-1.987214914591685e-05,6.774906150341844e-05,-1.8685492350211e-07,6.774916112177135e-05,6.776014993721541e-05
52.4226497308,95.57735026920001,8,0,-1.038729132693827,20.64167836816047,0.08037240860998482,-1.983727591914862e-05,6.688435408426854e-05,6.429792688798786e-07,6.688554587649707e-05,6.685560691609591e-05
53.5773502692,95.57735026920001,8,0,-0.9666701810980118,20.92991417454373,0.08473156195605439,-1.983727591914862e-05,6.774906150341833e-05,6.778524956484351e-07,6.775037300113383e-05,6.772106423520888e-05
54.42264973080001,94.4226497308,8,0,-1.034320223651776,21.10861320607932,-0.008763825512216267,-2.019671528054914e-05,6.837501843837525e-05,-7.011060409773014e-08,6.837503231271142e-05,6.838643562181173e-05
55.57735026920001,94.4226497308,8,0,-0.9638669961040174,21.39042611627036,-0.004481837547273696,-2.019671528054914e-05,6.922045716894836e-05,-3.585470037818957e-08,6.922046076322296e-05,6.923243286782254e-05
54.42264973080001,95.57735026920001,8,0,-1.022901589078795,21.11146786472257,0.0969160158095306,-2.01624593768302e-05,6.837501843837525e-05,7.753281264762449e-07,6.837671580483047e-05,6.834773941636844e-05
55.57735026920001,95.57735026920001,8,0,-0.9524483615310357,21.39328077491361,0.101198003774419,-2.01624593768302e-05,6.922045716894836e-05,8.095840301953518e-07,6.922229032925843e-05,6.919439053209862e-05
56.4226497308,94.4226497308,8,0,-1.011241225222268,21.56988414200203,0.009530412858999266,-2.049187923431288e-05,6.983262223458431e-05,7.624330287199412e-08,6.983263832390697e-05,6.98450788064728e-05
57.57735026920001,94.4226497308,8,0,-0.9423222809361471,21.84555991914652,0.01370175672656918,-2.049187923431288e-05,7.065964956601777e-05,1.096140538125534e-07,7.065968252003568e-05,7.067286139197641e-05
56.4226497308,95.57735026920001,8,0,-1.000117641575614,21.5726650379137,0.1129088292881682,-2.045850848337292e-05,6.983262223458431e-05,9.032706343053455e-07,6.983488125332637e-05,6.980760346197241e-05
57.57735026920001,95.57735026920001,8,0,-0.9311986972894841,21.84834081505822,0.1170801731556568,-2.045850848337292e-05,7.065964956601788e-05,9.366413852452543e-07,7.066205653387522e-05,7.063628122658682e-05
58.4226497308,94.4226497308,8,0,-0.981427879503725,22.02300737222809,0.02692029283499664,-2.075897511219439e-05,7.125876589473288e-05,2.153623426799731e-07,7.125889190542011e-05,7.127259313227942e-05
59.57735026920001,94.4226497308,8,0,-0.9139454696429077,22.29293701167136,0.03094870564306822,-2.075897511219439e-05,7.206855481306268e-05,2.475896451445457e-07,7.206871990558267e-05,7.208330813226503e-05
58.4226497308,95.57735026920001,8,0,-0.970685445348904,22.0256929807668,0.1281439076262223,-2.072674780972993e-05,7.125876589473288e-05,1.025151261009778e-06,7.126162205771703e-05,7.123675517938556e-05
59.57735026920001,95.57735026920001,8,0,-0.9032030354880867,22.29562262021007,0.1321723204343074,-2.072674780972993e-05,7.206855481306268e-05,1.057378563474459e-06,7.207156685436576e-05,7.204860276250877e-05
60.4226497308,94.4226497308,8,0,-0.9452809712563957,22.46855245283447,0.04316815055994949,-2.099974107028804e-05,7.265559262607541e-05,3.45345204479596e-07,7.265591098195582e-05,7.267107588937352e-05
61.5773502692,94.4226497308,8,0,-0.8791119535186205,22.73322852378557,0.04702283834511487,-2.099974107028804e-05,7.344962083892872e-05,3.76182706760919e-07,7.344999541231065e-05,7.346617226492737e-05
60.4226497308,95.57735026920001,8,0,-0.935001803829306,22.47112224469124,0.1424216771666134,-2.096890356800677e-05,7.265559262607541e-05,1.139373417332907e-06,7.26590589297028e-05,7.263728444652925e-05
61.5773502692,95.57735026920001,8,0,-0.8688327860915308,22.73579831564235,0.1462763649517787,-2.096890356800677e-05,7.344962083892872e-05,1.17021091961423e-06,7.345324656020949e-05,7.343374513370363e-05
62.42264973080001,94.4226497308,8,0,-0.9032869042661478,22.90723091762172,0.05804714882070086,-2.121630282774905e-05,7.402576845980243e-05,4.643771905656069e-07,7.402633450401635e-05,7.404314262988514e-05
63.57735026920001,94.4226497308,8,0,-0.8382838742578258,23.16724303765501,0.06169909725833932,-2.121630282774905e-05,7.480580481990229e-05,4.935927780667145e-07,7.48064391327369e-05,7.482435860592444e-05
62.42264973080001,95.57735026920001,8,0,-0.8935483750992024,22.90966554991346,0.1555516938331965,-2.118708724024821e-05,7.402576845980243e-05,1.244413550665572e-06,7.402983434709238e-05,7.401179626865337e-05
63.57735026920001,95.57735026920001,8,0,-0.8285453450908804,23.16967766994675,0.1592036422708079,-2.118708724024821e-05,7.480580481990229e-05,1.273629138166463e-06,7.481002924674173e-05,7.479460065160171e-05
64.4226497308,94.4226497308,8,0,-0.8560131222538052,23.3398897865906,0.07134329215707758,-2.141115382048466e-05,7.537245781489297e-05,5.707463372566206e-07,7.537329925009035e-05,7.539190435540039e-05
65.57735026920001,94.4226497308,8,0,-0.7920057545422345,23.59591925743689,0.07476553937925662,-2.141115382048466e-05,7.614054622743182e-05,5.981243150340529e-07,7.614146304726638e-05,7.616125220261501e-05
64.4226497308,95.57735026920001,8,0,-0.8468871296611651,23.34217128473876,0.1673543437244744,-2.138377584270674e-05,7.537245781489297e-05,1.338834749795795e-06,7.537708902217332e-05,7.536338763509333e-05
65.57735026920001,95.57735026920001,8,0,-0.7828797619495589,23.59820075558519,0.1707765909467348,-2.138377584270674e-05,7.614054622743225e-05,1.366212727573878e-06,7.614533079196225e-05,7.6134538189794e-05
66.4226497308,94.4226497308,8,0,-0.8041028136827624,23.76750390085665,0.08285737420328054,-2.158713212447016e-05,7.669929473368749e-05,6.628589936262443e-07,7.670041232709133e-05,7.672094017952307e-05
67.57735026920001,94.4226497308,8,0,-0.7408994057440328,24.02031753261157,0.08602527178504324,-2.158713212447016e-05,7.745773562895224e-05,6.88202174280346e-07,7.7458931088462e-05,7.748068832167174e-05
66.4226497308,95.57735026920001,8,0,-0.7956550867979351,23.76961583257786,0.1776624861114015,-2.156178894381568e-05,7.669929473368749e-05,1.421299888891212e-06,7.670443407178397e-05,7.669561982327953e-05
67.57735026920001,95.57735026920001,8,0,-0.7324516788592241,24.0224294643327,0.1808303836932997,-2.156178894381568e-05,7.745773562895203e-05,1.446643069546397e-06,7.746301909329837e-05,7.745737279852029e-05
68.42264973080002,94.4226497308,8,0,-0.7482689276431529,24.1911671201515,0.09240686656031175,-2.174739426457928e-05,7.80103499265993e-05,7.39254932482494e-07,7.801171947027991e-05,7.803426527357681e-05
69.57735026920001,94.4226497308,8,0,-0.6856581407299727,24.44161026780422,0.09529833181073054,-2.174739426457928e-05,7.876167936955746e-05,7.623866544858443e-07,7.876312507249178e-05,7.878691748999616e-05
68.42264973080002,95.57735026920001,8,0,-0.7405583536418012,24.19309476365184,0.186323046930028,-2.172426254257523e-05,7.80103499265993e-05,1.490584375440224e-06,7.801591900053202e-05,7.80124859611526e-05
69.57735026920001,95.57735026920001,8,0,-0.677947566728621,24.44353791130456,0.1892145121805823,-2.172426254257523e-05,7.876167936955746e-05,1.513716097444658e-06,7.876737968545654e-05,7.876733035023809e-05
70.4226497308,94.4226497308,8,0,-0.6892875225930526,24.61208241457656,0.09982776329157278,-2.189538600395901e-05,7.931009374471942e-05,7.986221063325822e-07,7.93116692210222e-05,7.933629358594538e-05
71.57735026920001,94.4226497308,8,0,-0.627040314789066,24.86107124579251,0.1024235269888636,-2.189538600395901e-05,8.005706023836727e-05,8.193882159109088e-07,8.005870656033309e-05,8.008456477618695e-05
70.4226497308,95.57735026920001,8,0,-0.6823654860669439,24.61381292370809,0.1931985749977025,-2.187461989438069e-05,7.931009374471942e-05,1.54558859998162e-06,7.931599558677521e-05,7.931837334393662e-05
71.57735026920001,95.57735026920001,8,0,-0.6201182782629751,24.86280175492396,0.1957943386948985,-2.187461989438069e-05,8.005706023836705e-05,1.566354709559188e-06,8.006307731336327e-05,8.006900641085436e-05
72.4226497308,94.4226497308,8,0,-0.6279904624588006,25.0315508755188,0.1049763991402351,-2.20348101802832e-05,8.060335517162719e-05,8.398111931218807e-07,8.060507302929139e-05,8.063179418886282e-05
73.57735026920001,94.4226497308,8,0,-0.5658622107922611,25.28006388218496,0.1072602536355817,-2.20348101802832e-05,8.134889419162566e-05,8.580820290846536e-07,8.135067467553418e-05,8.137858155751138e-05
72.4226497308,95.57735026920001,8,0,-0.6219001838043985,25.0330734451824,0.1981687766400438,-2.201653934431999e-05,8.060335517162719e-05,1.58535021312035e-06,8.060947773043313e-05,8.061801936728094e-05
73.57735026920001,95.57735026920001,8,0,-0.5597719321378589,25.28158645184856,0.2004526311353769,-2.201653934431999e-05,8.134889419162566e-05,1.603621049083015e-06,8.135511349933314e-05,8.136731759139799e-05
74.4226497308,94.4226497308,8,0,-0.5652574658332368,25.45095966203352,0.1077312625096156,-2.216959162029317e-05,8.189527689117385e-05,8.61850100076925e-07,8.189706128986025e-05,8.192583882325745e-05
75.57735026920001,94.4226497308,8,0,-0.5029902761993474,25.70002842056908,0.1096903156231,-2.216959162029317e-05,8.264248316678052e-05,8.775225249847999e-07,8.264431986424498e-05,8.267418610950197e-05
74.4226497308,95.57735026920001,8,0,-0.5600333241974589,25.45226569744247,0.2011320469605719,-2.215391919538584e-05,8.189527689117385e-05,1.609056375684575e-06,8.190149728437327e-05,8.191645865828073e-05
75.57735026920001,95.57735026920001,8,0,-0.4977661345635784,25.70133445597799,0.2030911000739885,-2.215391919538584e-05,8.264248316678042e-05,1.624728800591908e-06,8.264878010305483e-05,8.266744172947366e-05
76.42264973080002,94.4226497308,8,0,-0.5020075043067722,25.87176888904277,0.1079948257929963,-2.230383912501588e-05,8.319126644838228e-05,8.639586063439704e-07,8.319303527915971e-05,8.322373560629698e-05
77.57735026920001,94.4226497308,8,0,-0.4393327099621471,26.12246806642127,0.109619766076779,-2.230383912501588e-05,8.394336398051777e-05,8.769581286142318e-07,8.394517353982579e-05,8.39767854666342e-05
76.42264973080002,95.57735026920001,8,0,-0.4976743302165767,25.87285218256532,0.2020070173099466,-2.22908396027453e-05,8.319126644838228e-05,1.616056138479573e-06,8.319745584937582e-05,8.321895638184156e-05
77.57735026920001,95.57735026920001,8,0,-0.4349995358719516,26.12355135994382,0.2036319575938377,-2.22908396027453e-05,8.394336398051777e-05,1.629055660750701e-06,8.394960882978416e-05,8.397473936210043e-05
78.4226497308,94.4226497308,8,0,-0.4391895359163041,26.29549745312891,0.1056954155612767,-2.244180447743529e-05,8.449694347874553e-05,8.455633244902139e-07,8.449861491724317e-05,8.453093854153937e-05
79.57735026920001,94.4226497308,8,0,-0.3758303873233153,26.54893404750086,0.1069807942679339,-2.244180447743529e-05,8.525725326186139e-05,8.55846354143471e-07,8.525895351215576e-05,8.529186303707795e-05
78.4226497308,95.57735026920001,8,0,-0.4357618593646766,26.29635437226681,0.2007341384505025,-2.243152144778041e-05,8.449694347874553e-05,1.60587310760402e-06,8.450297246982046e-05,8.453091737488568e-05
79.57735026920001,95.57735026920001,8,0,-0.3724027107716612,26.54979096663887,0.2020195171574036,-2.243152144778041e-05,8.525725326186172e-05,1.616156137259229e-06,8.526331659950017e-05,8.529464098367342e-05
80.4226497308,94.4226497308,8,0,-0.377772550056271,26.72370778126697,0.100789143213831,-2.258783838519365e-05,8.581808294009933e-05,8.063131457106479e-07,8.58195822398825e-05,8.585291154778577e-05
81.57735026920001,94.4226497308,8,0,-0.3134471006989248,26.98100957869636,0.101733677635807,-2.258783838519365e-05,8.658998833238748e-05,8.138694210864557e-07,8.659150506488844e-05,8.662480008907696e-05
80.4226497308,95.57735026920001,8,0,-0.3752537915976681,26.72433747088163,0.1972773172499048,-2.258028210981784e-05,8.581808294009933e-05,1.578218537999238e-06,8.582382712676168e-05,8.585774983227917e-05
81.57735026920001,95.57735026920001,8,0,-0.3109283422402855,26.98163926831116,0.1982218516718807,-2.258028210981784e-05,8.658998833238792e-05,1.585774813375046e-06,8.659574665174441e-05,8.663246820813933e-05
82.4226497308,94.4226497308,8,0,-0.3187348917104931,27.15798947845094,0.09326191281955809,-2.274634323623433e-05,8.716055424441141e-05,7.460953025564647e-07,8.716182043379604e-05,8.7194903259985e-05
83.57735026920001,94.4226497308,8,0,-0.2531590860027428,27.42029270128194,0.09386881454722967,-2.274634323623433e-05,8.794746391290441e-05,7.509505163778374e-07,8.794873751665042e-05,8.798056554723701e-05
82.4226497308,95.57735026920001,8,0,-0.3171164871033874,27.15839407960272,0.1916256213812238,-2.274148802241301e-05,8.716055424441141e-05,1.53300497104979e-06,8.71658998910642e-05,8.720463979162978e-05
83.57735026920001,95.57735026920001,8,0,-0.2515406813956371,27.42069730243372,0.1922325231088276,-2.274148802241301e-05,8.794746391290441e-05,1.537860184870621e-06,8.795280523150062e-05,8.799312325257915e-05
84.42264973080002,94.4226497308,8,0,-0.2630528263536638,27.59994184278078,0.08313151695877403,-2.292172251855634e-05,8.85302561579814e-05,6.650521356701923e-07,8.853124826779247e-05,8.856154260801824e-05
85.57735026920001,94.4226497308,8,0,-0.195943796738514,27.86837796124138,0.08340884702994042,-2.292172251855634e-05,8.93355645133632e-05,6.672707762395234e-07,8.933655608898316e-05,8.936313916892015e-05
84.42264973080002,95.57735026920001,8,0,-0.2623132794972207,27.60012672949489,0.1837950613814854,-2.291950387798701e-05,8.85302561579814e-05,1.470360491051884e-06,8.853510557601857e-05,8.85761463846132e-05
85.57735026920001,95.57735026920001,8,0,-0.1952042498820798,27.86856284795545,0.1840723914526654,-2.291950387798701e-05,8.93355645133631e-05,1.472579131621323e-06,8.934039368510197e-05,8.938051174243655e-05
86.4226497308,94.4226497308,8,0,-0.2116883031906633,28.05115521213137,0.07044982340860127,-2.311832673991521e-05,8.993304732137289e-05,5.635985872688102e-07,8.993374974846985e-05,8.995606990518446e-05
87.57735026920002,94.4226497308,8,0,-0.1427678837891921,28.32683688973725,0.0704108742924657,-2.311832673991521e-05,9.076009235419054e-05,5.632869943397257e-07,9.076078890912114e-05,9.077439024119473e-05
86.4226497308,95.57735026920001,8,0,-0.2117921675006107,28.05112924605388,0.1738304525108624,-2.311863833284506e-05,8.993304732137289e-05,1.390643620086899e-06,8.993732372051841e-05,8.997543248126887e-05
87.57735026920002,95.57735026920001,8,0,-0.1428717480991217,28.32681092365983,0.1737915033946319,-2.311863833284506e-05,9.076009235419076e-05,1.390332027157055e-06,9.076433579611112e-05,9.0796420808481e-05
88.42264973080002,94.4226497308,8,0,-0.1655758743319407,28.51319110605156,0.05530504555847308,-2.334039568270346e-05,9.137467223883054e-05,4.424403644677846e-07,9.137509884527311e-05,9.137882185388534e-05
89.57735026920001,94.4226497308,8,0,-0.0945743378821291,28.79719725185081,0.05496874746886379,-2.334039568270346e-05,9.222669067622828e-05,4.397499797509103e-07,9.222710900325977e-05,9.221183939351683e-05
88.42264973080002,95.57735026920001,8,0,-0.1664726692375291,28.51296690732516,0.1618073502332581,-2.334308606742022e-05,9.137467223883054e-05,1.294458801866065e-06,9.137832374466644e-05,9.140274889282468e-05
89.57735026920001,95.57735026920001,8,0,-0.09547113278768116,28.79697305312456,0.1614710521437301,-2.334308606742022e-05,9.222669067622871e-05,1.291768417149841e-06,9.223030021320182e-05,9.223827969816583e-05
90.42264973080002,94.4226497308,8,0,-0.1256087318477688,28.98756113093699,0.03782407764455636,-2.359199684666245e-05,9.286068260447658e-05,3.025926211564509e-07,9.286087916959698e-05,9.282418428566445e-05
91.57735026920001,94.4226497308,8,0,-0.05226875499474559,29.28092103834908,0.03721542385036176,-2.359199684666245e-05,9.374076232671286e-05,2.977233908028941e-07,9.3740951189302e-05,9.366412410320675e-05
90.42264973080002,95.57735026920001,8,0,-0.127231808632053,28.98715536174092,0.1478340429241723,-2.35968660770153e-05,9.286068260447658e-05,1.182672343393379e-06,9.286368515310154e-05,9.285238543442278e-05
91.57735026920001,95.57735026920001,8,0,-0.05389183177902979,29.28051526915301,0.147225389130032,-2.35968660770153e-05,9.374076232671286e-05,1.177803113040256e-06,9.374371786887575e-05,9.369462270182651e-05
92.42264973080002,94.4226497308,8,0,-0.09262383410272257,29.47570462669195,0.01817486248537081,-2.387695997048227e-05,9.43963538726964e-05,1.453988998829665e-07,9.439639855909145e-05,9.427439264397697e-05
93.57735026920001,94.4226497308,8,0,-0.01670469322944079,29.77938119018508,0.01732534513582487,-2.387695997048227e-05,9.530738356317578e-05,1.386027610865989e-07,9.53074238594058e-05,9.510173748615076e-05
92.42264973080002,95.57735026920001,8,0,-0.09488921370172854,29.4751382817922,0.1320535737952666,-2.388375610927929e-05,9.43963538726964e-05,1.056428590362132e-06,9.439871272049857e-05,9.430646779356296e-05
93.57735026920001,95.57735026920001,8,0,-0.01897007282844676,29.77881484528532,0.13120405644568,-2.388375610927929e-05,9.530738356317578e-05,1.04963245156544e-06,9.530969436187954e-05,9.513582240321591e-05
94.4226497308,94.4226497308,8,0,-0.06738610793075495,29.97896504978242,-0.003431255308353263,-2.419880758520435e-05,9.598659704564833e-05,-2.745004246682611e-08,9.598659861302837e-05,9.568684185764371e-05
95.57735026920002,94.4226497308,8,0,0.01133189647774913,30.29383706741643,-0.004483210701725711,-2.419880758520435e-05,9.693121309855039e-05,-3.586568561380569e-08,9.693121575344009e-05,9.64580318861873e-05
94.4226497308,95.57735026920001,8,0,-0.07019132231282832,29.9782637461869,0.1146457513044315,-2.420722322835057e-05,9.598659704564833e-05,9.171660104354516e-07,9.598834668062101e-05,9.572225969871483e-05
95.57735026920002,95.57735026920001,8,0,0.008526682095695293,30.29313576382099,0.1135937959110319,-2.420722322835057e-05,9.69312130985506e-05,9.087503672882552e-07,9.693291737928262e-05,9.649508157588631e-05
96.4226497308,94.4226497308,8,0,-0.05057173454880193,30.49856511141617,-0.02673725326633302,-2.456068163968911e-05,9.763586574417079e-05,-2.138980261306642e-07,9.763595934814634e-05,9.696802601590102e-05
97.57735026920001,94.4226497308,8,0,0.03113916350967472,30.82540870365008,-0.02794587005352394,-2.456068163968911e-05,9.86163965208725e-05,-2.235669604281915e-07,9.861649796455297e-05,9.759016586135643e-05
96.4226497308,95.57735026920001,8,0,-0.05379471264815905,30.49775936689134,0.09582909382140721,-2.457035057398717e-05,9.763586574417079e-05,7.666327505712577e-07,9.763706805615159e-05,9.700608646807287e-05
97.57735026920001,95.57735026920001,8,0,0.02791618541026253,30.82460295912502,0.09462047703413497,-2.457035057398717e-05,9.861639652087185e-05,7.569638162730798e-07,9.861755936676197e-05,9.762935591933069e-05
98.42264973080002,94.4226497308,8,0,-0.0427505548919207,31.03558072095061,-0.05143831071365522,-2.496526635241463e-05,9.934805875095546e-05,-4.115064857092418e-07,9.934839929595287e-05,9.791993051789471e-05
99.57735026920002,94.4226497308,8,0,0.04211674593719117,31.37504992426706,-0.05275007890940349,-2.496526635241463e-05,0.0001003664663609048,-4.220006312752279e-07,0.000100366821586242,9.81987244686806e-05
98.42264973080002,95.57735026920001,8,0,-0.04624860341404258,31.03470620882008,0.07586264053006855,-2.497576049798099e-05,9.934805875095546e-05,6.069011242405484e-07,9.934879941107699e-05,9.795969393257697e-05
99.57735026920002,95.57735026920001,8,0,0.03861869741506929,31.37417541213652,0.07455087233426608,-2.497576049798099e-05,0.0001003664663609048,5.964069786741286e-07,0.0001003671758170869,9.823892471721769e-05
0.4226497308,96.4226497308,8,0,-0.03310565864310777,7.338344618330404,-0.05475737111197557,-5.976613802322268e-06,2.350918730557178e-05,-4.380589688958046e-07,2.351081423332552e-05,2.517712366353487e-05
1.5773502692,96.4226497308,8,0,0.03109382457345444,7.595142551196653,-0.05555242033442357,-5.976613802322268e-06,2.427958110417052e-05,-4.444193626753886e-07,2.428121298417395e-05,2.541168726433739e-05
0.4226497308,97.57735026920001,8,0,-0.03522578990305947,7.337814585515416,0.04154185371293539,-5.982974196102123e-06,2.350918730557178e-05,3.323348297034831e-07,2.351012351139296e-05,2.520132390142082e-05
1.5773502692,97.57735026920001,8,0,0.02897369331350275,7.594612518381665,0.04074680449051449,-5.982974196102123e-06,2.427958110417052e-05,3.25974435924116e-07,2.428045889067752e-05,2.543559954115527e-05
2.4226497308,96.4226497308,8,0,-0.04403775744575844,7.756937619854573,-0.07073553052032466,-6.346470919710084e-06,2.485743058949124e-05,-5.658842441625973e-07,2.48599959630322e-05,2.56979520013771e-05
3.5773502692,96.4226497308,8,0,0.02332227209528615,8.02637773801875,-0.07146722705587949,-6.346470919710084e-06,2.566575094398377e-05,-5.71737816447036e-07,2.566830354771278e-05,2.624547820661565e-05
2.4226497308,97.57735026920001,8,0,-0.04598894820712918,7.756449822164367,0.03030451379112042,-6.352324491994306e-06,2.485743058949167e-05,2.424361103289634e-07,2.485790139085508e-05,2.572148384124911e-05
3.5773502692,97.57735026920001,8,0,0.0213710813338972,8.025889940328472,0.02957281725551137,-6.352324491994306e-06,2.566575094398399e-05,2.36582538044091e-07,2.566618796692017e-05,2.626825863449049e-05
4.422649730800001,96.4226497308,8,0,-0.06378986754797511,8.193634240604336,-0.08585644570913489,-6.759034968636989e-06,2.627066146397225e-05,-6.868515656730792e-07,2.627423184255427e-05,2.670836631645315e-05
5.577350269200001,96.4226497308,8,0,0.006570625803719921,8.475076214011116,-0.08649087553894586,-6.759034968636989e-06,2.711498738419259e-05,-6.919270043115669e-07,2.71185204237947e-05,2.74254739455639e-05
4.422649730800001,97.57735026920001,8,0,-0.06548168042732705,8.193211287384633,0.01968429431839459,-6.764110407275151e-06,2.627066146397268e-05,1.574743545471567e-07,2.627084913010492e-05,2.673047351647545e-05
5.577350269200001,97.57735026920001,8,0,0.004878812924314246,8.474653260791198,0.01904986448865139,-6.764110407275151e-06,2.711498738419238e-05,1.523989159092111e-07,2.711515876797762e-05,2.744649326488516e-05
6.422649730800001,96.4226497308,8,0,-0.09176792155996916,8.647498727901032,-0.09991223838530874,-7.211656331312726e-06,2.774541026653128e-05,-7.992979070824699e-07,2.774997868233918e-05,2.798650129366789e-05
7.577350269200001,96.4226497308,8,0,-0.01859946950526226,8.94017253611986,-0.100420461926983,-7.211656331312726e-06,2.862343169118776e-05,-8.033636954158643e-07,2.862793364857256e-05,2.880214888407807e-05
6.422649730800001,97.57735026920001,8,0,-0.09312318433760458,8.647159912206623,0.009840439696656798,-7.215722119645633e-06,2.774541026653128e-05,7.872351757325438e-08,2.774545458277578e-05,2.80066342927923e-05
7.577350269200001,97.57735026920001,8,0,-0.01995473228286126,8.939833720425597,0.009332216155118027,-7.215722119645633e-06,2.862343169118819e-05,7.465772924094422e-08,2.862347057164362e-05,2.88209482920938e-05
8.4226497308,96.4226497308,8,0,-0.1272698792390137,9.117418822400346,-0.1127275058889746,-7.701198671485119e-06,2.927755613507232e-05,-9.018200471117965e-07,2.928305360593689e-05,2.942212058607297e-05
9.5773502692,96.4226497308,8,0,-0.05151323002333941,9.420445419263043,-0.1130853420982196,-7.701198671485119e-06,3.018663592566041e-05,-9.046827367857569e-07,3.019203564192288e-05,3.030026718483982e-05
8.4226497308,97.57735026920001,8,0,-0.1282241091305503,9.117180264927462,0.0009074679346182148,-7.70406136115973e-06,2.927755613507232e-05,7.259743476945718e-09,2.927755649135659e-05,2.943987930103608e-05
9.5773502692,97.57735026920001,8,0,-0.05246745991483959,9.420206861790305,0.0005496317253324973,-7.70406136115973e-06,3.018663592566084e-05,4.397053802659978e-09,3.018663605322568e-05,3.031651626461665e-05
10.4226497308,96.4226497308,8,0,-0.1695043504073261,9.602134388416998,-0.124158045272752,-8.224121432037041e-06,3.086243352326025e-05,-9.932643621820159e-07,3.086874269320249e-05,3.095898436846154e-05
11.5773502692,96.4226497308,8,0,-0.09140155192678812,9.91454558233915,-0.1243458201009634,-8.224121432037041e-06,3.179966710502671e-05,-9.947665608077069e-07,3.180584722796726e-05,3.188048658324441e-05
10.4226497308,97.57735026920001,8,0,-0.1700050832828275,9.602009205198122,-0.007003847552053064,-8.225623630663545e-06,3.086243352326025e-05,-5.603078041642451e-08,3.086245360258223e-05,3.09740843629464e-05
11.5773502692,97.57735026920001,8,0,-0.09190228480232543,9.914420399120131,-0.007191622380291543,-8.225623630663545e-06,3.179966710502627e-05,-5.753297904233234e-08,3.179968777971662e-05,3.189395685351551e-05
12.4226497308,96.4226497308,8,0,-0.2176083416364349,10.10026495326607,-0.1340893945236531,-8.776558655849444e-06,3.249493452376056e-05,-1.072715156189225e-06,3.25019037623108e-05,3.256691253652632e-05
13.5773502692,96.4226497308,8,0,-0.1374189807075119,10.42102239698176,-0.1340916686908629,-8.776558655849444e-06,3.345720685490763e-05,-1.072733349526903e-06,3.346401758609059e-05,3.352076090182327e-05
12.4226497308,97.57735026920001,8,0,-0.2176144060824901,10.10026343715455,-0.01380535313036347,-8.77657684918761e-06,3.249493452376056e-05,-1.104428250429078e-07,3.249500841005258e-05,3.257916264834975e-05
13.5773502692,97.57735026920001,8,0,-0.1374250451535852,10.42102088087017,-0.01380762729765459,-8.77657684918761e-06,3.345720685490742e-05,-1.104610183812367e-07,3.345727908153883e-05,3.353130720298798e-05
14.4226497308,96.4226497308,8,0,-0.270664056031594,10.61033601387446,-0.1424352599895359,-9.354393790400671e-06,3.416960648922355e-05,-1.139482079916287e-06,3.417706327735971e-05,3.422826496195536e-05
15.5773502692,96.4226497308,8,0,-0.1886607505997393,10.93834923560188,-0.1422405484929759,-9.354393790400671e-06,3.515364615440581e-05,-1.137924387943808e-06,3.516091821347037e-05,3.520735363558272e-05
14.4226497308,97.57735026920001,8,0,-0.2701448253738659,10.6104658215389,-0.01943030184192946,-9.352836098427486e-06,3.416960648922355e-05,-1.554424147354357e-07,3.416974528122263e-05,3.423755083733854e-05
15.5773502692,97.57735026920001,8,0,-0.1881415199420653,10.9384790432661,-0.01923559034522045,-9.352836098427486e-06,3.515364615440516e-05,-1.538847227617636e-07,3.515377917119242e-05,3.521489977435017e-05
16.4226497308,96.4226497308,8,0,-0.3277147119400925,11.130804019586,-0.149135886904676,-9.953330293877092e-06,3.588074463222726e-05,-1.193087095237408e-06,3.588850750172198e-05,3.593141951093094e-05
17.5773502692,96.4226497308,8,0,-0.2441788520720163,11.4649474590583,-0.1487363799582982,-9.953330293877092e-06,3.688317495064417e-05,-1.189891039666386e-06,3.689073108820199e-05,3.693051559686586e-05
16.4226497308,97.57735026920001,8,0,-0.3266493600828864,11.1310703575503,-0.02383209710252101,-9.950134238305474e-06,3.588074463222726e-05,-1.906567768201681e-07,3.588094291475085e-05,3.593769052486374e-05
17.5773502692,97.57735026920001,8,0,-0.2431135002147919,11.46521379702268,-0.02343259015606192,-9.950134238305474e-06,3.688317495064439e-05,-1.874607212484954e-07,3.688336253818552e-05,3.693504264157998e-05
18.4226497308,96.4226497308,8,0,-0.3877793748047513,11.66007998158397,-0.1541564171511758,-1.056895798464238e-05,3.762247944091249e-05,-1.233251337209407e-06,3.763036808264684e-05,3.766764517473696e-05
19.5773502692,96.4226497308,8,0,-0.3029971155263258,11.99920901869767,-0.1535477095221014,-1.056895798464238e-05,3.86398665522536e-05,-1.228381676176811e-06,3.86475312677041e-05,3.868242454739331e-05
18.4226497308,97.57735026920001,8,0,-0.3861561544606071,11.66048578667,-0.02698302823338867,-1.056408832360994e-05,3.762247944091249e-05,-2.158642258671094e-07,3.762272119464383e-05,3.767090361090698e-05
19.5773502692,97.57735026920001,8,0,-0.3013738951822269,11.99961482378352,-0.02637432060427361,-1.056408832360994e-05,3.863986655225306e-05,-2.109945648341889e-07,3.864009274596984e-05,3.868396104978446e-05
20.4226497308,96.4226497308,8,0,-0.4498668168150535,12.19655169135159,-0.1574852658887569,-1.119681516688944e-05,3.938885886577712e-05,-1.259882127110055e-06,3.939670227662508e-05,3.942962107577218e-05
21.5773502692,96.4226497308,8,0,-0.3641253215009734,12.53951767260791,-0.1566660990173503,-1.119681516688944e-05,4.041775680954608e-05,-1.253328792138802e-06,4.042536416495772e-05,4.045622058197275e-05
20.4226497308,97.57735026920001,8,0,-0.4476823718244369,12.19709780259924,-0.02887302291758277,-1.119026183191759e-05,3.938885886577712e-05,-2.309841833406621e-07,3.938912257842198e-05,3.942991304919463e-05
21.5773502692,97.57735026920001,8,0,-0.3619408765103387,12.54006378385563,-0.028053856046149,-1.119026183191759e-05,4.04177568095463e-05,-2.24430848369192e-07,4.041800080732458e-05,4.045483437279996e-05
22.4226497308,96.4226497308,8,0,-0.5129884319470071,12.73860455346487,-0.1591325370371005,-1.183244662500231e-05,4.117392531664517e-05,-1.273060296296804e-06,4.118156802456269e-05,4.121075212378639e-05
23.5773502692,96.4226497308,8,0,-0.4265723622142139,13.08426883239604,-0.1581045560218749,-1.183244662500231e-05,4.221091815343869e-05,-1.264836448174999e-06,4.221831773076058e-05,4.224557112582164e-05
22.4226497308,97.57735026920001,8,0,-0.5102471492399188,12.73928987414137,-0.02950843243777583,-1.182422277688083e-05,4.11739253166443e-05,-2.360674595022066e-07,4.117418819172121e-05,4.120815997544859e-05
23.5773502692,97.57735026920001,8,0,-0.4238310795070359,13.0849541530729,-0.02848045142257727,-1.182422277688083e-05,4.22109181534389e-05,-2.278436113806181e-07,4.221115833269822e-05,4.224136247300927e-05
24.4226497308,96.4226497308,8,0,-0.5761702402933233,13.28464105240079,-0.1591284873713871,-1.247145761085926e-05,4.297178755991718e-05,-1.273027898971097e-06,4.297909406987262e-05,4.300486910874989e-05
25.5773502692,96.4226497308,8,0,-0.4893584869835261,13.63188806563998,-0.1578960129750706,-1.247145761085926e-05,4.401352859963474e-05,-1.263168103800565e-06,4.402058974245579e-05,4.40444907742474e-05
24.4226497308,97.57735026920001,8,0,-0.5728836419032186,13.28546270199831,-0.02891085740670514,-1.246159781568895e-05,4.297178755991718e-05,-2.312868592536411e-07,4.297202881064584e-05,4.299950508882913e-05
25.5773502692,97.57735026920001,8,0,-0.4860718885934032,13.63270971523757,-0.02767838301034799,-1.246159781568895e-05,4.401352859963496e-05,-2.21427064082784e-07,4.40137456410096e-05,4.403758673715953e-05
26.4226497308,96.4226497308,8,0,-0.6384640163967199,13.83309888015971,-0.1575220405552802,-1.310956395659727e-05,4.477668762962843e-05,-1.260176324442241e-06,4.478354528673754e-05,4.480611318649508e-05
27.57735026920001,96.4226497308,8,0,-0.5515266660161475,14.180848281682,-0.1560918548723308,-1.310956395659727e-05,4.58199358341953e-05,-1.248734838978647e-06,4.582655036382648e-05,4.584728264752986e-05
26.4226497308,97.57735026920001,8,0,-0.634650187908874,13.8340523372814,-0.02711601498439457,-1.309812247113351e-05,4.477668762962756e-05,-2.169281198751566e-07,4.477689090305442e-05,4.479811426720375e-05
27.57735026920001,97.57735026920001,8,0,-0.5477128375282567,14.18180173880386,-0.02568582930140458,-1.309812247113351e-05,4.581993583419497e-05,-2.054866344112366e-07,4.582011500094679e-05,4.583783247159733e-05
28.4226497308,96.4226497308,8,0,-0.698957572842565,14.38246775257819,-0.154379345956244,-1.374263843515876e-05,4.658306286652427e-05,-1.235034767649952e-06,4.658938335286013e-05,4.660890769989995e-05
29.5773502692,96.4226497308,8,0,-0.6121531044696997,14.72968562606966,-0.1527604893384216,-1.374263843515876e-05,4.762471648699865e-05,-1.222083914707373e-06,4.76308001004079e-05,4.764853657834604e-05
28.4226497308,97.57735026920001,8,0,-0.6946406218615251,14.38354699032345,-0.02417264339697267,-1.372968758221564e-05,4.658306286652427e-05,-1.933811471757814e-07,4.658321787591985e-05,4.659843136366751e-05
29.5773502692,97.57735026920001,8,0,-0.6078361534886869,14.73076486381481,-0.0225537867790419,-1.372968758221564e-05,4.762471648699833e-05,-1.804302942323352e-07,4.762484913852182e-05,4.763670797667864e-05
30.4226497308,96.4226497308,8,0,-0.7567842239737868,14.93130493883738,-0.1497823727050074,-1.436675346778602e-05,4.838560318345866e-05,-1.198258981640059e-06,4.839132286398029e-05,4.840797024996832e-05
31.5773502692,96.4226497308,8,0,-0.6703569328782786,15.27701410321942,-0.1479859489229521,-1.436675346778602e-05,4.942273067660475e-05,-1.183887591383616e-06,4.942822323221624e-05,4.944315274746108e-05
30.4226497308,97.57735026920001,8,0,-0.7519937605548641,14.93250255469225,-0.02014143606179951,-1.435238207752937e-05,4.838560318345909e-05,-1.611314884943961e-07,4.838570664276553e-05,4.839519110092579e-05
31.5773502692,97.57735026920001,8,0,-0.6655664694593106,15.27821171907447,-0.01834501227966287,-1.435238207752937e-05,4.942273067660573e-05,-1.46760098237303e-07,4.942281510804375e-05,4.942912892012957e-05
32.4226497308,96.4226497308,8,0,-0.8111314465343327,15.47824952223837,-0.1438275270078577,-1.497822024670056e-05,5.017930362839025e-05,-1.150620216062862e-06,5.018438294849371e-05,5.019834216456321e-05
33.57735026920001,96.4226497308,8,0,-0.7253090922967376,15.82153893918875,-0.1418665134265745,-1.497822024670056e-05,5.120917187924139e-05,-1.134932107412596e-06,5.121403676429971e-05,5.122637552401955e-05
32.4226497308,97.57735026920001,8,0,-0.8059020769843164,15.47955686462588,-0.01509399565145092,-1.496253213805051e-05,5.017930362839025e-05,-1.207519652116074e-07,5.017935958714703e-05,5.018344921693571e-05
33.57735026920001,97.57735026920001,8,0,-0.7200797227467124,15.82284628157629,-0.01313298207022192,-1.496253213805051e-05,5.12091718792415e-05,-1.050638565617754e-07,5.1209213582894e-05,5.121035277387434e-05
34.42264973080001,96.4226497308,8,0,-0.8612487454757192,16.02203540232707,-0.1366242800919629,-1.557362430738396e-05,5.19595122838272e-05,-1.092994240735703e-06,5.196393440254566e-05,5.19754242539575e-05
35.5773502692,96.4226497308,8,0,-0.7762404240143859,16.3620686881724,-0.1345133397848332,-1.557362430738396e-05,5.297961214136319e-05,-1.076106718278665e-06,5.298383489729142e-05,5.299383008212359e-05
34.42264973080001,97.57735026920001,8,0,-0.8556195713234089,16.02344269586488,-0.009111797900072417,-1.555673678492681e-05,5.195951228382633e-05,-7.289438320057934e-08,5.195953195905128e-05,5.195861876083216e-05
35.5773502692,97.57735026920001,8,0,-0.7706112498620312,16.36347598171039,-0.00700085759286137,-1.555673678492681e-05,5.297961214136286e-05,-5.600686074289096e-08,5.29796235833494e-05,5.297601589792486e-05
36.4226497308,96.4226497308,8,0,-0.9064547251037709,16.56150304013722,-0.1282937950304412,-1.614985755244184e-05,5.372197350852212e-05,-1.02635036024353e-06,5.372574233148651e-05,5.373501342424065e-05
37.5773502692,96.4226497308,8,0,-0.8224489655033516,16.8975260785389,-0.1260490881851279,-1.614985755244184e-05,5.473004262372715e-05,-1.008392705481023e-06,5.47336289874139e-05,5.474155814454817e-05
36.4226497308,97.57735026920001,8,0,-0.9004688401828629,16.56299951136745,-0.002285155629771964,-1.613189989767912e-05,5.372197350852212e-05,-1.828124503817571e-08,5.372197470460438e-05,5.371650712328205e-05
37.5773502692,97.57735026920001,8,0,-0.8164630805823982,16.89902254976931,-4.044878445857644e-05,-1.613189989767912e-05,5.473004262372769e-05,-3.235902756686115e-10,5.473004262409711e-05,5.472216963651014e-05
38.4226497308,96.4226497308,8,0,-0.9461433589303274,17.09560994075639,-0.1189675427517564,-1.670414670118216e-05,5.546286649756472e-05,-9.517403420140512e-07,5.546600425488757e-05,5.547333746549921e-05
39.5773502692,96.4226497308,8,0,-0.8633064471635068,17.42695758782368,-0.1166065353556966,-1.670414670118216e-05,5.645690943876657e-05,-9.32852282845573e-07,5.645988294017797e-05,5.646605103004319e-05
38.4226497308,97.57735026920001,8,0,-0.9398473392075202,17.09718394568696,0.005287824898650775,-1.668525864201363e-05,5.546286649756428e-05,4.23025991892062e-08,5.546287269838288e-05,5.545335113311934e-05
39.5773502692,97.57735026920001,8,0,-0.857010427440609,17.42853159275461,0.007648832294642784,-1.668525864201363e-05,5.645690943876722e-05,6.119065835714227e-08,5.645692223677455e-05,5.644531361826675e-05
40.4226497308,96.4226497308,8,0,-0.9797894466734709,17.62343986141958,-0.1087859004184392,-1.723407811849077e-05,5.717883911388142e-05,-8.702872033475133e-07,5.718138361135111e-05,5.718708665814853e-05
41.5773502692,96.4226497308,8,0,-0.8982639791078233,17.94954173168217,-0.1063271689596778,-1.723407811849077e-05,5.815714472466918e-05,-8.506173516774221e-07,5.815954396567583e-05,5.816427906373941e-05
40.4226497308,97.57735026920001,8,0,-0.9732328294501977,17.62507901572539,0.01350230093005852,-1.721440826682095e-05,5.717883911388142e-05,1.080184074404682e-07,5.71788783243293e-05,5.716584887910038e-05
41.5773502692,97.57735026920001,8,0,-0.8917073618845954,17.9511808859878,0.01596103238872505,-1.721440826682095e-05,5.815714472466864e-05,1.276882591098004e-07,5.81571988043551e-05,5.8142425335279e-05
42.4226497308,96.4226497308,8,0,-1.006953244036577,18.14421072947168,-0.0978967287037526,-1.773761896449439e-05,5.886703692953863e-05,-7.831738296300208e-07,5.886903858731558e-05,5.887344148392415e-05
43.57735026920001,96.4226497308,8,0,-0.9268569139618963,18.4645960497704,-0.0953597604206371,-1.773761896449439e-05,5.98281928904348e-05,-7.628780833650968e-07,5.983006861661739e-05,5.983371684117882e-05
42.4226497308,97.57735026920001,8,0,-1.000187995281692,18.1459020416604,0.02224776640826842,-1.771732321822973e-05,5.886703692953863e-05,1.779821312661474e-07,5.886714033706275e-05,5.885118755825481e-05
43.57735026920001,97.57735026920001,8,0,-0.920091665207039,18.46628736195902,0.02478473469134327,-1.771732321822973e-05,5.982819289043447e-05,1.982778775307462e-07,5.982831963552056e-05,5.981098550581389e-05
44.4226497308,96.4226497308,8,0,-1.027284250394072,18.65728125306706,-0.08645392792482889,-1.821313460371467e-05,6.052512741012983e-05,-6.916314233986311e-07,6.052664619142755e-05,6.053009604470698e-05
45.5773502692,96.4226497308,8,0,-0.9487088706821156,18.97158277191488,-0.08385891689875172,-1.821313460371467e-05,6.14680319666733e-05,-6.708713351900137e-07,6.146944403301227e-05,6.147236405290648e-05
44.4226497308,97.57735026920001,8,0,-1.020364220991127,18.65901126041779,0.03140914164298297,-1.819237451550584e-05,6.052512741012983e-05,2.512731331438638e-07,6.05253279310593e-05,6.050706696775232e-05
45.5773502692,97.57735026920001,8,0,-0.9417888412792159,18.97331277926543,0.03400415266914146,-1.819237451550584e-05,6.146803196667276e-05,2.720332213531317e-07,6.14682642083253e-05,6.144899894049671e-05
46.42264973080001,96.4226497308,8,0,-1.040524141141897,19.16215620847388,-0.07461597625631601,-1.865940221843317e-05,6.215131918002994e-05,-5.969278100505281e-07,6.215242150266667e-05,6.21552769550645e-05
47.57735026920001,96.4226497308,8,0,-0.9635349055927493,19.47011315067047,-0.07198361631351419,-1.865940221843317e-05,6.307519000661971e-05,-5.758689305081135e-07,6.307620432901583e-05,6.307876169278435e-05
46.42264973080001,97.57735026920001,8,0,-1.033504514627777,19.16391111510241,0.04086787706739179,-1.863834333889081e-05,6.215131918002994e-05,3.269430165391343e-07,6.215164995037571e-05,6.213171841822865e-05
47.57735026920001,97.57735026920001,8,0,-0.9565152790786469,19.47186805729893,0.04350023701015296,-1.863834333889081e-05,6.307519000661949e-05,3.480018960812237e-07,6.30755605228779e-05,6.305501074604409e-05
48.4226497308,96.4226497308,8,0,-1.046508834991583,19.65849039109572,-0.06254445599469349,-1.907562058484964e-05,6.374437631949956e-05,-5.003556479575479e-07,6.374513203520645e-05,6.37477575658939e-05
49.57735026920001,96.4226497308,8,0,-0.9711438199910196,19.95995045109797,-0.05989573191891547,-1.907562058484964e-05,6.464875649950632e-05,-4.791658553513238e-07,6.464944207652961e-05,6.465200354364097e-05
48.4226497308,97.57735026920001,8,0,-1.039445570789563,19.66025620714622,0.05050306650606967,-1.905443079224358e-05,6.374437631949956e-05,4.040245320485573e-07,6.374486918544933e-05,6.372391893608045e-05
49.57735026920001,97.57735026920001,8,0,-0.9640805557890175,19.9617162671484,0.05315179058191545,-1.905443079224358e-05,6.46487564995061e-05,4.252143246553236e-07,6.464929652092359e-05,6.462811776912097e-05
50.42264973080001,96.4226497308,8,0,-1.045169691491464,20.14609122249842,-0.05040257598170705,-1.946141599077142e-05,6.530362766518812e-05,-4.032206078536564e-07,6.530410718460978e-05,6.530686743583743e-05
51.57735026920001,96.4226497308,8,0,-0.9714395983978861,20.44101159487273,-0.04775855489365703,-1.946141599077142e-05,6.618838878231104e-05,-3.820684391492562e-07,6.618881486491099e-05,6.61917428836895e-05
50.42264973080001,97.57735026920001,8,0,-1.038118968589907,20.14785390322381,0.06019256365872661,-1.944026382206675e-05,6.530362766518812e-05,4.815405092698129e-07,6.53043117244939e-05,6.528300067950119e-05
51.57735026920001,97.57735026920001,8,0,-0.9643888754963292,20.44277427559812,0.06283658474679019,-1.944026382206675e-05,6.618838878231104e-05,5.026926779743215e-07,6.618912655449236e-05,6.616797523070409e-05
52.4226497308,96.4226497308,8,0,-1.036533840020035,20.62492001228953,-0.0383536995782408,-1.981684429789573e-05,6.68289711113425e-05,-3.068295966259264e-07,6.682924274623271e-05,6.683249701177624e-05
53.5773502692,96.4226497308,8,0,-0.9644219773286755,20.91336746305496,-0.03573532450592447,-1.981684429789573e-05,6.769431346363881e-05,-2.858825960473958e-07,6.76945469442679e-05,6.769819439709105e-05
52.4226497308,97.57735026920001,8,0,-1.029551506494057,20.62666559567102,0.06981409445878549,-1.97958972973178e-05,6.68289711113425e-05,5.585127556702839e-07,6.682987135298856e-05,6.680885553570147e-05
53.5773502692,97.57735026920001,8,0,-0.9574396438027426,20.91511304643628,0.07243246953104759,-1.97958972973178e-05,6.769431346363827e-05,5.794597562483808e-07,6.769527291362706e-05,6.767479853939615e-05
54.42264973080001,96.4226497308,8,0,-1.020723647884685,21.09509188108074,-0.0265598880265825,-2.014238917809558e-05,6.83208729377661e-05,-2.1247910421266e-07,6.832100052548876e-05,6.832509751672941e-05
55.57735026920001,96.4226497308,8,0,-0.9501861507968314,21.37724186943215,-0.02398777565876243,-2.014238917809558e-05,6.916732290282034e-05,-1.919022052700994e-07,6.916742598907217e-05,6.917213130576286e-05
54.42264973080001,97.57735026920001,8,0,-1.0138646815701,21.09680662265938,0.07924635760526555,-2.012181227915182e-05,6.83208729377661e-05,6.339708608421243e-07,6.832200902349395e-05,6.830193490197639e-05
55.57735026920001,97.57735026920001,8,0,-0.9433271844822464,21.3789566110108,0.08181846997324825,-2.012181227915182e-05,6.916732290282034e-05,6.54547759785986e-07,6.916852245250041e-05,6.914936030419772e-05
56.4226497308,96.4226497308,8,0,-0.9979553413933919,21.55687435831771,-0.0151804685840116,-2.043895657911302e-05,6.978036221973139e-05,-1.214437486720928e-07,6.978040308841009e-05,6.978567607465032e-05
57.57735026920001,96.4226497308,8,0,-0.9289216250724301,21.83300922360156,-0.01267471297327608,-2.043895657911302e-05,7.060876681558293e-05,-1.013977037862086e-07,7.060879504663242e-05,7.06148777670068e-05
56.4226497308,97.57735026920001,8,0,-0.9912733264312861,21.55854486205824,0.08837010589751118,-2.04189105342267e-05,6.978036221973139e-05,7.069608471800895e-07,6.978174744698647e-05,6.976324468290698e-05
57.57735026920001,97.57735026920001,8,0,-0.9222396101103518,21.83467972734198,0.09087586150827381,-2.04189105342267e-05,7.06087668155826e-05,7.270068920661905e-07,7.061021838121717e-05,7.059298259336352e-05
58.4226497308,96.4226497308,8,0,-0.9685367993100895,22.01068467586809,-0.004370635540117129,-2.070786549848675e-05,7.120902040222594e-05,-3.496508432093703e-08,7.120902372739592e-05,7.121578612582052e-05
59.57735026920001,96.4226497308,8,0,-0.9009102409475886,22.28119090931809,-0.001950619137825664,-2.070786549848675e-05,7.202053910257595e-05,-1.560495310260531e-08,7.202053975910229e-05,7.202829660050576e-05
58.4226497308,97.57735026920001,8,0,-0.9620834222374022,22.01229802013626,0.09706920200378304,-2.068850536726869e-05,7.120902040222594e-05,7.765536160302643e-07,7.121066088369921e-05,7.119433555898561e-05
59.57735026920001,97.57735026920001,8,0,-0.8944568638749013,22.28280425358626,0.09948921840600673,-2.068850536726869e-05,7.202053910257595e-05,7.959137472480539e-07,7.202224731514767e-05,7.200752450396076e-05
60.4226497308,96.4226497308,8,0,-0.9328645424908757,22.45708578430828,0.005719909754880754,-2.095083516341742e-05,7.260896614377918e-05,4.575927803904603e-08,7.260897173889421e-05,7.261751320066277e-05
61.5773502692,96.4226497308,8,0,-0.8665233864216066,22.72245040858535,0.008035696888808258,-2.095083516341742e-05,7.340506001661041e-05,6.428557511046606e-08,7.340507096620364e-05,7.341477241433787e-05
60.4226497308,97.57735026920001,8,0,-0.9266891101341335,22.45862964239746,0.1052316438589066,-2.093230886634719e-05,7.260896614377918e-05,8.41853150871253e-07,7.261086023378717e-05,7.259728859526853e-05
61.5773502692,97.57735026920001,8,0,-0.8603479540648733,22.7239942666745,0.1075474309926851,-2.093230886634719e-05,7.34050600166103e-05,8.603794479414804e-07,7.340702169258906e-05,7.339536511229441e-05
62.42264973080001,96.4226497308,8,0,-0.8914199463070105,22.89678112338225,0.01494827630780908,-2.116996872688823e-05,7.398283555186879e-05,1.195862104624726e-07,7.398287312526507e-05,7.399345611824724e-05
63.57735026920001,96.4226497308,8,0,-0.826218425896208,23.15758720502546,0.01714240890156229,-2.116996872688823e-05,7.476525379679843e-05,1.371392712124983e-07,7.476530280687421e-05,7.477719018523192e-05
62.42264973080001,97.57735026920001,8,0,-0.8855689260571467,22.89824387844472,0.1127505569239865,-2.115241566613864e-05,7.398283555186879e-05,9.020044553918923e-07,7.398497354420887e-05,7.397469625674888e-05
63.57735026920001,97.57735026920001,8,0,-0.8203674056463441,23.15904996008793,0.1149446895177533,-2.115241566613864e-05,7.476525379679843e-05,9.195575161420264e-07,7.476745768321938e-05,7.475938186084688e-05
64.4226497308,96.4226497308,8,0,-0.8447647034584236,23.33060818066449,0.0231796577347573,-2.136773359559855e-05,7.533375794089312e-05,1.854372618780584e-07,7.533384684062447e-05,7.534670364858385e-05
65.57735026920001,96.4226497308,8,0,-0.7805343733654029,23.58752950103658,0.02523593978363445,-2.136773359559855e-05,7.610452190200936e-05,2.018875182690756e-07,7.610462644079866e-05,7.611890929913733e-05
64.4226497308,97.57735026920001,8,0,-0.8392812846612729,23.33197903536378,0.1195251528741796,-2.13512833392071e-05,7.533375794089312e-05,9.562012229934365e-07,7.533612205640308e-05,7.532963887007228e-05
65.57735026920001,97.57735026920001,8,0,-0.7750509545682434,23.5889003557359,0.1215814349231651,-2.13512833392071e-05,7.610452190200947e-05,9.726514793853211e-07,7.610694871316854e-05,7.610292438861659e-05
66.4226497308,96.4226497308,8,0,-0.7935355637568442,23.75953087288024,0.0302885659037819,-2.154693850232609e-05,7.666532724422224e-05,2.423085272302552e-07,7.66654766994165e-05,7.668080660599969e-05
67.57735026920001,96.4226497308,8,0,-0.7300868365044328,24.01332578188989,0.03219218840508538,-2.154693850232609e-05,7.742671197125117e-05,2.57537507240683e-07,7.742687950436491e-05,7.744373294649551e-05
66.4226497308,97.57735026920001,8,0,-0.788459237086629,23.7607999545478,0.1254616567823177,-2.153170952231545e-05,7.666532724422224e-05,1.003693254258541e-06,7.666789191896088e-05,7.666565650000938e-05
67.57735026920001,97.57735026920001,8,0,-0.7250105098342177,24.01459486355744,0.1273652792836482,-2.153170952231545e-05,7.742671197125117e-05,1.018922234269186e-06,7.74293347268197e-05,7.7429783700906e-05
68.42264973080002,96.4226497308,8,0,-0.7384383744442404,24.18463078240255,0.03616002961757969,-2.17107074241436e-05,7.798156920324354e-05,2.892802369406375e-07,7.798177905620848e-05,7.799974518667855e-05
69.57735026920001,96.4226497308,8,0,-0.6755622559621512,24.4361352563309,0.03789772339951028,-2.17107074241436e-05,7.87360826250286e-05,3.031817871960822e-07,7.873631140035007e-05,7.875587253605758e-05
68.42264973080002,97.57735026920001,8,0,-0.7338045243590736,24.18578924492384,0.1304742073406995,-2.169680587388811e-05,7.798156920324354e-05,1.043793658725596e-06,7.798430167991021e-05,7.798671605591042e-05
69.57735026920001,97.57735026920001,8,0,-0.6709284058769578,24.4372937188523,0.1322119011225352,-2.169680587388811e-05,7.873608262502893e-05,1.057695208980282e-06,7.873886729087486e-05,7.874415634532948e-05
70.4226497308,96.4226497308,8,0,-0.6802414396847691,24.6070972773427,0.04069076685463851,-2.186245042886542e-05,7.928690443924444e-05,3.255261348371081e-07,7.928716634647613e-05,7.930789104961141e-05
71.57735026920001,96.4226497308,8,0,-0.6177114596319147,24.85721719755412,0.04225095291861269,-2.186245042886542e-05,8.00372641998787e-05,3.380076233489016e-07,8.003754449712877e-05,8.005990632604416e-05
70.4226497308,97.57735026920001,8,0,-0.6760809435142079,24.60813740138534,0.1344857369339064,-2.184996894035373e-05,7.928690443924444e-05,1.075885895471251e-06,7.928976565512737e-05,7.929717313094256e-05
71.57735026920001,97.57735026920001,8,0,-0.6135509634614253,24.85825732159647,0.1360459229979077,-2.184996894035373e-05,8.003726419987783e-05,1.088367383983262e-06,8.004017062332466e-05,8.005060279732105e-05
72.4226497308,96.4226497308,8,0,-0.6197682113046348,25.02821653746941,0.04379034147747069,-2.200583150615036e-05,8.058610748894581e-05,3.503227318197655e-07,8.058640655157168e-05,8.060996300786384e-05
73.57735026920001,96.4226497308,8,0,-0.5573425454250645,25.27791920098769,0.04516328172209062,-2.200583150615036e-05,8.133521547950065e-05,3.613062537767249e-07,8.133553128288637e-05,8.136073053326915e-05
72.4226497308,97.57735026920001,8,0,-0.6161070373189457,25.02913183096583,0.1374288402968666,-2.199484798419329e-05,8.058610748894581e-05,1.099430722374933e-06,8.058905324334498e-05,8.06017274461933e-05
73.57735026920001,97.57735026920001,8,0,-0.5536813714393301,25.27883449448429,0.1388017805414865,-2.199484798419329e-05,8.133521547950119e-05,1.110414244331892e-06,8.13381986001842e-05,8.135399832190142e-05
74.4226497308,96.4226497308,8,0,-0.5578893150221296,25.44935950042127,0.04538231704347877,-2.214473340840783e-05,8.188426185336576e-05,3.630585363478302e-07,8.188457861865587e-05,8.191097391814021e-05
75.57735026920001,96.4226497308,8,0,-0.495313098470767,25.69966436662672,0.04656026852159185,-2.214473340840783e-05,8.263517645198211e-05,3.724821481727349e-07,8.263550748517483e-05,8.26634992767952e-05
74.4226497308,97.57735026920001,8,0,-0.5547481110804036,25.4501448014067,0.13924664187063,-2.213530979658265e-05,8.188426185336576e-05,1.11397313496504e-06,8.188724422617202e-05,8.190536949438609e-05
75.57735026920001,97.57735026920001,8,0,-0.492171894529041,25.70044966761215,0.1404245933486889,-2.213530979658265e-05,8.263517645198211e-05,1.123396746789511e-06,8.263818775799019e-05,8.265947267579904e-05
76.42264973080002,96.4226497308,8,0,-0.4955139078047717,25.87196873375102,0.04540542122792438,-2.228321949197608e-05,8.318671107424708e-05,3.632433698233951e-07,8.318702383010494e-05,8.321616375368059e-05
77.57735026920001,96.4226497308,8,0,-0.4325217401706958,26.12393740428733,0.04638279716694962,-2.228321949197608e-05,8.394261708585598e-05,3.710623773355969e-07,8.394294112865078e-05,8.397354582547912e-05
76.42264973080002,97.57735026920001,8,0,-0.4929075719677511,25.87262031771028,0.1398936726790105,-2.227540048446502e-05,8.318671107424708e-05,1.119149381432084e-06,8.318968005538175e-05,8.321331337611326e-05
77.57735026920001,97.57735026920001,8,0,-0.4299154043337206,26.1245889882464,0.1408710486179273,-2.227540048446502e-05,8.394261708585544e-05,1.126968388943418e-06,8.394560627271322e-05,8.397233112732267e-05
78.4226497308,96.4226497308,8,0,-0.4335803532111138,26.29754422895628,0.04381473424931714,-2.242549251344058e-05,8.449900581522897e-05,3.505178739945372e-07,8.449929307972828e-05,8.453090852041328e-05
79.57735026920001,96.4226497308,8,0,-0.3698989977225207,26.55226965091065,0.04458827490909335,-2.242549251344058e-05,8.526318208109209e-05,3.567061992727468e-07,8.526347746722269e-05,8.529626964948311e-05
78.4226497308,97.57735026920001,8,0,-0.4315175781182319,26.2980599227295,0.1393367674821936,-2.241930418816194e-05,8.449900581522897e-05,1.114694139857549e-06,8.45019110923112e-05,8.453090549619851e-05
79.57735026920001,97.57735026920001,8,0,-0.3678362226296388,26.55278534468387,0.1401103081419427,-2.241930418816194e-05,8.526318208109209e-05,1.120882465135541e-06,8.526609885872652e-05,8.52979413006285e-05
80.4226497308,96.4226497308,8,0,-0.3730461932873865,26.72762810455114,0.04058291343249527,-2.257585030216054e-05,8.582684688919354e-05,3.246633074599622e-07,8.582708997822538e-05,8.586058374484498e-05
81.57735026920001,96.4226497308,8,0,-0.3083974742562701,26.9862229806756,0.04115186947174602,-2.257585030216054e-05,8.660263151756694e-05,3.292149557739682e-07,8.660287969431142e-05,8.663695739579655e-05
80.4226497308,97.57735026920001,8,0,-0.3715289771829342,26.72800740857725,0.1375559919792788,-2.257129865384719e-05,8.582684688919354e-05,1.10044793583423e-06,8.582963972862269e-05,8.586348785346595e-05
81.57735026920001,97.57735026920001,8,0,-0.3068802581518444,26.98660228470161,0.1381249480184076,-2.257129865384719e-05,8.660263151756662e-05,1.104999584147261e-06,8.660542749827605e-05,8.664155396549895e-05
82.4226497308,96.4226497308,8,0,-0.314877388532607,27.16378819727019,0.03570146360141991,-2.273863820112049e-05,8.717602414209068e-05,2.856117088113593e-07,8.717620968128257e-05,8.721033877728379e-05
83.57735026920001,96.4226497308,8,0,-0.2489812923181027,27.4273725821282,0.03606779394433831,-2.273863820112049e-05,8.796677729666473e-05,2.885423515547065e-07,8.796696531038309e-05,8.800047219273603e-05
82.4226497308,97.57735026920001,8,0,-0.3139005076183929,27.16403241749874,0.1345456079233117,-2.273570755837785e-05,8.717602414209068e-05,1.076364863386494e-06,8.717865928741422e-05,8.721617216399806e-05
83.57735026920001,97.57735026920001,8,0,-0.2480044114038886,27.42761680235676,0.1349119382661624,-2.273570755837785e-05,8.796677729666473e-05,1.079295506129299e-06,8.79694078860121e-05,8.800799216528512e-05
84.42264973080002,96.4226497308,8,0,-0.2600367923870364,27.60760051455358,0.02918205926975533,-2.291819814728138e-05,8.855235108048108e-05,2.334564741580426e-07,8.855247331425929e-05,8.858469185588555e-05
85.57735026920001,96.4226497308,8,0,-0.1926147778488509,27.87728857270632,0.02935064452709525,-2.291819814728138e-05,8.936141525493931e-05,2.34805156216762e-07,8.936153801409263e-05,8.939067624300643e-05
84.42264973080002,97.57735026920001,8,0,-0.259587231700543,27.6077129047252,0.130315081076993,-2.29168494652219e-05,8.855235108048108e-05,1.042520648615944e-06,8.855478858234663e-05,8.859343474098222e-05
85.57735026920001,97.57735026920001,8,0,-0.1921652171623665,27.87740096287791,0.1304836663343465,-2.29168494652219e-05,8.93614152549392e-05,1.043869330674772e-06,8.936384145834639e-05,8.940107360148165e-05
86.4226497308,96.4226497308,8,0,-0.2094718244206266,28.06063051848749,0.02105791964515961,-2.3118814252936e-05,8.996159511869646e-05,1.684633571612769e-07,8.996165786141007e-05,8.998676049672065e-05
87.57735026920002,96.4226497308,8,0,-0.1402503488310565,28.33751642084577,0.02103679093322039,-2.3118814252936e-05,9.07922528257713e-05,1.682943274657631e-07,9.079231498602914e-05,9.080930857640811e-05
86.4226497308,97.57735026920001,8,0,-0.2095281676528078,28.06061643267945,0.1248901330297317,-2.311898328263254e-05,8.996159511869646e-05,9.991210642378533e-07,8.99638020038967e-05,8.999834663440072e-05
87.57735026920002,97.57735026920001,8,0,-0.1403066920632021,28.33750233503787,0.1248690043176162,-2.311898328263254e-05,9.079225282577173e-05,9.9895203454093e-07,9.079444287746483e-05,9.082248804589633e-05
88.42264973080002,96.4226497308,8,0,-0.1641013076646756,28.52441321227234,0.01138523127440809,-2.334465475434483e-05,9.140940332540322e-05,9.108185019526469e-08,9.140942139862492e-05,9.141674523484064e-05
89.57735026920001,96.4226497308,8,0,-0.09281557317258482,28.8095561502407,0.01118581281664118,-2.334465475434483e-05,9.22648321393083e-05,8.948650253312943e-08,9.226484945586499e-05,9.225374496844128e-05
88.42264973080002,97.57735026920001,8,0,-0.1646330902187563,28.52428026663382,0.1183138330124894,-2.334625010200707e-05,9.140940332540322e-05,9.465106640999151e-07,9.141135500964319e-05,9.143105691341062e-05
89.57735026920001,97.57735026920001,8,0,-0.09334735572669306,28.80942320460207,0.1181144145547225,-2.334625010200707e-05,9.226483213930798e-05,9.449153164377798e-07,9.226676285829102e-05,9.226955656793938e-05
90.42264973080002,96.4226497308,8,0,-0.1248014410437746,29.00043200598681,0.0002446058550614793,-2.359971021612952e-05,9.290122357199278e-05,1.956846840491834e-09,9.290122358020999e-05,9.28688797181303e-05
91.57735026920001,96.4226497308,8,0,-0.05119936489662447,29.29484031057541,-0.0001180319213406941,-2.359971021612952e-05,9.378444848575859e-05,-9.442553707255524e-10,9.378444848765752e-05,9.371245937425268e-05
90.42264973080002,97.57735026920001,8,0,-0.1257684751143247,29.00019024746917,0.11064772007576,-2.360261131834117e-05,9.290122357199278e-05,8.851817606060804e-07,9.29029049231738e-05,9.288574179049726e-05
91.57735026920001,97.57735026920001,8,0,-0.05216639896717457,29.29459855205777,0.1102850822993985,-2.360261131834117e-05,9.378444848575859e-05,8.822806583951882e-07,9.378610626679622e-05,9.373069147094128e-05
92.42264973080002,96.4226497308,8,0,-0.0923908883112512,29.49009634966221,-0.0122574475289926,-2.388772792232577e-05,9.444222102956805e-05,-9.805958023194079e-08,9.444224134496519e-05,9.43252254828087e-05
93.57735026920001,96.4226497308,8,0,-0.01623729699282705,29.7947107149359,-0.01276432955972593,-2.388772792232577e-05,9.535606412538913e-05,-1.021146364778075e-07,9.535608598689843e-05,9.515575396848874e-05
92.42264973080002,97.57735026920001,8,0,-0.09374257372666683,29.48975842830835,0.1019729394486973,-2.389178297857201e-05,9.444222102956805e-05,8.157835155895785e-07,9.444362699660794e-05,9.434439729327681e-05
93.57735026920001,97.57735026920001,8,0,-0.01758898240821605,29.79437279358216,0.1014660574179369,-2.389178297857201e-05,9.535606412538946e-05,8.117284593434949e-07,9.535744548252739e-05,9.517612310042563e-05
94.4226497308,96.4226497308,8,0,-0.06761498074376426,29.99471813922774,-0.02598706555868369,-2.421214244976224e-05,9.603719003012379e-05,-2.078965244694695e-07,9.603727988703129e-05,9.574296965504656e-05
95.57735026920002,96.4226497308,8,0,0.01130397611806799,30.31039396667507,-0.02661505551917272,-2.421214244976224e-05,9.698421751246577e-05,-2.129204441533817e-07,9.69843110282293e-05,9.651674426011213e-05
94.4226497308,97.57735026920001,8,0,-0.06928962063863686,29.99429947925402,0.09239136973413159,-2.421716636944685e-05,9.603719003012379e-05,7.391309578730527e-07,9.603832576738447e-05,9.576413246689867e-05
95.57735026920002,97.57735026920001,8,0,0.009629336223195395,30.30997530670135,0.09176337977364257,-2.421716636944685e-05,9.698421751246577e-05,7.341070381891406e-07,9.698532910909873e-05,9.653887812434889e-05
96.4226497308,96.4226497308,8,0,-0.05112905256112477,30.51548692525538,-0.04078162858778787,-2.45760025083999e-05,9.76904614028661e-05,-3.26253028702303e-07,9.769067904400387e-05,9.702833914552738e-05
97.57735026920001,96.4226497308,8,0,0.03074317317616782,30.84297582820455,-0.04150318329775807,-2.45760025083999e-05,9.867292811171363e-05,-3.320254663820646e-07,9.867315172564229e-05,9.765226776036808e-05
96.4226497308,97.57735026920001,8,0,-0.05305319845414402,30.51500588878213,0.08202671001813913,-2.458177494607896e-05,9.76904614028661e-05,6.562136801451131e-07,9.769134184250264e-05,9.705107413876827e-05
97.57735026920001,97.57735026920001,8,0,0.02881902728318586,30.84249479173145,0.08130515530822315,-2.458177494607896e-05,9.867292811171406e-05,6.504412424657852e-07,9.867378623488077e-05,9.767567401620559e-05
98.42264973080002,96.4226497308,8,0,-0.04348095576816746,31.05344398596038,-0.05644846245128458,-2.498189424722644e-05,9.940580551968774e-05,-4.515876996102767e-07,9.940621538894903e-05,9.79829402963186e-05
99.57735026920002,96.4226497308,8,0,0.04150167802686155,31.39337452114049,-0.05723140857803949,-2.498189424722644e-05,0.0001004255971252281,-4.578512686243159e-07,0.0001004260150171007,9.826242585040076e-05
98.42264973080002,97.57735026920001,8,0,-0.04556881210616304,31.05292202187588,0.07102548824137979,-2.498815781624042e-05,9.940580551968774e-05,5.682039059310383e-07,9.940645437351073e-05,9.80066871284724e-05
99.57735026920002,97.57735026920001,8,0,0.03941382168887486,31.39285255705603,0.07024254211461133,-2.498815781624042e-05,0.0001004255971252282,5.619403369168906e-07,0.0001004262265923817,9.828643189175797e-05
0.4226497308,98.42264973080002,8,0,-0.03376746959589982,7.347525326759516,-0.05030295028473275,-5.986076164114491e-06,2.353909502130717e-05,-4.02423602277862e-07,2.354046620078417e-05,2.521312734728588e-05
1.5773502692,98.42264973080002,8,0,0.03037448921231189,7.604093161992362,-0.05056724283892383,-5.986076164114491e-06,2.430879852700571e-05,-4.045379427113907e-07,2.431014895058549e-05,2.54472626727084e-05
0.4226497308,99.57735026920001,8,0,-0.03447224974049967,7.347349131723366,0.04590998792757114,-5.988190504548291e-06,2.353909502130717e-05,3.672799034205691e-07,2.354023709471256e-05,2.522117472320903e-05
1.5773502692,99.57735026920001,8,0,0.02966970906771205,7.603916966956213,0.04564569537342071,-5.988190504548291e-06,2.430879852700571e-05,3.651655629873657e-07,2.430989880998896e-05,2.545521466387037e-05
2.4226497308,98.42264973080002,8,0,-0.04455679825699344,7.765747032453945,-0.05717930693928093,-6.355179380385535e-06,2.488603594245822e-05,-4.574344555142475e-07,2.48877102936728e-05,2.573296157390014e-05
3.5773502692,98.42264973080002,8,0,0.02272140519440091,8.034859846259524,-0.05742257292062804,-6.355179380385535e-06,2.569337438387495e-05,-4.593805833650244e-07,2.569502047751328e-05,2.627937016223325e-05
2.4226497308,99.57735026920001,8,0,-0.04520550754065811,7.765584855133165,0.04373799823774276,-6.357125508236637e-06,2.488603594245865e-05,3.49903985901942e-07,2.48870155885223e-05,2.574078748278778e-05
3.5773502692,99.57735026920001,8,0,0.02207269591064565,8.03469766893838,0.0434947322564363,-6.357125508236637e-06,2.56933743838743e-05,3.479578580514904e-07,2.569431876152824e-05,2.628694699270264e-05
4.422649730800001,98.42264973080002,8,0,-0.06407240409335024,8.201942607089315,-0.06369404495653219,-6.766585778770172e-06,2.629747426596048e-05,-5.095523596522575e-07,2.629943733547091e-05,2.674125690710389e-05
5.577350269200001,98.42264973080002,8,0,0.006185356686709387,8.482973650209553,-0.06390497021332563,-6.766585778770172e-06,2.71405673953212e-05,-5.11239761706605e-07,2.714249435775204e-05,2.745674637315365e-05
4.422649730800001,99.57735026920001,8,0,-0.06463487144472735,8.201801990251605,0.04169259621355711,-6.768273180824411e-06,2.629747426596092e-05,3.335407697084569e-07,2.629831536758299e-05,2.674861047815758e-05
5.577350269200001,99.57735026920001,8,0,0.005622889335278103,8.482833033371627,0.04148167095675012,-6.768273180824411e-06,2.714056739532098e-05,3.31853367654001e-07,2.71413793076346e-05,2.746373906655859e-05
6.422649730800001,98.42264973080002,8,0,-0.09173411592434144,8.655194724903128,-0.06976151232975913,-7.217704950880394e-06,2.777001041242948e-05,-5.58092098638073e-07,2.777223581481475e-05,2.801645532822776e-05
7.577350269200001,98.42264973080002,8,0,-0.01868601809727677,8.947387116211386,-0.06993043824773135,-7.217704950880394e-06,2.864658758635426e-05,-5.594435059818508e-07,2.864876912945551e-05,2.883011916495676e-05
6.422649730800001,99.57735026920001,8,0,-0.09218458503888005,8.655082107624493,0.03981063441074349,-7.219056358224009e-06,2.777001041242948e-05,3.184850752859479e-07,2.77707351434069e-05,2.802315389689711e-05
7.577350269200001,99.57735026920001,8,0,-0.01913648721177008,8.947274498932932,0.03964170849278482,-7.219056358224009e-06,2.86465875863548e-05,3.171336679422786e-07,2.864728861794451e-05,2.883637504755345e-05
8.4226497308,98.42264973080002,8,0,-0.1268531351673072,9.124408963727104,-0.07530942985257863,-7.705457203517065e-06,2.929959119206058e-05,-6.02475438820629e-07,2.930204323995649e-05,2.944854276625982e-05
9.5773502692,98.42264973080002,8,0,-0.05123131396179881,9.426896248549138,-0.07542828267327097,-7.705457203517065e-06,3.020705304652668e-05,-6.034262613861677e-07,3.020945397034304e-05,3.032444362896234e-05
8.4226497308,99.57735026920001,8,0,-0.127170076022288,9.124329728513358,0.03812330195561604,-7.706408026082008e-06,2.929959119206058e-05,3.049864156449283e-07,2.930021957081168e-05,2.945445307845858e-05
9.5773502692,99.57735026920001,8,0,-0.05154825481680669,9.426817013335283,0.03800444913501858,-7.706408026082008e-06,3.020705304652635e-05,3.040355930801486e-07,3.020766256721625e-05,3.032985251134897e-05
10.4226497308,98.42264973080002,8,0,-0.1686505600353922,9.608342299122313,-0.08027838007489108,-8.226355631411105e-06,3.088161580521971e-05,-6.422270405991286e-07,3.088425227390282e-05,3.098145139190502e-05
11.5773502692,98.42264973080002,8,0,-0.09069407043084743,9.920168257540492,-0.08034058815059077,-8.226355631411105e-06,3.181709368047425e-05,-6.427247052047261e-07,3.181967255699065e-05,3.190052911860537e-05
10.4226497308,99.57735026920001,8,0,-0.1688164482374748,9.608300827071659,0.0366563543321291,-8.226853296017245e-06,3.088161580521928e-05,2.932508346570328e-07,3.08821655253006e-05,3.098647849483681e-05
11.5773502692,99.57735026920001,8,0,-0.09085995863284912,9.920126785490162,0.03659414625630745,-8.226853296017245e-06,3.181709368047479e-05,2.927531700504596e-07,3.181762873807962e-05,3.190501461048136e-05
12.4226497308,98.42264973080002,8,0,-0.2162750784251388,10.10563055034406,-0.08462122026646587,-8.776584691235693e-06,3.251103782384111e-05,-6.76969762131727e-07,3.251381260980101e-05,3.25851398455392e-05
13.5773502692,98.42264973080002,8,0,-0.1362406799153875,10.42576814438307,-0.0846216242085773,-8.776584691235693e-06,3.347145060595812e-05,-6.769729936686184e-07,3.347416234756198e-05,3.353645340830826e-05
12.4226497308,99.57735026920001,8,0,-0.2162761556038859,10.10563028104938,0.03543037749818845,-8.776587922771934e-06,3.251103782384111e-05,2.834430199855076e-07,3.251152428314674e-05,3.258921974012492e-05
13.5773502692,99.57735026920001,8,0,-0.1362417570941075,10.42576787508849,0.03542997355617189,-8.776587922771934e-06,3.347145060595845e-05,2.834397884493751e-07,3.34719259961333e-05,3.353996680154531e-05
14.4226497308,98.42264973080002,8,0,-0.2688197509111321,10.6148146303013,-0.08830244697146912,-9.352074907156664e-06,3.418246261769307e-05,-7.06419575771753e-07,3.418532813436478e-05,3.424208226905606e-05
15.5773502692,98.42264973080002,8,0,-0.1869774043429007,10.94218401657423,-0.08823720681480834,-9.352074907156664e-06,3.516457077651185e-05,-7.058976545184668e-07,3.516736894432093e-05,3.521858260521892e-05
14.4226497308,99.57735026920001,8,0,-0.268645777160073,10.61485812373907,0.03446107288066066,-9.351552985903486e-06,3.418246261769307e-05,2.756885830452853e-07,3.418289907773345e-05,3.42451764953567e-05
15.5773502692,99.57735026920001,8,0,-0.1868034305918869,10.94222751001181,0.03452631303736209,-9.351552985903486e-06,3.51645707765113e-05,2.762105042988967e-07,3.516499922525057e-05,3.522109814750103e-05
16.4226497308,98.42264973080002,8,0,-0.3253378412462471,11.1343655016609,-0.09129753496522203,-9.948573493316713e-06,3.589023987831189e-05,-7.303802797217762e-07,3.589314910228299e-05,3.594075135388277e-05
17.5773502692,98.42264973080002,8,0,-0.2419664498406564,11.46785106728327,-0.09116403758558093,-9.948573493316713e-06,3.689069657517897e-05,-7.293123006846475e-07,3.689353534805389e-05,3.693725273079185e-05
16.4226497308,99.57735026920001,8,0,-0.3249818482342683,11.1344544999139,0.03375955214327247,-9.947505514280777e-06,3.589023987831189e-05,2.700764171461797e-07,3.589063769804228e-05,3.59428426803436e-05
17.5773502692,99.57735026920001,8,0,-0.2416104568286506,11.46794006553637,0.03389304952276448,-9.947505514280777e-06,3.68906965751793e-05,2.711443961821158e-07,3.689108898278872e-05,3.693876376209407e-05
18.4226497308,98.42264973080002,8,0,-0.3848576801958283,11.66270778251645,-0.09359226841836456,-1.056171080263981e-05,3.762855104820929e-05,-7.487381473469164e-07,3.763145918235707e-05,3.767249482725753e-05
19.5773502692,98.42264973080002,8,0,-0.300241079185033,12.00117418655963,-0.09338903753652059,-1.056171080263981e-05,3.864395026033883e-05,-7.471123002921647e-07,3.864678603477374e-05,3.868471221384157e-05
18.4226497308,99.57735026920001,8,0,-0.3843157311777223,11.66284326977097,0.03333263309780125,-1.056008495558549e-05,3.762855104820929e-05,2.6666106478241e-07,3.762891995042884e-05,3.767358367500324e-05
19.5773502692,99.57735026920001,8,0,-0.2996991301668999,12.00130967381426,0.03353586397963167,-1.056008495558549e-05,3.864395026033916e-05,2.682869118370533e-07,3.864431596882107e-05,3.868522792981934e-05
20.4226497308,98.42264973080002,8,0,-0.4463965694708496,12.19824197726387,-0.09518207714023524,-1.118706260411781e-05,3.939149158282106e-05,-7.61456617121882e-07,3.939435733955745e-05,3.94300570465577e-05
21.5773502692,98.42264973080002,8,0,-0.3608197643262576,12.54054919784224,-0.09490868739994567,-1.118706260411781e-05,4.041841324455616e-05,-7.592694991995653e-07,4.042120586960184e-05,4.045415961219962e-05
20.4226497308,99.57735026920001,8,0,-0.4456675301633384,12.19842423709075,0.03318313057659858,-1.118487548619528e-05,3.939149158282106e-05,2.654650446127886e-07,3.939183992340298e-05,3.943015848124731e-05
21.5773502692,99.57735026920001,8,0,-0.3600907250187917,12.54073145766893,0.03345652031691528,-1.118487548619528e-05,4.041841324455562e-05,2.676521625353222e-07,4.041876030188508e-05,4.045370234112927e-05
22.4226497308,98.42264973080002,8,0,-0.5089737463531834,12.7393653317006,-0.09607138618181731,-1.182020825369066e-05,4.117314805852446e-05,-7.685710894545384e-07,4.117593458924093e-05,4.120689684243494e-05
23.5773502692,98.42264973080002,8,0,-0.4227193966569862,13.08438273048539,-0.09572838203142538,-1.182020825369066e-05,4.220820025487883e-05,-7.65827056251403e-07,4.221091392737169e-05,4.2239310634632e-05
22.4226497308,99.57735026920001,8,0,-0.5080590686187145,12.73959400113422,0.03331013836245164,-1.181746422048726e-05,4.117314805852446e-05,2.664811068996131e-07,4.117348307886262e-05,4.120603804720258e-05
23.5773502692,99.57735026920001,8,0,-0.4218047189224903,13.08461139991911,0.03365314251287067,-1.181746422048726e-05,4.220820025487915e-05,2.692251401029654e-07,4.220853565901894e-05,4.22379135607485e-05
24.4226497308,98.42264973080002,8,0,-0.5716224370965399,13.28449132661941,-0.09627298302962092,-1.245678486000445e-05,4.296767019485934e-05,-7.701838642369674e-07,4.2970345704031e-05,4.299688952671925e-05
25.5773502692,98.42264973080002,8,0,-0.4849675815480641,13.63111074881331,-0.09586180249274992,-1.245678486000445e-05,4.400752846144104e-05,-7.668944199419993e-07,4.401013231818021e-05,4.403421975853429e-05
24.4226497308,99.57735026920001,8,0,-0.570525955664956,13.28476544697731,0.03370930029317383,-1.24534954157097e-05,4.296767019485934e-05,2.696744023453906e-07,4.296799824575835e-05,4.299510769806515e-05
25.5773502692,99.57735026920001,8,0,-0.4838711001164713,13.63138486917124,0.03412048083000419,-1.24534954157097e-05,4.400752846144115e-05,2.729638466400335e-07,4.400785837410075e-05,4.403192503894957e-05
26.4226497308,98.42264973080002,8,0,-0.6334010293150718,13.83206783224059,-0.0958074032724192,-1.30925375596007e-05,4.476933788662195e-05,-7.664592261793536e-07,4.47718759739779e-05,4.479421305744704e-05
27.57735026920001,98.42264973080002,8,0,-0.5466140469162282,14.17921576183597,-0.09533030619724792,-1.30925375596007e-05,4.581078167540807e-05,-7.626424495779834e-07,4.581325012345357e-05,4.583322313176179e-05
26.4226497308,99.57735026920001,8,0,-0.6321287704482375,13.83238589695757,0.03437307032592724,-1.308872078300042e-05,4.476933788662282e-05,2.749845626074179e-07,4.476966461761068e-05,4.47915536734716e-05
27.57735026920001,99.57735026920001,8,0,-0.5453417880494573,14.17953382655269,0.0348501674009901,-1.308872078300042e-05,4.581078167540818e-05,2.788013392079208e-07,4.581111160073902e-05,4.583008035707374e-05
28.4226497308,98.42264973080002,8,0,-0.6934033915372391,14.38059394804826,-0.09470233303460131,-1.372336601135777e-05,4.657262334698421e-05,-7.576186642768105e-07,4.657500312129948e-05,4.659332131050365e-05
29.5773502692,98.42264973080002,8,0,-0.6067411944230399,14.72724273650505,-0.09416233305649152,-1.372336601135777e-05,4.761256971235459e-05,-7.532986644519322e-07,4.76148825387365e-05,4.763093807934051e-05
28.4226497308,99.57735026920001,8,0,-0.6919633915955954,14.38095394803367,0.03529096263669724,-1.371904601153284e-05,4.657262334698421e-05,2.823277010935779e-07,4.657295385903795e-05,4.658983672186242e-05
29.5773502692,99.57735026920001,8,0,-0.6053011944813149,14.72760273649079,0.03583096261480703,-1.371904601153284e-05,4.761256971235557e-05,2.866477009184562e-07,4.761290463935353e-05,4.762700302832501e-05
30.4226497308,98.42264973080002,8,0,-0.7507683630543438,14.92863555030818,-0.09299202470241358,-1.434536720202044e-05,4.837224845142965e-05,-7.439361976193087e-07,4.837445445684983e-05,4.838895737541264e-05
31.5773502692,98.42264973080002,8,0,-0.6644738174462077,15.27381373274073,-0.09239282394700747,-1.434536720202044e-05,4.940778299872728e-05,-7.391425915760598e-07,4.940992529840647e-05,4.942228783665047e-05
30.4226497308,99.57735026920001,8,0,-0.7491704943731889,14.92903501747847,0.03644979370978976,-1.434057359597698e-05,4.837224845142965e-05,2.915983496783181e-07,4.837258741376295e-05,4.838470566963205e-05
31.5773502692,99.57735026920001,8,0,-0.662875948765044,15.27421319991105,0.03704899446526363,-1.434057359597698e-05,4.940778299872739e-05,2.963919557221091e-07,4.940812750845816e-05,4.941762147633744e-05
32.4226497308,98.42264973080002,8,0,-0.8046884303972437,15.47483956420593,-0.09071672146262295,-1.495487462863592e-05,5.016323734977676e-05,-7.257337717009836e-07,5.01652593415759e-05,5.017618403127195e-05
33.57735026920001,98.42264973080002,8,0,-0.7189880035093665,15.81764127175744,-0.0900626469461642,-1.495487462863592e-05,5.119164247243129e-05,-7.205011755693136e-07,5.119360442965006e-05,5.120253627746043e-05
32.4226497308,99.57735026920001,8,0,-0.8029442316868858,15.47527561388352,0.03783391886932885,-1.494964203250485e-05,5.016323734977676e-05,3.026713509546308e-07,5.016358908300024e-05,5.017122812253882e-05
33.57735026920001,99.57735026920001,8,0,-0.7172438047989269,15.81807732143535,0.03848799338566564,-1.494964203250485e-05,5.119164247243226e-05,3.079039470853251e-07,5.119200081264182e-05,5.119720396226473e-05
34.42264973080001,98.42264973080002,8,0,-0.8544175992674514,16.01794697049771,-0.08792208587828847,-1.554849389405401e-05,5.194096438500663e-05,-7.033766870263077e-07,5.194279698724832e-05,5.195042030655743e-05
35.5773502692,98.42264973080002,8,0,-0.769519231449812,16.35754044176827,-0.08721802660211733,-1.554849389405401e-05,5.295974479881831e-05,-6.977442128169387e-07,5.296152135289134e-05,5.296732522611815e-05
34.42264973080001,99.57735026920001,8,0,-0.8525401078641117,16.01841634334882,0.0394254658480633,-1.554286141984421e-05,5.19409643850075e-05,3.154037267845064e-07,5.194133291393436e-05,5.194482720605972e-05
35.5773502692,99.57735026920001,8,0,-0.7676417400465345,16.35800981461913,0.0401295251243293,-1.554286141984421e-05,5.295974479881842e-05,3.210362009946344e-07,5.296012092931236e-05,5.296139605338803e-05
36.4226497308,98.42264973080002,8,0,-0.8992784635344995,16.55680454904998,-0.084658628027247,-1.612313472255038e-05,5.370119732778754e-05,-6.77269024217976e-07,5.370283960108057e-05,5.370747871324251e-05
37.5773502692,98.42264973080002,8,0,-0.8153696662997074,16.89243973798915,-0.083909971898796,-1.612313472255038e-05,5.470810289460505e-05,-6.712797751903679e-07,5.470969331725599e-05,5.471271072599076e-05
36.4226497308,99.57735026920001,8,0,-0.8972820471920899,16.55730365313559,0.04120456782502266,-1.611714547352316e-05,5.370119732778754e-05,3.296365426001813e-07,5.370158640764938e-05,5.370131893926045e-05
37.5773502692,99.57735026920001,8,0,-0.813373249957289,16.89293884207479,0.04195322395348722,-1.611714547352316e-05,5.470810289460515e-05,3.356257916278978e-07,5.470850050718759e-05,5.47062570099045e-05
38.4226497308,98.42264973080002,8,0,-0.9386684667112259,17.09037535469201,-0.08098112949734745,-1.667603937722953e-05,5.544013590838342e-05,-6.478490359787797e-07,5.544159085210552e-05,5.544360049430898e-05
39.5773502692,98.42264973080002,8,0,-0.8559146484007467,17.42139062793393,-0.08019369941853741,-1.667603937722953e-05,5.643318172810917e-05,-6.415495953482992e-07,5.64345891359364e-05,5.643519646342322e-05
38.4226497308,99.57735026920001,8,0,-0.9365686531676243,17.09090030807792,0.04314959796837114,-1.666973993659873e-05,5.544013590838342e-05,3.451967837469691e-07,5.544054902841532e-05,5.543694758605155e-05
39.5773502692,99.57735026920001,8,0,-0.8538148348570642,17.42191558132016,0.04393702804719474,-1.666973993659873e-05,5.643318172811015e-05,3.51496224377558e-07,5.643360424501801e-05,5.642829329413791e-05
40.4226497308,98.42264973080002,8,0,-0.9720653467186855,17.61774791523173,-0.07694806063472193,-1.720480744168518e-05,5.715444560611647e-05,-6.155844850777754e-07,5.715571961624409e-05,5.715548755098655e-05
41.5773502692,98.42264973080002,8,0,-0.8906083683238712,17.94357582881099,-0.07612804933513663,-1.720480744168518e-05,5.813192934685425e-05,-6.09024394681093e-07,5.813316016952268e-05,5.813176342941801e-05
40.4226497308,99.57735026920001,8,0,-0.9698786499197913,17.61829458943145,0.04523740695748643,-1.719824735128849e-05,5.715444560611647e-05,3.618992556598914e-07,5.715488597448223e-05,5.714841765519261e-05
41.5773502692,99.57735026920001,8,0,-0.8884216715250313,17.94412250301049,0.04605741825707173,-1.719824735128849e-05,5.81319293468536e-05,3.684593460565738e-07,5.813237990161017e-05,5.812448828935944e-05
42.4226497308,98.42264973080002,8,0,-0.9990317520724066,18.13814413780845,-0.07262098972179802,-1.770741691687846e-05,5.884128664264496e-05,-5.809679177743842e-07,5.884238894368182e-05,5.88403303584679e-05
43.57735026920001,98.42264973080002,8,0,-0.9189887160583687,18.4583162818646,-0.07177489317894013,-1.770741691687846e-05,5.980180307481341e-05,-5.741991454315211e-07,5.980286649712363e-05,5.979989533084607e-05
42.4226497308,99.57735026920001,8,0,-0.9967754946245329,18.13870820217042,0.04744356429909561,-1.770064814453484e-05,5.884128664264496e-05,3.795485143927649e-07,5.884175715658496e-05,5.883292186269018e-05
43.57735026920001,99.57735026920001,8,0,-0.9167324586104861,18.45888034622661,0.04828966084207548,-1.770064814453484e-05,5.980180307481352e-05,3.863172867366038e-07,5.980228447932616e-05,5.979232774473279e-05
44.4226497308,98.42264973080002,8,0,-1.019219016972922,18.65092590833913,-0.06806398409315673,-1.818224158098465e-05,6.049833812026353e-05,-5.445118727452538e-07,6.049928018764129e-05,6.049583149370686e-05
45.5773502692,98.42264973080002,8,0,-0.9406812918615861,18.96507680878447,-0.06719853362646688,-1.818224158098465e-05,6.144079082159957e-05,-5.375882690117351e-07,6.144169821561862e-05,6.143759947716976e-05
44.4226497308,99.57735026920001,8,0,-1.016911149061532,18.65150287531698,0.04974260357380657,-1.817531797725048e-05,6.049833812026353e-05,3.979408285904526e-07,6.049884132520549e-05,6.048816468472091e-05
45.5773502692,99.57735026920001,8,0,-0.9383734239502504,18.9656537757621,0.05060805404052352,-1.817531797725048e-05,6.144079082159892e-05,4.048644323241882e-07,6.144130552318181e-05,6.142982067658994e-05
46.42264973080001,98.42264973080002,8,0,-1.032370084125964,19.15560036963992,-0.0633430044576981,-1.862806456491502e-05,6.21238172501485e-05,-5.067440356615847e-07,6.212461223778186e-05,6.212022455911663e-05
47.57735026920001,98.42264973080002,8,0,-0.9554025670879938,19.4634704377918,-0.06246509780766599,-1.862806456491502e-05,6.304742745460415e-05,-4.997207824613279e-07,6.304819181646244e-05,6.304342298213276e-05
46.42264973080001,99.57735026920001,8,0,-1.030028999725969,19.15618564073992,0.05210827109923154,-1.862104131171503e-05,6.21238172501485e-05,4.168661687938523e-07,6.212435529135579e-05,6.211238128888208e-05
47.57735026920001,99.57735026920001,8,0,-0.9530614826879891,19.46405570889184,0.05298617774922298,-1.862104131171503e-05,6.304742745460426e-05,4.238894219937839e-07,6.304797748644229e-05,6.303551556911978e-05
48.4226497308,98.42264973080002,8,0,-1.03832156718807,19.65182386681032,-0.05852529476945236,-1.904408810845008e-05,6.371649362754347e-05,-4.682023581556189e-07,6.371715581384528e-05,6.371228837461144e-05
49.57735026920001,98.42264973080002,8,0,-0.9629621860448561,19.95326139138318,-0.05764192664370685,-1.904408810845008e-05,6.462080620126204e-05,-4.611354131496548e-07,6.462144160592029e-05,6.461646418734924e-05
48.4226497308,99.57735026920001,8,0,-1.035965918852567,19.6524127788942,0.05451377694544977,-1.903702116344357e-05,6.371649362754347e-05,4.361102155635982e-07,6.371706819769943e-05,6.370435171956962e-05
49.57735026920001,99.57735026920001,8,0,-0.9606065377093715,19.95385030346698,0.05539714507116818,-1.903702116344357e-05,6.462080620126182e-05,4.431771605693455e-07,6.462139312965782e-05,6.460851178437733e-05
50.42264973080001,98.42264973080002,8,0,-1.037004949182803,20.13940455321585,-0.05367877081198513,-1.942993947995765e-05,6.527569852963697e-05,-4.294301664958811e-07,6.527624279412553e-05,6.527135636671703e-05
51.57735026920001,98.42264973080002,8,0,-0.9632644041022838,20.43436673353793,-0.05279696350028544,-1.942993947995765e-05,6.616058507060319e-05,-4.223757080022835e-07,6.616110615676759e-05,6.615637926156761e-05
50.42264973080001,99.57735026920001,8,0,-1.034653463018089,20.13999242475703,0.05693204680861644,-1.942288502146351e-05,6.527569852963697e-05,4.554563744689315e-07,6.527631081558311e-05,6.526341026890635e-05
51.57735026920001,99.57735026920001,8,0,-0.9609129179375699,20.43495460507911,0.05781385412041099,-1.942288502146351e-05,6.616058507060319e-05,4.625108329632879e-07,6.61612099421716e-05,6.614846613770782e-05
52.4226497308,98.42264973080002,8,0,-1.028446918595153,20.61830365655528,-0.0488714111721402,-1.978567306474871e-05,6.6801329235853e-05,-3.909712893771216e-07,6.680177057741099e-05,6.679732112519065e-05
53.5773502692,98.42264973080002,8,0,-0.956308662492944,20.90685668096411,-0.0479981458883789,-1.978567306474871e-05,6.766698830907951e-05,-3.839851671070312e-07,6.766740980539422e-05,6.766338396653053e-05
52.4226497308,99.57735026920001,8,0,-1.026118211171863,20.6188858334111,0.05933597298115982,-1.977868694247884e-05,6.6801329235853e-05,4.746877838492786e-07,6.680197986751375e-05,6.678945000571313e-05
53.5773502692,99.57735026920001,8,0,-0.9539799550695989,20.90743885782015,0.0602092382648669,-1.977868694247884e-05,6.766698830908016e-05,4.816739061189353e-07,6.766765160086487e-05,6.765559463120857e-05
54.42264973080001,98.42264973080002,8,0,-1.012768850621566,21.08863541137319,-0.04417065444030127,-2.011176865108756e-05,6.829384839689145e-05,-3.533652355224102e-07,6.829420150367106e-05,6.829063413193481e-05
55.57735026920001,98.42264973080002,8,0,-0.9421893059563153,21.37095359003419,-0.04331280403781191,-2.011176865108756e-05,6.914080293287446e-05,-3.465024323024953e-07,6.914113923546235e-05,6.913825061160824e-05
54.42264973080001,99.57735026920001,8,0,-1.010481249548026,21.08920731164157,0.06169866255758844,-2.010490584786694e-05,6.829384839689145e-05,4.935893004607075e-07,6.829453740122388e-05,6.828292246876828e-05
55.57735026920001,99.57735026920001,8,0,-0.9399017048827751,21.37152549030258,0.06255651296017267,-2.010490584786694e-05,6.914080293287446e-05,5.004521036813814e-07,6.914150450817335e-05,6.913066936856112e-05
56.4226497308,98.42264973080002,8,0,-0.990185446704662,21.5506656714663,-0.03964280630771189,-2.040912596662796e-05,6.975427850605589e-05,-3.171424504616951e-07,6.97545573858946e-05,6.97523006958646e-05
57.57735026920001,98.42264973080002,8,0,-0.9210944551028923,21.82702963787338,-0.03880706994202057,-2.040912596662796e-05,7.058337040527713e-05,-3.104565595361646e-07,7.058363521556012e-05,7.05823002448429e-05
56.4226497308,99.57735026920001,8,0,-0.9879568163961157,21.55122282904344,0.06399368109499728,-2.040244007570232e-05,6.975427850605589e-05,5.119494487599782e-07,6.975500526865738e-05,6.974483255896955e-05
57.57735026920001,99.57735026920001,8,0,-0.9188658247942918,21.82758679545073,0.06482941746074281,-2.040244007570232e-05,7.058337040527778e-05,5.186353396859425e-07,7.058410947774753e-05,7.057501069958248e-05
58.4226497308,98.42264973080002,8,0,-0.9610025505067776,22.00480922229339,-0.03535245972496209,-2.06790555394564e-05,7.118419155174426e-05,-2.828196777996967e-07,7.118440923069408e-05,7.118387014980457e-05
59.57735026920001,98.42264973080002,8,0,-0.8933040505686058,22.27560322204608,-0.03454529991384558,-2.06790555394564e-05,7.199657355100233e-05,-2.763623993107646e-07,7.199677958145151e-05,7.199739014555583e-05
58.4226497308,99.57735026920001,8,0,-0.9588501243436554,22.00534732883417,0.06619529018230941,-2.067259826096703e-05,7.118419155174426e-05,5.295623214584752e-07,7.1184954788525e-05,7.117672868703363e-05
59.57735026920001,99.57735026920001,8,0,-0.8911516244054836,22.27614132858686,0.06700244999346656,-2.067259826096703e-05,7.199657355100233e-05,5.360195999477325e-07,7.199734865938718e-05,7.199047466003528e-05
60.4226497308,98.42264973080002,8,0,-0.9256141624352452,22.45162581916895,-0.03136193051244307,-2.092326597512794e-05,7.25856939512888e-05,-2.508954440995446e-07,7.258586224641962e-05,7.258742137841259e-05
61.5773502692,98.42264973080002,8,0,-0.8591870902546557,22.7173341078913,-0.03058951286389678,-2.092326597512794e-05,7.338281881745588e-05,-2.447161029111742e-07,7.338297757144917e-05,7.338589668894708e-05
60.4226497308,99.57735026920001,8,0,-0.923554382039014,22.452140764268,0.0682786777584819,-2.091708663393924e-05,7.25856939512888e-05,5.462294220678551e-07,7.258649169236694e-05,7.258068824602599e-05
61.5773502692,99.57735026920001,8,0,-0.8571273098583703,22.71784905299058,0.06905109540704174,-2.091708663393924e-05,7.338281881745653e-05,5.524087632563339e-07,7.33836278130286e-05,7.337943577733695e-05
62.42264973080001,98.42264973080002,8,0,-0.8844986773491845,22.89181498125148,-0.02773070980393515,-2.114384775251857e-05,7.396140688188408e-05,-2.218456784314812e-07,7.396153625285911e-05,7.396554374404363e-05
63.57735026920001,98.42264973080002,8,0,-0.8191980838016066,23.15301735544179,-0.02699884548183285,-2.114384775251857e-05,7.474501400445502e-05,-2.159907638546628e-07,7.474513563472062e-05,7.475069363855793e-05
62.42264973080001,99.57735026920001,8,0,-0.882547039157183,22.89230289079948,0.07022018051739115,-2.113799283794257e-05,7.396140688188408e-05,5.617614441391292e-07,7.396223646957914e-05,7.395929847581329e-05
63.57735026920001,99.57735026920001,8,0,-0.8172464456096051,23.15350526498979,0.07095204483946634,-2.113799283794257e-05,7.474501400445502e-05,5.676163587157307e-07,7.474585405296456e-05,7.474476529822108e-05
64.4226497308,98.42264973080002,8,0,-0.838214370893942,23.32620957372364,-0.02451493355263754,-2.134325364583952e-05,7.531444213263079e-05,-1.961194684211003e-07,7.531454161463787e-05,7.532131345044899e-05
65.57735026920001,98.42264973080002,8,0,-0.7738727496495956,23.58357605870102,-0.02382902432010892,-2.134325364583952e-05,7.608654158756294e-05,-1.906321945608714e-07,7.60866348357288e-05,7.609512587389275e-05
64.4226497308,99.57735026920001,8,0,-0.836385279607561,23.32666684654523,0.07199749831390823,-2.133776637198038e-05,7.531444213263079e-05,5.759799865112658e-07,7.531530023511141e-05,7.531563275955441e-05
65.57735026920001,99.57735026920001,8,0,-0.7720436583632333,23.58403333152254,0.07268340754631487,-2.133776637198038e-05,7.608654158756272e-05,5.81467260370519e-07,7.608740918716659e-05,7.608980484596346e-05
66.4226497308,98.42264973080002,8,0,-0.7873941588783291,23.75576821087165,-0.0217668680998432,-2.152427587710798e-05,7.664837360189195e-05,-1.741349447987456e-07,7.664845082033139e-05,7.665826531328712e-05
67.57735026920001,98.42264973080002,8,0,-0.7238229794115068,24.01005292873894,-0.02113185355203501,-2.152427587710798e-05,7.741122775549382e-05,-1.690548284162801e-07,7.741129997303228e-05,7.742297845008002e-05
66.4226497308,99.57735026920001,8,0,-0.7857007867507866,23.75619155390354,0.07358990110030916,-2.151919576072535e-05,7.664837360189195e-05,5.887192088024733e-07,7.664925624366672e-05,7.665322232162312e-05
67.57735026920001,99.57735026920001,8,0,-0.7221296072840273,24.01047627177058,0.07422491564809024,-2.151919576072535e-05,7.741122775549306e-05,5.937993251847219e-07,7.74121187717508e-05,7.74183354046539e-05
68.42264973080002,98.42264973080002,8,0,-0.7327396512115865,24.18156651091991,-0.01953440958971553,-2.1690020092613e-05,7.796720455591297e-05,-1.562752767177242e-07,7.796726582078159e-05,7.798035975373679e-05
69.57735026920001,98.42264973080002,8,0,-0.6697310917916237,24.43360074859976,-0.01895471596988099,-2.1690020092613e-05,7.872330726895252e-05,-1.516377277590479e-07,7.872336451729787e-05,7.873844065778785e-05
68.42264973080002,99.57735026920001,8,0,-0.7311938015589119,24.18195297333308,0.07497842954026865,-2.168538254365498e-05,7.796720455591297e-05,5.998274363221492e-07,7.796810716593298e-05,7.797602314401757e-05
69.57735026920001,99.57735026920001,8,0,-0.668185242138895,24.43398721101315,0.07555812316008964,-2.168538254365498e-05,7.872330726895317e-05,6.044649852807171e-07,7.872421698754616e-05,7.873454129975133e-05
70.4226497308,98.42264973080002,8,0,-0.6750145172662263,24.6047872294959,-0.01786059390481071,-2.184387623884864e-05,7.927533074819984e-05,-1.428847512384857e-07,7.927538122338293e-05,7.929194451976318e-05
71.57735026920001,98.42264973080002,8,0,-0.6123433939913792,24.85547172259529,-0.01734008371038923,-2.184387623884864e-05,8.0027384227498e-05,-1.387206696831138e-07,8.002743145233646e-05,8.004606428887855e-05
70.4226497308,99.57735026920001,8,0,-0.6736264900809577,24.60513423629221,0.07614609100735098,-2.183971215729283e-05,7.927533074819984e-05,6.091687280588079e-07,7.927624822586074e-05,7.928837760703627e-05
71.57735026920001,99.57735026920001,8,0,-0.6109553668061745,24.85581872939134,0.07666660120192155,-2.183971215729283e-05,8.002738422749724e-05,6.133328096153724e-07,8.002830742482868e-05,8.004296838194567e-05
72.4226497308,98.42264973080002,8,0,-0.6150371733772575,25.02670929273727,-0.01678311287105325,-2.198948638899704e-05,8.057749947546107e-05,-1.34264902968426e-07,8.057754341517592e-05,8.05977100096627e-05
73.57735026920001,98.42264973080002,8,0,-0.5524630626921221,25.27700573547781,-0.01632503430489896,-2.198948638899704e-05,8.132838880368269e-05,-1.306002744391917e-07,8.132843007540078e-05,8.135071437757168e-05
72.4226497308,99.57735026920001,8,0,-0.6138156305342513,25.02701467844803,0.07707805315662272,-2.198582176046802e-05,8.057749947546107e-05,6.166244252529818e-07,8.057842627424599e-05,8.059496973061503e-05
73.57735026920001,99.57735026920001,8,0,-0.5512415198491345,25.27731112118849,0.07753613172274991,-2.198582176046802e-05,8.132838880368248e-05,6.202890537819993e-07,8.132931983495317e-05,8.134847468618098e-05
74.4226497308,98.42264973080002,8,0,-0.553672795885281,25.44869574364264,-0.01633383181332926,-2.213070954174701e-05,8.187876461636465e-05,-1.306706545066341e-07,8.187880565784994e-05,8.190263579594861e-05
75.57735026920001,98.42264973080002,8,0,-0.4909423496060263,25.69961752875966,-0.01594076704907995,-2.213070954174701e-05,8.263152997171571e-05,-1.275261363926396e-07,8.263156878080741e-05,8.265750878489498e-05
74.4226497308,99.57735026920001,8,0,-0.5526246231805256,25.44895778681883,0.0777618376053904,-2.212756502363274e-05,8.187876461636465e-05,6.220947008431232e-07,8.187969484425766e-05,8.190077161667859e-05
75.57735026920001,99.57735026920001,8,0,-0.4898941769012621,25.69987957193588,0.07815490236972103,-2.212756502363274e-05,8.263152997171582e-05,6.252392189577682e-07,8.263246287544055e-05,8.265616993616058e-05
76.42264973080002,98.42264973080002,8,0,-0.4918246551633265,25.87218060683656,-0.01653830323437942,-2.227158338199189e-05,8.318443766600764e-05,-1.323064258750353e-07,8.318447916431013e-05,8.321192334633242e-05
77.57735026920001,98.42264973080002,8,0,-0.4286741087120731,26.12478279264157,-0.01621211443648334,-2.227158338199189e-05,8.394224422342267e-05,-1.296969154918667e-07,8.39422838163928e-05,8.39717391077535e-05
76.42264973080002,99.57735026920001,8,0,-0.4909548183688832,25.87239806603517,0.07818751644251329,-2.226897387160856e-05,8.318443766600764e-05,6.255001315401063e-07,8.318536520113325e-05,8.321097609191428e-05
77.57735026920001,99.57735026920001,8,0,-0.4278042719175756,26.1250002518404,0.07851370524043647,-2.226897387160856e-05,8.394224422342332e-05,6.281096419234918e-07,8.394317284066365e-05,8.39713363783679e-05
78.4226497308,98.42264973080002,8,0,-0.430424758011581,26.29865466810354,-0.01741527144800341,-2.241628296011989e-05,8.450003474434059e-05,-1.393221715840273e-07,8.450008013184474e-05,8.453090461317529e-05
79.57735026920001,98.42264973080002,8,0,-0.3665826341967104,26.55402316336303,-0.01715704354377456,-2.241628296011989e-05,8.526614023011904e-05,-1.372563483501964e-07,8.526618396821704e-05,8.52987574224714e-05
78.4226497308,99.57735026920001,8,0,-0.4297361502668258,26.29882682003973,0.07834791427419442,-2.241421713688563e-05,8.450003474434059e-05,6.267833141935554e-07,8.450095336356251e-05,8.45309052249258e-05
79.57735026920001,99.57735026920001,8,0,-0.3658940264519464,26.55419531529925,0.07860614217853169,-2.241421713688563e-05,8.526614023011915e-05,6.288491374282536e-07,8.526705833597346e-05,8.529931545766613e-05
80.4226497308,98.42264973080002,8,0,-0.370423778296515,26.72965015657595,-0.01897616353754763,-2.25690762158096e-05,8.583121952368024e-05,-1.51809308300381e-07,8.58312726740306e-05,8.586490522703241e-05
81.57735026920001,98.42264973080002,8,0,-0.3056137904131493,26.98889010810941,-0.01878614287246475,-2.25690762158096e-05,8.660893937828063e-05,-1.50289142979718e-07,8.660899109843618e-05,8.664379698445626e-05
80.4226497308,99.57735026920001,8,0,-0.3699170565226533,26.72977683701941,0.07823881828744692,-2.256755605048802e-05,8.583121952368024e-05,6.259105462995754e-07,8.583212304114277e-05,8.586587345500852e-05
81.57735026920001,99.57735026920001,8,0,-0.3051070686393054,26.98901678855281,0.07842883895266534,-2.256755605048802e-05,8.660893937828041e-05,6.274307116213226e-07,8.660984082241894e-05,8.664532845650786e-05
82.4226497308,98.42264973080002,8,0,-0.3127802494809808,27.16672431015638,-0.02122456299307059,-2.273427624646424e-05,8.718374199208519e-05,-1.697965039445647e-07,8.718380756558264e-05,8.721901853267161e-05
83.57735026920001,98.42264973080002,8,0,-0.2467244085888485,27.43094767372491,-0.02110209122721464,-2.273427624646424e-05,8.797641208279077e-05,-1.688167298177171e-07,8.797647643762436e-05,8.801166127064732e-05
82.4226497308,99.57735026920001,8,0,-0.3124536581051478,27.16680595800034,0.07785919834508645,-2.273329647233674e-05,8.718374199208519e-05,6.228735867606916e-07,8.718462440393849e-05,8.722096156979085e-05
83.57735026920001,99.57735026920001,8,0,-0.2463978172130155,27.43102932156886,0.0779816701109966,-2.273329647233674e-05,8.797641208279077e-05,6.238533608879729e-07,8.797729093508711e-05,8.801416548036654e-05
84.42264973080002,98.42264973080002,8,0,-0.2584489884619661,27.61144179951737,-0.02415566389952052,-2.291619020269219e-05,8.856337294922516e-05,-1.932453111961642e-07,8.856345669489384e-05,8.859770037976888e-05
85.57735026920001,98.42264973080002,8,0,-0.1908709202522045,27.88175407235642,-0.02409910681604112,-2.291619020269219e-05,8.93743097677423e-05,-1.92792854528329e-07,8.937439251975021e-05,8.940614626320369e-05
84.42264973080002,99.57735026920001,8,0,-0.2582981695727415,27.61147950423968,0.0772114384150818,-2.291573774602451e-05,8.856337294922516e-05,6.176915073206543e-07,8.8564228580086e-05,8.860061143656456e-05
85.57735026920001,99.57735026920001,8,0,-0.1907201013629978,27.88179177707865,0.07726799549853408,-2.291573774602451e-05,8.937430976774209e-05,6.181439639882727e-07,8.937516046438426e-05,8.940960767428327e-05
86.4226497308,98.42264973080002,8,0,-0.2083687186665157,28.06535598372338,-0.0277557055294495,-2.311906468671155e-05,8.9975834122848e-05,-2.22045644235596e-07,8.997594311145211e-05,9.000399914138422e-05
87.57735026920002,98.42264973080002,8,0,-0.1389971951920757,28.34284207762114,-0.02776237682732235,-2.311906468671155e-05,9.080829240454128e-05,-2.220990146185788e-07,9.080840064879158e-05,9.08289176966593e-05
86.4226497308,99.57735026920001,8,0,-0.2083865087943213,28.06535153619142,0.07630157968218373,-2.311911805709496e-05,8.9975834122848e-05,6.104126374574699e-07,8.99766577689684e-05,9.000785593997383e-05
87.57735026920002,99.57735026920001,8,0,-0.1390149853198723,28.34283763008922,0.07629490838428378,-2.311911805709496e-05,9.080829240454139e-05,6.103592670742702e-07,9.080910988946506e-05,9.083330435973119e-05
88.42264973080002,98.42264973080002,8,0,-0.1634488623781118,28.52998897209314,-0.03200138968273707,-2.334702753728447e-05,9.142672380060054e-05,-2.560111174618965e-07,9.142686656323132e-05,9.143803877388303e-05
89.57735026920001,98.42264973080002,8,0,-0.09202155292723369,28.81569820989666,-0.0320674703096829,-2.334702753728447e-05,9.228385151401107e-05,-2.565397624774632e-07,9.228399380422214e-05,9.227726994961504e-05
88.42264973080002,99.57735026920001,8,0,-0.1636250773832284,28.52994491834187,0.07513957449355266,-2.334755618229982e-05,9.142672380060054e-05,6.011165959484213e-07,9.142751086431398e-05,9.144280189285588e-05
89.57735026920001,99.57735026920001,8,0,-0.09219776793236889,28.8156541561453,0.07507349386657973,-2.334755618229982e-05,9.228385151401086e-05,6.005879509326378e-07,9.228463137015309e-05,9.22825317007539e-05
90.42264973080002,98.42264973080002,8,0,-0.1245554784642797,29.00681047319862,-0.03685928602777371,-2.360402590964459e-05,9.2921437897007e-05,-2.948742882221897e-07,9.292162444573165e-05,9.289396747007028e-05
91.57735026920001,98.42264973080002,8,0,-0.05082292186227377,29.30174069960664,-0.03697974016537769,-2.360402590964459e-05,9.380622857623107e-05,-2.958379213230215e-07,9.380641493119887e-05,9.373958525319533e-05
90.42264973080002,99.57735026920001,8,0,-0.1248766894976914,29.00673017044027,0.07373954887516686,-2.360498954274482e-05,9.2921437897007e-05,5.899163910013348e-07,9.292218450686691e-05,9.289957837222455e-05
91.57735026920001,99.57735026920001,8,0,-0.05114413289568542,29.30166039684829,0.07361909473756287,-2.360498954274482e-05,9.380622857623107e-05,5.88952757900503e-07,9.380696714102641e-05,9.37456514214973e-05
92.42264973080002,98.42264973080002,8,0,-0.09249633266713442,29.49721542366375,-0.04228523400737683,-2.389376060346583e-05,9.446508642185769e-05,-3.382818720590146e-07,9.446532813254122e-05,9.435374930825982e-05
93.57735026920001,98.42264973080002,8,0,-0.0162261301611899,29.80229623368753,-0.04245372343765681,-2.389376060346583e-05,9.538032885192903e-05,-3.396297875012545e-07,9.538057062312861e-05,9.51860589278248e-05
92.42264973080002,99.57735026920001,8,0,-0.09294563781465648,29.49710309737687,0.07212006975160831,-2.389510851890839e-05,9.446508642185769e-05,5.769605580128664e-07,9.446578953304345e-05,9.436012767787946e-05
93.57735026920001,99.57735026920001,8,0,-0.01667543530865689,29.80218390740087,0.07195158032113859,-2.389510851890839e-05,9.538032885192968e-05,5.756126425691087e-07,9.538102331172897e-05,9.519283498115885e-05
94.4226497308,98.42264973080002,8,0,-0.06800510387143177,30.00250040738212,-0.04822375347657282,-2.421961665829427e-05,9.606240538671991e-05,-3.857900278125825e-07,9.606271472962972e-05,9.577445526642923e-05
95.57735026920002,98.42264973080002,8,0,0.01101367260423736,30.31857551328479,-0.04843255271918493,-2.421961665829427e-05,9.701063070442794e-05,-3.874604217534794e-07,9.701094029134687e-05,9.65496743389874e-05
94.4226497308,99.57735026920001,8,0,-0.06856190185171229,30.00236120788704,0.0703044112368499,-2.422128705223511e-05,9.606240538671991e-05,5.624352898947992e-07,9.606306285682213e-05,9.578149486737217e-05
95.57735026920002,99.57735026920001,8,0,0.01045687462389466,30.31843631378947,0.07009561199425134,-2.422128705223511e-05,9.701063070442718e-05,5.607648959540107e-07,9.701127916316718e-05,9.65570362816737e-05
96.4226497308,98.42264973080002,8,0,-0.05172475166803103,30.52383890037328,-0.05460748004221813,-2.458459032563632e-05,9.771766428252893e-05,-4.368598403377451e-07,9.771805439371691e-05,9.706216339982663e-05
97.57735026920001,98.42264973080002,8,0,0.03022744336568373,30.85164768050814,-0.05484739533147276,-2.458459032563632e-05,9.87010906229335e-05,-4.387791626517821e-07,9.870148103028337e-05,9.768709047986399e-05
96.4226497308,99.57735026920001,8,0,-0.05236452577265638,30.52367895684713,0.06832081250832686,-2.45865096479502e-05,9.771766428252893e-05,5.465665000666149e-07,9.771827491877683e-05,9.706972483121679e-05
97.57735026920001,99.57735026920001,8,0,0.02958766926099621,30.85148773698174,0.06808089721908579,-2.45865096479502e-05,9.870109062293274e-05,5.446471777526864e-07,9.870169214145586e-05,9.769487458278535e-05
98.42264973080002,98.42264973080002,8,0,-0.04419009821862119,31.06225540809871,-0.06135664494630755,-2.499121264077855e-05,9.943456938449075e-05,-4.908531595704604e-07,9.943505348007558e-05,9.801826959537387e-05
99.57735026920002,98.42264973080002,8,0,0.04084947699200114,31.4024137089412,-0.0616169408003517,-2.499121264077855e-05,0.0001004550442870182,-4.929355264028136e-07,0.0001004555285272443,9.829814068535368e-05
98.42264973080002,99.57735026920001,8,0,-0.04488422049612595,31.06208187752933,0.0662027178696266,-2.499329500761107e-05,9.943456938449075e-05,5.296217429570128e-07,9.943513295986335e-05,9.802616665127323e-05
99.57735026920002,99.57735026920001,8,0,0.04015535471447862,31.40224017837175,0.06594242201563667,-2.499329500761107e-05,0.000100455044287018,5.275393761250934e-07,0.0001004555988909382,9.830612366299664e-05
