xcoord,ycoord,g,damage,sigma_xx,sigma_yy,tau_xy,e_xx,e_yy,e_xy,elocal,enonlocal_true,
346.516287032475,148.1824457733856,12.5,0,4.709052160153546,-0.2199478636340835,-3.187821782318838,1.524492520339861e-05,-4.471074891751903e-06,-2.550257425855071e-05,1.909983482338652e-05,1.978971275635554e-05
353.7132813647527,145.7454886584098,12.5,0,4.773239554757816,-0.5340253850715357,-3.063954131483505,1.570158688328224e-05,-5.527472876035167e-06,-2.451163305186804e-05,1.834453196241505e-05,1.796535183406098e-05
350.1899194394958,153.7072600530821,12.5,0,5.157235532313715,0.08572912394425969,-3.403182668333172,1.643457040424848e-05,-3.851455229229341e-06,-2.722546134666538e-05,2.17601476163919e-05,2.176150365203541e-05
357.1405252961566,151.8219576888771,12.5,0,5.194874002224485,-0.2713517925677398,-3.255794468042211,1.684067824117254e-05,-5.024224937996355e-06,-2.604635574433769e-05,2.074507355705077e-05,2.01375607845578e-05
358.9818468775412,143.9615122344568,12.5,0,3.802242874483989,-0.2870758639844133,-3.232105995359194,1.23968378895363e-05,-3.960437064337314e-06,-2.585684796287355e-05,1.581560447048876e-05,1.666556410439976e-05
366.1788412098189,141.524555119481,12.5,0,3.923776564417072,-0.4936019178078428,-3.059632240095827,1.29509665403809e-05,-4.718547388518754e-06,-2.447705792076662e-05,1.548907051601306e-05,1.493883891005427e-05
362.2287219264017,150.441820570708,12.5,0,4.390559033466514,-0.01900003909575743,-3.433178757693278,1.406498893836945e-05,-3.573247351879635e-06,-2.746543006154623e-05,1.879227573208196e-05,1.89985154471069e-05
369.1793277830625,148.5565182065029,12.5,0,4.483288574893767,-0.2549217731992159,-3.237565167309528,1.455046085821943e-05,-4.402380534152504e-06,-2.590052133847622e-05,1.825835482374731e-05,1.751052858041191e-05
364.6055994278942,155.1857355213542,12.5,0,5.157487320026381,-0.3499481733817513,-2.917578438015232,1.678391796278982e-05,-5.245824010842708e-06,-2.334062750412186e-05,2.009239575199942e-05,2.073756247138069e-05
371.3758364020116,153.704272462933,12.5,0,5.214500723149602,-0.5832970353438822,-2.72839116322136,1.715303994235383e-05,-6.038151091620103e-06,-2.182712930577088e-05,1.949245166401652e-05,1.944987425739528e-05
367.8524744767548,161.6660438576053,12.5,0,5.812384978680956,-0.04976289385889276,-3.142731974533372,1.863944224686617e-05,-4.809149243293221e-06,-2.514185579626698e-05,2.350567363673843e-05,2.315577595594302e-05
374.3763229752552,160.7362355499549,12.5,0,5.828019150412524,-0.320142534455969,-2.924783773010863,1.890577530888485e-05,-5.68687143058912e-06,-2.33982701840869e-05,2.261612824274498e-05,2.217657551022053e-05
352.8792050096523,157.75170480803,12.5,0,5.821556240061698,-0.3167217868552215,-2.867591302816274,1.888235739768161e-05,-5.670754709986067e-06,-2.294073042253019e-05,2.255868901710432e-05,2.320954185895752e-05
359.6494419837696,156.2702417496088,12.5,0,5.838915667025171,-0.641883071291564,-2.716101445959922,1.91980365915138e-05,-6.725158361753142e-06,-2.172881156767937e-05,2.159403647982687e-05,2.17449623689974e-05
356.5528374166731,163.2765190877264,12.5,0,6.337024990481468,0.02155730939830636,-3.108173621619643,2.026123412202205e-05,-5.000636602310593e-06,-2.486538897295714e-05,2.560461772839216e-05,2.519386491605797e-05
363.0766859151736,162.3467107800761,12.5,0,6.315199773995118,-0.3559411282902234,-2.925771272595164,2.049339217941655e-05,-6.191171429724808e-06,-2.340617018076131e-05,2.429993867773437e-05,2.396425621554298e-05
357.1417199931253,200.8538106076649,12.5,0,10.75578477049422,-0.4890894303428706,-1.396800362169089,3.480978280985579e-05,-1.016971399349256e-05,-1.117440289735271e-05,4.00190849605782e-05,4.066922852123874e-05
361.600067097585,201.4813084973124,12.5,0,10.72049795242324,-0.2793064624779915,-1.159773006475609,3.452903861773677e-05,-9.470179041868166e-06,-9.278184051804872e-06,4.046061596232696e-05,4.049488665464638e-05
355.2090956395226,206.7547928338287,12.5,0,11.44534304007173,-0.2445214069408368,-1.226321097744264,3.68207148537822e-05,-9.938742934268059e-06,-9.810568781954115e-06,4.335463408267069e-05,4.330850070554179e-05
360.7566673553704,207.0542640439629,12.5,0,11.46409040301953,-0.05689374700066629,-1.021614032436038,3.673060428726303e-05,-9.353332312817756e-06,-8.172912259488303e-06,4.395741790520275e-05,4.300439896174171e-05
364.8638036956883,201.9406688341571,12.5,0,10.59357277138241,-0.2822022309385148,-1.408284792805682,3.412519465317452e-05,-9.377905356109176e-06,-1.126627834244546e-05,4.001516153514309e-05,4.031376690254776e-05
369.3221508001481,202.5681667238047,12.5,0,10.52854614625441,-0.2243423060751848,-1.186543602051988,3.387082151287425e-05,-9.140732296444116e-06,-9.492348816415907e-06,3.989417290678531e-05,3.99932804041314e-05
364.8177717098304,207.273492185176,12.5,0,11.12102632186151,-0.14977886973892,-1.380628681838891,3.570710732574795e-05,-9.376113440653748e-06,-1.104502945471113e-05,4.242519430988796e-05,4.258641881552619e-05
370.3653434256782,207.5729633953102,12.5,0,11.11095439332605,-0.09377822119422907,-1.203522339005513,3.563007663559873e-05,-9.188853822482369e-06,-9.628178712044102e-06,4.252131105537941e-05,4.174857756326187e-05
364.7840739574106,211.1773898257455,12.5,0,11.4417518605073,-0.2353258940626408,-1.056438668535264,3.680186666887348e-05,-9.906444349406292e-06,-8.451509348282116e-06,4.334051590050536e-05,4.419537048088713e-05
371.1290134296151,211.2367288402481,12.5,0,11.4420745217325,-0.2060797359547952,-0.7576280137939291,3.677950225830783e-05,-9.813114772441343e-06,-6.061024110351433e-06,4.339044441797269e-05,4.304987776049932e-05
364.7380419715527,216.5102131767644,12.5,0,11.97755137518979,-0.1012068099928145,-1.046863462816374,3.840912984860159e-05,-9.905902892128841e-06,-8.374907702530989e-06,4.579735829379483e-05,4.631845626478424e-05
372.1722060551455,216.2415255117537,12.5,0,12.00849619335084,-0.06880292378564112,-0.7936855560576594,3.84822301577512e-05,-9.826966310794725e-06,-6.349484448461276e-06,4.598205453010893e-05,4.484979885627213e-05
353.7943164208006,211.0746116377578,12.5,0,11.84438969119844,-0.4856521329674748,-1.050699707937897,3.829056871820899e-05,-1.102959857845467e-05,-8.405597663503172e-06,4.413755160480383e-05,4.519308430483506e-05
360.1392558930051,211.1339506522604,12.5,0,11.92282214368103,-0.1407159277860304,-0.718236271361812,3.826560360200811e-05,-9.988548683860119e-06,-5.745890170894496e-06,4.542858752010163e-05,4.476964094363712e-05
351.8616920671979,216.9755938639216,12.5,0,12.54196202425015,-0.2303152177786445,-0.8688177525449658,4.031853065182339e-05,-1.077057831629178e-05,-6.950542020359727e-06,4.755241818367769e-05,4.770259026513117e-05
359.2958561507905,216.7069061989109,12.5,0,12.64569681129067,0.07941866869087644,-0.5736285051261404,4.040269486117742e-05,-9.862417709221726e-06,-4.589028041009123e-06,4.885770708054561e-05,4.708285941893868e-05
89.62551616722355,296.6780714526346,12.5,0,4.588511321713812,1.108456390832086,-3.268278434950628,1.379647111681853e-05,-1.237486067083733e-07,-2.614622747960503e-05,2.266821834215733e-05,2.184868351662619e-05
96.55911799386175,295.014438157849,12.5,0,4.542736339107798,1.212556882660764,-3.376886917255919,1.356671077901634e-05,2.459929532282076e-07,-2.701509533804735e-05,2.292477846392946e-05,2.259746364594433e-05
91.40547131666551,304.1148116917892,12.5,0,4.272160199743468,1.002578826670702,-3.1957539903795,1.286884957784253e-05,-2.094759144485268e-07,-2.5566031923036e-05,2.115128958233281e-05,2.125932390678133e-05
98.23355653597504,301.7706362648444,12.5,0,4.195845270773086,1.095440277931847,-3.296345991116498,1.25503526441284e-05,1.487326727634417e-07,-2.637076792893198e-05,2.126070123817519e-05,2.201834585642179e-05
86.54254341325159,283.7972595159583,12.5,0,5.104031159799624,0.776490995158121,-3.259500757575294,1.57117069152323e-05,-1.598453743333712e-06,-2.607600606060235e-05,2.348921291845858e-05,2.272198533282476e-05
93.65890536482205,283.3123597707427,12.5,0,5.112853751253392,0.8971265178111788,-3.381524975949619,1.564343078976191e-05,-1.219478144006942e-06,-2.705219980759695e-05,2.399243960871882e-05,2.34593023564828e-05
88.32249856269357,291.233999755113,12.5,0,4.782122361999815,0.6692992406519548,-3.186601407856421,1.476735216587784e-05,-1.683940319513596e-06,-2.549281126285136e-05,2.194527123920844e-05,2.224060246452249e-05
95.33334390693535,290.068557877738,12.5,0,4.75892358574814,0.7782538691193759,-3.300335771151111,1.460595237909854e-05,-1.316726487416509e-06,-2.640268616920889e-05,2.229242550347059e-05,2.298356677645204e-05
98.86844387820014,282.9573885206827,12.5,0,5.130853001127655,1.046126569941501,-3.538310781619085,1.558182834765529e-05,-7.570773770893208e-07,-2.830648625295268e-05,2.464907444649046e-05,2.402652064987002e-05
105.9848058297706,282.472488775467,12.5,0,5.152027035570553,1.231578021681224,-3.681268433260352,1.550122409648079e-05,-1.805719590765244e-07,-2.945014746608281e-05,2.542202176379664e-05,2.483887282279425e-05
100.4656389027099,289.2153952102674,12.5,0,4.814912222654153,0.9314108621805481,-3.452985686808061,1.466259042274885e-05,-8.714150191455679e-07,-2.762388549446449e-05,2.309484013380839e-05,2.354129355560614e-05
107.4764842469517,288.0499533328925,12.5,0,4.79800474537897,1.101178256083077,-3.584225162020886,1.447267258034624e-05,-3.146333768373305e-07,-2.867380129616709e-05,2.367397536698701e-05,2.43220671411321e-05
101.6348668101975,293.7965740609545,12.5,0,4.630078955580922,1.368327842618298,-3.52871237172082,1.372159038376431e-05,6.745859319138149e-07,-2.822969897376656e-05,2.385655303758543e-05,2.315077883751227e-05
108.5684686368357,292.132940766169,12.5,0,4.58484813508503,1.513563110724121,-3.649622755202345,1.34606635436928e-05,1.175523446249163e-06,-2.919698204161876e-05,2.426160228052515e-05,2.391368392422171e-05
103.2320618347072,300.0545807505393,12.5,0,4.331849386083437,1.261838405620823,-3.45093860137356,1.285244731097034e-05,5.724033891198849e-07,-2.760750881098848e-05,2.239979943481449e-05,2.256909988079491e-05
110.0601470540168,297.7104053235945,12.5,0,4.251979858926982,1.393049253788956,-3.56145409884431,1.249189614553518e-05,1.056173724983073e-06,-2.849163279075448e-05,2.263202379070723e-05,2.331476590827882e-05
202.6935287129743,348.3130329079885,12.5,0,0.1483107175243467,2.567569386772544,-0.805886529502797,-1.579461213340126e-06,8.097573463652664e-06,-6.447092236022376e-06,1.051691480095228e-05,1.150732894308841e-05
208.7076664252018,347.8380826954905,12.5,0,0.1389617172815197,2.535517807829635,-0.8135926380538364,-1.583736750962845e-06,8.002487611229615e-06,-6.508741104430692e-06,1.037133110865367e-05,1.072906539710972e-05
204.186626448832,355.080978583246,12.5,0,0.1314008974891268,2.570143190895954,-0.8166690943491369,-1.635631680751557e-06,8.119337492875749e-06,-6.533352754793095e-06,1.048024335619069e-05,1.031285186599996e-05
210.9956760034628,354.7887367055419,12.5,0,0.1235668509522311,2.541422958661912,-0.8232235415406066,-1.63772444388239e-06,8.033699986956334e-06,-6.585788332324853e-06,1.035143869156035e-05,9.382609808990806e-06
192.2767366318673,349.1356708070859,12.5,0,0.3009172748984846,2.818136400848902,-1.138847538995116,-1.291573841003971e-06,8.777302662797698e-06,-9.11078031196093e-06,1.210250385624306e-05,1.277435112783936e-05
198.2908743440948,348.6607205945879,12.5,0,0.2899409330669809,2.779386221654863,-1.146512776936762,-1.295697991509551e-06,8.662083162841975e-06,-9.172102215494098e-06,1.192881414952179e-05,1.205536160291126e-05
192.393006669169,355.5871563635197,12.5,0,0.2839562978499643,2.814534765813417,-1.152905586237399,-1.342967659530848e-06,8.779346212322962e-06,-9.223244689899191e-06,1.204515889975287e-05,1.177783016182868e-05
199.2020562237999,355.2949144858156,12.5,0,0.27476473465132,2.780256952882435,-1.159252519125446,-1.344958411421724e-06,8.677010461502736e-06,-9.274020153003567e-06,1.189306974054163e-05,1.095464922521748e-05
192.0753510198663,337.9613700392466,12.5,0,0.4206029008122635,3.191468779112801,-1.369544346074819,-1.207245740690997e-06,9.87621777251115e-06,-1.095635476859855e-05,1.400023233701825e-05,1.461232781770845e-05
196.7126610335379,337.1699597079249,12.5,0,0.4129421950635044,3.193627288794815,-1.3884863690527,-1.233486806832638e-06,9.889253568092602e-06,-1.11078909524216e-05,1.399612138101266e-05,1.410336051676603e-05
192.191621057168,344.4128555956804,12.5,0,0.3566460205426085,3.175387980778327,-1.367079704988963,-1.399043118886315e-06,9.87592472205656e-06,-1.09366376399117e-05,1.374131026188353e-05,1.353385248565662e-05
197.623842913243,343.8041535991526,12.5,0,0.3526348759286612,3.177894030476473,-1.383477517543814,-1.413883621409462e-06,9.887152996781784e-06,-1.106782014035051e-05,1.374844697857324e-05,1.289905625065419e-05
200.1074075738492,336.5906071357872,12.5,0,0.2733886676180574,3.046044363186686,-1.089035294159444,-1.561991754171565e-06,9.528631028102948e-06,-8.712282353275554e-06,1.284243973283676e-05,1.371103030639082e-05
204.7447175875209,335.7991968044654,12.5,0,0.2819733804741517,3.104063262329966,-1.099096612149744,-1.580935792346687e-06,9.707423735076568e-06,-8.79277289719795e-06,1.309183295878237e-05,1.31481315391984e-05
201.6005053097068,343.3585528110446,12.5,0,0.220256478253558,3.016505412627928,-1.055524254875598,-1.708383599690957e-06,9.476612137806524e-06,-8.444194039004783e-06,1.255087495025592e-05,1.241786811189965e-05
207.0327271657818,342.7498508145168,12.5,0,0.2297249660441032,3.068069715791522,-1.06553680095734,-1.719335881292087e-06,9.634043117697587e-06,-8.524294407658722e-06,1.27787022671458e-05,1.173803390376929e-05
203.248627127514,377.7860435423727,12.5,0,0.08863570901975265,1.86240602817457,-0.5145587632282336,-1.206290553676447e-06,5.88879072294282e-06,-4.116470105825869e-06,7.539083556019799e-06,8.116472662080963e-06
210.6016436963747,378.9951843004378,12.5,0,0.02084106046187334,1.641481013847933,-0.4705817312264671,-1.246493417600352e-06,5.236066395943887e-06,-3.764653849811737e-06,6.478780096196489e-06,7.170602778036299e-06
202.5410689296985,387.4271732599903,12.5,0,0.194734009455407,1.868437371281381,-0.6231840607037078,-8.71601066767802e-07,5.823212380536092e-06,-4.985472485629662e-06,7.938192019432736e-06,7.342393403176329e-06
210.0146764879572,389.3200388208169,12.5,0,0.1217484955006435,1.651783071804768,-0.5733575952877531,-9.318312718417548e-07,5.188307033374741e-06,-4.586860762302025e-06,6.873707795424181e-06,6.407592055570361e-06
190.5128288415802,375.6917503159393,12.5,0,0.1919001894067648,2.147800850027092,-0.8201336409301312,-1.104160073920026e-06,6.719442568561281e-06,-6.561069127441049e-06,9.081153763777762e-06,9.666636570119408e-06
197.865845410441,376.9008910740044,12.5,0,0.1328823180438937,1.964818093939944,-0.7767838857208663,-1.146631057411495e-06,6.181112046172705e-06,-6.214271085766931e-06,8.192326404122018e-06,8.785282900929609e-06
189.5964009231964,384.1486339368003,12.5,0,0.2899792822663214,2.150309274376703,-0.8971586223612906,-7.923137162491338e-07,6.649006252192391e-06,-7.177268978890325e-06,9.437990493187645e-06,8.897147467070574e-06
197.070008481455,386.0414994976268,12.5,0,0.2254956472707038,1.971466023727829,-0.8494456890618993,-8.555867477160107e-07,6.128294758112488e-06,-6.795565512495195e-06,8.544363252451229e-06,8.009467765179581e-06
192.1001285576671,361.0439982111745,12.5,0,0.2380588841542197,2.485052484779388,-0.9442758550203514,-1.226253558530007e-06,7.761720843970664e-06,-7.554206840162811e-06,1.055376440374521e-05,1.110353182550335e-05
199.2442754059595,361.0688928724829,12.5,0,0.1978316667871348,2.324793784132536,-0.9254082727414783,-1.226773693587197e-06,7.281074775794406e-06,-7.403266181931826e-06,9.820800401919503e-06,1.023846939455218e-05
191.1837006392833,369.5008818320354,12.5,0,0.2946200319416251,2.478921368748279,-1.016584292512124,-1.040352992785423e-06,7.696852354441194e-06,-8.132674340096996e-06,1.074684331442657e-05,1.025783547713573e-05
198.4484384769735,370.2095012961053,12.5,0,0.2512587826123226,2.323049551475972,-0.9929096555851238,-1.054411536821345e-06,7.232751538633251e-06,-7.943277244680991e-06,1.00186983373287e-05,9.382542087429064e-06
204.4741538754203,361.087117029397,12.5,0,0.09825142567212752,2.228620642325054,-0.5883078256421609,-1.468491951709235e-06,7.05298491490247e-06,-4.706462605137287e-06,8.986251123190278e-06,9.563761734424248e-06
211.6183007237127,361.1120116907053,12.5,0,0.04081656821946894,1.999807471614415,-0.5614275826317127,-1.469232958989231e-06,6.366730654590551e-06,-4.491420661053701e-06,7.934225723579258e-06,8.585488557571647e-06
203.7665956776048,370.7282467470146,12.5,0,0.1923732579379119,2.229937371056496,-0.7066274438026602,-1.168355471443879e-06,6.981900981030458e-06,-5.653019550421281e-06,9.332273668998634e-06,8.711686512512389e-06
211.031333515295,371.4368662110845,12.5,0,0.1301002857633221,2.006033719967336,-0.6726759568136039,-1.188506061531238e-06,6.315227675284817e-06,-5.381407654508831e-06,8.281436476000482e-06,7.754168386927949e-06
377.5144952980844,120.7272465471708,12.5,0,0.5401038365623647,-0.2469617394767832,-3.439260043239646,1.925901668580994e-06,-1.222360635575598e-06,-2.751408034591717e-05,6.870519938935841e-06,7.463914781503332e-06
384.8699562700025,116.3907039187343,12.5,0,0.5979258624726178,-0.6586265952252508,-3.430695800581376,2.440264036092577e-06,-2.585945794698896e-06,-2.744556640465101e-05,6.259462770976152e-06,6.170062347218725e-06
382.9787396864576,127.407759137452,12.5,0,0.9018715917472856,0.1720486551821113,-3.684030388904013,2.748350169445625e-06,-1.709415768150722e-07,-2.947224311123211e-05,8.971276274071458e-06,9.183205718429349e-06
390.9617578325183,123.4084819518401,12.5,0,0.9345918023123876,-0.2547003983064847,-3.659876144982343,3.194454086044828e-06,-1.562714716430661e-06,-2.927900915985875e-05,8.106532742200967e-06,7.592545153349897e-06
364.7744631818613,128.2383587086759,12.5,0,1.606497812372634,-0.2173805904342204,-3.433340074145309,5.314697471939806e-06,-1.980816139287613e-06,-2.746672059316248e-05,9.465338503337619e-06,1.006474461827652e-05
372.1299241537794,123.9018160802395,12.5,0,1.681209316782602,-0.5943359274510357,-3.412014528974641,5.855338555665155e-06,-3.246842421269396e-06,-2.729611623179713e-05,8.816918680578582e-06,8.507491750776601e-06
369.1517466599847,134.3347104163582,12.5,0,1.936257064336066,0.1106529372518921,-3.64131359057148,6.107500256073898e-06,-1.194916252262798e-06,-2.913050872457184e-05,1.149270418947901e-05,1.200917671513969e-05
377.1347648060454,130.3354332307464,12.5,0,1.984474871242616,-0.2778025615491132,-3.605531958007541,6.572561637215661e-06,-2.476548093951255e-06,-2.884425566406033e-05,1.064344909226612e-05,1.03666385786399e-05
357.1927857987561,117.6791678103506,12.5,0,0.2257403349984924,-0.1592601082005093,-3.557910402902852,8.497771585555832e-07,-6.902246142404238e-07,-2.846328322322282e-05,6.626151631902529e-06,7.201086033969497e-06
363.4612858604243,112.7584642993153,12.5,0,0.3121470936823706,-0.4467628624845842,-3.574313228715934,1.356280989771253e-06,-1.679358834896566e-06,-2.859450582972747e-05,6.324771674382027e-06,5.985886229531509e-06
361.5700692768794,123.7755195180329,12.5,0,0.5047239479366495,0.1362476259598804,-3.742588076355041,1.506118532629374e-06,3.221324472229767e-08,-2.994070461084032e-05,8.094615225325345e-06,8.776420603161458e-06
368.4661265126903,119.1920814498222,12.5,0,0.5665514090225658,-0.1640592424148166,-3.744144323516622,1.944211902804064e-06,-9.782307029454658e-07,-2.995315458813297e-05,7.632090862490537e-06,7.333672696628796e-06
368.050146392619,109.156259320408,12.5,0,-0.9576946938412831,-0.2092250872967368,-3.520943943371838,-2.897242950454716e-06,9.663547572346873e-08,-2.816755154697471e-05,4.706801243104398e-06,5.234341215231974e-06
374.3186464542872,104.2355558093727,12.5,0,-0.873073676070423,-0.5136068786341164,-3.541266252238087,-2.38295026051806e-06,-9.45083070772834e-07,-2.833013001790469e-05,4.456121081467738e-06,4.396281856341254e-06
373.5143907809921,115.8367719106892,12.5,0,-0.6369106462867455,0.166124328700063,-3.739535515619512,-2.171013531077636e-06,1.041126368869598e-06,-2.99162841249561e-05,6.072974409662663e-06,6.4058197268846e-06
380.4104480168031,111.2533338424785,12.5,0,-0.5767613149036817,-0.1544726688081779,-3.744331696387394,-1.722058072645239e-06,-3.290348826322405e-08,-2.995465357109916e-05,5.660045015009142e-06,5.313626178014677e-06
170.6280333090904,306.8557618600373,12.5,0,1.960102511958333,4.289140998056544,-3.352962946535388,2.841015239821431e-06,1.215716918421427e-05,-2.68237035722831e-05,2.437999091211551e-05,2.415803946111982e-05
172.1461640986964,307.6754020244359,12.5,0,1.862411723214351,4.1332321358051,-3.28106762805527,2.653131805641844e-06,1.173641345600484e-05,-2.624854102444216e-05,2.345105660165848e-05,2.385915380078518e-05
168.1596891269699,308.7386701098164,12.5,0,2.040149448578622,4.112140636635399,-3.347899604026357,3.238765726143271e-06,1.152673047837038e-05,-2.678319683221085e-05,2.401091730089694e-05,2.369612087994394e-05
169.6790056519361,310.0605365955125,12.5,0,1.95122675508777,4.00393009367798,-3.289532537595193,3.04078154133848e-06,1.125159489569932e-05,-2.631626030076155e-05,2.329032662956722e-05,2.328107951690056e-05
163.8843915930471,311.999962864366,12.5,0,2.084170069213024,3.837202661084481,-3.312580167481373,3.59958209261409e-06,1.061171246009992e-05,-2.650064133985098e-05,2.315838436102886e-05,2.298025929688371e-05
166.3527357751675,310.1170546145868,12.5,0,2.002836231015734,4.005960355150271,-3.319654680706857,3.204307655130131e-06,1.121680415166828e-05,-2.655723744565486e-05,2.349142539964908e-05,2.33805356360853e-05
165.4057618719011,314.1917108554319,12.5,0,1.940615302323836,3.710606591514046,-3.229238364962551,3.241483694225039e-06,1.032144885098588e-05,-2.583390691970041e-05,2.217379327169346e-05,2.235105660993296e-05
167.8729203186615,311.8065762843553,12.5,0,1.844353994684821,3.842705547824315,-3.222342263142552,2.827768344731973e-06,1.082117455728995e-05,-2.577873810514041e-05,2.231827333365752e-05,2.287698609251664e-05
161.2493009729941,308.2037439865209,12.5,0,2.342951437613842,3.834505112066018,-3.500386611072897,4.429840510711481e-06,1.039605520852018e-05,-2.800309288858317e-05,2.416374271332253e-05,2.402973355742227e-05
163.7196989090025,307.1907172421117,12.5,0,2.315535938308653,4.036609872708877,-3.542140252999222,4.180427104420587e-06,1.106472284202148e-05,-2.833712202399378e-05,2.481517447114854e-05,2.425618592426094e-05
162.7706712518481,310.3954919775869,12.5,0,2.184365204924476,3.699580103450003,-3.410815290370838,4.030304572998319e-06,1.009116416710043e-05,-2.728652232296671e-05,2.309413984968693e-05,2.343005942930222e-05
165.2398834524964,308.8802389118802,12.5,0,2.129758164222016,3.852040344234169,-3.430479766035926,3.733593850123115e-06,1.062272257017173e-05,-2.744383812828741e-05,2.346413211806451e-05,2.375009111719082e-05
165.528155712997,306.4491301958095,12.5,0,2.226525945214019,4.012721994899697,-3.495667747468352,3.914705428765102e-06,1.105948962750781e-05,-2.796534197974682e-05,2.439923288453449e-05,2.442506891957553e-05
167.9985536490053,305.4361034514002,12.5,0,2.206571154136793,4.270723070626045,-3.534912333250078,3.644449236736901e-06,1.190105690269391e-05,-2.827929866600062e-05,2.527286723707922e-05,2.466001347649033e-05
167.0474722379631,307.7709966815056,12.5,0,2.123678027072712,3.883483289073217,-3.427208904917659,3.688983055374103e-06,1.072820410337612e-05,-2.741767123934127e-05,2.355105577738025e-05,2.400265191653092e-05
169.5166844386113,306.2557436157988,12.5,0,2.07769961804241,4.058934753102105,-3.439881576117136,3.401490975254027e-06,1.132643151549281e-05,-2.751905260893708e-05,2.402641668495161e-05,2.437262916446898e-05
91.11154863741747,468.7938993758031,12.5,0,0.6133515233998763,1.211577871408361,-1.261121752088782,9.934625777529149e-07,3.386367969786854e-06,-1.008897401671026e-05,7.374265299728403e-06,7.261349119008505e-06
104.240405823871,476.7935521363349,12.5,0,0.5015867496030837,1.012058595267463,-1.178677786762591,7.954307225158974e-07,2.837318105173415e-06,-9.429422294100729e-06,6.260163107125837e-06,6.595466210932961e-06
78.92808050001877,482.8638582442695,12.5,0,0.6675930072978815,1.107860579331933,-1.287527912998856,1.250009159887674e-06,3.011079448023879e-06,-1.030022330399085e-05,7.222701656550139e-06,6.776074348970686e-06
96.02938274588055,490.5284410520039,12.5,0,0.5818602649652792,0.930451579680866,-1.222633929185225,1.117591584144201e-06,2.511956843006548e-06,-9.781071433481797e-06,6.28908657948991e-06,6.212943635112452e-06
70.00916281142553,493.1637829959533,12.5,0,0.6300825263228167,0.9776989730679551,-1.232280475288281,1.234104905778649e-06,2.624570692759203e-06,-9.858243802306246e-06,6.608334251753259e-06,6.478582416229549e-06
90.01849667092647,500.5830775741608,12.5,0,0.5360328142913793,0.7936283129226271,-1.156651344298424,1.080402355394312e-06,2.110784349919303e-06,-9.253210754387393e-06,5.621380716144341e-06,5.94199033040738e-06
57.82569467402681,507.2337418644196,12.5,0,0.6864113843956992,0.9143190747147413,-1.24306429501609,1.465061170294444e-06,2.376691931570612e-06,-9.944514360128717e-06,6.589715236106254e-06,6.151094111142166e-06
81.80747359293599,514.3179664898297,12.5,0,0.6101927128721993,0.7489392897673086,-1.178552172494314,1.353465249377191e-06,1.908451556957628e-06,-9.42841737995451e-06,5.735177865277291e-06,5.584254711263472e-06
35.35197994178436,480.3131878304086,12.5,0,0.9074544747894157,0.8134286793645081,-1.481482177566455,2.253111375834523e-06,1.877008194134893e-06,-1.185185742053164e-05,7.246637620339852e-06,7.162457647505084e-06
55.36131380128531,487.732482408616,12.5,0,0.8149303996651114,0.6348373525703301,-1.406777230383288,2.099907396872092e-06,1.379535208492967e-06,-1.12542178430663e-05,6.30335019359671e-06,6.805605648224281e-06
16.28803513133827,494.9635048811992,12.5,0,0.9577004736322648,0.7046685302593441,-1.478469704880176,2.500906691415772e-06,1.488778917924089e-06,-1.182775763904141e-05,7.062847655813624e-06,6.37110048701478e-06
40.26981405024745,502.0477295066093,12.5,0,0.8798613702170152,0.5378896057917102,-1.412119550989988,2.38524470006108e-06,1.01735764235986e-06,-1.12969564079199e-05,6.220453872931814e-06,6.361928801316007e-06
68.37170094557271,454.9380943519025,12.5,0,0.8868409074295602,1.230672264510978,-1.524376882186685,1.85335309216581e-06,3.228678520491483e-06,-1.219501505749348e-05,8.588597269476318e-06,8.354595064641058e-06
81.50055813202628,462.9377471124342,12.5,0,0.7566449742985589,1.004379405548671,-1.428825002086763,1.617760393316452e-06,2.608698118316899e-06,-1.14306000166941e-05,7.318864030380338e-06,7.732706274727206e-06
49.30775613512662,469.5884114026932,12.5,0,0.9403781013822762,1.025132800679163,-1.537059994283107,2.189103683879953e-06,2.5281224810675e-06,-1.229647995426486e-05,8.096913913424605e-06,7.693933417755014e-06
66.40905838098841,477.2529942104276,12.5,0,0.8342674762617034,0.8107361474881505,-1.456514148407103,2.02106700604693e-06,1.926941690952718e-06,-1.165211318725682e-05,6.974748963160765e-06,7.172904365216154e-06
74.06549336450176,395.7304629053888,12.5,0,1.735863762432706,1.473256034329725,-2.047803550511043,4.37615921232088e-06,3.325728299908953e-06,-1.638242840408834e-05,1.27357793535224e-05,1.227149492723069e-05
84.78581721170551,388.8245882008412,12.5,0,1.628369690217395,1.617275907052637,-2.092872953316381,3.916962283053556e-06,3.87258715039452e-06,-1.674298362653105e-05,1.289800346358334e-05,1.281852803465118e-05
80.04865658340125,405.6399393970219,12.5,0,1.513720550953829,1.331266189202352,-1.945451207402969,3.778892811690372e-06,3.049075364684461e-06,-1.556360965922375e-05,1.141998995378639e-05,1.143923847917508e-05
90.62027766870594,397.8597706280972,12.5,0,1.392697930729649,1.460966283302293,-1.981764822837038,3.28786035169304e-06,3.560933761983618e-06,-1.585411858269631e-05,1.148437120175918e-05,1.199103647936272e-05
84.42863604942684,412.8941796649982,12.5,0,1.355552561821171,1.50284027933243,-1.82491965761554,3.135495974361802e-06,3.724646844406841e-06,-1.459935726092432e-05,1.134256204204238e-05,1.085860876872042e-05
94.89139915780021,404.4739832202209,12.5,0,1.23170220934045,1.636636721156284,-1.850064745214985,2.632137692964412e-06,4.251875740227748e-06,-1.480051796171988e-05,1.141003208335933e-05,1.139995508054059e-05
90.41179926832635,422.8036561566313,12.5,0,1.152932690610364,1.366419239680366,-1.727401990466045,2.596249218208873e-06,3.45019541448888e-06,-1.381921592372836e-05,1.011908683138543e-05,1.010455534736247e-05
100.7258596148006,413.5091656474769,12.5,0,1.017945223531579,1.487181521622617,-1.745026745385361,2.06767949800296e-06,3.944624690367111e-06,-1.396021396308289e-05,1.01033922595791e-05,1.061258222276942e-05
66.30659875849256,427.4783877168015,12.5,0,1.311601288062469,1.29157385961266,-1.757912201912232,3.163865034109771e-06,3.083755320310536e-06,-1.406329761529785e-05,1.042460477061391e-05,9.963539739189756e-06
76.76936186686589,419.058191272024,12.5,0,1.207997759489491,1.396841088587739,-1.780262279578846,2.748119959496178e-06,3.503493275889174e-06,-1.424209823663077e-05,1.045557854089322e-05,1.047372243802177e-05
72.54732271622245,438.9021859486644,12.5,0,1.119540235167463,1.171620146454784,-1.669822603906913,2.645232635372055e-06,2.853552280521338e-06,-1.33585808312553e-05,9.303832536975791e-06,9.264492744235278e-06
82.86138306269672,429.6076954395099,12.5,0,1.006216141473981,1.266955622205324,-1.686127362683395,2.20632715495248e-06,3.249285077877851e-06,-1.348901890146716e-05,9.267837186835582e-06,9.743335860275594e-06
55.4973477878863,407.6917887641549,12.5,0,1.701832959589987,1.25026720478825,-1.964682922401371,4.44565170685736e-06,2.639388687650411e-06,-1.571746337921097e-05,1.180565096716814e-05,1.144555827415364e-05
66.21767163509003,400.7859140596074,12.5,0,1.609156335765328,1.374797638928982,-2.003502589960056,4.049462163305864e-06,3.112027375960479e-06,-1.602802071968045e-05,1.194114436707657e-05,1.190360878868447e-05
61.73807174561618,419.1155869960178,12.5,0,1.480626369132428,1.116172781638521,-1.865978231078395,3.845066155912951e-06,2.387251805937324e-06,-1.492782584862716e-05,1.052572365704216e-05,1.054795448655255e-05
72.30969283092082,411.3354182270932,12.5,0,1.375665515886123,1.228983943971263,-1.897420979211736,3.418942495658583e-06,2.832216207999142e-06,-1.517936783369389e-05,1.057716712879362e-05,1.105256582460173e-05
121.1421853519749,431.5141920456709,12.5,0,0.6265324115906064,1.585262849349778,-1.326704628219958,7.366934376101177e-07,4.571615188646804e-06,-1.061363702575967e-05,8.774203974677243e-06,8.794824407513026e-06
129.8552935289378,438.5196192188708,12.5,0,0.4855995040233436,1.400459666510712,-1.231472514241824,4.335506796661303e-07,4.092991329615602e-06,-9.851780113934589e-06,7.594158474305034e-06,8.038687856573854e-06
112.8882961232538,441.8850618251266,12.5,0,0.7269247401022196,1.483140489962459,-1.35055731531396,1.139646776357136e-06,4.164509775798091e-06,-1.080445852251168e-05,8.76042670037606e-06,8.350115456500085e-06
122.5573953736002,449.2509932680469,12.5,0,0.5997909995134503,1.311154646100481,-1.263656693332083,8.704074815626557e-07,3.715862067910781e-06,-1.010925354665666e-05,7.675411133910455e-06,7.627163723365962e-06
106.8460298480414,449.4770654220459,12.5,0,0.6255629635861025,1.386757072717195,-1.287886968886784,8.923958253017721e-07,3.937172261826141e-06,-1.030309575109427e-05,8.042226274282646e-06,8.029191774583903e-06
117.2149631356571,457.1069043067359,12.5,0,0.4990075509758782,1.202109060407772,-1.199149300745522,6.351369147965925e-07,3.447542952524168e-06,-9.593194405964176e-06,6.918236677398948e-06,7.319931825087851e-06
98.59214061932029,459.8479352015015,12.5,0,0.702103510485337,1.29501569599548,-1.31194469407547,1.210718676756695e-06,3.582367418797265e-06,-1.049555755260376e-05,7.993891224898483e-06,7.597120921212485e-06
109.9170649803196,467.8382783559119,12.5,0,0.5861321242154961,1.12178799880061,-1.230042812288043,9.781923984490994e-07,3.120815896789555e-06,-9.840342498304343e-06,6.950498229236419e-06,6.892082802458428e-06
88.88651057392137,436.2617968204356,12.5,0,0.8893754174341777,1.432184949385179,-1.545547309583158,1.700253376281225e-06,3.871491504085232e-06,-1.236437847666527e-05,9.29832030610736e-06,9.225111596476306e-06
99.25544386153713,443.8916357051256,12.5,0,0.7612782987302555,1.241422818182753,-1.45511632655552,1.442952301390615e-06,3.363530379200605e-06,-1.164093061244416e-05,8.14866730391386e-06,8.539683155747664e-06
78.97679623454742,446.0082548884012,12.5,0,0.9524845355232529,1.309416564221316,-1.561903628786652,2.000417262297356e-06,3.428145377089609e-06,-1.249522903029321e-05,9.103930645246282e-06,8.764873021084816e-06
90.30172059554675,453.9985980428116,12.5,0,0.8344710300119521,1.129527118340973,-1.478052188137494,1.766685601365468e-06,2.946909954681553e-06,-1.182441750509995e-05,8.033872278009337e-06,8.098933547870714e-06
106.0506392979025,419.3804362531828,12.5,0,0.8999630887759373,1.646317677344983,-1.5950497462515,1.562827742207013e-06,4.548246096483196e-06,-1.2760397970012e-05,1.011502628092951e-05,1.005963719720068e-05
114.7637474748654,426.3858634263829,12.5,0,0.7533673612288887,1.457475699629843,-1.496659079390638,1.24479499622857e-06,4.061228349832385e-06,-1.19732726351251e-05,8.899393292640026e-06,9.33633615126134e-06
96.14092495852854,429.1268943211484,12.5,0,0.9913295607467574,1.513087340249267,-1.605745099086819,1.96178472219021e-06,4.04881584020025e-06,-1.284596079269455e-05,9.964184170905755e-06,9.572042611844503e-06
105.810024208875,436.4928257640689,12.5,0,0.8582636051913421,1.336222607269702,-1.515335301532319,1.677465450796533e-06,3.589301459109973e-06,-1.212268241225855e-05,8.841827948308699e-06,8.871244184028033e-06
154.5791347013736,348.4675926376863,12.5,0,1.120863954627807,2.857572775610996,-2.208684939640311,1.300706434320185e-06,8.247541718252942e-06,-1.766947951712248e-05,1.562522615377647e-05,1.602423111547659e-05
159.4534039163854,350.8796538578617,12.5,0,1.040515423622359,2.743216545525919,-2.148187078644724,1.135076119170813e-06,7.945880606785052e-06,-1.718549662915779e-05,1.491109048322865e-05,1.540819022221078e-05
151.8532491241444,354.0485123484495,12.5,0,1.231905863211935,2.833839564647383,-2.228002113493852,1.675027110560284e-06,8.082761916302078e-06,-1.782401690795081e-05,1.591464651525055e-05,1.537888021737214e-05
156.9460315788484,356.8824709667734,12.5,0,1.152103162155477,2.727638734794472,-2.170524927229171,1.504619131061948e-06,7.806761421617928e-06,-1.736419941783337e-05,1.523263734398002e-05,1.471881700430812e-05
163.0216166313912,352.6454052219216,12.5,0,0.839111940424109,2.834401514936165,-1.918015568973107,4.176369974082168e-07,8.39879529545644e-06,-1.534412455178485e-05,1.440030855122145e-05,1.492674100821682e-05
167.8958858464031,355.057466442097,12.5,0,0.7571624289950637,2.716782247949605,-1.856316333272291,2.494939744245196e-07,8.087973250242685e-06,-1.485053066617833e-05,1.366894025259534e-05,1.422743818753109e-05
160.6742070874285,358.957072661846,12.5,0,0.9703924529992765,2.821456715518729,-1.947224732431073,8.480904771827013e-07,8.252347527260511e-06,-1.557779785944858e-05,1.479510701943301e-05,1.420962020355571e-05
165.7669895421324,361.79103128017,12.5,0,0.8882794319348531,2.711239711008592,-1.888043181492415,6.735024133846569e-07,7.96534352967961e-06,-1.510434545193932e-05,1.409008983098623e-05,1.347853188585348e-05
158.9557840351487,363.5775339081525,12.5,0,0.7742662281284413,2.582936115187211,-1.768094543453116,4.113030378612433e-07,7.645982586096321e-06,-1.414475634762493e-05,1.316975953578643e-05,1.368994675248574e-05
164.2085292834269,366.7203428574892,12.5,0,0.6733113736638798,2.457438609102753,-1.697582476245529,1.886455084422127e-07,7.325154450197706e-06,-1.358065980996423e-05,1.234325430642892e-05,1.293966380927678e-05
156.6083744911859,369.889201348077,12.5,0,0.908686690344056,2.572613851992424,-1.794957818638619,8.497063275070401e-07,7.505414974100509e-06,-1.435966254910895e-05,1.358247920263785e-05,1.298729328541867e-05
162.0796329791561,373.4539076955622,12.5,0,0.8084889437856347,2.454164721598055,-1.727281625668975,6.238328428355872e-07,7.206535954085266e-06,-1.38182530053518e-05,1.278334690777976e-05,1.221635514710734e-05
149.8577623860783,358.1340291295172,12.5,0,1.062007395874069,2.624643039273129,-2.067625780187393,1.298709235378516e-06,7.549251808974759e-06,-1.654100624149914e-05,1.448966428068789e-05,1.490509856610509e-05
155.1105076343565,361.2768380788538,12.5,0,0.959737520639261,2.503147288123893,-1.996602140137796,1.06864223554652e-06,7.24228130548505e-06,-1.597281712110237e-05,1.367127986695015e-05,1.421658340833756e-05
147.1318768088492,363.7149488402804,12.5,0,1.182349242705354,2.605986096104905,-2.083120781070516,1.698728699773208e-06,7.393276113371413e-06,-1.666496624856413e-05,1.482448245929901e-05,1.425605392119906e-05
152.6031352968195,367.2796551877656,12.5,0,1.081474397263587,2.49206372738856,-2.015557955677422,1.467067089332629e-06,7.109424409832523e-06,-1.612446364541938e-05,1.403843398021908e-05,1.353382892472228e-05
8.243979941966005,577.2374043556133,12.5,0,0.9928747515459383,0.2794829324414095,-1.070915745348372,2.953612858993874e-06,1.000455825757599e-07,-8.567325962786974e-06,5.397351248564362e-06,5.539969486212746e-06
30.76695200095341,579.5179632078928,12.5,0,0.9881738683627573,0.368240231405153,-0.9683302922419265,2.867564193636701e-06,3.878296458062837e-07,-7.746642337935412e-06,5.538474301062663e-06,5.653549425562812e-06
8.311445898184635,597.4959749534993,12.5,0,1.236086558708064,0.3400286715006385,-1.040325391071704,3.683454050665294e-06,9.92225018355921e-08,-8.322603128573632e-06,6.382955905821931e-06,6.317732856507364e-06
31.0187383773504,599.0404128401433,12.5,0,1.240760841954475,0.4303516114527186,-0.9374421825300666,3.626153405092145e-06,3.845164830851192e-07,-7.499537460240533e-06,6.586270016308984e-06,5.884192296625968e-06
47.25491188488542,581.1874481573414,12.5,0,0.8296314500339357,0.3425699368410265,-0.9014687836219664,2.380764690635773e-06,4.325186378641365e-07,-7.211750268975731e-06,4.847823404837788e-06,5.375964767024736e-06
69.77788394387282,583.4680070096208,12.5,0,0.7815228720056703,0.2689272140187122,-0.7816537607395444,2.285731419203175e-06,2.353487872553429e-07,-6.253230085916355e-06,4.328246739329357e-06,4.504009437114744e-06
47.64163017371966,600.1710198422529,12.5,0,1.08085705919826,0.4063831965778618,-0.9231561018755503,3.133636032172141e-06,4.3574058169055e-07,-7.385248815004403e-06,5.933954084797865e-06,5.358816208024736e-06
70.34892265288542,601.7154577288968,12.5,0,1.043518017815591,0.3360381120016263,-0.805329216948348,3.070427167408588e-06,2.405075441527318e-07,-6.442633735586785e-06,5.472445762003442e-06,4.357002600704734e-06
47.9247276093504,614.0679588241433,12.5,0,1.021934960407861,0.006359147047302394,-0.4137443419942819,3.265104555667314e-06,-7.971986977749212e-07,-3.309954735954255e-06,4.078439343797146e-06,5.62661436299395e-06
70.76695200095341,615.0735187634483,12.5,0,1.046870473900811,0.1213737067163141,-0.3809669286300919,3.252886551109545e-06,-4.49100517628444e-07,-3.047735429040735e-06,4.502005438110289e-06,4.112539624942638e-06
48.31144589818464,633.0515305090548,12.5,0,1.094696984640294,0.02279558356487199,-0.379861628170549,3.484793883997044e-06,-8.028117203046451e-07,-3.038893025364392e-06,4.379910135889791e-06,6.375401087574153e-06
71.33799070996601,633.3209694827243,12.5,0,1.122352842294646,0.1374392934774207,-0.3460081167809274,3.48157766056093e-06,-4.580765347079706e-07,-2.768064934247419e-06,4.818762158612394e-06,3.59166119097273e-06
8.36083440591579,612.3262779192424,12.5,0,1.624336627101802,0.3480833695902819,-0.9434115887567793,4.919410511053539e-06,-1.856025189925392e-07,-7.547292710054234e-06,7.711871686001906e-06,8.052975296753296e-06
31.20305879751881,613.3318378585475,12.5,0,1.532206736213363,0.158333148378618,-0.5343847892824944,4.776395037179868e-06,-7.190993141591129e-07,-4.275078314259956e-06,6.517208859090049e-06,6.682450919049544e-06
8.428300362134422,632.5848485171284,12.5,0,2.542092961210683,0.577992924844805,-1.001066566200392,7.672303135998342e-06,-1.840970094651707e-07,-8.008532529603136e-06,1.186674933600237e-05,1.201598243686192e-05
31.45484517391579,632.854287490798,12.5,0,2.485450545628508,0.3985358416111184,-0.5976637232754837,7.634613072722329e-06,-7.13045743347227e-07,-4.78130978620387e-06,1.090082550747841e-05,8.632691162120258e-06
343.5391849709644,172.0504744733869,12.5,0,8.006234448871016,-0.3012657870237789,-2.48840579332034,2.586096286600627e-05,-7.369038077572904e-06,-1.990724634656272e-05,3.049535635467478e-05,3.084845263683792e-05
347.5318807600395,170.5270883361651,12.5,0,8.047213071852973,-0.4156747959337208,-2.434483323394196,2.608362166667648e-05,-7.767929804470284e-06,-1.947586658715357e-05,3.028859544838869e-05,2.952747098787835e-05
345.1281007527791,175.1071111954712,12.5,0,8.211276823870408,-0.1872757961448905,-2.57338439957252,2.642590647330121e-05,-7.168304006759975e-06,-2.058707519658016e-05,3.164492656729142e-05,3.191295976325532e-05
348.9309171171008,174.154226574676,12.5,0,8.229327870376038,-0.3279162951421908,-2.502989968813506,2.659618222131707e-05,-7.63279444075584e-06,-2.002391975050805e-05,3.126454255258389e-05,3.085901276492044e-05
350.4547369366846,169.41189228422,12.5,0,7.373619169831449,-0.3620529941388779,-2.589417412193973,2.388522373877174e-05,-7.057464917109568e-06,-2.071533929755179e-05,2.799675355604252e-05,2.861747556132519e-05
354.4474327257598,167.8885061469982,12.5,0,7.468128049647307,-0.3704495917724939,-2.493023461276966,2.419436943228937e-05,-7.159941133389825e-06,-1.994418769021573e-05,2.827355967288582e-05,2.745230347018052e-05
351.7147719075203,173.4566666185326,12.5,0,7.707830351390575,-0.2662758034802652,-2.643775723290597,2.487807776723405e-05,-7.018346852249308e-06,-2.115020578632477e-05,2.955790703062101e-05,3.014138734486369e-05
355.517588271842,172.5037819977373,12.5,0,7.774118398926674,-0.2856006004867582,-2.533843235302693,2.510565935695476e-05,-7.133216640698966e-06,-2.027074588242155e-05,2.969150631902718e-05,2.923474523471724e-05
352.6371815254464,176.417646936274,12.5,0,8.165593118117735,-0.3679688264614192,-2.285956946018415,2.642427303914589e-05,-7.709974739170729e-06,-1.828765556814732e-05,3.080432250846329e-05,3.126256264789879e-05
356.3009965035426,175.8823984112803,12.5,0,8.193712868941537,-0.4421380552583676,-2.162939847694337,2.657359162481961e-05,-7.969812071980005e-06,-1.73035187815547e-05,3.063916399939535e-05,3.054383282816435e-05
353.8972164962821,180.4624212705865,12.5,0,8.644337752881073,-0.2134281846065971,-2.385552249659887,2.783262335690471e-05,-7.598440393045969e-06,-1.908441799727909e-05,3.311335168280349e-05,3.280175875657385e-05
357.3711520496249,180.4976742620194,12.5,0,8.615553100748103,-0.3137046226232103,-2.238718135943616,2.782073362049249e-05,-7.896297272992755e-06,-1.790974508754893e-05,3.264488231415751e-05,3.233788488063526e-05
346.2912678339659,177.3447245762226,12.5,0,8.536832424303658,-0.3770016054588075,-2.246859452338526,2.761946504213874e-05,-8.035871076911109e-06,-1.797487561870821e-05,3.216422322078071e-05,3.266504834019981e-05
349.9550828120621,176.809476051229,12.5,0,8.555448500829472,-0.4567088582033292,-2.146257653830647,2.774280228921697e-05,-8.305827146914231e-06,-1.717006123064517e-05,3.195896117321752e-05,3.183094063130338e-05
347.8801836157805,180.4013612983069,12.5,0,8.861829808004916,-0.2471286725166744,-2.345100383617169,2.855555832362907e-05,-7.88027559845729e-06,-1.876080306893735e-05,3.381898112397372e-05,3.365528541787427e-05
351.3541191691234,180.4366142897399,12.5,0,8.831159194898166,-0.3568553120397842,-2.217015643952546,2.854519367330595e-05,-8.206864354445842e-06,-1.773612515162037e-05,3.332561650670275e-05,3.315475516662438e-05
138.3255861317178,338.0912016499894,12.5,0,1.783360699551133,2.674358769982356,-2.703268818100905,3.56726722257774e-06,7.131259504302632e-06,-2.162615054480724e-05,1.758374195924968e-05,1.823575508676192e-05
142.996046515922,341.1555275923339,12.5,0,1.732646727383188,2.643024723087793,-2.672230473222185,3.430049749155966e-06,7.071561731974386e-06,-2.137784378577748e-05,1.728061710700827e-05,1.758776699323422e-05
136.4397278354522,343.4079651050188,12.5,0,1.867589918677489,2.687213426258253,-2.701024543816551,3.826516998761361e-06,7.105011029084419e-06,-2.16081963505324e-05,1.790281521507336e-05,1.747473941511319e-05
140.8132269394938,346.5077101535256,12.5,0,1.811332609499241,2.653851022833741,-2.668510791579148,3.673183532130578e-06,7.043257185468577e-06,-2.134808633263318e-05,1.757256571036169e-05,1.689329548983256e-05
146.4150608117517,343.398769872986,12.5,0,1.431170252282008,2.774983544682149,-2.470475602775203,2.359757971556704e-06,7.735011141157271e-06,-1.976380482220162e-05,1.656772031086224e-05,1.711794586313353e-05
151.0855211959558,346.4630958153303,12.5,0,1.347080849682865,2.697554191323727,-2.416207690900821,2.152615365926187e-06,7.554508732489634e-06,-1.932966152720657e-05,1.597629025349811e-05,1.648235875870214e-05
144.0148504903731,348.7768810194461,12.5,0,1.554104899745719,2.774306307293724,-2.476652207662919,2.753690633351322e-06,7.634496263543343e-06,-1.981321766130335e-05,1.697059176041357e-05,1.645646955004572e-05
148.3883495944147,351.8766260679531,12.5,0,1.461919922458855,2.693245144633217,-2.419615599091493,2.523547636161763e-06,7.448848524859209e-06,-1.935692479273195e-05,1.633622691963798e-05,1.584448281371392e-05
142.2577745863475,352.7139316272401,12.5,0,1.336248672783551,2.571209444477267,-2.305312830627758,2.219028197325551e-06,7.158871284100411e-06,-1.844250264502206e-05,1.539894190935124e-05,1.597139150826991e-05
146.4138829454387,355.8396052610155,12.5,0,1.254040620791986,2.497228241072434,-2.255353165793652,2.015147393676406e-06,6.987897874798199e-06,-1.804282532634922e-05,1.482966100884603e-05,1.537529797933892e-05
139.857564264969,358.0920427737003,12.5,0,1.454878733480198,2.567193868393435,-2.314136432113076,2.601856852421885e-06,7.051117392074832e-06,-1.851309145690461e-05,1.577866309436514e-05,1.530760996553385e-05
143.7167113438976,361.253135513638,12.5,0,1.364108436557285,2.489556797356872,-2.261286259047612,2.373501559097815e-06,6.875295002296162e-06,-1.809029007238089e-05,1.516471147386908e-05,1.473133711861936e-05
135.0591837467692,347.3001060857601,12.5,0,1.617107119219146,2.500518682356126,-2.521339686752219,3.174327835616368e-06,6.707974088164285e-06,-2.017071749401775e-05,1.627006831683002e-05,1.695158940797668e-05
139.2152921058604,350.4257797195355,12.5,0,1.558126469222555,2.45775653339742,-2.487227493831485,3.019799474794241e-06,6.618319731493699e-06,-1.989781995065188e-05,1.589812612284683e-05,1.639375752359635e-05
133.1733254505036,352.6168695407894,12.5,0,1.709564877815867,2.509677995192375,-2.524284011760668,3.462865212856874e-06,6.663317682362906e-06,-2.019427209408534e-05,1.660754014315049e-05,1.628333268008768e-05
137.0324725294323,355.7779622807271,12.5,0,1.643739241778303,2.464211806393091,-2.488185002520923,3.288596128576095e-06,6.570486387035248e-06,-1.990548002016738e-05,1.620120798708015e-05,1.572346592287303e-05
131.9205641763933,317.6787504184433,12.5,0,2.702087981147029,2.52499142180465,-3.311367961306711,6.626688402226771e-06,5.918302164857256e-06,-2.649094369045369e-05,2.071509758648878e-05,2.146430681237843e-05
136.4634594829486,319.1161136768076,12.5,0,2.782093537599427,2.704742997634644,-3.375919420918542,6.73890492221045e-06,6.429502762351318e-06,-2.700735536734834e-05,2.164689227382416e-05,2.141111971530332e-05
129.7991577848613,323.0736459237384,12.5,0,2.616783926072633,2.556474370666392,-3.272304554238645,6.328529066899311e-06,6.087290845274349e-06,-2.617843643390916e-05,2.0495946644015e-05,2.054460079203159e-05
135.6918879881976,324.1972683146315,12.5,0,2.670288674642429,2.701060802135119,-3.318725435418324,6.384075117147676e-06,6.507163627118437e-06,-2.654980348334659e-05,2.120436830279063e-05,2.055297714855457e-05
128.2461805228246,327.0229835349713,12.5,0,2.435465010671712,2.420639712731209,-3.054331946370819,5.856976263964512e-06,5.797675072202497e-06,-2.443465557096655e-05,1.922239990015447e-05,1.992749658645455e-05
135.127058452392,327.9169316704745,12.5,0,2.504093594266624,2.606928005360197,-3.131030355998324,5.927557097365038e-06,6.33889474173933e-06,-2.504824284798659e-05,2.015137855981969e-05,1.993325293683311e-05
126.1247741312926,332.4178790402664,12.5,0,2.335402878762562,2.436362122415736,-3.029249095808605,5.524199514107611e-06,5.928036488720304e-06,-2.423399276646884e-05,1.89162059200502e-05,1.916124256352883e-05
134.3554869576409,332.9980863082983,12.5,0,2.385321627657447,2.594741437154785,-3.0919443420299,5.557236058780001e-06,6.394915296769353e-06,-2.47355547362392e-05,1.967575775475602e-05,1.909827747040628e-05
116.3281503483487,325.4746199449762,12.5,0,2.797102193094453,2.050247550057276,-3.079343172858649,7.310528977856428e-06,4.323110405707721e-06,-2.463474538286919e-05,1.92396130329676e-05,1.983612553681166e-05
123.2090282779161,326.3685680804794,12.5,0,2.841865423725287,2.16672787198267,-3.132978007838906,7.360587058334783e-06,4.660036851364312e-06,-2.506382406271124e-05,1.982684591230573e-05,1.990147137805668e-05
111.8687613338046,331.4129305731324,12.5,0,2.72242666622313,2.086579732616082,-3.075205960070994,7.042501545821148e-06,4.49911381139296e-06,-2.460164768056795e-05,1.910144083897252e-05,1.891097771186075e-05
120.099474160153,331.9931378411643,12.5,0,2.755806929260985,2.189578665189252,-3.121173045816664,7.066919241483751e-06,4.802006185196819e-06,-2.496938436653331e-05,1.959868922339845e-05,1.911105574448557e-05
124.0520386921147,315.1891642260682,12.5,0,3.039413053059454,2.226526387675917,-3.358876832325698,7.944900659649519e-06,4.693353998115371e-06,-2.687101465860558e-05,2.091444288822614e-05,2.151214379007505e-05
128.59493399867,316.6265274844326,12.5,0,3.075820174818139,2.308446745107954,-3.388228131178064,7.995867163331682e-06,4.926373444490941e-06,-2.710582504942451e-05,2.133580862785782e-05,2.149137613162877e-05
119.5926496775706,321.1274748542244,12.5,0,3.001044462064153,2.270577762203229,-3.345136485030657,7.786880068842708e-06,4.865013269399009e-06,-2.676109188024526e-05,2.09153530482777e-05,2.053310588682673e-05
125.4853798809069,322.2510972451175,12.5,0,3.02735217941046,2.341750181504382,-3.367924925839664,7.814126828909967e-06,5.071718837285655e-06,-2.694339940671731e-05,2.126114300878134e-05,2.053927630349919e-05
4.934175021559994,398.0278644118735,12.5,0,2.142852584188152,0.5948157327929002,-2.080897117988157,6.381275683167765e-06,1.891282775867592e-07,-1.664717694390526e-05,1.136703067815571e-05,1.135421806072265e-05
18.41459187447227,396.3967762822234,12.5,0,2.167581969494031,0.804851151291577,-2.162866223743265,6.292381381347638e-06,8.414581085378214e-07,-1.730292978994612e-05,1.218053865798959e-05,1.181308806709516e-05
5.133098041747479,417.3882383432162,12.5,0,1.859261135517904,0.5214978796853352,-1.985595740960083,5.532437329909024e-06,1.813843065787493e-07,-1.588476592768066e-05,1.007886231476104e-05,1.013519802712401e-05
19.15698269263012,412.5671103196411,12.5,0,1.830941682734121,0.707955613378682,-2.046170256444023,5.292648894046243e-06,8.007046166244848e-07,-1.636936205155219e-05,1.061457637686907e-05,1.070208387367781e-05
4.589630243806409,364.4947131098581,12.5,0,2.721278853125307,0.7195152957559436,-2.212366000925295,8.132480093396227e-06,1.254258639187737e-07,-1.769892800740236e-05,1.388739250677523e-05,1.438793319586954e-05
17.12873325837335,368.3889361545586,12.5,0,2.847919816164896,0.8890839043250278,-2.338007792436966,8.402076288267643e-06,5.667326409081725e-07,-1.870406233949572e-05,1.497660102544775e-05,1.413270017206795e-05
4.788553263993895,383.855087041201,12.5,0,2.368067886072149,0.6294851608242118,-2.143758763305781,7.074229106771506e-06,1.198982057797587e-07,-1.715007010644625e-05,1.231289481129655e-05,1.249373501477598e-05
17.8711240765312,384.5592701919765,12.5,0,2.417520063124929,0.7721210447724718,-2.249065672956996,7.118367366181794e-06,5.367712927719665e-07,-1.799252538365597e-05,1.302817708442805e-05,1.273231893376124e-05
26.30799374598617,371.2397052791638,12.5,0,2.451446060310996,0.8624397105010273,-2.166748898843438,7.154675624594363e-06,7.986502253544907e-07,-1.73339911907475e-05,1.334286307457757e-05,1.404069449788518e-05
38.84709676055311,375.1339283238643,12.5,0,2.597927636092666,1.08306780640434,-2.307230790277017,7.44691419037306e-06,1.387474871619755e-06,-1.845784632221614e-05,1.468265043290471e-05,1.404456334522413e-05
27.44823060451899,385.0747680361562,12.5,0,2.204538245914271,0.7889269518610031,-2.102013836658339,6.423380825436864e-06,7.609356492237935e-07,-1.681611069326672e-05,1.219466766557442e-05,1.289028815310242e-05
40.5308014170563,385.7789511869316,12.5,0,2.263872970827337,0.9693062044664245,-2.211399807467477,6.468948543074338e-06,1.290681477630689e-06,-1.769119845973982e-05,1.307315029009797e-05,1.308328416740762e-05
28.28294191759225,395.2027368997479,12.5,0,2.068725754334419,0.899241572497796,-2.044691741872756,5.900529155871903e-06,1.222592428525412e-06,-1.635753393498205e-05,1.201296675642483e-05,1.210565660258271e-05
41.76335877050454,393.5716487700978,12.5,0,2.083764250418337,1.101069901950468,-2.15219473798086,5.787189679778304e-06,1.856412285906826e-06,-1.721755790384688e-05,1.281245207541392e-05,1.244609869989216e-05
29.42317877612508,409.03779965674,12.5,0,1.830561725890472,0.8274203159279294,-1.977831255335139,5.195861270107167e-06,1.183295630256996e-06,-1.582265004268111e-05,1.090602946519585e-05,1.111240968603291e-05
43.44706342700772,404.216671633165,12.5,0,1.78080788419133,0.995726002216076,-2.059824558058478,4.902004427639395e-06,1.761676899738379e-06,-1.647859646446782e-05,1.135426981968728e-05,1.166655480653787e-05
5.411018357239408,223.8623696249637,12.5,0,4.566603268701861,0.9470140190615373,-1.153705665799809,1.385551924459673e-05,-6.228377539645698e-07,-9.229645326398471e-06,2.073611183843216e-05,1.871303684243964e-05
20.19419543053385,232.1002221581017,12.5,0,4.34333004067557,0.2506316925232777,-0.9756246571918938,1.36981507761432e-05,-2.672642616465967e-06,-7.804997257535151e-06,1.762970944395956e-05,1.878686969706534e-05
5.248306730431382,243.3653985367868,12.5,0,4.676438923947256,0.9681415694140485,-1.456914076444404,1.419009130109998e-05,-6.430981170328495e-07,-1.165531261155523e-05,2.133842744723161e-05,2.103702922114099e-05
19.58694737228522,248.8029518306412,12.5,0,4.461844624570734,0.248869501195463,-1.319264434269724,1.407880719766998e-05,-2.773093295831105e-06,-1.055411547415779e-05,1.821119385051038e-05,1.97306509258725e-05
31.01623214501267,238.1307487573623,12.5,0,5.244741640737583,0.0398227680626706,-1.67413422623125,1.675131503591013e-05,-4.06836045478952e-06,-1.339307380985e-05,2.070121024044083e-05,1.919429920154199e-05
45.79940921830713,246.3686012905003,12.5,0,5.338948888630816,-0.1288310717330463,-1.72918118185631,1.718770130100505e-05,-4.683418540450401e-06,-1.383344945485048e-05,2.058296263038937e-05,2.023358445369642e-05
30.08356083314797,252.7835171104369,12.5,0,5.017604830943629,-0.0274753589256338,-1.745560672224187,1.607831574616012e-05,-4.102005013316931e-06,-1.39644853777935e-05,1.968448620502371e-05,1.955725414239975e-05
44.42220147500178,258.2210704042914,12.5,0,5.068352181981084,-0.2191151483472653,-1.818628825394649,1.639401910101728e-05,-4.755850220296116e-06,-1.454903060315719e-05,1.935233544834078e-05,2.038990361533151e-05
29.40079804613011,263.510088015969,12.5,0,5.061316063125318,0.3769116477046008,-1.989410718286683,1.589468208383734e-05,-2.842935577845531e-06,-1.591528574629347e-05,2.120184600945094e-05,1.975173051369078e-05
43.41401543436785,266.8976799903585,12.5,0,5.087514935804045,0.2095724143816859,-2.085168258395678,1.611238986306759e-05,-3.399380222621841e-06,-1.668134606716542e-05,2.085021115361061e-05,2.038226658393479e-05
28.46812673426536,278.1628563690437,12.5,0,4.789824749006954,0.2991262051450385,-2.058120939235445,1.508813823270622e-05,-2.87465594274144e-06,-1.646496751388356e-05,1.999627835915623e-05,1.992009490009432e-05
42.03680769106249,278.7501491041497,12.5,0,4.754118937860258,0.1041790462453009,-2.175326262528501,1.512983736415658e-05,-3.469922202303243e-06,-1.740261010022801e-05,1.935748896777229e-05,2.020508266450398e-05
5.129193552630781,257.6426066011191,12.5,0,4.704836805994321,1.038220238440034,-1.685479059992824,1.42249015884298e-05,-4.415646817873479e-07,-1.348383247994259e-05,2.177582803523948e-05,2.165875793192492e-05
19.14241094086855,261.0301985755086,12.5,0,4.610922446780616,0.5554460964668727,-1.685376761221062,1.431059495252447e-05,-1.9113104487305e-06,-1.348301408976849e-05,1.989773770442365e-05,2.00937653395194e-05
4.966481925822745,277.1456355129422,12.5,0,4.556890019630853,0.99647688241183,-1.913996068721187,1.378486655688927e-05,-4.56785991986827e-07,-1.53119685497695e-05,2.121124984937749e-05,2.103335997968176e-05
18.53516288261987,277.7329282480483,12.5,0,4.434605213001396,0.4873548340555836,-1.951878696914507,1.380085281436e-05,-1.988148701423249e-06,-1.561502957531605e-05,1.918413241555642e-05,2.014203113779831e-05
85.2190187196348,584.4832289140023,12.5,0,0.5578741177467265,0.1927762440545136,-0.561586550415705,1.630976181545914e-06,1.705846867770623e-07,-4.49269240332564e-06,3.095981443675905e-06,3.900033845324338e-06
104.8820113963413,584.9763078855677,12.5,0,0.5701831358845399,0.2464166942459232,-0.5445299618114312,1.627452679433789e-06,3.323869128793222e-07,-4.356239694491449e-06,3.287286960480121e-06,3.121897171861306e-06
86.26288454984343,602.4029853368384,12.5,0,0.5971692586507352,0.2000867292117222,-0.545201525818636,1.750872244312975e-06,1.625421265569227e-07,-4.361612206549088e-06,3.236499580711e-06,3.607711174700062e-06
107.0333445247306,602.7369078067768,12.5,0,0.6092015286216823,0.2508846220961422,-0.5289084463795085,1.748737193912469e-06,3.15469567810309e-07,-4.231267571036068e-06,3.421718744555546e-06,2.562422536412528e-06
119.2763210639332,585.3372667448821,12.5,0,0.3173071678007706,0.1470931084912947,-0.3069749453801898,8.977084501694301e-07,2.168522129315265e-07,-2.455799563041519e-06,1.864797942272436e-06,2.624161305643394e-06
138.9393137406397,585.8303457164475,12.5,0,0.3368437164483249,0.222418585263689,-0.3189299666670286,8.999650244236885e-07,4.422644996851447e-07,-2.551439733336229e-06,2.187618637837684e-06,2.042458303791972e-06
122.2383765222773,602.9813560205503,12.5,0,0.2894892575654807,0.1302149916821926,-0.2817454103236089,8.221936308637842e-07,1.850965673306318e-07,-2.253963282588871e-06,1.690395876530358e-06,1.978413602201597e-06
143.0088364971645,603.3152784904886,12.5,0,0.3076626486637106,0.2012027749017826,-0.2927829011004786,8.235582558024476e-07,3.977187607547359e-07,-2.342263208803828e-06,1.993018471454051e-06,1.428160160082883e-06
124.4067516125297,615.8977258230714,12.5,0,0.1810828790791744,0.01553774335589891,-0.06006243956532533,5.670350183686389e-07,-9.514552452446302e-08,-4.804995165226026e-07,7.588692825402383e-07,1.430070394968701e-06
145.9879339173717,616.1151376474688,12.5,0,0.1998726771097672,0.08200288432200231,-0.1466120313346352,5.73990259293653e-07,1.025110881425936e-07,-1.172896250677082e-06,1.097803449974451e-06,9.368886283560271e-07
127.3688070708738,633.5418150987394,12.5,0,0.001942609336103608,-0.03722319986335777,-0.02991471745640787,3.599490976621776e-08,-1.206683270316277e-07,-2.393177396512629e-07,2.824823866135047e-08,5.777165962012661e-07
150.0574566738964,633.6000704215099,12.5,0,0.01812325595886677,0.0253980285419222,-0.1118162869235039,3.76759962348359e-08,6.677508656705762e-08,-8.945302953880308e-07,2.97534598512225e-07,2.090079870180985e-07
87.02704737380873,615.5211574970555,12.5,0,0.5035435502572496,0.03957243343150417,-0.1761720760466167,1.579681414077995e-06,-2.762030532249863e-07,-1.409376608372934e-06,2.103692797992329e-06,3.146739189605242e-06
108.6082296786507,615.7385693214529,12.5,0,0.5280933167292081,0.1305754140041714,-0.2479453257459477,1.585438282330129e-06,-4.633328570018139e-09,-1.983562605967582e-06,2.521885999774889e-06,2.022198068230463e-06
88.07091320401736,633.4409139198915,12.5,0,0.3535626077820518,-0.001788497452854546,-0.146373793556502,1.13283114286485e-06,-2.88573278074776e-07,-1.170990348452016e-06,1.401279456781467e-06,2.179662976031043e-06
110.75956280704,633.499169242662,12.5,0,0.3755243747172218,0.0843163752965715,-0.2143097036582322,1.134224898857853e-06,-3.060709882474866e-08,-1.714477629265858e-06,1.792089113580287e-06,1.105752009051214e-06
209.3728728665518,315.5284522436092,12.5,0,0.3403102288015599,3.778867722621896,-1.129975395501889,-1.934101445932525e-06,1.182012852934882e-05,-9.039803164015112e-06,1.582767746625937e-05,1.624572219074248e-05
212.5871793570701,313.519087213633,12.5,0,0.2892113952826041,3.876185897710585,-1.150710360590542,-2.175472253264135e-06,1.217242575644779e-05,-9.205682884724338e-06,1.604679052026008e-05,1.593575624473961e-05
210.5924466062957,319.7858071107388,12.5,0,0.1621678548115916,3.693357692960378,-1.054798152095865,-2.435749018971209e-06,1.168901033362393e-05,-8.438385216766922e-06,1.49242575553449e-05,1.501203349353726e-05
213.9466334105298,317.7753554264928,12.5,0,0.1157691459318309,3.788656505269094,-1.076032367344822,-2.660463937233416e-06,1.203108550011563e-05,-8.608258938758574e-06,1.515312046626868e-05,1.463836049362172e-05
211.485236547327,322.9024071791958,12.5,0,0.2650009508448903,3.307397491283982,-0.9011719873063236,-1.797914950323537e-06,1.037167121143283e-05,-7.209375898450589e-06,1.371357148008714e-05,1.416268764787342e-05
214.9418228481754,320.891160008814,12.5,0,0.2125085665648075,3.342801109701556,-0.932048222519068,-1.99421347475386e-06,1.052695669779313e-05,-7.456385780152545e-06,1.369885730819941e-05,1.375593422020412e-05
212.7048102870709,327.1597620463255,12.5,0,0.1244998743731236,3.25545842431043,-0.8630827054146993,-2.205967141454348e-06,1.031786705829488e-05,-6.904661643317595e-06,1.307025248045028e-05,1.307592034142881e-05
216.3012769016351,325.1474282216736,12.5,0,0.07590534666653825,3.290489971516677,-0.8935235633197871,-2.389494867880419e-06,1.046884363152013e-05,-7.148188506558297e-06,1.306833586380803e-05,1.264249655830897e-05
205.4982534536185,326.3859894648138,12.5,0,0.3398032437401264,3.422600695065568,-1.124061839489872,-1.65071017608405e-06,1.068047962921772e-05,-8.992494715918979e-06,1.448021316597915e-05,1.477012007183499e-05
208.9548397544669,324.3747422944319,12.5,0,0.2821280327987856,3.469083019360056,-1.157524966253939,-1.87245671053193e-06,1.087536323571315e-05,-9.260199730031514e-06,1.449358297625288e-05,1.443443792778452e-05
206.4755473830323,330.6452264723491,12.5,0,0.1816560893766336,3.366163144647769,-1.08137916820415,-2.111631029712987e-06,1.062639719137155e-05,-8.651033345633203e-06,1.376100517905138e-05,1.372320775101802e-05
210.0720139975965,328.6328926476974,12.5,0,0.1284404748051642,3.411957810329633,-1.114379684989727,-2.31855672888718e-06,1.081551261321069e-05,-8.915037479917816e-06,1.378818205236912e-05,1.336549603275746e-05
203.8055307139757,319.0087745664175,12.5,0,0.4443646331569454,3.813824011600586,-1.358956976378599,-1.629092383178243e-06,1.184874513059632e-05,-1.087165581102879e-05,1.639277005568875e-05,1.669480946991587e-05
207.019837204494,316.9994095364414,12.5,0,0.3801470811639448,3.903159604030413,-1.3879851813825,-1.906057023499707e-06,1.218599306796616e-05,-1.110388145106e-05,1.654413967814298e-05,1.644910988943437e-05
204.7828246433894,323.2680115739529,12.5,0,0.2441388662625259,3.73235379014594,-1.287686442508629,-2.204638660076668e-06,1.174822103545698e-05,-1.030149154006903e-05,1.543299290730502e-05,1.556635835261583e-05
208.1370114476236,321.2575598897068,12.5,0,0.1856027301494403,3.81983168689016,-1.316863344751916,-2.461936613033918e-06,1.207497921392896e-05,-1.053490675801533e-05,1.559859794060933e-05,1.526068977042481e-05
192.7623588661559,310.0718764327414,12.5,0,0.8314483307204932,4.485169243234551,-2.209254655562464,-9.275007362820621e-07,1.368738291377417e-05,-1.767403724449971e-05,2.060640459390551e-05,2.110853292581974e-05
195.4479291740397,309.6887522123871,12.5,0,0.828707539314897,4.509171560637062,-2.232355497212395,-9.554731227019795e-07,1.376638296258668e-05,-1.785884397769916e-05,2.070170570187931e-05,2.078073353215837e-05
192.5038915597898,313.3598250613093,12.5,0,0.7590920339761089,4.469245785794613,-2.200385189093776,-1.146302119912142e-06,1.369431288736187e-05,-1.76030815127502e-05,2.031563483228132e-05,2.02001755795007e-05
195.3987048351878,312.884377637114,12.5,0,0.7552328994565031,4.491231062593135,-2.221662129870367,-1.176239571813698e-06,1.376775308073283e-05,-1.777329703896293e-05,2.039895531095289e-05,1.986223405682061e-05
197.4139030866253,309.4082858174894,12.5,0,0.6594576952520006,4.484684647698117,-1.972173412230261,-1.477483093352091e-06,1.382342471643237e-05,-1.577738729784209e-05,1.991508850797442e-05,2.051587935701737e-05
200.099473394509,309.0251615971351,12.5,0,0.6614340259478638,4.52592833025409,-1.993217127277569,-1.504153781170108e-06,1.39538234360548e-05,-1.594573701822055e-05,2.008730764481764e-05,2.012008368756602e-05
197.5178552311139,312.5363259662902,12.5,0,0.5931228825098761,4.466667744851544,-1.95410084822301,-1.675340971849632e-06,1.381883847751704e-05,-1.563280678578408e-05,1.963098577804701e-05,1.958712579537037e-05
200.4126685065117,312.060878542095,12.5,0,0.5937070055671184,4.50450823727334,-1.973241451812032,-1.703744172003893e-06,1.393946075482099e-05,-1.578593161449625e-05,1.978513692097101e-05,1.917345757015451e-05
197.593953482432,314.8262102832303,12.5,0,0.5634348197992575,4.187650453560554,-1.772787153997094,-1.547128939490819e-06,1.294973359555437e-05,-1.418229723197675e-05,1.839141871467875e-05,1.89357456214301e-05
200.6419432411702,314.2831775831089,12.5,0,0.5590604996039436,4.209605399734045,-1.793288766702945,-1.578690721054616e-06,1.302348887946579e-05,-1.434631013362356e-05,1.847184362046771e-05,1.851403562847931e-05
197.6979056269204,317.9542504320311,12.5,0,0.5075564192560754,4.172958548008478,-1.76339918844388,-1.714186296787341e-06,1.294742221822227e-05,-1.410719350755104e-05,1.815793978283752e-05,1.808489545275355e-05
200.9551383531729,317.3188945280688,12.5,0,0.5025406907961979,4.193223641270245,-1.782394852744845,-1.746448702468362e-06,1.301628309942782e-05,-1.425915882195876e-05,1.822931764895551e-05,1.765908749753186e-05
192.3146803594425,315.7667705099951,12.5,0,0.7279766288032528,4.201969714070652,-2.016071824092251,-1.032050559086112e-06,1.286392178198348e-05,-1.612857459273801e-05,1.911023491519073e-05,1.956000176310656e-05
195.3626701181808,315.2237378098736,12.5,0,0.7203012289655575,4.218043356142178,-2.041044088741412,-1.069470752223958e-06,1.292149775648252e-05,-1.63283527099313e-05,1.916204258569427e-05,1.921601140250505e-05
192.0562130530764,319.0547191385631,12.5,0,0.6587854302616751,4.186077303142584,-2.01097140560281,-1.240748465676706e-06,1.286841902584692e-05,-1.608777124482248e-05,1.883248804121118e-05,1.871937171728719e-05
195.3134457793289,318.4193632346007,12.5,0,0.6504826087533766,4.200865378058779,-2.034263107766383,-1.279147954436218e-06,1.292238312278539e-05,-1.627410486213106e-05,1.887675866121694e-05,1.836899775317561e-05
183.2634871202335,499.685054023697,12.5,0,0.07374917203744256,0.6136910039364345,-0.2795835148707638,-2.549554526293314e-07,1.904811874966636e-06,-2.23666811896611e-06,2.680273349741999e-06,2.837399587144484e-06
195.8337413727182,502.0386061960752,12.5,0,0.02321751870109905,0.4561265710962147,-0.2449286632314355,-2.906051970334548e-07,1.441031012547008e-06,-1.959429305851484e-06,1.922809644304597e-06,2.168247846225489e-06
181.3205128495989,511.047108021898,12.5,0,0.1213250197509523,0.6048472742458146,-0.3246856349732695,-9.563775619360435e-08,1.838451261785845e-06,-2.597485079786156e-06,2.826157522230936e-06,2.59704608635586e-06
194.4332837059451,513.03235750514,12.5,0,0.07457948998494798,0.4527698494378711,-0.2931287576194215,-1.235615115984633e-07,1.389199926213229e-06,-2.345030060955372e-06,2.10441424510221e-06,1.955930922404795e-06
179.8981569657557,519.3647088265686,12.5,0,0.08843517178547647,0.4908183244002495,-0.2421283537374798,-1.096621098066749e-07,1.499870500652417e-06,-1.937026829899839e-06,2.247245774370652e-06,2.416819788907439e-06
193.4080775400613,521.08034202881,12.5,0,0.0477943167096478,0.3545516703130487,-0.2150149752621532,-1.30699522779566e-07,1.096329891634037e-06,-1.720119802097225e-06,1.603546594218228e-06,1.80104128406941e-06
177.9551826951212,530.7267628247698,12.5,0,0.127128883203556,0.4836243506519872,-0.2788132271576815,1.991294572978947e-08,1.445894815523514e-06,-2.230505817261452e-06,2.368575512329768e-06,2.164785888186023e-06
192.0076198732881,532.0740933378748,12.5,0,0.08936555696456153,0.3518338197833007,-0.2540301725304716,4.502726459956317e-09,1.054375777734913e-06,-2.032241380243772e-06,1.754715366807595e-06,1.590191846373871e-06
156.4982881252588,516.393144953188,12.5,0,0.1683216049629945,0.6565937775978913,-0.4278436051941548,1.335411380326934e-08,1.966442804342856e-06,-3.422748841553239e-06,3.240316327698505e-06,3.426142914756382e-06
170.0082086995644,518.1087781554293,12.5,0,0.1282204153500969,0.5271614565988649,-0.3973886291472875,-1.142383615878191e-08,1.58434032883629e-06,-3.1791090331783e-06,2.626629368789134e-06,2.852264458454962e-06
153.6156475328033,528.393117921526,12.5,0,0.2159418434059602,0.6446977075541127,-0.4626142148444941,1.752557328557826e-07,1.890279189448392e-06,-3.700913718755953e-06,3.376858229351352e-06,3.122569559290502e-06
167.6680847109704,529.740448434631,12.5,0,0.1788403029825538,0.5190764558224095,-0.4343878860886038,1.570278048862446e-07,1.517972416245667e-06,-3.47510308870883e-06,2.789978554771003e-06,2.575385258848706e-06
161.4911680912624,495.6085820829469,12.5,0,0.1474284967234799,0.8058327060642128,-0.471670292436379,-1.728949753362345e-07,2.460721862026697e-06,-3.773362339491032e-06,3.750056398652746e-06,3.915445831714322e-06
174.0614223437472,497.9621342553252,12.5,0,0.09917211737549261,0.6604798712226884,-0.4362260903657697,-2.110331213765743e-07,2.034197894012208e-06,-3.489808722926158e-06,3.047936359809813e-06,3.305559876358931e-06
158.608527498807,507.608555051285,12.5,0,0.2001496782068805,0.7905752354226793,-0.5135906447253473,8.018781923874096e-09,2.369721010787069e-06,-4.108725157802779e-06,3.89235510802003e-06,3.638593471643531e-06
171.7212983551531,509.5938045345268,12.5,0,0.1555474670455667,0.6496878868998731,-0.4809505570054882,-2.199841497408485e-08,1.95456326444314e-06,-3.847604456043905e-06,3.221484964657388e-06,3.047914157544442e-06
314.149947458934,97.72938738036214,12.5,0,-2.705878243699896,0.5029628384962772,-3.786635064603234,-9.061180650636689e-06,3.774183678148003e-06,-3.029308051682588e-05,4.554425348686891e-06,4.448218482384485e-06
317.5266369669588,99.39867988942527,12.5,0,-2.81193818153969,0.6087521809354757,-3.705581628612141,-9.485203925675386e-06,4.197557524225273e-06,-2.964465302889713e-05,4.503914320638955e-06,4.608195980964209e-06
312.1281794591596,101.6754861701527,12.5,0,-2.320288439302698,0.6853430202091948,-3.649828438591427,-7.97319742193599e-06,4.049328416111581e-06,-2.919862750873142e-05,4.858427329911171e-06,5.045953705442485e-06
315.2689737749305,103.3636373318553,12.5,0,-2.443015143263031,0.7918093570851088,-3.568173922389149,-8.451095944109785e-06,4.488202057282772e-06,-2.854539137911319e-05,4.790978532373218e-06,5.268101971024242e-06
308.3013496697553,94.83808794202265,12.5,0,-3.29942850281726,0.6976761723310189,-3.717131471097469,-1.111631214688005e-05,4.872106553713068e-06,-2.973705176877975e-05,4.371140431401194e-06,4.235066425929814e-06
311.6780391777801,96.50738045108577,12.5,0,-3.43481064030638,0.7501414548786403,-3.614044178184178,-1.159150721288333e-05,5.148301167856752e-06,-2.891235342547343e-05,4.234343525674033e-06,4.348238719443947e-06
306.6881641282188,98.75152258728005,12.5,0,-2.882706668659439,0.8467989270069468,-3.610956292411605,-9.90210048131576e-06,5.01592190134978e-06,-2.888765033929284e-05,4.635898506013241e-06,4.72825770582661e-06
309.8289584439896,100.4396737489826,12.5,0,-3.038221459138195,0.8978823867776516,-3.505060111536463,-1.044061457866434e-05,5.303800804999041e-06,-2.804048089229171e-05,4.463842954887121e-06,4.901302870548708e-06
311.0954689896819,88.05982030445838,12.5,0,-4.423095431328313,0.5568037329706486,-3.614091614332829,-1.459934836662712e-05,5.320248290568725e-06,-2.891273291466263e-05,3.723959818225597e-06,3.673410642604883e-06
314.8807409559445,89.69644866898831,12.5,0,-4.552087235881716,0.6437237277189267,-3.495262726729213,-1.508165813699663e-05,5.701585717405938e-06,-2.79621018138337e-05,3.653254834039183e-06,3.710219168170897e-06
309.4822834481454,91.97325494971577,12.5,0,-3.992680209754343,0.719334425076851,-3.496522606743926,-1.335204421127538e-05,5.496014328049397e-06,-2.797218085395141e-05,3.856961776301922e-06,3.952421007210008e-06
313.031660222154,93.6287419668851,12.5,0,-4.140008296656464,0.8064451452866583,-3.37462054953515,-1.389318266553001e-05,5.892631102242477e-06,-2.69969643962812e-05,3.770278139233272e-06,4.029088803283873e-06
317.6517523555971,90.89454378488163,12.5,0,-3.819631447952749,0.3640601564031323,-3.702352487567901,-1.25140687585713e-05,4.220697658852222e-06,-2.961881990054321e-05,3.788007651509848e-06,3.751462218804748e-06
321.4370243218598,92.53117214941157,12.5,0,-3.918311145013158,0.5093874451748226,-3.606848565063504,-1.294610562018196e-05,4.764688740569958e-06,-2.885478852050804e-05,3.789432064897207e-06,3.827331803034344e-06
315.6299843558228,94.8406425746722,12.5,0,-3.419287754107157,0.5620087182362241,-3.554044952902525,-1.139132778773188e-05,4.533858101641642e-06,-2.84323596232202e-05,3.944329021541801e-06,4.101360533941736e-06
319.1793611298315,96.49612959184155,12.5,0,-3.533196279832818,0.7095361528007731,-3.457563215972888,-1.187385701770564e-05,5.097072712828728e-06,-2.76605057277831e-05,3.944052747776707e-06,4.222142777984478e-06
325.50475155006,185.4326520882654,12.5,0,10.5795247972178,-0.270913046429953,-1.975487544735494,3.407120978824092e-05,-9.330541586350088e-06,-1.580390035788395e-05,4.014375835749079e-05,4.013755951763378e-05
327.8819537657259,183.7894322619238,12.5,0,10.56171416788239,-0.3221483002984118,-1.991317163099469,3.405520397746237e-05,-9.480245895260829e-06,-1.593053730479575e-05,3.992840132117372e-05,3.893602456664252e-05
326.6677209745466,188.4539661928711,12.5,0,10.57566422859517,-0.2480403187181466,-1.998784371752625,3.404055778647905e-05,-9.254260402774203e-06,-1.5990274974021e-05,4.020427917605301e-05,4.109020825311672e-05
329.4328488353825,187.078586520977,12.5,0,10.55965676995151,-0.2979443190851816,-2.010757018388394,3.402925711911298e-05,-9.40114723703379e-06,-1.608605614710715e-05,3.999848049253873e-05,3.995321746581418e-05
329.6221865673846,182.5865118610884,12.5,0,10.07157227980771,-0.2815553095766714,-2.074237116691524,3.245427554304602e-05,-8.958234814491518e-06,-1.659389693353219e-05,3.820808288576997e-05,3.806093570433204e-05
331.9993887830504,180.9432920347468,12.5,0,10.04078222933746,-0.3590473512986914,-2.100141745659125,3.241774101491883e-05,-9.181577307625782e-06,-1.6801133965273e-05,3.787000626118825e-05,3.687168342225177e-05
331.4570629188526,186.0717387214959,12.5,0,10.05971861812925,-0.2288146056696427,-2.111286735495923,3.237415126254931e-05,-8.779981632646254e-06,-1.689029388396738e-05,3.83322652130392e-05,3.913254355100476e-05
334.2221907796884,184.6963590496019,12.5,0,10.03202497701918,-0.3063448884996065,-2.132018317126529,3.234755583726105e-05,-9.005923624814081e-06,-1.705614653701223e-05,3.800372633995459e-05,3.802741150650619e-05
332.8002856336766,188.6231018591096,12.5,0,10.53423778700728,-0.3147624383232923,-1.758982876646952,3.396137086908193e-05,-9.434630032240359e-06,-1.407186301317562e-05,3.977776353274518e-05,3.989945103878257e-05
335.8493947763237,187.4437947885698,12.5,0,10.53399061337867,-0.4117327538427031,-1.749159304753145,3.40381561658859e-05,-9.744737302999585e-06,-1.399327443802516e-05,3.948639797548262e-05,3.885314953096041e-05
334.6351619851445,192.108328719517,12.5,0,10.62819358673415,-0.2311895313540222,-1.82001926164998,3.419517110263249e-05,-9.24236136972019e-06,-1.456015409319984e-05,4.04024070612236e-05,4.092307341351289e-05
338.0721967729617,191.1968618034248,12.5,0,10.61993982673613,-0.329703300379788,-1.805551520795681,3.424757008585943e-05,-9.551002422604222e-06,-1.444441216636545e-05,4.007350649635e-05,3.995337968335235e-05
327.5190736808837,190.665721622973,12.5,0,11.00012118865254,-0.3058909742675815,-1.689868062333905,3.544510058310217e-05,-9.778948068578288e-06,-1.351894449867124e-05,4.156610535618736e-05,4.178051871845496e-05
330.5681828235309,189.4864145524332,12.5,0,11.01431065148748,-0.3858759609514473,-1.667436234803295,3.555449485352109e-05,-1.004625159623461e-05,-1.333948987842636e-05,4.137687624335409e-05,4.068383724849507e-05
328.6820431053704,193.6870357275787,12.5,0,11.10572108404375,-0.2464792487562191,-1.738145152114818,3.573549086794499e-05,-9.673310463254904e-06,-1.390516121691854e-05,4.215920934159094e-05,4.271383324735278e-05
332.1190778931876,192.7755688114864,12.5,0,11.108371341473,-0.3270042649271145,-1.712394640082128,3.580839170465528e-05,-9.933110720945163e-06,-1.369915712065703e-05,4.192274476369256e-05,4.166273471670741e-05
421.8636927695171,112.5201605722944,12.5,0,-0.9143727506529662,-0.3649073058114686,-3.455190544210544,-2.634066957440317e-06,-4.362051780743264e-07,-2.764152435368435e-05,4.443590398975931e-06,5.465347008924758e-06
433.1523837995469,104.8589029677406,12.5,0,-0.5235351685558438,-0.5482338080399279,-3.274113507091645,-1.236725492946758e-06,-1.335520050883094e-06,-2.619290805673316e-05,4.361296458410433e-06,4.552508852749355e-06
426.8774139344421,124.9242419586141,12.5,0,-0.07401270236859475,-0.02160615806225456,-3.709010693833895,-2.195557211296996e-07,-9.92954390433877e-09,-2.967208555067116e-05,6.602032554073515e-06,7.706614375905377e-06
437.975424080929,117.9201384295544,12.5,0,0.3011908435279206,-0.2221809226193702,-3.513739191823032,1.141555437384842e-06,-9.519316272043211e-07,-2.810991353458425e-05,6.576811080346902e-06,6.50129668848689e-06
430.5477125619946,134.0046597542336,12.5,0,1.405020725705458,-0.2663193349403239,-3.348214256139078,4.709121790209725e-06,-1.976238452373403e-06,-2.678571404911263e-05,8.684975313360048e-06,9.655632201395758e-06
441.5061346137018,127.481626396816,12.5,0,1.657240159465315,-0.3663215242911452,-3.200751163794645,5.596225729721924e-06,-2.498021005303917e-06,-2.560600931035716e-05,8.890845458947541e-06,8.239381888818181e-06
435.5614337269197,146.4087411405532,12.5,0,2.028716495671719,-0.03047516929485872,-3.518610326723381,6.516272921585386e-06,-1.720493738280923e-06,-2.814888261378704e-05,1.122173854613956e-05,1.273918055873866e-05
446.3291748950838,140.5428618586297,12.5,0,2.267391156820979,-0.1421452183504759,-3.360197307877117,7.369367876507513e-06,-2.268777624178306e-06,-2.688157846301694e-05,1.141231709979e-05,1.103913112847115e-05
411.5671687979958,145.3028849485443,12.5,0,2.862468301595217,-0.1902078005255491,-3.102318475498176,9.312064805525131e-06,-2.89863960295793e-06,-2.481854780398541e-05,1.279118061521799e-05,1.311630471523011e-05
422.525590849703,138.7798515911268,12.5,0,3.035476985067261,-0.4544224064086552,-3.014880808741589,1.007706427734216e-05,-3.882533288561505e-06,-2.411904646993271e-05,1.256415159038934e-05,1.096239973424107e-05
416.9111589412436,156.5687420877278,12.5,0,3.379418843862625,0.1003801478699893,-3.322680468861224,1.073383618206441e-05,-2.382318601906134e-06,-2.658144375088979e-05,1.554831390150014e-05,1.66970439613365e-05
427.6789001094077,150.7028628058043,12.5,0,3.539184378459499,-0.1841774227115541,-3.223845747086574,1.147273194923964e-05,-3.420715255444571e-06,-2.579076597669259e-05,1.519283404777972e-05,1.425521373310343e-05
402.3111063549095,125.7898479930165,12.5,0,0.7218546091054699,-0.2756121487684054,-3.389559197769264,2.530424468152228e-06,-1.459442563343273e-06,-2.711647358215411e-05,7.111292412052707e-06,7.977754927001918e-06
413.5997973849394,118.1285903884628,12.5,0,1.02414603904781,-0.4232032682678338,-3.250225699752,3.615829939567259e-06,-2.173567289695316e-06,-2.6001805598016e-05,7.259510886053417e-06,6.38313892837004e-06
407.6550964981574,137.0557051322,12.5,0,1.322115435663389,-0.01234789339579151,-3.586420920262549,4.240647708839478e-06,-1.097205607397244e-06,-2.869136736210039e-05,9.434926177196273e-06,1.077997825997933e-05
418.7531066446443,130.0516016031403,12.5,0,1.613332418558938,-0.1742118719885959,-3.435441005121347,5.302033236979478e-06,-1.848143925210657e-06,-2.748352804097078e-05,9.584794472571217e-06,8.853083647621022e-06
591.8497979958154,165.448961618213,12.5,0,1.193079263216985,-0.1144875331639968,-2.884012108293082,3.909443668825548e-06,-1.320823516698377e-06,-2.307209686634466e-05,7.689135845729367e-06,7.508539267096752e-06
602.7544841311939,175.2600372811081,12.5,0,0.8899260179825477,-0.1351370348724982,-2.771372926358567,2.955872885442151e-06,-1.144379325978032e-06,-2.217098341086854e-05,6.685941562405473e-06,7.123755338636706e-06
581.3605283088522,176.6720682973483,12.5,0,1.759303067707715,0.1065701204770933,-2.658966761729157,5.544513720283015e-06,-1.066418068639474e-06,-2.127173409383325e-05,9.479980718162616e-06,8.748143346946792e-06
588.3410215517108,184.8447101479047,12.5,0,1.292400586938942,0.0543799886866399,-2.534129247237587,4.092177887255301e-06,-8.599045057539056e-07,-2.027303397790069e-05,7.785325945675951e-06,8.541025428885273e-06
572.9623275690873,148.4556800934815,12.5,0,1.00614378205624,-0.080338932774496,-3.209315328361948,3.283931248799566e-06,-1.061999610523379e-06,-2.567452262689559e-05,7.84537254592452e-06,8.076446903725368e-06
583.8670137044658,158.2667557563767,12.5,0,0.693619025155263,-0.0986288543809517,-3.093939779724112,2.298483964001603e-06,-8.705075541432558e-07,-2.47515182377929e-05,6.868733821594433e-06,7.763812202590257e-06
569.2699593505473,162.5166373803752,12.5,0,1.78607319881899,0.1478314339590813,-3.082830614122034,5.597169089053503e-06,-9.557979703861321e-07,-2.466264491297627e-05,1.029335858504814e-05,9.295339159360832e-06
576.2504525934058,170.6892792309317,12.5,0,1.237058702743094,0.09041829035998489,-2.937553028544999,3.886253216489914e-06,-7.003084330425239e-07,-2.350042422835999e-05,8.368228109299165e-06,8.950261101861134e-06
579.3576969237362,124.1013876699635,12.5,0,0.3985247041913968,-0.1200628468373793,-3.50432380849644,1.371329330882373e-06,-7.030208732327313e-07,-2.803459046797152e-05,6.936890725042987e-06,6.459975830770306e-06
597.0592845275378,136.7503139406169,12.5,0,0.1633695796542501,-0.04944947847026143,-3.399792776844523,5.623422376698094e-07,-2.889339948282366e-07,-2.719834221475619e-05,6.418753476769346e-06,6.657624314636024e-06
575.6653287051962,138.1623449568571,12.5,0,0.8127014639683734,0.01990080727113888,-3.409018768310698,2.584724038881883e-06,-5.864785879070543e-07,-2.727215014648558e-05,7.946745702100998e-06,7.316713589604361e-06
589.442723416478,149.172837415172,12.5,0,0.4875737945283544,0.09614326207758254,-3.287101635791943,1.483321532828668e-06,-8.240059697441939e-08,-2.629681308633555e-05,7.156653773987768e-06,7.149502026934523e-06
599.5284763406381,157.2330773106696,12.5,0,0.8004402789163447,0.08876883422294007,-3.089107576932995,2.490393825153951e-06,-3.562919536196675e-07,-2.471286061546396e-05,7.505816014693977e-06,6.93003831379011e-06
610.0177460276011,146.0099706315343,12.5,0,0.3618360844875175,-0.1062463669857894,-3.271385907104949,1.242872563948687e-06,-6.294572419445399e-07,-2.61710872568396e-05,6.466248266836203e-06,6.58914839691218e-06
613.3058710519197,168.2435697689844,12.5,0,0.3695934930767136,0.1088351473759505,-2.911796377260801,1.095631059944723e-06,5.259767714167057e-08,-2.329437101808641e-05,6.254060896714839e-06,6.497663861706197e-06
627.7193336314028,158.6588969021878,12.5,0,0.03164837044135699,-0.07823832182363304,-3.114232797895542,1.638654428712488e-07,-2.756813261887113e-07,-2.491386238316433e-05,5.603468236720155e-06,6.20442022672206e-06
328.3857157895956,85.20756768998504,12.5,0,-4.347014696959538,0.1935962348305043,-3.679286747894367,-1.406532401813492e-05,4.097119709025243e-06,-2.943429398315493e-05,3.474794709604402e-06,3.357350153958327e-06
333.3387861581347,88.18719972737588,12.5,0,-4.521883500344574,0.2785004575289129,-3.579848672341767,-1.469282756712576e-05,4.50870826436818e-06,-2.863878937873414e-05,3.410093364676621e-06,3.432367275636377e-06
326.0774899957317,90.73928004820431,12.5,0,-3.885703722007464,0.3773152685617001,-3.544395579959975,-1.273610412527324e-05,4.315971837003411e-06,-2.83551646396798e-05,3.591063794397269e-06,3.655932656206959e-06
330.5089105037457,93.71288868537901,12.5,0,-4.097357969996174,0.4611892565064299,-3.442444481949062,-1.34804969091929e-05,4.753691996817514e-06,-2.753955585559249e-05,3.503746683043073e-06,3.797328315178025e-06
332.3836801398372,75.62636083286479,12.5,0,-5.827845762277999,0.07691301971255893,-3.532359004504448,-1.871063685505964e-05,4.908398272902587e-06,-2.825887203603559e-05,3.106113794710256e-06,3.072445532721053e-06
338.2402745705507,78.61642570546411,12.5,0,-6.001790839938469,0.2134308224495147,-3.406098236251667,-1.937647534576271e-05,5.484411303789222e-06,-2.724878589001334e-05,3.1002037106133e-06,3.060599195503812e-06
330.0754543459732,81.15807319108406,12.5,0,-5.346114983458325,0.2769123075564313,-3.38402618348067,-1.732909779311178e-05,5.163011370947239e-06,-2.707220946784536e-05,3.137111605932614e-06,3.201005250431186e-06
335.4103989161616,84.14211466346723,12.5,0,-5.552724354169975,0.4158280605138951,-3.254074750051289,-1.810138038175503e-05,5.772829276980444e-06,-2.603259800041031e-05,3.127692456185105e-06,3.234961302985323e-06
342.5275992529756,80.80530511004072,12.5,0,-4.833613223089553,-0.1515471968658726,-3.630478720245564,-1.534632455639387e-05,3.381939548500849e-06,-2.904382976196451e-05,3.07695254444143e-06,3.06867210840803e-06
348.3841936836892,83.79536998264007,12.5,0,-4.939766229676643,0.09395760587901081,-3.554780231533218,-1.588241801966846e-05,4.252477322554148e-06,-2.843824185226574e-05,3.179930617859754e-06,3.102574053845613e-06
339.3158493969373,86.3265846330515,12.5,0,-4.421955656786846,0.1174614140385861,-3.436129722037256,-1.424422723294877e-05,3.913441050352952e-06,-2.748903777629805e-05,3.133765665193047e-06,3.280516156804674e-06
344.6507939671257,89.31062610543471,12.5,0,-4.55116743569194,0.3704049216178449,-3.362324376699789,-1.486005973150848e-05,4.826229697730655e-06,-2.689859501359831e-05,3.256490279264389e-06,3.371018279421672e-06
336.9646853212151,90.3684417665132,12.5,0,-3.386871402326136,-0.02600260094761764,-3.751021105353656,-1.081718640668554e-05,2.626288798828532e-06,-3.000816884282925e-05,3.614757147684227e-06,3.512136642877918e-06
341.9177556897541,93.34807380390407,12.5,0,-3.496794932846285,0.14527806488119,-3.697286002057475,-1.130596623701306e-05,3.262325753896836e-06,-2.95782880164598e-05,3.669737870491092e-06,3.655053485400648e-06
333.7529354651767,95.889721289524,12.5,0,-3.006865554787878,0.2146445031064823,-3.576448237182161,-9.793685377806395e-06,3.092354853771045e-06,-2.861158589745729e-05,3.767509202182498e-06,3.933091530534079e-06
338.1843559731907,98.86332992669868,12.5,0,-3.142056051274133,0.3895762654732416,-3.525817302063041,-1.036624037645582e-05,3.760288890533679e-06,-2.820653841650433e-05,3.828269033224749e-06,4.162607873730434e-06
109.1796025315461,111.0345681155431,12.5,0,-2.822427361593775,-0.4549245956814536,1.835197395967164,-8.667827880554916e-06,8.021831830943682e-07,1.468157916773731e-05,1.296083350621344e-06,1.441373514420258e-06
113.7004623341196,111.0507143829521,12.5,0,-2.828299080002994,-0.4686444335985683,2.108686148218541,-8.675641509130726e-06,7.629770764869766e-07,1.686948918574832e-05,1.533249061524444e-06,1.560547182238703e-06
109.7946959339748,114.3589359058126,12.5,0,-2.324674200796664,-0.3289403054263895,1.797347343593176,-7.17580519820821e-06,8.071303832728844e-07,1.437877874874541e-05,1.355917201515027e-06,1.448311388306796e-06
114.1409172433625,114.0547247017851,12.5,0,-2.276169005974931,-0.3292527269399735,2.074640110066229,-7.0203386375678e-06,7.673264785720293e-07,1.659712088052983e-05,1.648903944322782e-06,1.579264333142236e-06
110.2449755559338,116.7925420312319,12.5,0,-2.030377603827635,-0.5117027010283531,1.777354115463204,-6.087846171425748e-06,-1.314656022862208e-08,1.421883292370563e-05,1.258267527955372e-06,1.488432511508614e-06
114.4633526153576,116.2538128815385,12.5,0,-1.93687989485901,-0.4558333470676101,2.028110754960509,-5.833348985894744e-06,9.083720527085595e-08,1.622488603968407e-05,1.580439674089687e-06,1.62514034141916e-06
110.8600689583624,120.1169098215014,12.5,0,-1.54785456622917,-0.3954499690998358,1.753258120420432,-4.636774636653475e-06,-2.715624813613856e-08,1.402606496336346e-05,1.397606507564248e-06,1.591107584670835e-06
114.9038075246004,119.2578232003714,12.5,0,-1.395811327242923,-0.32445453164667,2.008911709195874,-4.207032621860016e-06,7.839456052499412e-08,1.607129367356699e-05,1.832330014350767e-06,1.731758775981963e-06
102.93853216366,117.7256482900025,12.5,0,-1.987936590564285,-0.6893199014375926,1.702847653066782,-5.809941168655639e-06,-6.15474412148868e-07,1.362278122453426e-05,1.097963883342834e-06,1.292795964063888e-06
107.1569092230838,117.1869191403091,12.5,0,-1.905988430197853,-0.6700573585535659,1.944371488112045,-5.563117089790276e-06,-6.193928032131285e-07,1.555497190489636e-05,1.36638910754553e-06,1.399381103990017e-06
103.8561083092383,121.6048914973745,12.5,0,-1.433620292652325,-0.5504916445980876,1.653263991648543,-4.147191620808969e-06,-6.146770285920205e-07,1.322611193318834e-05,1.214988533667354e-06,1.396958001767753e-06
107.8998468754763,120.7458048762445,12.5,0,-1.296269141265898,-0.5173856346226946,1.896182136979779,-3.734152744352718e-06,-6.186187177799042e-07,1.516945709583823e-05,1.580736899162805e-06,1.501397987597615e-06
101.3492436597336,111.0066019600384,12.5,0,-2.895991251957744,-0.6151574587045464,1.757095407511615,-8.775046039301142e-06,3.482891337116466e-07,1.405676326009292e-05,1.150049372628753e-06,1.272502650324482e-06
105.8701034623071,111.0227482274475,12.5,0,-2.906129995993043,-0.6463282812588262,2.01988709202108,-8.782553362170676e-06,2.566534967661907e-07,1.615909673616864e-05,1.351943158511785e-06,1.364192214712044e-06
102.266819805312,114.8858451674104,12.5,0,-2.330562621857944,-0.4683482934581046,1.697850732185022,-7.083121755178937e-06,3.657355584204208e-07,1.358280585748017e-05,1.180014617741265e-06,1.25944825315197e-06
106.6130411146997,114.5816339633829,12.5,0,-2.288870259777021,-0.4867589729814551,1.96160761145776,-6.934977652901301e-06,2.7346749428096e-07,1.569286089166208e-05,1.427617763866849e-06,1.362616927949584e-06
324.2993828558896,125.2417768106208,12.5,0,1.527471619546539,0.2926203290636817,-3.765742565134235,4.653812919297977e-06,-2.855922426334492e-07,-3.012594052107388e-05,1.09965948902837e-05,1.167027336466243e-05
329.0109518210521,123.3104286948005,12.5,0,1.638857775550702,-0.03913722692044774,-3.6350808852632,5.275654663298603e-06,-1.436325346585994e-06,-2.90806470821056e-05,1.029166397856727e-05,1.039024080389793e-05
326.1946188139514,128.6470188786198,12.5,0,1.953006943903113,0.5513514748648713,-3.955568883361695,5.808541040598063e-06,2.019191644450982e-07,-3.164455106689356e-05,1.31531078301534e-05,1.294096952894864e-05
331.4790733860684,127.0133184455222,12.5,0,2.012610951141172,0.2115827275104579,-3.812404915840397,6.271088861643385e-06,-9.330240328794728e-07,-3.049923932672317e-05,1.223001251424701e-05,1.164867617818632e-05
316.13870602501,128.586969874264,12.5,0,2.045861553479661,0.5281938657148577,-3.87482618413285,6.12420187856303e-06,5.353112750381556e-08,-3.09986094730628e-05,1.32412894336383e-05,1.40305511263918e-05
320.8502749901725,126.6556217584436,12.5,0,2.228698025945729,0.2397648881312497,-3.680837154684305,6.940021772521334e-06,-1.015710778736584e-06,-2.944669723747444e-05,1.273844058754725e-05,1.264569157574299e-05
317.0416750049194,131.4766710330412,12.5,0,2.498226572447825,0.7096136001169698,-4.013165436585374,7.426634151739465e-06,2.72182262416043e-07,-3.210532349268299e-05,1.529885861946419e-05,1.538617140529589e-05
322.3261295770365,129.8429705999436,12.5,0,2.608952845306447,0.4183184778937561,-3.815122049242651,8.013994322665626e-06,-7.485431469851384e-07,-3.05209763939412e-05,1.456641705295855e-05,1.394242835673666e-05
314.5747178741764,123.5818606486612,12.5,0,1.172911616867312,0.5621553669555084,-3.865411838433505,3.30359288041099e-06,8.605678807637775e-07,-3.092329470746804e-05,1.088010964159612e-05,1.179925312604042e-05
318.2940198611865,121.1349716236191,12.5,0,1.39244170807579,0.4200263072050248,-3.762177372925168,4.119792420078509e-06,2.301308165954469e-07,-3.009741898340134e-05,1.093970383414507e-05,1.046328281543694e-05
315.4776868540857,126.4715618074384,12.5,0,1.533102092600538,0.7037750858539169,-3.972024082621024,4.342906627638588e-06,1.025598600652104e-06,-3.17761926609682e-05,1.238554089610169e-05,1.306943927017877e-05
319.7698744480505,124.322320465119,12.5,0,1.680947441582614,0.5522582487837623,-3.861412950387124,4.937225214037356e-06,4.224684428419476e-07,-3.089130360309699e-05,1.223079938980593e-05,1.17134573376304e-05
321.0167378842541,119.3437245368817,12.5,0,0.5572963860184382,0.4027802232292373,-3.790570061963281,1.461124256675612e-06,8.430596055188089e-07,-3.032456049570625e-05,8.869121958605764e-06,9.545597912282984e-06
324.7360398712643,116.8968355118396,12.5,0,0.6925893825629839,0.183142191316501,-3.741625772740067,2.069772271148348e-06,3.198350616241599e-08,-2.993300618192053e-05,8.607959560849255e-06,8.374406442024342e-06
322.9119738423159,122.7489666048806,12.5,0,0.8931021905617433,0.6236420185998457,-3.951433480775461,2.359013394917702e-06,1.281172707070111e-06,-3.161146784620369e-05,1.046258601536821e-05,1.076048628200163e-05
327.2041614362806,120.5997252625613,12.5,0,0.9798016312399344,0.3922325421055481,-3.886652492848797,2.821579186283351e-06,4.713028297458066e-07,-3.109321994279038e-05,1.00148015986335e-05,9.512902872318965e-06
298.676325754418,4.548557264721153,12.5,0,-20.15310239505523,-0.07926883431566356,-1.097243058474646,-6.44265125967242e-05,1.586882164623406e-05,-8.777944467797171e-06,4.898076326652097e-06,4.788113616751071e-06
314.523070890208,4.59484681294179,12.5,0,-20.29085313800293,-0.5971238250216597,0.03810841905344762,-6.445303098159204e-05,1.432188627033303e-05,3.048673524275809e-07,4.597347132626182e-06,4.647439774857359e-06
303.1011617921642,16.97544681360419,12.5,0,-17.23124537758549,0.814912811536785,-1.665473850442722,-5.579191545750301e-05,1.639271729898611e-05,-1.332379080354177e-05,4.812666926287492e-06,4.361884645286127e-06
316.3554664870765,17.14820175942839,12.5,0,-17.43355393696133,0.1834168639957143,-0.2987809427101331,-5.593410608947282e-05,1.453377711435535e-05,-2.390247541681064e-06,4.344750158145235e-06,4.271407382093462e-06
326.1236934637082,4.628733114097265,12.5,0,-18.28968727720892,-0.03790065364956963,-1.081714909761079,-5.849667876414889e-05,1.451046773008851e-05,-8.653719278088628e-06,4.472548121411778e-06,4.464863585335205e-06
341.9704385994983,4.675022662317901,12.5,0,-18.35581235306194,-0.276842741965396,-0.2064961407241814,-5.851712533622589e-05,1.379875310816029e-05,-1.651969125793451e-06,4.304135230879505e-06,4.106730001180859e-06
326.0582909423384,17.27466715702514,12.5,0,-16.04037651614274,0.5233179903498133,-1.163128004656492,-5.174785924393663e-05,1.450691878203359e-05,-9.305024037251932e-06,4.277116762839841e-06,4.127862244196159e-06
339.3125956372507,17.44742210284934,12.5,0,-16.14741493064421,0.2312176656477458,-0.1179005231506631,-5.185670191057965e-05,1.365782847458815e-05,-9.432041852053047e-07,4.05718403547671e-06,3.826166897457239e-06
326.0104129737547,26.53213338521967,12.5,0,-14.6231553061211,-0.1241479784809529,-2.231263155597668,-4.669477859680274e-05,1.130125071375783e-05,-1.785010524478134e-05,3.756244109971995e-06,3.853553780352082e-06
337.3669195504289,26.79746742748513,12.5,0,-14.66235111729442,-0.1489793688395928,-1.666358309666985,-4.680034008027048e-05,1.125314691354884e-05,-1.333086647733588e-05,3.629922490109825e-06,3.611813018477729e-06
325.945010452385,39.17806742814754,12.5,0,-12.41818444024582,0.4269809108519782,-2.235790341718918,-4.007977493746819e-05,1.130088646692298e-05,-1.788632273375134e-05,3.603480829778526e-06,3.441130461291076e-06
334.7090765881814,39.56986686801656,12.5,0,-12.51020552136328,0.3845844051674625,-1.506920445584032,-4.034032519249645e-05,1.12388345136265e-05,-1.205536356467226e-05,3.41702270109151e-06,3.30675043400496e-06
306.3403665868185,26.0725613430465,12.5,0,-15.55580615897825,0.09681543814759497,-1.694104757802857,-4.985603205924846e-05,1.27544543292549e-05,-1.355283806242285e-05,3.984719281411235e-06,4.074030019110863e-06
317.6968731634926,26.33789538531197,12.5,0,-15.73798158670794,-0.4836717869027258,-1.054735673450212,-4.997460364794323e-05,1.104263555127763e-05,-8.437885387601696e-06,3.611328147346179e-06,3.977404452395812e-06
310.7652026245647,38.49945089192956,12.5,0,-13.02826218508683,1.005002039551971,-2.332149054852517,-4.249444062391942e-05,1.363861627463577e-05,-1.865719243882014e-05,4.147045349665937e-06,3.713825526637807e-06
319.529268760361,38.89125033179858,12.5,0,-13.31418440516565,0.2327970881630002,-1.488655299090175,-4.279162776706048e-05,1.139629820625412e-05,-1.19092423927214e-05,3.506638005685348e-06,3.550205903617478e-06
389.9395282603415,22.52760571295356,12.5,0,-11.80315261814872,0.1091980663128127,-1.774139541350765,-3.785744683112616e-05,9.791955906719978e-06,-1.419311633080612e-05,3.147714094864185e-06,3.166933428503752e-06
401.9352160394171,23.18365146074082,12.5,0,-11.97724510576792,-0.3024108577713482,-1.245406459181605,-3.808525565224028e-05,8.614081339746024e-06,-9.963251673452843e-06,2.844453347540218e-06,2.969623193890521e-06
392.6134433451656,33.26487330673839,12.5,0,-10.15706551366167,0.6275112355718129,-2.096733687359607,-3.300461863217478e-05,1.013368836475913e-05,-1.677386949887685e-05,3.215682582751164e-06,2.889294403714052e-06
402.3213417722784,34.23360824296017,12.5,0,-10.45339643411345,0.09263275626444356,-1.426515928440632,-3.352497479417458e-05,8.659141967336974e-06,-1.141212742752505e-05,2.751560712338676e-06,2.744120933094915e-06
369.162387555623,21.39130114571692,12.5,0,-13.03305645156618,-0.08232576458483321,-1.520204971834731,-4.163992003334392e-05,1.016300271458148e-05,-1.216163977467785e-05,3.262310886958975e-06,3.447398911658834e-06
381.1580753346984,22.04734689350418,12.5,0,-13.30298876596447,-0.8253499669508089,-0.8897671849066445,-4.190928407752566e-05,8.001271118528988e-06,-7.118137479253156e-06,2.836998937684336e-06,3.294953046238987e-06
375.7988700349903,31.58697517816542,12.5,0,-11.04282076095091,0.9127505640627995,-2.279357072881893,-3.606722688629315e-05,1.175505841376169e-05,-1.823485658305514e-05,3.656000871846246e-06,3.214239381702816e-06
385.5067684621031,32.5557101143872,12.5,0,-11.48973240742547,-0.07668425243676991,-1.444418154082915,-3.670579630181208e-05,8.946396318142711e-06,-1.155534523266332e-05,2.894062734541066e-06,3.015262262361591e-06
357.6676627180246,3.731875704422812,12.5,0,-16.2784549494718,0.009462645696961758,-0.8862277612743907,-5.209862595486733e-05,1.305304442580772e-05,-7.089822090195126e-06,3.998418706291025e-06,3.899538375078443e-06
373.6259178916435,3.846327890873724,12.5,0,-16.51708907479538,-0.8731499837911123,0.11897940528932,-5.215616505231232e-05,1.041959131170474e-05,9.518352423145597e-07,3.541181312423014e-06,3.713726729284519e-06
364.304145197392,13.9275497368713,12.5,0,-14.07457848858341,0.9794976071915551,-1.654424066053779,-4.582224924922016e-05,1.439405513387971e-05,-1.323539252843023e-05,4.190821361359324e-06,3.631024223501979e-06
377.974611019048,14.35469111175674,12.5,0,-14.43758665903349,-0.09714937579490046,-0.4406972397075822,-4.612255780827126e-05,1.123919132468311e-05,-3.525577917660658e-06,3.462227270342392e-06,3.482106036086996e-06
385.3081714783847,3.930112706389575,12.5,0,-14.33607220129227,0.2576044902594714,-0.7919125203737368,-4.608151463634285e-05,1.229319212986413e-05,-6.335300162989895e-06,3.668590557762698e-06,3.557003161632704e-06
401.2664266520035,4.044564892840486,12.5,0,-14.47914182222158,-0.2638201103969293,-0.0814552798803392,-4.612219774279152e-05,1.073908910450709e-05,-6.516422390427136e-07,3.368942699905976e-06,3.314638057840207e-06
387.9820865632087,14.66738030017441,12.5,0,-12.76982499811489,0.7476681865256936,-1.093942323096179,-4.146157454318821e-05,1.260839819537413e-05,-8.751538584769432e-06,3.638507318868817e-06,3.345845450961675e-06
401.6525523848649,15.09452167505985,12.5,0,-12.99149139171031,0.1214125679370697,-0.2533776055253247,-4.166990250782264e-05,1.078171333076687e-05,-2.027020844202598e-06,3.229681885761501e-06,3.122492796729391e-06
216.9558185072311,362.2275572552138,12.5,0,0.03046228896701753,1.844148634825631,-0.2948361557594719,-1.377839583166049e-06,5.876905800268406e-06,-2.358689246075775e-06,7.21725662529222e-06,7.691921143778836e-06
224.3940414304334,365.25038975443,12.5,0,-0.1069337463468586,1.498464354912362,-0.1940532929860657,-1.540959472239837e-06,4.880632932797045e-06,-1.552426343888526e-06,5.461227383145065e-06,6.22892274605777e-06
216.4703471748097,372.7223520053052,12.5,0,0.2055773841850912,1.868520816305212,-0.4595193810704938,-8.36969023651878e-07,5.814804704828606e-06,-3.67615504856395e-06,7.901909132766425e-06,6.936482853454461e-06
224.0652709986063,375.5257450436035,12.5,0,0.07552783997474799,1.530219719959875,-0.3650916467090874,-9.824866880487064e-07,4.836280831891801e-06,-2.920733173672699e-06,6.179677870932659e-06,5.660042556880299e-06
229.8391985280095,367.4632567265326,12.5,0,-0.0141745985082623,1.297971038747348,-0.06649274398388441,-1.083735546224317e-06,4.164847002798122e-06,-5.319419518710753e-07,4.947931915265414e-06,5.289631001506867e-06
237.2774214512119,370.4860892257487,12.5,0,-0.1527322162923147,0.9542910118682462,0.03555360378405993,-1.252175901630004e-06,3.175917011012239e-06,2.844288302724794e-07,3.2236513959444e-06,4.18643662987576e-06
229.6251411170044,377.5779711811356,12.5,0,0.1625958666156176,1.33368866603928,-0.2252571763702456,-5.466441596614478e-07,4.137727038033202e-06,-1.802057410961965e-06,5.658079831160933e-06,4.792729516431616e-06
237.220064940801,380.381364219434,12.5,0,0.03181054522965535,0.9980257053406059,-0.1297340447173523,-6.966268195375875e-07,3.168233820906214e-06,-1.037872357738818e-06,3.945681940656217e-06,3.699626520332194e-06
229.4684402164186,384.9824560656416,12.5,0,-0.02267569469626785,1.049883030627434,-0.04823069656695916,-9.124686475300042e-07,3.377766253764803e-06,-3.858455725356733e-07,3.968084298454446e-06,4.407806396074798e-06
237.1780770610371,387.6252082693695,12.5,0,-0.1363056458809093,0.7428725779465359,0.0330022782248495,-1.030476129176139e-06,2.486236766133642e-06,2.64018225798796e-07,2.461721533228234e-06,3.350565833202902e-06
229.2543828054133,395.0971705202447,12.5,0,0.1190567615299946,1.077932725726411,-0.1866438075602448,-4.813645436851463e-07,3.35413931310052e-06,-1.493150460481958e-06,4.535301242115361e-06,3.853078359282562e-06
237.1207205506262,397.5204832630548,12.5,0,0.01149567656286193,0.777735122549382,-0.1107510728606493,-5.854019330383474e-07,2.479555850907733e-06,-8.86008582885194e-07,3.036349501634334e-06,2.883724410543796e-06
216.1149574938742,380.4050749770525,12.5,0,-0.003937741153805852,1.498294443204397,-0.2628600376953812,-1.211236326255697e-06,4.797692411177116e-06,-2.10288030156305e-06,5.783299968327776e-06,6.395483930545565e-06
223.8245943384927,383.0478271807804,12.5,0,-0.1125355856699053,1.217092919280585,-0.1833361817364776,-1.333788209568165e-06,3.984725810233795e-06,-1.466689453891821e-06,4.367335563637763e-06,5.223689741251282e-06
215.6294861614528,390.8998697271439,12.5,0,0.1471464924835269,1.520764186639173,-0.3924803802108642,-7.457425733640527e-07,4.748728203258533e-06,-3.139843041686914e-06,6.375290660171561e-06,5.67288567657996e-06
223.4958239066656,393.323182469954,12.5,0,0.04449277590352174,1.245440815637517,-0.3177990760986457,-8.539757696187443e-07,3.949816389317238e-06,-2.542392608789165e-06,4.98572850917431e-06,4.60043186805386e-06
79.78675625530512,228.9233941736233,12.5,0,6.349218470351947,-0.7853521737976761,-2.191148583330495,2.094578084416437e-05,-7.592501732434121e-06,-1.752918866664396e-05,2.273572001708303e-05,2.206878774048793e-05
87.39014427965263,232.2282299198969,12.5,0,6.556899372496408,-0.5538971429790538,-2.360235582113585,2.142519570637174e-05,-7.017990355530098e-06,-1.888188465690868e-05,2.426148454134398e-05,2.357806446974365e-05
77.06894008097689,236.0541910389636,12.5,0,6.055215004156183,-0.8012768023407106,-2.174938327899635,2.001770945517235e-05,-7.408257770815219e-06,-1.739950662319708e-05,2.158727693930222e-05,2.217780101960136e-05
85.23235731995044,239.1529683685112,12.5,0,6.235721983934107,-0.5832535988334024,-2.333965426668347,2.042091322765586e-05,-6.854989103414173e-06,-1.867172341334677e-05,2.29659045028924e-05,2.354969650778538e-05
75.07936055582073,241.2742966426237,12.5,0,6.11520687819074,-0.5432602761959171,-2.415973360224217,2.00032702311671e-05,-6.630598386379525e-06,-1.932778688179374e-05,2.268250727134365e-05,2.224611831698668e-05
83.65274763360601,244.2222287418071,12.5,0,6.301631343192393,-0.3015056019696807,-2.589374210009636,2.04064247797914e-05,-6.006123000856892e-06,-2.071499368007709e-05,2.417668258999798e-05,2.351403821683586e-05
72.36154438149249,248.4050935079641,12.5,0,5.835764476966495,-0.5570969537237758,-2.39925191371485,1.91201238892718e-05,-6.451321833489278e-06,-1.91940153097188e-05,2.159757511738637e-05,2.232375136537367e-05
81.49496067390382,251.1469671904214,12.5,0,5.999126259074492,-0.3280273204345814,-2.563218438605977,1.945962588538604e-05,-5.848988432650253e-06,-2.050574750884782e-05,2.296260249432516e-05,2.34449859162048e-05
60.229818544409,236.1683284696666,12.5,0,5.799575532354761,-0.631618935859213,-2.01539756460674,1.90639368522226e-05,-6.66084102063329e-06,-1.612318051685392e-05,2.101601834042941e-05,2.041707216655441e-05
68.80320562219427,239.11626056885,12.5,0,5.91513791745564,-0.4884944486118021,-2.123919381357092,1.931923689474749e-05,-6.295292569522278e-06,-1.699135505085674e-05,2.191567981821365e-05,2.141628876485299e-05
56.54200331664301,243.6560289820974,12.5,0,5.614247026176677,-0.6331021170898254,-2.015411119100921,1.847207217743723e-05,-6.517324395628783e-06,-1.612328895280737e-05,2.032105526342496e-05,2.075262276739255e-05
65.67541960905432,246.3979026645547,12.5,0,5.716089211050354,-0.4965900588201952,-2.118970974731881,1.868875752241729e-05,-6.161959557064907e-06,-1.695176779785505e-05,2.114770971800174e-05,2.160233483394056e-05
66.61730188771112,223.1992507505103,12.5,0,5.904905587012591,-0.8832253989583367,-1.767844259182255,1.960227819760696e-05,-7.550245746276749e-06,-1.414275407345804e-05,2.057343424423818e-05,1.980924069542197e-05
74.22068991205863,226.504086496784,12.5,0,6.050387935266425,-0.7281511921549051,-1.886688173205801,1.994376234657648e-05,-7.170394163108835e-06,-1.509350538564641e-05,2.161188994005577e-05,2.105893445377465e-05
62.92948665994512,230.6869512629409,12.5,0,5.68526353276958,-0.8859985181630505,-1.768634920522008,1.890164211939309e-05,-7.383406084337425e-06,-1.414907936417606e-05,1.974461660875785e-05,2.016429370222376e-05
71.09290389891868,233.7857285924886,12.5,0,5.812663395212319,-0.7387627424082039,-1.881615851870232,1.919153305860598e-05,-7.014171491876107e-06,-1.505292681496185e-05,2.068967170453988e-05,2.12706850718253e-05
618.1312780117031,115.6980172134174,12.5,0,0.04179351683189558,-0.01331849269720648,-3.424809192697169,1.44394048019831e-07,-7.605399009657718e-08,-2.739847354157735e-05,6.304516493610773e-06,5.904249453132987e-06
634.1402936039176,125.0353087216072,12.5,0,-0.06852213598341832,-0.02306722529772995,-3.354984874416039,-2.008170549087546e-07,-1.899741216600118e-08,-2.683987899532831e-05,5.962927082992126e-06,6.063731084023608e-06
615.0023517121642,134.8806848212438,12.5,0,0.2617790745396884,0.04490806514696515,-3.403484667949459,8.017665864094305e-07,-6.571745116146221e-08,-2.722787734359567e-05,6.794313157827501e-06,6.314289100102816e-06
633.3019003288057,147.0812782485503,12.5,0,0.1525669996993158,0.03296422447523649,-3.343849752279499,4.618430194576213e-07,-1.656808143869586e-08,-2.675079801823599e-05,6.449370481689795e-06,6.088148289376235e-06
590.4028496273236,99.52535391644196,12.5,0,-0.2206410056202638,-0.08094487823558828,-3.420144582565068,-6.412953153963735e-07,-8.251080585767144e-08,-2.736115666052055e-05,5.727046341571151e-06,5.219842692343042e-06
606.411865219538,108.8626454246317,12.5,0,-0.2922566046678889,-0.05145728963356663,-3.377030655280674,-8.940553032303911e-07,6.91419569068979e-08,-2.701624524224539e-05,5.582739295168907e-06,5.678130240087218e-06
583.306603753134,113.7486371230379,12.5,0,-0.09768281924726174,-0.03092113049016856,-3.382641123970715,-2.878481171991027e-07,-2.080136217073002e-08,-2.706112899176572e-05,5.949138225382926e-06,5.898120967234298e-06
601.6061523697755,125.9492305503443,12.5,0,-0.167192871955278,-0.008928550387453951,-3.348138965552304,-5.278743499469266e-07,1.051829363243698e-07,-2.678511172441844e-05,5.80601635237743e-06,6.26337143259662e-06
602.6939080242,74.88990475261929,12.5,0,-0.4634141890176905,0.05895121634492689,-3.001669366066813,-1.530086377932551e-06,5.593752435179185e-07,-2.401335492853451e-05,4.822409733413457e-06,4.558929911039929e-06
614.7356040417638,79.26781185957856,12.5,0,-0.3786606421451402,0.05120141485708737,-3.092840546499133,-1.252675186750118e-06,4.667730412587917e-07,-2.474272437199307e-05,5.102491321394266e-06,4.814434818855356e-06
595.5976621500106,89.11318795921522,12.5,0,-0.7343973375938271,-0.02394740403348947,-3.063761276265965,-2.330913557073455e-06,5.108861771678953e-07,-2.451009021012772e-05,4.434155008825085e-06,4.861007530335947e-06
609.9298911920013,96.35439698529117,12.5,0,-0.6419830281784784,-0.02298420300384327,-3.132260902350922,-2.035958327768056e-06,4.400369729304842e-07,-2.505808721880737e-05,4.676727170244228e-06,5.289888844563443e-06
623.5507373355455,82.47266229255335,12.5,0,-0.02416533975099438,0.05595084210291693,-3.216247456757374,-1.220897608855155e-07,1.983749665301297e-07,-2.572997965405899e-05,5.930017737612192e-06,5.069495321785729e-06
635.5924333531092,86.85056939951261,12.5,0,0.01757687269713651,0.01949589817540584,-3.265381343630031,4.064927409051214e-08,4.832537600358948e-08,-2.612305074904024e-05,6.028883473927715e-06,5.510828667009778e-06
620.4218110360066,101.6553299003798,12.5,0,-0.2420741239675409,-0.009545754914962408,-3.256419437184729,-7.67000592764161e-07,1.63112883446153e-07,-2.605135549747783e-05,5.514023427111395e-06,5.570707965500019e-06
634.7540400779974,108.8965389264557,12.5,0,-0.1906433790422588,-0.03503974281250455,-3.294432553374506,-5.820270186852243e-07,4.038752623379245e-08,-2.635546042699605e-05,5.624375821743995e-06,5.90903875744069e-06
168.4230142306916,368.650319268269,12.5,0,0.5363434588373344,2.500452191988234,-1.456519974305635,-2.840626853111173e-07,7.572372247292481e-06,-1.165215979444508e-05,1.187624522278434e-05,1.239991996415271e-05
174.6844559865646,370.7803039308165,12.5,0,0.4729662212240335,2.370183569727815,-1.404721737250397,-3.826549478653448e-07,7.206214446149781e-06,-1.123777389800318e-05,1.116547755609114e-05,1.167559529934741e-05
166.4890967807319,375.677639239327,12.5,0,0.6329613084142778,2.490116492435601,-1.495730924074357,3.338299297720804e-08,7.4620037290625e-06,-1.196584739259485e-05,1.217201500097219e-05,1.166297271255559e-05
173.0647174333145,378.1882804520591,12.5,0,0.5699810845725759,2.367449965472604,-1.445548413701069,-7.002050174584036e-08,7.119855021854271e-06,-1.156438730960855e-05,1.14903636745909e-05,1.092204192359108e-05
171.7726575116058,356.4786440375718,12.5,0,0.5990122965154938,2.774875684790821,-1.605817556994864,-3.030611989830764e-07,8.400392354118231e-06,-1.284654045595891e-05,1.318359247608139e-05,1.372311651715846e-05
177.4899254557215,357.9493122149773,12.5,0,0.5502173449078909,2.658412152525804,-1.564488237236616,-3.660342183153925e-07,8.066745012156259e-06,-1.251590589789293e-05,1.257618737280248e-05,1.304458691096957e-05
169.838740061646,363.5059640086298,12.5,0,0.6874772530444164,2.762666973558018,-1.645634298270722,-1.020636910428166e-08,8.290552512950122e-06,-1.316507438616578e-05,1.344721353592267e-05,1.295193383287085e-05
175.8701869024714,365.3572887362201,12.5,0,0.6385145118206955,2.653833492738866,-1.6054253120443,-7.982035636486728e-08,7.981455567307814e-06,-1.28434024963544e-05,1.286741600817164e-05,1.224432951459651e-05
181.6752560711212,359.0259160418672,12.5,0,0.389524875694067,2.661713215054931,-1.292796342702855,-8.8289096982293e-07,8.205862387620523e-06,-1.034237074162284e-05,1.18929400526984e-05,1.250543189280875e-05
187.3925240152369,360.4965842192726,12.5,0,0.3357413502535221,2.528920743053148,-1.248505842390917,-9.487642736312475e-07,7.823953297567255e-06,-9.988046739127339e-06,1.120728738956485e-05,1.171096259616393e-05
180.2855124329187,366.7125524980671,12.5,0,0.4938641659127642,2.659516515304881,-1.347780560280967,-5.472478813230592e-07,8.115361516245406e-06,-1.078224448224774e-05,1.224691688388173e-05,1.1687970337011e-05
186.3169592737441,368.5638772256572,12.5,0,0.4396753669080048,2.534517060768705,-1.30420347614168,-6.206524745093489e-07,7.758714300933453e-06,-1.043362780913344e-05,1.158828076220977e-05,1.087557311479988e-05
179.2681494803021,372.3395609230773,12.5,0,0.3312264315177322,2.358099942856112,-1.146954602253121,-8.26555373428146e-07,7.280938671925369e-06,-9.175636818024968e-06,1.049455338526187e-05,1.111013078976218e-05
185.529591236175,374.4695455856248,12.5,0,0.2605725403929744,2.210407606507424,-1.089598673839584,-9.344939559484214e-07,6.864846308509377e-06,-8.716789390716675e-06,9.693607827133979e-06,1.028957768443791e-05
177.8784058420995,380.0261973792773,12.5,0,0.4505925226739736,2.359738034538625,-1.2007486466206,-4.458943550741842e-07,7.190687692384419e-06,-9.605989172964798e-06,1.090860381630238e-05,1.034890534378642e-05
184.4540264946821,382.5368385920094,12.5,0,0.3799992582467524,2.219794831042054,-1.144767451717422,-5.598382384440351e-07,6.799344052737169e-06,-9.158139613739375e-06,1.013525963198518e-05,9.52399787698179e-06
447.0954925340752,76.97092203340885,12.5,0,-3.797086948903599,-0.4293009790862415,-3.693253135863447,-1.180723745322252e-05,1.663906426046906e-06,-2.954602508690757e-05,3.096680046170423e-06,2.789734738465225e-06
461.6628091820585,77.36870138982195,12.5,0,-3.770032935639021,-0.1774135514041546,-3.16978293833602,-1.192217455292154e-05,2.448302984017921e-06,-2.535826350668816e-05,2.707489331255945e-06,2.782781645478269e-06
442.637671883193,91.65714100333204,12.5,0,-2.428378121716973,-0.01555318617086066,-3.4453148045265,-7.758367440557624e-06,1.892932301626824e-06,-2.7562518436212e-05,3.623907093645279e-06,3.34660535152614e-06
457.4639199347733,91.45726187566663,12.5,0,-2.343515678870853,0.2524755295590284,-2.914210528095763,-7.701230596033953e-06,2.682734237685573e-06,-2.33136842247661e-05,3.202401690629069e-06,3.357078819473308e-06
454.8166643922942,51.5336446068771,12.5,0,-5.734854293740672,-0.3494592468667448,-2.993601017298609,-1.807196634247675e-05,3.469613845018954e-06,-2.394880813838887e-05,2.378066157099642e-06,2.262968898636664e-06
468.9354986935803,52.96659882327024,12.5,0,-5.784652480412137,-0.1359422529817575,-2.59613349504263,-1.840213413493343e-05,4.192706774788085e-06,-2.076906796034104e-05,2.232274687140098e-06,2.209518294375749e-06
450.358843741412,66.21986357680029,12.5,0,-4.64097450117655,-0.007946515338800753,-2.781487381325063,-1.484476119149392e-05,3.687350751857077e-06,-2.22518990506005e-05,2.39588052838248e-06,2.4993752260336e-06
464.7366094462951,67.05515930911487,12.5,0,-4.643735195447803,0.2189902243433401,-2.377148077136024,-1.503514480490764e-05,4.415756874256931e-06,-1.901718461708819e-05,2.230225618050363e-06,2.475293729522113e-06
479.2712027453285,54.01559411454546,12.5,0,-4.768908638747542,-0.2991674078338367,-2.958117141836115,-1.502117371772506e-05,2.857791205929756e-06,-2.366493713468892e-05,2.349455884273807e-06,2.184112521991642e-06
493.3900370466146,55.44854833093861,12.5,0,-4.815665431822768,-0.1200498677193798,-2.605102554250648,-1.531408948765735e-05,3.468372768756199e-06,-2.084082043400518e-05,2.177489446702211e-06,2.168153265290694e-06
475.2618644411435,67.66663822448862,12.5,0,-3.871377965357019,-0.02330132076261271,-2.790660228730132,-1.236976843253237e-05,3.022538145845254e-06,-2.232528182984105e-05,2.421556103735153e-06,2.477095048960116e-06
489.6396301460267,68.50193395680324,12.5,0,-3.876419033492279,0.1674835693643537,-2.432020823338977,-1.253852776266677e-05,3.637082648759755e-06,-1.945616658671182e-05,2.228373916675205e-06,2.506097841697097e-06
472.3268250978729,77.65989608890602,12.5,0,-3.223965830138278,-0.4469945692167179,-3.55084932491383,-9.959095001069115e-06,1.148790042617125e-06,-2.840679459931064e-05,3.059991618102076e-06,2.798072712380871e-06
486.8941417458561,78.05767544531916,12.5,0,-3.181004229131997,-0.1569935383782767,-3.121198400337906,-1.005361870251977e-05,2.042424060495112e-06,-2.496958720270325e-05,2.784148601112753e-06,2.846801777049445e-06
468.3174867936879,91.31094019884921,12.5,0,-2.176546133935422,-0.1120719502595631,-3.338121671188045,-6.875290068385697e-06,1.382606666317735e-06,-2.670497336950436e-05,3.50870631260059e-06,3.382017470009923e-06
483.1437348452682,91.1110610711838,12.5,0,-2.085976103859135,0.1915208798660575,-2.901287374459629,-6.828340236242076e-06,2.281647698658691e-06,-2.321029899567703e-05,3.25091988215535e-06,3.439677662403889e-06
118.7713444523889,249.1979544146371,12.5,0,7.018182888647889,0.6949248333150768,-3.846004462009153,2.190224537702118e-05,-3.390786844310065e-06,-3.076803569607323e-05,3.065647635919799e-05,2.998505827201849e-05
122.6468374557653,248.3641009484857,12.5,0,7.011582108005561,0.773399077820552,-3.887852368860442,2.181834348336135e-05,-3.134388637378682e-06,-3.110281895088354e-05,3.09019650339498e-05,3.098676649188726e-05
119.0792711012523,253.5613070609684,12.5,0,6.899425956871094,0.6601287372693883,-3.81395178587434,2.155006007217199e-05,-3.407128806234833e-06,-3.051161428699472e-05,3.009353668493224e-05,2.971504726310558e-05
123.0280774050871,251.9510869710168,12.5,0,6.86938748000674,0.7286943909920935,-3.847823625137485,2.139908442322789e-05,-3.163687932830693e-06,-3.078258900109988e-05,3.021733454029689e-05,3.076432866951001e-05
112.058793666284,250.6422309840526,12.5,0,6.783869263477488,0.4979557180106533,-3.664238628906281,2.131001706871943e-05,-3.833637113147899e-06,-2.931390903125025e-05,2.90693280878413e-05,2.850193100211833e-05
115.9342866696603,249.8083775179013,12.5,0,6.772878079658665,0.5647835153643397,-3.709743600270394,2.122138304261625e-05,-3.610995214561045e-06,-2.967794880216315e-05,2.92646136626522e-05,2.931924860923143e-05
112.2397379538851,256.3502900680824,12.5,0,6.611953410245777,0.4522272362707995,-3.627509242335123,2.079646912376984e-05,-3.842435572130062e-06,-2.902007393868099e-05,2.827691183850087e-05,2.822063758379755e-05
116.1885442577199,254.7400699781309,12.5,0,6.575785446369482,0.5103973784589779,-3.666290045243694,2.063419552561515e-05,-3.627356746026855e-06,-2.933032036194955e-05,2.834930790918336e-05,2.903346729091589e-05
111.7453889668251,240.7555826380857,12.5,0,7.224462984840787,0.179765914470879,-3.397003965705615,2.297446881991381e-05,-5.204319461565816e-06,-2.717603172564492e-05,2.954273157644076e-05,2.882980532283636e-05
115.4938996089392,241.2664356096328,12.5,0,7.276589616335065,0.2856631914953809,-3.477358401800843,2.30565562190759e-05,-4.907149480282833e-06,-2.781886721440674e-05,3.010574431149163e-05,2.967383665572313e-05
111.9263332544262,246.4636417221154,12.5,0,6.966759353150226,0.111576270779481,-3.346460219707356,2.220436891345713e-05,-5.216363416025841e-06,-2.677168175765885e-05,2.835621212177464e-05,2.866515700584379e-05
115.7481571969987,246.1981280698624,12.5,0,6.977186897450609,0.2037180791565953,-3.416563793118408,2.216402360851667e-05,-4.929851664659382e-06,-2.733251034494727e-05,2.87171459533029e-05,2.949083506338382e-05
118.2379998515627,241.6404059399869,12.5,0,7.395888912292466,0.4042254517662403,-3.616606715159038,2.33434641579229e-05,-4.623189684182003e-06,-2.893285372127231e-05,3.099744307981886e-05,3.033587523077318e-05
121.9865104936768,242.1512589115341,12.5,0,7.463589160662056,0.5484737999088234,-3.716408591604325,2.344470627419152e-05,-4.21575516882141e-06,-2.97312687328346e-05,3.175070239940154e-05,3.130056692157056e-05
118.5459265004261,246.0037585863182,12.5,0,7.16575360952927,0.3384210991366963,-3.563697051267367,2.26596746711843e-05,-4.649655370385987e-06,-2.850957641013893e-05,2.991671165775249e-05,3.01514086245885e-05
122.3677504429986,245.7382449340652,12.5,0,7.181592757379429,0.462785525877744,-3.648166249336918,2.261086840291197e-05,-4.264360523094761e-06,-2.918532999469535e-05,3.040803524149694e-05,3.113045109847309e-05
220.563121789902,350.4795220805871,12.5,0,0.0878119766175991,2.200925003127868,-0.3286599174781129,-1.479741677325977e-06,6.972710428715097e-06,-2.629279339824903e-06,8.764843589432578e-06,8.295314464034723e-06
226.8369759123932,351.8071203547039,12.5,0,-0.06728510183006459,1.737576138522197,-0.2185101461311222,-1.605373236673964e-06,5.614071724735083e-06,-1.748081169048978e-06,6.498222195098761e-06,6.941435051203314e-06
218.0524741601135,356.2676089396882,12.5,0,0.2225574703153921,2.067830157260458,-0.4533078582653262,-9.420802207991117e-07,6.439010526981153e-06,-3.626462866122609e-06,8.710043652629444e-06,8.056018976472366e-06
225.1367175237169,358.8950034236602,12.5,0,0.072577247740994,1.689112694080734,-0.3430439416216053,-1.119042962493406e-06,5.347098822865554e-06,-2.744351532972842e-06,6.767679827607385e-06,6.572270830088238e-06
224.9116910445199,340.4542615621822,12.5,0,0.03488115042647788,2.350140130706987,-0.2114937138130868,-1.768492423200861e-06,7.492543497921177e-06,-1.691949710504694e-06,9.152582604219733e-06,8.545745951391665e-06
229.7819098275228,339.5305467613849,12.5,0,-0.06480633979915129,1.912579625647166,-0.2223365416848345,-1.737443987875016e-06,6.17209987391025e-06,-1.778692333478676e-06,7.176555091942781e-06,7.519005978118247e-06
222.4010434147314,346.2423484212834,12.5,0,0.04279658475592651,2.14490288378176,-0.3923056727732452,-1.578973235806443e-06,6.829451960296891e-06,-3.138445382185962e-06,8.430159383631202e-06,8.426536411472002e-06
228.0816514388466,346.6184298303413,12.5,0,-0.03887567809907561,1.827949242689343,-0.3697478112881597,-1.586761564068516e-06,5.880538119085158e-06,-2.957982490305278e-06,6.968739582465501e-06,7.195111969556219e-06
233.3471574205057,338.8543405955266,12.5,0,0.0006671479415719106,1.770246241840041,0.06300149913682727,-1.414062120059002e-06,5.664254255534872e-06,5.040119930946182e-07,6.806684159000668e-06,6.901105129898418e-06
238.2173762035086,337.9306257947292,12.5,0,-0.091524010350853,1.358942432947425,0.05597438586430873,-1.380030779480669e-06,4.421834993712442e-06,4.477950869144698e-07,4.951348874031352e-06,6.239708591723589e-06
232.2401451302055,346.893740529542,12.5,0,0.07443431648080984,1.702112260037382,-0.1834912228690606,-1.123499995291314e-06,5.387211778934973e-06,-1.467929782952485e-06,6.784072169867686e-06,6.406418553506525e-06
237.9207531543206,347.2698219385998,12.5,0,-0.0137861965079587,1.361416447606096,-0.1566460676920749,-1.133248986910344e-06,4.367561589545874e-06,-1.253168541536599e-06,5.204869504119333e-06,5.483092511087877e-06
231.429755889137,352.7789897433569,12.5,0,0.02364494343583956,1.53192542508629,-0.03982048626142064,-1.149876521074345e-06,4.883245405527456e-06,-3.185638900913651e-07,5.959645357097115e-06,6.066045324011475e-06
237.7036100116281,354.1065880174737,12.5,0,-0.09433187707598917,1.15932836299652,0.03615205191841452,-1.229324697040381e-06,3.785316263249654e-06,2.892164153473162e-07,4.175837292006082e-06,5.028315525629244e-06
230.3227435988367,360.8183896773721,12.5,0,0.1657613385224252,1.507799521392247,-0.2049524130720433,-6.758033338420368e-07,4.692349397637249e-06,-1.639619304576347e-06,6.328373101529575e-06,5.630814943847055e-06
237.4069869624401,363.445784161344,12.5,0,0.04677403333799973,1.182026085351418,-0.1205445408714133,-7.95943961599535e-07,3.745064246454137e-06,-9.64356326971306e-07,4.694918262567893e-06,4.542457775826136e-06
125.4016068188806,461.5288844095786,12.5,0,0.4159354949741706,1.303162859055782,-1.011895383853,2.8846329667272e-07,3.837372752999166e-06,-8.095163070824005e-06,6.827983689880698e-06,6.828457603728771e-06
137.3990000182452,465.9801198364271,12.5,0,0.3352687237938198,1.115886339688938,-0.9506034038366147,1.801508443890731e-07,3.302621307969544e-06,-7.604827230692917e-06,5.86069906257625e-06,6.194985009804379e-06
118.8356286716743,472.4035634355984,12.5,0,0.473854214935529,1.234638340039077,-1.048758924500534,5.286228157624311e-07,3.571759316176623e-06,-8.390071396004268e-06,6.803283721758451e-06,6.41440974804338e-06
131.8766734470309,476.8858110704575,12.5,0,0.4002511609472952,1.058565766856594,-0.9926512334219709,4.339511015460694e-07,3.067209525183265e-06,-7.941209867375767e-06,5.9051556483395e-06,5.81442081267343e-06
136.7742145710246,442.6933878208472,12.5,0,0.4105146645171988,1.483797870612618,-1.047328420011433,1.266086299649421e-07,4.419741454346616e-06,-8.378627360091468e-06,7.484272673036541e-06,7.515711544046795e-06
146.9639502154041,447.0909085277672,12.5,0,0.3219995023959213,1.292757281764704,-0.9803956659163349,-3.807417744815532e-09,3.879223699730317e-06,-7.843165327330679e-06,6.470002907954474e-06,6.843050237946277e-06
130.2082364238183,453.5680668468669,12.5,0,0.4807801165892631,1.403912198148379,-1.090095572992241,4.153666145669383e-07,4.107894940803403e-06,-8.720764583937928e-06,7.458784766562586e-06,7.123550530581647e-06
141.4416236441898,457.9965997617977,12.5,0,0.4012664541593311,1.22556660435742,-1.029668090333186,3.03599369823923e-07,3.600799970616281e-06,-8.237344722665488e-06,6.525508380922057e-06,6.47060543360855e-06
154.4233544224683,450.3101171124319,12.5,0,0.2496597289974705,1.32787696674178,-0.7914919284172369,-2.633904406015187e-07,4.04947851037572e-06,-6.331935427337895e-06,6.211363189466124e-06,6.325440296198175e-06
164.6130900668478,454.7076378193519,12.5,0,0.161696041212353,1.13880776152728,-0.7249300262414268,-3.936188773422942e-07,3.514828003917413e-06,-5.799440209931414e-06,5.203836377339315e-06,5.58396494287999e-06
149.6650338302471,461.2385108583802,12.5,0,0.3271514417145472,1.277813814129294,-0.8396051978177973,2.463356218311596e-08,3.827283051842103e-06,-6.716841582542378e-06,6.310413744925506e-06,5.963588290822004e-06
160.8984210506186,465.6670437733109,12.5,0,0.2488422834082355,1.102862895311792,-0.7800265863577865,-8.599500934308022e-08,3.330087438271146e-06,-6.240212690862292e-06,5.389163109965054e-06,5.23133679333496e-06
146.181701398188,469.2386503251922,12.5,0,0.2548048414998791,1.164838861541219,-0.7557396160661951,-1.164955964333617e-07,3.523640483731996e-06,-6.045916928529561e-06,5.609104221305039e-06,5.698342352672038e-06
158.1790945975526,473.6898857520407,12.5,0,0.173677412078872,0.9774656877004899,-0.6939797903386237,-2.262048315080016e-07,2.98894827097847e-06,-5.551838322708989e-06,4.635202137558433e-06,4.974961974047182e-06
141.4233808059668,480.1670440711404,12.5,0,0.3199508990428229,1.121256135180357,-0.7974963810905477,1.268379687927473e-07,3.332058913342884e-06,-6.379971048724382e-06,5.691355112274097e-06,5.335528978490425e-06
154.4644255813234,484.6492917059995,12.5,0,0.2464417481415394,0.9462815702002951,-0.7413262378748582,3.158833789268991e-08,2.830947626127713e-06,-5.930609902998865e-06,4.791045403650075e-06,4.627161091486932e-06
118.8711233901822,274.0598796461008,12.5,0,5.485757911264028,1.414194232680697,-4.011638735492828,1.642306992990033e-05,1.36815215567008e-07,-3.209310988394262e-05,2.746898743376139e-05,2.752521098323664e-05
123.5001231190875,275.051153024001,12.5,0,5.62649021068546,1.686377809709072,-4.167710609115331,1.665566642642621e-05,8.952168225206624e-07,-3.334168487292265e-05,2.895726584670523e-05,2.816006453312678e-05
118.4057203286816,278.5916512710282,12.5,0,5.202355509050367,1.362743311037913,-3.947192031875886,1.555734298013084e-05,1.988941880810293e-07,-3.157753625500709e-05,2.624549129443642e-05,2.689249573885902e-05
123.1971950080333,278.8243629587213,12.5,0,5.28277202763659,1.618768629365658,-4.086927960372827,1.560985558494456e-05,9.538419918608324e-07,-3.269542368298262e-05,2.745450719781712e-05,2.756214320878148e-05
110.8534606716399,272.3429437914182,12.5,0,5.600859805648096,1.067987922900127,-3.798762491246217,1.70683610397538e-05,-1.06312649123807e-06,-3.039009992996973e-05,2.66246842866263e-05,2.64832377123311e-05
115.4824604005451,273.3342171693183,12.5,0,5.724258645571709,1.302683134319094,-3.937123342345682,1.727548115837419e-05,-4.10820886636265e-07,-3.149698673876546e-05,2.790905048768064e-05,2.707590659077158e-05
110.1066427410139,278.188582804436,12.5,0,5.259820895209736,1.010882853220327,-3.727309849184335,1.602272058209489e-05,-9.730315858627424e-07,-2.981847879347468e-05,2.516851704766236e-05,2.58060358056736e-05
114.8981174203656,278.4212944921291,12.5,0,5.330192086646754,1.233352133136693,-3.852801404228924,1.606993297076026e-05,-3.174268432799874e-07,-3.08224112338314e-05,2.621421045944928e-05,2.642194817838859e-05
112.1469872714642,262.2180000183465,12.5,0,6.090261281211911,0.8150060608036099,-3.801250079265345,1.883683125123522e-05,-2.264189630397977e-06,-3.041000063412276e-05,2.761553257540831e-05,2.776253935435209e-05
116.4945721312441,264.5231407843371,12.5,0,6.337560361235937,1.113480484059359,-3.981712681916785,1.938940876870751e-05,-1.506910739998799e-06,-3.185370145533428e-05,2.956798990288621e-05,2.835603033683669e-05
111.4001693408383,268.0636390313643,12.5,0,5.70124694009157,0.7524125500042451,-3.711810800348355,1.764206016828963e-05,-2.153277392059671e-06,-2.969448640278684e-05,2.594993622866929e-05,2.700748125817181e-05
115.9102291510646,269.6102181071478,12.5,0,5.884662618452843,1.036450423161623,-3.875599234191608,1.80017600405198e-05,-1.391088740645082e-06,-3.100479387353286e-05,2.761213908336799e-05,2.759414234320706e-05
119.6772251386848,266.2106209435686,12.5,0,5.879367621080546,1.213643683473585,-4.014266595151044,1.784306144067888e-05,-8.19834309748966e-07,-3.211413276120836e-05,2.825593187286686e-05,2.876214737537504e-05
124.0248099984647,268.5157617095592,12.5,0,6.149204703311135,1.537989361564325,-4.211144703548624,1.844706356134417e-05,2.202194356931079e-09,-3.368915762838899e-05,3.039602573237489e-05,2.92781887760438e-05
119.2118220771843,270.742392568496,12.5,0,5.565354561563858,1.157368595207731,-3.940011029398253,1.688323972083816e-05,-7.487041445863483e-07,-3.152008823518603e-05,2.689581550806537e-05,2.802618262935305e-05
123.7218818874105,272.2889716442795,12.5,0,5.76332734932368,1.462786093958315,-4.116978528624732,1.727241864266912e-05,7.025362120766473e-08,-3.293582822899786e-05,2.870143102412233e-05,2.861987755703541e-05
305.5675771801062,71.2195361433148,12.5,0,-7.895991324216289,0.5178871787111623,-3.191301088890128,-2.568148198046105e-05,7.974032031248749e-06,-2.553040871112103e-05,3.295325811633832e-06,3.256526857556144e-06
310.212791173623,70.49197904870178,12.5,0,-7.794791322622289,0.4750177191267646,-2.909749601878449,-2.532334640769273e-05,7.755889759303476e-06,-2.327799681502759e-05,3.077667626849337e-06,3.227270949884991e-06
305.7657803954955,75.86793679090265,12.5,0,-6.985331684018258,0.7490214282658842,-3.238393558671951,-2.295227853147113e-05,7.985133917665435e-06,-2.590714846937561e-05,3.427492111734841e-06,3.290041951719347e-06
309.8773807688984,75.47215943106056,12.5,0,-6.923075891471956,0.6876872597812589,-2.918934407711065,-2.270399266053526e-05,7.739059944477592e-06,-2.335147526168853e-05,3.147467416699603e-06,3.262241169287221e-06
305.9108752193778,79.27080223872835,12.5,0,-6.405800953869869,0.6233799208558402,-3.360672298576437,-2.099726698906825e-05,7.119456509834584e-06,-2.68853783886115e-05,3.3938070947065e-06,3.361199199386197e-06
309.6318433112633,79.11790450165,12.5,0,-6.402118846626784,0.5484084563597498,-3.143623163645096,-2.09255070742935e-05,6.876602137652625e-06,-2.514898530916077e-05,3.161796289113258e-06,3.336935755872276e-06
306.109078434767,83.91920288631619,12.5,0,-5.495236836149796,0.8560751775672399,-3.422624442515594,-1.826961801773314e-05,7.135630037135004e-06,-2.738099554012476e-05,3.672292003954387e-06,3.522089321183858e-06
309.2964329065386,84.09808488400878,12.5,0,-5.55685464359975,0.752285372867052,-3.166407725212347,-1.838376315781284e-05,6.852796908054365e-06,-2.533126180169877e-05,3.338944679394973e-06,3.506034942079443e-06
299.4659694310053,79.5356288877056,12.5,0,-6.481842428013112,0.7932090573465387,-3.20101856855125,-2.137646301551919e-05,7.723742925919413e-06,-2.560814854841e-05,3.411293817148347e-06,3.43225067028567e-06
303.1869375228907,79.38273115062725,12.5,0,-6.512864023551025,0.5806459874007088,-2.989065167838934,-2.130568166528384e-05,7.068358378523086e-06,-2.391252134271147e-05,3.078915551665829e-06,3.386738753729114e-06
300.5884185480259,83.60937017775876,12.5,0,-5.650075366108556,1.080809526821248,-3.40040903421164,-1.894488879300438e-05,7.978650778714836e-06,-2.720327227369312e-05,3.859625258188369e-06,3.570516021685685e-06
303.7757730197975,83.78825217545135,12.5,0,-5.755575267607081,0.8056186604528985,-3.133236688007842,-1.906233578470497e-05,7.182439927534939e-06,-2.506589350406273e-05,3.355304515335986e-06,3.539366974390899e-06
297.5218305314499,72.47970199656915,12.5,0,-7.860338942584071,0.7188847594132901,-3.051027265108518,-2.572819242379965e-05,8.588702384189784e-06,-2.440821812086814e-05,3.353625199130483e-06,3.340621990988756e-06
302.1670445249666,71.7521449019561,12.5,0,-7.799812790741641,0.5091983168179515,-2.776658317490366,-2.536675958382761e-05,7.869284846410756e-06,-2.221326653992293e-05,3.025095688864407e-06,3.286899177480179e-06
298.6442796484704,76.5534432866223,12.5,0,-7.023024927734636,0.9942248216200269,-3.231554879398692,-2.326905962604685e-05,8.799939371371794e-06,-2.585243903518953e-05,3.631640597427563e-06,3.37065075041761e-06
302.7558800218733,76.1576659267802,12.5,0,-7.006717511548254,0.7381346234870101,-2.907763616571903,-2.301200373574402e-05,7.967404804397034e-06,-2.326210893257522e-05,3.187751122887587e-06,3.319090211434127e-06
31.23609326959346,419.6682073411856,12.5,0,1.667914526833239,0.9289027938174249,-1.899424935346079,4.594204250812423e-06,1.638157318749169e-06,-1.519539948276863e-05,1.059072517171077e-05,1.037278971724905e-05
46.12406211517718,412.7512840000441,12.5,0,1.602856571360816,1.163227637259684,-1.959303850933838,4.198558918546864e-06,2.440043182142335e-06,-1.56744308074707e-05,1.118479484534468e-05,1.103537654021713e-05
35.04883091720482,434.8759584845042,12.5,0,1.426987750824099,0.8183200752533392,-1.797702798158678,3.911704742434446e-06,1.477034040151406e-06,-1.438162238526942e-05,9.325451729278239e-06,9.345357300702952e-06
51.75405388685914,425.4232557471872,12.5,0,1.348188173264271,1.009134592926402,-1.839479466417917,3.506894480104546e-06,2.150680158753068e-06,-1.471583573134334e-05,9.714481019131342e-06,1.009050934127658e-05
37.83994859106832,446.0088049898038,12.5,0,1.286118177289073,0.9226891027587495,-1.703962929584033,3.377426885118032e-06,1.92371058699674e-06,-1.363170343667227e-05,9.083077321160343e-06,8.740077917264567e-06
55.87549390974983,434.699782897779,12.5,0,1.189127740677294,1.165704027462052,-1.737556824147539,2.8726455481977e-06,2.778950695336732e-06,-1.390045459318031e-05,9.585219258125232e-06,9.499011089904682e-06
41.65268623867969,461.2165561331224,12.5,0,1.087299588366091,0.8264382525993087,-1.612174728657891,2.818208080692045e-06,1.774762737624915e-06,-1.289739782926313e-05,8.022157753382211e-06,8.113856305412732e-06
61.50548568143178,447.3717546449221,12.5,0,0.986095092498089,1.034585993069214,-1.634950802531728,2.327835501538513e-06,2.521799103823014e-06,-1.307960642025382e-05,8.385907417122079e-06,8.827875013440337e-06
6.601467757462276,465.5966058367577,12.5,0,1.263985995778365,0.414942035741669,-1.692390009558627,3.712801557897434e-06,3.166257177506483e-07,-1.353912007646901e-05,7.445065227025011e-06,7.398067021828025e-06
24.63701307614376,454.2875837447328,12.5,0,1.218623421512705,0.7016156733881835,-1.692299229753706,3.338302410130109e-06,1.270271417632023e-06,-1.353839383802964e-05,8.155869374377588e-06,8.177131650897991e-06
7.266628931975871,485.1964557309594,12.5,0,1.079105064884234,0.3594550923288285,-1.580846257045841,3.165572133766486e-06,2.869722435448639e-07,-1.264677005636673e-05,6.548433697905245e-06,6.648732886439356e-06
27.11942837472795,471.3516542427593,12.5,0,1.025800161191135,0.6137236655259326,-1.573236553098078,2.791581583390887e-06,1.143275600730076e-06,-1.258589242478462e-05,7.118860189777133e-06,7.529956932308352e-06
5.449374808003245,431.6486699998869,12.5,0,1.660184388343646,0.5026126401197968,-1.89927726381542,4.910499930603829e-06,2.802129377084331e-07,-1.519421811052336e-05,9.256281877136366e-06,9.262834610668861e-06
20.33734365358697,424.7317466587452,12.5,0,1.626430693961382,0.7637541213583949,-1.934447305783325,4.593574923589706e-06,1.142868633177758e-06,-1.54755784462666e-05,9.974657679008645e-06,9.897838538691073e-06
6.114535982516838,451.2485198940886,12.5,0,1.414280283430576,0.4313476927781967,-1.780803631369893,4.180618752755285e-06,2.488883901457687e-07,-1.424642905095914e-05,8.092170232860702e-06,8.098513467746326e-06
22.81975895217114,441.7958171567715,12.5,0,1.364536343173015,0.6550969191270594,-1.802050953228399,3.842438762851999e-06,1.004681066668178e-06,-1.44164076258272e-05,8.622095005489674e-06,8.811603615081003e-06
337.3265234897066,128.7556500125883,12.5,0,1.940674978049989,-0.02989774458882766,-3.626373105546894,6.234078125431026e-06,-1.64821276512424e-06,-2.901098484437515e-05,1.11378527041086e-05,1.192560929831074e-05
342.9983762281327,125.7617340853645,12.5,0,2.125505403942925,-0.2446083472812443,-3.500726334778791,6.997303970442356e-06,-2.483151034454322e-06,-2.800581067823033e-05,1.095846182824994e-05,1.052505376823298e-05
339.858779064653,134.3735148410273,12.5,0,2.443948001412234,0.2112255491888982,-3.808567401569416,7.651653165168028e-06,-1.279236643725312e-06,-3.046853921255532e-05,1.350009641929374e-05,1.408450232130844e-05
346.0520282842979,131.4941987929351,12.5,0,2.592645729047531,-0.002729169049893287,-3.681311884564867,8.298649668192013e-06,-2.082849924197683e-06,-2.945049507651894e-05,1.321701521228457e-05,1.25839438999088e-05
347.1504606055326,123.5700355131401,12.5,0,1.140993961977801,-0.1088667698398366,-3.584573766570373,3.738274094200831e-06,-1.261168833069717e-06,-2.867659013256298e-05,8.763679204234749e-06,9.512307210043781e-06
352.8223133439587,120.5761195859164,12.5,0,1.270369632104518,-0.3980880057207026,-3.499639092513185,4.38365322731102e-06,-2.290177323989863e-06,-2.799711274010548e-05,8.329276555053893e-06,8.145987687840519e-06
350.5858013768217,129.3863931547728,12.5,0,1.60648388867771,0.2004567527459468,-3.806951559717954,4.980383041571914e-06,-6.437255021551382e-07,-3.045561247774363e-05,1.105394461905498e-05,1.145774258640254e-05
356.7790505964666,126.5070771066805,12.5,0,1.707378950175348,-0.08711627264263072,-3.716457518096884,5.533305658675219e-06,-1.644675232596697e-06,-2.973166014477507e-05,1.049884909032218e-05,9.881461799621449e-06
353.1006453626111,133.6442624632583,12.5,0,2.522364416429868,-0.2101411034973009,-3.444222631426562,8.239679015373419e-06,-2.690343064335257e-06,-2.75537810514125e-05,1.213832038277625e-05,1.293942917246362e-05
359.6755832973798,130.8488393492281,12.5,0,2.627391764956119,-0.5401672248157386,-3.328379393185179,8.839787427712171e-06,-3.830448531375258e-06,-2.662703514548143e-05,1.149259204136419e-05,1.125227867128587e-05
356.5359861339002,139.4606201048909,12.5,0,2.984266343283142,0.08991081252957189,-3.660628757911651,9.477723648482396e-06,-2.099698474531883e-06,-2.928503006329321e-05,1.465567486244596e-05,1.504203683028912e-05
363.6323205498878,136.7797968699922,12.5,0,3.064653369630021,-0.2361775686194167,-3.541506805030369,9.995832837711598e-06,-3.207490915286149e-06,-2.833205444024295e-05,1.390082351926741e-05,1.326194590092399e-05
341.7125188031846,138.4860773253241,12.5,0,3.349308632588316,-0.09033784454037252,-3.472867652645345,1.079005789991491e-05,-2.968528008599845e-06,-2.778294122116276e-05,1.511472510752733e-05,1.576085532598445e-05
348.2874567379531,135.6906542112939,12.5,0,3.50147560087418,-0.3985891782274873,-3.316097343938157,1.152359326537936e-05,-4.076665851027303e-06,-2.652877875150526e-05,1.461226754427384e-05,1.414749864606632e-05
344.244774378131,144.1039421537632,12.5,0,3.871427625327239,0.172339071653357,-3.672434205065079,1.225069714372448e-05,-2.545657070971048e-06,-2.937947364052063e-05,1.781324403483934e-05,1.818184388337705e-05
351.3411087941186,141.4231189188645,12.5,0,3.991752887096156,-0.1311507532402163,-3.51510038205374,1.287852984129987e-05,-3.613084720045616e-06,-2.812080305642992e-05,1.720249108886371e-05,1.63603195214899e-05
265.0910876332463,22.9842712035122,12.5,0,-18.10885551881262,-0.1482872030843687,-1.682654449980145,-5.782970789773288e-05,1.401256536518011e-05,-1.346123559984116e-05,4.440739185265777e-06,4.676198519088331e-06
276.1383293765234,23.1393093183394,12.5,0,-18.04069503434273,0.2134497048670827,-1.049743194579025,-5.790098387379038e-05,1.511559508304884e-05,-8.3979455566322e-06,4.555760663280498e-06,4.514289956637215e-06
263.7209149877324,33.9391979500474,12.5,0,-15.84206246166404,0.4757485009761044,-1.393681293493726,-5.10751986781058e-05,1.419604517245476e-05,-1.114945034794981e-05,4.231414253900741e-06,4.195714461075517e-06
272.0283122865353,34.16813143339918,12.5,0,-15.78226873056706,0.9460219544947233,-0.56010427871657,-5.126007750141037e-05,1.565308523883676e-05,-4.48083422973256e-06,4.430357395667989e-06,4.147675945680785e-06
245.9567036507385,22.71573731152663,12.5,0,-18.54866233674446,0.3211045474132286,-0.8219067191864252,-5.961260311551284e-05,1.58664644211179e-05,-6.575253753491402e-06,4.722680046344818e-06,4.67062484208206e-06
257.0039453940155,22.87077542635383,12.5,0,-18.67918372795856,-0.1060923180073479,-0.143562283367682,-5.968851407506151e-05,1.460385156474333e-05,-1.148498266941456e-06,4.477219370347508e-06,4.718088325390785e-06
249.3320807878041,33.5426735253355,12.5,0,-16.12084943218975,1.090733745096524,-1.309389639763675,-5.24593051790844e-05,1.638702753006067e-05,-1.04751171181094e-05,4.680683015011278e-06,4.299315548868458e-06
257.6394780866069,33.77160700868729,12.5,0,-16.32788237227816,0.5116303991341393,-0.3999176756429345,-5.265852791059742e-05,1.469952317505177e-05,-3.199341405143476e-06,4.277603515222843e-06,4.236346170288964e-06
240.1103789547394,3.962933699239262,12.5,0,-23.15273418074383,-0.1000649722813334,-0.8753284661270199,-7.400869740055519e-05,1.82019794332948e-05,-7.002627729016159e-06,5.59310310625405e-06,5.335926978405989e-06
255.903170480596,3.989981281340127,12.5,0,-23.22021070276422,-0.3480972204545951,0.4020198197920822,-7.402619647248182e-05,1.746225745675667e-05,3.216158558336658e-06,5.449176226084887e-06,5.412052807641478e-06
243.4857560918051,14.78986991304811,12.5,0,-20.28575932426718,0.6770029003046867,-1.286021871982802,-6.545603215789872e-05,1.839501674038874e-05,-1.028817497586242e-05,5.397666317951636e-06,4.948384037482869e-06
256.5387031731873,14.89081286367357,12.5,0,-20.39244673633658,0.3700216067134461,0.2635714916081946,-6.555184684164781e-05,1.749802653055229e-05,2.108571932865557e-06,5.172082517088212e-06,5.033117969395498e-06
267.4642962703747,4.009781485659008,12.5,0,-21.96332706862271,-0.2334881050253941,-1.079704978519479,-7.009585613557235e-05,1.68234997188169e-05,-8.637639828155836e-06,5.245191061510527e-06,5.328315251605569e-06
283.2570877962311,4.036829067759874,12.5,0,-21.90929375191407,0.0005974779527164742,-0.0316397064335467,-7.011021798848718e-05,1.752934693097994e-05,-2.531176514683736e-07,5.321612938518793e-06,5.023414164768605e-06
266.0941236248608,14.96470823219418,12.5,0,-19.59610502415818,0.3816200032734303,-0.89444311909637,-6.301283207992491e-05,1.689806802980152e-05,-7.15554495277096e-06,5.016667756642997e-06,4.979677986248265e-06
279.1470707062431,15.06565118281964,12.5,0,-19.55122629054791,0.6589192387239251,0.3691839725700028,-6.309105952073246e-05,1.774952259635489e-05,2.953471780560023e-06,5.146659053641259e-06,4.748943305215563e-06
290.8073508774026,38.50681765986811,12.5,0,-13.11252860824334,-0.1852799252068329,-1.754063301720308,-4.181186760621321e-05,9.897127125932804e-06,-1.403250641376246e-05,3.269394718259046e-06,3.731681968395159e-06
295.8717285792243,45.80434115803236,12.5,0,-12.46002160642599,0.3903487861335631,-2.133005880018953,-4.018434816947e-05,1.121713340076819e-05,-1.706404704015162e-05,3.559727938832257e-06,3.615027771834944e-06
285.3851237233184,44.47961085453061,12.5,0,-13.45528924664935,0.1930281522920962,-1.708428216607631,-4.321134811111158e-05,1.138192148465418e-05,-1.366742573286105e-05,3.558305620999234e-06,3.707991289651001e-06
290.3020533041537,49.35440229219805,12.5,0,-12.68374911610442,1.044477956518099,-2.194999338355773,-4.142357953674863e-05,1.348932875374145e-05,-1.755999470684619e-05,4.061182635358867e-06,3.623385463247538e-06
282.0355913892861,25.86713619184702,12.5,0,-15.18489728394272,0.02893910183863557,-1.299796214751468,-4.861482259008762e-05,1.224052295303781e-05,-1.039836971801174e-05,3.795401195171025e-06,4.311189686310475e-06
287.0999690911078,33.16465969001125,12.5,0,-14.94009015994938,0.3355920813380937,-1.487945326295082,-4.807676217690848e-05,1.30259667882414e-05,-1.190356261036065e-05,3.948144446722765e-06,3.918217991174377e-06
276.8687518722264,36.03622440834054,12.5,0,-15.3749263443348,0.2412532965157457,-1.144658195864064,-4.939276693908395e-05,1.307195162431823e-05,-9.157265566912516e-06,3.945025071274542e-06,4.047436403476916e-06
281.7856814530617,40.91101584600801,12.5,0,-15.1097359102582,0.6522124857903409,-1.346883276648434,-4.887292490145852e-05,1.417486868273565e-05,-1.077506621318747e-05,4.162681733767127e-06,3.821615396631585e-06
290.9848199472273,8.253758734546782,12.5,0,-18.19995840804893,-0.6647182713298214,-0.6820795251042256,-5.77080922886927e-05,1.243286825818371e-05,-5.456636200833805e-06,4.075361517961825e-06,4.748338159011305e-06
296.3045852860735,19.74757725454205,12.5,0,-16.93779557957925,-0.03946850533534807,-1.154472357391688,-5.416937105038531e-05,1.342393724659028e-05,-9.235778859133508e-06,4.155271952243965e-06,4.301717622144267e-06
285.8179804301676,18.42284695104028,12.5,0,-19.19071357145902,-0.6030618485023735,-0.6430359636624819,-6.092783394986696e-05,1.342277294195962e-05,-5.144287709299856e-06,4.344804498932381e-06,4.498995745673626e-06
290.9902976480274,27.49393341053877,12.5,0,-17.85376058369931,0.1292927296843045,-1.185491281703059,-5.723546805158522e-05,1.469674520194922e-05,-9.483930253624475e-06,4.475381939558153e-06,4.04686099478088e-06
294.7766966442031,34.13442957845945,12.5,0,-15.24435707271635,-0.05651754548782595,-1.627958550705386,-4.873672859630207e-05,1.201462951261204e-05,-1.302366840564309e-05,3.81143738521505e-06,3.818341547602982e-06
300.1989237982872,28.16163638379698,12.5,0,-14.54817151098692,-0.1464436201910435,-1.483300477859451,-4.643699393900531e-05,1.11699176241782e-05,-1.186640382287561e-05,3.572832916850981e-06,4.031409242227203e-06
299.9490138620628,43.20551603795797,12.5,0,-13.56231441063821,0.707956375853124,-2.209301286367252,-4.396577121472476e-05,1.311531193124056e-05,-1.767441029093802e-05,4.025650941264618e-06,3.646149558261615e-06
305.5186891371334,39.65545490379227,12.5,0,-13.05653151736179,0.4766296389391727,-1.946816699886604,-4.216220456670905e-05,1.197044005849478e-05,-1.557453359909283e-05,3.696739869679266e-06,3.739533551417795e-06
114.1012392978672,481.3092585092606,12.5,0,0.4038864671615266,1.090680595433685,-0.9617273798542746,4.198922185699371e-07,3.167068731658571e-06,-7.693819038834197e-06,5.997308122889249e-06,6.139037406227233e-06
127.9126801684924,485.6467449921489,12.5,0,0.3433147320143456,0.9444629988285221,-0.9146713306490037,3.430367433830884e-07,2.747629810639794e-06,-7.31737064519203e-06,5.255495727465571e-06,5.557933629755781e-06
107.7326251324683,494.7653909022364,12.5,0,0.4610353549072137,1.050451448167561,-0.9950789225611893,6.349519771690352e-07,2.992616350210423e-06,-7.960631380489515e-06,6.070405388831792e-06,5.8007540330397e-06
122.6051757014173,498.6763703549506,12.5,0,0.4065231387761118,0.9101462783956035,-0.9521900685381696,5.72757021367075e-07,2.587249579845042e-06,-7.617520548305356e-06,5.373984955727505e-06,5.237761811635707e-06
138.0233566110935,488.8220054746314,12.5,0,0.2560726515864825,0.9880825700517157,-0.7144352016070291,2.89664290353714e-08,2.957006102896304e-06,-5.715481612856233e-06,4.944660153204332e-06,5.090259748851653e-06
151.8347974817187,493.1594919575197,12.5,0,0.1863580354720898,0.8214981284265674,-0.65994789971568,-6.085278923056647e-08,2.479707582587344e-06,-5.27958319772544e-06,4.090243095370317e-06,4.393654721265792e-06
133.4926383555625,501.5394060215736,12.5,0,0.3228391943826804,0.9610618343653415,-0.7530370158848126,2.64235954532304e-07,2.817126514462948e-06,-6.024296127078501e-06,5.092269284076928e-06,4.782985126098375e-06
148.3651889245115,505.4503854742878,12.5,0,0.2607972153264822,0.8028420760052462,-0.70382072094966,1.92277428240546e-07,2.360456870955602e-06,-5.63056576759728e-06,4.296715556496215e-06,4.103504336463774e-06
130.175922397875,510.8491893617437,12.5,0,0.279879311348821,0.8216351400373647,-0.6708896221913545,2.383056842863354e-07,2.40532899904051e-06,-5.367116977530836e-06,4.390514045366392e-06,4.543752689661479e-06
145.825259178368,514.4479439985985,12.5,0,0.2182484900818535,0.6623883163407531,-0.6197060644028772,1.684845151893286e-07,1.945043820224927e-06,-4.957648515223018e-06,3.593816236651315e-06,3.87937582030081e-06
125.645204142344,523.5665899086858,12.5,0,0.3441043125138215,0.8000959416794304,-0.7031809986619294,4.610570467006842e-07,2.28502356336312e-06,-5.625447989295435e-06,4.548377381481284e-06,4.197432141222879e-06
142.3556506211608,526.7388375153664,12.5,0,0.2888808848996526,0.6483134327721864,-0.6562981107529708,4.057680854611389e-07,1.843498276951275e-06,-5.250384886023767e-06,3.802856921435014e-06,3.557195711494555e-06
103.0704759897917,504.6159634868493,12.5,0,0.4188774571422258,0.9184955657463993,-0.9178982231488222,6.056114102580031e-07,2.604083844674697e-06,-7.343185785190577e-06,5.405656070749079e-06,5.542996886272841e-06
118.7198127702848,508.214718123704,12.5,0,0.3636893547265935,0.771419165308633,-0.8736002159097971,5.466706028781926e-07,2.17758984520635e-06,-6.988801727278376e-06,4.68629533350773e-06,4.989518610786214e-06
96.70186182439284,518.072095879825,12.5,0,0.4725659031360273,0.8825601399485732,-0.9477480932397968,8.061627780764289e-07,2.446139725326612e-06,-7.581984745918375e-06,5.483509800976712e-06,5.177074638449387e-06
113.4123083032097,521.2443434865056,12.5,0,0.4224998190069687,0.7411257997173057,-0.9069689128492825,7.590987810484551e-07,2.033602703889803e-06,-7.25575130279426e-06,4.805437999788811e-06,4.631477391523111e-06
172.2394050207224,401.2032527763213,12.5,0,0.2730021111845059,1.866875908945496,-0.9475823325744703,-6.198939713659776e-07,5.75560121967798e-06,-7.580658660595763e-06,8.36888502430307e-06,8.760595723353349e-06
179.6571299050086,404.5261053599123,12.5,0,0.1811956739863787,1.689999283552892,-0.8775090332506977,-7.721732700859016e-07,5.263041168180151e-06,-7.020072266005582e-06,7.387905912056871e-06,7.944782205100554e-06
169.7941557407291,409.9558190966375,12.5,0,0.3891256172898389,1.846875258719147,-1.004248464683519,-2.322982316478332e-07,5.598700334069399e-06,-8.033987717468154e-06,8.697233605412149e-06,8.197284152802204e-06
177.5584394250538,413.5993851985239,12.5,0,0.2999818771827455,1.678959293744722,-0.9367099618918383,-3.832254280109914e-07,5.132684238236912e-06,-7.493679695134707e-06,7.756086862516927e-06,7.395154303559892e-06
159.3915286448017,395.4479032755837,12.5,0,0.4525230567312923,2.02979469595691,-1.232000403056611,-1.757619752253928e-07,6.133324581677078e-06,-9.856003224452886e-06,9.732522270657288e-06,1.007980367742205e-05
166.8092535290879,398.7707558591746,12.5,0,0.3659256743391586,1.867592315730423,-1.165698714939766,-3.231116946990307e-07,5.683554870866025e-06,-9.325589719518128e-06,8.823525960279065e-06,9.332673002667197e-06
156.3460219153424,403.6449774875479,12.5,0,0.5546335227962952,1.999615041438855,-1.27567916961871,1.751352397970604e-07,5.9550613143673e-06,-1.020543335694968e-05,9.978664389226972e-06,9.498267722795819e-06
164.1103055996671,407.2885435894343,12.5,0,0.4707379948126785,1.846051139820825,-1.21200351792827,2.952067154391079e-08,5.530773251576498e-06,-9.696028143426158e-06,9.109885690822465e-06,8.760811695059988e-06
164.6665010349235,381.2501542673042,12.5,0,0.4865346888034593,2.268552451708042,-1.331600644706461,-2.57930957195364e-07,6.870140094422967e-06,-1.065280515765168e-05,1.078231911641725e-05,1.116065334489488e-05
171.4839684697436,384.0175147425432,12.5,0,0.4041620468785108,2.104872189779287,-1.267519942269149,-3.905792018121949e-07,6.412261369790908e-06,-1.014015953815319e-05,9.882071290411477e-06,1.041287025422246e-05
161.6209943054641,389.4472284792684,12.5,0,0.5961286422291252,2.234461003492769,-1.380247608895685,1.200428523389857e-07,6.673372297393559e-06,-1.104198087116548e-05,1.104048017097799e-05,1.052523856235874e-05
168.7850205403228,392.5353024728029,12.5,0,0.5163504635776502,2.080393346795983,-1.318833127478372,-1.199319398830558e-08,6.244178338885024e-06,-1.055066501982698e-05,1.018396745618315e-05,9.775340759429927e-06
176.474701010766,386.04336321319,12.5,0,0.2979642808921568,2.113258434475439,-1.032188447967673,-7.371210487254492e-07,6.524055565607678e-06,-8.257507583741381e-06,9.411320320438382e-06,9.837081470585567e-06
183.2921684455862,388.8107236884291,12.5,0,0.2098750593825931,1.931009842350841,-0.9642660551062523,-8.732076838563744e-07,6.011331448016615e-06,-7.714128440850018e-06,8.422675394128033e-06,9.011780349866841e-06
174.0294517307727,394.7959295335061,12.5,0,0.4213857396043981,2.088763501520554,-1.096960480263446,-3.225764344823691e-07,6.346934613182253e-06,-8.775683842107571e-06,9.750166650270365e-06,9.199978090390447e-06
181.1934779656314,397.8840035270406,12.5,0,0.3358816859999164,1.916668492614222,-1.031553299620561,-4.585133988916449e-07,5.864633827565575e-06,-8.252426396964491e-06,8.806070421462285e-06,8.377955848658136e-06
9.194883971050507,507.6690475329615,12.5,0,0.8270588372982273,0.2927171597125652,-1.343730822242459,2.412414551584275e-06,2.750478412416269e-07,-1.074984657793967e-05,5.247425057729933e-06,5.835720298583451e-06
34.31577415072918,514.1644894850858,12.5,0,0.8994288068674021,0.5632955315276019,-1.377154754176164,2.427535756753605e-06,1.083002655394404e-06,-1.101723803340931e-05,6.315592654085078e-06,6.05954588127479e-06
8.879979425000423,527.7309185459947,12.5,0,0.8125986150550967,0.2922104963038836,-1.264609306712797,2.366547171133202e-06,2.849946961283501e-07,-1.011687445370238e-05,5.092415226177646e-06,5.164391582851377e-06
33.14053438529927,532.9528462728149,12.5,0,0.8869088742674918,0.5731044173202138,-1.294788773972245,2.379624863799803e-06,1.124407036010691e-06,-1.035831019177796e-05,6.204340693128487e-06,5.677097227254298e-06
52.70554209283019,518.9194830114529,12.5,0,0.6074002927945867,0.6426733499622883,-1.138348679435365,1.429542256972847e-06,1.570634485643653e-06,-9.106789435482917e-06,5.338804864976015e-06,5.930292848909309e-06
77.82643227250887,525.4149249635773,12.5,0,0.5834360153919289,0.6429902932035193,-1.101806125801453,1.352603014691357e-06,1.590820125937719e-06,-8.814449006411622e-06,5.219766568752916e-06,5.353341414748117e-06
50.90049323530011,536.7755626821373,12.5,0,0.6766286569596303,0.6604247474180129,-1.13397075802143,1.636871904336406e-06,1.572056266169937e-06,-9.071766064171442e-06,5.609431036351147e-06,5.654540887175543e-06
75.16104819559897,541.9974904089574,12.5,0,0.65603913362189,0.661881224364927,-1.095599920397237,1.569820248098106e-06,1.593188611070254e-06,-8.764799363177899e-06,5.503148762105502e-06,5.080210175642036e-06
49.57910576150012,549.8471202245203,12.5,0,0.6644800952694712,0.5044406467233361,-1.044742631556926,1.722783787483638e-06,1.082625993299099e-06,-8.357941052455411e-06,4.971697414107551e-06,5.517394537070376e-06
73.2098516296988,554.1367708342957,12.5,0,0.6263492462975172,0.4654062590071654,-0.9800818657802208,1.631992580946323e-06,9.882206317849155e-07,-7.840654926241766e-06,4.649284900926905e-06,4.89096945328948e-06
47.77405690397005,567.7031998952046,12.5,0,0.7871946335657543,0.5329135929469163,-1.048796166915294,2.09269195305288e-06,1.075567790577529e-06,-8.39036933532235e-06,5.465055741333594e-06,5.41845570222827e-06
70.5444675527889,570.719336279676,12.5,0,0.7557195570883448,0.4940410226834369,-0.9814516331899517,2.023069764535953e-06,9.763556269163222e-07,-7.851613065519613e-06,5.162414015825365e-06,4.647085424045362e-06
8.649453297767149,542.4172274218039,12.5,0,0.8181056404500491,0.2681977458941093,-1.196516820937148,2.403379852724869e-06,2.037482745011105e-07,-9.572134567497186e-06,4.949607091846396e-06,4.989804419307992e-06
32.28019916596583,546.7068780315793,12.5,0,0.852326516653193,0.464679110129228,-1.177331235432866,2.355701565186835e-06,8.051119390909751e-07,-9.418649883462929e-06,5.616972759514983e-06,5.54387728639817e-06
8.334548751717064,562.4790984348371,12.5,0,0.8916685679508841,0.2890449631180771,-1.133488771095573,2.622103446948367e-06,2.116090276171394e-07,-9.067910168764585e-06,5.165278625148139e-06,5.184152133869926e-06
31.10495940053592,565.4952348193084,12.5,0,0.9317932766062739,0.4948467590623062,-1.109659766437752,2.585861077890231e-06,8.380750077143606e-07,-8.877278131502016e-06,5.893839654045517e-06,5.562362293402922e-06
191.9691291155504,321.8792406633248,12.5,0,0.6305719334631728,3.879863343567374,-1.818888541703208,-1.086060487771746e-06,1.191110515264506e-05,-1.455110833362566e-05,1.748763189824347e-05,1.804494823695596e-05
195.4099365845508,321.1901073738662,12.5,0,0.626880834006694,3.919995286014221,-1.843008989772427,-1.129977559989956e-06,1.204248024804015e-05,-1.474407191817941e-05,1.764011905902362e-05,1.768114867400952e-05
191.9896786800621,326.308028347806,12.5,0,0.5437210270308603,3.857924421340342,-1.799237894019212,-1.34643225057352e-06,1.19103813266644e-05,-1.43939031521537e-05,1.712378190969691e-05,1.704301906861465e-05
195.7227787057433,325.5642957127081,12.5,0,0.5403898010732751,3.894934851364877,-1.821487517630739,-1.386700517657421e-06,1.203147968350899e-05,-1.457190014104591e-05,1.726484913237444e-05,1.664892369103782e-05
197.9287824708145,320.6856267928169,12.5,0,0.4773203857418953,3.848964345188348,-1.57171929731989,-1.551746241776613e-06,1.19348295960092e-05,-1.257375437855912e-05,1.674397062375393e-05,1.738669571535911e-05
201.3695899398149,319.9964935033583,12.5,0,0.4769174398565387,3.902909759924746,-1.595128926037551,-1.596192000398873e-06,1.210777727987395e-05,-1.276103140830041e-05,1.695747770186588e-05,1.694603483479946e-05
198.4555975941625,325.0198456365925,12.5,0,0.3893143970253672,3.819328126442106,-1.542675758481188,-1.80965643067251e-06,1.191039848699445e-05,-1.234140606784951e-05,1.634467681277777e-05,1.633002872756169e-05
202.1886976198438,324.2761130014947,12.5,0,0.3890148951304739,3.869083662035511,-1.564280421411888,-1.850419265210892e-06,1.206985580240925e-05,-1.25142433712951e-05,1.654196575208376e-05,1.585288686260688e-05
198.8412530306325,328.1927140412239,12.5,0,0.3636045604914729,3.500526425955963,-1.341281761565015,-1.636886547192057e-06,1.09108009146659e-05,-1.073025409252012e-05,1.495970867925129e-05,1.557156219765462e-05
202.7883260584693,327.4090119110597,12.5,0,0.3605907515688991,3.534112363970424,-1.361541417840872,-1.673399486155862e-06,1.102068696345024e-05,-1.089233134272697e-05,1.508732417320293e-05,1.507481160163103e-05
199.3680681539805,332.5269328849996,12.5,0,0.2997410927210318,3.48028957658043,-1.324367440092,-1.825060164557042e-06,1.089713377088055e-05,-1.0594939520736e-05,1.467809865948349e-05,1.455606008981737e-05
203.6074337384981,331.688631409196,12.5,0,0.2969806582954289,3.511579107399636,-1.343245251717271,-1.858925179374336e-06,1.099946861704249e-05,-1.074596201373817e-05,1.479725768393287e-05,1.404221842863481e-05
192.0047220053574,329.5501259486438,12.5,0,0.5187950366965697,3.555402461565078,-1.59680432252508,-1.184177851823039e-06,1.096225184765099e-05,-1.277443458020064e-05,1.579668266850984e-05,1.632354188691592e-05
195.9517950331941,328.7664238184796,12.5,0,0.5123575552923165,3.584479908305499,-1.621980648992187,-1.228039749708986e-06,1.106044966234374e-05,-1.29758451919375e-05,1.590034490249926e-05,1.590615846915058e-05
192.025271569869,333.978913633125,12.5,0,0.4417692189372561,3.535997142419744,-1.583837196015955,-1.415136213336576e-06,1.096177548059337e-05,-1.267069756812764e-05,1.547791496440634e-05,1.535982283988628e-05
196.2646371543866,333.1406121573216,12.5,0,0.4358307916225027,3.56308532184253,-1.607288375875791,-1.455809724282015e-06,1.105320839659809e-05,-1.285830700700633e-05,1.557493445458685e-05,1.49091111277449e-05
442.5935404495063,101.818194671457,12.5,0,-1.662183365992304,-0.2572427234605351,-3.67436778645766,-5.113192592406944e-06,5.065699777201307e-07,-2.939494229166128e-05,4.223166694170406e-06,4.182103600516242e-06
457.0985690704786,101.1720827192145,12.5,0,-1.656152169184166,-0.4563433017127819,-3.176807581976483,-4.934612300019105e-06,-1.353768301335691e-07,-2.541446065581186e-05,3.250554496170827e-06,4.08297578815739e-06
446.9307917813403,114.8924905824655,12.5,0,-0.4252934591265163,0.1127686024907974,-3.899520070012606,-1.45115395119749e-06,7.010942952717647e-07,-3.119616056010085e-05,6.596743829339239e-06,5.90785665342816e-06
460.2993011938786,113.6249063655,12.5,0,-0.3481232354052695,-0.07938104547092682,-3.379341273227203,-1.050489516920121e-06,2.447924281724981e-08,-2.703473018581763e-05,5.454429957449895e-06,5.491866013751811e-06
467.7169869858196,100.6990959428155,12.5,0,-1.549949722272762,-0.1057154607049336,-3.621798132917394,-4.875266742708891e-06,9.01670303562422e-07,-2.897438506333915e-05,4.410268214747138e-06,4.0573446010306e-06
482.2220156067919,100.052983990573,12.5,0,-1.534481729088043,-0.2339062975535267,-3.197465512330957,-4.723216495038917e-06,4.790852310991491e-07,-2.557972409864765e-05,3.594363305244546e-06,4.08644670789778e-06
470.0857293049033,112.6969703158483,12.5,0,-0.589046307506806,0.1563948153572138,-3.736846371964328,-2.01006403630755e-06,9.717004551485289e-07,-2.989477097571462e-05,6.123066677981527e-06,5.318427877158201e-06
483.4542387174417,111.4293860988828,12.5,0,-0.5113853321752821,0.03468623678082156,-3.286220601414166,-1.66418205238556e-06,5.201042234388546e-07,-2.628976481131333e-05,5.225136495370524e-06,5.260576715670595e-06
471.8197690324375,121.4800239393635,12.5,0,0.02445288353474046,-0.1686894415721051,-3.588291841440615,2.132007805688536e-07,-5.593685198585288e-07,-2.870633473152492e-05,6.29936629496836e-06,6.515244170530989e-06
484.3562886406596,119.7574904491452,12.5,0,0.1312767131299029,-0.1929714276777252,-3.262438276702349,5.744626241578693e-07,-7.22529939072643e-07,-2.609950621361879e-05,5.853759355150277e-06,6.314210105220754e-06
474.1885113515212,133.4778983123963,12.5,0,0.8800565293232967,0.05500897036605987,-3.671294205473147,2.772173717541701e-06,-5.280165182872457e-07,-2.937035364378518e-05,8.641274406716373e-06,8.523923815363117e-06
485.5885117513093,131.1338925574551,12.5,0,1.059595130316379,0.04494813237498363,-3.321647982975522,3.354745911112426e-06,-7.038420806531557e-07,-2.657318386380418e-05,8.446575229462646e-06,8.018660050372366e-06
450.1058801213036,124.4635394621068,12.5,0,0.4158222308073081,-0.2098849054047359,-3.491264889479591,1.498539062907175e-06,-1.004289481941001e-06,-2.793011911583673e-05,6.781459679631292e-06,7.481742507048481e-06
462.6423997295256,122.7410059718886,12.5,0,0.490489758396792,-0.370585040312109,-3.166795436405481,1.866035259119421e-06,-1.578263935716182e-06,-2.533436349124384e-05,6.054904732015911e-06,6.828083534728161e-06
454.4431314531376,137.5378353731153,12.5,0,1.376508466345687,0.0932833845940485,-3.684645818401064,4.330200384630961e-06,-8.026999423755947e-07,-2.947716654720851e-05,9.983427578879125e-06,1.0055925571724e-05
465.8431318529256,135.1938296181741,12.5,0,1.519913039311991,-0.06072075498547153,-3.346383673236321,4.912298329786747e-06,-1.410236847403101e-06,-2.677106938589057e-05,9.447220611033571e-06,9.069807466560069e-06
215.1708985654012,398.3457308400651,12.5,0,0.006613064976630112,1.243072635209674,-0.2286887493727222,-9.732963002425227e-07,3.972541980689652e-06,-1.829509994981778e-06,4.831002414324861e-06,5.21253877609343e-06
223.1852596530928,400.6848572454412,12.5,0,-0.08437265234798358,0.9883572131533137,-0.1641834010677739,-1.060678258036198e-06,3.23024120396899e-06,-1.313467208542192e-06,3.570938918609008e-06,4.20070306481565e-06
214.4034852856355,408.1934069574406,12.5,0,0.1189709401189512,1.249776830940874,-0.3350075290935318,-6.191144563720555e-07,3.904109106915636e-06,-2.680060232748254e-06,5.238111886540343e-06,4.677445908769511e-06
222.6655527651082,410.5219714725521,12.5,0,0.03157156478857401,1.002623056084666,-0.2732594014934517,-7.010694375442957e-07,3.183136527640071e-06,-2.186075211947614e-06,4.007947547819241e-06,3.73188153827115e-06
229.0521791592366,402.3972166194297,12.5,0,-0.01126229074366711,0.8399850820644281,-0.04200212856730611,-7.080273960312772e-07,2.696962095201103e-06,-3.360170285384489e-07,3.195692766534296e-06,3.494939254119811e-06
237.0665402469282,404.7363430248058,12.5,0,-0.103900070032736,0.5715890759709753,0.02162902737649289,-7.897514848815354e-07,1.912205099133309e-06,1.730322190119431e-07,1.896529189353664e-06,2.578592376351158e-06
228.7138059353876,412.2265990062431,12.5,0,0.09623229370894615,0.8568954752472054,-0.1563489176773197,-3.775730403291367e-07,2.6650796858239e-06,-1.250791341418558e-06,3.612441451509193e-06,3.071213059388557e-06
236.9758734148603,414.5551635213545,12.5,0,0.007241248516660692,0.5966603120306218,-0.09555338765102273,-4.541562543711831e-07,1.903519999684661e-06,-7.644271012081818e-07,2.327199546956593e-06,2.211797578543693e-06
228.4660995436198,419.4222063201073,12.5,0,-0.00462889491770449,0.6697152758665126,-0.04056678236891172,-5.505846844298643e-07,2.146791998707003e-06,-3.245342589512938e-07,2.561653295304565e-06,2.789825338075703e-06
236.9095006872282,421.7430389949212,12.5,0,-0.08577053480190319,0.4279384250973149,0.01390535797543408,-6.168164514439421e-07,1.43801938815293e-06,1.112428638034726e-07,1.397953273263294e-06,1.963387189921968e-06
228.1277263197708,429.2515887069206,12.5,0,0.08323532114547849,0.6831236555998534,-0.1388395973668244,-2.801458968143516e-07,2.119407441003148e-06,-1.110716778934595e-06,2.904486753828784e-06,2.444785981521525e-06
236.8188338551604,431.5618594914699,12.5,0,0.005081798540399252,0.4483222237452871,-0.08667842151409809,-3.42396023666952e-07,1.430565677152599e-06,-6.934273721127847e-07,1.751747404492219e-06,1.651512184858099e-06
213.8416997744677,415.4024062115355,12.5,0,0.01192015734727392,1.035511951911486,-0.2060473533312021,-7.902650580179122e-07,3.304102120238936e-06,-1.648378826649617e-06,4.048478582015848e-06,4.327316035154844e-06
222.2851009180761,417.7232388863496,12.5,0,-0.06782080308110489,0.804704147519157,-0.1507904153897384,-8.607898878748611e-07,2.629309914526186e-06,-1.206323323117908e-06,2.915045204923334e-06,3.423238163100775e-06
213.074286494702,425.250082328911,12.5,0,0.1032055417168119,1.039846355257765,-0.2981276279094103,-5.016193507124137e-07,3.244943903451397e-06,-2.385021023275282e-06,4.379409031442593e-06,3.905836298475153e-06
221.7653940300915,427.5603531134603,12.5,0,0.02639998102665936,0.8155443175917046,-0.2451255703812248,-5.679555147880537e-07,2.588621831472127e-06,-1.961004563049798e-06,3.272451245036424e-06,3.048830307224421e-06
129.2048244875506,391.4813315033621,12.5,0,0.9371864239354406,2.020614088687099,-1.73817918424628,1.382505285643731e-06,5.716215944650363e-06,-1.390543347397024e-05,1.166986117712835e-05,1.176505477327894e-05
136.1019128546114,397.0175236957431,12.5,0,0.7864413501349955,1.848606766449858,-1.641360771804248,1.037726907272099e-06,5.286388572531549e-06,-1.313088617443398e-05,1.049736184233266e-05,1.102706608329299e-05
122.9018878696328,399.3351258714209,12.5,0,1.0591945562057,1.936181170712983,-1.749522914194811,1.840477643287853e-06,5.348424101316986e-06,-1.399618331355849e-05,1.178003950072337e-05,1.126712748202323e-05
130.2722062966633,405.3029669867864,12.5,0,0.9181181189290223,1.776039694750714,-1.659164090720252,1.5171462247723e-06,4.948832528059066e-06,-1.327331272576201e-05,1.068325396405724e-05,1.052378763820002e-05
141.1509319633775,401.0702976608599,12.5,0,0.6562997484759802,1.954267506593494,-1.449915164624259,5.367451898483414e-07,5.728616222318395e-06,-1.159932131699407e-05,1.02823735165053e-05,1.046450340347251e-05
148.0480203304383,406.606489853241,12.5,0,0.5093520181322639,1.778850234457214,-1.354014235543639,2.06846270457473e-07,5.284839135757275e-06,-1.083211388434911e-05,9.112967833348741e-06,9.665542269681474e-06
135.6676538529814,409.6717298945467,12.5,0,0.7888030776625596,1.884114748173834,-1.476459366592209,1.016878049981124e-06,5.398124732026219e-06,-1.181167493273767e-05,1.047948503035425e-05,9.961569661698045e-06
143.0379722800119,415.6395710099123,12.5,0,0.6511697377538576,1.72066187315805,-1.386859096051074,7.072136622859045e-07,4.985182203902672e-06,-1.10948727684086e-05,9.383390789705435e-06,9.168901428723992e-06
131.6536156843119,415.9684153071985,12.5,0,0.6387641440880238,1.747825231723727,-1.377911975196638,6.457850757026943e-07,5.082029426245508e-06,-1.10232958015731e-05,9.431801237618859e-06,9.604221269377088e-06
139.3703625588944,422.2522453652075,12.5,0,0.4976574823686422,1.58087989606236,-1.286212296264351,3.278000267297667e-07,4.660689681504639e-06,-1.028969837011481e-05,8.315446298712199e-06,8.818522838592104e-06
126.1703375739159,424.5698475408853,12.5,0,0.7520934170378126,1.687900979446846,-1.40057167914642,1.056378150963523e-06,4.799608400599658e-06,-1.120457343317136e-05,9.602886717555587e-06,9.130861047286137e-06
134.3603145084681,431.2853265218787,12.5,0,0.6190504739252254,1.5311398851547,-1.31428153420893,7.56049608436961e-07,4.40440725335486e-06,-1.051425227367144e-05,8.549336318142995e-06,8.357911569384221e-06
118.2878180286268,405.0845023807938,12.5,0,0.9167139639521218,1.814026046591457,-1.653381993099412,1.482263847373624e-06,5.071512177930966e-06,-1.322705594479529e-05,1.08051097213743e-05,1.090593110472497e-05
126.0045649032093,411.3683324388029,12.5,0,0.7730700963546788,1.646473066984218,-1.560519309411324,1.156645854747598e-06,4.650257737265754e-06,-1.248415447529059e-05,9.675531257529153e-06,1.016354062854403e-05
111.9848814107091,412.9382967488528,12.5,0,1.01759890520406,1.737853725343042,-1.665420175959071,1.866033516378558e-06,4.747052796934485e-06,-1.332336140767257e-05,1.087900538920313e-05,1.041705154165005e-05
120.1748583452613,419.6537757298463,12.5,0,0.8822595591330518,1.58063467124786,-1.578103727845322,1.558722852227478e-06,4.35222330068671e-06,-1.262482982276257e-05,9.81538555808698e-06,9.682605939940237e-06
462.424067571303,27.9562364490337,12.5,0,-7.551168566156812,-0.264063330644273,-2.054536161532385,-2.395248874718638e-05,5.195932194863775e-06,-1.643628929225908e-05,2.128956094337206e-06,2.198960697884161e-06
477.5410666315056,28.95661660196938,12.5,0,-7.539471959265824,-0.002749968085870247,-1.737198700458262,-2.412411029518194e-05,6.022777669537874e-06,-1.389758960366609e-05,2.152683156492838e-06,2.05226085787279e-06
458.0495313739136,41.28093661882554,12.5,0,-6.703505639824853,0.02891167074502521,-1.854076973868414,-2.147434738403555e-05,5.455321858243963e-06,-1.483261579094731e-05,2.05797256774936e-06,2.18247306842695e-06
472.3664426557696,42.75812507240568,12.5,0,-6.724395655235775,0.2897112883662747,-1.531302592976971,-2.17498351274475e-05,6.306592646960699e-06,-1.225042074381576e-05,2.096312234531356e-06,2.096166978049023e-06
470.0009865245945,4.877178759747287,12.5,0,-9.043958790028618,-0.2146437080469141,-0.9137828852635239,-2.876895316165405e-05,6.54830716627277e-06,-7.310263082108191e-06,2.150957532555597e-06,2.28727748372671e-06
486.5037782673837,5.051702710511025,12.5,0,-8.998174267106435,0.005015660100314179,-0.5693225116584527,-2.879817018282084e-05,7.214589526006153e-06,-4.554580093267622e-06,2.21768736345009e-06,2.058452523993474e-06
465.6264503272051,18.20187892953913,12.5,0,-8.226386663659111,0.04925788428305955,-0.7425778806615366,-2.63638436311356e-05,6.73873456063308e-06,-5.940623045292293e-06,2.081199789963754e-06,2.227042956326074e-06
481.3291542916475,18.85321118094733,12.5,0,-8.208566692703396,0.2678731428181234,-0.3909262870131714,-2.648171193090536e-05,7.42404741118071e-06,-3.127410296105372e-06,2.168446011678542e-06,2.04215530036594e-06
498.5846602893199,5.179463109602301,12.5,0,-7.370079095687716,-0.2090858137800162,-0.8939360556219569,-2.341698445517667e-05,5.22698867245412e-06,-7.151488444975655e-06,1.760731051174705e-06,1.894438039371527e-06
515.087452032109,5.353987060366041,12.5,0,-7.316884433617201,0.02817256142857993,-0.6634058526947778,-2.34365682367179e-05,5.943659743465216e-06,-5.307246821558223e-06,1.842411671973929e-06,1.675167093921328e-06
492.8243314093439,19.33001948156608,12.5,0,-6.779566586669381,0.02245323409008182,-0.7247557448502879,-2.171257566461408e-05,5.495503618423766e-06,-5.798045958802303e-06,1.722697398710102e-06,1.913658960846346e-06
508.5270353737864,19.98135173297428,12.5,0,-6.744634929199009,0.2604821739946344,-0.4915670961572844,-2.179121751263253e-05,6.229250900142036e-06,-3.932536769258275e-06,1.823955157425054e-06,1.747488088637404e-06
488.6074780010745,29.68894570077068,12.5,0,-6.234619992622012,-0.2417997109340051,-2.093757640564471,-1.975734420764323e-05,4.213936919108792e-06,-1.675006112451577e-05,1.930467685804194e-06,1.953698848018558e-06
503.7244770612772,30.68932585370636,12.5,0,-6.206130705921394,0.02562723398156708,-1.868735874380077,-1.988012004613371e-05,5.046911713478129e-06,-1.494988699504062e-05,1.974204497838742e-06,1.831122269400614e-06
482.8471491210986,43.83950207273447,12.5,0,-5.581720237868785,0.02840619996005933,-1.893323732219434,-1.788422972114816e-05,4.556276030167217e-06,-1.514658985775547e-05,1.885971840978965e-06,2.043868932632199e-06
497.1640604029545,45.31669052631462,12.5,0,-5.575979012661255,0.2964233790519852,-1.666821191269248,-1.80802715437576e-05,5.409338023095356e-06,-1.333456953015399e-05,1.946563079212098e-06,1.987294105788745e-06
125.1442610669231,358.2141076514636,12.5,0,1.729109982887975,2.287228179854063,-2.417404119195444,3.703369401358271e-06,5.93584218922262e-06,-1.933923295356355e-05,1.580942463757682e-05,1.562478124657913e-05
130.5166299255045,355.5412674464206,12.5,0,1.668455487973533,2.447120408422306,-2.463470824768027,3.381361234777461e-06,6.496020916572551e-06,-1.970776659814422e-05,1.620048848718191e-05,1.592781550474124e-05
129.3477116982702,363.0406613609217,12.5,0,1.560356288132119,2.144697792203891,-2.324943492656586,3.277381888259667e-06,5.614747904546756e-06,-1.859954794125269e-05,1.46786029062219e-05,1.48939042397638e-05
134.3884623280516,359.1581096290456,12.5,0,1.468588269988192,2.256196604749112,-2.34565647269958,2.894525180162925e-06,6.044958519206605e-06,-1.876525178159664e-05,1.477905909305059e-05,1.532158144671744e-05
137.222840364987,361.8058218695728,12.5,0,1.318871586836257,2.443795094341428,-2.204531151426672,2.265353002402882e-06,6.765047032423563e-06,-1.763624921141338e-05,1.48065499818176e-05,1.487972247233674e-05
141.0946727675341,365.4226640521977,12.5,0,1.163569339200468,2.294499037861372,-2.112734772723169,1.887822655152401e-06,6.411541449796015e-06,-1.690187818178535e-05,1.370017092736062e-05,1.427877536252089e-05
132.4248511273929,366.5739439015547,12.5,0,1.436582508394196,2.348689035352288,-2.197085099168986,2.718112798579596e-06,6.366538906411962e-06,-1.757668079335189e-05,1.485342004989776e-05,1.437449364368532e-05
136.62830175874,371.4004976110128,12.5,0,1.297063057864969,2.230109558032322,-2.120366377222821,2.366514138742042e-06,6.098700139411455e-06,-1.696293101778257e-05,1.391626752738908e-05,1.368631451196425e-05
124.1144899938605,374.8325735174878,12.5,0,1.447548096977997,2.161204871682641,-2.110091089980898,2.903190012983476e-06,5.757817111802055e-06,-1.688072871984718e-05,1.416147880474239e-05,1.354243067720771e-05
128.9124792314547,370.0644514855058,12.5,0,1.326271138995561,2.234240334027083,-2.125170506811166,2.456675377564127e-06,6.088552157690216e-06,-1.700136405448933e-05,1.40301823478132e-05,1.401616738714688e-05
128.8923202461949,381.754409053885,12.5,0,1.248539327680313,2.027341679340452,-2.015642357027251,2.37345250510464e-06,5.488661911745194e-06,-1.612513885621801e-05,1.295995206469174e-05,1.272496364950171e-05
133.3586912549891,375.7765754950698,12.5,0,1.107159560905517,2.076512940417078,-2.01632236402447,1.881700242563991e-06,5.759113760610236e-06,-1.613057891219576e-05,1.267240334055794e-05,1.32699719182837e-05
115.8390452470265,362.8436026870278,12.5,0,1.797903566705083,2.12420219009969,-2.375694044190809,4.053929661376514e-06,5.35912415495494e-06,-1.900555235352648e-05,1.544316047623529e-05,1.497855098183831e-05
121.2114141056079,360.1707624819847,12.5,0,1.746126282795984,2.261925622501144,-2.415021019414215,3.778063606946234e-06,5.841260965766873e-06,-1.932016815531372e-05,1.577710573455307e-05,1.537042658427169e-05
120.6168754993608,369.7654382234248,12.5,0,1.579739328978561,1.962921004019677,-2.264735498113353,3.484829049515652e-06,5.017555749680118e-06,-1.811788398490682e-05,1.406689509690025e-05,1.414627758296151e-05
125.6576261291422,365.8828864915487,12.5,0,1.496895254622844,2.064362447264986,-2.2832942656412,3.138574856981112e-06,5.40844362754968e-06,-1.82663541251296e-05,1.415664030329961e-05,1.457898251861903e-05
495.9198889963146,79.05425974512895,12.5,0,-2.51289653196118,-0.2462420621254163,-3.402136367728964,-7.84427525257544e-06,1.222342626767611e-06,-2.721709094183171e-05,3.297354872018309e-06,2.936987457105965e-06
506.0113724139073,81.37919932993734,12.5,0,-2.582511040684675,-0.1008173123514163,-3.233153900358143,-8.183381480309824e-06,1.743393433023207e-06,-2.586523120286515e-05,3.171620116455619e-06,3.134650252477431e-06
492.0027917591176,91.44264486183349,12.5,0,-1.878409634524785,-0.02285260073486656,-3.247017172568168,-5.992628749891418e-06,1.429599385268255e-06,-2.597613738054535e-05,3.654924520707181e-06,3.532441383768028e-06
501.3799373043467,92.54842775255858,12.5,0,-1.895192628030193,0.1622492266805829,-3.042049506027183,-6.194415791041085e-06,2.03535162780202e-06,-2.433639604821746e-05,3.544413101016362e-06,3.728216391250823e-06
502.7045004292058,57.59694729965216,12.5,0,-3.544556228497236,-0.104061472072529,-2.856635962126874,-1.125933075353313e-05,2.502648272165696e-06,-2.285308769701499e-05,2.46183809000689e-06,2.212437660907774e-06
514.0332533354807,62.03352822096256,12.5,0,-3.622752316566123,-0.03663786685673265,-2.773174477451945,-1.156349711952621e-05,2.780960679311354e-06,-2.218539581961556e-05,2.417459601672235e-06,2.349384136422208e-06
498.7874031920087,69.9853324163567,12.5,0,-3.247400126151528,0.000922202194717503,-2.783541703614816,-1.039241816544066e-05,2.600871147944318e-06,-2.226833362891853e-05,2.512333128663708e-06,2.583293525570492e-06
509.40181822592,73.20275664358381,12.5,0,-3.309883176087837,0.08360114678040453,-2.685730496207786,-1.06585070809054e-05,2.915430210567564e-06,-2.148584396966229e-05,2.46350025206847e-06,2.765193263309618e-06
522.3264760489149,65.28133086711443,12.5,0,-2.637429829798703,-0.1805638645723451,-2.962617979734107,-8.295324363697971e-06,1.532139497207458e-06,-2.370094383787285e-05,2.725732431550392e-06,2.457133082276713e-06
533.6552289551897,69.71791178842483,12.5,0,-2.642120090007064,0.006758467205131846,-2.939522299363543,-8.460191061786709e-06,2.135323167062073e-06,-2.351617839490834e-05,2.862056743193668e-06,2.614562201311291e-06
517.1721093230356,75.55807464731696,12.5,0,-2.483698587437781,-0.05433386667193096,-2.868087379419727,-7.904368386463354e-06,1.813090496600046e-06,-2.294469903535781e-05,2.770013168524723e-06,2.919759861910884e-06
527.7865243569469,78.77549887454408,12.5,0,-2.474720722986956,0.1668569153542879,-2.833509627812273,-8.052591845841687e-06,2.513718707523285e-06,-2.266807702249818e-05,2.94284620431774e-06,3.160143924721473e-06
513.3988509990099,83.08117323047281,12.5,0,-1.953271953163543,-0.2709458991369624,-3.388675893683716,-6.033713530813768e-06,6.955906852925547e-07,-2.710940714946973e-05,3.55679092665695e-06,3.28882283756188e-06
523.4903344166026,85.4061128152812,12.5,0,-1.983053698066946,-0.1064728505414965,-3.281421353013147,-6.260593553381031e-06,1.245729836720768e-06,-2.625137082410518e-05,3.547081064937488e-06,3.512367377793271e-06
508.2444842731308,93.35791701067534,12.5,0,-1.585116139479329,-0.08853104912917598,-3.251888307588579,-5.001546807030511e-06,9.847935543700996e-07,-2.601510646070863e-05,3.804449595224442e-06,3.834494858641655e-06
517.6216298183599,94.46369990140045,12.5,0,-1.576480660751982,0.1216879307952317,-3.112726506924329,-5.142088459042526e-06,1.650585907146326e-06,-2.490181205539463e-05,3.844279802402122e-06,3.929078023833506e-06
444.7630876672058,197.6952905011258,12.5,0,7.03614537383979,-0.1335632531107176,-1.888877701506505,2.26225157987759e-05,-6.056318709026128e-06,-1.511102161205204e-05,2.704884163220175e-05,2.764719262567873e-05
453.5903982696141,197.0134575835727,12.5,0,7.092393944591821,-0.1352609297683134,-1.595879184928447,2.280386936650848e-05,-6.10675013093206e-06,-1.276703347942757e-05,2.714077575768373e-05,2.660479117372338e-05
445.1209712558915,204.9076299553048,12.5,0,7.671613850677214,0.02593867041644682,-1.905816494356355,2.452841338583393e-05,-6.05428733520914e-06,-1.524653195485084e-05,2.994049463978722e-05,3.001383396570536e-05
454.8117638786032,204.7903553973304,12.5,0,7.676477543299745,0.0126055977932662,-1.634949904869313,2.455464366032457e-05,-6.100844121701343e-06,-1.307959923895451e-05,2.98192097597541e-05,2.879739451891245e-05
444.1432151084183,185.2031521252788,12.5,0,5.901145488031489,-0.1065093878181733,-2.286896561652569,1.89688730719553e-05,-5.061746431443345e-06,-1.829517249322055e-05,2.30660035690985e-05,2.34752903168202e-05
451.4749309802656,183.5434754451152,12.5,0,6.024906208652191,-0.1543554221280454,-2.054206221015556,1.940318420538944e-05,-5.313862317731497e-06,-1.643364976812445e-05,2.325530538831456e-05,2.253213192491181e-05
444.501098697104,192.4154915794577,12.5,0,6.526487523950001,0.05364261230312661,-2.329279034132413,2.08418459867975e-05,-5.049533659789995e-06,-1.86342322730593e-05,2.590183213844371e-05,2.589519513533883e-05
452.6962965892548,191.3203732588728,12.5,0,6.585237092119931,-0.003487274799839568,-2.114506884681635,2.107554851462365e-05,-5.279348953055431e-06,-1.691605507745308e-05,2.583883339981072e-05,2.492601912134424e-05
456.8421195048888,182.3285077911498,12.5,0,5.369580952403838,-0.1362588981790838,-2.360314167261024,1.729166616623554e-05,-4.731693236096138e-06,-1.88825133380882e-05,2.105214743713452e-05,2.172394897823313e-05
464.1738353767361,180.6688311109863,12.5,0,5.450595204350043,-0.2045057991414372,-2.195025211875734,1.760550929323328e-05,-5.014894720732632e-06,-1.756020169500587e-05,2.10460903329457e-05,2.04591104979108e-05
458.6955978241355,190.5186910079393,12.5,0,5.888374791531768,0.01566603234357222,-2.443124151253978,1.88302665070268e-05,-4.660568529725982e-06,-1.954499321003183e-05,2.347491544576361e-05,2.404891507768006e-05
466.8907957162862,189.4235726873544,12.5,0,5.92416780766618,-0.05840690824323014,-2.284988858056549,1.900406251112636e-05,-4.926236352511279e-06,-1.827991086445239e-05,2.32921908547974e-05,2.262179828075812e-05
460.0524381244936,196.5143212456721,12.5,0,6.410952222677306,-0.09652265381215486,-1.887160096560836,2.05922652356171e-05,-5.43763427034074e-06,-1.509728077248669e-05,2.479480639783294e-05,2.567258390355654e-05
468.8797487269019,195.832488328119,12.5,0,6.43093162517448,-0.2053734339466886,-1.646289621006489,2.074327994771569e-05,-5.801940288768987e-06,-1.317031696805191e-05,2.444176624259952e-05,2.416814773012269e-05
461.9059164437402,204.7045044624615,12.5,0,7.018509045281967,0.07913464099423306,-1.980192856082346,2.239592123210691e-05,-5.361576385044028e-06,-1.584154284865876e-05,2.765721597731027e-05,2.778356353125845e-05
471.5967090664519,204.5872299044871,12.5,0,6.997319962212917,-0.03350801216111488,-1.750278395146524,2.241823028881023e-05,-5.705081608685901e-06,-1.400222716117219e-05,2.714232663388806e-05,2.623016520937516e-05
514.2513356813546,32.13795292363916,12.5,0,-4.776897239540126,-0.1458294341559039,-2.125695708011597,-1.516940761920368e-05,3.354863602333209e-06,-1.700556566409277e-05,1.810247616036848e-06,1.769696460770346e-06
527.8942492165207,35.09529552714778,12.5,0,-4.731245646431253,0.0747991975687079,-2.126295632945451,-1.519982542663498e-05,4.024353949364868e-06,-1.701036506356361e-05,1.94983642825113e-06,1.724454609307259e-06
506.8480486514065,47.45577252925989,12.5,0,-4.680354046396655,0.01069329305550082,-2.005030026661406,-1.498568758291369e-05,3.778501774894926e-06,-1.604024021329125e-05,1.820566363598884e-06,1.994434984437028e-06
518.9882852853463,51.8226647895309,12.5,0,-4.641774466138237,0.2274803863953003,-2.017467267812867,-1.50356626007586e-05,4.441356809375551e-06,-1.613973814250293e-05,1.974390572680511e-06,2.070519054559101e-06
527.0742049600101,5.606711106006147,12.5,0,-5.582241625781826,-0.1148758560642988,-0.8565093981018724,-1.77712725176504e-05,4.098190561219704e-06,-6.852075184814979e-06,1.396907405004544e-06,1.521412557027134e-06
543.3198312354136,6.122642088254885,12.5,0,-5.545919617990913,0.04435597658433643,-0.8145105901359904,-1.778242755883839e-05,4.578674819462607e-06,-6.516084721087923e-06,1.470258144703601e-06,1.320618295770314e-06
519.6709179300619,20.92453071162686,12.5,0,-5.434171123138761,0.0009005207688479455,-0.7682967815494804,-1.739006801065911e-05,4.350218564971322e-06,-6.146374252395843e-06,1.408622210653039e-06,1.642950483348001e-06
534.4138673042391,22.850011350638,12.5,0,-5.409406807160488,0.1573366189721859,-0.7322121761772142,-1.743597107809131e-05,4.831002626439385e-06,-5.857697409417714e-06,1.488969154112235e-06,1.523519306592571e-06
555.2124550692794,6.500329780443822,12.5,0,-3.774733055394462,0.009104855693126801,-0.8698300410104064,-1.208642966181678e-05,3.048921982533575e-06,-6.958640328083251e-06,1.084081688980513e-06,1.174311838236049e-06
571.4580813446829,7.016260762692566,12.5,0,-3.738994255799136,0.1172942263983916,-0.98056147972092,-1.205861699967595e-05,3.366536929114161e-06,-7.84449183776736e-06,1.188560880739273e-06,9.753894240168472e-07
545.2064552990937,24.25956100732441,12.5,0,-4.11661016545949,-0.007346218966764351,-0.8969530173771586,-1.316727555429695e-05,3.269780231673946e-06,-7.175624139017268e-06,1.15341857265507e-06,1.467697885190102e-06
559.9494046732709,26.18504164633557,12.5,0,-4.052838600736229,0.1065877689487711,-1.010149161012391,-1.305435373751495e-05,3.58335174122505e-06,-8.081193288099128e-06,1.253321999078923e-06,1.434622102516791e-06
537.8815550871068,37.26022056821206,12.5,0,-3.642692833236329,-0.1025640876816348,-2.303512038196763,-1.157456579621094e-05,2.585949186007831e-06,-1.84280963055741e-05,1.917707975519839e-06,1.725699095689477e-06
551.5244686222728,40.2175631717207,12.5,0,-3.604508203680593,0.06073215014882638,-2.311972733850241,-1.158301197189696e-05,3.077949443420718e-06,-1.849578187080193e-05,2.044831121237729e-06,1.774340947178258e-06
527.8755553169212,55.01945179509267,12.5,0,-3.589147076328533,0.03935332218766907,-2.208190709253148,-1.151675330200144e-05,2.997248292063368e-06,-1.766552567402518e-05,1.935817402242605e-06,2.137185464263958e-06
540.0157919508608,59.38634405536371,12.5,0,-3.553744369112219,0.198037313433458,-2.225002522034136,-1.153041183190586e-05,3.47671489827684e-06,-1.780002017627309e-05,2.074110520137619e-06,2.243237412621498e-06
323.0130088589318,72.83380637687446,12.5,0,-6.769650455283136,0.1805918217679132,-3.45806294256676,-2.180735491432036e-05,5.99361419388383e-06,-2.766450354053408e-05,3.143848773565151e-06,3.117259526160716e-06
328.3035465896018,74.07691265368081,12.5,0,-6.881981599058497,0.2837240098147786,-3.235275312117795,-2.224932032483901e-05,6.413502110654088e-06,-2.588220249694236e-05,3.059458361365697e-06,3.087627622562978e-06
321.5213612235299,78.19725255180059,12.5,0,-6.043356542886823,0.4037918755985528,-3.323603661937503,-1.966177443771667e-05,6.126819236224827e-06,-2.658882929550003e-05,3.17873110255865e-06,3.194033412279811e-06
326.353897912703,79.56515218919817,12.5,0,-6.195019395822658,0.5055435129012353,-3.089151669920232,-2.022849687695349e-05,6.573754757942078e-06,-2.471321335936185e-05,3.075886736693439e-06,3.190038655169076e-06
320.4293993674722,82.12356765534055,12.5,0,-5.260078997967643,0.3204530298774479,-3.615472827523444,-1.708861521739841e-05,5.233512893981947e-06,-2.892378262018755e-05,3.397707044091306e-06,3.306929962833749e-06
324.9266560243643,83.58282237313429,12.5,0,-5.404480420674131,0.3627481835331368,-3.434601459830326,-1.758453589298373e-05,5.484378523845342e-06,-2.747681167864261e-05,3.251247712814225e-06,3.323739327293179e-06
318.9377517320704,87.48701383026669,12.5,0,-4.556052279419452,0.5262494602442427,-3.500031095225438,-1.500036686233764e-05,5.328840096317138e-06,-2.80002487618035e-05,3.54444246487562e-06,3.538595188840392e-06
322.9770073474655,89.07106190865167,12.5,0,-4.747707845001925,0.5623277654522252,-3.308521309891403,-1.564252731636794e-05,5.597615125448659e-06,-2.646817047913122e-05,3.351783569136966e-06,3.586605323951768e-06
312.6399223431979,79.59606434298263,12.5,0,-5.861091880805535,0.5186133521342073,-3.482106597564588,-1.917038470028508e-05,6.348436231473891e-06,-2.785685278051671e-05,3.409099711992966e-06,3.322290324009569e-06
317.1371790000899,81.05531906077636,12.5,0,-6.048563086467259,0.4612005743773935,-3.2673259694681,-1.972436233619714e-05,6.314692307181466e-06,-2.61386077557448e-05,3.177916467441562e-06,3.306541703574087e-06
311.941555781574,84.74336207692137,12.5,0,-5.106134604755855,0.7054534487053927,-3.449268910601456,-1.690399349418305e-05,6.34235871966194e-06,-2.759415128481164e-05,3.589057574246351e-06,3.504567634920509e-06
315.980811396969,86.32741015530635,12.5,0,-5.35214718451492,0.6324711316110021,-3.21514973841404,-1.763284789573654e-05,6.305625368767142e-06,-2.572119790731232e-05,3.281842879609133e-06,3.516613256316235e-06
313.8495287102158,70.68068314627679,12.5,0,-7.365580141569757,0.4005243720352554,-3.307999227582649,-2.389027595065143e-05,7.174142103768622e-06,-2.646399382066119e-05,3.235259341664651e-06,3.197869383209369e-06
319.1400664408859,71.92378942308312,12.5,0,-7.531233166728629,0.3642536202272062,-3.041917855198516,-2.439134902971338e-05,7.190598118109962e-06,-2.433534284158813e-05,3.047945647471787e-06,3.146798716897182e-06
313.151162148592,75.82798088021553,12.5,0,-6.580071717848339,0.5976722831755663,-3.265771610391484,-2.153436732365514e-05,7.176608680440483e-06,-2.612617288313187e-05,3.303656074509649e-06,3.240110775146089e-06
317.983698837765,77.19588051761309,12.5,0,-6.795316467009306,0.5494000380711956,-2.979284472457756,-2.218453272488674e-05,7.19433329543527e-06,-2.383427577966205e-05,3.069586957741863e-06,3.207450196390548e-06
212.3802766360945,432.507700330992,12.5,0,0.01629596120654922,0.8700922910275003,-0.1887535219420498,-6.439267569610427e-07,2.771258562322761e-06,-1.510028175536398e-06,3.425915353745749e-06,3.623061405252809e-06
221.2953973368396,434.794546069309,12.5,0,-0.05555762151378194,0.6534846568368061,-0.1407680435185741,-7.00572114313547e-07,2.135596999088805e-06,-1.126144348148593e-06,2.372074594342393e-06,2.796210005061717e-06
211.2516197211105,442.4882053380713,12.5,0,0.08810847302817548,0.8641883839469965,-0.2698237015586079,-4.094035934674356e-07,2.694916050207848e-06,-2.158589612468863e-06,3.656696983377529e-06,3.271985766511347e-06
220.531049379416,444.7216145501741,12.5,0,0.01999553292283615,0.6557533096940166,-0.2247984568297385,-4.606169424021375e-07,2.082414164682584e-06,-1.798387654637908e-06,2.641283502871259e-06,2.480446360376818e-06
227.8217186451165,436.4686333387583,12.5,0,-0.0007312670109661246,0.5290718681014731,-0.03812348610921597,-4.255975489162701e-07,1.693614991533487e-06,-3.049878888737278e-07,2.033185217120558e-06,2.210817104011809e-06
236.7368393458615,438.7554790770754,12.5,0,-0.07398551988906174,0.3035401866459673,0.009446904117263838,-4.795858129617714e-07,1.030517013178345e-06,7.55752329381107e-08,9.564039870973114e-07,1.438345356076416e-06
227.3240633542683,446.3565835674563,12.5,0,0.0700652863736661,0.5358122732181568,-0.1238281053830099,-2.044409021787939e-07,1.658547045199169e-06,-9.906248430640788e-07,2.29803685382592e-06,1.916641599792408e-06
236.6034930125739,448.589992779559,12.5,0,0.0006845147024607118,0.3191849827472921,-0.07934135742685824,-2.531575391499593e-07,1.020844333029366e-06,-6.34730859414866e-07,1.244537837641047e-06,1.167837754395633e-06
226.9597543967275,453.5950655172676,12.5,0,0.003253910154179251,0.4078534963399826,-0.03594923841075343,-3.158702845786124e-07,1.302528060164601e-06,-2.875939072860274e-07,1.579765623452985e-06,1.717384233770416e-06
236.5058767216084,455.7893564772032,12.5,0,-0.06267973102540701,0.1967717373367777,0.004849335391961813,-3.579925291507245e-07,6.798133442980141e-07,3.879468313569451e-08,5.822910615941227e-07,9.84912328997647e-07
226.4620991058793,463.4830157459655,12.5,0,0.06083246778001195,0.4126036948955173,-0.1114644335036803,-1.354190590203756e-07,1.271665849441646e-06,-8.917154680294421e-07,1.797261021682086e-06,1.467178490212242e-06
236.3725303883207,465.6238701796868,12.5,0,-0.001917972216808006,0.2093069216601051,-0.07316991210570094,-1.735830484218697e-07,6.713165270857826e-07,-5.853592968456075e-07,8.190360699838951e-07,7.556583744737357e-07
210.4253855150634,449.7944420881383,12.5,0,0.0199242167126138,0.7259760186001016,-0.1755585414258966,-5.170233213997171e-07,2.307183886150234e-06,-1.404468331407172e-06,2.884188197701927e-06,3.033377337096075e-06
219.9715078399442,451.988733048074,12.5,0,-0.04436945416611027,0.5244644851423302,-0.1342925724532324,-5.615538414454169e-07,1.713781915788345e-06,-1.074340579625859e-06,1.912790108967891e-06,2.26626877839672e-06
209.2967286000793,459.7749470952176,12.5,0,0.0786186669117834,0.719781948481901,-0.2466451114138079,-3.242458246678139e-07,2.240407301612656e-06,-1.973160891310464e-06,3.072486806848278e-06,2.732562623533087e-06
219.2071598825207,461.915801528939,12.5,0,0.01739199124942511,0.5253934280978775,-0.2077851361449174,-3.646603704801416e-07,1.667345376913668e-06,-1.662281089159339e-06,2.13588850140447e-06,1.996888387244864e-06
421.5240796591992,163.0032666791271,12.5,0,4.632407648430241,-0.1222773538751696,-2.729942020713734,1.49215263580769e-05,-4.097213651144734e-06,-2.183953616570987e-05,1.868333562535974e-05,1.854013796373588e-05
431.8329473138278,157.7751101894963,12.5,0,4.508106679323554,-0.6011123204895188,-2.824396783780783,1.490683123022698e-05,-5.530044769025302e-06,-2.259517427024626e-05,1.699895004885819e-05,1.614047040032083e-05
428.7828232892288,169.3168576469452,12.5,0,4.728432113262901,0.2890734430499015,-2.861572337063185,1.489972400800136e-05,-2.857710672850636e-06,-2.289257869650548e-05,2.033658206205875e-05,1.999482517552417e-05
438.0287060741207,165.1738381515826,12.5,0,4.579110873299888,-0.2886249192746249,-2.962797587145597,1.488405472997934e-05,-4.586888440318709e-06,-2.370238069716478e-05,1.823431146857329e-05,1.799827340182335e-05
439.3795622051985,153.9478340093283,12.5,0,3.269467839636298,-0.1093172152442495,-2.982588565180066,1.054975085903155e-05,-2.965389360490636e-06,-2.386070852144052e-05,1.420423713478251e-05,1.461979157218807e-05
449.6884298598272,148.7196775196975,12.5,0,3.329489388903012,-0.3280708846639373,-2.939535111158631,1.091682275222079e-05,-3.713418342047008e-06,-2.351628088926905e-05,1.377153006040859e-05,1.28648873149735e-05
444.7971620332003,162.1409373843579,12.5,0,3.540196260605533,0.1065037339268716,-3.129537006101455,1.124342504679621e-05,-2.491345059918437e-06,-2.503629604881164e-05,1.588548437710126e-05,1.6674168053081e-05
454.0430448180922,157.9979178889953,12.5,0,3.59397318518326,-0.1546864707068654,-3.0724674382154,1.162446336915192e-05,-3.370175254408577e-06,-2.45797395057232e-05,1.528386834799526e-05,1.505319673929022e-05
448.7631203622054,168.1387053262885,12.5,0,4.390980102128271,-0.06633683571759508,-2.644552549714164,1.410420579538454e-05,-3.725061955998921e-06,-2.115642039771332e-05,1.790045419399434e-05,1.815452298086022e-05
457.2308442148062,164.7900612438692,12.5,0,4.417414966706279,-0.2818128028804285,-2.598456955185501,1.436117813576443e-05,-4.435732942582394e-06,-2.078765564148401e-05,1.734529222343621e-05,1.666002677210661e-05
454.1807201902072,176.3318087013181,12.5,0,4.707048287166375,0.1941569939405852,-2.820706165874287,1.490722892377993e-05,-3.144336249123227e-06,-2.25656493269943e-05,1.994540303061152e-05,2.014455137606702e-05
461.5854591730713,174.068301613167,12.5,0,4.715744496975234,-0.07999669092229222,-2.753428896411583,1.515437974305858e-05,-4.028585008531522e-06,-2.202743117129266e-05,1.912463731420791e-05,1.886165863675847e-05
434.0965924253014,173.9387270133994,12.5,0,5.344206239298859,-0.1681229256301697,-2.419373142281835,1.723595830626048e-05,-4.81335835345563e-06,-1.935498513825468e-05,2.090650643910891e-05,2.096308574056605e-05
442.5643162779023,170.5900829309801,12.5,0,5.255093374660786,-0.5342929754614942,-2.471313753363172,1.724373317928371e-05,-5.913812221205409e-06,-1.977051002690538e-05,1.957554070741923e-05,1.930752415640654e-05
441.3553360553311,180.2523179812176,12.5,0,5.454422147583064,0.2485537783477514,-2.557536118242637,1.72553078495876e-05,-3.568165627353646e-06,-2.04602889459411e-05,2.263539492880167e-05,2.215373558755001e-05
448.7600750381952,177.9888108930665,12.5,0,5.337400590183825,-0.2293327812700523,-2.609185752845006,1.726314811360428e-05,-5.003785372211227e-06,-2.087348602276004e-05,2.084207466821971e-05,2.102666073642528e-05
82.17704243408996,92.68954216190204,12.5,0,-5.417512251294393,-0.7425707599327549,1.599946768094532,-1.674198259619585e-05,1.957783369250698e-06,1.279957414475626e-05,1.300849516247105e-06,1.462356860410589e-06
87.55850589646688,94.21247788535433,12.5,0,-5.658690825501554,-0.8272951370912978,1.913666446425213,-1.744597453193193e-05,1.87960822170909e-06,1.53093315714017e-05,1.446448705651225e-06,1.450675653996567e-06
82.20262405612209,97.87192258137625,12.5,0,-4.689914031102657,-0.5605653948021214,1.590025868391252,-1.45592725836868e-05,1.958121961515337e-06,1.272020694713001e-05,1.259535799234776e-06,1.297875094128875e-06
87.62646691118447,98.98589594451198,12.5,0,-4.865092568127441,-0.6285627323801215,1.900078719884663,-1.506544603210371e-05,1.880673310885564e-06,1.52006297590773e-05,1.415995710430739e-06,1.307991696592158e-06
91.49801056983482,95.32734421153569,12.5,0,-5.001140302521994,-0.650366499824337,1.701195859545819,-1.548335576821091e-05,1.919739442579717e-06,1.360956687636655e-05,1.320742762116497e-06,1.457709147940289e-06
96.87947403221173,96.850279934988,12.5,0,-5.233168723222255,-0.6991411979217558,2.010875014540224,-1.618682695597381e-05,1.949283145228185e-06,1.608700011632179e-05,1.493631552508494e-06,1.488606217164107e-06
91.59699545319077,99.80138104457103,12.5,0,-4.383466084148105,-0.4961002201607939,1.698824003153122,-1.36302112931453e-05,1.919252162803943e-06,1.359059202522498e-05,1.30336464820723e-06,1.33106076411975e-06
97.02083830825316,100.9153544077068,12.5,0,-4.549136199969575,-0.5283981391105813,2.005002765087327,-1.413451732861418e-05,1.9484349148218e-06,1.604002212069861e-05,1.489738587058504e-06,1.383970026227766e-06
91.66945741698552,103.0766033211482,12.5,0,-3.995168600473628,-0.7597583654324338,1.659490579188398,-1.217673282916966e-05,7.649081109951147e-07,1.327592463350718e-05,1.106443378208632e-06,1.250608639399955e-06
97.12432414068627,103.8911954581616,12.5,0,-4.111682287655137,-0.754044771512082,1.973326155368944,-1.255414750328677e-05,8.764025612854468e-07,1.578660924295155e-05,1.313956568916936e-06,1.31754860199042e-06
91.76844230034149,107.5506401541836,12.5,0,-3.374575201459868,-0.6051780103620747,1.664609662666277,-1.031449823638192e-05,7.630905280092554e-07,1.331687730133021e-05,1.114622225900363e-06,1.157457730899803e-06
97.26568841672771,107.9562699308804,12.5,0,-3.426812785165235,-0.5838127842023539,1.975725859321698,-1.049875068516687e-05,8.73249318684655e-07,1.580580687457358e-05,1.352434289886406e-06,1.240718087191527e-06
82.22135110318882,101.6656883524202,12.5,0,-4.255134139021186,-0.9097313661587573,1.554791964427268,-1.288864415194079e-05,4.929669395089251e-07,1.243833571541814e-05,1.022244539791001e-06,1.191183846327494e-06
87.67621782688957,102.4802804894336,12.5,0,-4.366313272940834,-0.8986729004412906,1.857678092902359,-1.325326415305764e-05,6.172973369405374e-07,1.486142474321887e-05,1.205202913239382e-06,1.216749305169372e-06
82.24693272522096,106.8480687718944,12.5,0,-3.549703960118394,-0.733540064788025,1.566957235655028,-1.077222062054844e-05,4.924349607730348e-07,1.253565788524022e-05,1.011965116049208e-06,1.064179702880524e-06
87.74417884160718,107.2536985485913,12.5,0,-3.598943336386738,-0.7073520649237889,1.868236083115745,-1.095073702449853e-05,6.156280613532658e-07,1.494588866492596e-05,1.223066794481907e-06,1.110154413392046e-06
103.4930470465756,213.7191517215078,12.5,0,7.17114118708674,-0.9033605822452819,-2.023355906947804,2.367034026447379e-05,-8.627666812854293e-06,-1.618684725558243e-05,2.539549512072454e-05,2.509970849224616e-05
107.9130957493418,217.2957996381404,12.5,0,7.522900977061452,-0.6405107548746041,-2.22136964656326,2.458569173049632e-05,-8.067955197247893e-06,-1.777095717250608e-05,2.756031828119419e-05,2.667069328929774e-05
100.0870038688761,219.528661792503,12.5,0,6.760032824719476,-0.8855894841318368,-2.0385637816152,2.234057662640779e-05,-8.241912608997457e-06,-1.63085102529216e-05,2.390915062863388e-05,2.481930491286222e-05
104.8907145927093,222.6444991295701,12.5,0,7.065271033974464,-0.6259502658033516,-2.234335598938446,2.310962752136096e-05,-7.655257677750296e-06,-1.787468479150757e-05,2.588867078207659e-05,2.624852086708379e-05
111.1487959715579,219.9140876337894,12.5,0,7.530491925017063,-0.5518188155403907,-2.458986724305146,2.453902921248691e-05,-7.7902137497429e-06,-1.967189379444116e-05,2.796475253990713e-05,2.782359902507395e-05
115.5688446743241,223.490735550422,12.5,0,7.943694594971329,-0.273004173608772,-2.685595681676912,2.563822604279527e-05,-7.228569031525132e-06,-2.148476545341529e-05,3.044538530316501e-05,2.940241127463447e-05
108.4072749072691,224.9254503683265,12.5,0,7.106564110596185,-0.5625180579442799,-2.481498355498455,2.319101960026321e-05,-7.485309073898643e-06,-1.985198684398764e-05,2.635916679945638e-05,2.732715171137412e-05
113.2109856311022,228.0412877053937,12.5,0,7.460956525973684,-0.2912466600631212,-2.705619102431354,2.410805821116628e-05,-6.900754532980934e-06,-2.164495281945083e-05,2.8595419167149e-05,2.884481002648991e-05
106.4003421982746,228.5940225050089,12.5,0,7.224473681449233,-0.4784149890812299,-2.732374564653457,2.350104777190253e-05,-7.310506910219322e-06,-2.185899651722766e-05,2.718728555416989e-05,2.705602258086415e-05
111.4849130144514,231.3725230851834,12.5,0,7.50324047181125,-0.1913098868949445,-2.931411933658625,2.416341741931195e-05,-6.614784015512822e-06,-2.3451295469269e-05,2.917877400907281e-05,2.852248830145907e-05
103.6588211339858,233.6053852395459,12.5,0,6.901738177746414,-0.4560008422910327,-2.728839955200037,2.245036284262135e-05,-6.980593237528435e-06,-2.18307196416003e-05,2.60489474598651e-05,2.681173133456727e-05
109.1270539712295,235.923075240155,12.5,0,7.138195499289001,-0.1726156098363618,-2.92315598652961,2.298031808559389e-05,-6.262926350907558e-06,-2.338524789223688e-05,2.787029297195394e-05,2.81994902203987e-05
97.5936072101328,223.7815183313737,12.5,0,6.947247091156827,-0.7778095512810568,-2.329250057188967,2.285343833272669e-05,-8.046788237024843e-06,-1.863400045751174e-05,2.506717295824026e-05,2.46911279347384e-05
102.6781780263095,226.5600189115481,12.5,0,7.185515732246005,-0.5315316718865988,-2.499403452422271,2.341887568069649e-05,-7.449313935833919e-06,-1.999522761937817e-05,2.675321694209918e-05,2.602941266472068e-05
94.18756403243337,229.5910284023687,12.5,0,6.623515706452167,-0.7464985432866631,-2.330426255678286,2.179244909527626e-05,-7.687607903679055e-06,-1.864341004542629e-05,2.394759168749922e-05,2.462134549751251e-05
99.65579686967708,231.9087184029778,12.5,0,6.827008856219661,-0.5017555103632523,-2.497595596817217,2.224783274819351e-05,-7.067224718138136e-06,-1.998076477453773e-05,2.549865256892729e-05,2.585297034569808e-05
353.8966080370325,183.4278066885259,12.5,0,8.966062694853008,-0.5139545414125464,-2.131390269956648,2.910256425665966e-05,-8.817504688402554e-06,-1.705112215965318e-05,3.33422022100396e-05,3.406951203268142e-05
357.4344606342884,183.8335982290429,12.5,0,8.940251995071391,-0.3784315823825501,-1.929738592752295,2.891155165013449e-05,-8.363182659681273e-06,-1.543790874201836e-05,3.356662088877746e-05,3.372244731634594e-05
352.6349107246126,187.4846159803923,12.5,0,9.592215960557489,-0.3086440923485458,-1.997152321469187,3.09420063476628e-05,-8.661433863961336e-06,-1.59772185717535e-05,3.627678650411699e-05,3.599388228594141e-05
356.5372673580692,188.3322361467863,12.5,0,9.520893417649548,-0.2040511249091566,-1.828290626036363,3.063009983640588e-05,-8.269678333828938e-06,-1.46263250082909e-05,3.626079904670172e-05,3.571109018464875e-05
351.7112841881874,190.4544064985298,12.5,0,9.928151661758289,-0.4837235677498217,-1.808720822263186,3.215706417182638e-05,-9.49043674620606e-06,-1.446976657810549e-05,3.697905449231965e-05,3.736956238368497e-05
355.8804762956956,191.6254676672903,12.5,0,9.784384965894986,-0.376120427356132,-1.58180563565599,3.161092823274886e-05,-9.031093340255611e-06,-1.265444508524792e-05,3.668361425338132e-05,3.714569891275266e-05
350.4495868757676,194.5112157903962,12.5,0,10.55085708902155,-0.2859276403164017,-1.683234236814451,3.399148479712208e-05,-9.355654120229723e-06,-1.346587389451561e-05,3.990676259208603e-05,3.920362005258151e-05
354.9832830194765,196.1241055850338,12.5,0,10.38014637132101,-0.2011708550981837,-1.485602729127801,3.337740507230579e-05,-8.947863833370999e-06,-1.188482183302241e-05,3.945799564335699e-05,3.907647997877811e-05
344.4900316315981,188.426069055502,12.5,0,10.04078813103436,-0.5234818250343558,-1.950422519501232,3.254930747933745e-05,-9.707772344937429e-06,-1.560338015600985e-05,3.73355775054322e-05,3.760630674644778e-05
348.6592237391061,189.5971302242625,12.5,0,9.903497419635592,-0.3587213779271772,-1.718620500324624,3.197816884517563e-05,-9.07070634507544e-06,-1.374896400259699e-05,3.722780377880805e-05,3.749298188074719e-05
342.5969948089259,191.7176087191248,12.5,0,10.5806819186242,-0.3012365418820968,-1.778304454011937,3.40991713731031e-05,-9.428502468922066e-06,-1.42264356320955e-05,4.000067773980028e-05,3.935105320970365e-05
347.1306909526347,193.3304985137624,12.5,0,10.41840497289101,-0.1699965521748066,-1.583404194883172,3.347489315499107e-05,-8.878712945272187e-06,-1.266723355906538e-05,3.972121445264407e-05,3.927719172806892e-05
347.768867589006,182.7249551230815,12.5,0,9.130728649512408,-0.5117008089108848,-2.197932824382008,2.962769232556841e-05,-8.942025508124757e-06,-1.758346259505606e-05,3.399951260276684e-05,3.464113468140433e-05
351.3067201862618,183.1307466635985,12.5,0,9.111465451997958,-0.3342831410802485,-1.984436191888937,2.942411595925767e-05,-8.358878413055161e-06,-1.58754895351115e-05,3.436742874854213e-05,3.431567357023783e-05
345.8758307663339,186.0164947867043,12.5,0,9.682388954285184,-0.2804666230898487,-2.019418950762505,3.120801795218446e-05,-8.643404357315662e-06,-1.615535160610004e-05,3.671115535231369e-05,3.634428788041287e-05
349.7781873997904,186.8641149530983,12.5,0,9.616386772498458,-0.1464475527386342,-1.849248600909609,3.088959571418597e-05,-8.161741586762395e-06,-1.479398880727687e-05,3.680336190254766e-05,3.616354709716537e-05
318.3429319496049,133.9842044684119,12.5,0,3.063984768734043,0.3648503958251278,-3.722650364198881,9.512870943288836e-06,-1.283666548346826e-06,-2.978120291359105e-05,1.573921047378278e-05,1.650245179610723e-05
323.8003668860654,132.650245944529,12.5,0,3.109300512742955,-0.04931837647491333,-3.520651525117738,9.989216341957385e-06,-2.645259214914086e-06,-2.81652122009419e-05,1.450269676460972e-05,1.511388551613728e-05
320.9950630564293,137.9452120570365,12.5,0,3.691778084872509,0.768301429531387,-4.011037520050163,1.119904872796692e-05,-4.948578933975691e-07,-3.20883001604013e-05,1.930604857480475e-05,1.81965662605222e-05
326.3522035300532,137.1325159755976,12.5,0,3.674942617750801,0.283947609509416,-3.765286882407534,1.153265828919503e-05,-2.03132174377051e-06,-3.012229505926028e-05,1.757530776504314e-05,1.701762921365248e-05
327.7954865383859,131.6737205298986,12.5,0,2.555342297407972,0.1428625943068667,-3.651409874267136,8.062805276260016e-06,-1.587113536144404e-06,-2.921127899413709e-05,1.343635678199581e-05,1.41476122630566e-05
333.2529214748463,130.3397620060156,12.5,0,2.63753935588279,-0.1396931473699242,-3.43093453313876,8.551880456720867e-06,-2.557049556289989e-06,-2.744747626511008e-05,1.265116090498476e-05,1.289627092150302e-05
330.2739025398627,136.5375811528975,12.5,0,3.287435532452174,0.4855578783290065,-3.908506690900666,1.013134740118375e-05,-1.076163215308918e-06,-3.126805352720533e-05,1.7038850543222e-05,1.61735253550773e-05
335.6310430134865,135.7248850714586,12.5,0,3.309908740934269,0.1564837928415208,-3.652641119241529,1.046652093671644e-05,-2.147178855654549e-06,-2.922112895393223e-05,1.58775990122251e-05,1.504632777335664e-05
332.0882289751582,140.0981742497149,12.5,0,3.867695825560743,-0.004224824960580742,-3.466188343318369,1.238000650176284e-05,-3.107676100322452e-06,-2.772950674654695e-05,1.707333779355375e-05,1.769214586420973e-05
337.371948806271,139.6670687602063,12.5,0,3.851382732984462,-0.2936024972323212,-3.200806822595533,1.255930674333613e-05,-4.020634177530997e-06,-2.560645458076426e-05,1.593004332177689e-05,1.671064068550964e-05
334.566644976635,144.9620348727139,12.5,0,4.705284084167824,0.3630467225444044,-3.742124142214729,1.476647169130151e-05,-2.602477755192165e-06,-2.993699313771784e-05,2.129629388836275e-05,1.981518116073136e-05
339.750070344911,145.0521918256493,12.5,0,4.605946015377264,0.01913009634242746,-3.432684730071841,1.47237231721333e-05,-3.623540504006043e-06,-2.746147784057473e-05,1.965022680212277e-05,1.910757126954426e-05
322.9365577748762,140.8448708609523,12.5,0,4.160810253914964,0.1444766304629229,-3.547566859679955,1.319901150815755e-05,-2.866322985650618e-06,-2.838053487743964e-05,1.858013165709983e-05,1.944462273659062e-05
328.2202776059889,140.4137653714437,12.5,0,4.108249692021182,-0.2829961352177666,-3.294846926197453,1.3372795922642e-05,-4.192187386313799e-06,-2.635877540957962e-05,1.69417537784004e-05,1.842471414689527e-05
325.5886888817006,144.805878449577,12.5,0,4.878572450280564,0.5779127158560464,-3.862518426213998,1.514910166821297e-05,-2.053537269485102e-06,-3.090014740971198e-05,2.265079478741309e-05,2.116026197565491e-05
330.7721142499768,144.8960354025124,12.5,0,4.737356779402365,0.06628671953075393,-3.553128942219476,1.510651231846296e-05,-3.577767921023479e-06,-2.842503153775581e-05,2.036559411966182e-05,2.036519797772746e-05
363.58656572358,95.05104531602325,12.5,0,-2.291486634319949,-0.479756744583496,-3.652226553133578,-6.94895183415704e-06,2.979677247887721e-07,-2.921781242506863e-05,3.546907817244615e-06,3.567279251418182e-06
369.8107007804021,99.89416568330805,12.5,0,-2.212834194240009,-0.1015278316302963,-3.755653345158174,-6.999847156263791e-06,1.445378294175059e-06,-3.004522676126539e-05,4.117956426687285e-06,3.928349607669714e-06
358.3815790852163,100.2801015010157,12.5,0,-2.182241835488271,-0.1191312921968715,-3.510684082398989,-6.887868839804969e-06,1.364573333360628e-06,-2.808547265919191e-05,3.751836086792912e-06,4.099390952777453e-06
363.9953217196497,104.9878620473486,12.5,0,-2.102239725897329,0.2718083348070421,-3.626655752230493,-6.944613790717084e-06,2.551578452100398e-06,-2.901324601784394e-05,4.433732478336441e-06,4.616335487829293e-06
354.5712644133789,104.1080363038997,12.5,0,-1.009458282359204,-0.3696509097129412,-3.711580957494994,-2.934545775779099e-06,-3.753162851940486e-07,-2.969264765995995e-05,4.771115041169844e-06,4.61491739663939e-06
359.7381687820878,108.7167065839965,12.5,0,-0.9435280452420817,-0.08736954861319454,-3.804332823541154,-2.949394105884105e-06,4.752398806314427e-07,-3.043466258832923e-05,5.383443415519215e-06,5.257397942504186e-06
349.3662777750152,109.3370924888921,12.5,0,-0.9226149441014206,-0.0460230241364093,-3.587892055522486,-2.915549401815419e-06,5.908182780446267e-07,-2.870313644417989e-05,5.089048413145333e-06,5.491250132616115e-06
353.9227897213355,113.810402948037,12.5,0,-0.8551950896473901,0.2447056242582422,-3.693297092517695,-2.932388786278242e-06,1.467214069344287e-06,-2.954637674014156e-05,5.809192312468852e-06,6.320827259415697e-06
345.6219235290862,96.12558522358279,12.5,0,-2.220444206462148,-0.164006552236711,-3.730810761987054,-6.974216218889504e-06,1.251534398012243e-06,-2.984648609589643e-05,4.009249724019301e-06,3.849457092826718e-06
350.7888278977952,100.7342555036796,12.5,0,-2.224649653631897,0.05169700472466277,-3.782076376989923,-7.1602364954018e-06,1.945150138024438e-06,-3.025661101591938e-05,4.320905029606678e-06,4.237660782989265e-06
341.4741675788358,101.5890914957632,12.5,0,-2.083949633262987,0.06818670498110602,-3.602628507663188,-6.723188190426441e-06,1.885357162549929e-06,-2.88210280613055e-05,4.162304004370158e-06,4.445470667448538e-06
346.0306795251561,106.0624019549081,12.5,0,-2.094846890906092,0.2915646157077542,-3.664224715237992,-6.936761743465698e-06,2.608884282989687e-06,-2.931379772190394e-05,4.523418974207127e-06,4.988749848293771e-06
352.806047572187,86.66251477286505,12.5,0,-3.581162772301466,-0.2742346713000067,-3.628104364558431,-1.124033313432469e-05,1.987379269681152e-06,-2.902483491646745e-05,3.191265636196713e-06,3.182635576584607e-06
359.0301826290092,91.50563514014986,12.5,0,-3.573826547237211,0.02087416036558631,-3.685230838240751,-1.145294427945155e-05,2.925858550959645e-06,-2.948184670592601e-05,3.514319021926986e-06,3.36746577901059e-06
348.6582916219366,92.1260210450455,12.5,0,-3.433285444786999,-0.01842799871337808,-3.48731591687468,-1.097177102434769e-05,2.687658759946789e-06,-2.789852733499744e-05,3.276377143751579e-06,3.511081450066576e-06
354.2720342563701,96.83378159137834,12.5,0,-3.431377993072779,0.2883253861111343,-3.554386148237233,-1.12110698867218e-05,3.667743630013853e-06,-2.843508918589787e-05,3.650454877621092e-06,3.803239025936912e-06
315.9975803658788,135.5658252591529,12.5,0,3.946412507622829,0.3879413513405772,-3.828939844716583,1.231816694332059e-05,-1.915717681808416e-06,-3.063151875773266e-05,1.885486116561181e-05,1.764876246867886e-05
318.5008590140059,139.0759457269686,12.5,0,3.714098964219563,0.3653747455755649,-3.78419646336549,1.159281688904215e-05,-1.802079985533842e-06,-3.027357170692392e-05,1.795737669285467e-05,1.912515310050635e-05
315.047395613715,138.5529350940653,12.5,0,4.208938998594585,0.4704761147937589,-3.776906425811185,1.309222390366766e-05,-1.861627631535639e-06,-3.021525140648948e-05,1.992655755264986e-05,1.939197518756621e-05
317.0437073189958,141.3524714817444,12.5,0,3.917621198107006,0.442173124543887,-3.720807503173891,1.218264933430731e-05,-1.719142959945167e-06,-2.976646002539112e-05,1.878838766542691e-05,2.048316247982101e-05
318.5051089149435,143.4018743550762,12.5,0,4.832243926041671,0.2359458208873111,-3.642144795759411,1.52744239066235e-05,-3.110768513993941e-06,-2.913715836607529e-05,2.127247168208842e-05,2.132150138373526e-05
320.3333861698594,141.6455322499879,12.5,0,4.861206543073969,0.1540641561527583,-3.6558080134098,1.543260961291449e-05,-3.395959934770348e-06,-2.92464641072784e-05,2.115289212209431e-05,2.022081453732253e-05
320.5014206202243,146.2014107427553,12.5,0,4.970155295486659,0.3924322618296573,-3.738762769824066,1.559055113609358e-05,-2.720340998534423e-06,-2.991010215859253e-05,2.230601746427347e-05,2.25206985710332e-05
322.8366648179866,145.1556527178037,12.5,0,4.971194623280247,0.278874055898414,-3.732863928401688,1.568472354977806e-05,-3.084558719749272e-06,-2.986291142721351e-05,2.197440016692375e-05,2.173782661889801e-05
317.1667170740795,144.6876060114186,12.5,0,5.285232186709622,0.2226987984403854,-3.656724859891179,1.673458395871848e-05,-3.515549594358463e-06,-2.925379887912943e-05,2.284706248443766e-05,2.218473608789637e-05
318.7919032194545,146.9669587494102,12.5,0,5.351525577287395,0.3169045342318713,-3.712467250345411,1.687135821993417e-05,-3.267125952287927e-06,-2.969973800276329e-05,2.340857664838276e-05,2.315283639898782e-05
315.3384398191636,146.4439481165068,12.5,0,5.268023645475033,0.3453165227783672,-3.627883750166225,1.658142244729741e-05,-3.109406043489251e-06,-2.90230700013298e-05,2.311587486484347e-05,2.344245031220872e-05
316.4566590216922,148.0127167743617,12.5,0,5.36435427537663,0.4821843912534911,-3.708884925079014,1.678018616820242e-05,-2.748493368290132e-06,-2.967107940063211e-05,2.393586208053645e-05,2.409699711028429e-05
314.3518120985834,140.7396512609169,12.5,0,4.695169597868391,0.5001960297507395,-3.770421756984317,1.462438588937826e-05,-2.155508383092346e-06,-3.016337405587453e-05,2.168879638375371e-05,2.066324747778798e-05
315.9769982439585,143.0190039989085,12.5,0,4.521212569600629,0.4478960200993327,-3.719595091966355,1.410956340664254e-05,-2.183702791362638e-06,-2.975676073573084e-05,2.087823231664878e-05,2.151765274699617e-05
313.4016273464197,143.7267610958292,12.5,0,5.020030862436331,0.5739244661617223,-3.74084696782369,1.560495918686688e-05,-2.179466398231553e-06,-2.992677574258952e-05,2.301657512613459e-05,2.23932152461886e-05
314.5198465489483,145.2955297536842,12.5,0,4.767192217592785,0.49791236882645,-3.666991400065708,1.485668520123575e-05,-2.220434193829588e-06,-2.933593120052567e-05,2.183038395203977e-05,2.29859233376597e-05
331.9299155791015,153.0480622215504,12.5,0,5.952330035727865,-0.20494762304783,-3.365692474051346,1.921141421276743e-05,-5.417696422335347e-06,-2.692553979241077e-05,2.374983317576281e-05,2.404567623744113e-05
335.0574914971104,153.9029476278994,12.5,0,5.887003185126329,-0.1237906604863184,-3.251061725657043,1.893744272079331e-05,-5.105732661657281e-06,-2.600849380525634e-05,2.36507080964812e-05,2.411390900444858e-05
330.240800285728,156.0535444659255,12.5,0,6.451076037044222,-0.001898981982910275,-3.209211029206156,2.064496250412783e-05,-5.166937571980689e-06,-2.567368823364925e-05,2.602893260810742e-05,2.584095923625979e-05
332.4059997570995,157.1819819741264,12.5,0,6.28707503060449,0.06503531225518411,-3.09299750710936,2.006661184813022e-05,-4.821547025267003e-06,-2.474398005687488e-05,2.553760971050121e-05,2.610897365957973e-05
326.5127951846785,151.5673572631315,12.5,0,5.820802369324976,0.04120465202925927,-3.401980757328801,1.859360386021651e-05,-4.524787008966351e-06,-2.721584605863041e-05,2.401222564208094e-05,2.429134081904079e-05
329.6403711026875,152.4222426694804,12.5,0,5.709564356677919,0.01027099063984394,-3.250171631125352,1.826238914885746e-05,-4.534784315294834e-06,-2.600137304900282e-05,2.339356714151421e-05,2.409321894887122e-05
326.4905647928585,154.0990333685903,12.5,0,6.391694598850926,0.1838889349588901,-3.401867177215225,2.030631156835585e-05,-4.524911087212292e-06,-2.72149374177218e-05,2.650255057072416e-05,2.556297631540707e-05
328.6557642642301,155.2274708767912,12.5,0,6.109479417967069,0.1091632762214907,-3.198734376839117,1.946300351651743e-05,-4.538261050464885e-06,-2.558987501471294e-05,2.509581963893941e-05,2.569465968882374e-05
326.5512993527822,147.1823656202475,12.5,0,5.085633920830213,0.1220073150356316,-3.557214652065877,1.617642269462818e-05,-3.678083728550149e-06,-2.845771721652702e-05,2.175480111908738e-05,2.221883783107703e-05
331.3457601723446,147.5634448876802,12.5,0,5.031178703063541,0.1025679335427723,-3.307440346904096,1.601771750296911e-05,-3.696725575113961e-06,-2.645952277523277e-05,2.127128429626618e-05,2.158931906636895e-05
326.5290689609621,149.7140417257063,12.5,0,5.585688651580178,0.2469825642143602,-3.557318797446998,1.767661763368508e-05,-3.67820671577819e-06,-2.845855037957598e-05,2.389883589009116e-05,2.339528161281461e-05
330.3611533338874,150.3686730949909,12.5,0,5.445965858323023,0.2049893984427207,-3.254254194410319,1.726309922787949e-05,-3.700806611641712e-06,-2.603403355528255e-05,2.301103903795942e-05,2.299319624446402e-05
334.8555490870135,147.8424142731402,12.5,0,4.954252220782945,-0.2907681068533055,-3.510442183047934,1.608622159198807e-05,-4.893859718556933e-06,-2.808353746438347e-05,2.008365447327371e-05,2.118319184012244e-05
339.6500099065759,148.2234935405729,12.5,0,4.951984202331604,-0.1024625712681841,-3.268120981229548,1.592831950447568e-05,-4.289467589923472e-06,-2.614496784983638e-05,2.036708130116386e-05,2.070315038834085e-05
333.16643379364,150.8478965175152,12.5,0,5.527997583192412,-0.05913275959134134,-3.331705959219928,1.773689847388879e-05,-4.611622897246221e-06,-2.665364767375942e-05,2.260754144558272e-05,2.279763122515296e-05
336.9985181665651,151.5025278867999,12.5,0,5.458014293935462,0.1339904624486237,-3.069179921519978,1.735845337063458e-05,-3.937641955312774e-06,-2.455343937215982e-05,2.26935366858699e-05,2.266542302453984e-05
101.8606999127392,152.4478100385663,12.5,0,3.09704754734142,-1.213146288384755,0.9007914258461678,1.088106918220035e-05,-6.359706160704352e-06,7.206331406769342e-06,8.871926856421528e-06,7.789747403087035e-06
106.1938845107482,155.428894218997,12.5,0,3.199618814883737,-1.03048564590817,0.8244956729919982,1.106316872435449e-05,-5.857249118813133e-06,6.595965383935986e-06,9.63966140559315e-06,9.584375474551521e-06
98.31992478304127,156.9892275133899,12.5,0,3.0502159056694,-1.121712202451607,0.9319736840533338,1.065806066010336e-05,-6.029651772380661e-06,7.455789472426671e-06,8.932206597778234e-06,8.739986792429959e-06
103.4891557146906,159.7115460272256,12.5,0,3.137035304042282,-0.9456874532548215,0.866947261941508,1.079506293553916e-05,-5.535828093649254e-06,6.935578095532064e-06,9.639571359210099e-06,1.059446358186238e-05
95.72789749003626,160.3137758432007,12.5,0,3.646677825293867,-1.437913729023692,0.4986609900663126,1.281970002415933e-05,-7.518666193110908e-06,3.989287920530501e-06,1.019413034828561e-05,9.422623679859384e-06
101.509156815366,162.8466647418423,12.5,0,3.701298266376603,-1.179579166252111,0.4648776525463958,1.278781778540682e-05,-6.735691945108037e-06,3.719021220371166e-06,1.100533713659368e-05,1.130462923162662e-05
92.18712236033824,164.8551933180243,12.5,0,3.695635752921371,-1.301358910412683,0.5670616012445147,1.286712153767853e-05,-7.120857115657681e-06,4.536492809956117e-06,1.071493793886669e-05,1.033738295017361e-05
98.80442801930835,167.1293165500708,12.5,0,3.750823732144082,-1.050293150122535,0.5432662058957098,1.284287046295909e-05,-6.361597066107376e-06,4.346129647165679e-06,1.153561368257708e-05,1.223474976134434e-05
85.71446260701373,155.926683580905,12.5,0,2.805125485712305,-1.578762394081986,0.5890154369406685,1.023941146954496e-05,-7.296140049632199e-06,4.712123495525348e-06,6.918636487653537e-06,6.504569059593879e-06
91.49572193234346,158.4595724795466,12.5,0,2.890690199584802,-1.279535328156389,0.5305032801062337,1.027383690119648e-05,-6.407065209768286e-06,4.244026240849869e-06,7.809314379150809e-06,8.136451433182443e-06
80.72561274999491,160.9162963375177,12.5,0,2.840404632874586,-1.3652854424492,0.6636558914976016,1.018152317915803e-05,-6.641237122137108e-06,5.309247131980813e-06,7.500406109448907e-06,7.392469488094959e-06
87.34291840896502,163.1904195695643,12.5,0,2.923049228018252,-1.068280091405152,0.6158990070205471,1.020838160278253e-05,-5.756935674911087e-06,4.927192056164377e-06,8.440575439563638e-06,9.039897861471667e-06
94.35540403054777,147.2844207765131,12.5,0,2.227117403293056,-1.352428501059433,0.994721992717808,8.208718491385325e-06,-6.109465126024629e-06,7.957775941742464e-06,5.64031575005711e-06,5.026568929700879e-06
98.68858862855667,150.2655049569439,12.5,0,2.339495948413572,-1.133468211557144,0.9086859613978108,8.393161604169143e-06,-5.498695035713716e-06,7.269487691182486e-06,6.373437691098394e-06,6.568486820175028e-06
89.36655417352895,152.2740335331259,12.5,0,2.190119615480171,-1.178176333083002,1.035914458284,7.950923836002947e-06,-5.522259958249743e-06,8.287315666272002e-06,5.877596999360082e-06,5.870627915619573e-06
94.53578510517826,154.9963520469616,12.5,0,2.289706989863667,-0.959245675994171,0.9609714909976662,8.094458908359071e-06,-4.90135175507228e-06,7.68777192798133e-06,6.612288544572915e-06,7.474238840522257e-06
37.84362793407303,177.3323719702045,12.5,0,3.391985589429998,-1.14990126757379,0.007752846341246361,1.177427490023502e-05,-6.393272527780125e-06,6.202277072997089e-08,9.86506923996718e-06,9.063728188003327e-06
42.50484844067577,182.9974963049716,12.5,0,3.553377795553575,-0.9591444570919032,-0.102789868335545,1.213812451144496e-05,-5.91196449913695e-06,-8.223189466843597e-07,1.095315117152443e-05,1.064787381031769e-05
27.20243905703961,188.7457695939174,12.5,0,3.281796453563785,-0.9298014257332929,0.05238577947472718,1.124558979199075e-05,-5.600801725197565e-06,4.190862357978175e-07,1.000135047671115e-05,1.12651248263992e-05
34.65939123778465,192.0166911606759,12.5,0,3.400000815016722,-0.6882964782542876,-0.03753679557860579,1.143063979065694e-05,-4.922549382427097e-06,-3.002943646288464e-07,1.108537679155332e-05,1.206949162414382e-05
45.91709867664584,187.1446551490397,12.5,0,4.07735247509133,-1.201528474307426,-0.2483896037619477,1.400875069973819e-05,-7.106773097856826e-06,-1.987116830095582e-06,1.232148286019912e-05,1.18323097685617e-05
50.57831918324856,192.8097794838068,12.5,0,4.264006309745234,-1.011943772329636,-0.3637027361594241,1.445437520904845e-05,-6.649425119251021e-06,-2.909621889275393e-06,1.353232221448632e-05,1.348410336261911e-05
40.11825910346947,194.4111719350141,12.5,0,3.999637278157989,-1.124406799853984,-0.2309565552093445,1.369836472998875e-05,-6.797811582059138e-06,-1.847652441674756e-06,1.222307096899063e-05,1.277680470292462e-05
47.57521128421451,197.6820935017725,12.5,0,4.114822996532629,-0.9161288410335264,-0.3200039249932954,1.390033666173123e-05,-6.223470688533386e-06,-2.560031399946363e-06,1.321467817654451e-05,1.390485317334927e-05
35.87321391114384,199.7306314161732,12.5,0,4.295131846281376,-0.922447133736374,-0.5900989521568475,1.44823796150895e-05,-6.387936304981497e-06,-4.72079161725478e-06,1.393463383499917e-05,1.333554562752124e-05
45.37678372160363,201.2488749132017,12.5,0,4.290045507696594,-0.877565374585886,-0.5522187973223137,1.443019792429781e-05,-6.24024560483211e-06,-4.41775037857851e-06,1.402691423114475e-05,1.418577259863828e-05
30.07437433796749,206.9971482021475,12.5,0,4.349897190594642,-0.8917627115926872,-0.5665484546742772,1.4633081179177e-05,-6.333558429572311e-06,-4.532387637394218e-06,1.421888970972194e-05,1.391755928748922e-05
42.3736758225696,206.1211889311674,12.5,0,4.371187677435307,-0.837460357719346,-0.5218233102524409,1.465776885396846e-05,-6.176823286650152e-06,-4.174586482019527e-06,1.44368191752886e-05,1.453250893066336e-05
19.41254814644552,197.1009565411059,12.5,0,3.819109327335987,-0.2511982302124025,-0.5075502147102766,1.242210843164508e-05,-3.859121798548477e-06,-4.060401717682213e-06,1.398419429689762e-05,1.308415785503753e-05
28.91611795690531,198.6192000381345,12.5,0,3.801340150001339,-0.2455491481449752,-0.4601679351291435,1.236072779852026e-05,-3.826829394064991e-06,-3.681343481033148e-06,1.392262587625033e-05,1.304036884661239e-05
8.771359269412105,208.5143541648187,12.5,0,3.935929724495881,-0.2135760173665764,-0.463880100310484,1.276583593228008e-05,-3.832187035169749e-06,-3.711040802483872e-06,1.453253149657727e-05,1.585245187173875e-05
21.07066075401422,207.6383948938387,12.5,0,3.949568285805051,-0.1985148840402022,-0.4080960852419183,1.279743042180832e-05,-3.794902257572687e-06,-3.264768681935346e-06,1.461886768351243e-05,1.427123693259453e-05
161.3464981298266,332.5252513363949,12.5,0,1.310668094867772,3.262814038755888,-2.515095872404837,1.583886672572158e-06,9.392470448124624e-06,-2.01207669792387e-05,1.793399642285924e-05,1.845929215452194e-05
165.5505307419904,333.675755322232,12.5,0,1.286659102105247,3.217517443793093,-2.492253880210026,1.543295171702315e-06,9.266728538453698e-06,-1.993803104168021e-05,1.767684838838752e-05,1.80236991451996e-05
159.4841746536115,337.0117719907385,12.5,0,1.358283347945597,3.257494312278528,-2.523566431657955,1.740511263603089e-06,9.337355120934811e-06,-2.018853145326364e-05,1.807538765512304e-05,1.771988070313648e-05
163.8787304052341,338.519637123726,12.5,0,1.333241198544385,3.215376995076089,-2.501726548936444,1.694070239281162e-06,9.222613425407974e-06,-2.001381239149155e-05,1.782694806403482e-05,1.723386594687737e-05
168.62809621064,334.5179826941394,12.5,0,1.035470863193194,3.324231925952826,-2.258947057468543,6.541212214559595e-07,9.809165472494485e-06,-1.807157645974834e-05,1.705932818647957e-05,1.76659990585277e-05
172.8321288228037,335.6684866799765,12.5,0,1.008497647224282,3.269772279251672,-2.234198786284252,6.113746477163652e-07,9.656473175825924e-06,-1.787359029027401e-05,1.6758155555713e-05,1.712433725714907e-05
167.0957684919791,339.6234710119875,12.5,0,1.093502348325547,3.321514336478008,-2.274855688561205,8.419960454593423e-07,9.754043998069187e-06,-1.819884550848964e-05,1.724710007474042e-05,1.684092686163005e-05
171.4903242436017,341.131336144975,12.5,0,1.06524384513228,3.27036941716295,-2.250768640380464,7.924847706929365e-07,9.612987058815615e-06,-1.800614912304371e-05,1.695411231999276e-05,1.625341207266821e-05
165.974026748121,343.3609478579427,12.5,0,0.9258249959090015,3.072826485828939,-2.084113381529297,5.043787982456533e-07,9.092384757925404e-06,-1.667290705223438e-05,1.566656952648137e-05,1.62537034536039e-05
170.508055117839,345.1304195072843,12.5,0,0.8749602987375822,2.994714786982816,-2.041786280861304,4.041011263740101e-07,8.883119079354944e-06,-1.633429024689043e-05,1.519070359110467e-05,1.563178707327338e-05
164.4416990294602,348.4664361757907,12.5,0,1.015591383481104,3.073358328226925,-2.102552605227821,7.912057645579934e-07,9.022273543541275e-06,-1.682042084182256e-05,1.596869536362043e-05,1.547445146431216e-05
169.1662505386371,350.5932689722827,12.5,0,0.9634060203499418,2.999365882022369,-2.061645080868875,6.834065595019185e-07,8.827246006191626e-06,-1.6493160646951e-05,1.550390691953342e-05,1.480440117608042e-05
158.1208592489517,340.2961330587855,12.5,0,1.205301688008853,3.049587939038634,-2.352433459726866,1.417295050397421e-06,8.794440054516546e-06,-1.881946767781493e-05,1.670030571227111e-05,1.719801614770352e-05
162.6548876186698,342.0656047081271,12.5,0,1.164118984950661,2.985676417615668,-2.318230148678634,1.336639617749582e-06,8.622869348409608e-06,-1.854584118942907e-05,1.631252079662849e-05,1.667337326924654e-05
156.2585357727365,344.782653713129,12.5,0,1.267009501359899,3.04320011604035,-2.362944090023811,1.619870311519398e-06,8.7246327702412e-06,-1.890355272019049e-05,1.688477423521867e-05,1.651166711891616e-05
160.9830872819135,346.909486509621,12.5,0,1.225200092048513,2.983273412257025,-2.330197343564565,1.534021564749622e-06,8.566314845583668e-06,-1.864157874851652e-05,1.651006264253565e-05,1.593191199494592e-05
324.6032971044446,168.8009139480308,12.5,0,8.605733252156856,-0.09067098287341446,-2.769992052785095,2.761088319320066e-05,-7.17473374692041e-06,-2.215993642228076e-05,3.351421792806151e-05,3.306131602029359e-05
327.3424182746923,166.0173963067927,12.5,0,8.389364862963495,-0.2149119122559893,-2.871447396290046,2.701789709128797e-05,-7.399210009589961e-06,-2.297157917032037e-05,3.238783392594247e-05,3.121454103587817e-05
327.3149538859518,171.8198682750516,12.5,0,8.395005837552514,-0.06863662822087147,-2.725575223045904,2.691892798274474e-05,-6.9356418803488e-06,-2.180460178436723e-05,3.276426327974216e-05,3.377170232792853e-05
330.0520446194043,169.2484122731461,12.5,0,8.178350707020172,-0.1982458347368361,-2.8323755933852,2.632931893025402e-05,-7.177067236774012e-06,-2.265900474708159e-05,3.162434052931947e-05,3.206765545157067e-05
329.3475941393159,163.9797199697287,12.5,0,7.702470559863702,-0.1121775452922447,-2.899973544615069,2.473764782779764e-05,-6.520944592826143e-06,-2.319978835692055e-05,3.013523254689231e-05,2.986869044969727e-05
332.0867153095636,161.1962023284906,12.5,0,7.542361017480577,-0.2172274007142239,-2.979088993042695,2.430933717650922e-05,-6.729016496269976e-06,-2.383271194434156e-05,2.92779796909317e-05,2.803853325311378e-05
332.0557341011324,167.3659758304034,12.5,0,7.534776391703618,-0.08523431030395301,-2.878618152555722,2.417947190169474e-05,-6.300570906335543e-06,-2.302894522044577e-05,2.957595728145689e-05,3.081629861312361e-05
334.792824834585,164.7945198284979,12.5,0,7.374869669939856,-0.1948386434770115,-2.961200089986247,2.375545385858914e-05,-6.52337939507832e-06,-2.368960071988998e-05,2.870906723141502e-05,2.91015750283e-05
334.0382301471055,169.8448871677397,12.5,0,8.305646033971193,-0.2354689687948102,-2.619420872726003,2.676644248374366e-05,-7.398017527320347e-06,-2.095536698180803e-05,3.188116980502927e-05,3.154326016134008e-05
336.7738344976625,167.4286710601555,12.5,0,8.19463183593122,-0.3584627647938254,-2.689419442551337,2.650959208681496e-05,-7.702786316085217e-06,-2.15153555404107e-05,3.113942355572072e-05,2.991733498656748e-05
336.746370108922,173.2311430284144,12.5,0,8.203595494916735,-0.1595367551842322,-2.63144110636008,2.637913498788094e-05,-7.073394012522931e-06,-2.105152885088063e-05,3.172715420933998e-05,3.258174788287449e-05
339.4799440226839,171.0269885601628,12.5,0,8.092213132298179,-0.28981853738083,-2.703576685222312,2.612693685325883e-05,-7.401189825457198e-06,-2.16286134817785e-05,3.096306420058552e-05,3.108299086424304e-05
329.3000244226193,174.0298962280667,12.5,0,9.031073614629749,-0.2053689172562567,-2.483921572109921,2.90637307006202e-05,-7.88203942692382e-06,-1.987137257687937e-05,3.464321581233261e-05,3.433607646112439e-05
332.0356287731764,171.6136801204825,12.5,0,8.878524615052941,-0.3483798894696823,-2.57386736126237,2.868998267974516e-05,-8.217635338345335e-06,-2.059093889009896e-05,3.368618815408413e-05,3.272725837097266e-05
332.0116812041265,177.0488505550875,12.5,0,8.892737455316675,-0.1275491778402165,-2.477286477784038,2.855879919928553e-05,-7.522347333342033e-06,-1.98182918222723e-05,3.434799262025711e-05,3.516758895992376e-05
334.7452551178884,174.8446960868359,12.5,0,8.73957485312598,-0.2791977150577245,-2.571020953970804,2.818999770204931e-05,-7.885092570685502e-06,-2.056816763176643e-05,3.336391925886942e-05,3.367621264398378e-05
108.4887985303799,157.244222897412,12.5,0,3.791734549120187,-1.024962153171056,0.7490976102601109,1.295352027972144e-05,-6.313266529443527e-06,5.992780882080887e-06,1.181921589818733e-05,1.07041598323205e-05
110.4254356332735,159.2227088990587,12.5,0,3.846382274186906,-0.9549595544648346,0.7115298193794959,1.307239092096997e-05,-6.132976393636995e-06,5.692238555035967e-06,1.219183353461816e-05,1.196883951993181e-05
106.3063245041842,161.2494116915306,12.5,0,3.744626696233037,-0.9894740684458154,0.7715915441665421,1.277438468270237e-05,-6.162018376013039e-06,6.172732353332337e-06,1.174268099482384e-05,1.171148756420151e-05
108.8337418392561,162.7286203079706,12.5,0,3.784083561778854,-0.9206810441238378,0.7425832855602841,1.28456122329914e-05,-5.973446190619363e-06,5.940666284482272e-06,1.205838775825456e-05,1.290877704792228e-05
111.8431523883543,160.6710611742663,12.5,0,4.281438556708315,-0.9120797571179888,0.655161679457162,1.4430267187161e-05,-6.343806068144216e-06,5.241293435657296e-06,1.392778399384522e-05,1.287776648086971e-05
113.7797894912478,162.649547175913,12.5,0,4.320230226188305,-0.8682605336775846,0.6303190018282071,1.451934515074464e-05,-6.234617888718914e-06,5.042552014625657e-06,1.418587215876785e-05,1.409632143101547e-05
110.6839397403804,163.8114761701523,12.5,0,4.254491285636064,-0.9056132393942389,0.6652518202921759,1.433886270555079e-05,-6.301555394570415e-06,5.322014562337407e-06,1.384605852584114e-05,1.377174155224599e-05
113.2113570754523,165.2906847865923,12.5,0,4.27903727772542,-0.8673987149429263,0.6474956159050962,1.438683826067568e-05,-6.198905709997699e-06,5.17996492724077e-06,1.403679574441236e-05,1.493211493956633e-05
109.8353371853231,166.1104195038944,12.5,0,4.718467144597557,-1.074403073022346,0.3566000914070346,1.595861732113006e-05,-7.212863549349553e-06,2.852800731256277e-06,1.508815515759826e-05,1.442070048104307e-05
112.7952356664385,167.2241317073085,12.5,0,4.681246853072506,-0.9756480886685328,0.4061502553805017,1.576050840076684e-05,-6.867071366197308e-06,3.249202043044014e-06,1.521877492202553e-05,1.554054874711772e-05
108.6761245373492,169.2508344997804,12.5,0,4.859152124695576,-1.00908456717538,0.4076299642682215,1.635655445276615e-05,-7.116392314717677e-06,3.261039714145771e-06,1.580479580465777e-05,1.529971417524129e-05
112.2268032506429,169.8652693179878,12.5,0,4.857706476329962,-0.9089476774639256,0.4618820407302981,1.627181886622702e-05,-6.794797748948531e-06,3.695056325842385e-06,1.60801054535346e-05,1.636702731391051e-05
104.7086426308775,164.1814133826063,12.5,0,4.315375086567037,-1.205718397524184,0.3837910455005702,1.477377499503386e-05,-7.310598941331016e-06,3.070328364004562e-06,1.322568088927442e-05,1.241980021010483e-05
107.6685411119928,165.2951255860204,12.5,0,4.299008856386278,-1.096983624483843,0.4131067410045157,1.463441524002316e-05,-6.94955468345732e-06,3.304853928036125e-06,1.344986131976438e-05,1.358449843079589e-05
102.5261686046818,168.1866021767249,12.5,0,4.463122252769434,-1.103830879650615,0.4581207238132006,1.516505591258268e-05,-7.102756617097514e-06,3.664965790505604e-06,1.406027361625829e-05,1.33476186145575e-05
106.0768473179755,168.8010369949323,12.5,0,4.471814630711518,-0.9892266483045062,0.4964730329472596,1.510118813692046e-05,-6.742976979143633e-06,3.971784263578077e-06,1.440396595464782e-05,1.449066605265532e-05
400.0628702201921,104.1377778412732,12.5,0,-0.7420854330048102,-0.7545349176387774,-3.61167805017226,-1.77104545150437e-06,-1.82084339004024e-06,-2.889342440137808e-05,4.444877430410471e-06,4.371050982555034e-06
408.5917636288166,111.1850022388841,12.5,0,-0.5799845446158884,-0.3154521165159011,-3.768738573148592,-1.603588849558122e-06,-5.454591371581728e-07,-3.014990858518873e-05,5.465032780040229e-06,5.182181895353074e-06
390.9117751208274,111.945569176266,12.5,0,-0.6793919089489268,-0.2251888682751148,-3.469020043507358,-1.993903014016474e-06,-1.770908513212257e-07,-2.775216034805886e-05,4.930635338812859e-06,5.341331990016868e-06
397.8247469133788,119.0616073419977,12.5,0,-0.5081937033114907,0.2056888643164116,-3.653478111613966,-1.790770942049899e-06,1.064759328461709e-06,-2.922782489291173e-05,6.180348020015362e-06,6.520474051092292e-06
385.2903935043805,91.9316271324913,12.5,0,-2.253892299078098,-0.534036745274316,-3.651842867959966,-6.785225960830461e-06,9.419625438466736e-08,-2.921474294367973e-05,3.51863583252938e-06,3.38139348361618e-06
393.8192869130052,98.97885153010228,12.5,0,-2.170152500230479,-0.1831656724659841,-3.758964524383336,-6.797955462764743e-06,1.149991848293234e-06,-3.007171619506669e-05,4.063856274870584e-06,3.888531181905827e-06
378.938156745053,99.62022952484092,12.5,0,-2.166641615730143,-0.2066234391899259,-3.50210236018094,-6.767954418984516e-06,1.072118287176352e-06,-2.801681888144752e-05,3.658843276600827e-06,3.899786008053174e-06
385.8511285376044,106.7362676905727,12.5,0,-2.08327347187679,0.1468330596573169,-3.637114958101245,-6.783941557731582e-06,2.136484568404846e-06,-2.909691966480996e-05,4.309569593817857e-06,4.639120745292492e-06
396.292790313045,78.61457714998546,12.5,0,-3.830708914093484,-0.594196703265539,-3.484596333072057,-1.178291116248672e-05,1.163137680825063e-06,-2.787677066457645e-05,2.740345664613192e-06,2.789450186938651e-06
407.6205420617065,85.54261260495318,12.5,0,-3.746790490722212,-0.06367118991622767,-3.577391892440323,-1.19387926183781e-05,2.793684584845841e-06,-2.861913513952258e-05,3.263399485209226e-06,2.993160296808948e-06
389.9405535537173,86.30317954233506,12.5,0,-3.669919741295422,-0.2107829005162666,-3.296968096092132,-1.157511685173233e-05,2.261430511384284e-06,-2.637574476873706e-05,2.838429857463158e-06,3.083879897030456e-06
399.6523836863059,93.30002876542352,12.5,0,-3.593015254449139,0.3332308835534626,-3.415388136704113,-1.176423352108001e-05,3.940751030930391e-06,-2.73231050936329e-05,3.471606790198961e-06,3.447497408974819e-06
415.9130318769015,90.61428655441247,12.5,0,-2.238131419831643,-0.8133786322678057,-3.480863813311585,-6.511317637647012e-06,-8.12306487391664e-07,-2.784691050649267e-05,3.061877798577193e-06,3.2307562002101e-06
427.240783625563,97.5423220093802,12.5,0,-2.053959524983799,-0.1836222405879514,-3.641146990719307,-6.425772687477797e-06,1.055576450105595e-06,-2.912917592575446e-05,3.961802481963855e-06,3.676170170129574e-06
406.7619367775368,98.42207788940536,12.5,0,-2.128481911296101,-0.2336237597723587,-3.308902746462561,-6.624243108329633e-06,9.551894977653325e-07,-2.647122197170049e-05,3.372132150374833e-06,3.805523904129232e-06
416.4737669101253,105.4189271124938,12.5,0,-1.938417543479097,0.4001275501500353,-3.495402497811861,-6.52303817925314e-06,2.831142195263391e-06,-2.796321998249488e-05,4.524046071365287e-06,4.420052967444125e-06
25.16107021072136,344.5768650691815,12.5,0,3.061501286548836,1.040693123216228,-2.350461314494617,8.96424961838329e-06,8.810169650528618e-07,-1.880369051595693e-05,1.621708757868754e-05,1.630220338339833e-05
34.35074811392399,351.2980915859568,12.5,0,3.000112638417343,0.8820021651973868,-2.296648766774903,8.894758710777588e-06,4.223168178977631e-07,-1.837319013419923e-05,1.545287315890623e-05,1.584531560688929e-05
10.0484297073015,353.9701452526526,12.5,0,3.035790938368161,0.8354836374633754,-2.383412791546754,9.046144092807413e-06,2.449148891882726e-07,-1.906730233237403e-05,1.551381815050301e-05,1.540840921960961e-05
21.54443521062383,359.4766302080457,12.5,0,2.971469239048168,0.6467257706510394,-2.336021474336932,8.991320948433306e-06,-3.076529251552085e-07,-1.868817179469546e-05,1.466253215608456e-05,1.496682511664742e-05
51.3369313986975,328.3072265419718,12.5,0,3.35704529266265,0.9620987785772088,-2.536952621973342,9.972865913658711e-06,3.930798573169483e-07,-2.029562097578673e-05,1.718410929770109e-05,1.762046017381141e-05
56.53193271966622,337.1324471610889,12.5,0,3.220605941481711,0.9077973088701876,-2.494302328644025,9.579701165645325e-06,3.284666351992311e-07,-1.99544186291522e-05,1.649325960135172e-05,1.708443852616016e-05
36.22429089527763,337.7005067254429,12.5,0,3.460863469934728,0.9388057898220195,-2.478636703668091,1.032371847193351e-05,2.354877514826799e-07,-1.982909362934472e-05,1.742899700635952e-05,1.689492065017475e-05
43.72561981636605,345.3109857831779,12.5,0,3.344695405819818,0.8817238507521236,-2.42708307118009,9.997646218021717e-06,1.457599977509413e-07,-1.941666456944072e-05,1.679190692928386e-05,1.641272840983189e-05
49.21697371065514,350.8822431231419,12.5,0,3.020431010517211,1.125637753119176,-2.47949110000774,8.764869031159733e-06,1.185696001567594e-06,-1.983592880006192e-05,1.645732257627008e-05,1.599966954271214e-05
60.33493763184108,343.5929570420125,12.5,0,2.926500118467109,1.166414916111703,-2.526165442399959,8.431668446205385e-06,1.391327636783761e-06,-2.020932353919967e-05,1.630061251203524e-05,1.662630984896476e-05
56.71830263174357,358.4927221808768,12.5,0,2.866460960785866,1.034797002900608,-2.406496193120337,8.344837472194284e-06,1.018181640653252e-06,-1.92519695449627e-05,1.556242088283285e-05,1.535336397151905e-05
65.52993895280981,352.4181776611297,12.5,0,2.744963373978462,1.082772886546902,-2.462347302834501,7.917664487493557e-06,1.268902537767316e-06,-1.969877842267601e-05,1.534269584061193e-05,1.591070067406065e-05
41.07805924397535,356.2183708852064,12.5,0,2.723413208345092,1.132594724010686,-2.35028511441656,7.808846487495745e-06,1.445572550158122e-06,-1.880228091533248e-05,1.531838424630626e-05,1.549377817073905e-05
50.26773714717801,362.9395974019817,12.5,0,2.65941837900265,1.022287504354797,-2.302777449563402,7.692308809324642e-06,1.143785310733229e-06,-1.842221959650722e-05,1.470068038187502e-05,1.49902478108823e-05
29.96009532278942,363.5076569663357,12.5,0,2.73269763869547,1.04439850311571,-2.354906989262265,7.909113641332935e-06,1.155917099013896e-06,-1.883925591409812e-05,1.507589354595466e-05,1.473829754559169e-05
41.45610082611176,369.0141419217288,12.5,0,2.672582122990898,0.9173024879476031,-2.309767652085901,7.818420803212791e-06,7.973022630396109e-07,-1.847814121668721e-05,1.442386411004659e-05,1.455553271347278e-05
6.02853337398814,40.96582379706034,12.5,0,-12.530553036928,-2.796738240582183,0.01655755391321362,-3.786037912570384e-05,1.07488005967941e-06,1.324604313057089e-07,1.798118810099422e-06,1.842585847377942e-06
22.4987928475486,35.2189419445006,12.5,0,-11.54689819303269,-1.423608140912308,0.9079923316635558,-3.581118770497475e-05,4.681972503506762e-06,7.263938653308446e-06,2.149196472193226e-06,2.472838109592721e-06
5.971767526603749,60.49124597967391,12.5,0,-10.52133448709762,-2.29107160173029,0.4813104026665054,-3.183541307732816e-05,1.085638464141169e-06,3.850483221332044e-06,1.544728224042816e-06,1.530168454961586e-06
22.28693982096875,52.00524444138041,12.5,0,-9.186428202186098,-0.8163701936509591,1.461761833922664,-2.874347409207475e-05,4.73675794206581e-06,1.169409467138131e-05,1.987251763297997e-06,1.989273613393362e-06
6.126854705790844,7.146800538148923,12.5,0,-15.89939762617011,-3.335350427142473,-1.299418938548312,-4.820979206203038e-05,2.046396734080178e-06,-1.039535150838649e-05,2.430038291744858e-06,2.456577225487073e-06
22.86573305331554,6.144213149206935,12.5,0,-15.2114145472231,-1.025152124843649,-0.5106862761671767,-4.7856404851239e-05,8.888644838278803e-06,-4.085490209337414e-06,3.163845430541868e-06,3.262714575801087e-06
6.07008885840645,26.67222272076249,12.5,0,-13.90722312886616,-2.831015170840219,-0.4316102478211848,-4.223830187569955e-05,2.066529956404232e-06,-3.452881982569479e-06,2.098807017081416e-06,2.09081632929363e-06
22.65388002673569,22.93051564608672,12.5,0,-12.88118191262495,-0.4107367464490972,0.5099922767740106,-4.089119272324055e-05,8.990587941462846e-06,4.079938214192085e-06,2.917726809719217e-06,2.814055587067963e-06
35.11944246489723,5.410268241504786,12.5,0,-15.91673281367564,-0.1889810637483293,0.2099687559246395,-5.078236015276338e-05,1.212864684694586e-05,1.679750047397116e-06,3.761203308823078e-06,3.650944624286316e-06
51.85832081242194,4.4076808525628,12.5,0,-15.80170241102941,-0.03851298917838708,0.7298723699698546,-5.05346373239514e-05,1.251812036345269e-05,5.838978959758836e-06,3.843294885804913e-06,3.905471491503969e-06
34.79405774354859,20.1913959605006,12.5,0,-14.91255113530167,0.06401490063920967,0.2536967159064925,-4.77713755534767e-05,1.21348885902868e-05,2.02957372725194e-06,3.662283946061728e-06,3.232184278469836e-06
51.37784891187783,16.44968888582484,12.5,0,-14.56223600735329,0.2757155061645684,0.7921289683118871,-4.681972762846218e-05,1.253207842560925e-05,6.337031746495097e-06,3.733770240495699e-06,3.651293849756273e-06
34.55585959552487,31.01193244351018,12.5,0,-14.43810387068402,-1.450559259391785,0.1999227060077109,-4.504148497867544e-05,6.908693466493504e-06,1.599381648061687e-06,2.767265809093173e-06,2.890598538873531e-06
51.02611906908533,25.26505059095044,12.5,0,-13.52348123506131,-0.3575939585178642,1.055820297472543,-4.298906478538188e-05,9.674484320791879e-06,8.446562379780343e-06,3.151816416492022e-06,3.401688994894234e-06
34.23047487417625,45.79306016250602,12.5,0,-12.99081438836894,-1.074728803420217,0.4663753302852265,-4.071082300004442e-05,6.953519339750455e-06,3.731002642281812e-06,2.607595800905124e-06,2.376129288932239e-06
50.54564716854125,37.30705862421248,12.5,0,-11.71497378895641,0.1261930819802779,1.400151595061898,-3.758887059024472e-05,9.775796893502015e-06,1.120121276049519e-05,3.055496593141856e-06,2.973933491313988e-06
295.1356654811275,63.16104421227638,12.5,0,-9.689442487129341,0.5950097027584618,-2.739608178873087,-3.148222372102065e-05,9.655585038530548e-06,-2.191686543098469e-05,3.363440923500641e-06,3.331335683813831e-06
300.2850072395177,61.59660746123653,12.5,0,-9.497969776615923,0.3421760191548744,-2.440837967730548,-3.066724410049485e-05,8.693339082588335e-06,-1.952670374184438e-05,3.02694464513498e-06,3.281688088303703e-06
296.5817001987872,68.89121947999453,12.5,0,-8.521367926700604,0.9839630945634918,-3.001348879532503,-2.805554784109272e-05,9.965776243963656e-06,-2.401079103626002e-05,3.610397917525689e-06,3.330087550642226e-06
301.504976158355,67.85052104529274,12.5,0,-8.40301075453073,0.6865117476449063,-2.664317786113979,-2.743884381261425e-05,8.919246196088283e-06,-2.131454228891183e-05,3.180463478902552e-06,3.276877308792484e-06
292.6310598806773,53.23608951249231,12.5,0,-11.75043422914437,0.4047034163008676,-2.384165277103042,-3.792515226630269e-05,1.069539831547828e-05,-1.907332221682433e-05,3.494520839590855e-06,3.537341028031765e-06
298.1719590884746,50.76451138770064,12.5,0,-11.37006227258424,0.2351725631622688,-2.052280149041264,-3.657233732279937e-05,9.84860202018665e-06,-1.641824119233011e-05,3.203438068494849e-06,3.511281757278546e-06
294.0770945983371,58.96626478021045,12.5,0,-10.54598539931803,0.7840002826330683,-2.620101086952975,-3.437435350392415e-05,1.094558922388024e-05,-2.09608086956238e-05,3.597929559051768e-06,3.386869085707172e-06
299.3919280073119,57.01842497175685,12.5,0,-10.22293538129365,0.5797426666051524,-2.253563840633844,-3.31771873534238e-05,1.003352483817141e-05,-1.802851072507075e-05,3.252158308355047e-06,3.344496570975851e-06
302.2281788280279,48.95519062555424,12.5,0,-12.22794077914658,0.1888218383873692,-2.438405137802656,-3.928046796397893e-05,1.038658250615684e-05,-1.950724110242125e-05,3.477181844405369e-06,3.514052339566146e-06
307.7690780358253,46.48361250076255,12.5,0,-11.79830259553588,0.1368858130585924,-2.069919830792883,-3.786407695616169e-05,9.876676678216199e-06,-1.655935864634307e-05,3.241502886682398e-06,3.54768098189596e-06
303.2826560962806,55.5925072670242,12.5,0,-10.80171068878597,0.5792751168256971,-2.608178188832178,-3.502889429757565e-05,1.0495048924871e-05,-2.086542551065743e-05,3.500287717893388e-06,3.325348015877614e-06
308.5974895052555,53.64466745857061,12.5,0,-10.43408042022254,0.501590429115268,-2.210599755470867,-3.379032968800434e-05,9.952353709346889e-06,-1.768479804376694e-05,3.227278967091247e-06,3.315405705186792e-06
304.0545870320352,60.45136027429606,12.5,0,-9.942240385847668,0.3531535646903405,-2.841609291756186,-3.209769208646481e-05,9.083883715687224e-06,-2.273287433404949e-05,3.291068117675047e-06,3.253737746265938e-06
309.2039287904254,58.88692352325622,12.5,0,-9.71240439651852,0.2222357658331404,-2.518808280728771,-3.125748268152577e-05,8.481077967880865e-06,-2.015046624583017e-05,3.02261799727892e-06,3.227023587236719e-06
305.1090643002879,67.08867691576602,12.5,0,-8.587728545277859,0.735377990689059,-3.031379609339723,-2.806903373744039e-05,9.223392406427274e-06,-2.425103687471778e-05,3.444385880377219e-06,3.246799175023352e-06
310.0323402598556,66.04797848106426,12.5,0,-8.43270724945384,0.5722218250660451,-2.677920611046219,-2.744244065830512e-05,8.577275639774415e-06,-2.142336488836975e-05,3.109407886184985e-06,3.217834427215476e-06
325.7765871637951,105.8321125601816,12.5,0,-1.079099763539754,0.1820673971162776,-3.814881464581733,-3.598773161020234e-06,1.445895481603891e-06,-3.051905171665386e-05,5.632721138515072e-06,5.457604435533956e-06
329.1196478297807,108.6072401626685,12.5,0,-1.070064814530639,0.3624312944575148,-3.856646657197433,-3.714152442064057e-06,2.015831993888558e-06,-3.085317325757946e-05,6.0037602918825e-06,5.937266889643123e-06
322.5351575975711,109.6076964313669,12.5,0,-0.9667788212005126,0.4073181204385815,-3.703782825003417,-3.419546724192505e-06,2.076841042363871e-06,-2.963026260002733e-05,5.946094420292718e-06,6.355589280193073e-06
325.4504822564625,112.2892734201373,12.5,0,-0.9616746047368612,0.5949263439502023,-3.754163216495351,-3.553299810318117e-06,2.673103984430136e-06,-3.003330573196281e-05,6.371776529872767e-06,6.942287218061628e-06
319.9862362376271,101.0254505552739,12.5,0,-1.911335993892217,0.3895268677844123,-3.800118809440514,-6.427896674682622e-06,2.775554772023892e-06,-3.040095047552411e-05,5.024990034885378e-06,4.796776614285755e-06
323.3292969036126,103.8005781577608,12.5,0,-1.970636383920833,0.5061532742917669,-3.801142872751715,-6.710959047980078e-06,3.19619958487032e-06,-3.040914298201372e-05,5.138126495078288e-06,5.152010987285911e-06
317.4856671679036,104.9630688424924,12.5,0,-1.726652837283382,0.5491204175081295,-3.691898585670122,-5.964585413313324e-06,3.138507605852719e-06,-2.953518868536098e-05,5.254806394557405e-06,5.516662517298979e-06
320.400991826795,107.6446458312628,12.5,0,-1.800393178205677,0.6701637400572218,-3.697989958104087,-6.297389162303942e-06,3.584838510747651e-06,-2.95839196648327e-05,5.377545352818787e-06,5.973594292925749e-06
324.3173489141454,94.20529562112166,12.5,0,-2.991140063585788,0.2545963648783212,-3.732598747147563,-9.775325295377176e-06,3.207620418479258e-06,-2.98607899771805e-05,4.031486127772325e-06,3.92753132773139e-06
328.4012700766316,97.1424576396418,12.5,0,-3.058026719643856,0.4182285960794861,-3.724530614971605,-1.012026837972393e-05,3.78475288316944e-06,-2.979624491977284e-05,4.169466462685479e-06,4.125411935880017e-06
321.816779844422,98.14291390834015,12.5,0,-2.783708720229494,0.431222207801648,-3.612535600356986,-9.252845670975696e-06,3.606878041148868e-06,-2.890028480285588e-05,4.16785456187491e-06,4.370970195387261e-06
325.4729649998139,100.9865253131438,12.5,0,-2.864430578337643,0.6019789572788737,-3.608465942164026,-9.647761016503555e-06,4.21787712596251e-06,-2.886772753731221e-05,4.324824596877366e-06,4.65679201726547e-06
331.3909078615501,99.29260946716869,12.5,0,-2.098572195063901,0.02673342152253677,-3.763832307533764,-6.736817761422514e-06,1.764404704923239e-06,-3.011065846027011e-05,4.352952465410746e-06,4.307318854373931e-06
335.4748290240362,102.2297714856888,12.5,0,-2.095112725556685,0.2721128981866785,-3.801980150106937,-6.922051040330734e-06,2.546851454642719e-06,-3.04158412008555e-05,4.715702915866221e-06,4.606417189820099e-06
328.1494782953261,103.0681933383539,12.5,0,-1.951545133483825,0.2811032641248055,-3.633790671815358,-6.469827038448083e-06,2.460766551986437e-06,-2.907032537452286e-05,4.575351962703094e-06,4.908772029072247e-06
331.805663450718,105.9118047431576,12.5,0,-1.953187230367255,0.5368734486545684,-3.679758575188806,-6.679697896098871e-06,3.280544819988422e-06,-2.943806860151044e-05,5.000646571036739e-06,5.311372401971221e-06
416.6062564409625,169.0571089310498,12.5,0,5.786056518972294,-0.5560766227088192,-2.744191631858927,1.896024215887839e-05,-6.408290407846056e-06,-2.195353305487141e-05,2.166056786752409e-05,2.107224577621824e-05
424.6284491534723,174.4648283925881,12.5,0,5.178657996149142,-0.4430257411681986,-2.438424968493602,1.692612618061181e-05,-5.560608768657549e-06,-1.950739974794881e-05,1.952685435601103e-05,2.215523474240536e-05
413.4793812001554,180.3683570553823,12.5,0,6.930991265958974,-0.188075663462977,-2.509447666182267,2.232963258183909e-05,-6.146635135848705e-06,-2.007558132945814e-05,2.680303745666103e-05,2.559042540704117e-05
422.5243707253453,184.3863265307983,12.5,0,6.562761122668368,-0.02083030899710669,-2.186299323483801,2.101749983973646e-05,-5.316865886925435e-06,-1.74903945878704e-05,2.573952591005329e-05,2.606103167083279e-05
430.5011018068887,178.4235537913448,12.5,0,6.301355332119276,-0.2120448965939699,-2.549204252294242,2.033397298005686e-05,-5.719627934796124e-06,-2.039363401835394e-05,2.440924626687528e-05,2.281978085005431e-05
438.5232945193986,183.8312732528831,12.5,0,5.602635032357615,-0.2330627321216399,-2.179142958530207,1.811488228924168e-05,-5.227908768675339e-06,-1.743314366824166e-05,2.151886396497238e-05,2.355236561401342e-05
429.1457626114311,187.3276843299385,12.5,0,7.185717513766748,0.02778952876737018,-2.449753290221558,2.297206442103969e-05,-5.659647518957813e-06,-1.959802632177246e-05,2.836278145962247e-05,2.623680463939703e-05
438.1907521366209,191.3456538053544,12.5,0,6.772671244086506,0.06668518520886391,-2.094327938689778,2.161919983290973e-05,-5.20474440260084e-06,-1.675462350951822e-05,2.674451262188209e-05,2.624641905634055e-05
428.1535854589087,193.8459602811376,12.5,0,7.469647917299025,-0.3071955155280297,-2.058966151841812,2.41486297477793e-05,-6.958743983528914e-06,-1.647172921473449e-05,2.825065403363326e-05,2.872271706341787e-05
437.9473142167678,196.846562156937,12.5,0,7.127123013729893,-0.2052547619996614,-1.601491057522485,2.297099745353538e-05,-6.358513649382829e-06,-1.281192846017988e-05,2.706688816577274e-05,2.821468915743367e-05
426.7982462634509,202.7500908197312,12.5,0,8.35705036917212,-0.06568670091514583,-1.956952850417824,2.67951105420829e-05,-6.895837738266162e-06,-1.565562280334259e-05,3.228817956041801e-05,3.20973323199555e-05
437.6147718339899,204.3609427094083,12.5,0,8.225684011768067,0.07649055383497005,-1.519070959329026,2.626099639458984e-05,-6.335777437142549e-06,-1.215256767463221e-05,3.206836434332534e-05,3.089804963454026e-05
411.1903496550528,188.6487653790599,12.5,0,7.617864607874356,-0.411357427836291,-2.219615921123023,2.470625268746697e-05,-7.410635455375614e-06,-1.775692736898419e-05,2.857957317714516e-05,2.897457162757752e-05
420.984078412912,191.6493672548593,12.5,0,7.300640669797096,-0.2260890602372063,-1.777412286107361,2.354292139154047e-05,-6.563997528596737e-06,-1.421929828885888e-05,2.773104136258364e-05,2.892632695762914e-05
408.0634744142458,199.9600135033924,12.5,0,8.823652288394358,-0.04128976077565349,-1.997222874116299,2.826871913148247e-05,-7.191049065197576e-06,-1.597778299293039e-05,3.414946820726992e-05,3.370205141189514e-05
418.8799999847849,201.5708653930694,12.5,0,8.708801534372801,0.1876474170498561,-1.550365380979444,2.771804697635307e-05,-6.366569492938701e-06,-1.240292304783555e-05,3.425837272097399e-05,3.28486623317498e-05
441.5412749277056,4.526677746076436,12.5,0,-10.74189736048327,-0.1537521168531013,-0.9334571637737419,-3.425106986006398e-05,8.101511114456689e-06,-7.467657310189935e-06,2.587787004543783e-06,2.6914256880507e-06
457.9533200654211,4.736498744525238,12.5,0,-10.72469513008479,-0.0265226122725184,-0.4771242713563236,-3.429780632645331e-05,8.494883744795771e-06,-3.816994170850589e-06,2.606898068373487e-06,2.456882131861138e-06
438.8912023536627,16.89379133837441,12.5,0,-9.717066794181676,0.1244823020467352,-0.8104604157124871,-3.119419958301874e-05,8.171996801894892e-06,-6.483683325699896e-06,2.487908727905003e-06,2.565416723346399e-06
454.2552353773452,17.67685396510454,12.5,0,-9.747805253573507,0.2456481975258504,-0.3341136291764354,-3.13894953694559e-05,8.584318434941526e-06,-2.672909033411483e-06,2.521840460599e-06,2.367250432039684e-06
436.951214585801,25.94714683052729,12.5,0,-8.875866050534631,-0.2073649870355219,-2.023580410103813,-2.82368793720824e-05,6.437124881914034e-06,-1.61886432808305e-05,2.407485328461978e-06,2.483771459829585e-06
451.5480494950962,27.14985145415501,12.5,0,-8.927138345704829,-0.07555510547727717,-1.619463615745281,-2.850639862187363e-05,6.899934339036577e-06,-1.295570892596225e-05,2.362244304480687e-06,2.314583615200353e-06
434.3011420117581,38.31426042282528,12.5,0,-7.831218719616828,0.08326573574420593,-1.885258664494635,-2.512651249136921e-05,6.531425330074921e-06,-1.508206931595708e-05,2.318674780772132e-06,2.386721416399117e-06
447.8499648070203,40.0902066747343,12.5,0,-7.941011140159982,0.2079833311025783,-1.463043171420455,-2.5577622313394e-05,7.018355571656235e-06,-1.170434537136364e-05,2.273295836695629e-06,2.260326895537713e-06
411.668754893661,23.86400131594353,12.5,0,-10.29908782802276,-0.1294253018209268,-1.973028131691946,-3.285354080821609e-05,7.825109296591241e-06,-1.578422505353556e-05,2.732164993470956e-06,2.823078808378682e-06
426.2655898029562,25.06670593957123,12.5,0,-10.41579860314773,-0.1671651539913155,-1.451957281964964,-3.319682340687969e-05,7.797710389745977e-06,-1.161565825571971e-05,2.598619396479681e-06,2.620022336192586e-06
410.8338925480385,35.23823128306259,12.5,0,-9.070526160979355,0.1771590887498005,-1.942238276799715,-2.916741098613377e-05,7.823330012782844e-06,-1.553790621439772e-05,2.646928967144327e-06,2.636462207378149e-06
424.3827153433006,37.01417753497162,12.5,0,-9.266912980456278,0.1189396771950477,-1.386876258268043,-2.974927327921613e-05,7.794137351389174e-06,-1.109501006614434e-05,2.489736023626835e-06,2.487506569448453e-06
413.1147788935794,4.163257116274821,12.5,0,-12.52764048295731,-0.09722807255998811,-0.9602881731155964,-4.001066708741541e-05,9.710982554173887e-06,-7.682305384924771e-06,3.047144876667828e-06,3.131115015929692e-06
429.5268240312948,4.373078114723615,12.5,0,-12.55482391400259,-0.1271201431236406,-0.3434764110679645,-4.007374041030938e-05,9.637074673206423e-06,-2.747811288543716e-06,2.984878103914106e-06,2.872085844841753e-06
412.2799165479569,15.53748708339389,12.5,0,-11.25137192973884,0.2205230626796437,-0.9323212114199677,-3.618080862530801e-05,9.706771344365935e-06,-7.458569691359742e-06,2.925575456199615e-06,2.955620628959729e-06
427.6439495716393,16.32054971012399,12.5,0,-11.34664431828601,0.1722490656338014,-0.2788238754266345,-3.644706107102226e-05,9.628512464656969e-06,-2.230591003413076e-06,2.86188076166656e-06,2.72307004245676e-06
339.626036805656,153.4527364603142,12.5,0,5.855380004766256,-0.2505105837482835,-3.08802688728341,1.893762448225064e-05,-5.485937871807511e-06,-2.470421509826728e-05,2.304174836784302e-05,2.317434564402431e-05
342.7416212294028,150.2475965977081,12.5,0,5.756180664848375,-0.4201560785398115,-3.169711045779964,1.875590299034665e-05,-5.949443983206096e-06,-2.535768836623971e-05,2.22689826274814e-05,2.118545844107049e-05
342.9724668528669,158.1261739994536,12.5,0,5.803653199092796,-0.09161734691237644,-3.157818076938179,1.864498411462685e-05,-4.936098069393841e-06,-2.526254461550543e-05,2.336513172308487e-05,2.469695629824914e-05
346.3935996214175,155.3964697223596,12.5,0,5.708481718411972,-0.2764395447172103,-3.233759427001971,1.848829313469207e-05,-5.451391917824649e-06,-2.587007541601577e-05,2.255503601847905e-05,2.298318999786506e-05
345.4222236712961,161.5473677239578,12.5,0,6.741321925435416,-0.3137959987229584,-2.82736883763275,2.182326696037169e-05,-6.397204736261798e-06,-2.2618950701062e-05,2.592614514047316e-05,2.584712435267481e-05
349.0670333524024,159.1657064511701,12.5,0,6.710257106764359,-0.4900109802853718,-2.863446130087113,2.186483152587424e-05,-6.936240822324677e-06,-2.29075690406969e-05,2.533024556357399e-05,2.430871284967132e-05
348.768653718507,166.2208052630972,12.5,0,6.816978457896089,-0.1238882658686633,-2.930960124192337,2.191344167796241e-05,-5.850025217096592e-06,-2.344768099353869e-05,2.682611234522555e-05,2.746683126051713e-05
352.7190117444171,164.3145795758215,12.5,0,6.778909436016078,-0.3182714119129653,-2.95791653502468,2.194712732478182e-05,-6.441596066934351e-06,-2.366333228019744e-05,2.613952040539325e-05,2.613237707075899e-05
339.1092281198147,165.6725260547713,12.5,0,7.466370230423765,-0.2787352066761377,-2.719666169525643,2.411537290269696e-05,-6.865048845702652e-06,-2.175732935620514e-05,2.866021757291814e-05,2.870683064743252e-05
342.7540378009209,163.2908647819835,12.5,0,7.427116198739514,-0.4632635731498453,-2.761122004413282,2.413738269448632e-05,-7.424136393071115e-06,-2.208897603530626e-05,2.800326247262486e-05,2.702559646476519e-05
341.926432909666,169.5224850040923,12.5,0,7.520344586871273,-0.112981349461827,-2.806566258699381,2.415548775755753e-05,-6.377815987774864e-06,-2.245253006959505e-05,2.939798655533891e-05,2.998937292945003e-05
345.8767909355761,167.6162593168166,12.5,0,7.475048379311722,-0.3165178707033309,-2.839034686095336,2.417336911036017e-05,-6.992895889700035e-06,-2.271227748876269e-05,2.865288383448505e-05,2.850031018603142e-05
334.2296862885534,159.0042015476125,12.5,0,6.774161255316618,-0.132979735487843,-3.013344338382277,2.178369980540345e-05,-5.844864157814392e-06,-2.410675470705822e-05,2.669647780057325e-05,2.663612954683415e-05
337.3452707123002,155.7990616850064,12.5,0,6.655890777949248,-0.2529235636148737,-3.084861042052362,2.150118934032949e-05,-6.134068025926993e-06,-2.467888833641889e-05,2.596249942162865e-05,2.463484856497588e-05
337.0468910784048,162.8541604969336,12.5,0,6.67135260502724,-0.06668336797168894,-3.028690686790502,2.140167503046452e-05,-5.550468861531196e-06,-2.422952549432401e-05,2.65208256119837e-05,2.780833179106355e-05
340.4680238469555,160.1244562198395,12.5,0,6.563102104401877,-0.1944603681061501,-3.099088266850187,2.115749502857092e-05,-5.872754861461181e-06,-2.47927061348015e-05,2.580015227935255e-05,2.598984914506209e-05
153.535009779911,410.0336622912011,12.5,0,0.4309082037227784,1.84287223409852,-1.155271764825007,-9.539153536592529e-08,5.552464586137041e-06,-9.242174118600056e-06,8.927918366914761e-06,9.106330123499702e-06
161.6286553700413,413.8606793260245,12.5,0,0.335590389214256,1.659394237817297,-1.083245624504541,-2.536261447682186e-07,5.041589249643946e-06,-8.665964996036329e-06,7.911262703655486e-06,8.377495261647546e-06
148.9006885343525,419.2907995571028,12.5,0,0.5271929315688484,1.781662142117637,-1.201066908433908,2.616876673262057e-07,5.279564509521357e-06,-9.608535267471263e-06,9.04724921980512e-06,8.617072643406848e-06
157.5476087852213,423.2983003431319,12.5,0,0.4383178871529168,1.608933297845788,-1.133728475428051,1.15470600612703e-07,4.797932243384188e-06,-9.069827803424404e-06,8.092454725811184e-06,7.902116597751348e-06
167.5536151602206,416.6622502368278,12.5,0,0.2605163733904633,1.678202892490986,-0.8829076514281315,-5.089099191433057e-07,5.161836157258782e-06,-7.063261211425052e-06,7.591785812871314e-06,7.820995783736752e-06
175.6472607503509,420.4892672716512,12.5,0,0.1632567469494037,1.486176661959659,-0.8095217104137563,-6.665197393296356e-07,4.625159920711387e-06,-6.476173683310051e-06,6.53686274918792e-06,7.02944579748642e-06
163.8775937375843,426.2319945297528,12.5,0,0.3640393453622883,1.633080331641501,-0.9392047018987564,-1.415383601538784e-07,4.934625584962973e-06,-7.513637615190051e-06,7.790526300598031e-06,7.356268411660144e-06
172.5245139884531,430.2394953157818,12.5,0,0.2734667445071693,1.452564637166311,-0.8707164267633868,-2.869581273101066e-07,4.429433443326458e-06,-6.965731414107094e-06,6.79958236178341e-06,6.579939479631765e-06
161.1865592866174,433.2375335673183,12.5,0,0.2552109095622059,1.48815595683843,-0.8343699026981816,-3.738498548716853e-07,4.557930334233212e-06,-6.674959221585453e-06,6.844643481924399e-06,7.032262912251097e-06
170.23850469967,437.3771576291649,12.5,0,0.164071448274023,1.304204460933337,-0.7653956495946969,-5.183349342697957e-07,4.042197116367458e-06,-6.123165196757575e-06,5.842354892673267e-06,6.266979880196939e-06
157.5105378639813,442.8072778602432,12.5,0,0.3433340820774358,1.448752630488773,-0.8832883139363897,-6.033304174322396e-08,4.361341151902126e-06,-7.066306511491118e-06,7.013320462059201e-06,6.611790797972824e-06
167.1157579377723,447.1273856732955,12.5,0,0.2578028545880562,1.27478902364325,-0.8184494456782313,-1.948620842328203e-07,3.873082591987955e-06,-6.547595565425851e-06,6.066216460902232e-06,5.861464671642895e-06
145.5081299241521,426.067494368094,12.5,0,0.4193806084411065,1.64502343577765,-1.094625210792559,2.599919838942096e-08,4.928570507735594e-06,-8.757001686340471e-06,8.129563586885907e-06,8.273424948370712e-06
154.5600753372046,430.2071184299407,12.5,0,0.3310024222500028,1.468212286719436,-1.027684681486065,-1.153620781755396e-07,4.433477379702191e-06,-8.221477451888519e-06,7.164189233316313e-06,7.569888247908935e-06
140.8738086785937,435.3246316339958,12.5,0,0.4985141536963815,1.590406325886231,-1.135491095908241,3.22920231119436e-07,4.690488919878833e-06,-9.08392876726593e-06,8.217158631516031e-06,7.823819465680993e-06
150.4790287523847,439.6447394470481,12.5,0,0.415478844231265,1.422993006468594,-1.072481780146294,1.911378963651728e-07,4.221194545314488e-06,-8.579854241170355e-06,7.305388764901579e-06,7.13760218028231e-06
82.79140122072853,110.7267679562719,12.5,0,-3.10848813013996,-0.938981991852349,1.546430925603673,-9.195976422965993e-06,-5.179518698155485e-07,1.237144740482938e-05,8.760382701096771e-07,9.906215650117188e-07
88.24739770096251,110.8151854260291,12.5,0,-3.146729416981818,-1.042295290590953,1.853426420488719,-9.235697901869054e-06,-8.17961396305594e-07,1.482741136390975e-05,1.047618017739486e-06,1.050612036610416e-06
84.25333519160694,116.1411907762435,12.5,0,-2.355641226533415,-0.7276361057025666,1.436555843488424,-6.955943040344874e-06,-4.439225570214813e-07,1.149244674790739e-05,8.40700475830955e-07,9.166611384824148e-07
89.55425617738898,115.7719304669351,12.5,0,-2.3242551627484,-0.8119930680820229,1.735310653788451,-6.788022066329263e-06,-7.389736876637528e-07,1.38824852303076e-05,1.047732920059284e-06,9.945341298100019e-07
92.24146433024094,110.8799115061653,12.5,0,-2.990146776900004,-0.7861409456467605,1.644604710980995,-8.939556929562604e-06,-1.235336045496305e-07,1.315683768784796e-05,9.93283171301356e-07,1.10772858566282e-06
97.69746081047492,110.9683289759225,12.5,0,-3.02223561271538,-0.8633814747450987,1.960468720715211,-8.980448780893136e-06,-3.450322290120118e-07,1.568374976572169e-05,1.198743910950209e-06,1.203783428034927e-06
93.43479966572457,115.5016131593143,12.5,0,-2.340066565001937,-0.6098854334172489,1.560736139208076,-7.0003046612724e-06,-7.95801349336465e-08,1.248588911366461e-05,9.892735918353393e-07,1.065016942752789e-06
98.73572065150663,115.132352850006,12.5,0,-2.300509421797727,-0.6682212089362399,1.86972434655024,-6.827053182603735e-06,-2.979003311577859e-07,1.495779477240192e-05,1.237314172826033e-06,1.179706577453456e-06
94.3083817617287,118.8849335867007,12.5,0,-1.947595103201947,-0.876795043746266,1.578806609234561,-5.530868295249218e-06,-1.247668057426493e-06,1.263045287387649e-05,9.084377657788114e-07,1.086901556545353e-06
99.49577960656791,118.1806298896353,12.5,0,-1.850313358216594,-0.8816460089235861,1.867398351449994,-5.215685939154232e-06,-1.3410165419822e-06,1.493918681159995e-05,1.192660387881627e-06,1.209067321677453e-06
95.50171709721232,123.5066352398497,12.5,0,-1.321255730180134,-0.7141292491832132,1.508897268661423,-3.656714937229857e-06,-1.228209013242175e-06,1.207117814929138e-05,9.982162140981057e-07,1.189403076243233e-06
100.5340394475996,122.3446537637188,12.5,0,-1.153037765746499,-0.7007892281614811,1.791875942773754,-3.129089467859611e-06,-1.32009531751954e-06,1.433500754219003e-05,1.39087563662642e-06,1.313359217230329e-06
85.32354513555534,120.1048233739545,12.5,0,-1.90184874477119,-1.044715541584619,1.464826023150081,-5.250143550000111e-06,-1.821610737253829e-06,1.171860818520065e-05,7.594647235981392e-07,9.281806828935351e-07
90.51094298039455,119.4005196768892,12.5,0,-1.813692535589481,-1.072143688324751,1.742059392568421,-4.946101163226537e-06,-1.979905774167617e-06,1.393647514054737e-05,1.001455521443309e-06,1.011638208520852e-06
86.78547910643373,125.519246193926,12.5,0,-1.181560094851196,-0.8518162434916492,1.373238507068778,-3.099539308730509e-06,-1.78056390329232e-06,1.098590805655022e-05,8.328324191512926e-07,1.033613090035404e-06
91.81780145682102,124.3572647177952,12.5,0,-1.025240094347655,-0.8613184913958004,1.64366358571489,-2.591713508795856e-06,-1.936027096988437e-06,1.314930868571912e-05,1.177519951748026e-06,1.114445327377951e-06
424.8103359402104,70.04456820157903,12.5,0,-4.299649871617754,-0.321608401329435,-3.45405543713398,-1.350159286811326e-05,2.410573013040011e-06,-2.763244349707184e-05,2.830064542296002e-06,2.606950348214096e-06
437.2209020901397,75.00842646042224,12.5,0,-4.549623110782152,-0.1183673111439878,-3.195763964820386,-1.446410010558769e-05,3.26092309296496e-06,-2.556611171856309e-05,2.696529403833845e-06,2.742620884360638e-06
420.7490858570639,83.0105557505897,12.5,0,-3.35189660891804,0.01102472219018014,-3.223524422329678,-1.073488892628987e-05,2.716796398143009e-06,-2.578819537863743e-05,3.005350700131335e-06,2.909599383843336e-06
432.7999617421343,89.39385291848509,12.5,0,-3.691724358992106,0.1811403412445565,-2.988831919737491,-1.195843022177038e-05,3.533028579176265e-06,-2.391065535789993e-05,2.815469273237356e-06,3.226703598123286e-06
403.3146048182247,61.44691349584667,12.5,0,-5.775967880283137,-0.3330033099911502,-3.271443692461735,-1.821669456891312e-05,3.555163712254828e-06,-2.617154953969388e-05,2.605706087730903e-06,2.536227660134386e-06
415.725170968154,66.41077175468989,12.5,0,-6.04488502316217,-0.2199422252104575,-3.003083554178643,-1.916767829395058e-05,4.132092897856271e-06,-2.402466843342914e-05,2.486511462939654e-06,2.551647450461137e-06
399.8763565487906,71.95436073618305,12.5,0,-5.007343723267565,-0.08474682808814471,-3.110385196380342,-1.595570245198569e-05,3.734685128731988e-06,-2.488308157104274e-05,2.626022729901022e-06,2.642707212333819e-06
411.9272324338609,78.33765790407844,12.5,0,-5.363277273951229,-0.001101349096963578,-2.862386855747077,-1.716160619736636e-05,4.287097502050699e-06,-2.289909484597661e-05,2.484372767443652e-06,2.753118023893223e-06
409.2698255098133,43.2474810180617,12.5,0,-8.050692057775667,-0.3427050572452826,-2.772675870007333,-2.548805053908591e-05,5.343897463035629e-06,-2.218140696005867e-05,2.51111786417292e-06,2.553172360738647e-06
422.303393473455,45.75279896823061,12.5,0,-8.173817131759076,-0.1035454633451258,-2.412795253763568,-2.607337845095294e-05,6.207708222702858e-06,-1.930236203010854e-05,2.493835650109272e-06,2.447223322607958e-06
405.8315772403791,53.75492825839808,12.5,0,-7.108927529174679,-0.02716817422424866,-2.561824605123894,-2.272683355397957e-05,5.600203865822146e-06,-2.049459684099115e-05,2.444092326757932e-06,2.512236868955765e-06
418.505454939162,57.67968511761914,12.5,0,-7.341262763328269,0.1735416752761076,-2.228963639882144,-2.363087418287134e-05,6.428343571546159e-06,-1.783170911905715e-05,2.43493063739803e-06,2.469683212285342e-06
431.8446274263372,47.58681899679059,12.5,0,-6.762423612308409,-0.3168147025603758,-2.892682732060365,-2.138630379733861e-05,4.396131841653524e-06,-2.314146185648292e-05,2.419834592089106e-06,2.381835347049054e-06
444.878195389979,50.09213694695949,12.5,0,-6.881343676723189,-0.1544733673212197,-2.575528892458219,-2.189672107165723e-05,5.010760165950648e-06,-2.060423113966575e-05,2.340853651881089e-06,2.30914111374115e-06
427.7833773431906,60.55280654580127,12.5,0,-5.774917858384813,-0.004013189919298998,-2.694567241022055,-1.847652659489596e-05,4.607092078966093e-06,-2.155653792817644e-05,2.38457035642785e-06,2.46553640076528e-06
440.4572550419734,64.47756340502235,12.5,0,-5.989135839956978,0.1270388230538604,-2.398412567703064,-1.926686574630542e-05,5.197832905737935e-06,-1.918730054162451e-05,2.298299280144821e-06,2.496760757673002e-06
371.9160106309882,139.3605492881192,12.5,0,2.884032489379746,-0.3253030857899177,-3.338174941812726,9.48914643464712e-06,-3.348195866031533e-06,-2.670539953450181e-05,1.282736570475467e-05,1.371885433874842e-05
380.3932546496419,135.885332523688,12.5,0,3.08849225922888,-0.5616727060015206,-3.128158650744568,1.033251339433363e-05,-4.26814646658797e-06,-2.502526920595654e-05,1.261342569327574e-05,1.211251969969449e-05
375.0908367674995,146.9950447293265,12.5,0,3.611300457621356,-0.02232990253408618,-3.563087860027623,1.157402538641561e-05,-2.96049605420616e-06,-2.850470288022098e-05,1.627561347203911e-05,1.644534837434651e-05
384.2907738064073,144.6143222190327,12.5,0,3.71538664759013,-0.2931828955139815,-3.32826042445455,1.21237835886996e-05,-3.910494583716844e-06,-2.66260833956364e-05,1.56167984893635e-05,1.502320879873042e-05
386.5990279791919,133.3412972849173,12.5,0,1.972466559672794,-0.3415632843139516,-3.354878181238356,6.585143618404101e-06,-2.67097575754288e-06,-2.683902544990685e-05,1.006751618147241e-05,1.089837619926802e-05
395.0762719978457,129.866080520486,12.5,0,2.1609988031299,-0.5793301019087561,-3.159638309886997,7.378660251542685e-06,-3.582655368611939e-06,-2.527710647909598e-05,9.767369643405941e-06,9.187609107336282e-06
391.0255951450363,142.8715123828489,12.5,0,2.81342527553008,0.0322067535882401,-3.634589486627208,8.977195478825664e-06,-2.147678608941696e-06,-2.907671589301767e-05,1.392705575484139e-05,1.386501815983481e-05
400.225532183944,140.4907898725551,12.5,0,2.908327453157542,-0.2412039062181274,-3.412996847748336,9.499610975078634e-06,-3.09851446242404e-06,-2.730397478198669e-05,1.321832879950834e-05,1.212292206500289e-05
394.2660672134126,149.8481140412981,12.5,0,3.783314308566557,-0.3146268644783643,-3.028269707021323,1.235830727899567e-05,-4.03345741318401e-06,-2.422615765617058e-05,1.544955286896398e-05,1.609482468132131e-05
403.9950522613992,148.2686169335911,12.5,0,3.834518867189308,-0.6399593879070027,-2.72367926028417,1.278242788533139e-05,-5.115485135053855e-06,-2.178943408227336e-05,1.443916368448421e-05,1.449153383497081e-05
398.6926343792568,159.3783291392296,12.5,0,4.762987455170517,0.09887539412073787,-3.336259502522386,1.516245954124906e-05,-3.493988702950052e-06,-2.669007602017909e-05,2.033499631062525e-05,1.922012742876306e-05
409.1443124474974,158.8933262856602,12.5,0,4.711546294880786,-0.2635407249174,-3.005168235313148,1.528778072355243e-05,-4.612567355640309e-06,-2.404134588250518e-05,1.881433279788152e-05,1.802738857653731e-05
377.4149708045246,152.5838832822055,12.5,0,4.448997586982151,-0.3328549410825641,-3.051068661812398,1.450307623120893e-05,-4.624333881049925e-06,-2.440854929449918e-05,1.773736546438771e-05,1.849316026739225e-05
387.1439558525112,151.0043861744986,12.5,0,4.50571176449063,-0.6862738651624893,-2.717516942290062,1.49672967385e-05,-5.800645780112469e-06,-2.174013553832049e-05,1.666298692444784e-05,1.71670572522663e-05
380.5897969410359,160.2183787234127,12.5,0,5.322391212544696,0.01982632412510177,-3.31089551799596,1.701579082084295e-05,-4.194468732835431e-06,-2.648716414396768e-05,2.207764545512115e-05,2.136139236817675e-05
391.0414750092766,159.7333758698433,12.5,0,5.267285553511815,-0.3704918272343869,-2.951764619560653,1.715170723302532e-05,-5.39940228995949e-06,-2.361411695648522e-05,2.045979049717633e-05,2.011347105226735e-05
429.1289426897405,226.5961619724999,12.5,0,10.28097404459441,-0.09840985205358388,-0.6004963772281808,3.297784482434498e-05,-8.539690762246997e-06,-4.803971017825447e-06,3.923999398130313e-05,4.04802290856119e-05
440.3169708395627,227.0307882558145,12.5,0,10.22925921674497,-0.1393587560580163,-0.1729790445132237,3.28451164984303e-05,-8.629355392781625e-06,-1.38383235610579e-06,3.8891584020907e-05,3.866129247274248e-05
430.4762650545418,236.4084524251656,12.5,0,11.2444661099981,0.1457151562248997,-0.6595364693184804,3.5865719427014e-05,-8.5292843880788e-06,-5.276291754547843e-06,4.368468589845723e-05,4.376260432957147e-05
441.6629266967815,236.5249101867854,12.5,0,11.22528876098847,0.1131194791271573,-0.2356745788634044,3.583042845186138e-05,-8.618248675583873e-06,-1.885396630907235e-06,4.348455593532863e-05,4.164404808653799e-05
409.7507094980857,225.8433671675077,12.5,0,11.08813711180958,-0.1542361736776274,-0.5980404646225483,3.560542769673276e-05,-9.364065445216074e-06,-4.784323716980387e-06,4.217138748597368e-05,4.359626693346662e-05
420.9387376479079,226.2779934508224,12.5,0,11.04071214168334,-0.1710023891905976,-0.1528031679933568,3.546708076473915e-05,-9.379777358756581e-06,-1.222425343946855e-06,4.191394176124779e-05,4.180255150698998e-05
411.100398723449,236.2067416651078,12.5,0,12.1501390647482,0.1118363050144113,-0.6516565566313051,3.879097596318269e-05,-9.362235075752439e-06,-5.213252453050441e-06,4.705901391795219e-05,4.716147635283619e-05
422.2870603656887,236.3231994267277,12.5,0,12.13657265709616,0.1035710416762075,-0.2097674358913495,3.875417566936675e-05,-9.377830792313066e-06,-1.678139487130796e-06,4.69563681533375e-05,4.524099477777672e-05
407.4129791853705,207.8934760001233,12.5,0,9.401596581122007,-0.2212874079679819,-1.383187317787119,3.02621389859648e-05,-8.229396970395146e-06,-1.106549854229695e-05,3.563040505977647e-05,3.68818811299258e-05
418.6033741957547,208.8791863283723,12.5,0,9.295072186789572,-0.2399655248768902,-0.9209396936673999,2.993620341762814e-05,-8.203947429037705e-06,-7.3675175493392e-06,3.507297875470642e-05,3.560715793595275e-05
408.7626684107336,218.2568504977234,12.5,0,10.5041459565729,0.05342384999542382,-1.434202105912084,3.357052798103695e-05,-8.232360445272965e-06,-1.147361684729667e-05,4.06867066321981e-05,4.084185769505469e-05
419.9516969135352,218.9243923042777,12.5,0,10.43321298429412,0.04358440596822488,-0.9753045751328113,3.335141402496659e-05,-8.207100288336973e-06,-7.802436601062491e-06,4.029965740072179e-05,3.92211727052904e-05
426.7953118997729,209.6007763701652,12.5,0,8.806134670824751,-0.1151643376989795,-1.344232294857645,2.827176241679838e-05,-7.413433617296534e-06,-1.075385835886116e-05,3.366119901731408e-05,3.458912175528703e-05
437.985706910157,210.5864866984142,12.5,0,8.690003895361185,-0.1995051342617558,-0.9106770276026032,2.796761657256519e-05,-7.590419545926565e-06,-7.285416220820825e-06,3.287248784278954e-05,3.308251837961969e-05
428.1426342645741,219.413066822831,12.5,0,9.780221284160877,0.1347733580379593,-1.412991735859673,3.118888942288444e-05,-7.39290228160723e-06,-1.130393388687739e-05,3.815783891013713e-05,3.802220183812791e-05
439.3316627673756,220.0806086293852,12.5,0,9.697462113264393,0.05921030744609856,-0.9834690872807924,3.098451051648918e-05,-7.568496706783999e-06,-7.86775269824634e-06,3.752651588817501e-05,3.636723750187006e-05
201.8072479757029,394.4665975224642,12.5,0,0.05931034097513199,1.595908294927348,-0.4633792071186966,-1.086933544821456e-06,5.059458270987408e-06,-3.707033656949573e-06,6.419470547292276e-06,6.843273027531849e-06
209.4426776008398,396.6795531690183,12.5,0,-0.02578858571091752,1.367055280126718,-0.4008285475405526,-1.176167698376311e-06,4.395207764974232e-06,-3.206628380324421e-06,5.271007179905277e-06,5.92061326352394e-06
200.5099700434585,404.0575325467761,12.5,0,0.1749283102613895,1.590692894039293,-0.5579542534941772,-7.127837223949878e-07,4.950274612716625e-06,-4.463634027953418e-06,6.800304712346215e-06,6.253730061024927e-06
208.4669147877133,406.4612657678125,12.5,0,0.09229040558821006,1.371396409903785,-0.4971233844022661,-8.017878300407556e-07,4.314636187221543e-06,-3.976987075218129e-06,5.691229860634436e-06,5.353173183853976e-06
199.5602966855581,411.0785842763658,12.5,0,0.05891301549033512,1.365740821958328,-0.4191222453968875,-9.040710079975896e-07,4.323240217874379e-06,-3.3529779631751e-06,5.528785970056823e-06,5.862228659000584e-06
207.7526068323987,413.621976374862,12.5,0,-0.02298057245382823,1.150147845638328,-0.3588220485677041,-9.936561083629129e-07,3.698857564005712e-06,-2.870576388541633e-06,4.441273364787511e-06,4.980841568858043e-06
198.2630187533137,420.6695193006777,12.5,0,0.16011216755214,1.361080582609341,-0.502183161902801,-5.765055299206244e-07,4.227368130308177e-06,-4.017465295222408e-06,5.864076202539958e-06,5.38216990389708e-06
206.7768440192722,423.4036889736562,12.5,0,0.08051517375166672,1.153883866684639,-0.4434999114955823,-6.65458537342378e-07,3.628016234389512e-06,-3.547999291964659e-06,4.811329387129559e-06,4.531052759051695e-06
185.3707992801231,406.6732999382803,12.5,0,0.1465920438529686,1.647368525456294,-0.6685858728449164,-8.48800280035536e-07,5.154305646377767e-06,-5.348686982759332e-06,6.986268693748426e-06,7.337357308783469e-06
193.5631094269637,409.2166920367765,12.5,0,0.06939654839100995,1.450540787263464,-0.61047890700192,-9.383636749595396e-07,4.586213280530277e-06,-4.88383125601536e-06,5.983661633130399e-06,6.49365514844518e-06
183.516640826175,415.93379851065,12.5,0,0.2415579216675509,1.632168286026664,-0.7384727559857398,-5.327492794851683e-07,5.029692177951283e-06,-5.907782047885919e-06,7.265723134873593e-06,6.804039844325911e-06
192.0304660921335,418.6679681836285,12.5,0,0.1665640380310919,1.443219209258271,-0.6820370489273683,-6.21570445707123e-07,4.485050239201595e-06,-5.456296391418946e-06,6.298212317798535e-06,5.991214957783722e-06
188.582295927587,390.633645907805,12.5,0,0.1612873150649344,1.891043494250016,-0.735087919055024,-9.967153871922224e-07,5.922309329548103e-06,-5.880703352440192e-06,7.979389171098723e-06,8.38664490087098e-06
196.2177255527238,392.8466015543591,12.5,0,0.08280159358334505,1.684146358364129,-0.6764425494895852,-1.082351987224599e-06,5.323027071898535e-06,-5.411540395916681e-06,6.93417545192426e-06,7.504044213248023e-06
186.7281374736388,399.8941444801748,12.5,0,0.2650620449337349,1.873014839152937,-0.8142627654882039,-6.502133275343981e-07,5.781597849342411e-06,-6.514102123905631e-06,8.279463418369664e-06,7.761415055608934e-06
194.6850822178935,402.2978777012112,12.5,0,0.1889102301004427,1.675024506026209,-0.7573458881300373,-7.355068684995503e-07,5.208950235203514e-06,-6.058767105040298e-06,7.273805850279008e-06,6.899016525720401e-06
177.2479184236071,581.3274187286684,12.5,0,0.09281946997122827,0.1141060473283957,-0.05146844965572707,2.057374660452138e-07,2.908837754738838e-07,-4.117475972458166e-07,7.626202567063743e-07,1.032051985048671e-06
192.0764788360032,579.0951802655482,12.5,0,0.08814782253020997,0.1222101754164475,-0.06870697195646606,1.843048917635139e-07,3.205543033084639e-07,-5.496557756517285e-07,7.842293563595313e-07,7.276924765008129e-07
179.9373140390931,593.1979097721967,12.5,0,0.06257887870691861,0.1052229483084775,-0.04659346157183364,1.160740532153575e-07,2.866503316215931e-07,-3.727476925746691e-07,6.22664433946833e-07,6.884155277110451e-07
193.9148623212367,588.3174422419912,12.5,0,0.0487766288933914,0.1108497889501814,-0.06274890432692824,6.740538129870735e-08,3.156980215258674e-07,-5.01991234615426e-07,6.058255587846358e-07,5.356616657691419e-07
181.9060882711981,601.8877123264813,12.5,0,0.08327665044847916,0.06384417563724264,0.003914337309481377,2.154099409253392e-07,1.376800416803931e-07,3.131469847585102e-08,5.34369955078062e-07,4.841280641048697e-07
195.2606524361659,595.0686065691712,12.5,0,0.05468334399647418,0.07557919007360897,-0.01692586759751088,1.145233487298302e-07,1.981067330383693e-07,-1.35406940780087e-07,4.75290028613609e-07,4.18210921120559e-07
184.5954838866841,613.7582033700098,12.5,0,0.03680200933246601,0.04925790004220525,0.0130350136785369,7.836010983012701e-08,1.28183672669084e-07,1.042801094282952e-07,3.143843027413993e-07,2.696407914973174e-07
197.0990359213993,604.2908685456142,12.5,0,-0.006849966847625169,0.05673165514861248,-0.005443823804092849,-6.730521803129051e-08,1.8702126995366e-07,-4.355059043274279e-08,1.983144393902571e-07,2.893603300718612e-07
158.7753046249509,613.6987499601158,12.5,0,0.1267849462984341,0.008957951364041993,-0.02847255226809332,3.985454670637557e-07,-7.276251267381294e-08,-2.277804181447466e-07,5.196825239963998e-07,7.039384589594239e-07
172.1298687899187,606.8796442028057,12.5,0,0.09159445148685591,0.07217719978106381,-0.05371101978360941,2.353604849330878e-07,1.576914781099195e-07,-4.296881582688753e-07,6.102460871637733e-07,5.606885271217438e-07
162.9386964878652,630.1561082978342,12.5,0,0.01089930574010177,-0.03896835661572656,0.0120122511802606,6.605246366090691e-08,-1.334181857624064e-07,9.609800944208481e-08,2.148135155756871e-08,1.13858887268168e-07
175.4422485225805,620.6887734734388,12.5,0,-0.0481893606528065,0.01550332130995227,-0.005425526149990516,-1.666086111369426e-07,8.816211671409247e-08,-4.340420919992413e-08,2.511249951256435e-08,2.226153216290344e-07
151.5640983866942,585.1937691613327,12.5,0,0.1866319403010316,0.1211175134059007,-0.1498452897139227,5.003281982385807e-07,2.382704906580567e-07,-1.198762317711381e-06,1.182243009787244e-06,1.684553422051623e-06
166.3926587990902,582.9615306982124,12.5,0,0.1926713218725817,0.1825584181190094,-0.1710035815107305,4.705014954970538e-07,4.300498804827645e-07,-1.368028652085844e-06,1.42895409275668e-06,1.288442102669911e-06
155.7274902496084,601.651127499051,12.5,0,0.1207106663169913,0.09037722870725289,-0.1214051057861224,3.139723492485697e-07,1.926385988096162e-07,-9.712408462889791e-07,8.257405762647557e-07,1.12480479109753e-06
169.7050385317519,596.7706599688455,12.5,0,0.1138622268232611,0.1466434094798404,-0.1372675316702517,2.470443982505632e-07,3.781691288768806e-07,-1.098140253362013e-06,1.007767296574269e-06,8.462759523642215e-07
80.2666795992849,198.7042388922695,12.5,0,5.818735418307701,-1.38659410381099,-1.093846307648913,1.972922862163343e-05,-9.092089466841328e-06,-8.750770461191305e-06,1.860156615158338e-05,1.780900647242471e-05
87.24149747410701,203.1282000528741,12.5,0,6.047938728462189,-1.13288305462294,-1.24822234345299,2.025971037477736e-05,-8.46357675756316e-06,-9.985778747623922e-06,2.019835838121318e-05,1.988178429931839e-05
76.29662114529407,205.7261201408598,12.5,0,5.577652263724616,-1.339423190212681,-1.075021810456763,1.892002579608891e-05,-8.74827601966027e-06,-8.600174483654107e-06,1.781307718895294e-05,1.844501709929486e-05
83.40816426547123,209.8131939145953,12.5,0,5.796954837156367,-1.081992342723277,-1.229439642503955,1.941584935307899e-05,-8.099939366439579e-06,-9.83551714003164e-06,1.938294789996999e-05,2.021002219333061e-05
92.34741853179929,206.3667643930104,12.5,0,6.59121824339209,-1.173753900071095,-1.516891901376949,2.203090149891156e-05,-9.028987074941175e-06,-1.213513521101559e-05,2.223908610798343e-05,2.146130474826183e-05
99.32223640662139,210.7907255536151,12.5,0,6.934045831981265,-0.8853313344742435,-1.739051099184374,2.289721172991944e-05,-8.380296935902591e-06,-1.391240879347499e-05,2.442408637654105e-05,2.370385703965909e-05
88.61417514943648,212.8051395711247,12.5,0,6.21641420508037,-1.163532946885292,-1.532725685740728,2.082335181376542e-05,-8.696436794097229e-06,-1.226180548592583e-05,2.086349952472021e-05,2.158304108790743e-05
95.72571826961362,216.8922133448601,12.5,0,6.54240568965651,-0.8727167295081895,-1.757133523597053,2.163387159050738e-05,-8.026618086151414e-06,-1.405706818877642e-05,2.299128312958449e-05,2.356919337376709e-05
85.88125131664282,217.5183573194942,12.5,0,6.479337275209133,-1.055187060405981,-1.881466484399186,2.157802892899401e-05,-8.560068413466447e-06,-1.505173187519349e-05,2.230839999390751e-05,2.171240148162941e-05
93.09288426309291,221.3588124096227,12.5,0,6.744794188598902,-0.765864596533228,-2.07402136574823,2.219603308074306e-05,-7.84660205978545e-06,-1.659217092598584e-05,2.420619385790703e-05,2.353438827454897e-05
82.14800793428003,223.9567324976084,12.5,0,6.178186739547654,-1.019981495914918,-1.87713289316669,2.058618276328443e-05,-8.206490178565861e-06,-1.501706314533352e-05,2.127608130521969e-05,2.194408431013441e-05
89.49636612608519,227.4603002008677,12.5,0,6.429896380467399,-0.7269469921531304,-2.070730056308331,2.115722601121818e-05,-7.470147479263935e-06,-1.656584045046665e-05,2.313411462834466e-05,2.357396264101054e-05
73.39033664807801,210.8664939793246,12.5,0,5.923327833971494,-1.170965096921782,-1.426428833184997,1.98914211462462e-05,-8.485750577326895e-06,-1.141143066547998e-05,1.969684255793562e-05,1.888944847477994e-05
80.60196959452813,214.7069490694532,12.5,0,6.132939874949919,-0.9463545109043245,-1.578378377463859,2.03824912085632e-05,-7.934686334853773e-06,-1.262702701971087e-05,2.11644878742802e-05,2.046779361342886e-05
69.4202781940872,217.888375227915,12.5,0,5.660097646242577,-1.145700695952313,-1.422955745180075,1.902887302473809e-05,-8.194320344041465e-06,-1.13836459614406e-05,1.877566864433389e-05,1.946764694626435e-05
76.76863638589238,221.3919429311743,12.5,0,5.85854123244857,-0.9185417097253825,-1.575657971145385,1.948216531161573e-05,-7.62616645708008e-06,-1.260526376916308e-05,2.020827523546839e-05,2.084380033589417e-05
225.2451565207044,488.2378433658479,12.5,0,0.008803679203295944,0.2113147640762555,-0.02727456415148739,-1.408800378104573e-07,6.691643016813807e-07,-2.181965132118991e-07,8.417305737518449e-07,9.439983489105697e-07
236.0464516053982,489.9615882826376,12.5,0,-0.04388531033485795,0.02566922132755291,-0.0005301374763245171,-1.609683701335877e-07,1.172497565160557e-07,-4.241099810596137e-09,3.891037898673403e-08,3.047841234509271e-07
224.751948456656,498.3116369349643,12.5,0,0.04380411186147482,0.2126216212867572,-0.08740699490536552,-2.992413907268636e-08,6.453458986284432e-07,-6.992559592429242e-07,9.80059712308542e-07,7.713852716120264e-07
235.91429690294,499.8458985581035,12.5,0,-0.00635054347945006,0.03295938738477005,-0.06297197523875461,-4.668924904205622e-08,1.105504744148242e-07,-5.037758019100369e-07,1.777839342703902e-07,1.946830162530131e-07
206.5367646468069,485.2522295907333,12.5,0,0.02578469858245205,0.4826490755052594,-0.1441856761748216,-3.036082249403609e-07,1.523849282750868e-06,-1.153485409398573e-06,1.967152485285258e-06,2.086930555724346e-06
217.3380597315007,486.9759745075229,12.5,0,-0.02352799083942839,0.3131957201162476,-0.1167372781832983,-3.258461467791689e-07,1.021048697043535e-06,-9.338982254663868e-07,1.169601651958144e-06,1.421523046217377e-06
205.418193816252,495.6542178516319,12.5,0,0.06404754856260533,0.4768010407076483,-0.1998121305377337,-1.764886771657815e-07,1.47452529141439e-06,-1.59849704430187e-06,2.092484132579643e-06,1.853240016853346e-06
216.580542262536,497.188479474771,12.5,0,0.01713917048634424,0.3124266919148022,-0.1744976581674588,-1.950960079755402e-07,9.860540777382916e-07,-1.39598126533967e-06,1.325974632272911e-06,1.215794280510039e-06
208.4741861571578,467.2354574234457,12.5,0,0.02114379795242707,0.5969474282484426,-0.1610078734309935,-4.098977891509874e-07,1.893316732033074e-06,-1.288062987447948e-06,2.392685021880945e-06,2.527362811870234e-06
218.650118475345,469.2873970320176,12.5,0,-0.0356655677269184,0.4117043613905121,-0.1263862127972712,-4.434933058385485e-07,1.345986410631173e-06,-1.011089702378169e-06,1.508929491616035e-06,1.813449138732679e-06
207.3556153266028,477.6374456843442,12.5,0,0.07002026724088443,0.5914110393704202,-0.2248918874960556,-2.490639763255059e-07,1.836499112192637e-06,-1.799135099968445e-06,2.553056755178083e-06,2.267561214242911e-06
217.8926010063803,479.4999019992657,12.5,0,0.01625410231779184,0.4120538102193411,-0.1929596251527828,-2.77629920758539e-07,1.305568910847658e-06,-1.543677001222262e-06,1.702284809766681e-06,1.581664182825686e-06
226.0994179463235,470.7895210794914,12.5,0,0.005256487330428966,0.3026407117570935,-0.03278926854032863,-2.252918099483021e-07,9.64245087758356e-07,-2.62314148322629e-07,1.181842701451148e-06,1.297741008570054e-06
236.2753502645108,472.8414606880632,12.5,0,-0.0540819907800438,0.1044860408238998,0.001436657998202058,-2.5665120315526e-07,3.776209232605145e-07,1.149326398561647e-08,2.623248761063078e-07,6.027138681670734e-07
225.6062098822751,480.8633146486077,12.5,0,0.05136532392348785,0.3057983297507848,-0.1002814293026652,-8.026962724546669e-08,9.374623960637209e-07,-8.022514344213215e-07,1.359510818574409e-06,1.085034943555572e-06
236.1431955620526,482.725770963529,12.5,0,-0.004780102584921536,0.1144506851211025,-0.0689428060171117,-1.068568763686309e-07,3.700662744554652e-07,-5.515424481368936e-07,4.57912115543448e-07,4.141156607048799e-07
5.47241679346862,325.2696539844901,12.5,0,3.8261904464767,0.9392514223285411,-2.239641505367488,1.149240829086261e-05,-5.534780573002869e-08,-1.79171320429399e-05,1.855351850042374e-05,1.830153424966883e-05
20.42333751405368,319.1386068374813,12.5,0,3.659469808278553,0.8412841613442581,-2.387607706741091,1.103727605741596e-05,-2.354665303212161e-07,-1.910086165392873e-05,1.775944173206937e-05,1.830505122936547e-05
5.741945351820659,344.8044135983256,12.5,0,3.423129777901515,0.8393328382601128,-2.262098188280397,1.028254901867676e-05,-5.263873988885113e-08,-1.809678550624317e-05,1.679951206088985e-05,1.630194183876758e-05
21.42923178794559,335.9597571020947,12.5,0,3.212370304798394,0.7335869834567321,-2.404833077600803,9.692715388589476e-06,-2.224178967771725e-07,-1.923866462080642e-05,1.584364148969572e-05,1.696128755701437e-05
5.005579636320489,291.4344578202905,12.5,0,4.395191168674353,1.02140504893269,-2.063962154032518,1.324748770061178e-05,-2.476567783548745e-07,-1.651169723226014e-05,2.078070958614471e-05,2.043018944820027e-05
18.68107752466161,290.003519937944,12.5,0,4.299300012981864,0.7410008629503156,-2.173285456334562,1.316495935118171e-05,-1.068237248944481e-06,-1.73862836506765e-05,1.9615162104202e-05,1.987170522349686e-05
5.275108194672524,310.9692174341259,12.5,0,4.088735510501879,0.9489301077225226,-2.182363833613723,1.232480954742799e-05,-2.344120636894307e-07,-1.745891066890978e-05,1.95011103599744e-05,1.940769486273761e-05
19.68697179855351,306.8246702025573,12.5,0,3.953913240817617,0.6751175429390309,-2.302298049008798,1.211242833626515e-05,-1.002754455249195e-06,-1.841838439207038e-05,1.824168736737991e-05,1.908489529271246e-05
28.69223679730259,288.9560007056359,12.5,0,4.661721240748275,0.6562630927275042,-2.216421372715742,1.439249749621248e-05,-1.629335095870606e-06,-1.773137098172593e-05,2.071703343803362e-05,1.974692340602483e-05
42.36773468564373,287.5250628232894,12.5,0,4.57958708667444,0.4641560301232674,-2.353988380334731,1.428335385325959e-05,-2.178370372945096e-06,-1.883190704267785e-05,1.992090254113363e-05,1.996449736551935e-05
30.23718818789857,303.7906510548091,12.5,0,4.376172625433792,0.5997545071214002,-2.262260230305892,1.352394879569101e-05,-1.581723677558553e-06,-1.809808184244713e-05,1.952274675150246e-05,1.910544569938069e-05
44.64905179177958,299.6461038232404,12.5,0,4.244868397460731,0.4123526513271997,-2.397509992822266,1.325369675081258e-05,-2.076366233721546e-06,-1.918007994257813e-05,1.857339635584656e-05,1.948439002454204e-05
31.36817110099093,314.6503688224615,12.5,0,4.152907212171999,0.8783003494497548,-2.339125558348135,1.258666279939059e-05,-5.117646514983837e-07,-1.871300446678508e-05,1.962594463091444e-05,1.849042582718467e-05
46.31909182157602,308.5193216754527,12.5,0,3.970669309723402,0.7455687349605338,-2.49881628562819,1.210968680314646e-05,-7.907154959050131e-07,-1.999053028502552e-05,1.86761260207151e-05,1.899336166718426e-05
32.91312249158691,329.4850191716347,12.5,0,3.850014447592863,0.8097141611383474,-2.354633818166779,1.167227490338648e-05,-4.889262424315792e-07,-1.883707054533423e-05,1.832258770351694e-05,1.745163799525333e-05
48.60040892771186,320.6403626754038,12.5,0,3.628948533293579,0.6747641830182738,-2.505506069044102,1.107282396012483e-05,-7.43913440976387e-07,-2.004404855235282e-05,1.723675157665493e-05,1.813195458784598e-05
60.72141118929437,39.94236924254223,12.5,0,-13.11813878299623,-0.4188359927818617,1.048325925446474,-4.164297531136244e-05,9.154235849495025e-06,8.386607403571793e-06,3.0216193024417e-06,3.039032236474809e-06
68.79906089360709,37.78544934986043,12.5,0,-12.97458577391619,-0.6196651453403765,1.313294685324058,-4.102294236025952e-05,8.396740154043749e-06,1.050635748259246e-05,2.920090200995916e-06,3.249788372304816e-06
64.50184883123745,46.52698027054831,12.5,0,-12.5131255839724,-0.1661007196043016,0.8531903802228732,-3.990912129302823e-05,9.478978164444154e-06,6.825523041782986e-06,2.992429879724355e-06,2.799823113622162e-06
72.12957779965912,43.77258200694997,12.5,0,-12.30378161827872,-0.3427936598493115,1.100934248205623,-3.909786625061244e-05,8.746085583105177e-06,8.807473985644982e-06,2.876915701554755e-06,2.998236025603766e-06
74.71231088265633,36.20647440062847,12.5,0,-13.87040246610778,-0.04652119737053662,1.114681971282733,-4.434807093364847e-05,1.094745414130051e-05,8.917455770261864e-06,3.415072334644961e-06,3.408626514566407e-06
82.78996058696903,34.04955450794667,12.5,0,-13.66677498828644,-0.0328888004097343,1.410628772923151,-4.370736892218883e-05,1.0828175829318e-05,1.128503018338521e-05,3.418898629690453e-06,3.63182425359337e-06
77.71346295067133,41.75622253380222,12.5,0,-13.37288232009931,0.09031379261820804,1.005250806647279,-4.286547445841234e-05,1.098730999245771e-05,8.042006453178236e-06,3.361924527878849e-06,3.166552469329589e-06
85.34119191909299,39.0018242702039,12.5,0,-13.10168427435461,0.1218647426123396,1.291688111259516,-4.202288147202462e-05,1.087131459584317e-05,1.033350489007613e-05,3.356921788596404e-06,3.427988633375794e-06
79.91045874560533,45.81892013632322,12.5,0,-12.61530553705385,-0.1534208526422001,1.398525403140468,-4.024624103645856e-05,9.60129770118804e-06,1.118820322512374e-05,3.102517184581987e-06,3.015659784260731e-06
87.20882287598997,42.6271373488091,12.5,0,-12.44883696758623,-0.2423213512488052,1.548281363550889,-3.964242121527689e-05,9.183641250072807e-06,1.238625090840711e-05,3.042521431568654e-06,3.281575640016847e-06
82.91161081362036,51.36866826949699,12.5,0,-12.28859799716617,-0.0236093301461815,1.299271110629993,-3.930462612681479e-05,9.755328541265154e-06,1.039416888503994e-05,3.082800070871915e-06,2.845487347381413e-06
89.76005420811394,47.57940711106635,12.5,0,-12.07598768029772,-0.09668004346066494,1.43824428572932,-3.856581654218416e-05,9.351414005164046e-06,1.150595428583456e-05,3.016761542793269e-06,3.085403523472532e-06
67.26932125986802,51.34725009092216,12.5,0,-11.53512312972335,-0.4281057368976695,1.354467035483455,-3.656990942559656e-05,7.858160145706133e-06,1.083573628386764e-05,2.692992627368689e-06,2.651844247978151e-06
74.56768539025266,48.15546730340804,12.5,0,-11.35665159537162,-0.5090599307113672,1.514249562229319,-3.593403716062007e-05,7.456329498020918e-06,1.211399649783455e-05,2.640851229207769e-06,2.846923766320687e-06
71.04975890181112,57.93186111892824,12.5,0,-11.11947698156278,-0.2647247980389538,1.22696037186961,-3.537054650256972e-05,8.048462231525569e-06,9.81568297495688e-06,2.661649104683124e-06,2.48676759142776e-06
77.89820229630472,54.14259996049759,12.5,0,-10.89373121990203,-0.3290799334085479,1.375056538590149,-3.459667595695964e-05,7.661929189014267e-06,1.10004523087212e-05,2.602258865748749e-06,2.685083332834756e-06
327.561730650655,114.6896940993812,12.5,0,-0.1597111696549882,0.2501237433539164,-3.721267760123766,-7.111747375790955e-07,9.281649144565231e-07,-2.977014208099013e-05,6.969143250073943e-06,7.546149299787916e-06
331.5623594397474,111.1065606458412,12.5,0,-0.0981152363595356,0.04242943360643762,-3.750493922834348,-3.47912303235664e-07,2.142663766282289e-07,-3.000395138267479e-05,6.749184641510566e-06,6.454500175628639e-06
330.4144438723412,118.5661883661228,12.5,0,0.02056714785473425,0.4605623064269644,-3.848734952331386,-3.026349720064219e-07,1.457345662282498e-06,-3.078987961865109e-05,7.959040639279134e-06,8.60923325003003e-06
334.8929110007131,115.1597035880698,12.5,0,0.06456402564228127,0.2451057601198488,-3.866172436037745,1.052027395942099e-08,7.326872118696912e-07,-3.092937948830196e-05,7.640635802201968e-06,7.387945338257783e-06
334.4910229754613,108.4835249076617,12.5,0,-1.08115931707119,0.1362917978421712,-3.655333635567231,-3.568743252901544e-06,1.3010612067519e-06,-2.924266908453784e-05,5.281759748351901e-06,5.760912137826764e-06
338.4916517645537,104.9003914541216,12.5,0,-1.058326426476675,-0.1063337789649362,-3.707014088101657,-3.301577541553411e-06,5.063930484935442e-07,-2.965611270481326e-05,5.051521414259094e-06,4.957643503108755e-06
338.171376478569,112.665983655431,12.5,0,-0.9106432657084892,0.4151949772621537,-3.798213261917247,-3.246214432076888e-06,2.057138539805683e-06,-3.038570609533798e-05,6.205602156220035e-06,6.586477163358441e-06
342.6498436069406,109.259498877378,12.5,0,-0.9009680951641861,0.1622547107182544,-3.837565705754319,-3.012901673099999e-06,1.239989550429763e-06,-3.070052564603455e-05,5.871341366486849e-06,5.618113300563097e-06
340.8655822325433,115.727755959229,12.5,0,0.02989378073058026,0.02078713537716687,-3.626334170779205,7.903039003612333e-08,4.260380862246976e-08,-2.901067336623364e-05,6.712655289802844e-06,7.292617948968778e-06
345.6938513030569,112.4505869867168,12.5,0,0.06590552135359218,-0.3165416052854955,-3.649441367688645,4.641309525598913e-07,-1.065657553996459e-06,-2.919553094150916e-05,6.236664776532468e-06,6.208737833162816e-06
344.5459357356507,119.9102147069984,12.5,0,0.2715799851398664,0.3536099481331128,-3.805941948271446,5.861679939410822e-07,9.142878459140677e-07,-3.044753558617157e-05,8.167745945906591e-06,8.396265427103166e-06
349.852043145444,116.8096944099732,12.5,0,0.2900147784980157,0.006559605554473949,-3.816123738830182,9.227996067500709e-07,-2.110210850240959e-07,-3.052898991064146e-05,7.526958148030128e-06,7.161884267036127e-06
332.5027748899502,121.4039791245064,12.5,0,0.8935863009366399,0.1295571197399743,-3.676774393631709,2.755830467205268e-06,-3.00286257581394e-07,-2.941419514905367e-05,8.84490282460038e-06,9.449960917990156e-06
337.3310439604641,118.1268101519942,12.5,0,0.9635498075551271,-0.1584839799051916,-3.67605758630289,3.210146568100559e-06,-1.277988581740714e-06,-2.940846069042312e-05,8.395982857323333e-06,8.161101057010347e-06
335.3554881116364,125.280473391248,12.5,0,1.129129446578705,0.3755316539370796,-3.829700072906201,3.312788905902193e-06,2.983977353356905e-07,-3.063760058324961e-05,1.025319660671373e-05,1.068378767204165e-05
340.6615955214296,122.1799530942229,12.5,0,1.178231287417497,0.08100098083042048,-3.817393355583329,3.705539335071653e-06,-6.833818912766517e-07,-3.053914684466663e-05,9.67436790385744e-06,9.339956600265446e-06
322.1126283326622,163.9893249854995,12.5,0,7.898175587279018,-0.01521659094169836,-2.995101295564189,2.528633515204621e-05,-6.367233560836648e-06,-2.396081036451351e-05,3.120810134104327e-05,3.123761579901357e-05
324.5366851774837,161.7828919601889,12.5,0,7.823461508772722,-0.07050179502349296,-3.035188888057484,2.50914782640915e-05,-6.484374951093354e-06,-2.428151110445987e-05,3.078980100315429e-05,2.97031490503249e-05
323.2093381737202,166.7027261973637,12.5,0,7.836131997106683,-0.01711019575381112,-2.998623426858704,2.508931054734443e-05,-6.323658224097542e-06,-2.398898741486963e-05,3.09729257573292e-05,3.238230958134137e-05
325.8645821663083,164.0170161679199,12.5,0,7.766229909771286,-0.06581477700408778,-3.034086823650711,2.490458753287138e-05,-6.423591214230109e-06,-2.427269458920569e-05,3.058957569060816e-05,3.058097345518587e-05
320.2130711668229,159.2895762253162,12.5,0,7.219775769217922,0.04799064842571976,-3.185823246625049,2.306488994275677e-05,-5.622250540412033e-06,-2.548658597300039e-05,2.899155334805459e-05,2.924404933535967e-05
322.236700125663,157.9132753220487,12.5,0,7.228020801878849,0.004601186227382259,-3.186959018296789,2.312598561703041e-05,-5.767692845575455e-06,-2.549567214637431e-05,2.889499077688926e-05,2.817869606737782e-05
321.309781007881,162.0029774371804,12.5,0,7.256154031238982,0.07626529426785855,-3.209543414400124,2.315868066455045e-05,-5.560874283334037e-06,-2.567634731520099e-05,2.922551608827049e-05,3.039672150049024e-05
323.5645971144876,160.1473995297797,12.5,0,7.266292218227576,0.04200081082775231,-3.212565310299652,2.321853444966604e-05,-5.678631179933252e-06,-2.570052248239722e-05,2.916391883363372e-05,2.905946076428622e-05
323.7180993391387,156.9057531343966,12.5,0,6.748394916513262,0.08290574682744678,-3.211997172135588,2.152853913538048e-05,-5.13341754336278e-06,-2.569597737708471e-05,2.737218246241029e-05,2.741674979280227e-05
325.7417282979789,155.5294522311289,12.5,0,6.660969465904653,-0.01393259298219784,-3.269575228686037,2.132624836528065e-05,-5.373359870266756e-06,-2.61566018294883e-05,2.68083352991117e-05,2.640042712591738e-05
325.2152370661782,158.7890222242177,12.5,0,6.69082324247446,0.1097350952132767,-3.212298893177686,2.132284629974765e-05,-5.001506289297082e-06,-2.569839114542149e-05,2.723953978550839e-05,2.808623257923641e-05
327.4700531727849,156.9334443168169,12.5,0,6.613326938810972,0.03315987678934307,-3.259491080986345,2.113611830276363e-05,-5.184549945322879e-06,-2.607592864789076e-05,2.676381731533973e-05,2.676458446641326e-05
328.7352747930743,157.9612378569215,12.5,0,6.988186077570091,-0.1795067293498231,-3.154502400424977,2.250580083170415e-05,-6.164970395975506e-06,-2.523601920339982e-05,2.744836940955385e-05,2.705669812410184e-05
330.4635996678802,159.3652299426095,12.5,0,6.929675136612141,-0.1216976006378174,-3.142112511542622,2.22723185176691e-05,-5.933172431330728e-06,-2.513690009234098e-05,2.739203664349009e-05,2.749061013802989e-05
326.3112179482526,160.1676708822322,12.5,0,7.147104604460249,-0.03170915228836058,-3.06155636270347,2.289610205610348e-05,-5.819152970890952e-06,-2.449245090162776e-05,2.840549685462145e-05,2.858287553574616e-05
327.8083556752921,162.0509399720533,12.5,0,7.072510733770925,0.003035482143231016,-3.061939947948471,2.262960596235237e-05,-5.6482950441584e-06,-2.449551958358777e-05,2.823152171475106e-05,2.927024653977557e-05
504.1900258054333,226.7210345146813,12.5,0,6.641487863653964,-0.03572985465121659,-0.5056784452181192,2.128134504741366e-05,-5.427525825807064e-06,-4.045427561744953e-06,2.544585929767018e-05,2.659300547534994e-05
514.9803503610514,226.4393873785322,12.5,0,6.632148464565598,-0.1205010055755553,-0.3248906956689323,2.131927589107036e-05,-5.691321989494255e-06,-2.599125565351458e-06,2.513632734620589e-05,2.443143807342225e-05
507.3227592450054,236.4419119219989,12.5,0,7.084812202903795,0.09906482377327097,-0.5882258690964722,2.259214719027352e-05,-5.350842326248568e-06,-4.705806952771778e-06,2.756627779680855e-05,2.810452190392705e-05
518.4028565303545,236.3664447993195,12.5,0,7.066382717394198,0.01314309402359726,-0.4092711606737648,2.260191022044255e-05,-5.611048273039846e-06,-3.274169285390118e-06,2.721433486259378e-05,2.576155659091201e-05
485.5006354452802,227.2088616642891,12.5,0,7.60214990700552,-0.03847776039730366,-0.5087035400156901,2.43576619107355e-05,-6.204848758875788e-06,-4.06962832012552e-06,2.912560212233997e-05,3.027153168947735e-05
496.2909600008984,226.92721452814,12.5,0,7.594666977641042,-0.1290465308530484,-0.2773199601637351,2.440617155313377e-05,-6.488682480842588e-06,-2.218559681309881e-06,2.88045235503977e-05,2.815785384344536e-05
488.1314677943197,236.5726248127782,12.5,0,8.146215561405134,0.119192651833409,-0.5962463886108001,2.59725356750297e-05,-6.135555963257197e-06,-4.769971108886401e-06,3.170207617136547e-05,3.212867838920474e-05
499.2115650796687,236.4971576900988,12.5,0,8.127076214979523,0.02705196540068799,-0.3676900654198774,2.598500231561392e-05,-6.415094682701416e-06,-2.941520523359019e-06,3.132682795600496e-05,2.981058704783709e-05
480.9439001506299,210.9903481413565,12.5,0,6.659693492940678,-0.03636933299829814,-1.281593693230296,2.134011464380881e-05,-5.444136659947096e-06,-1.025274954584237e-05,2.568280587769616e-05,2.659956055276693e-05
491.2323236157154,210.3515867463788,12.5,0,6.666248596196912,-0.1457209050817914,-1.065986507707586,2.144857223189555e-05,-5.799305773219261e-06,-8.527892061660687e-06,2.531873757490689e-05,2.485008227513302e-05
483.5747324996694,220.3541112898455,12.5,0,7.197957347396509,0.126616114504942,-1.377967178023811,2.293217062006487e-05,-5.353194311501393e-06,-1.102373742419048e-05,2.825700718907722e-05,2.879000903039343e-05
494.1529286944857,219.9215299083376,12.5,0,7.192261622746267,0.0159131930135139,-1.164758108612566,2.300250663837724e-05,-5.702887080553769e-06,-9.318064868900529e-06,2.784005261876155e-05,2.682869059558994e-05
498.7639723216216,209.8839809513615,12.5,0,5.845056012510639,-0.03760804178871213,-1.315939660023711,1.873426567346501e-05,-4.79639054373239e-06,-1.052751728018969e-05,2.258835961992835e-05,2.35414089376443e-05
509.0523957867071,209.2452195563838,12.5,0,5.845743337403639,-0.1434128691313186,-1.14372517811096,1.88211089749967e-05,-5.13551585114313e-06,-9.149801424887679e-06,2.221650301932754e-05,2.171552516659631e-05
501.8967057611939,219.604858358679,12.5,0,6.294781363854989,0.1071341909787993,-1.409352319832393,2.005759301155292e-05,-4.692995679951833e-06,-1.127481855865914e-05,2.476789494356732e-05,2.537032304110055e-05
512.4749019560102,219.1722769771712,12.5,0,6.285714594512893,0.0003515109960827711,-1.238625509962597,2.011400549364439e-05,-5.027446840422849e-06,-9.909004079700773e-06,2.43538859137778e-05,2.334730722075965e-05
193.0874669461366,34.64378409803756,12.5,0,-16.10646598593615,-0.1076505028935442,-0.03639768573090828,-5.145457075268083e-05,1.254069117948958e-05,-2.911814858472662e-07,3.850721686496539e-06,4.319698793665855e-06
201.3221640780058,36.14102037343999,12.5,0,-16.13446548559006,0.6592375791020029,0.3907001884030392,-5.215767961716977e-05,1.501713264159845e-05,3.125601507224314e-06,4.322326852765634e-06,4.420248509334245e-06
191.2816022475374,40.53563224492339,12.5,0,-15.07006751981418,0.3332412798880355,0.3143996826520369,-4.84908090873158e-05,1.312242611149306e-05,2.515197461216295e-06,3.86138849435554e-06,4.031490478890969e-06
198.6812147772279,41.57652088585919,12.5,0,-15.04132914767148,1.228378268685159,0.8190646821344384,-4.911495588749687e-05,1.596387377792969e-05,6.552517457075508e-06,4.463951023425539e-06,4.104950651034804e-06
189.9596175366239,44.84876443874099,12.5,0,-14.31588841837219,0.1939598029489322,0.2105887707586246,-4.596601078115016e-05,1.207338210413433e-05,1.684710166068997e-06,3.592391946444944e-06,3.880920650308288e-06
196.7479057089272,45.55558342534754,12.5,0,-14.25703830414803,0.8271179340599306,0.5668373241333735,-4.628421692052164e-05,1.40524080323102e-05,4.534698593066988e-06,3.988070025561026e-06,3.946150388054654e-06
188.1537528380247,50.74061258562681,12.5,0,-13.30330828322457,0.6266165302072308,0.5557422712933031,-4.307187973048442e-05,1.26478195232428e-05,4.445938170346425e-06,3.629380097432094e-06,3.75776454329086e-06
194.1069564081493,50.99108393776672,12.5,0,-13.15732453120703,1.40277719922974,1.000176182564777,-4.322566025924629e-05,1.501474666250079e-05,8.001409460518219e-06,4.169380805946919e-06,3.827597859618578e-06
178.201957525987,43.62451804220611,12.5,0,-14.37735211620963,0.4188560839909248,0.6793697595172566,-4.634261163906353e-05,1.284222116173866e-05,5.434958076138053e-06,3.7666475729698e-06,3.847527467869372e-06
184.9902456982903,44.33133702881264,12.5,0,-14.43765340030789,0.6067365008912486,1.083010472701541,-4.668588008169825e-05,1.349167952309831e-05,8.664083781612328e-06,3.93914842568591e-06,3.854494718490265e-06
177.8425017869536,50.30678347788781,12.5,0,-13.20468362063613,0.723642630777241,0.7893643549182545,-4.28339016906574e-05,1.287940331499608e-05,6.314914839346036e-06,3.688222866952092e-06,3.692736913658219e-06
183.7957053570783,50.55725483002771,12.5,0,-13.1955544442839,0.9608631725758543,1.262443413332245,-4.299446475976916e-05,1.363120570766985e-05,1.009954730665796e-05,3.905809196657046e-06,3.721628661731409e-06
178.8245531290538,32.05049479815198,12.5,0,-16.44256973356771,0.08954223192717947,0.4488928662789824,-5.26878569329584e-05,1.344059092902114e-05,3.591142930231859e-06,4.055153667504368e-06,4.252093816641775e-06
187.059250260923,33.5477310735544,12.5,0,-16.63779415166726,0.286259625388646,0.9687179910430033,-5.346994898564614e-05,1.422626612257748e-05,7.749743928344026e-06,4.254643256850289e-06,4.274641879556806e-06
178.4650973900205,38.73276023383369,12.5,0,-15.20042547380796,0.4114920223026495,0.5587604837662687,-4.897055513402757e-05,1.347711485041484e-05,4.47008387013015e-06,3.95200539085661e-06,3.997406698299925e-06
185.864709919711,39.77364887476947,12.5,0,-15.35351893847645,0.6491563526074478,1.147521098168726,-4.96505856852106e-05,1.436011547912499e-05,9.180168785349809e-06,4.1909959322948e-06,4.002674163605705e-06
139.0430948071467,327.6926589581057,12.5,0,2.311217139114857,2.702123236573976,-3.024643934289519,5.234196255908363e-06,6.797820645744836e-06,-2.419715147431616e-05,1.972768824975064e-05,1.999469207837892e-05
142.8610271635108,326.1859863776336,12.5,0,2.272238973656866,2.866072554543386,-3.07827951198858,4.978306672067263e-06,7.353640995613341e-06,-2.462623609590864e-05,2.020631703686442e-05,2.015679058428406e-05
138.7774543861657,332.3988593427946,12.5,0,2.087466808294782,2.656459105631396,-2.956634436208691,4.554726502038186e-06,6.830695691384641e-06,-2.365307548966953e-05,1.876526567388815e-05,1.917934161304948e-05
142.6277812444755,330.1815335596717,12.5,0,2.008293512993503,2.812625191022482,-2.998212588233446,4.176439088761222e-06,7.393765800877141e-06,-2.398570070586756e-05,1.907618473935217e-05,1.94637780625547e-05
139.5031975128213,319.5412807813708,12.5,0,2.532179580568573,2.782609184126194,-3.265836784397441,5.876887310518479e-06,6.878605724748961e-06,-2.612669427517952e-05,2.096617158806209e-05,2.140805812324081e-05
143.2650209459308,319.2654956544294,12.5,0,2.562718823557788,2.951620128377136,-3.325015250372355,5.839404132683213e-06,7.395009351960605e-06,-2.660012200297884e-05,2.169616602181116e-05,2.145288079524876e-05
139.2375570918404,324.2474811660597,12.5,0,2.353399062358799,2.747607425111012,-3.200982933227101,5.332791059459348e-06,6.909624510468198e-06,-2.560786346581681e-05,2.019052611082451e-05,2.059187486742401e-05
143.0317750268955,323.2610428364674,12.5,0,2.352107085609331,2.91078307699321,-3.248731431031268,5.198116212355291e-06,7.432820177890806e-06,-2.598985144825015e-05,2.078481671061237e-05,2.068976905515539e-05
146.018866827953,319.063606929545,12.5,0,2.338321533792,3.03111860354806,-3.232985721718258,5.057734025295952e-06,7.82892230432019e-06,-2.586388577374606e-05,2.11339110108354e-05,2.148845094163331e-05
149.7806902610624,318.7878218026036,12.5,0,2.365083088363932,3.186250688439968,-3.294223840074398,5.019265332012608e-06,8.30393573231675e-06,-2.635379072059518e-05,2.181039930903932e-05,2.154080771678478e-05
145.8093353302268,322.5389198607032,12.5,0,2.211210531029758,3.005934828789235,-3.192151995692561,4.671125836263837e-06,7.850023027301746e-06,-2.553721596554049e-05,2.058920427388036e-05,2.079150628308776e-05
149.6035532652818,321.552481531111,12.5,0,2.20523285108792,3.155108088027418,-3.243058181469651,4.532658653059411e-06,8.332159600817399e-06,-2.594446545175721e-05,2.112813261808572e-05,2.097156337110069e-05
145.6559476281117,325.083025498404,12.5,0,2.191653820713073,2.980900988703915,-3.058048286313509,4.628571435318701e-06,7.785560107282069e-06,-2.446438629050807e-05,2.031306860355505e-05,2.031201546737444e-05
149.4738799844758,323.576352917932,12.5,0,2.14810985059709,3.138812910738138,-3.115554742655327,4.362901193320177e-06,8.32571343388437e-06,-2.492443794124261e-05,2.076510477110622e-05,2.057399922868917e-05
145.4464161303854,328.5583384295624,12.5,0,2.030916927970246,2.948095660040538,-3.012772050597753,4.140457641472357e-06,7.809172569753524e-06,-2.410217640478202e-05,1.962795085145425e-05,1.969896685557283e-05
149.2967429886952,326.3410126464394,12.5,0,1.945444665809267,3.098041267456711,-3.058715382623169,3.746989916624286e-06,8.357376323214061e-06,-2.446972306098535e-05,1.990656586407061e-05,2.005707813799128e-05
102.2315828065175,321.5930328823431,12.5,0,3.401423635380186,1.821038899407415,-3.182602809670019,9.427724513690663e-06,3.106185569799578e-06,-2.546082247736015e-05,2.066721565161616e-05,1.986940345479031e-05
107.9090496875789,316.9042444560601,12.5,0,3.274189123408981,1.823339757760442,-3.233238835968556,9.018733388700385e-06,3.215335926106229e-06,-2.586591068774845e-05,2.028364793959132e-05,2.07294218460263e-05
107.0810742753,328.626230848304,12.5,0,3.220012453941767,1.750785970941401,-3.122967574537614,8.903411075860534e-06,3.026505143859069e-06,-2.498374059630091e-05,1.975652686000594e-05,1.911417636841256e-05
112.2285334409819,322.9386620729852,12.5,0,3.06873414435027,1.74274110955984,-3.163844901082425,8.42575637427299e-06,3.121784235111271e-06,-2.53107592086594e-05,1.925092816352265e-05,2.005797419607019e-05
93.83201719186535,309.4111766658273,12.5,0,4.013525555032905,1.473038116579112,-3.26467182961502,1.1664851282842e-05,1.502901529026833e-06,-2.611737463692016e-05,2.176899085177255e-05,2.085388270808372e-05
100.4274843643507,306.4523265496449,12.5,0,3.92543534481463,1.504962528600524,-3.340650836036881,1.135742308052639e-05,1.675531815669973e-06,-2.672520668829505e-05,2.163120915446364e-05,2.163072391405084e-05
98.68150866064785,316.4443746317884,12.5,0,3.797460839701571,1.385301890436816,-3.191567854015341,1.104363317469557e-05,1.394997377636556e-06,-2.553254283212273e-05,2.066557796372938e-05,2.033555636355799e-05
104.7469681177539,312.48674416657,12.5,0,3.678384532704199,1.403237104127746,-3.254864519373173,1.064824082135124e-05,1.547651107045427e-06,-2.603891615498538e-05,2.036637266368485e-05,2.115083886284237e-05
105.2557014340574,304.2862979327105,12.5,0,4.099910375161069,1.696211107553519,-3.508075091760964,1.176274431447261e-05,2.147947244042405e-06,-2.806460073408772e-05,2.300459583772911e-05,2.219166518021837e-05
111.8511686065428,301.327447816528,12.5,0,4.010610533436405,1.771394003444588,-3.586958338169343,1.141683850424082e-05,2.459972384273556e-06,-2.869566670535474e-05,2.300633209464822e-05,2.294734401354811e-05
109.1871926114159,309.5895575885709,12.5,0,3.92090883366669,1.604628693585191,-3.436515354556744,1.126320531286525e-05,1.998084752539259e-06,-2.749212283645395e-05,2.202124074595214e-05,2.17421733583772e-05
115.2526520685219,305.6319271233525,12.5,0,3.797234376305811,1.658815837808122,-3.498425252648243,1.08240973339321e-05,2.270423179941342e-06,-2.798740202118594e-05,2.18223240245671e-05,2.25424467452308e-05
112.0652439026286,313.471813102226,12.5,0,3.583431600164117,2.025419179842837,-3.426727730102185,9.846645776650904e-06,3.614596095365786e-06,-2.741382184081748e-05,2.218884192257229e-05,2.135643294213709e-05
117.7427107836899,308.783024675943,12.5,0,3.462515648246586,2.027598543947785,-3.47485064718449,9.457971239230845e-06,3.718302822035643e-06,-2.779880517747592e-05,2.182527582315899e-05,2.220944072245806e-05
115.996735079987,318.7750727580865,12.5,0,3.459386652327234,1.976156053210229,-3.383748118623002,9.489112444878965e-06,3.556190048410946e-06,-2.706998494898402e-05,2.156023298475755e-05,2.075206234823267e-05
121.144194245669,313.0875039827676,12.5,0,3.317346308158539,1.968596333054049,-3.42213138248327,9.040631119664086e-06,3.645631219246126e-06,-2.737705105986616e-05,2.108519672036374e-05,2.170454861729516e-05
445.7900467689306,210.9765364051548,12.5,0,8.111622790815764,-0.1099851701543395,-1.333918564042343,2.604518106673391e-05,-6.841250777146497e-06,-1.067134851233875e-05,3.10194525556287e-05,3.202047262687681e-05
455.921504773157,211.0564616932438,12.5,0,8.095076480481744,-0.1489951602396724,-0.9893306664703608,2.602344086573332e-05,-6.952845697152346e-06,-7.914645331762887e-06,3.075860418257614e-05,3.062551304596448e-05
447.2601114760455,220.3447577190535,12.5,0,8.931863912847113,0.09995371793882013,-1.39454509113867,2.85020015467597e-05,-6.825639232873465e-06,-1.115636072910936e-05,3.480293463811478e-05,3.513607006183562e-05
457.7320076714548,220.3988846462767,12.5,0,8.918285914724272,0.06285173819721557,-1.061514568853844,2.84882335365599e-05,-6.933503169548327e-06,-8.492116550830753e-06,3.456476441636617e-05,3.342742239915188e-05
463.3382467866858,211.114971064932,12.5,0,7.406629749659469,-0.05726748478720278,-1.295608575452287,2.374702918674006e-05,-6.108559751046624e-06,-1.03648686036183e-05,2.847432482833324e-05,2.950736164818031e-05
473.4697047909123,211.194896353021,12.5,0,7.3751104835269,-0.1598300726964061,-0.9972365153851077,2.37282176054432e-05,-6.411544619450019e-06,-7.977892123080862e-06,2.797114458598179e-05,2.784747479966224e-05
465.3979677377556,220.43850830706,12.5,0,8.11668417920562,0.138801146647336,-1.387618611958688,2.586234845614011e-05,-6.049183674093021e-06,-1.11009488956695e-05,3.180356886705205e-05,3.210588605810068e-05
475.8698639331648,220.4926352342831,12.5,0,8.088318411717484,0.04022451881935929,-1.099422580966975,2.585043930244046e-05,-6.341936269152037e-06,-8.795380647735798e-06,3.13254076954225e-05,3.020402929283036e-05
466.9057881232887,227.2638112742681,12.5,0,8.529460087140979,-0.06324184314727699,-0.5354241574902935,2.734486575336895e-05,-7.025941967784069e-06,-4.283393259922347e-06,3.261404850925493e-05,3.388212351729723e-05
477.62690237147,227.2990524905863,12.5,0,8.50728778035691,-0.1420335353470117,-0.2342241574471187,2.733694772541972e-05,-7.260337537395964e-06,-1.87379325957695e-06,3.226938675595907e-05,3.180534512579619e-05
468.9655090743585,236.587348516396,12.5,0,9.207549605211828,0.1198731069429488,-0.6159105134482005,2.936826025112349e-05,-6.982445741952024e-06,-4.927284107585604e-06,3.578065862248304e-05,3.61363700924152e-05
480.0270615137225,236.5967913718484,12.5,0,9.187976295435881,0.04406827042942707,-0.3243897720950849,2.936626952905128e-05,-7.209362570974537e-06,-2.595118176760679e-06,3.545109811475408e-05,3.382366684744118e-05
448.3362735320218,227.2027716970854,12.5,0,9.431933534890771,-0.09462001879876114,-0.576782422654799,3.025788332668947e-05,-7.84833088806865e-06,-4.614259381238391e-06,3.59888816015382e-05,3.728689283260755e-05
459.0573877802031,227.2380129134037,12.5,0,9.420040297987985,-0.130407772034062,-0.2182090430685442,3.02484551711888e-05,-7.953337108899386e-06,-1.745672344548354e-06,3.581064186014392e-05,3.535089979856429e-05
449.8063382391368,236.5709930109841,12.5,0,10.24017790969274,0.1117878707334028,-0.6353557227116187,3.267913901443004e-05,-7.834421141407304e-06,-5.082845781692949e-06,3.972283301261717e-05,4.004745248572352e-05
460.8678906785009,236.5804358664365,12.5,0,10.23091356318938,0.07769440219377,-0.2881455661979653,3.267676788045099e-05,-7.936108763531438e-06,-2.305164529583723e-06,3.955828447174627e-05,3.780402842800547e-05
541.9103262011856,225.4468871276149,12.5,0,4.683008184431567,-0.02843175437953849,-0.5328791263102024,1.500837159368464e-05,-3.837388161559777e-06,-4.263033010481619e-06,1.795978938140006e-05,1.908418545869568e-05
552.863428292532,225.0229700938127,12.5,0,4.681950325628661,-0.06734392368656561,-0.4438698989746672,1.503611618096097e-05,-3.961060816299938e-06,-3.550959191797338e-06,1.782350447016121e-05,1.685226247831231e-05
545.7968520676093,236.1005051586068,12.5,0,4.92476091794697,0.04604963279207275,-0.5808372337467115,1.572239523119664e-05,-3.792449909422943e-06,-4.646697869973692e-06,1.912034116605585e-05,1.994289943003301e-05
556.9205654622012,235.9869169317452,12.5,0,4.916853147012771,0.005219829638891671,-0.4909127221941196,1.572975420672976e-05,-3.916779062765764e-06,-3.927301777552957e-06,1.89505428127627e-05,1.750858192419377e-05
522.9389968788256,226.1811329683409,12.5,0,5.6686222872091,-0.02458803267107967,-0.5123354000056725,1.815926174520598e-05,-4.613579534314734e-06,-4.098683200045379e-06,2.174726637293638e-05,2.285007971702213e-05
533.8920989701721,225.7572159345387,12.5,0,5.665482833513427,-0.08819511717643391,-0.3814076557909414,1.820010116098411e-05,-4.814610641775329e-06,-3.051261246327531e-06,2.152680690506914e-05,2.069129574410743e-05
526.5300152996876,236.2972457386691,12.5,0,6.007336136522844,0.0812085062076624,-0.5804708518910304,1.915850883190697e-05,-4.546001689353756e-06,-4.643766815128243e-06,2.337728302890232e-05,2.404386893687628e-05
537.6537286942796,236.1836575118076,12.5,0,5.994112434912164,0.01478062459988561,-0.4481990526938764,1.916933529203901e-05,-4.747991949210096e-06,-3.585592421551011e-06,2.310666463425828e-05,2.169402430733239e-05
516.7191705230887,208.6595116753509,12.5,0,5.023431000117491,-0.02488515274777958,-1.361990376086726,1.609488732257419e-05,-4.098377288886887e-06,-1.089592300869381e-05,1.952700662372395e-05,2.038469423324294e-05
527.3767651688734,207.6980893808851,12.5,0,5.029573631820258,-0.1114107884791984,-1.242015245338316,1.618376425260818e-05,-4.380173428589641e-06,-9.93612196270653e-06,1.924288167624451e-05,1.857468027793062e-05
520.3101889439506,218.7756244456791,12.5,0,5.351235972614254,0.08749634643823967,-1.438836287186564,1.705395803521502e-05,-4.001000469489036e-06,-1.151069029749251e-05,2.113814486498811e-05,2.18696068102497e-05
531.1383948929811,218.1245309581539,12.5,0,5.34748084736155,-0.001952657196200747,-1.317184555233591,1.711350083731392e-05,-4.284233180917082e-06,-1.053747644186873e-05,2.080541827301506e-05,1.985547003054039e-05
535.1786659357302,206.9942794138366,12.5,0,4.175556898248534,-0.02714889811560117,-1.427192317906309,1.338350119288779e-05,-3.42732199256875e-06,-1.141753854325047e-05,1.635463970809548e-05,1.724475612732485e-05
545.8362605815149,206.0328571193707,12.5,0,4.179536923397171,-0.08949129213579021,-1.342721950849311,1.344611118857958e-05,-3.630001673552265e-06,-1.074177560679449e-05,1.614104141649155e-05,1.542134973281484e-05
539.0651918021539,217.6478974448285,12.5,0,4.418738319835204,0.05730414342821,-1.485537092383769,1.409411930873008e-05,-3.351617396897891e-06,-1.188429673907015e-05,1.755028362413045e-05,1.836122013969409e-05
549.8933977511842,216.9968039573032,12.5,0,4.415742398377962,-0.007139784870140886,-1.39982348481085,1.413608750270559e-05,-3.55544123028682e-06,-1.11985878784868e-05,1.730292574809144e-05,1.629299029823349e-05
132.669337542732,281.2657564208208,12.5,0,4.938491542742097,2.288899093004538,-4.300871830876824,1.397205366237108e-05,3.373683863420844e-06,-3.440697464701459e-05,2.856483847774946e-05,2.836412522443068e-05
136.2269488112174,281.1126611026489,12.5,0,4.979755024283349,2.499751040210766,-4.40384485977139,1.39354152455381e-05,4.015399309247771e-06,-3.523075887817112e-05,2.948252958613788e-05,2.882899852976228e-05
133.2672580643476,284.5202437172385,12.5,0,4.684524489536608,2.193540530464748,-4.214579533586353,1.323564594214534e-05,3.271710105857907e-06,-3.371663626869082e-05,2.72932063482998e-05,2.780048558160256e-05
136.6628022609148,284.0979469995883,12.5,0,4.703075746669986,2.402801666820903,-4.312994124305528,1.312760105588723e-05,3.9265047364909e-06,-3.450395299444423e-05,2.81223965714747e-05,2.826894581032911e-05
133.7049662650398,286.9026937707025,12.5,0,4.557629326985323,2.45660720063885,-4.217090922750372,1.261912808584195e-05,4.215039580456059e-06,-3.373672738200297e-05,2.770160060438318e-05,2.738618464093075e-05
136.9818691307339,286.2833279511737,12.5,0,4.554659226422665,2.613295259263105,-4.294373743641473,1.248427331714204e-05,4.718817448503803e-06,-3.435498994913179e-05,2.827180813487684e-05,2.785591627155567e-05
134.3028867866554,290.1571810671202,12.5,0,4.327850379384063,2.37209560280735,-4.142827341290545,1.195144473178312e-05,4.128425625476268e-06,-3.314261873032436e-05,2.65626005641488e-05,2.681793306417179e-05
137.4177225804312,289.268613848113,12.5,0,4.301459555185424,2.526139513078111,-4.215501126081508,1.174375896613087e-05,4.642478797701614e-06,-3.372400900865206e-05,2.703958125667758e-05,2.728755130598509e-05
128.0292040102916,287.9754668385787,12.5,0,4.598705129924297,2.215701424193584,-4.101880119822462,1.294329527640288e-05,3.411280453480031e-06,-3.281504095857969e-05,2.695995135712886e-05,2.656213572150824e-05
131.3061068759857,287.3561010190498,12.5,0,4.594992294064034,2.360750543333523,-4.175442838810802,1.281537490633809e-05,3.878407903416047e-06,-3.340354271048642e-05,2.748268609371279e-05,2.703951718737323e-05
128.9078329346986,291.6962246363533,12.5,0,4.345389111621206,2.115181039833057,-4.017328158568549,1.221310032532141e-05,3.292268038168817e-06,-3.213862526854839e-05,2.567715500163741e-05,2.599464762596023e-05
132.0226687284744,290.807657417346,12.5,0,4.319700881695435,2.256225358394268,-4.085963220858264,1.201806253470997e-05,3.76416044150531e-06,-3.268770576686611e-05,2.61065682167341e-05,2.647150056722868e-05
126.5073740722466,281.5309252902906,12.5,0,5.018680443878101,2.006796944974425,-4.173833296108903,1.445433986443038e-05,2.406805868815679e-06,-3.339066636887122e-05,2.782753262651808e-05,2.755371049438315e-05
130.0649853407319,281.3778299721188,12.5,0,5.055146344435832,2.196157514434264,-4.271808454207056,1.441954229064725e-05,2.983586970640978e-06,-3.417446763365645e-05,2.864919995919471e-05,2.80224128252444e-05
127.3860029966535,285.2516830880653,12.5,0,4.738824172122552,1.894426364592448,-4.07822038081206,1.364869625911821e-05,2.271105028997793e-06,-3.262576304649648e-05,2.640160555082873e-05,2.697988535803851e-05
130.7815471932206,284.829386370415,12.5,0,4.753530747889385,2.080375890194629,-4.171368279410844,1.354699768109033e-05,2.854378250311305e-06,-3.337094623528675e-05,2.713147381050886e-05,2.745508287442714e-05
490.9325010002547,99.94851850600506,12.5,0,-1.322466737699599,-0.1500502039697026,-3.54386240343991,-4.111853397462955e-06,5.778127374566309e-07,-2.835089922751928e-05,4.438274614378697e-06,4.155207306752258e-06
500.2249610338206,100.3092254467585,12.5,0,-1.372809449165123,-0.2440456830484586,-3.265980092987485,-4.197753690889627e-06,3.173013735770312e-07,-2.612784074389988e-05,3.823824987800735e-06,4.313962649522362e-06
491.9255095052424,110.7986123489263,12.5,0,-0.5708345026837371,0.04542938700449678,-3.602681429466521,-1.863013918191556e-06,6.020416405613793e-07,-2.882145143573217e-05,5.72534418732419e-06,5.261181522977977e-06
501.7009422906335,110.3428906328564,12.5,0,-0.5590248335213357,-0.02744480692242206,-3.346447985526217,-1.766923621730336e-06,3.59396484665318e-07,-2.677158388420973e-05,5.166380903670414e-06,5.32068504875821e-06
507.0275139054049,100.5732812540216,12.5,0,-1.157466596071224,-0.06104162129840127,-3.518561595746621,-3.655059810389197e-06,7.306400887020954e-07,-2.814849276597297e-05,4.679008017795747e-06,4.37148831583314e-06
516.319973938971,100.9339881947751,12.5,0,-1.203547257523052,-0.144625742733942,-3.257922097597713,-3.735650629886614e-06,5.000354292698274e-07,-2.60633767807817e-05,4.083710567027457e-06,4.369896016170016e-06
508.8570557552101,110.009279182595,12.5,0,-0.5557838019310711,0.101461881405323,-3.587002019854815,-1.859677671303686e-06,7.693050620418904e-07,-2.869601615883852e-05,5.810820579497614e-06,5.292909703194939e-06
518.6324885406011,109.5535574665251,12.5,0,-0.5438621769417635,0.03858872990658024,-3.351074680481975,-1.771229950138907e-06,5.585736772544675e-07,-2.68085974438558e-05,5.300826148707237e-06,5.157522522134834e-06
510.196373343784,116.9169090861317,12.5,0,-0.2053404573320861,-0.08570780634638739,-3.544218089821903,-5.885232183855657e-07,-1.099926144427707e-07,-2.835374471857522e-05,5.969709692202403e-06,6.00261019118659e-06
520.3253667221674,115.8635201125373,12.5,0,-0.1640234867947024,-0.1672945388480825,-3.310675557702194,-3.910395266645818e-07,-4.041237348781021e-07,-2.648540446161755e-05,5.478344066198099e-06,5.774584251348958e-06
512.0259151935892,126.3529070147051,12.5,0,0.3095181845433723,0.0573947568696761,-3.611056444783245,9.445423850430504e-07,-6.395132565173434e-08,-2.888845155826596e-05,7.291335400730322e-06,7.020126595256845e-06
522.6378813237976,124.4830893842873,12.5,0,0.3899368220399861,-0.007444892761396149,-3.397680951120288,1.253753744737072e-06,-3.357731144684566e-07,-2.71814476089623e-05,6.941591176632031e-06,6.672801741075107e-06
492.6524421832106,118.7414323084971,12.5,0,-0.1222754147692033,-0.1814759580979187,-3.596588869504853,-2.461005607831154e-07,-4.829027340979772e-07,-2.877271095603882e-05,6.043361491284607e-06,6.207965627296819e-06
502.7814355615939,117.6880433349028,12.5,0,-0.05194954511248422,-0.1888630715764673,-3.320033488229647,-1.51480870987756e-08,-5.62802192954708e-07,-2.656026790583718e-05,5.645326539356821e-06,6.118734380882894e-06
493.6454506881983,129.5915261514183,12.5,0,0.5776409665514961,-0.004338008898146506,-3.630025908134868,1.851921500083304e-06,-4.759944017152656e-07,-2.904020726507894e-05,7.762770627926931e-06,7.68865368797874e-06
504.2574168184068,127.7217085210007,12.5,0,0.6937975503410789,0.00126903488861424,-3.371165507187605,2.219136933180561e-06,-5.509771286292976e-07,-2.696932405750084e-05,7.567456238598441e-06,7.292323304050786e-06
536.7663859390173,149.1828520749933,12.5,0,1.328460224904544,-0.08865655559246538,-3.229861211858676,4.321997964168512e-06,-1.346469157819524e-06,-2.58388896948694e-05,8.679988419097163e-06,9.159299043285006e-06
547.1614011961831,147.7889951722257,12.5,0,1.37957939764686,-0.08605376896234457,-3.079854855592742,4.483497087639826e-06,-1.37903557879699e-06,-2.463883884474194e-05,8.57312038088269e-06,8.564579618709604e-06
538.884521214167,160.4715681337555,12.5,0,1.883017811435084,0.05261716693425839,-3.274447677697209,5.983563263044862e-06,-1.33803931495844e-06,-2.619558142157767e-05,1.062880734199679e-05,1.041670870744594e-05
547.8676444107779,160.1661123534442,12.5,0,1.895984063133971,0.04379405530038483,-3.096134599200179,6.032113757788399e-06,-1.376646273545945e-06,-2.476907679360143e-05,1.037492599470276e-05,9.845758371222951e-06
533.0976680252197,129.6302223093499,12.5,0,0.3145205867816316,-0.07053141682552393,-3.475685914123203,1.06289101116164e-06,-4.773170032669818e-07,-2.780548731298563e-05,6.81026245627787e-06,7.147388107060258e-06
545.9381520660262,126.3511993635068,12.5,0,0.4422041579449376,-0.0470375515346507,-3.285745879732672,1.452683346651521e-06,-5.042834912668322e-07,-2.628596703786138e-05,6.770045964797601e-06,6.746569971736239e-06
535.2158033003695,140.9189383681121,12.5,0,0.8546189528863515,0.06617023115375611,-3.517232228964927,2.68184446431332e-06,-4.719504226170616e-07,-2.813785783171941e-05,8.334741411242447e-06,8.283287228640493e-06
546.644395280621,138.7283165447253,12.5,0,0.9632934071741193,0.08372709824802577,-3.300344497958072,3.015557224358761e-06,-5.02708011345613e-07,-2.640275598366458e-05,8.257552626386559e-06,7.73415458990108e-06
555.3380387772741,123.9507879680675,12.5,0,-0.004309577959671684,-0.1505238596476373,-3.496801938530348,1.066284382471604e-07,-4.782286885047018e-07,-2.797441550824278e-05,6.113244654851849e-06,6.55501111088273e-06
568.1785228180805,120.6717650222244,12.5,0,0.1118846551646668,-0.126142157122222,-3.324822149706547,4.589446222247113e-07,-4.931626269228436e-07,-2.659857719765238e-05,6.048571359084436e-06,6.432480705692697e-06
555.0107052687835,137.1246700699052,12.5,0,0.5543527848507703,-0.01099914312705672,-3.493864001332314,1.78272822602411e-06,-4.786794858871977e-07,-2.795091201065851e-05,7.454381556604721e-06,7.500351847691389e-06
566.4392972490349,134.9340482465184,12.5,0,0.6510642827080899,0.007985298178147276,-3.302346839289605,2.07701746612337e-06,-4.952984719964007e-07,-2.641877471431684e-05,7.362638088862848e-06,7.410723515737841e-06
554.7710805095587,146.7686211009626,12.5,0,0.9895046256665392,-0.1461009657022865,-3.299626041565508,3.283295574694754e-06,-1.259126790780548e-06,-2.639700833252407e-05,7.822298294630635e-06,8.313926706778135e-06
565.1660957667248,145.3747641981949,12.5,0,1.058245627356334,-0.05752825077435042,-3.156791448841667,3.432408608159749e-06,-1.030686904362988e-06,-2.525433159073333e-05,7.933199811491737e-06,8.223849640862568e-06
554.443747001068,159.9425032028002,12.5,0,1.569632586639233,0.001703497574103208,-3.249595041653573,5.021461479186263e-06,-1.250254877074256e-06,-2.599676033322859e-05,9.573426229999586e-06,9.591313820849659e-06
563.426870197679,159.6370474224889,12.5,0,1.605707972699192,0.09211438081590662,-3.090001413781499,5.064574007984689e-06,-9.898003595484525e-07,-2.472001131025199e-05,9.641239746348718e-06,9.467108717714235e-06
184.0657902077177,337.3987069838412,12.5,0,0.5614419463389849,3.283291946642108,-1.669198021695662,-8.300193290289345e-07,1.005738067218356e-05,-1.335358417356529e-05,1.497241979198182e-05,1.570845527715641e-05
188.6866321954125,338.0226626870974,12.5,0,0.5410331416919625,3.220699870015155,-1.651990041534863,-8.452538425978437e-07,9.873413070694923e-06,-1.321592033227891e-05,1.466694123873257e-05,1.50424116625171e-05
183.4583640077358,343.4714126122111,12.5,0,0.6069775235081121,3.287417147831543,-1.696444727388496,-6.876056430392755e-07,1.003415285425445e-05,-1.357155781910797e-05,1.514846010859164e-05,1.474450104325877e-05
188.3959924241554,344.3236979169435,12.5,0,0.5866659502147129,3.228828774626229,-1.679623508353758,-7.057319790139014e-07,9.86291931863216e-06,-1.343698806683007e-05,1.485820698735266e-05,1.402833792749585e-05
183.0136971675195,347.9169416713984,12.5,0,0.4620877854511304,2.957858925251287,-1.471829908075111,-8.876062267574127e-07,9.095478332443214e-06,-1.177463926460089e-05,1.333061936838524e-05,1.405629130960387e-05
188.1832293449041,348.9363758452762,12.5,0,0.4286416404286463,2.871283934684032,-1.441720519012824,-9.253738983755571e-07,8.845195278645983e-06,-1.153376415210259e-05,1.288764802976735e-05,1.33104986268424e-05
182.4062709675377,353.9896472997683,12.5,0,0.5320648744349651,2.966488027652927,-1.504568013780845,-6.70582823930453e-07,9.067109788941393e-06,-1.203654411024676e-05,1.360257922418995e-05,1.314002158481295e-05
187.8925895736471,355.2374110751225,12.5,0,0.4988758407202356,2.884812747788451,-1.475432765298947,-7.114475079260071e-07,8.832300120346855e-06,-1.180346212239158e-05,1.317874082367394e-05,1.236339892072536e-05
174.0598047850881,346.1512298873015,12.5,0,0.6821192780022929,3.044107601450079,-1.782491959527373,-2.525043915527255e-07,9.195448902238416e-06,-1.425993567621899e-05,1.455675210542593e-05,1.517700111305286e-05
179.2293369624727,347.1706640611795,12.5,0,0.6553631088075168,2.97477102638376,-1.758438742453756,-2.826548729229538e-07,8.994976797382016e-06,-1.406750993963005e-05,1.420263726189754e-05,1.455641914343908e-05
172.9036883954164,351.8284570450498,12.5,0,0.7324210983956114,3.043190586534644,-1.804878338226134,-9.080495436175932e-08,9.152272998194373e-06,-1.443902670580907e-05,1.472837560503752e-05,1.431932149796959e-05
178.3900070015258,353.076220820404,12.5,0,0.7060253078413468,2.978153017401545,-1.781734439407039,-1.232414288289266e-07,8.965269409411866e-06,-1.425387551525631e-05,1.439158411792764e-05,1.366410945982703e-05
176.0622571114266,336.3179840041485,12.5,0,0.7882994908368748,3.333393150617621,-1.974830384581443,-1.441561498160971e-07,1.003621848930688e-05,-1.579864307665154e-05,1.608732333170449e-05,1.672028054777354e-05
180.6830990991213,336.9419397074047,12.5,0,0.7727056645239424,3.285470267504862,-1.961749463339783,-1.557180875272739e-07,9.895340324396403e-06,-1.569399570671826e-05,1.585432374302244e-05,1.61580388899522e-05
174.9061407217549,341.9952111618966,12.5,0,0.8190944273349361,3.330534565868226,-1.993000842407659,-4.3325485222785e-08,1.000243506891037e-05,-1.594400673926127e-05,1.618766409945889e-05,1.5820336151488e-05
179.8437691381745,342.8474964666291,12.5,0,0.8036933178688874,3.2860021416605,-1.980301482244373,-5.698309614795985e-08,9.872252199018488e-06,-1.584241185795498e-05,1.596787696866943e-05,1.522466552020053e-05
621.6835485631093,45.69802919552351,12.5,0,-0.2331830784953348,0.02222586298310694,-2.488665807831591,-7.63966541571557e-07,2.5766922434221e-07,-1.990932646265273e-05,4.186240793652574e-06,2.793310800672215e-06
635.092121629434,47.71480385643063,12.5,0,-0.2387510832996561,-0.0392588544521347,-2.511121058727567,-7.325963829971918e-07,6.537253239289383e-08,-2.008896846982054e-05,4.115920093406383e-06,3.173075510646019e-06
623.8888188869821,67.47894875852828,12.5,0,-0.3670196989354766,0.000759416674338681,-2.530842514435108,-1.175070569932996e-06,2.960458925062651e-07,-2.024674011548086e-05,4.021702058639893e-06,4.325293994432791e-06
635.6830220317897,70.4569728964747,12.5,0,-0.3652577712118201,-0.06802723916482187,-2.553884137223206,-1.114403076545967e-06,7.451905164202605e-08,-2.043107309778565e-05,3.957376802874434e-06,4.777729524532729e-06
598.4592187556523,42.20487301547766,12.5,0,-0.9832730878422801,0.01120625553543891,-2.323330356590212,-3.155438885523647e-06,8.224784879872285e-07,-1.85866428527217e-05,2.937837836224292e-06,2.494815906946659e-06
611.8677918219771,44.22164767638478,12.5,0,-1.042994663514602,-0.163459202936466,-2.271022721074214,-3.206815560897553e-06,3.113262814149901e-07,-1.816818176859371e-05,2.592633595940225e-06,2.611571687607975e-06
603.4606598057538,62.32085964553123,12.5,0,-0.7517080604180665,0.1429952266580606,-2.461971075446443,-2.519861974664261e-06,1.058951173640247e-06,-1.969576860357154e-05,3.606354622833427e-06,3.924910776435214e-06
615.2548629505615,65.29888378347766,12.5,0,-0.8364404019994182,-0.06789473994334769,-2.39210187850822,-2.62229349444346e-06,4.518891537808219e-07,-1.913681502806576e-05,3.094244977241559e-06,4.096781899597052e-06
589.7964687459715,7.362962128474696,12.5,0,-2.560425951149644,-0.07256586004048526,-1.111176225492474,-8.135310355646472e-06,1.816130008790162e-06,-8.889409803939795e-06,9.552349063876039e-07,9.427901244297807e-07
606.0012125385249,7.714803856430629,12.5,0,-2.617527513681975,-0.2507904174123435,-0.8786309573699026,-8.175455709852445e-06,1.291492675226081e-06,-7.029047658959221e-06,7.294169063216848e-07,8.660570665918829e-07
594.7979097960731,27.47894875852827,12.5,0,-1.63687864185736,0.2183443484856968,-1.292358538974349,-5.41268713273211e-06,2.008204828640118e-06,-1.033886831179479e-05,1.339768301421237e-06,1.695759086534498e-06
609.3882836671092,28.79203996352351,12.5,0,-1.75020140972477,0.002699276650504678,-1.02155579355883,-5.602803932439667e-06,1.408798813061431e-06,-8.172446348470638e-06,8.842306028216666e-07,1.745901577664008e-06
617.863908317806,7.972369877506251,12.5,0,-0.7576559334501809,0.1119287213505827,-1.002772455002281,-2.514041964121045e-06,9.642966550820094e-07,-8.022179640018246e-06,1.156026758240088e-06,8.136156258443408e-07
634.0686521103595,8.324211605462189,12.5,0,-0.819555592548569,-0.1276836601880434,-0.9640436176055935,-2.520430968004986e-06,2.470567614371163e-07,-7.712348940844748e-06,8.432479296806167e-07,7.470760031317494e-07
620.0691786416791,29.753289440511,12.5,0,-0.5939354483368602,0.1885364651326577,-1.149579040450393,-2.051422606784079e-06,1.078465047093993e-06,-9.196632323603144e-06,1.607863495517544e-06,1.852359417760383e-06
634.6595525127152,31.06638064550625,12.5,0,-0.6707909519468387,-0.08179753964380239,-1.099328776382215,-2.081093014514842e-06,2.748806346973033e-07,-8.794630211057721e-06,1.137183930520558e-06,2.093065154650578e-06
125.5232556337308,3.516577259525233,12.5,0,-20.46930382297414,0.08855555562119211,0.2994418480528631,-6.55726166780142e-05,1.665882083636713e-05,2.395534784422905e-06,5.0260686774755e-06,4.636651347637877e-06
141.3905029118029,3.370406732067985,12.5,0,-20.72054855573004,-0.9779223879253838,0.9633336471566002,-6.55234174679958e-05,1.34470872032228e-05,7.706669177252802e-06,4.536980598896854e-06,4.973627997693629e-06
133.7521566637705,13.12404500169795,12.5,0,-19.12064164902596,1.00267585929397,-0.3537645065922332,-6.198819396431826e-05,1.850507606896147e-05,-2.830116052737866e-06,5.259384610206088e-06,4.641248041706978e-06
147.0829763953458,12.57852916664138,12.5,0,-19.34209888259425,-0.1937331016974699,0.3865254509844228,-6.17397299429436e-05,1.485373318064349e-05,3.092203607875382e-06,4.594242969857325e-06,4.853371741510802e-06
153.0061340951168,3.263402479404687,12.5,0,-22.07261734291262,0.3805190108328302,0.1484976901383521,-7.093679070598665e-05,1.887575470899515e-05,1.187981521106816e-06,5.584079611819584e-06,5.174752785244991e-06
168.8733813731889,3.117231951947439,12.5,0,-22.23454246685475,-0.3583171072698805,1.135228763899718,-7.086388220811928e-05,1.664101923022018e-05,9.081830111197744e-06,5.245462568211783e-06,5.38725927346441e-06
156.8418137449858,12.17918385906359,12.5,0,-20.36369163322412,0.9966325508296796,-0.2946942963267594,-6.596111926698091e-05,1.948017746923426e-05,-2.357554370614076e-06,5.553270348611152e-06,4.983836398344598e-06
170.1726334765612,11.63366802400702,12.5,0,-20.45516471373444,0.1576207149714568,0.8481130371209463,-6.558262365592737e-05,1.686851805889621e-05,6.78490429696757e-06,5.087981993718763e-06,5.128148769617899e-06
159.6497261301286,18.70598881787296,12.5,0,-19.22761268507615,0.3423635203397071,0.7442478548560286,-6.180225140851544e-05,1.647765341314798e-05,5.953982838848229e-06,4.893854243640948e-06,4.779060996374406e-06
171.12375202803,17.86813192790189,12.5,0,-19.25804817775467,-0.2404776678675953,1.358898030486517,-6.143337203452085e-05,1.463691000502743e-05,1.087118424389213e-05,4.619036554624024e-06,4.8823368377251e-06
163.4854057799976,27.62177019753186,12.5,0,-17.6363927349898,0.9652044837509477,0.2879857840769323,-5.720862033896813e-05,1.719776853599487e-05,2.303886272615459e-06,4.876094679683688e-06,4.410520580928106e-06
172.4230041314023,26.38456799996146,12.5,0,-17.53776792234208,0.2780173502427248,1.029985123067275,-5.634327123168884e-05,1.491986985865038e-05,8.239880984538196e-06,4.471484933101966e-06,4.469876654505276e-06
139.7761303079594,20.15719952074843,12.5,0,-18.22851332242222,0.110554828560459,1.205516524490946,-5.841968649459946e-05,1.493658610933124e-05,9.644132195927569e-06,4.556269390302283e-06,4.559208750187412e-06
151.2501562058607,19.31934263077736,12.5,0,-18.39437622907302,-0.8949535135222018,1.645787330743049,-5.81460411222159e-05,1.185164973998737e-05,1.316629864594439e-05,4.098840095985853e-06,4.692479086269564e-06
148.0050313379991,29.76466726292116,12.5,0,-16.81406948423026,1.259031926361882,0.4480789944460177,-5.481224789062632e-05,1.748015775174223e-05,3.584631955568142e-06,4.879691912105869e-06,4.330476543460375e-06
156.9426296894038,28.52746506535076,12.5,0,-16.91288334703801,0.1024683072940649,0.9353792077784835,-5.420320135635689e-05,1.385820526097142e-05,7.483033662227868e-06,4.209178599729386e-06,4.373168433749978e-06
211.4432301488893,49.4307539174152,12.5,0,-13.59100546647588,0.8155571549544134,0.1547330213606165,-4.414366321668634e-05,1.348258726903482e-05,1.237864170884932e-06,3.802834928307754e-06,3.905864865982135e-06
215.6113568043266,45.88546633324097,12.5,0,-13.71677806039622,0.1450288883350241,-0.04301652946722886,-4.400971290393591e-05,1.143751489098905e-05,-3.441322357378309e-07,3.415687172672115e-06,4.068669170242153e-06
216.2350337800295,52.99270333860657,12.5,0,-13.29118422593286,1.805369819041767,-0.1454675739900118,-4.397608537821856e-05,1.641013080167994e-05,-1.163740591920095e-06,4.437676875471334e-06,3.887495011462926e-06
220.9853676829362,50.26872915181708,12.5,0,-13.46995669928805,0.9464663246542573,-0.3071443364726468,-4.386103449744518e-05,1.380465759832407e-05,-2.457154691781174e-06,3.865076886514832e-06,3.990744053915699e-06
208.3919496648568,52.0260845563635,12.5,0,-12.7352717508908,0.2950872769165613,0.1067715518132111,-4.098893942438382e-05,1.113249668684564e-05,8.541724145056892e-07,3.267431988522537e-06,3.829136804969135e-06
212.7575480103328,54.9867908417578,12.5,0,-12.59947916453077,0.9644633286377844,-0.04699566635165239,-4.108990398940868e-05,1.316586598326552e-05,-3.759653308132191e-07,3.663344906837495e-06,3.836266247827444e-06
204.2238230094195,55.5713721405377,12.5,0,-12.50037831811634,1.058999318422785,0.3673489724074,-4.08484100727105e-05,1.338910047344598e-05,2.9387917792592e-06,3.713711869753781e-06,3.78231614816648e-06
208.0072141074261,57.71076502854727,12.5,0,-12.30681592884098,1.977311203143038,0.1960599130300183,-4.096365993480557e-05,1.61728485931305e-05,1.568479304240146e-06,4.353206424607324e-06,3.799555705213192e-06
200.8305115251896,46.89799084386421,12.5,0,-13.54487612104461,0.4340050484553726,0.2063260163662651,-4.369080762610703e-05,1.222471705189288e-05,1.650608130930121e-06,3.550264032538697e-06,3.939701247357748e-06
205.1961098706656,49.8586971292585,12.5,0,-13.61090810287005,0.8909363839800166,0.18421432646318,-4.426765503636818e-05,1.373972291103209e-05,1.47371461170544e-06,3.857963012367292e-06,3.856852129561531e-06
197.6707974028859,51.86583496122023,12.5,0,-13.0721252213242,0.9434722618816633,0.5402711837925898,-4.258557851774276e-05,1.347681141508068e-05,4.322169470340718e-06,3.780921474679914e-06,3.83685436565208e-06
201.4541885008926,54.00522784922978,12.5,0,-13.11630249151011,1.546262633240696,0.5392791414834632,-4.32091780794249e-05,1.544108241957831e-05,4.314233131867706e-06,4.218724414824624e-06,3.792310294109531e-06
206.303296922314,38.293432428676,12.5,0,-14.98530114599461,0.3004885511928528,0.04676424211113645,-4.819335450813702e-05,1.294980428061281e-05,3.741139368890916e-07,3.815839001894794e-06,4.381004784250267e-06
211.6773078009237,42.67669524725212,12.5,0,-15.05813164607094,0.773235106545755,-0.01973558995253707,-4.88046093526636e-05,1.452085765780317e-05,-1.578847196202966e-07,4.12705713631396e-06,4.173239217769626e-06
203.1435828000104,43.26127654603204,12.5,0,-14.64555793434051,0.7039383957602503,0.3078515028051104,-4.742893610649784e-05,1.396904921390521e-05,2.462812022440883e-06,3.988559143569346e-06,4.085505912577652e-06
207.9353864311507,46.82322596722342,12.5,0,-14.71137369060611,1.277453343320226,0.2450017146298303,-4.809835848459574e-05,1.585694965110961e-05,1.960013717038642e-06,4.384796225659851e-06,3.958921727026733e-06
324.4904473308623,60.19835673146534,12.5,0,-8.86231017638257,0.1234712110507141,-3.196522362538967,-2.845816953326479e-05,7.48495601646834e-06,-2.557217890031174e-05,3.149013263341353e-06,3.071152829189574e-06
330.8780745161646,61.09634927888857,12.5,0,-8.984909592736999,0.08893169423401659,-2.872041265737852,-2.882285605214561e-05,7.472509095738451e-06,-2.297633012590282e-05,2.972253102412724e-06,3.037863825936471e-06
323.8085730836252,68.01101677731383,12.5,0,-7.637445930561458,0.4292063385382114,-3.158633368383686,-2.478319204862723e-05,7.483417027771442e-06,-2.526906694706949e-05,3.181441235889472e-06,3.084333773157246e-06
329.5157960568774,69.12821182884781,12.5,0,-7.825431912167527,0.3779163104418748,-2.800366128774502,-2.534371516728958e-05,7.46967772314802e-06,-2.240292903019601e-05,2.949125813539744e-06,3.046852499963027e-06
313.4267525063095,58.64298801453803,12.5,0,-9.456724792104943,0.3312847507084529,-2.972289479175993,-3.052654713530257e-05,8.625491035951002e-06,-2.377831583340794e-05,3.257218618600104e-06,3.188947420182049e-06
319.8143796916117,59.54098056196128,12.5,0,-9.635447860604296,0.1119326879186415,-2.609978014276547,-3.092297930426866e-05,8.06654288982309e-06,-2.087982411421238e-05,2.977633286990003e-06,3.111635556256008e-06
313.9233729240057,66.07597818612722,12.5,0,-8.171164681778267,0.6685831225373451,-3.099633744320482,-2.668259347972032e-05,8.676397737542117e-06,-2.479706995456386e-05,3.381695685302087e-06,3.184160203565114e-06
319.6305958972579,67.1931732376612,12.5,0,-8.429855487755969,0.4079437924078535,-2.688826060657173,-2.730189259474538e-05,8.049304525909904e-06,-2.151060848525738e-05,2.999639437510147e-06,3.121125261450852e-06
312.5665807107989,45.76867138541675,12.5,0,-11.6280870732652,0.2158087820497325,-2.517742869049651,-3.738252566008843e-05,9.993057761171304e-06,-2.01419429523972e-05,3.395974390108096e-06,3.499293943591023e-06
320.1327025610346,46.2869940585807,12.5,0,-11.77308656411556,-0.07223395645922892,-2.084666787563141,-3.761608984000241e-05,9.187320590622915e-06,-1.667733430050513e-05,3.116501771181556e-06,3.333469454178719e-06
313.0632011284952,53.20166155700596,12.5,0,-10.34888589896939,0.554470487514096,-2.662587679023781,-3.356001126671334e-05,1.005341427922062e-05,-2.130070143219025e-05,3.420224085638633e-06,3.273387251327163e-06
319.9489187666808,53.93918673428065,12.5,0,-10.55676716432485,0.2253644617076862,-2.181643292078269,-3.396194649520567e-05,9.166580008924475e-06,-1.745314633662615e-05,3.06563967962396e-06,3.168533011213108e-06
325.6714881714286,46.66643259003548,12.5,0,-10.99534790098545,-0.08777422361649334,-2.856631705449717,-3.511489390426023e-05,8.515400805215578e-06,-2.285305364359774e-05,3.215421043146822e-06,3.242869081286515e-06
333.2376100216642,47.18475526319941,12.5,0,-11.0438871550422,-0.02188353773948393,-2.479169834238647,-3.532293206594345e-05,8.765082403267412e-06,-1.983335867390917e-05,3.118823891853605e-06,3.161168748762106e-06
324.9896139241915,54.479092635884,12.5,0,-9.809807504311719,0.2165721937779046,-2.781412168470157,-3.156464176881982e-05,8.540877023538668e-06,-2.225129734776126e-05,3.151353309695987e-06,3.113632236973308e-06
331.875331562377,55.21661781315866,12.5,0,-9.905143285245693,0.277638057275619,-2.372005613112484,-3.191856895860671e-05,8.812556411478533e-06,-1.897604490489987e-05,3.035753404812086e-06,3.068494772482986e-06
4.0091385724261,182.430221016077,12.5,0,2.051050305010123,0.3124539191329334,0.22155302365688,6.313397840726047e-06,-6.409877027827119e-07,1.77242418925504e-06,8.873866525877197e-06,9.027604582604737e-06
14.96230884734403,174.6129227514255,12.5,0,2.404811252406278,-0.2773559291959209,0.3088347918436321,7.917280751056826e-06,-2.811387975351969e-06,2.470678334749057e-06,8.458681095259509e-06,7.014684614996332e-06
4.199738179352164,201.7598443318194,12.5,0,3.124747482936948,0.5904414078752989,-0.1703475596689925,9.526838819097993e-06,-6.103854811486021e-07,-1.36278047735194e-06,1.386716016212063e-05,1.444742481819701e-05
15.6736362643169,190.6684939290548,12.5,0,3.636501140014853,0.07945197058124176,-0.1527746578725119,1.157324207158253e-05,-2.654954606151908e-06,-1.222197262980095e-06,1.422140939249362e-05,1.14695806313813e-05
3.679010369333434,148.9503313426449,12.5,0,-0.1605520449427874,-0.1894026645636248,0.8251132266982562,-3.622444121660198e-07,-4.776468906493694e-07,6.600905813586049e-06,1.006885969862772e-06,1.639320157608245e-06
13.73025362035244,146.8038577277329,12.5,0,-0.1088457181868967,-0.6929842194679634,1.11365308023444,2.060810773763013e-07,-2.130472927747965e-06,8.909224641875518e-06,1.119097898702101e-06,1.373283220173283e-06
3.869609976259497,168.2799546583873,12.5,0,1.19464927570107,0.1571663072514773,0.5049676464218268,3.697144636442242e-06,-4.527872373561284e-07,4.039741171374615e-06,5.235142340867893e-06,5.595683282333491e-06
14.4415810373253,162.8594289053621,12.5,0,1.491350851745878,-0.2519385622345207,0.7171114481187879,4.973873575374426e-06,-1.999284080547168e-06,5.736891584950303e-06,5.293206530598335e-06,4.309389877202904e-06
21.08827435901931,145.232529984578,12.5,0,-0.2081925319106206,-0.955667956258942,0.6856227744064918,9.831826289316749e-08,-2.891583434500117e-06,5.484982195251935e-06,4.656786796907074e-07,1.213365578770386e-06
31.1395176100383,143.086056369666,12.5,0,-0.06283838244172574,-1.28903865721692,1.082407131757817,8.301481019600136e-07,-4.074652997140763e-06,8.659257054062533e-06,9.225794478181499e-07,1.042499394847478e-06
22.18080098984429,158.8913286505809,12.5,0,0.9131267575148346,-0.6465085607124396,0.5080479980878588,3.439212472617422e-06,-2.799328800291674e-06,4.06438398470287e-06,2.247644568468128e-06,3.486647006611369e-06
32.7527720509101,153.4708028975558,12.5,0,1.346113207472663,-0.8668977180276722,0.8214233411339453,5.001080438334658e-06,-3.850963263666681e-06,6.571386729071562e-06,3.526677889860054e-06,2.52516508762525e-06
22.98058599219623,168.8902632440239,12.5,0,1.465545896946027,-0.8943262908879864,0.2520653386758599,5.405207902937674e-06,-4.034280848398378e-06,2.016522709406879e-06,3.465914352726198e-06,5.724454618696646e-06
33.93375626711416,161.0729649793724,12.5,0,2.01656335408079,-1.120866066162794,0.4886300814780163,7.349695585988762e-06,-5.200022094985573e-06,3.90904065182413e-06,5.029625045877917e-06,4.212400682815042e-06
24.07311262302123,182.5490619100268,12.5,0,2.320359570335484,-0.6534286882753872,0.09064962417743611,7.947893575693857e-06,-3.947259458749625e-06,7.251969934194889e-07,7.084307859922336e-06,9.564977284896953e-06
35.54701070798597,171.4577115072622,12.5,0,3.026688372685249,-0.8064178434948259,0.2713191328182708,1.033053706738866e-05,-5.001887797331641e-06,2.170553062546167e-06,9.377404306372356e-06,7.33934836063047e-06
265.9303514707691,66.25323491418962,12.5,0,-9.34926817229074,1.13430003766948,-2.029309487697965,-3.082509818146595e-05,1.110917465837493e-05,-1.623447590158372e-05,3.398705490901203e-06,3.550371795113832e-06
267.3210466788028,68.14129514134589,12.5,0,-9.288764489027839,1.261213397078744,-2.098494286217878,-3.073301708255208e-05,1.146689446187425e-05,-1.678795428974303e-05,3.513325355555758e-06,3.530479731138697e-06
264.2280590749424,68.84788658310113,12.5,0,-9.355306180452031,1.277958035508324,-1.951812803378892,-3.095934620585316e-05,1.157371065798826e-05,-1.561450242703114e-05,3.483949402106845e-06,3.567785565835913e-06
265.589171562357,70.06602729249059,12.5,0,-9.280349569644645,1.46413606837298,-2.024451937147475,-3.086842747756125e-05,1.210951507450925e-05,-1.61956154971798e-05,3.648514642948703e-06,3.555447914619432e-06
268.8788083896261,61.75916639577224,12.5,0,-10.01571986720511,0.887331048296756,-2.009518694438015,-3.276016841369375e-05,1.08520352483137e-05,-1.607614955550412e-05,3.338550489657043e-06,3.551997681276228e-06
270.3207423727975,64.80756126466187,12.5,0,-9.813118064960356,1.054248020295936,-2.138276388053719,-3.224537622410989e-05,1.122408811691528e-05,-1.710621110442975e-05,3.466703051150558e-06,3.518383338801309e-06
267.1765159937994,64.35381806468376,12.5,0,-10.13001677795624,1.002091058139365,-1.959654278309211,-3.321772653597146e-05,1.131070480841096e-05,-1.567723422647369e-05,3.428163121722623e-06,3.546141444196e-06
268.5888672563515,66.73229341580654,12.5,0,-9.905989871236262,1.213419792115185,-2.10494505133201,-3.266990342164818e-05,1.18077352317576e-05,-1.683956041065608e-05,3.593376324452582e-06,3.520548307980738e-06
269.6227801386298,68.47345821730462,12.5,0,-9.281532576981286,1.148280642853169,-2.164231778728319,-3.061952876062265e-05,1.109972411871517e-05,-1.731385422982655e-05,3.448955918251902e-06,3.514375138760201e-06
271.3763113095942,67.03914119012649,12.5,0,-9.168866797793319,1.021103967702049,-2.144413433666485,-3.015725692710026e-05,1.060262613488121e-05,-1.715530746933188e-05,3.322584067757578e-06,3.507546027904129e-06
271.035131401182,70.85193356842743,12.5,0,-8.879007490875157,1.423247128252395,-2.360948678395631,-2.955142167340242e-05,1.165759680310779e-05,-1.888758942716505e-05,3.687914013687037e-06,3.523102863020516e-06
272.8182452927656,70.0875360590161,12.5,0,-8.826187576506818,1.227843339514942,-2.301852563227553,-2.922607491643377e-05,1.099004874765327e-05,-1.841482050582042e-05,3.490777054378124e-06,3.51155228638927e-06
268.3391062288828,69.52345115531557,12.5,0,-8.849208234593208,1.077001348360378,-2.128248332429602,-2.917906742938656e-05,1.052577090242778e-05,-1.702598665943682e-05,3.300691001574772e-06,3.526301563466534e-06
269.7298014369165,71.41151138247186,12.5,0,-8.682002272159533,1.260771185559484,-2.241072758754067,-2.879102421935809e-05,1.098006961151797e-05,-1.792858207003254e-05,3.466583638268259e-06,3.53477866107829e-06
266.5855750579184,70.95776818249375,12.5,0,-8.903954056384029,1.257269529985918,-2.113600217358655,-2.949846860441762e-05,1.114642574106216e-05,-1.690880173886924e-05,3.447292240728717e-06,3.552056050862193e-06
267.946687545333,72.17590889188322,12.5,0,-8.688322068628608,1.5598109268811,-2.265178111617841,-2.905047936111642e-05,1.194205262092241e-05,-1.812142489294273e-05,3.732159358256382e-06,3.555126957961155e-06
493.3728338430587,193.1223591583137,12.5,0,4.957938167029925,-0.04954692280984663,-2.000531171100391,1.590503967274364e-05,-4.124900686615449e-06,-1.600424936880313e-05,1.954513518606589e-05,2.033978413986388e-05
503.5069105148855,191.9495890808519,12.5,0,4.982100713545,-0.1495311233263195,-1.835524446755282,1.606234718200505e-05,-4.464180165480221e-06,-1.468419557404226e-05,1.924267300654997e-05,1.876911264060516e-05
496.480007724842,202.7880166772866,12.5,0,5.416877593543684,0.09903120257664177,-2.096879397493724,1.725478333727847e-05,-4.016602226589693e-06,-1.677503517994979e-05,2.175416966877383e-05,2.219348010160654e-05
506.6494297224033,201.9509223189876,12.5,0,5.42605734327175,-0.00652824460164747,-1.927583953663511,1.736860609415092e-05,-4.361736257342671e-06,-1.542067162930809e-05,2.137753889145244e-05,2.048880162608956e-05
475.8200981599717,195.1536565180376,12.5,0,5.716417053250557,-0.03785247792534174,-1.908579890181171,1.832281655274205e-05,-4.694261571961539e-06,-1.526863912144937e-05,2.236380378055716e-05,2.304631785813727e-05
485.9541748317985,193.9808864405758,12.5,0,5.736176913590423,-0.1791383374194588,-1.724962412663831,1.849907679342492e-05,-5.162184210614606e-06,-1.379969930131065e-05,2.192824059667505e-05,2.148585782372812e-05
478.8660521417739,204.2379066365637,12.5,0,6.203620657966157,0.1298176846926771,-2.023021929335278,1.974773195773756e-05,-4.547479935356358e-06,-1.618417543468222e-05,2.475535913163185e-05,2.506054314163502e-05
489.0354741393351,203.4008122782647,12.5,0,6.206468743574457,-0.01834411785368184,-1.834089744994242,1.987537527372121e-05,-5.023876171991347e-06,-1.467271795995394e-05,2.423067595273939e-05,2.341847454866266e-05
470.5443511060686,179.4192737643698,12.5,0,4.711893725287711,-0.07247053850035301,-2.439410878272569,1.513603635172096e-05,-4.001420703431298e-06,-1.951528702618055e-05,1.887722339269746e-05,1.947511333636432e-05
480.6172078779141,177.6650962864611,12.5,0,4.756744008908719,-0.215023677942805,-2.265249204075093,1.539359977086215e-05,-4.493470976543951e-06,-1.812199363260074e-05,1.849975089014802e-05,1.805162157672379e-05
473.5903050878707,188.5035238828958,12.5,0,5.188602633190611,0.09520862588435008,-2.55558574066328,1.652736152550247e-05,-3.846214503722568e-06,-2.044468592530624e-05,2.120007091613492e-05,2.154970645248084e-05
483.6985071854508,187.0850221241499,12.5,0,5.217286980690456,-0.05414581915644678,-2.376180871593804,1.673863499353462e-05,-4.347096205852994e-06,-1.900944697275043e-05,2.073985962307724e-05,2.004781390404529e-05
487.9910508119557,176.3809492471935,12.5,0,3.983749626427069,-0.07710060621039183,-2.55974820833931,1.280967928953493e-05,-3.433721641014909e-06,-2.047798566671448e-05,1.633563355097122e-05,1.703944743394609e-05
498.0639075838013,174.6267717692848,12.5,0,4.031493386737443,-0.1795148428931956,-2.399243487265101,1.304439071187437e-05,-3.79964220664818e-06,-1.919394789812081e-05,1.607267441858266e-05,1.569762800929289e-05
491.098224693739,186.0466067661663,12.5,0,4.442128391525177,0.07419941566377752,-2.659498111489571,1.415545132034954e-05,-3.316264583096053e-06,-2.127598489191657e-05,1.850255125893256e-05,1.895876524884362e-05
501.2064267913191,184.6281050074205,12.5,0,4.475236769680744,-0.03383083950411581,-2.494672978857286,1.434782233458167e-05,-3.688448102157765e-06,-1.995738383085829e-05,1.817162094972907e-05,1.748532153922715e-05
26.0151348923408,59.66747710697253,12.5,0,-9.358865045187716,-2.998752341944345,0.8464514015020937,-2.754936627104521e-05,-2.108915458071732e-06,6.77161121201675e-06,1.126176062810475e-06,1.843682989504412e-06
36.41260627486997,63.81478355279428,12.5,0,-9.306373671174658,-1.697657118259224,0.9145054663964709,-2.842227005315153e-05,2.01259615851021e-06,7.316043731171768e-06,1.53444746974007e-06,1.929486504116596e-06
10.88239036603207,68.69270711900417,12.5,0,-8.462530387142548,-1.291780548358731,1.515160301473846,-2.604667280016917e-05,2.636326554966101e-06,1.212128241179077e-05,1.633179417839749e-06,1.501601723757488e-06
24.35522730811318,71.57409346629522,12.5,0,-8.246494435727255,0.2466116480780025,1.703442706950606,-2.658607151278962e-05,7.386352822431412e-06,1.362754165560485e-05,2.438781141036689e-06,1.735973355114765e-06
52.22581726939635,44.03532017641908,12.5,0,-11.12016122787056,-0.8615711086528068,1.355437075106918,-3.489525904226354e-05,6.139101434607465e-06,1.084349660085535e-05,2.376995246673085e-06,2.752045239866053e-06
57.29659925102983,50.37526455117922,12.5,0,-11.05115721159,-0.613085201113297,1.237590963293695,-3.487323491619735e-05,6.879053125709447e-06,9.900727706349559e-06,2.463327202985043e-06,2.573590766862147e-06
37.09307274308762,53.06055018845077,12.5,0,-10.98645040433023,-0.2965369446111965,1.477195820964634,-3.491941173816779e-05,7.840242100708356e-06,1.181756656771707e-05,2.662443307778171e-06,2.178738319816007e-06
45.23922028427302,58.1345744646802,12.5,0,-10.89435736471131,0.05249865846129564,1.392865555351605,-3.490394249384523e-05,8.883481598845196e-06,1.114292444281284e-05,2.821452372854209e-06,2.153925413153569e-06
61.00866929553253,55.01642595046683,12.5,0,-10.00330882370856,-0.8296240049606085,1.615155798920251,-3.134688903189891e-05,5.347850243092904e-06,1.292124639136201e-05,2.198278945220199e-06,2.458614313616446e-06
66.07945127716602,61.35637032522697,12.5,0,-9.870803255148859,-0.5095662641593584,1.454863646443729,-3.117891740514886e-05,6.266030558809139e-06,1.163890917154983e-05,2.290924748825594e-06,2.322947274665676e-06
51.2026141701195,61.84901803356012,12.5,0,-9.944373876509697,-0.4416945006015669,1.69732676925467,-3.146864080434977e-05,6.542076699282743e-06,1.357861415403736e-05,2.403460247632615e-06,2.125779833717163e-06
59.34876171130492,66.92304230978955,12.5,0,-9.806987869364432,-0.02978958253059982,1.581160805621069,-3.13585295159417e-05,7.750263631393626e-06,1.264928644496855e-05,2.571408968605623e-06,2.073697587347605e-06
44.02408359680116,66.85082258556463,12.5,0,-8.685783364230225,-2.136787333856867,1.147755184065302,-2.608507689845123e-05,1.109072230422048e-07,9.182041472522414e-06,1.288106955418072e-06,1.953614862903375e-06
54.42155497933036,70.99812903138638,12.5,0,-8.724398731287614,-0.9951368579580797,1.289004619737971,-2.71219664537539e-05,3.795081039564236e-06,1.031203695790377e-05,1.762334171559657e-06,1.933731250402725e-06
34.21802847138814,73.68341466865789,12.5,0,-8.073246580949666,-1.209348849121534,1.582098177628916,-2.48669099797417e-05,2.588680947570823e-06,1.265678542103133e-05,1.605289536536903e-06,1.816085895235781e-06
47.69086541346927,76.56480101594894,12.5,0,-7.940163287373848,0.08294049678268411,1.829735146323336,-2.547487491702246e-05,6.617540219603668e-06,1.463788117058669e-05,2.319083849954174e-06,1.800585793821823e-06
213.9088673794535,330.5551758075339,12.5,0,0.2156250493929432,2.882341121389908,-0.6911198488899419,-1.615872739054508e-06,9.050991548933349e-06,-5.528958791119536e-06,1.186709948251324e-05,1.223336564832687e-05
217.467735489934,328.1938008087786,12.5,0,0.1309217285352727,2.953149632022314,-0.7284413142528442,-1.943570174304978e-06,9.345341439643187e-06,-5.827530514022754e-06,1.188968021692012e-05,1.184533443179655e-05
215.9788387914523,335.5742638491386,12.5,0,0.01863986223717073,2.790329807345641,-0.6209411700342001,-2.172616286717567e-06,8.914143493716315e-06,-4.967529360273601e-06,1.089059647716979e-05,1.101823072496351e-05
219.2951055647672,332.2603772830285,12.5,0,-0.1027407466992902,2.839747559494913,-0.6425913487949183,-2.600568437033658e-06,9.169384787743152e-06,-5.140730790359347e-06,1.072422502553998e-05,1.078088466209752e-05
217.4941630351861,339.2484913030984,12.5,0,0.2639464495448448,2.477468458819151,-0.5455327967873943,-1.137346128511818e-06,7.716741908585407e-06,-4.364262374299154e-06,1.042785377740151e-05,1.021501304752929e-05
220.6328333037192,335.2373178749172,12.5,0,0.1081015100417019,2.58277106969675,-0.5288040564995471,-1.720292023623954e-06,8.178386214996238e-06,-4.230432451996377e-06,1.03408196953277e-05,1.008068270769616e-05
219.564134447185,344.2675793447031,12.5,0,0.04648082177747315,2.346047122269338,-0.440343561393323,-1.728099068127556e-06,7.470166133839902e-06,-3.522748491146584e-06,9.223038066195551e-06,9.235716466511579e-06
222.4602033785524,339.303894349167,12.5,0,-0.1450635405291587,2.422560303178695,-0.4042253669780768,-2.402251572236264e-06,7.868243802595151e-06,-3.233802935824614e-06,8.9330409803551e-06,9.232145162330302e-06
212.0578266619787,346.1960474785537,12.5,0,0.3215165170225386,2.445164174397601,-0.678049422668093,-9.272784850459568e-07,7.56731214445429e-06,-5.424395381344744e-06,1.053492293037518e-05,1.040615850759425e-05
215.1964969305118,342.1848740503725,12.5,0,0.1574666912346989,2.521916746933545,-0.675200799342986,-1.513639985595799e-06,7.944160237199584e-06,-5.401606394743888e-06,1.031440561016734e-05,1.030222402526514e-05
214.5479959159251,352.8649339495844,12.5,0,0.0237456808982166,2.291202302859495,-0.5541395470377886,-1.756975663413303e-06,7.31285082443181e-06,-4.433116376302309e-06,8.984280026602203e-06,9.083306083499764e-06
217.4440648472925,347.9012489540484,12.5,0,-0.178421823952316,2.34384969615977,-0.5336491932340482,-2.446029593575227e-06,7.643056486873116e-06,-4.269193545872386e-06,8.578837362947498e-06,9.195835155537985e-06
207.7447269947753,334.6451972810274,12.5,0,0.2742570593122784,2.943301491212313,-0.8832383113463679,-1.47701860317056e-06,9.19915912442958e-06,-7.065906490770943e-06,1.235779932267259e-05,1.282233820211137e-05
211.3035951052559,332.2838222822721,12.5,0,0.2181982659912223,3.049766324230099,-0.9011025059270088,-1.741578608212167e-06,9.584693624743337e-06,-7.20882004741607e-06,1.259486360210862e-05,1.249515301957674e-05
210.2348962487216,341.3140837520581,12.5,0,0.04489886596348558,2.814755039170136,-0.7775019388109068,-2.108127660252955e-06,8.971297032573647e-06,-6.220015510487254e-06,1.112414675624389e-05,1.140802914421908e-05
213.5511630220365,338.000197185948,12.5,0,-0.0439798023593202,2.898888151666789,-0.778987716697394,-2.459845888883256e-06,9.311625927221179e-06,-6.231901733579152e-06,1.117725828581433e-05,1.118627358248039e-05
144.5891083940141,368.1719813950681,12.5,0,1.004003635465683,2.426273495223531,-1.93505259165155,1.271792837311362e-06,6.960872276342751e-06,-1.54804207332124e-05,1.34867062178374e-05,1.379035076123646e-05
150.2642516671949,372.0664138796144,12.5,0,0.8807677322907758,2.274701473708467,-1.852158067896183,9.986955643637082e-07,6.574430530034475e-06,-1.481726454316947e-05,1.24850352193314e-05,1.305689704461997e-05
140.368021469737,374.767901075491,12.5,0,1.127835135618204,2.371820974035726,-1.953254593417081,1.711615654749672e-06,6.68755900841976e-06,-1.562603674733665e-05,1.370977984537268e-05,1.316707071182521e-05
146.3816750953347,379.1412647209615,12.5,0,1.010495313104904,2.232362469376926,-1.875856676424182,1.447695026434153e-06,6.335163651522238e-06,-1.500685341139346e-05,1.277238508057437e-05,1.243664939999099e-05
154.4187448832193,374.9173363248278,12.5,0,0.7199513601571097,2.371923010272657,-1.640593494822763,4.063059442846253e-07,7.014192544746813e-06,-1.312474795858211e-05,1.213617680602394e-05,1.250228497300933e-05
160.0938881564001,378.8117688093741,12.5,0,0.5954536564708124,2.214686523315292,-1.556320667520408,1.337024820543655e-07,6.610633949432286e-06,-1.245056534016326e-05,1.111088836401983e-05,1.17205103314301e-05
150.7839750882058,382.3427891092846,12.5,0,0.8645157477692951,2.331100912074024,-1.673180545586334,9.015696632025253e-07,6.767910320421438e-06,-1.338544436469067e-05,1.247760131212215e-05,1.187987108842453e-05
156.7976287138036,386.7161527547552,12.5,0,0.7453016029008843,2.185584932169063,-1.593958860034148,6.364971835475791e-07,6.397630500620294e-06,-1.275167088027318e-05,1.151167665685354e-05,1.10891457644421e-05
148.1231389245524,387.7785978164796,12.5,0,0.6811536699723433,2.139759195935241,-1.53496859504832,4.678843871633058e-07,6.302306491014895e-06,-1.227974876038656e-05,1.109470241201613e-05,1.143999535131898e-05
154.3845993269969,392.50256340506,12.5,0,0.5460019500952897,1.984500537608286,-1.447234471671925,1.59605810218298e-07,5.913600160270284e-06,-1.15778757733754e-05,1.004066766384851e-05,1.064445899891778e-05
144.488369129539,395.2040506009365,12.5,0,0.8178758228251664,2.106389879968265,-1.561763788064104,9.3209072906592e-07,6.086146957638315e-06,-1.249411030451283e-05,1.143420787347411e-05,1.086064637306354e-05
151.0883398844004,400.4069473504411,12.5,0,0.6882582361124393,1.961333921772647,-1.478873237358,6.333592181416881e-07,5.725661960782518e-06,-1.1830985898864e-05,1.043396598826281e-05,1.006091672898822e-05
137.2779713781328,379.5964494039987,12.5,0,0.9629910659888636,2.20331141523466,-1.826626193290689,1.318922278976636e-06,6.28020367595982e-06,-1.461300954632551e-05,1.247349051644849e-05,1.272937924018859e-05
143.5394317805772,384.3204149925789,12.5,0,0.8304219403351916,2.052846409005143,-1.740877730811261,1.015073081868498e-06,5.904770956548305e-06,-1.392702184649009e-05,1.144398241645528e-05,1.199864804623341e-05
133.0568844538556,386.1923690844217,12.5,0,1.078073543400816,2.15643769988295,-1.841448569056392,1.724685178976252e-06,6.038141804904786e-06,-1.473158855245114e-05,1.269347847796963e-05,1.215686395099815e-05
139.6568552087171,391.3952658339261,12.5,0,0.9515276537958819,2.016522849399912,-1.760843450420235,1.431670212626893e-06,5.691650995043012e-06,-1.408674760336188e-05,1.172243212096674e-05,1.142225373856187e-05
208.0896422582459,3.432678485654495,12.5,0,-23.55725441331711,-1.239552266164655,-0.9173932221716361,-7.439157230968303e-05,1.487923627892679e-05,-7.339145777373088e-06,5.080739103455236e-06,5.524259962852163e-06
224.0130129696434,3.608529419024042,12.5,0,-23.22323951057702,0.2287003314784597,0.273502405230798,-7.449732669902923e-05,1.931043266919269e-05,2.188019241846384e-06,5.775520799558574e-06,5.415499980289507e-06
203.4605815190964,12.81093051490988,12.5,0,-21.13897922406223,-0.1451327096365622,-0.09698805508422266,-6.752862734928989e-05,1.644675870841278e-05,-7.759044406737813e-07,5.051994853121727e-06,5.264011302614592e-06
217.0008567553439,13.46721513282387,12.5,0,-20.89759417058242,1.473150790539004,1.219528384248765,-6.805082197829495e-05,2.143215786619075e-05,9.756227073990124e-06,6.050817490591569e-06,5.195015050393349e-06
200.0718738668607,19.67628748621887,12.5,0,-19.6620930707145,-0.8973576796485965,-0.638864786434748,-6.220081168256751e-05,1.285812988169609e-05,-5.110918291477984e-06,4.303769240618377e-06,5.011620262474995e-06
211.8676021360851,20.68427397087195,12.5,0,-19.49329099069711,0.3711798038690253,0.01354699526346564,-6.267547501332596e-05,1.678240816493857e-05,1.083759621077252e-07,4.951797366440731e-06,4.992027472788735e-06
195.4428131277112,29.05453951547427,12.5,0,-17.58751725601546,0.2451278597010118,0.2198920741454212,-5.647615750701028e-05,1.48544229558556e-05,1.75913659316337e-06,4.416542362124795e-06,4.582323777646712e-06
204.8554459217855,30.54295968467177,12.5,0,-17.54796579856579,1.67166464974631,0.9323670433898399,-5.749082227520755e-05,1.938769951804082e-05,7.458936347118719e-06,5.372607133210367e-06,4.657940027340181e-06
179.6410731926547,17.9304036814884,12.5,0,-19.7424007856319,-0.1489143447359309,-0.07089864694600366,-6.305655103823333e-05,1.531739472535054e-05,-5.671891755680293e-07,4.710560615265792e-06,4.940986315016362e-06
191.4368014618791,18.93839016614145,12.5,0,-19.77708794031575,0.3873966574373044,0.7004459533410623,-6.359659873496024e-05,1.706133965605197e-05,5.603567626728498e-06,5.050826797583801e-06,4.997943825469563e-06
179.1396548956784,26.47652015946026,12.5,0,-17.67780223964248,0.3984467846192574,0.1871296310006055,-5.688772459455134e-05,1.541727150249561e-05,1.497037048004844e-06,4.529388796191236e-06,4.504925212927544e-06
188.5522876897527,27.96494032865776,12.5,0,-17.90695862564875,1.006199425155907,1.109067194541698,-5.810722714220072e-05,1.75454050610179e-05,8.872537556333586e-06,5.021763642756544e-06,4.541323581696124e-06
180.5095551588467,3.12809573450551,12.5,0,-23.32460678999869,-0.3058560175900942,-0.6964134366798039,-7.439405691392373e-05,1.768094617571065e-05,-5.571307493438431e-06,5.509156550403565e-06,5.485968878723508e-06
196.4329258702443,3.303946667875052,12.5,0,-23.16254053288845,0.4806086077931893,0.5516941390480278,-7.450461659147757e-05,2.006797997124896e-05,4.413553112384222e-06,5.918438990218729e-06,5.543142047278477e-06
180.0081368618704,11.67421221247738,12.5,0,-21.09065878706771,0.2818274930346947,-0.4483845618494733,-6.771557011304443e-05,1.777437500736519e-05,-3.587076494795786e-06,5.294204450477172e-06,5.203856172997878e-06
193.548412098118,12.33049683039135,12.5,0,-21.04755091253852,1.157610186128966,0.9859789571390177,-6.827825106902642e-05,2.05423933256435e-05,7.887831657112142e-06,5.857099311287352e-06,5.266380274276586e-06
223.5770437113239,523.455168248129,12.5,0,0.01621411659113926,0.07248418080884529,-0.00957097014417202,-6.102171555430601e-09,2.189780853153935e-07,-7.656776115337615e-08,3.305985939103361e-07,4.445138125343754e-07
235.5994821252546,524.287769501761,12.5,0,-0.02405995341508533,-0.08335494074509374,0.002058237894788629,-1.030789833219805e-08,-2.474878476522317e-07,1.646590315830903e-08,1.03216749421154e-08,6.922528477629934e-08
223.1030961687189,533.6818067462521,12.5,0,0.03099537498306618,0.07076469817746386,-0.05602426646658101,4.257344140384067e-08,2.016507341814314e-07,-4.481941317326481e-07,3.984971177602049e-07,3.371300833265546e-07
235.4724882639628,534.2130344525201,12.5,0,-0.007691446917242845,-0.08080895188905621,-0.04619689537846527,4.003453137606785e-08,-2.524354885111855e-07,-3.695751630277222e-07,3.493891422982346e-08,5.089535673836827e-08
202.7535695479024,522.0130605744189,12.5,0,0.03877855291229636,0.2885706668693042,-0.09855591854493756,-1.06765164176095e-07,8.924032916519362e-07,-7.884473483595004e-07,1.254270822487189e-06,1.365642024621463e-06
214.776007961833,522.8456618280508,12.5,0,0.004219709402510471,0.1577940809463216,-0.08440233445051902,-1.127321946690238e-07,5.015652915062207e-07,-6.752186756041522e-07,6.536612002615465e-07,7.918876310192644e-07
201.6786806014007,532.7616933686243,12.5,0,0.06029651022591759,0.2836287091435852,-0.138930561302145,-3.39541345919319e-08,8.593746610787386e-07,-1.11144449041716e-06,1.326861097074717e-06,1.181658058760001e-06
214.0480726966446,533.2929210748922,12.5,0,0.02729511327424184,0.1561388667485283,-0.1263674672299974,-3.756673092124879e-08,4.778082829758972e-07,-1.010939737839979e-06,7.537942149902145e-07,6.401170361550555e-07
204.6153318157041,503.3958824632888,12.5,0,0.03034281111553805,0.3798188841500375,-0.1240653397699804,-2.067581117503082e-07,1.191146180387689e-06,-9.925227181598434e-07,1.583858078614952e-06,1.696968998300942e-06
216.036828825738,504.7504780130029,12.5,0,-0.01170247881194473,0.228746341140744,-0.1029716720273505,-2.204450051108183e-07,7.413502746999364e-07,-8.237733762188043e-07,8.814590794984952e-07,1.078562982102809e-06
203.5404428692024,514.144515257494,12.5,0,0.06114344648334226,0.3750491253859378,-0.172664065565112,-1.04380271562055e-07,1.151242444048327e-06,-1.381312524520896e-06,1.689012479039828e-06,1.503719174718084e-06
215.3088935605495,515.1977372598443,12.5,0,0.02122946319935317,0.2279841301146828,-0.1536878092979464,-1.144530218538161e-07,7.125656458075023e-07,-1.229502474383571e-06,1.015854935739394e-06,9.093688681570084e-07
224.3979449352234,505.7421107790583,12.5,0,0.0117301310418729,0.1345206785148928,-0.01996160044044131,-7.008012347792095e-08,4.210820664141585e-07,-1.596928035235305e-07,5.553699348792959e-07,6.607862615594028e-07
235.8194419452573,507.0967063287724,12.5,0,-0.0347877267791521,-0.03746390869988357,-0.0004767635177835368,-8.134959873337986e-08,-9.205432641630574e-08,-3.814108142268294e-09,2.017220405804368e-09,1.378050509649191e-07
223.9239973926184,515.9687492771814,12.5,0,0.03670592720619127,0.1345134187195118,-0.07345294158586695,9.848232084202636e-09,4.010781981374846e-07,-5.876235326869356e-07,6.601497291332546e-07,5.312372241145115e-07
235.6924480839656,517.0219712795315,12.5,0,-0.007621748391813424,-0.03246310488340663,-0.05632503848768025,1.580889052922341e-09,-9.778453691345045e-08,-4.50600307901442e-07,5.612845604430279e-08,9.251266715801467e-08
238.9729375927616,67.86770228093349,12.5,0,-10.0491562045602,1.582547142075212,-1.065051017899179,-3.342333756825279e-05,1.310347581828884e-05,-8.520408143193429e-06,3.626793662497433e-06,3.655964396326004e-06
240.9316205555484,66.77327557963872,12.5,0,-9.989668611950147,1.349542400835408,-1.036165786177099,-3.304657347890879e-05,1.231027057223342e-05,-8.289326289416792e-06,3.42314583357783e-06,3.662910458596145e-06
240.3044314385011,69.74833222703006,12.5,0,-9.709493022862118,1.886970524528245,-1.263705750495552,-3.257995409278137e-05,1.380590009678008e-05,-1.010964600396441e-05,3.857406458762461e-06,3.658620270425377e-06
242.2125054494124,69.0566546038964,12.5,0,-9.690359742506589,1.583314305101573,-1.203549837333726,-3.227580262010234e-05,1.28188935703303e-05,-9.628398698669806e-06,3.580409996311562e-06,3.660080127816853e-06
235.5803991853562,69.76330493270197,12.5,0,-9.740680894701352,1.640616692708826,-0.9582313007642135,-3.248267221721138e-05,1.304251813242932e-05,-7.665850406113708e-06,3.58984455706241e-06,3.659186069851451e-06
237.5390821481431,68.66887823140721,12.5,0,-9.728595119508045,1.35901088503606,-0.9627956444598272,-3.221871309045459e-05,1.213171092772183e-05,-7.702365155678618e-06,3.360367989172224e-06,3.654966449369595e-06
236.9995503070602,70.94635301273448,12.5,0,-9.527321792334956,1.987085474549771,-1.116790254809637,-3.207709811511167e-05,1.398053095242723e-05,-8.934322038477095e-06,3.878627795041754e-06,3.663754493777804e-06
238.9076243179716,70.25467538960083,12.5,0,-9.552709787356262,1.59674459517134,-1.092803619648781,-3.184606699567711e-05,1.27517505344333e-05,-8.742428957190249e-06,3.539465459696737e-06,3.659604813817279e-06
235.1686975777419,65.92219698296687,12.5,0,-10.1906060015405,1.304237492734793,-0.8580042069967684,-3.365332919911743e-05,1.232604477798373e-05,-6.864033655974147e-06,3.403402409407291e-06,3.683582337422445e-06
236.5372397475706,67.50799414116048,12.5,0,-10.06303491664807,1.531036508709775,-0.9728079593757446,-3.342654094024163e-05,1.294974476118973e-05,-7.782463675005957e-06,3.57146861948892e-06,3.661391207455897e-06
233.1223573389906,67.71420555032572,12.5,0,-10.19847414122489,1.599698401419818,-0.791152860183102,-3.39148759730555e-05,1.327781419752333e-05,-6.329222881464817e-06,3.628246773702557e-06,3.668609025304598e-06
234.5415084606946,68.89725363035819,12.5,0,-10.05045320348989,1.907952727404973,-0.9156488762691904,-3.368781243309163e-05,1.414581129048783e-05,-7.325191010153524e-06,3.874779385203532e-06,3.660486837653646e-06
236.6667226020169,64.61035566411724,12.5,0,-10.74958484963671,1.446675138240669,-0.9023938448768224,-3.555601162943001e-05,1.322902832207951e-05,-7.219150759014579e-06,3.644224357526021e-06,3.700547577003807e-06
238.7130628407683,62.8183470967584,12.5,0,-10.64357219565796,1.270323191927218,-0.9048895614201158,-3.507568957964725e-05,1.257989197069346e-05,-7.239116491360926e-06,3.486432249726131e-06,3.73192416138679e-06
237.9982164477565,66.49098561021381,12.5,0,-10.49685632142439,1.674002589610314,-1.050609029553777,-3.49291423002463e-05,1.375429334389252e-05,-8.404872236430214e-06,3.794142885330498e-06,3.667198784264157e-06
239.9939477346323,65.1017261210161,12.5,0,-10.40953361711158,1.453763179249706,-1.036197047408089,-3.447351811815681e-05,1.297966906728832e-05,-8.289576379264712e-06,3.596332186642781e-06,3.682161009371605e-06
457.4464232018581,145.8916697282709,12.5,0,2.240072705263286,-0.1568118601196212,-3.231306552797697,7.29368214493821e-06,-2.293856116593416e-06,-2.585045242238157e-05,1.110431436909138e-05,1.180551415539626e-05
468.3327875233401,143.3935652471954,12.5,0,2.328310469725,-0.3447980523917231,-3.014853968890829,7.726431945033378e-06,-2.966002143433514e-06,-2.411883175112663e-05,1.05983613971064e-05,1.066615711634798e-05
461.3143175178297,155.6404737145324,12.5,0,2.848269156377752,0.07311345363352961,-3.397219300448821,9.055970537501983e-06,-2.044652273474907e-06,-2.717775440359057e-05,1.38255041946386e-05,1.401129599385901e-05
471.9339211851537,153.3428359489812,12.5,0,2.931028966713521,-0.1235024476988065,-3.172145243443266,9.478094651642311e-06,-2.740031006006997e-06,-2.537716194754612e-05,1.327812808892861e-05,1.278574153456684e-05
476.3021593160313,141.5648258445104,12.5,0,1.619311970168749,-0.127394559037518,-3.335590183049803,5.283713951770009e-06,-1.703112165055056e-06,-2.668472146439842e-05,9.545789678696954e-06,9.995975624466775e-06
487.1885236375134,139.0667213634348,12.5,0,1.720176291700993,-0.2438620586978547,-3.122019673238768,5.69965378040146e-06,-2.156499621193929e-06,-2.497615738591014e-05,9.213613895306263e-06,9.304362777325454e-06
479.7080106255492,151.6608483672803,12.5,0,2.215798954204292,0.06793848248949752,-3.464283636944748,7.036205867462134e-06,-1.555236019397041e-06,-2.771426909555798e-05,1.193815381500486e-05,1.200901631365051e-05
490.3276142928731,149.3632106017291,12.5,0,2.311826737803247,-0.05444293041325898,-3.242853428483841,7.441399905300998e-06,-2.023678767565026e-06,-2.594282742787073e-05,1.159588141293522e-05,1.111251800578887e-05
482.2012668270352,159.0516498079933,12.5,0,2.856909547007684,-0.09618675690994904,-3.004947358855307,9.219059955952547e-06,-2.593325259717984e-06,-2.403957887084246e-05,1.289538203937547e-05,1.350472653529219e-05
492.6255881420634,156.9007638634262,12.5,0,2.925862994931908,-0.2088034938472815,-2.827410932567764,9.52980437885993e-06,-3.008861576256827e-06,-2.261928746054211e-05,1.26039097691845e-05,1.246515663829009e-05
485.6071181365529,169.1476723307632,12.5,0,3.376712220099496,0.07809110964838506,-3.121769422197911,1.074300621659968e-05,-2.451478225204765e-06,-2.497415537758329e-05,1.524182163596771e-05,1.557804216520739e-05
495.764678797423,167.1972531017205,12.5,0,3.440650632940002,-0.04034616112250511,-2.937219549190462,1.104235895430601e-05,-2.881628221944018e-06,-2.34977563935237e-05,1.4922419823677e-05,1.43524788782576e-05
464.1458126753075,162.7770935452024,12.5,0,3.536686041970404,-0.1065593545159432,-2.880834077728835,1.140264281791805e-05,-3.170338768027341e-06,-2.304667262183068e-05,1.500729293250178e-05,1.564222049143648e-05
474.5701339903357,160.6262076006353,12.5,0,3.595142547399661,-0.2832099093955708,-2.697681320234454,1.173102407919537e-05,-3.782385747985555e-06,-2.158145056187563e-05,1.453057350422326e-05,1.435601822901839e-05
468.0137069912792,172.5258975314638,12.5,0,4.075378774624237,0.1023394021807829,-3.032870187252287,1.295934055705293e-05,-2.932816932720884e-06,-2.426296149801829e-05,1.762482669542114e-05,1.789220724385355e-05
478.1712676521493,170.5754783024211,12.5,0,4.128105596718814,-0.08275875199519711,-2.841864275792707,1.327614491109636e-05,-3.567312483759681e-06,-2.273491420634165e-05,1.709771688305935e-05,1.652650952216484e-05
534.1849756811688,84.09255284153926,12.5,0,-2.015715209178679,-0.1464985580105577,-3.126577000218083,-6.333089822963326e-06,1.143776781709158e-06,-2.501261600174466e-05,3.257276599595724e-06,3.568662898190805e-06
541.0787792658338,76.00254011206992,12.5,0,-1.624239384825917,-0.1281048046263332,-3.032014180982981,-5.095082187741867e-06,8.894561330564672e-07,-2.425611344786385e-05,3.38531280758463e-06,2.966304834712481e-06
541.0514547555315,95.40159019934619,12.5,0,-1.365444254796504,0.1021515980673017,-3.326119936189752,-4.451142893802654e-06,1.419240517652569e-06,-2.660895948951802e-05,4.359505354988489e-06,4.444373426801765e-06
550.0315429816443,88.7358830783743,12.5,0,-1.104802040426441,0.08093972906895125,-3.208451519856105,-3.600118312619771e-06,1.142848765361797e-06,-2.566761215884884e-05,4.401013747743104e-06,3.769854461358882e-06
546.0780663068597,103.6803801296034,12.5,0,-0.7589888027696748,-0.0834228913652343,-3.370412205845239,-2.362025855770772e-06,3.402377898469901e-07,-2.696329764676191e-05,4.856765074559145e-06,5.070077145538956e-06
556.5854208894981,98.05733707951261,12.5,0,-0.6164920722598612,-0.2190931219513793,-3.275218891693635,-1.797500133670453e-06,-2.079043324365246e-07,-2.620175113354908e-05,4.678240073803155e-06,4.488831045985925e-06
552.9445453812223,114.9894174874102,12.5,0,-0.3199647582947407,0.1466937987164516,-3.542357948172636,-1.141242265516331e-06,7.253919625284377e-07,-2.833886358538109e-05,6.177315121958766e-06,5.903820967075465e-06
565.5381846053086,110.790680045817,12.5,0,-0.246622257695326,-0.01054395261268554,-3.430617803083986,-7.807560625348948e-07,1.635571577956671e-07,-2.744494242467189e-05,5.821852941049393e-06,5.649561978076459e-06
527.8787943169154,113.4197763853326,12.5,0,-0.5044162992199833,-0.07766407748828727,-3.481821984073583,-1.552000895513316e-06,1.550079914134674e-07,-2.785457587258866e-05,5.409346081643157e-06,5.604838505431776e-06
538.3861488995537,107.7967333352419,12.5,0,-0.305359446739827,-0.1934724735949479,-3.34683943796588,-8.223722506914881e-07,-3.748243581119717e-07,-2.677471550372704e-05,5.281068083561115e-06,5.369110443035274e-06
531.1317223933045,122.2618440637609,12.5,0,-0.06748669499312496,0.08810971947492763,-3.601496539877569,-2.86445199557942e-07,3.359404583142683e-07,-2.881197231902055e-05,6.614192692552943e-06,6.429699934730647e-06
543.7253616173908,118.0631066221676,12.5,0,0.03655637476433896,-0.04632571722089592,-3.457745166047469,1.540409730226014e-07,-1.774873949183381e-07,-2.766196132837975e-05,6.295869147488548e-06,6.112858302539316e-06
522.2445576153434,98.10486592260729,12.5,0,-1.442596809021939,-0.1061428502880072,-3.317788283941617,-4.531395508639797e-06,8.144203262959275e-07,-2.654230627153293e-05,4.008770243745867e-06,4.246708436394951e-06
529.1383612000083,90.01485319313798,12.5,0,-1.105905513900228,-0.1359098487378088,-3.253973048733952,-3.430169765490482e-06,4.498128951591941e-07,-2.603178438987161e-05,4.185749936331501e-06,3.911746009236847e-06
525.4974856917324,106.9469336010356,12.5,0,-0.9741021009740956,0.07159681388567279,-3.446097848293995,-3.174404174225643e-06,1.008391485213429e-06,-2.756878278635196e-05,4.949480683806375e-06,5.019907696386925e-06
534.4775739178452,100.2812264800638,12.5,0,-0.7716889272770617,0.00791353904910494,-3.362374289656695,-2.475735398525881e-06,6.426744667787851e-07,-2.689899431725356e-05,4.960848760522266e-06,4.779324181613017e-06
166.7982920067201,476.3020381782388,12.5,0,0.1414693075566946,0.9638792354508829,-0.5091296887758009,-3.184016041792835e-07,2.971238107397469e-06,-4.073037510206407e-06,4.33664340800163e-06,4.469272821773389e-06
178.3489840506684,478.9873358971814,12.5,0,0.08396375995061453,0.7957559211526239,-0.4682069587077219,-3.679207050801326e-07,2.479247939727905e-06,-3.745655669661775e-06,3.516832144287755e-06,3.811084743491073e-06
163.6856088772905,487.2200261692439,12.5,0,0.1937875054252726,0.938295041415016,-0.5566804757210552,-1.305160157711405e-07,2.847514128187833e-06,-4.453443805768441e-06,4.440971441086513e-06,4.1380256927439e-06
175.8373053734925,489.7611557010352,12.5,0,0.1400917121508259,0.7770459247562072,-0.5187153402348348,-1.733432609223226e-07,2.374473589499202e-06,-4.149722721878678e-06,3.661917250598268e-06,3.510050818544154e-06
172.1896173346578,457.3915282617307,12.5,0,0.1358402150562461,1.116671262651423,-0.5432745911371619,-4.586483219411506e-07,3.464675868439556e-06,-4.346196729097296e-06,4.905043816344164e-06,5.054904560039053e-06
182.6993391317463,460.3265326056501,12.5,0,0.07103201173418319,0.9374924207067269,-0.496403178076005,-5.226914990159952e-07,2.943150136874179e-06,-3.97122542460804e-06,4.016301358051003e-06,4.350960067102508e-06
169.0769342052282,468.309516252736,12.5,0,0.1975727643628848,1.087322745396941,-0.5982280852573698,-2.376253503563213e-07,3.321374573779902e-06,-4.785824682058959e-06,5.027005367855472e-06,4.714949773814642e-06
180.1876604545704,471.100352409504,12.5,0,0.1374885728914384,0.9160284277526654,-0.5550399433214417,-2.928593089495294e-07,2.821300110495378e-06,-4.440319546571534e-06,4.185232976426043e-06,4.036405697543133e-06
190.3929894603021,462.4751049057431,12.5,0,0.0612127751992245,0.8781967811507696,-0.3365526452360346,-5.066765442830972e-07,2.761259479523083e-06,-2.692421161888277e-06,3.661039692474739e-06,3.817598766149948e-06
200.9027112573906,465.4101092496623,12.5,0,-0.006114145819179906,0.6882940721557128,-0.2887860420767417,-5.702005243459459e-07,2.207432347553625e-06,-2.310288336613933e-06,2.722636777933693e-06,3.064373086031114e-06
188.3212765777323,473.1433862717715,12.5,0,0.1239540567252945,0.8623432920666514,-0.3963348108283887,-2.932216521323787e-07,2.660335289233049e-06,-3.170678486627109e-06,3.831315572820104e-06,3.51978039266996e-06
199.4320028270745,475.9342224285394,12.5,0,0.06172736249100536,0.6816023228329005,-0.3526003496015214,-3.477542982951032e-07,2.131745543072477e-06,-2.820802796812171e-06,2.944266804873533e-06,2.78687788749219e-06
186.8046774890607,480.9531102608127,12.5,0,0.06732306809964284,0.7439461621928217,-0.3102114536166493,-3.797231118354002e-07,2.326769264537315e-06,-2.481691628933194e-06,3.163381569891409e-06,3.308195009730114e-06
198.355369533009,483.6384079797552,12.5,0,0.007803870279845582,0.5664694697271379,-0.2690244131887886,-4.282031908862043e-07,1.806459206902964e-06,-2.152195305510309e-06,2.299724764394377e-06,2.592462784714291e-06
184.7329646064909,491.6213916268411,12.5,0,0.1198192048155995,0.7299374751006468,-0.3617496041172465,-2.005285246705991e-07,2.23994455646959e-06,-2.893996832937972e-06,3.306691173720696e-06,3.027951366854948e-06
196.8846611026928,494.1625211586323,12.5,0,0.06437210757459798,0.5603543867781127,-0.3237593922880753,-2.422927651837766e-07,1.741636351630282e-06,-2.590075138304603e-06,2.487574003669736e-06,2.338806044682689e-06
197.0869118070465,427.8137971203225,12.5,0,0.05908135186085917,1.186332963583079,-0.3868654092983452,-7.600060449117139e-07,3.749000401977165e-06,-3.094923274386761e-06,4.837576999894033e-06,5.062002752430877e-06
205.8936324886079,430.6372142876049,12.5,0,-0.0212353660353472,0.9731170393953842,-0.3283947693828361,-8.464468028294183e-07,3.130962818893507e-06,-2.627158155062689e-06,3.765151485455154e-06,4.230178742107776e-06
195.1710058068177,437.7413920834975,12.5,0,0.1438973403440763,1.167987941733289,-0.461935992904964,-4.73918864285587e-07,3.622443541271264e-06,-3.695487943239712e-06,5.069446035833156e-06,4.667348582776928e-06
204.4564165260262,440.6178603651939,12.5,0,0.0683824074777194,0.9652948713160766,-0.4070827742482792,-5.534121931241591e-07,3.034237662229269e-06,-3.256662193986234e-06,4.04957491243585e-06,3.857964450911046e-06
193.7684652721837,445.0088959931975,12.5,0,0.06149588673655204,1.023459484728867,-0.3621508582090451,-6.219807502261273e-07,3.225873641743134e-06,-2.897206865672361e-06,4.220063489939186e-06,4.396884802972142e-06
203.4043014200121,447.9242003860415,12.5,0,-0.0123732857902438,0.822207577853531,-0.3088866680782684,-6.97360576811605e-07,2.640962877763494e-06,-2.471093344626147e-06,3.215245310481442e-06,3.604274180244101e-06
191.8525592719549,454.9364909563725,12.5,0,0.1332654699194431,1.007024133402247,-0.427547083469194,-3.791698029795801e-07,3.115864850951637e-06,-3.420376667753551e-06,4.416503985176322e-06,4.05261818456088e-06
201.9670854574304,457.9048464636306,12.5,0,0.06340730250478968,0.8149183790009951,-0.3772897673204423,-4.49031335185469e-07,2.557012970799352e-06,-3.018318138563539e-06,3.457633202315935e-06,3.283393762563365e-06
177.078707491036,439.9594406653536,12.5,0,0.139787041829687,1.279682284430881,-0.5808832423040312,-5.764272936897066e-07,3.98315367671507e-06,-4.64706593843225e-06,5.544578958588634e-06,5.712172752470244e-06
186.7145436388645,442.8747450581976,12.5,0,0.06824820131099368,1.089125500451153,-0.5283887894781299,-6.529061561657423e-07,3.430603040394893e-06,-4.22711031582504e-06,4.587894977044569e-06,4.961694523109275e-06
174.3336860245402,449.7951484029668,12.5,0,0.2087921772436903,1.250365882422433,-0.6391044896606476,-3.321577387581375e-07,3.834137081956833e-06,-5.112835917285181e-06,5.688662365553367e-06,5.322109651835265e-06
184.4482122100158,452.763503910225,12.5,0,0.1410779244757372,1.068230986662533,-0.5894793245892656,-4.031354310076672e-07,3.305476817739514e-06,-4.715834596714125e-06,4.77659374205881e-06,4.598890460670782e-06
181.8332241387887,422.9234951357154,12.5,0,0.1408011043874283,1.458368003009567,-0.6181411571146935,-7.161308683678829e-07,4.554136726120671e-06,-4.945129256917548e-06,6.234373770709623e-06,6.449517173109338e-06
190.6399448203501,425.7469123029975,12.5,0,0.06315991571825352,1.256766101748868,-0.5607896742687066,-8.033011511006835e-07,3.971123593021776e-06,-4.486317394149653e-06,5.213914208875922e-06,5.656672692730593e-06
179.0882026722928,432.7592028733285,12.5,0,0.2219021802661671,1.42513894939978,-0.684844764561953,-4.300241826680896e-07,4.382922893866363e-06,-5.478758116495624e-06,6.404215816198912e-06,6.014260687327004e-06
188.3736133915014,435.6356711550249,12.5,0,0.1488225199809786,1.233188909651767,-0.6309238788779782,-5.103190637822817e-07,3.82714649490087e-06,-5.047391031023826e-06,5.43482775705766e-06,5.24512641794887e-06
359.6194917333124,74.478075333238,12.5,0,-5.177028082307746,-0.2741541693270126,-3.524164843023158,-1.634716652792318e-05,3.264329123999756e-06,-2.819331874418527e-05,2.863866881684476e-06,2.859036722693003e-06
366.8979150449082,79.27914787928574,12.5,0,-5.305264973209503,-0.06623772370676351,-3.478200040795597,-1.6923857735305e-05,4.032251262705959e-06,-2.782560032636478e-05,2.963348694891033e-06,2.898625292010442e-06
355.7430922900147,81.93376197146512,12.5,0,-4.807177149750445,-0.03956926054049781,-3.35010309773147,-1.535131147076903e-05,3.719120086070763e-06,-2.680082478185176e-05,2.886740085971034e-06,3.007920718461325e-06
362.4132771899243,86.80188521371689,12.5,0,-4.96053194573135,0.1695874203080565,-3.309647889955829,-1.600937216258676e-05,4.51110530157086e-06,-2.647718311964663e-05,2.999911148019297e-06,3.125075259550433e-06
366.3336125194153,61.56444727074827,12.5,0,-6.91903394748165,-0.3044772832708416,-3.232706633264095,-2.189732680532461e-05,4.560899851518627e-06,-2.586165306611276e-05,2.668474117141576e-06,2.779401636585283e-06
374.6655356631476,66.24938460428987,12.5,0,-7.020223763908862,-0.0367376610255763,-3.179014570518435,-2.24353259156879e-05,5.498618495845245e-06,-2.543211656414748e-05,2.810786239117162e-06,2.720182801905459e-06
362.4572130761175,69.0201339089754,12.5,0,-6.564760157524312,-0.06579280287811828,-3.05594760919328,-2.09545982617753e-05,5.041271156809471e-06,-2.444758087354624e-05,2.665266166678335e-06,2.797805219251122e-06
370.1808978081636,73.77212193872101,12.5,0,-6.686601462650593,0.2061157987425926,-3.006951235805542,-2.156201731947597e-05,6.00885172609677e-06,-2.405560988644434e-05,2.826503564084035e-06,2.790134684966395e-06
380.7649267288593,69.67899676257278,12.5,0,-5.457351932729793,-0.422492055743467,-3.361491006946809,-1.712553254014056e-05,3.013906967804739e-06,-2.689192805557447e-05,2.61715644050238e-06,2.701968685819018e-06
389.0968498725916,74.36393409611436,12.5,0,-5.503514701806648,-0.09232152451697928,-3.346788596201569,-1.753738982616769e-05,4.107382882990985e-06,-2.677430876961255e-05,2.824188468558521e-06,2.71142562993361e-06
375.8350274534251,77.25081861330604,12.5,0,-5.155683447968734,-0.1259232586788444,-3.166368874425176,-1.639744842655687e-05,3.721592330602685e-06,-2.533095099540141e-05,2.645173785448698e-06,2.821870147421677e-06
383.5587121854711,82.00280664305164,12.5,0,-5.216210164116379,0.2089436269574607,-3.158724431870244,-1.685902742673838e-05,4.841587737556977e-06,-2.526979545496195e-05,2.883505424329457e-06,2.916243577539613e-06
372.2260907077636,82.79377691366733,12.5,0,-3.793189493469311,-0.4124447456284543,-3.61493684859326,-1.180825058259903e-05,1.714728408764394e-06,-2.891949478874608e-05,3.020419088111665e-06,2.972847213220362e-06
379.5045140193594,87.59484945971506,12.5,0,-3.874191156019062,-0.1543583416397644,-3.600131394947541,-1.227392502594919e-05,2.605406231568003e-06,-2.880105115958033e-05,3.186049899917514e-06,3.136036703692421e-06
367.2961914323294,90.3655987644006,12.5,0,-3.467679706540766,-0.1230999132969678,-3.421235178753459,-1.099809513029288e-05,2.380224042682316e-06,-2.736988143002767e-05,3.097107205388595e-06,3.265422766174917e-06
373.966376332239,95.23372200665236,12.5,0,-3.56736482442999,0.1364900618920361,-3.414090649137344,-1.15247594876896e-05,3.290660057598507e-06,-2.731272519309875e-05,3.290191317376062e-06,3.53170474391581e-06
126.4288556019824,275.4818871749691,12.5,0,5.383596836277565,1.815419423954536,-4.217928226226863,1.577517433692458e-05,1.502464687632462e-06,-3.37434258098149e-05,2.854706694667327e-05,2.855260131184048e-05
129.8013018184636,275.6674013821192,12.5,0,5.449426089761209,2.02131838778375,-4.326476369983143,1.582110877700887e-05,2.108677969099034e-06,-3.461181095986515e-05,2.952840678672836e-05,2.899017818528117e-05
126.2509072008149,278.9131163652411,12.5,0,5.130887423923838,1.761246648812778,-4.153438547698175,1.500984243750606e-05,1.531279337061819e-06,-3.32275083815854e-05,2.742653358375866e-05,2.797511846411482e-05
129.8023293841896,278.9228834935152,12.5,0,5.179717414184653,1.953833282053728,-4.253023418391495,1.50120290997479e-05,2.108492571224207e-06,-3.402418734713196e-05,2.829778308411677e-05,2.843374037407974e-05
126.7370712739247,269.5388238851116,12.5,0,5.785414598415684,1.654927187929009,-4.240578897061764,1.718938496458698e-05,6.674353226402796e-07,-3.392463117649411e-05,2.948788734542673e-05,2.96074767862187e-05
129.7995220224182,270.028740962151,12.5,0,5.881723877985586,1.865859669303287,-4.361492880844902,1.732882867411124e-05,1.265371839382048e-06,-3.489194304675922e-05,3.059894948274368e-05,2.999106695970927e-05
126.5591228727571,272.9700530753835,12.5,0,5.497658876570939,1.592671684582469,-4.171538450071325,1.631837105736103e-05,6.984222894071499e-07,-3.33723076005706e-05,2.821008446104778e-05,2.898999040599282e-05
129.8005495881441,273.284223073547,12.5,0,5.571580290075292,1.788260819607588,-4.281678716870651,1.639844827255486e-05,1.265170390684047e-06,-3.425342973496521e-05,2.918372491190021e-05,2.940746258623913e-05
132.0413915658974,270.3873851540242,12.5,0,5.721810772163215,1.974693127147608,-4.408749936472265,1.67300399692042e-05,1.741569389141775e-06,-3.526999949177812e-05,3.041693346325217e-05,3.029814174590634e-05
135.1038423143908,270.8773022310634,12.5,0,5.837187955307741,2.233622920851872,-4.550104383599526,1.689210312030327e-05,2.477842982479797e-06,-3.640083506879621e-05,3.177258850752752e-05,3.075349549006519e-05
132.1734386327176,273.5142114744066,12.5,0,5.415987586796605,1.889504492690118,-4.321227512482698,1.581955668359704e-05,1.713624307171093e-06,-3.456982009986158e-05,2.89885693989714e-05,2.972898270036798e-05
135.4148653481046,273.8283814725701,12.5,0,5.504045306931005,2.126863444855545,-4.448094578028144,1.591145422629478e-05,2.402726777992939e-06,-3.558475662422515e-05,3.01657209318119e-05,3.018991980761434e-05
132.2701037946163,275.803207207273,12.5,0,5.30405615129084,2.132102018598487,-4.365334278943855,1.52672980692519e-05,2.579481538482486e-06,-3.492267423155084e-05,2.940368781687614e-05,2.931984999200038e-05
135.6425500110976,275.988721414423,12.5,0,5.380074470363981,2.372307035173891,-4.486307006235943,1.531839267702563e-05,3.287322936265265e-06,-3.589045604988755e-05,3.054830452447635e-05,2.978295324437788e-05
132.4021508614366,278.9300335276556,12.5,0,5.046183258800426,2.059915616881271,-4.288177636453585,1.449985393465634e-05,2.554783366979726e-06,-3.430542109162868e-05,2.819830606224106e-05,2.87712376911927e-05
135.9535730448113,278.9398006559297,12.5,0,5.102568182038153,2.282446454030274,-4.397811834639056,1.450226101929787e-05,3.221774107266354e-06,-3.518249467711245e-05,2.920703718985392e-05,2.923467559903774e-05
140.3548678428799,335.1656816000884,12.5,0,1.978648020804425,2.863576425802207,-2.864137880597962,4.040812525932396e-06,7.58052614592352e-06,-2.29131030447837e-05,1.902670476505308e-05,1.865076175422415e-05
144.0131102846149,332.4897756398871,12.5,0,1.908249513889541,2.950642682303575,-2.88391347368634,3.745884298603672e-06,7.915456972259805e-06,-2.307130778949072e-05,1.91133791689974e-05,1.902356538361028e-05
144.93008197233,338.0185801981601,12.5,0,1.864807305422725,2.728459954228307,-2.786177300546218,3.784615413970074e-06,7.239226009192403e-06,-2.228941840436974e-05,1.811498333300545e-05,1.80220051893238e-05
148.0311455266728,334.800463097434,12.5,0,1.777848208610041,2.788304424404222,-2.791597018637846,3.458470728028754e-06,7.500295591205476e-06,-2.233277614910277e-05,1.804078336764491e-05,1.851389450027637e-05
150.3493720599911,327.8549705606252,12.5,0,1.872893001920806,3.192146058379361,-2.964890770376122,3.439540759443089e-06,8.716552985277309e-06,-2.371912616300898e-05,1.990775986378821e-05,1.974390891305828e-05
153.4023451601983,329.2265207743702,12.5,0,1.77167707086463,3.026006291025169,-2.886444289370645,3.24856159394668e-06,8.265878474588838e-06,-2.309155431496516e-05,1.892964252612743e-05,1.940523576983589e-05
146.691129618256,330.5308765208266,12.5,0,1.939812016664618,3.066284205784366,-2.952810804813021,3.754371088699284e-06,8.260259845178276e-06,-2.362248643850417e-05,1.967985727821166e-05,1.931647328201915e-05
150.3012816058554,332.4446378750963,12.5,0,1.855234042853365,2.939421553973781,-2.890505949625608,3.585211693951743e-06,7.921961738433406e-06,-2.312404759700486e-05,1.890716049259502e-05,1.888453001725908e-05
155.6372765835959,330.2305652159209,12.5,0,1.580041549299062,3.237453900761444,-2.751203141245444,2.466169837147844e-06,9.095819242997368e-06,-2.200962512996355e-05,1.89201702945501e-05,1.914126108397976e-05
158.690249683803,331.6021154296659,12.5,0,1.516988277191936,3.136433236825646,-2.702228016335118,2.345215897553679e-06,8.822995736088517e-06,-2.161782413068094e-05,1.831855884723718e-05,1.875874197350052e-05
152.9440962837115,333.8456084199241,12.5,0,1.654019436377028,3.191411104921363,-2.760379024808346,2.739733312469398e-06,8.889299986646739e-06,-2.208303219846676e-05,1.900700880582096e-05,1.855131274985072e-05
156.5542482713109,335.7593697741938,12.5,0,1.598986252748559,3.110919613255051,-2.719886609989546,2.628020318191346e-06,8.675753760217316e-06,-2.175909287991637e-05,1.851059647257184e-05,1.807288951005317e-05
150.9725514703364,336.4920037166985,12.5,0,1.535933593188778,3.027052807171749,-2.637622349046601,2.493345252466689e-06,8.457822108398573e-06,-2.110097879237281e-05,1.793885108120832e-05,1.812926864157029e-05
154.9905867123942,338.8026911742454,12.5,0,1.4385794730181,2.914458399225057,-2.569184349800437,2.271887594277874e-06,8.175403299105702e-06,-2.055347479840349e-05,1.716859218773773e-05,1.758812213696974e-05
148.2793711704521,340.1070469207018,12.5,0,1.625013690257185,2.996476147421051,-2.637173148528415,2.80286289088615e-06,8.288712719541614e-06,-2.109738518822732e-05,1.812103834875351e-05,1.756617102879311e-05
152.8545852999021,342.9599455187733,12.5,0,1.537967408571211,2.900543983568467,-2.57821937437725,2.601060520573102e-06,8.051366820562127e-06,-2.0625754995018e-05,1.744997845285314e-05,1.694956550724515e-05
396.2959364771139,183.2820798600951,12.5,0,7.568785437919572,-0.3854512035574849,-2.266023779103261,2.452847436418862e-05,-7.288472201719609e-06,-1.812819023282609e-05,2.84923499034533e-05,2.852186525824561e-05
404.5751819609366,186.4067574788634,12.5,0,7.274531576910157,-0.2236483097310868,-1.946818135225228,2.345741969389737e-05,-6.535299852667602e-06,-1.557454508180182e-05,2.770939217349379e-05,2.886619644186175e-05
394.3813568661903,193.0126367300604,12.5,0,9.050494115106989,0.05657943200120075,-2.012539593654556,2.89163176227414e-05,-7.059341109681748e-06,-1.610031674923644e-05,3.531166656955905e-05,3.283029254015045e-05
401.4990827751644,197.6668430445696,12.5,0,8.474594619237447,0.1564853859919597,-1.708757693918734,2.699351447276626e-05,-6.278922460215686e-06,-1.367006155134987e-05,3.331817305238324e-05,3.369712924107112e-05
381.9558626510552,177.8699794672121,12.5,0,7.443024291363182,-0.3419202431385568,-2.339850613084003,2.409121392687303e-05,-7.048564211133927e-06,-1.871880490467203e-05,2.818252282035847e-05,2.840212784934896e-05
390.235108134878,180.9946570859805,12.5,0,7.067125753648373,-0.3883461380745055,-1.96093282951482,2.292547932213439e-05,-6.896408244757115e-06,-1.568746263611856e-05,2.644825295527169e-05,2.839751845365303e-05
382.0530939577195,184.9513149245676,12.5,0,8.758289210256171,-0.01393817976350142,-2.322323183721181,2.803767601663055e-05,-7.051233543448141e-06,-1.857858546976945e-05,3.41108231192214e-05,3.154402397190359e-05
389.1708198666935,189.6055212390767,12.5,0,8.011379698209049,-0.1469009973552966,-1.89981717766953,2.575393583215319e-05,-6.879186950104187e-06,-1.519853742135624e-05,3.0711281725076e-05,3.225336972207577e-05
381.7874530878292,165.6047466698537,12.5,0,5.840583348189427,-0.3838534678887686,-2.857773904485611,1.899694948851718e-05,-5.900797775795601e-06,-2.286219123588489e-05,2.24300977451714e-05,2.34342356229367e-05
392.0785094892398,166.0802028760122,12.5,0,5.819006144910737,-0.2633643660560068,-2.412494591189351,1.883151115655916e-05,-5.497970887307811e-06,-1.92999567295148e-05,2.238239406195275e-05,2.241640152104149e-05
381.8846843944935,172.6860821272092,12.5,0,6.975800848397357,-0.1016936232794639,-2.815713066979411,2.240391761349511e-05,-5.906060273212169e-06,-2.252570453583529e-05,2.740657894676566e-05,2.622911661052359e-05
391.0142212210554,174.6910670291085,12.5,0,6.722927834113151,-0.02564198683789076,-2.332743142160023,2.153388265863239e-05,-5.460396625171771e-06,-1.866194513728018e-05,2.640444431254523e-05,2.576171076829729e-05
399.6120856383091,166.4282609756794,12.5,0,5.35158387014075,-0.5553308516759621,-2.864060725444277,1.756933306579117e-05,-6.058325821475677e-06,-2.291248580355422e-05,2.017678843544282e-05,2.175475510478249e-05
409.9031420397197,166.9037171818379,12.5,0,5.352978437303703,-0.3460597772359248,-2.427036886376063,1.740637882116059e-05,-5.389774036997921e-06,-1.941629509100851e-05,2.043315967060679e-05,2.096493758073542e-05
397.6975060273857,176.1588178456448,12.5,0,6.77225041538204,-0.1509502270097562,-2.660156421566921,2.179196151083033e-05,-5.900841058736851e-06,-2.128125137253536e-05,2.640840260977537e-05,2.555418394679046e-05
406.8270428539474,178.163802747544,12.5,0,6.561334257327015,0.0139398517444731,-2.22003616409875,2.098511774205087e-05,-5.204459880279297e-06,-1.776028931279e-05,2.585529933359246e-05,2.54546159687027e-05
88.59649250212534,556.2644576548651,12.5,0,0.4959628908448298,0.4777370121838797,-0.7716842549307242,1.204891640956352e-06,1.131988126312551e-06,-6.173474039445794e-06,4.022441247608666e-06,4.440538077452379e-06
107.0028312569991,557.7877555417269,12.5,0,0.4667117837921235,0.4017979801141486,-0.7197922585210452,1.172039324043476e-06,9.123841093315768e-07,-5.758338068168361e-06,3.624851396075967e-06,3.836361757070845e-06
85.84430708588013,572.1204476820412,12.5,0,0.599172493072532,0.4940197805079819,-0.7867390251737977,1.522136153425717e-06,1.101525303167516e-06,-6.293912201390381e-06,4.430256541342338e-06,4.123189141344789e-06
104.8738353908944,572.9322188360588,12.5,0,0.5757210147701288,0.4209448938023002,-0.736994515595958,1.505551332222572e-06,8.864468483512572e-07,-5.895956124767664e-06,4.062980843897446e-06,3.463248157232413e-06
93.36341747482655,528.8010773239839,12.5,0,0.4343910134728812,0.6861201696440852,-0.8630994868345861,8.411551073979515e-07,1.848071732082767e-06,-6.904795894676689e-06,4.611045162510689e-06,4.940340520329958e-06
110.6903602661302,531.5567756630531,12.5,0,0.4000103950721072,0.6064783024810677,-0.8221862847279444,7.948506222458888e-07,1.620722251881731e-06,-6.577490277823555e-06,4.193344906070724e-06,4.388952527321375e-06
90.61123205858129,544.6570673511601,12.5,0,0.5136976157547758,0.6955160429677955,-0.8817940216079088,1.087419536041046e-06,1.814693244893124e-06,-7.05435217286327e-06,4.915777828839324e-06,4.659493129538619e-06
108.5613644000256,546.7012389573853,12.5,0,0.4843363533412253,0.6186366182986349,-0.8430051656176567,1.054967036053013e-06,1.592168095882651e-06,-6.744041324941253e-06,4.524481999244617e-06,4.084403495458424e-06
123.3745627286645,533.5740868574992,12.5,0,0.2948558373349621,0.5900600516518414,-0.6016236960500737,4.714906381504057e-07,1.652307495417923e-06,-4.81298956840059e-06,3.566325223099128e-06,3.956759277997932e-06
140.7015055199681,536.3297851965684,12.5,0,0.2601968766802127,0.5089679275276087,-0.5608344847506882,4.254556633545938e-07,1.420539866744178e-06,-4.486675878005505e-06,3.138356757245243e-06,3.327373355116384e-06
121.7017732759894,548.197676432468,12.5,0,0.3678485863186038,0.6018935870758866,-0.6208500622420674,6.956006065588228e-07,1.631780609587954e-06,-4.966800497936539e-06,3.860114803910948e-06,3.645549336074947e-06
139.6519056174336,550.241848038693,12.5,0,0.3383504581501818,0.5240122931017679,-0.5824161474728019,6.635116315991674e-07,1.406158971405512e-06,-4.659329179782415e-06,3.46099246909235e-06,3.021667109555579e-06
120.4772064063179,558.9028869899246,12.5,0,0.3273729083998534,0.3896044617282369,-0.4910174150231251,7.359097374969412e-07,9.848359508104755e-07,-3.928139320185001e-06,2.879220144341087e-06,3.389814834840652e-06
138.8835451611916,560.4261848767862,12.5,0,0.3084758660815963,0.3385126162609288,-0.4598830339283784,7.163126784523652e-07,8.364596791696949e-07,-3.679064271427027e-06,2.615040154932891e-06,2.77400227567392e-06
118.8044169536427,573.5264765648932,12.5,0,0.3841211098093397,0.3999086280033169,-0.5021164466928437,9.092606489872333e-07,9.724107217631424e-07,-4.01693157354275e-06,3.11234870225772e-06,3.00234512611355e-06
137.8339452586571,574.3382477189108,12.5,0,0.3687889401975958,0.3508858723577312,-0.4724978290969791,8.994159107461214e-07,8.27803639386663e-07,-3.779982632775833e-06,2.868420213487594e-06,2.40307561179316e-06
71.09001838470942,254.2741000909997,12.5,0,5.859531118313433,-0.1693411910277027,-2.61733612711686,1.888597253142515e-05,-5.229516705939395e-06,-2.093868901693488e-05,2.294147923263497e-05,2.22816263961219e-05
80.56517028912111,256.6049189023066,12.5,0,5.990247412899309,-0.01780253347799232,-2.779981746150191,1.918303374806018e-05,-4.849166037449022e-06,-2.223985396920153e-05,2.397840707798894e-05,2.332211361900806e-05
70.33396093253393,263.1777274011504,12.5,0,5.535418252101196,-0.2421879717818842,-2.589187336893082,1.790708878414933e-05,-5.203336111382986e-06,-2.071349869514466e-05,2.15171882686162e-05,2.208890579146691e-05
80.18272267709995,264.5915818364541,12.5,0,5.622668843829368,-0.1044800746576779,-2.743027858678469,1.807612435998012e-05,-4.832471313968063e-06,-2.194422286942775e-05,2.234720738298689e-05,2.305547256084062e-05
69.78048846412392,269.6956349635614,12.5,0,5.469129085241756,0.1801023467187763,-2.779451414491782,1.73571311953986e-05,-3.79897575869332e-06,-2.223561131593425e-05,2.264480321966745e-05,2.191695285208386e-05
79.90275159387897,270.4382248869286,12.5,0,5.53114777184159,0.3113101520033354,-2.942148342259205,1.745062474829042e-05,-3.428725731062598e-06,-2.353718673807364e-05,2.338377677730786e-05,2.282663535640001e-05
69.02443101194842,278.599262273712,12.5,0,5.146290777570848,0.1069058124794018,-2.754404865503129,1.638260583824319e-05,-3.774934022122593e-06,-2.203523892402503e-05,2.122959223933975e-05,2.163988928981358e-05
79.52030398185784,278.424887821076,12.5,0,5.169515651435362,0.2256351910802807,-2.909128575710172,1.636194193172893e-05,-3.413579909691391e-06,-2.327302860568137e-05,2.178597083152632e-05,2.246808154534708e-05
52.24821443612204,268.4094314871238,12.5,0,5.309519154365185,0.1105075750805491,-2.380287727337775,1.690205523390415e-05,-3.89399108323439e-06,-1.90423018187022e-05,2.156829452350167e-05,2.081823985133943e-05
62.3704775658771,269.152021410491,12.5,0,5.340910191913831,0.1425827045811028,-2.508433809548183,1.697684645045937e-05,-3.816463498871535e-06,-2.006747047638546e-05,2.186706951527794e-05,2.137880489843733e-05
50.84504575860316,278.9012876852143,12.5,0,4.997165881397756,0.0354050354863622,-2.387062643849409,1.596260679208373e-05,-3.884436591561845e-06,-1.909650115079527e-05,2.019869949535897e-05,2.052650096881646e-05
61.34091872851256,278.7269132325782,12.5,0,4.997968936134197,0.05948174445713672,-2.512490629418306,1.594591520006372e-05,-3.80803356664452e-06,-2.009992503534644e-05,2.036379036562474e-05,2.111964434230843e-05
54.67857387713028,250.2370034866513,12.5,0,5.646421568908107,-0.2799204841917093,-2.205364632168792,1.829248540785931e-05,-5.412882804539955e-06,-1.764291705735033e-05,2.156223170004294e-05,2.088592048477713e-05
64.15372578154195,252.5678222979582,12.5,0,5.731762064915341,-0.2103824489903718,-2.320608449398653,1.850994456692139e-05,-5.258633488701462e-06,-1.856486759518922e-05,2.215312194117427e-05,2.162885041321879e-05
53.27540519961141,260.7288596847417,12.5,0,5.359591679881894,-0.3453160261185899,-2.200955782251005,1.742694619651693e-05,-5.392684627485002e-06,-1.760764625800804e-05,2.030607079694392e-05,2.091454602038208e-05
63.12416694417743,262.1427141200454,12.5,0,5.413951696776754,-0.2842185329561124,-2.312590385064047,1.75520202560505e-05,-5.240660662880963e-06,-1.850072308051237e-05,2.075628917907534e-05,2.151524625391455e-05
207.6194052326636,65.98447917254811,12.5,0,-10.66670907795625,1.511246919484928,0.2305877718689056,-3.534246658504794e-05,1.336935740471677e-05,1.844702174951245e-06,3.613224398560786e-06,3.62156517771757e-06
209.5934725673289,64.80544099535305,12.5,0,-10.63334341389269,1.279243667248817,0.2343582141340566,-3.505009385825565e-05,1.260025446631036e-05,1.874865713072453e-06,3.428095383195349e-06,3.664898880885136e-06
208.9745482412905,67.81368789115581,12.5,0,-10.41354669847608,1.788522623929105,0.06057150151119091,-3.475416753426675e-05,1.4054109755354e-05,4.845720120895273e-07,3.77663456138289e-06,3.61059896177155e-06
210.9128694012798,67.03772289536701,12.5,0,-10.41202053461689,1.490951001638952,0.08871664931964338,-3.451122651208522e-05,1.310065963293816e-05,7.09733194557147e-07,3.535696982592849e-06,3.635409211941623e-06
204.2002203115227,68.02663319947663,12.5,0,-10.27623174777838,1.528244375184023,0.3668649403609141,-3.410653709303801e-05,1.311136739881157e-05,2.934919522887313e-06,3.545386065933675e-06,3.577643026231322e-06
206.174287646188,66.84759502228158,12.5,0,-10.29065639447135,1.25499167913796,0.3385352299252209,-3.393409380561869e-05,1.224849848881855e-05,2.708281839401767e-06,3.335711156623747e-06,3.598185041928921e-06
205.6172775108635,69.15769868873281,12.5,0,-10.12520054897215,1.839833425950729,0.2427879966159587,-3.387250849747146e-05,1.398762740222005e-05,1.942303972927669e-06,3.762024062703743e-06,3.578487386695799e-06
207.5555986708528,68.38173369294402,12.5,0,-10.1699382228353,1.467230657311597,0.2332868902510941,-3.371758683892224e-05,1.283108868166535e-05,1.866295122008753e-06,3.466185799322861e-06,3.595346804665701e-06
203.7817867704565,64.19038889888584,12.5,0,-10.68897459574802,1.169493108519613,0.3835492328562026,-3.514031319320934e-05,1.229355762386117e-05,3.068393862849621e-06,3.367371966630691e-06,3.627115499839166e-06
205.1630977951213,65.72452756954826,12.5,0,-10.62432750914103,1.371340496882834,0.2959484616947927,-3.509492042675754e-05,1.288775159733789e-05,2.367587693558341e-06,3.498275772065759e-06,3.606697438144976e-06
201.7458052450772,66.0675703054324,12.5,0,-10.63294676393881,1.465018667305161,0.4796280973535128,-3.519744457844832e-05,1.319441714652756e-05,3.837024778828102e-06,3.58417237779321e-06,3.589274085931813e-06
203.162862444418,67.19863579468857,12.5,0,-10.54922907456151,1.743360031722656,0.3903614668592534,-3.515222106397495e-05,1.401813536116171e-05,3.122891734874027e-06,3.781726904560554e-06,3.580533313580519e-06
205.2722286902423,62.81619673432856,12.5,0,-11.26127476448612,1.361577815924121,0.3096996256253776,-3.712534149909489e-05,1.336606882254609e-05,2.47759700500302e-06,3.638284291492994e-06,3.668805884658323e-06
207.3082102156216,60.93901532778199,12.5,0,-11.22080567433163,1.184000503412762,0.2772946000719874,-3.685377856059143e-05,1.276544615038614e-05,2.218356800575899e-06,3.496524314007286e-06,3.744864720268847e-06
206.6273716988692,64.64540545293625,12.5,0,-11.11042411278135,1.55437026593478,0.1955478039334819,-3.679685337364813e-05,1.386232414121637e-05,1.564382431467855e-06,3.746548232369022e-06,3.637161675698496e-06
208.6276070495724,63.17129722779593,12.5,0,-11.08382733975811,1.337185270590319,0.1734702943125807,-3.653799570369821e-05,1.314605473769551e-05,1.387762354500646e-06,3.573796507563269e-06,3.694227395947641e-06
100.096904085877,259.8299543138262,12.5,0,6.17454126095594,0.4016803401444993,-3.451300416336123,1.943718776294341e-05,-3.654255920302354e-06,-2.761040333068899e-05,2.639470686666944e-05,2.58447924860025e-05
107.7532453610912,260.9604644936836,12.5,0,6.315633288070028,0.6966352799734746,-3.649097069509244,1.965271829784531e-05,-2.823273734540904e-06,-2.919277655607395e-05,2.79495783083114e-05,2.708965520023954e-05
99.51167827548414,266.5556909840435,12.5,0,5.767762246883604,0.319113226926655,-3.37680984147053,1.820154860848621e-05,-3.593047471341586e-06,-2.701447873176424e-05,2.461276646570398e-05,2.533432394286389e-05
107.0061908768226,267.245180955495,12.5,0,5.885561073656834,0.6168712208153063,-3.575203749304311,1.834029845904962e-05,-2.734460952316486e-06,-2.860162999443449e-05,2.609050709264336e-05,2.640196474277771e-05
99.08326324839415,271.4792719447623,12.5,0,5.628713953576027,0.7013788265870422,-3.50788117657951,1.745078159017365e-05,-2.258558917782286e-06,-2.806304941263608e-05,2.53614215165474e-05,2.494812545896752e-05
106.459309038339,271.8459127165099,12.5,0,5.709577800980439,0.9485823694564137,-3.665797094762702,1.751178306757227e-05,-1.532198658523827e-06,-2.932637675810162e-05,2.653629305698323e-05,2.591310047641176e-05
98.49803743800132,278.2050086149796,12.5,0,5.274538213799246,0.6301581862681314,-3.439953078297744,1.637439573514308e-05,-2.203124374981376e-06,-2.751962462638195e-05,2.381445117818009e-05,2.440348012225031e-05
105.7122545540704,278.1306291783213,12.5,0,5.332828178987904,0.8796894725892257,-3.597773977479288,1.636129859468991e-05,-1.4512562309048e-06,-2.87821918198343e-05,2.491501242705579e-05,2.526518892010016e-05
86.3075771814847,270.8442314999808,12.5,0,5.588270250434927,0.4167199986132217,-3.182721439399381,1.754908880250118e-05,-3.137112204785631e-06,-2.546177151519505e-05,2.409407680894834e-05,2.346292060877952e-05
93.68362297142954,271.2108722717283,12.5,0,5.646727548681328,0.5844131470400895,-3.318816966804178,1.760199763814818e-05,-2.647259968416775e-06,-2.655053573443342e-05,2.491839126714828e-05,2.42916017421449e-05
86.00264685636128,278.333837578308,12.5,0,5.241953899324608,0.3362528505529256,-3.127985925768399,1.65052501973964e-05,-3.117553997690324e-06,-2.502388740614719e-05,2.255470156814639e-05,2.304950449246215e-05
93.2168639724303,278.2594581416496,12.5,0,5.280194840967527,0.5033323451861057,-3.264247707431315,1.64939576149472e-05,-2.613492368178482e-06,-2.611398165945052e-05,2.330429336840332e-05,2.380978926920097e-05
86.83573199735747,257.8718532438745,12.5,0,6.048118430609861,0.08818306149077348,-3.056088422133944,1.928343252875893e-05,-4.556308947717413e-06,-2.444870737707155e-05,2.470178720048536e-05,2.405929071407923e-05
94.49207327257173,259.0023634237319,12.5,0,6.14549235458248,0.2678147491372496,-3.207389837671827,1.945132373535413e-05,-4.059386686426785e-06,-2.565911870137461e-05,2.570223109141066e-05,2.503280876918916e-05
86.53080167223405,265.3614593222017,12.5,0,5.691110315810676,0.004912956756334852,-3.002792980505146,1.820762264518909e-05,-4.537166791028269e-06,-2.402234384404117e-05,2.311229896258366e-05,2.373349201138147e-05
94.02531427357246,266.0509492936532,12.5,0,5.769498517202718,0.1840919560306911,-3.154725136116693,1.831512169022414e-05,-4.026504554463963e-06,-2.523780108893354e-05,2.404159735002562e-05,2.461930882948405e-05
540.9768737669515,168.3981966042012,12.5,0,2.193618602168953,-0.05057411318007743,-2.796793621899336,7.060038817484712e-06,-1.91673204391141e-06,-2.237434897519469e-05,1.061101088809182e-05,1.120510345825741e-05
549.6731043235841,168.1609875733737,12.5,0,2.181155563041532,-0.1295814621011767,-2.690736918531069,7.083362971413844e-06,-2.159585129156991e-06,-2.152589534824855e-05,1.022286282994221e-05,1.051634103937153e-05
544.5751519735986,178.7654322603395,12.5,0,2.481488394986378,0.04735688512091052,-2.86328247109895,7.902877355859682e-06,-1.833648683602189e-06,-2.29062597687916e-05,1.187484512358935e-05,1.21016283098256e-05
553.8994693220145,177.6262756941047,12.5,0,2.494131035586013,-0.01527162368933521,-2.773840841377776,7.993436612826707e-06,-2.044174024274682e-06,-2.219072673102221e-05,1.163262276597724e-05,1.106722820699308e-05
556.0391869251015,167.9873385108012,12.5,0,1.843688962599056,0.04046725846681315,-2.811336338410326,5.867430873543526e-06,-1.345455942985442e-06,-2.249069070728261e-05,9.787763835791274e-06,1.015376604153677e-05
564.7354174817341,167.7501294799737,12.5,0,1.829278990247032,-0.02745507031023148,-2.774342062997269,5.875656825038688e-06,-1.551279417190366e-06,-2.219473650397815e-05,9.518092761539501e-06,9.851955144741788e-06
560.7253433666607,176.7923552098807,12.5,0,1.932553447665399,0.09042589105871007,-2.848446079828902,6.11183031968231e-06,-1.256679906744447e-06,-2.278756863863121e-05,1.024002593878362e-05,1.04130269712777e-05
570.0496607150767,175.653198643646,12.5,0,1.928481126075358,0.03563458307215217,-2.819558891647305,6.142631936983424e-06,-1.4287542350294e-06,-2.255647113317844e-05,1.004467527645868e-05,9.660116059685444e-06
564.1558479739524,183.2380747948253,12.5,0,2.150553957160918,0.005775244518328448,-2.321403106947301,6.877152467300275e-06,-1.701962383270084e-06,-1.857122485557841e-05,9.990958799986428e-06,1.062569316653014e-05
573.9399567654971,181.4386468069391,12.5,0,2.117764488344169,-0.1220561490015915,-2.332012746134176,6.874491281902613e-06,-2.084791267480427e-06,-1.865610196907341e-05,9.559785531689976e-06,9.583382216957499e-06
568.8420044155116,192.0430914939048,12.5,0,2.15966352060894,0.05576823189443425,-2.356543642091701,6.86630868043306e-06,-1.549272474424962e-06,-1.88523491367336e-05,1.020010370911751e-05,1.094744708729596e-05
579.2541999988397,189.3417159706113,12.5,0,2.130909687980831,-0.05517725793005768,-2.368879954785892,6.863052807882706e-06,-1.881294975760849e-06,-1.895103963828713e-05,9.82556414296774e-06,9.565580545012182e-06
547.2092744405201,186.3547754943497,12.5,0,2.826817372525412,-0.01672218921747559,-2.241900966961818,9.059193343455296e-06,-2.314964903516251e-06,-1.793520773569454e-05,1.211981319290631e-05,1.273311242620379e-05
556.9933832320648,184.5553475064634,12.5,0,2.826579232015396,-0.06212426545340322,-2.221067876493615,9.094752954811989e-06,-2.460061035063207e-06,-1.776854301194892e-05,1.19705044246356e-05,1.146966083244733e-05
550.8075526471671,196.7220111504878,12.5,0,2.888767231354845,0.01296757679021832,-2.2658388285511,9.233681078903329e-06,-2.269517539355177e-06,-1.81267106284088e-05,1.244312869582439e-05,1.35618342648269e-05
561.2197482304953,194.0206356271945,12.5,0,2.892884769236029,-0.02632894275526187,-2.248529010447477,9.278294415759501e-06,-2.398560432205661e-06,-1.798823208357982e-05,1.232917306333524e-05,1.201824004423686e-05
83.34746286250606,369.2192322910738,12.5,0,2.224905050387215,1.624026433303862,-2.359709563041228,5.820475014595995e-06,3.416960546262588e-06,-1.887767650432982e-05,1.519496724624239e-05,1.457195817002907e-05
91.98052812881437,363.0799113593201,12.5,0,2.092160723122779,1.698394291697682,-2.414238350839157,5.336198880634746e-06,3.761133154934358e-06,-1.931390680671326e-05,1.504175889606212e-05,1.520949523310831e-05
87.69545321368849,377.6854978347889,12.5,0,1.987295181810457,1.510328146846075,-2.27444811672758,5.1510820643166e-06,3.243213924459076e-06,-1.819558493382064e-05,1.393070050863832e-05,1.380801255282209e-05
95.39435290665753,371.3954249027169,12.5,0,1.823731962518939,1.581647505256859,-2.326585732557719,4.570624275855116e-06,3.602286446806796e-06,-1.861268586046175e-05,1.366791916075493e-05,1.439361698423887e-05
75.81652266357415,354.5552302192531,12.5,0,2.702868632584279,1.483666024312934,-2.527640470690822,7.462246804819346e-06,2.585436371733964e-06,-2.022112376552657e-05,1.653997713042503e-05,1.584974398034316e-05
86.0676101655587,348.6770194113886,12.5,0,2.569957238629792,1.572900285040424,-2.607827461692163,6.965542935582993e-06,2.977315121225523e-06,-2.08626196935373e-05,1.644731414240165e-05,1.657826606405514e-05
80.16451301475659,363.0214957629681,12.5,0,2.450032688927438,1.368407666773583,-2.441080987555528,6.745378471148936e-06,2.418878382533514e-06,-1.952864790044423e-05,1.521206862239955e-05,1.511903845717756e-05
89.48143494340188,356.9925329547854,12.5,0,2.289146014834665,1.45597175071839,-2.520988002301291,6.160489846896215e-06,2.827792790431114e-06,-2.016790401841033e-05,1.502431522818315e-05,1.579487018977226e-05
93.57192704952666,344.3738704426142,12.5,0,2.811318107190295,1.753162672466306,-2.731287723250168,7.593687805035898e-06,3.361066066139942e-06,-2.185030178600134e-05,1.798268824766459e-05,1.710719519891221e-05
103.8230145515112,338.4956596347496,12.5,0,2.643261798228932,1.897446101994746,-2.830948799853954,6.940480872736783e-06,3.957218087800043e-06,-2.264759039883164e-05,1.797338745736467e-05,1.782373438529465e-05
96.30189516503287,352.5790258624401,12.5,0,2.493419455209634,1.623959311237809,-2.633493232076593,6.67977480768058e-06,3.201934231793284e-06,-2.106794585661275e-05,1.63762230183003e-05,1.624605205212208e-05
105.6188170936782,346.5500630542573,12.5,0,2.2851169024364,1.769842822114977,-2.733558925356097,5.896499830104497e-06,3.835403508818806e-06,-2.186847140284877e-05,1.624587656767096e-05,1.680287209097305e-05
98.30037052854149,358.5856165134963,12.5,0,2.322387581337624,1.841411821999388,-2.502228543485438,5.958510802680886e-06,4.034607765327942e-06,-2.001782834788351e-05,1.6381333686609e-05,1.562435370134098e-05
106.9334357948498,352.4462955817426,12.5,0,2.158797119011183,1.937287089691618,-2.568820416759676,5.35832110908249e-06,4.47228099180423e-06,-2.055056333407741e-05,1.620898077035898e-05,1.612023105147179e-05
101.0303386440477,366.7907719333222,12.5,0,2.042718348396158,1.728127145621782,-2.416640008507297,5.154196998370278e-06,3.895832187272776e-06,-1.933312006805837e-05,1.497545110646455e-05,1.478698536674317e-05
108.7292383370167,360.5006990012502,12.5,0,1.836095666475522,1.82261488044226,-2.481605371605205,4.417414228367863e-06,4.363491084234813e-06,-1.985284297284164e-05,1.466268303403661e-05,1.527608334246502e-05
375.0022257965021,230.7043127741742,12.5,0,12.81652943004953,-0.4507650108873817,-0.6014387088493014,4.137350618486841e-05,-1.169567157887925e-05,-4.811509670794411e-06,4.792192660066651e-05,5.066960256483451e-05
384.8965534662979,229.083942736412,12.5,0,13.13351460526089,-0.0347757581310506,-0.05915981515527112,4.205506734333969e-05,-1.061809411022807e-05,-4.732785212421689e-07,5.036547394927331e-05,4.853032976530127e-05
373.4226017840762,237.5092281148252,12.5,0,13.85068885414506,-0.1348155972263436,-0.4138225024169755,4.443005681104527e-05,-1.151196099444035e-05,-3.310580019335804e-06,5.282939037816747e-05,5.350122119756785e-05
384.2626174274559,237.0750512717808,12.5,0,13.97825488809266,0.1925930951010222,0.04744397365437098,4.457634116581571e-05,-1.056630600615086e-05,3.795517892349679e-07,5.430152779529368e-05,5.172851614896092e-05
377.7382148428302,218.9178536631735,12.5,0,11.38359568482268,-0.4626220170204971,-1.035341544455864,3.679760380504896e-05,-1.058726700232373e-05,-8.28273235564691e-06,4.24365197345821e-05,4.517898586403415e-05
385.9945628943016,215.2429367446046,12.5,0,11.86349043436126,0.01402179300418593,-0.6476589107041317,3.795195195555268e-05,-9.445922609875612e-06,-5.181271285633054e-06,4.566118204129711e-05,4.266826220914177e-05
376.1585908304044,225.7227690038246,12.5,0,12.17605660202561,-0.1905007391814664,-0.8405514996575182,3.911578171782713e-05,-1.035044764700118e-05,-6.724411997260146e-06,4.626412437989852e-05,4.84396663280618e-05
385.3606268554595,223.2340452799734,12.5,0,12.45440535588918,0.1809239604905435,-0.5335553539910011,3.970935797045294e-05,-9.384567611141605e-06,-4.268442831928008e-06,4.842857279052019e-05,4.610264203898139e-05
392.0386291526939,212.5527108467321,12.5,0,10.29198857943501,-0.3203510027014675,-1.179469952255866,3.319064425635321e-05,-9.258714072192704e-06,-9.435759618046924e-06,3.869979264343029e-05,4.081927269963241e-05
400.2949772041652,208.8777939281631,12.5,0,10.60795215694262,-0.1868314005225571,-0.9158120192160081,3.409491202263442e-05,-9.084222207226276e-06,-7.326496153728065e-06,4.026675766494119e-05,3.827846307166863e-05
392.0969847585926,221.4121730681898,12.5,0,11.06267778427447,-0.1280875146531493,-1.156547700612443,3.550303892140081e-05,-9.260022274309651e-06,-9.252381604899548e-06,4.22248587816547e-05,4.444162711464671e-05
401.2990207836477,218.9234493443386,12.5,0,11.24327485214381,-0.0331247446945051,-0.9191687278413462,3.60049793226158e-05,-9.100619064737465e-06,-7.353349822730769e-06,4.316763438014235e-05,4.224067423812166e-05
392.1397040270151,227.8977495417581,12.5,0,11.96990688409502,-0.2697108943437243,-0.5758328584087621,3.851947074457905e-05,-1.043900036917593e-05,-4.606662867270096e-06,4.520935930468122e-05,4.700882910924883e-05
402.0340316968109,226.2773795039959,12.5,0,12.16429866308502,-0.1514180398520062,-0.1687003199706639,3.904689015375368e-05,-1.021597665799444e-05,-1.349602559765311e-06,4.629070337019338e-05,4.49912848125207e-05
392.1980596329138,236.7572117632158,12.5,0,12.98065352302212,-0.01745651066507747,-0.5520787364256274,4.155205648220285e-05,-1.044038365254595e-05,-4.416629891405019e-06,4.984937602099861e-05,5.040020097707791e-05
403.0380752762934,236.3230349201714,12.5,0,13.03760249002561,0.06123134803423858,-0.1787708541981653,4.167134288965456e-05,-1.023414167831093e-05,-1.430166833585322e-06,5.028941503270012e-05,4.854388148748156e-05
253.7592189529125,64.1857587778663,12.5,0,-10.2402771304725,1.364306025287762,-1.772193606338815,-3.38603316377422e-05,1.255800098529884e-05,-1.417754885071052e-05,3.665722992804656e-06,3.628655453310413e-06
257.5235236205172,64.63003388133703,12.5,0,-10.30310425527395,1.356631179394595,-1.566144093058352,-3.405523856039232e-05,1.258370317828186e-05,-1.252915274446682e-05,3.614355031952232e-06,3.604085504610963e-06
253.6815455534349,67.53036068533349,12.5,0,-9.689346263342516,1.502225408897814,-1.764180948600849,-3.22076883698143e-05,1.255859831914702e-05,-1.411344758880679e-05,3.665034797417568e-06,3.625126165279073e-06
256.9249492299019,67.81171446532926,12.5,0,-9.742626490437154,1.498288008852287,-1.523362939737419,-3.237503517648072e-05,1.258862282067704e-05,-1.218690351789935e-05,3.60068215539257e-06,3.606566241691652e-06
253.8937532272017,58.39273834314542,12.5,0,-11.1978773673373,1.165630275023156,-1.686920946849838,-3.676571179549789e-05,1.268831877394394e-05,-1.34953675747987e-05,3.691086167014491e-06,3.67800413242205e-06
258.5602848771538,59.11920145650611,12.5,0,-11.29858129631749,1.160086413384365,-1.432950623593185,-3.708352927892346e-05,1.275114155988396e-05,-1.146360498874548e-05,3.648422633667276e-06,3.635071504263143e-06
253.8160798277242,61.73734025061262,12.5,0,-10.66189744903643,1.299984283036458,-1.676070151113775,-3.515805926334573e-05,1.26894676649458e-05,-1.34085612089102e-05,3.675116610571342e-06,3.642824061903332e-06
257.9617104865384,62.30088204049834,12.5,0,-10.76053527132552,1.297513888713071,-1.388846849427504,-3.547172397921211e-05,1.276047266094224e-05,-1.111077479542004e-05,3.622975519926713e-06,3.611723466696794e-06
261.9764231399017,59.6510093652882,12.5,0,-10.79456475875789,0.8749240389275874,-2.025748168861643,-3.52425464591673e-05,1.143540873157459e-05,-1.620598535089315e-05,3.494455227804167e-06,3.607722436029226e-06
266.6429547898538,60.3774724786489,12.5,0,-10.80686569953365,1.15993095263044,-1.829002426555761,-3.550991500061204e-05,1.235727160804433e-05,-1.463201941244609e-05,3.643144453213753e-06,3.575936020230229e-06
260.9965227580768,62.71342326286545,12.5,0,-10.36212591225762,1.049796043147705,-1.892536556462836,-3.399863975374253e-05,1.164904806787875e-05,-1.514029245170269e-05,3.488972604733589e-06,3.590866022087775e-06
265.1421534168911,63.27696505275117,12.5,0,-10.36326987307997,1.378866768865227,-1.665001894226914,-3.426555700894809e-05,1.27029895588327e-05,-1.332001515381531e-05,3.67103537935628e-06,3.564983018903997e-06
260.2791858922553,64.95526582960171,12.5,0,-9.966469036917106,1.097474221527758,-2.069635837883034,-3.277068029535694e-05,1.148509273842251e-05,-1.655708670306427e-05,3.503970326466298e-06,3.587180385436912e-06
264.04349055986,65.39954093307244,12.5,0,-9.957006602511543,1.349443175106959,-1.899998060762064,-3.29419756681225e-05,1.22838234423515e-05,-1.519998448609651e-05,3.638172213604235e-06,3.565564689642881e-06
259.2992855104304,68.01767972717894,12.5,0,-9.500292942720877,1.287732451011291,-1.923907967585098,-3.143112337751584e-05,1.172097819741283e-05,-1.539126374068079e-05,3.509294199144992e-06,3.593967452789539e-06
262.5426891868973,68.2990335071747,12.5,0,-9.471024815259483,1.592092787888848,-1.718312384738329,-3.158095363914142e-05,1.26715167734519e-05,-1.374649907790663e-05,3.683415026378727e-06,3.578106844981092e-06
101.2186074668731,398.7700539509935,12.5,0,1.39183744825645,1.744334066256584,-1.910730093972988,3.058412581415372e-06,4.468399053415907e-06,-1.52858407517839e-05,1.236255558401527e-05,1.179328399812687e-05
108.0420989296936,391.6068258288001,12.5,0,1.25679417720112,1.813595944397178,-1.92552232163665,2.570864611525843e-06,4.798071680310071e-06,-1.54041785730932e-05,1.216781806302346e-05,1.232653227328417e-05
106.9055692964813,407.3425203634271,12.5,0,1.184348749877521,1.610507633554361,-1.815134244642562,2.501509892764578e-06,4.206145427471938e-06,-1.452107395714049e-05,1.113183112472655e-05,1.098260602280564e-05
113.4747897771015,399.789422643586,12.5,0,1.039548438089126,1.673414629621437,-1.825400708869013,1.987823298188053e-06,4.523288064317297e-06,-1.460320567095211e-05,1.08854033053847e-05,1.148550296915032e-05
91.36850063746377,383.9221065787478,12.5,0,1.771695417108284,1.712785582726352,-2.15237449631764,4.299196868565426e-06,4.063557531037699e-06,-1.721899597054112e-05,1.375527246553857e-05,1.322442436793416e-05
98.63240236033775,377.4341524079942,12.5,0,1.648172863099283,1.787890323384553,-2.178235954599107,3.843840903210063e-06,4.402710744351143e-06,-1.742588763679285e-05,1.361901897847856e-05,1.378632066569582e-05
97.05546246707198,392.4945729911814,12.5,0,1.559159839609867,1.580454872406093,-2.057002799772957,3.724947588826701e-06,3.810127720011602e-06,-1.645602239818366e-05,1.250897980076074e-05,1.239397741326263e-05
104.0650932077457,385.6167492227802,12.5,0,1.425630222497225,1.649268838666864,-2.078341625713963,3.242601641057627e-06,4.137156105736185e-06,-1.66267330057117e-05,1.2318612391315e-05,1.294303451698559e-05
103.9499474824425,372.684640318026,12.5,0,1.849537101073582,1.920851919901164,-2.274258855782007,4.381837187514531e-06,4.667096462824857e-06,-1.819407084625606e-05,1.483195445585795e-05,1.417016238282424e-05
111.2138492053165,366.1966861472724,12.5,0,1.700352806016228,2.005065612017296,-2.307086072439545,3.837076489638092e-06,5.055927713642365e-06,-1.845668857951636e-05,1.464962169467046e-05,1.465694115836648e-05
109.1964990519973,380.5818327790198,12.5,0,1.617184439085026,1.779337375478005,-2.171684579369922,3.75152030468968e-06,4.400132050261593e-06,-1.737347663495938e-05,1.348084204697004e-05,1.332233898600766e-05
116.206129792671,373.7040090106186,12.5,0,1.456089524391524,1.856221511127124,-2.199211247159722,3.174509269151176e-06,4.775037216093577e-06,-1.759368997727778e-05,1.323538596192151e-05,1.380956096323498e-05
113.0372413652784,386.3629788973713,12.5,0,1.449488232564131,1.946825554986428,-2.012889726066608,3.080901900216077e-06,5.070251189905265e-06,-1.610311780853286e-05,1.334100022331965e-05,1.2700773695395e-05
119.860732828099,379.1997507751778,12.5,0,1.292717863613166,2.030170384679394,-2.029107567607832,2.512560855818617e-06,5.462370940083526e-06,-1.623286054086265e-05,1.312658027720857e-05,1.318997199978477e-05
118.2837929348332,394.2601713583649,12.5,0,1.227060508100289,1.801653226205541,-1.909499716604773,2.485271044956491e-06,4.7836419173775e-06,-1.527599773283818e-05,1.201425878359358e-05,1.185044913796429e-05
124.8530134154535,386.7070736385241,12.5,0,1.058902784466817,1.877485963348567,-1.920386096595676,1.886500139614961e-06,5.16083285514196e-06,-1.536308877276541e-05,1.173919608068304e-05,1.234460366688938e-05
176.1129058281393,62.60849065515186,12.5,0,-11.04043951018425,0.9329349850818858,1.247993492770761,-3.607575442065512e-05,1.181774356040944e-05,9.98394794216609e-06,3.390761333726876e-06,3.384070016773765e-06
178.0178518402023,60.94843999796568,12.5,0,-10.94929475683004,0.8350378478216007,1.258996261396802,-3.57057735001134e-05,1.143155691849315e-05,1.007197009117442e-05,3.304474670171937e-06,3.437517820909131e-06
177.5480433561431,65.1590168323533,12.5,0,-10.73566582290334,1.138779728324696,1.098813122342606,-3.526515441595044e-05,1.22326277889617e-05,8.790504978740846e-06,3.4413592191778e-06,3.359644856685146e-06
179.4740269797545,64.29013100222777,12.5,0,-10.69274391685381,0.9859144959555657,1.141232185380969,-3.500551213069664e-05,1.170912152054086e-05,9.129857483047756e-06,3.329266661617614e-06,3.398349243884054e-06
174.7183885616927,63.82373207929859,12.5,0,-10.51518965270362,0.7570899256886787,1.350337110581223,-3.425427882920251e-05,1.083483948436666e-05,1.080269688464978e-05,3.171920108174829e-06,3.350488550409433e-06
176.1381254891739,65.79508540595481,12.5,0,-10.42317796648445,0.8993859245986964,1.267821896610198,-3.407367823242917e-05,1.121657733190338e-05,1.014257517288158e-05,3.23214236087934e-06,3.334664233391169e-06
172.8134425496297,65.48378273648478,12.5,0,-10.52400683620877,0.9310689360027347,1.387738893187892,-3.442167702467024e-05,1.139862606417576e-05,1.110191114550314e-05,3.302861339506145e-06,3.312190082240879e-06
174.2121418655625,66.66397123608034,12.5,0,-10.39405485628923,1.190221119683398,1.280345808453542,-3.421315243587225e-05,1.212395146801826e-05,1.024276646762834e-05,3.438800649700805e-06,3.305120288543293e-06
172.2593320699577,60.40924795792149,12.5,0,-10.95894381376034,0.7266275167766976,1.350235897806449,-3.564992221745443e-05,1.10923631046937e-05,1.080188718245159e-05,3.251416996155298e-06,3.41371212135486e-06
173.6790689974389,62.38060128457768,12.5,0,-10.98057287382741,0.8190925093609125,1.308766245957013,-3.579310720373645e-05,1.140555432901685e-05,1.04701299676561e-05,3.310524075734273e-06,3.371669368152031e-06
170.3908242699657,63.43963629271357,12.5,0,-10.84353193415032,0.893490376722629,1.457943059553934,-3.541409449065911e-05,1.153399475283266e-05,1.166354447643147e-05,3.363278722882866e-06,3.341948373306204e-06
171.7895235858985,64.6198247923091,12.5,0,-10.84809719992977,1.046211281895632,1.426276890087338,-3.555088006529177e-05,1.202635386200984e-05,1.141021512069871e-05,3.465241265838771e-06,3.322058137811579e-06
175.4956825138245,55.16046139549188,12.5,0,-11.79850564101655,0.5474045443308615,1.247431032876068,-3.819314168671765e-05,1.1190499054672e-05,9.979448263008547e-06,3.306615668877528e-06,3.559119508715935e-06
176.9518576533767,58.50215239975396,12.5,0,-11.70635907743929,0.6763607088086161,1.139761509672998,-3.800143761485263e-05,1.152944153013901e-05,9.118092077383983e-06,3.350637934649354e-06,3.480596083536431e-06
173.6271747138325,58.19084973028396,12.5,0,-11.82130704593765,0.6844793517082022,1.325977881439796,-3.837576602836704e-05,1.164737956221637e-05,1.060782305151837e-05,3.415326766551118e-06,3.471902951705436e-06
175.0623122418363,60.74137590748537,12.5,0,-11.71454207354618,0.8566502279860355,1.20821715989966,-3.81718548177366e-05,1.211291438839226e-05,9.665737279197285e-06,3.484650973164834e-06,3.414149482677372e-06
101.2355347522091,248.7209354363734,12.5,0,6.619029277718012,0.1060455576220019,-3.290062883680702,2.109605724260003e-05,-4.955877637784003e-06,-2.632050306944562e-05,2.702117976763098e-05,2.635923825288579e-05
108.12027496038,250.3508517565007,12.5,0,6.795823800987298,0.3823923924062711,-3.494029126766269,2.144072224923434e-05,-4.21300338508977e-06,-2.795223301413015e-05,2.863928130839748e-05,2.770879861757244e-05
100.5588100366682,255.0511459677702,12.5,0,6.236945731213272,0.03033459183915066,-3.231469711147876,1.993395866641115e-05,-4.892485891085335e-06,-2.585175768918301e-05,2.535595593844311e-05,2.611941744767542e-05
108.0517632915715,256.4336426282884,12.5,0,6.376941533928983,0.2799320170645474,-3.415532699574305,2.018226729492111e-05,-4.205770772536634e-06,-2.732426159659444e-05,2.674290722832923e-05,2.743982028162152e-05
89.31081491495887,245.897837557878,12.5,0,6.400683250486039,-0.2508735774478905,-2.873360616361335,2.068288526351363e-05,-5.92334204822208e-06,-2.298688493089068e-05,2.487943248035282e-05,2.437692782173227e-05
96.19555512312985,247.5277538780053,12.5,0,6.541977268875429,-0.02433453670710528,-3.034507953099643,2.095379488976705e-05,-5.311452332563079e-06,-2.427606362479714e-05,2.617153385652437e-05,2.546646616388336e-05
87.58063430067023,252.6565915105014,12.5,0,6.082526031087665,-0.2881375992582829,-2.838927417104564,1.969459337888715e-05,-5.788061142496637e-06,-2.271141933683652e-05,2.357626604303737e-05,2.423169881983862e-05
95.07358755557357,254.0390881710196,12.5,0,6.196452339104328,-0.08016598350234272,-2.986442649095633,1.989278027193572e-05,-5.213693018490958e-06,-2.389154119276506e-05,2.470259358549626e-05,2.525980389279649e-05
92.30757564512363,234.1913323162876,12.5,0,6.718465555734721,-0.5061610717046465,-2.639708526820026,2.190401863571482e-05,-6.994487874042646e-06,-2.11176682145602e-05,2.516868331490314e-05,2.456078301300892e-05
98.13885995454686,236.2497920576415,12.5,0,6.884115800786129,-0.298390577872528,-2.792044591800581,2.226788302481363e-05,-6.462142489820992e-06,-2.233635673440465e-05,2.647749573802814e-05,2.573634327360814e-05
90.57739503083502,240.950086268911,12.5,0,6.386025951719635,-0.5466583965685066,-2.606127984159871,2.087260976275763e-05,-6.858127630394928e-06,-2.084902387327897e-05,2.379920230985128e-05,2.446510566553136e-05
97.01689238699059,242.7611263506558,12.5,0,6.517421774018067,-0.3587753056227245,-2.743644390655263,2.114276992135599e-05,-6.362018397207172e-06,-2.194915512524211e-05,2.49122352328332e-05,2.55941545061295e-05
102.4076563422424,237.7566891735836,12.5,0,6.978632170020405,-0.1839107109289679,-3.029264248044303,2.247875151280847e-05,-6.171420010989021e-06,-2.423411398435442e-05,2.731500616410494e-05,2.666413769042301e-05
108.2389406516656,239.8151489149375,12.5,0,7.181508686855873,0.05843468619051673,-3.217556126703786,2.293408004898637e-05,-5.558215953675044e-06,-2.574044901363029e-05,2.890210324931794e-05,2.80233589156485e-05
101.7309316267015,244.0868997049804,12.5,0,6.587807923000858,-0.2627560530064406,-2.974562936699146,2.129119019600789e-05,-6.111065708021296e-06,-2.379650349359317e-05,2.560562421969122e-05,2.650519560202635e-05
108.1704289828571,245.8979397867252,12.5,0,6.74486836269151,-0.04853058531662247,-3.141456596220977,2.162240322886613e-05,-5.551192563166399e-06,-2.513165276976782e-05,2.692363780953167e-05,2.786515732330746e-05
226.9071580405063,35.94044679726305,12.5,0,-15.05150228058334,-0.1668660153521788,-0.04575649094461112,-4.803131448558495e-05,1.15072305753397e-05,-3.66051927556889e-07,3.561345617455189e-06,4.185863861513076e-06
232.0175632984988,43.03610141939949,12.5,0,-14.52902592854284,0.5978746252055567,-0.4933810102210643,-4.697118267150152e-05,1.353641954349205e-05,-3.947048081768515e-06,3.901783663588553e-06,4.058532828925754e-06
219.7549037945695,42.27074943486089,12.5,0,-15.12893306371488,0.6880677334701408,0.1321818911854001,-4.896303999066373e-05,1.430496319807636e-05,1.057455129483201e-06,4.090661403798348e-06,4.143694674973859e-06
225.2142837217988,47.60086570829041,12.5,0,-14.5320400542133,1.743708404504007,-0.3582237295163845,-4.789749489708575e-05,1.720549893778346e-05,-2.865789836131076e-06,4.683132944152817e-06,4.036573498978619e-06
218.0556764865551,23.65041247898264,12.5,0,-17.12939938225706,-0.02646613409368381,0.1656993874978558,-5.479290511594765e-05,1.361882787670586e-05,1.325595099982847e-06,4.146482227478771e-06,4.825858194592125e-06
223.1660817445477,30.74606710111907,12.5,0,-16.97479670762477,0.4200491043010919,-0.07320421600310061,-5.465538874784012e-05,1.492399449986331e-05,-5.856337280248048e-07,4.370591586664103e-06,4.391468073568897e-06
210.2989803829565,33.03871723919713,12.5,0,-17.02618298006421,0.6111819057530994,0.4433454091019103,-5.497273106080795e-05,1.557672848246129e-05,3.546763272815282e-06,4.509694341964066e-06,4.57938158032441e-06
215.7583603101859,38.36883351262667,12.5,0,-16.8370845814052,1.205468573942595,0.2131174730634892,-5.484304551965071e-05,1.732716710174046e-05,1.704939784507914e-06,4.841148237944424e-06,4.289139662011024e-06
231.490668236618,7.389391637642602,12.5,0,-20.35249101100542,-1.02782037991687,0.1279339630416712,-6.430571493128384e-05,1.299296759307035e-05,1.02347170433337e-06,4.387726511653901e-06,5.225226159783153e-06
235.9966316369487,17.5430483823957,12.5,0,-19.52722455323901,-0.3630590498727688,-0.4022796979494874,-6.219667133046663e-05,1.445999068299835e-05,-3.218237583595899e-06,4.545707077923188e-06,4.814148397350108e-06
223.7339721330194,16.77769639785709,12.5,0,-20.78777428605521,-0.3551669418050896,0.3068473438189509,-6.62367441619326e-05,1.549368521506788e-05,2.454778750551607e-06,4.852920996631316e-06,4.998911728088727e-06
228.5889102025869,25.16581479390327,12.5,0,-19.92627031577235,0.4574639443474622,-0.2583325027004862,-6.413003616594949e-05,1.740490087452976e-05,-2.066660021603889e-06,5.111443082516463e-06,4.532143740217911e-06
232.1429715369596,31.30634363945118,12.5,0,-17.36671999271142,0.2674928045560563,-0.296477260753804,-5.578749822032138e-05,1.474935296874851e-05,-2.371818086030432e-06,4.378101866426337e-06,4.296807792872152e-06
239.2952257828964,24.97604100185337,12.5,0,-16.88193377106866,-0.1539795932605026,-0.2218860742306662,-5.389900439281129e-05,1.301281231842131e-05,-1.775088593845329e-06,4.015261976136369e-06,4.557743063610253e-06
236.9979096065271,39.69446203549739,12.5,0,-16.17643552900184,1.035328469766925,-0.8526043964832412,-5.259285646861943e-05,1.625419952645563e-05,-6.820835171865929e-06,4.60509400320328e-06,4.120626015719665e-06
243.8011891832271,35.12969774660649,12.5,0,-15.76779774873886,0.4705592707162412,-0.7038142518116905,-5.083340021253734e-05,1.412002786528306e-05,-5.630514014493525e-06,4.134646968306996e-06,4.268308426904575e-06
167.4438331759339,300.630307421041,12.5,0,2.402368596310655,4.204901934283853,-3.678632022048931,4.323657960767012e-06,1.153379131265981e-05,-2.942905617639145e-05,2.580807603265938e-05,2.604831566065591e-05
169.6908535794348,300.5426922214085,12.5,0,2.406569429155841,4.232333347282978,-3.705477837974266,4.315155495472308e-06,1.161821116798086e-05,-2.964382270379413e-05,2.594135882766987e-05,2.605394478731972e-05
166.6459877586974,302.352339319786,12.5,0,2.355789734720323,4.201457616115294,-3.680024999010327,4.177361058212798e-06,1.156003258379268e-05,-2.944019999208262e-05,2.564474789100077e-05,2.555300110658938e-05
168.965250265525,302.025354943232,12.5,0,2.352344357131093,4.228887623134545,-3.707660375582719,4.14439184431186e-06,1.165056490832567e-05,-2.966128300466175e-05,2.575382533104601e-05,2.562110817239021e-05
166.0619243767192,303.6129541618681,12.5,0,2.33404582945134,4.073104637493325,-3.570854327399449,4.210462944249628e-06,1.116669817641757e-05,-2.856683461919559e-05,2.502865785982368e-05,2.520433006232515e-05
168.4340717736254,303.110739386049,12.5,0,2.32828747637351,4.141386021608892,-3.608081367641989,4.137411107108118e-06,1.138980528804964e-05,-2.886465094113591e-05,2.528122201762675e-05,2.53152850509689e-05
165.2640789594827,305.3349860606131,12.5,0,2.266731502989791,4.07671201305251,-3.565853390131555,3.992171199125323e-06,1.12320932393762e-05,-2.852682712105244e-05,2.481648054291191e-05,2.47470576082932e-05
167.7084684597156,304.5934021078726,12.5,0,2.249255001763416,4.14708774457702,-3.603022186921231,3.879945809981313e-06,1.147127678123573e-05,-2.882417749536985e-05,2.50383764585644e-05,2.491259736001057e-05
161.9532445623092,304.4828156698828,12.5,0,2.477272772541411,3.858711337188487,-3.6048442960617,4.840303802381726e-06,1.036605806097003e-05,-2.88387543684936e-05,2.478349791445609e-05,2.49883131159385e-05
164.3253919592154,303.9806008940638,12.5,0,2.466250539042386,3.911085439339578,-3.64573871061492,4.763133373463974e-06,1.054247297465274e-05,-2.916590968491936e-05,2.496563905573634e-05,2.511671819638884e-05
161.0302721516673,306.6194471448143,12.5,0,2.384180663614477,3.854690921277786,-3.602928523622116,4.545625386544096e-06,1.042766641719733e-05,-2.882342818897693e-05,2.446164514571288e-05,2.444726637434629e-05
163.4746616519003,305.8778631920738,12.5,0,2.360625659213932,3.907401922905938,-3.644248293559684,4.42808057115983e-06,1.061518562592786e-05,-2.915398634847747e-05,2.460480446918126e-05,2.462237254647516e-05
163.5518796714965,300.7820613983171,12.5,0,2.572275571115367,3.99652535625829,-3.740813004716617,5.034061542562543e-06,1.073106068313423e-05,-2.992650403773294e-05,2.569664168414751e-05,2.599571146717221e-05
165.7989000749973,300.6944461986846,12.5,0,2.582199019093859,4.047953033663347,-3.770142868167383,5.02467443416967e-06,1.088769049244762e-05,-3.016114294533906e-05,2.593404138210615e-05,2.603271208955029e-05
162.6289072608546,302.9186928732487,12.5,0,2.508418976171657,3.998657520241978,-3.735182106170398,4.828014707555718e-06,1.0788968883837e-05,-2.988145684936318e-05,2.54887606962654e-05,2.540321772807223e-05
164.9481697676823,302.5917084966947,12.5,0,2.510268445901754,4.051190756540507,-3.764259582210355,4.791906421653205e-06,1.095559566420822e-05,-3.011407665768284e-05,2.570333944944332e-05,2.549461753799773e-05
248.1490259829396,64.9496565846917,12.5,0,-10.39945402536258,1.432990788614001,-1.520487266256526,-3.442464551205147e-05,1.290513374385487e-05,-1.216389813005221e-05,3.682251788971532e-06,3.635433115079544e-06
251.2473298815543,64.27140142311016,12.5,0,-10.32186567806543,1.334331555143499,-1.34398579734806,-3.409743541392418e-05,1.252735351891154e-05,-1.075188637878448e-05,3.546422120669273e-06,3.637055020219853e-06
248.7152557966406,67.97002793991901,12.5,0,-9.804508932046872,1.607845545501386,-1.617551334687711,-3.26607050189511e-05,1.298871289124193e-05,-1.294041067750168e-05,3.729952974965007e-06,3.637234126483007e-06
251.481764827954,67.57278065299947,12.5,0,-9.758785595267941,1.484533617457731,-1.412043065561648,-3.241574079882359e-05,1.255753605207909e-05,-1.129634452449318e-05,3.563267439867445e-06,3.633343600242232e-06
242.7826062133468,66.12442898502566,12.5,0,-10.25303147909513,1.560459497037002,-1.247498277155619,-3.405806833073402e-05,1.319589557379451e-05,-9.979986217244955e-06,3.688841566339066e-06,3.65898351333742e-06
245.8809101119614,65.44617382344413,12.5,0,-10.22969813864496,1.285227823218683,-1.103747278291207,-3.376321630223881e-05,1.229648754521575e-05,-8.829978226329658e-06,3.438845288142423e-06,3.641308837101444e-06
243.9235215948939,68.6580804240202,12.5,0,-9.762711055875677,1.811598092640338,-1.43870370625487,-3.268995385291443e-05,1.360728274114962e-05,-1.150962965003896e-05,3.845452786701912e-06,3.655974557441001e-06
246.6900306262072,68.26083313710065,12.5,0,-9.775077108340138,1.476951043376017,-1.259140138629091,-3.246180758138925e-05,1.254630502547536e-05,-1.007312110903272e-05,3.523633525318943e-06,3.643298073188172e-06
240.8064828054059,61.73601596409594,12.5,0,-11.12042000561313,1.406292777396055,-1.070169039109504,-3.671037823987886e-05,1.339647289215788e-05,-8.561352312876032e-06,3.722135445275021e-06,3.732381380337521e-06
244.4794722718667,60.57104088628164,12.5,0,-11.04614191344597,1.067295917998506,-0.9149777000500653,-3.620149085742591e-05,1.2252260468352e-05,-7.319821600400522e-06,3.431056930376793e-06,3.702253941358172e-06
241.947398186953,64.26966740309049,12.5,0,-10.6458744352684,1.65718042098319,-1.261824604625197,-3.539254252964542e-05,1.381967689536093e-05,-1.009459683700158e-05,3.852994069131684e-06,3.679456659828133e-06
245.2885927861124,63.38570019993819,12.5,0,-10.59334763199341,1.263276266888562,-1.076597245306651,-3.490933343588975e-05,1.251716215963812e-05,-8.612777962453211e-06,3.497790103607933e-06,3.65710601436618e-06
247.168287176867,59.71821993980633,12.5,0,-11.419532013927,1.205090667405911,-1.405072001727166,-3.750657497849112e-05,1.299191574684051e-05,-1.124057601381733e-05,3.701961799316853e-06,3.691753161591608e-06
250.8412766433277,58.55324486199203,12.5,0,-11.26106376129198,1.12839492807886,-1.195797005483263,-3.693811997859743e-05,1.261971477888594e-05,-9.5663760438661e-06,3.569548082046401e-06,3.693191936728397e-06
247.7345169905679,62.73859129503364,12.5,0,-10.83886382668538,1.371247280743157,-1.490285111108375,-3.578136206998774e-05,1.30590823597264e-05,-1.1922280888867e-05,3.719473955814431e-06,3.650041446508563e-06
251.0757115897273,61.85462409188133,12.5,0,-10.69737938123908,1.277080538848896,-1.254489178624242,-3.525327845104419e-05,1.264456122930773e-05,-1.003591342899394e-05,3.565036154062753e-06,3.653091333649168e-06
92.74826740278685,88.50106965014061,12.5,0,-5.902290545771057,-0.6247030970980445,1.747494976024617,-1.838756726878895e-05,2.722782525903104e-06,1.397995980819694e-05,1.505833431625359e-06,1.675399552746488e-06
97.3638381008744,90.48511867117776,12.5,0,-6.173325031070405,-0.6097023948875424,1.988961922156796,-1.926687818351526e-05,2.987612361216188e-06,1.591169537725436e-05,1.670515609035071e-06,1.673657023634393e-06
91.80649295898809,92.29943489927209,12.5,0,-5.443387702442943,-0.4962773296036144,1.811925315572009,-1.702181878413453e-05,2.766622707222789e-06,1.449540252457607e-05,1.522230880439885e-06,1.549974448272664e-06
96.97138054964577,94.05550669260579,12.5,0,-5.636515269347052,-0.4683635731670834,2.03698013666517,-1.76621580033769e-05,3.010448781342974e-06,1.629584109332136e-05,1.682828925243413e-06,1.566227614174593e-06
84.75386444791671,85.06459594105878,12.5,0,-6.41493295003156,-0.7554599819300094,1.648769922930459,-1.992341745455698e-05,2.714474417849218e-06,1.319015938344367e-05,1.497379277164338e-06,1.722409270174292e-06
89.36943514600426,87.04864496209589,12.5,0,-6.618610176149958,-0.6420098860553931,1.836428845173908,-2.066594465483555e-05,3.240456505542708e-06,1.469143076139126e-05,1.664581842787549e-06,1.688462677835651e-06
82.86064523674771,89.25782933153417,12.5,0,-5.960786675944173,-0.5853348550498072,1.77324109045946,-1.86062494789815e-05,2.895557804595955e-06,1.418592872367568e-05,1.546867249946099e-06,1.576110450037831e-06
88.02553282740541,91.01390112486786,12.5,0,-6.105178764521584,-0.4652266583779388,1.957194739183235,-1.916439071976672e-05,3.395417704807863e-06,1.565755791346588e-05,1.718201478542239e-06,1.552622546161065e-06
88.03301631146797,77.80170266089161,12.5,0,-7.425463749652693,-0.5681864647493642,1.71595775047484,-2.330693482708912e-05,4.122174312524188e-06,1.372766200379872e-05,1.810858360779679e-06,2.000900710918798e-06
91.69714224218529,80.18061982327265,12.5,0,-7.672630846079931,-0.5395107930710512,1.849159884624237,-2.412081007299893e-05,4.411670139036581e-06,1.479327907699389e-05,1.922838686049445e-06,1.946736117415586e-06
86.13979710029896,81.99493605136701,12.5,0,-7.025393990813769,-0.4300557129980564,1.815739254745194,-2.213721620020561e-05,4.244136911057234e-06,1.452591403796155e-05,1.840875887987569e-06,1.836231477526411e-06
90.35323992358643,84.14587598604462,12.5,0,-7.205225543729813,-0.3890207923023123,1.947125668879228,-2.274550510609355e-05,4.51931389961645e-06,1.557700535103382e-05,1.950271216549475e-06,1.794065090976159e-06
94.37946858868693,81.92210805305912,12.5,0,-6.821503897676399,-0.4911686997290534,1.802594922691472,-2.143587751278123e-05,3.885463279008147e-06,1.442075938153178e-05,1.764779467076801e-06,1.91282108123125e-06
98.04359451940424,84.30102521544018,12.5,0,-7.15861945897008,-0.5536743799205077,1.99500985297812,-2.246464276476785e-05,3.955137551430439e-06,1.596007882382496e-05,1.874875644996958e-06,1.874328072734383e-06
93.43769414488816,85.72047330219058,12.5,0,-6.39470366602449,-0.3801182427262315,1.84918861657381,-2.015895713709738e-05,3.899384556095651e-06,1.479350893259048e-05,1.764000902341585e-06,1.772624015021068e-06
97.65113696817561,87.87141323686822,12.5,0,-6.634557685312903,-0.4202871714577696,2.025216502513866,-2.089435485583507e-05,3.962727199585459e-06,1.620173202011093e-05,1.864508181285126e-06,1.756212292690578e-06
131.4723666207391,55.61551146948104,12.5,0,-11.37142004517898,-0.02499247096937474,1.703305513662902,-3.636855016779723e-05,9.017160129041183e-06,1.362644410930321e-05,2.954513127177466e-06,3.151560884948114e-06
134.6970576727687,57.58004499862346,12.5,0,-11.54533203022347,0.1134442510061335,1.795886512491961,-3.703581789752002e-05,9.599287227398405e-06,1.436709209993569e-05,3.097957524034126e-06,3.117652057350568e-06
129.9101961531956,59.36069370575975,12.5,0,-10.92725888047637,0.1735119725160081,1.853007459716178,-3.510603799553719e-05,9.297045416432323e-06,1.482405967772943e-05,3.012510911023569e-06,3.02925386360771e-06
133.0180381764175,60.86068038001439,12.5,0,-11.07277052070566,0.3444196798056169,1.968994833029139,-3.57084014101026e-05,9.960359391942502e-06,1.575195866423311e-05,3.182895430003458e-06,3.010772139887366e-06
134.1781252405594,49.12866555275848,12.5,0,-12.40176802324726,0.004430248802188341,1.594920595266057,-3.968920187343299e-05,9.935591214764813e-06,1.275936476212845e-05,3.181455024406167e-06,3.420260293863633e-06
137.6052047472953,51.89781783704839,12.5,0,-12.65349341506763,0.1042229553632654,1.67929036228969,-4.057455729250702e-05,1.045630818921655e-05,1.343432289831752e-05,3.315585097699726e-06,3.348041921678985e-06
132.6159547730159,52.87384778903717,12.5,0,-11.98560394205881,0.1821584913904459,1.727606301978498,-3.849965940770053e-05,1.017139032609647e-05,1.382085041582798e-05,3.22136548190011e-06,3.256330742167305e-06
135.9261852509442,55.17845321843931,12.5,0,-12.22137100995979,0.3051387998155835,1.830066509535643,-3.935249827172378e-05,1.07535409673777e-05,1.464053207628514e-05,3.374054932351221e-06,3.208023223010241e-06
140.1140010676975,53.92497800295783,12.5,0,-11.68634160766905,0.05257421454024325,1.650374738807601,-3.743835251617314e-05,9.517310772664015e-06,1.320299791046081e-05,3.05851282577543e-06,3.304442474170369e-06
143.5410805744335,56.69413028724775,12.5,0,-11.80261519389435,0.2743789097054647,1.654300491794436,-3.79878717482263e-05,1.032010466617297e-05,1.323440393435549e-05,3.219054019737039e-06,3.257544940574484e-06
138.3494421454477,56.86554148408904,12.5,0,-11.45912877379357,0.2375646007011936,1.779259255321425,-3.685926375670038e-05,9.927509741278675e-06,1.42340740425714e-05,3.149603502770774e-06,3.180268078513095e-06
141.6596726233759,59.17014691349118,12.5,0,-11.56319783756562,0.4986831260641917,1.796594790168742,-3.740117958106134e-05,1.084634427345791e-05,1.437275832134993e-05,3.341035490719834e-06,3.152747132729318e-06
137.0576953614667,59.01818335506717,12.5,0,-10.90860941941072,0.0181745328864289,1.72255823002121,-3.492208976842344e-05,8.785046040765145e-06,1.378046584016968e-05,2.880909434683068e-06,3.099043920959625e-06
140.2823864134962,60.98271688420959,12.5,0,-11.00632232869622,0.2640728088503939,1.761202890017258,-3.543148969890823e-05,9.650090851278239e-06,1.408962312013807e-05,3.060699914705564e-06,3.082114374500784e-06
135.2931364392168,61.95874683619837,12.5,0,-10.61762167678092,0.2375251202681468,1.876964883109142,-3.416640946191346e-05,9.254177726282804e-06,1.501571906487313e-05,2.990983807231695e-06,3.001309791369406e-06
138.4009784624387,63.45873351045302,12.5,0,-10.69104698005007,0.5370783762368094,1.938506972489733,-3.464101303714967e-05,1.027148838799785e-05,1.550805577991786e-05,3.215886433660394e-06,2.993939898178663e-06
234.9759186087266,47.10279290347155,12.5,0,-13.37043312538034,0.2111582784747785,-0.3608248745238732,-4.295431262399689e-05,1.137205299142356e-05,-2.886598996190985e-06,3.37855728508442e-06,3.963502696241191e-06
237.9478903654615,51.11754603500003,12.5,0,-12.90613904848008,0.7658418797300546,-0.6942459574287984,-4.19123184589203e-05,1.277560525392024e-05,-5.553967659430387e-06,3.635681009083931e-06,3.831206578073236e-06
228.6047978408918,50.74124575733602,12.5,0,-13.42749382487814,1.03469437693876,-0.3536144794073542,-4.379573574116104e-05,1.405301706610654e-05,-2.828915835258834e-06,3.916542136075061e-06,3.955973891784574e-06
232.4084747511984,53.99080733333947,12.5,0,-12.9445963574106,1.784620795732664,-0.7069467976268478,-4.285040498030004e-05,1.6066463632273e-05,-5.655574381014782e-06,4.375066812266136e-06,3.842892845846225e-06
239.6399027117406,44.43926055361204,12.5,0,-14.65248772099166,0.8214452290625687,-0.7513953174452623,-4.754511689042336e-05,1.435061490979354e-05,-6.011162539562099e-06,4.092978060057444e-06,3.999698962699013e-06
246.0110234795754,40.80080769974759,12.5,0,-14.29723789126928,0.4798818630635986,-0.5410739032355867,-4.613506674251258e-05,1.297341227481894e-05,-4.328591225884693e-06,3.775180053181657e-06,4.091060197253672e-06
242.00302403917,49.01417278128366,12.5,0,-13.87179624430851,1.213321390844531,-1.044780478583413,-4.536040509446287e-05,1.498006544614931e-05,-8.358243828667303e-06,4.20484972589419e-06,3.845501886975455e-06
247.5424396534331,46.14091148294423,12.5,0,-13.50034362953201,0.7940135397970662,-0.7837530604870113,-4.383631044634008e-05,1.334111823097622e-05,-6.270024483896091e-06,3.803850848195682e-06,3.896243664980858e-06
243.7329489152244,52.36324097196501,12.5,0,-12.95141245422283,1.049935389976558,-1.022493370877469,-4.228446816549429e-05,1.372092321130325e-05,-8.17994696701975e-06,3.874495874989932e-06,3.771724509081085e-06
248.663514100182,50.05013876976874,12.5,0,-12.74614169710916,0.7324220067657636,-0.849004970571526,-4.137359103616191e-05,1.254066377933777e-05,-6.792039764572208e-06,3.591519762982877e-06,3.800196889608179e-06
246.0960702426539,56.93815319963662,12.5,0,-12.08809117529158,1.501402661637041,-1.360022657630005,-3.988301389024269e-05,1.447496145747179e-05,-1.088018126104004e-05,4.061110729905531e-06,3.724358039939447e-06
250.1949302740397,55.39024255296537,12.5,0,-11.90112542759111,1.076009460236533,-1.120664535721308,-3.894440893648077e-05,1.296413061482979e-05,-8.965316285770462e-06,3.664684954489938e-06,3.732608751648518e-06
235.1929595050011,56.36965150919644,12.5,0,-12.16790544447446,1.127699614585286,-0.6632746676128831,-3.983945711398648e-05,1.334296312225248e-05,-5.306197340903065e-06,3.704702771735863e-06,3.790989080495153e-06
240.1235246899587,54.05654930700016,12.5,0,-12.16046524565959,0.4740663636942193,-0.6406096968291706,-3.929274187706606e-05,1.124538456034917e-05,-5.124877574633365e-06,3.26562368795807e-06,3.769257284065267e-06
238.9966364153077,59.61921308519987,12.5,0,-11.62518451055118,1.965521072655821,-1.059253912433137,-3.877300729188842e-05,1.558981504093957e-05,-8.474031299465095e-06,4.276320107597091e-06,3.762266402384207e-06
243.0954964466936,58.07130243852861,12.5,0,-11.66341870437398,1.064069583737384,-0.9957748444495074,-3.817419552098664e-05,1.273575763145881e-05,-7.966198755596059e-06,3.582449873519053e-06,3.732304783503232e-06
159.7254155225866,300.8269601980929,12.5,0,2.736431175920842,3.798855484965587,-3.796468994002785,5.717495374974222e-06,9.967192611153204e-06,-3.037175195202228e-05,2.560679145367023e-05,2.59343410215802e-05
161.9244943904858,300.8175684174433,12.5,0,2.750857717956898,3.857726666814014,-3.823653299300969,5.716563364010862e-06,1.014403915943933e-05,-3.058922639440775e-05,2.588205006262736e-05,2.596935301895186e-05
158.8562363652032,303.0862574752161,12.5,0,2.666115013234361,3.803565195368457,-3.784296306228891,5.488715886055187e-06,1.003851661459157e-05,-3.027437044983113e-05,2.537919655559325e-05,2.532251876532361e-05
160.9965786253671,303.051206872657,12.5,0,2.680168734249971,3.86441473855812,-3.812221972599627,5.48500815875341e-06,1.022199217598601e-05,-3.049777578079701e-05,2.566081356155159e-05,2.535710400091725e-05
158.2199530611458,304.740177871402,12.5,0,2.588206917050344,3.674110486103935,-3.64892124133543,5.342973745677953e-06,9.686588021892316e-06,-2.919136993068344e-05,2.455180405773847e-05,2.488827668241965e-05
160.3172971401848,304.6863437075435,12.5,0,2.60016423050121,3.728583878294806,-3.674277780582989,5.337658434968027e-06,9.851337026142411e-06,-2.939422224466391e-05,2.480218144163331e-05,2.492710239675462e-05
157.3507739037624,306.9994751485252,12.5,0,2.518055599985346,3.678369650108841,-3.637217152698146,5.115082199866035e-06,9.756338400360013e-06,-2.909773722158517e-05,2.432405339149576e-05,2.431372750534767e-05
159.389381375066,306.9199821627572,12.5,0,2.529534406640001,3.734782069450263,-3.663302200609679,5.106684445687791e-06,9.927675096928841e-06,-2.930641760487743e-05,2.45803055264967e-05,2.436456518483089e-05
154.5872465553617,304.8334213783862,12.5,0,2.736560482739422,3.503688533583301,-3.695222094530427,5.954042717899507e-06,9.022554921275024e-06,-2.956177675624342e-05,2.450152212960258e-05,2.480259526534748e-05
156.6845906344007,304.7795872145277,12.5,0,2.749315765870303,3.56194674350708,-3.722851874748652,5.948253055979306e-06,9.198776966526411e-06,-2.978281499798921e-05,2.47687945142765e-05,2.485491509710823e-05
153.8198021868385,307.1371610387181,12.5,0,2.657714922600877,3.504553857666132,-3.681050101867229,5.701044666189901e-06,9.088400406450921e-06,-2.944840081493783e-05,2.422969349069587e-05,2.422074087167952e-05
155.8584096581421,307.0576680529502,12.5,0,2.669920831307432,3.564795200912853,-3.709438937270795,5.691910499453499e-06,9.271407977875184e-06,-2.967551149816636e-05,2.450276064793824e-05,2.4275189896788e-05
155.9164991936027,300.8432272393514,12.5,0,2.902734681588807,3.613471652910027,-3.840061663263709,6.397973658756159e-06,9.240921544041041e-06,-3.072049330610967e-05,2.556371228009937e-05,2.584925541334893e-05
158.1155780615019,300.8338354587017,12.5,0,2.919285510100614,3.68103181052815,-3.871723715222293,6.396888183899445e-06,9.443873385609587e-06,-3.097378972177834e-05,2.587899460406369e-05,2.590216096514698e-05
155.1490548250795,303.1469668996834,12.5,0,2.818227565598503,3.614920768811269,-3.824263049110552,6.126391594866195e-06,9.313164407717255e-06,-3.059410439288442e-05,2.527297003336459e-05,2.523895442163656e-05
157.2893970852432,303.1119162971243,12.5,0,2.834314278988019,3.684658552543248,-3.856751942603247,6.122078850727061e-06,9.523455944947979e-06,-3.085401554082598e-05,2.559505995659203e-05,2.529086068097026e-05
573.4918243609142,74.49495567626873,12.5,0,-0.9656217971203186,0.003176813392438693,-2.983689261888364,-3.09253120149897e-06,7.826632405520586e-07,-2.386951409510691e-05,4.059913064429723e-06,3.448949673225579e-06
581.5819512647303,90.31655920293133,12.5,0,-0.3166727388217564,0.1986637587212596,-3.13243542032654,-1.172283771206628e-06,8.890622189654359e-07,-2.505948336261232e-05,5.529992619672619e-06,4.622535559687904e-06
563.9309152213555,90.23712616672543,12.5,0,-1.513963912220546,-0.09951034632720573,-3.088010529622145,-4.765076242043982e-06,8.927380215293783e-07,-2.470408423697716e-05,3.587937913107497e-06,4.054451248965168e-06
573.2115543848781,104.1796075937291,12.5,0,-0.9431343970461302,0.08111362865049887,-3.250758873948217,-3.082920973468016e-06,1.0140711293185e-06,-2.600607099158573e-05,4.659738482136471e-06,5.306242587903864e-06
559.4793135240766,47.09113451137061,12.5,0,-2.046805669257668,0.05474604610188627,-2.354588422504229,-6.593574978506047e-06,1.81263188293217e-06,-1.883670738003383e-05,2.365345477584135e-06,2.051491919603914e-06
567.5694404278927,62.9127380380332,12.5,0,-1.118603042763022,0.3032746211812443,-2.544619139893008,-3.822149433786666e-06,1.865361221990399e-06,-2.035695311914407e-05,3.581060987858911e-06,2.760040606181341e-06
547.8563766637099,66.08803995200367,12.5,0,-3.036227458064684,-0.1713716350104355,-2.569013542417359,-9.578830557798639e-06,1.880592734418353e-06,-2.055210833933887e-05,2.176378510951956e-06,2.559780096232839e-06
557.1370158272324,80.03052137900728,12.5,0,-2.221056533938813,0.05123250127393808,-2.782543818943492,-7.14836690962335e-06,1.940789231227652e-06,-2.226035055154793e-05,2.864595039661285e-06,3.318538842302451e-06
579.6108306990351,14.18752910220378,12.5,0,-2.671328785570843,-0.07799672492652698,-1.299396580566362,-8.485854733885473e-06,1.887473508691787e-06,-1.03951726445309e-05,1.0910019869504e-06,1.159921080576608e-06
585.6389298820432,33.26386757904272,12.5,0,-0.7395261894930112,0.4371343168262483,-1.568032223927624,-2.716191259838634e-06,1.990450765438403e-06,-1.254425779142099e-05,2.562946217130144e-06,1.862993356143362e-06
567.9878938386684,33.18443454283683,12.5,0,-4.373864522709311,-0.4479923021200575,-1.657051303149189,-1.363797263097375e-05,2.065516251383264e-06,-1.325641042519352e-05,1.303275844096335e-06,1.676400826853075e-06
575.2065052813828,50.3816509200168,12.5,0,-2.638277816596291,0.02425319979459828,-1.965180850200686,-8.461891572943809e-06,2.188232492619747e-06,-1.572144680160549e-05,1.744830957412114e-06,2.370028368630385e-06
580.4908956173231,62.9708870563329,12.5,0,-2.581023437703148,-0.2824308021639159,-2.606835078758905,-8.033330358918941e-06,1.161040183237988e-06,-2.085468063007124e-05,2.224198408213607e-06,3.063493143562384e-06
590.0518047568818,47.22871656587621,12.5,0,-1.609287539217248,-0.06435426214520978,-2.400379970097877,-5.098236715779026e-06,1.081496392509127e-06,-1.920303976078302e-05,2.514728382744993e-06,2.615907896108171e-06
587.7095070600376,80.16810343351288,12.5,0,-1.360851359090644,0.04393818480595313,-2.818327064636861,-4.389874896934822e-06,1.229283278651565e-06,-2.254661651709489e-05,3.453106919986344e-06,4.264446600239156e-06
596.0799039398898,66.30505504271514,12.5,0,-0.2492483499012987,0.2935710609950375,-2.583655820214228,-1.032451568480186e-06,1.138826075105159e-06,-2.066924656171382e-05,4.823535739170084e-06,3.969836397570074e-06
224.278381881961,60.91873566644999,12.5,0,-11.13790340920935,1.270437048208408,-0.5960508703630222,-3.665764054803665e-05,1.297572128163439e-05,-4.768406962904178e-06,3.56217540800383e-06,3.657561170904513e-06
227.6318805652981,62.34640205349734,12.5,0,-11.25468324912068,1.435499243184402,-0.4806354016733295,-3.716338579173368e-05,1.359734417748663e-05,-3.845083213386636e-06,3.703085406728603e-06,3.654250353113182e-06
223.3277853799484,65.13484740086371,12.5,0,-10.6151825570397,1.457276959248804,-0.4534884482702785,-3.51344057499261e-05,1.315543231522793e-05,-3.627907586162228e-06,3.572107586974153e-06,3.640762170889358e-06
226.3216196061243,65.82764265569215,12.5,0,-10.66478508924439,1.686779783975629,-0.2909621311451935,-3.547673611276254e-05,1.392952338011752e-05,-2.327697049161548e-06,3.755334744143022e-06,3.637551732752781e-06
225.9248633209144,53.61621593218926,12.5,0,-12.3393889148709,0.7924918852879737,-0.6562355668186847,-4.012003803581727e-05,1.240748516481824e-05,-5.249884534549477e-06,3.515111505883607e-06,3.892037892244375e-06
229.90131911772,56.31671645723262,12.5,0,-12.54663321263126,1.088579072146897,-0.5850773501979244,-4.102008953813755e-05,1.352075960097508e-05,-4.680618801583395e-06,3.759380677259713e-06,3.807693174162738e-06
224.9742668189018,57.83232766660301,12.5,0,-11.84124679291696,1.00147755520399,-0.4661993251235371,-3.869317178149746e-05,1.267772561098634e-05,-3.729594600988297e-06,3.523692095173231e-06,3.724890297517042e-06
228.5910581585464,59.79795705942742,12.5,0,-12.01467994454367,1.367688838034878,-0.3602039006453677,-3.954112689296763e-05,1.398834823734654e-05,-2.881631205162941e-06,3.819991871906191e-06,3.699839614936628e-06
232.8122867949098,58.29362004734671,12.5,0,-11.39046627048831,1.014665328853924,-0.9056211395648913,-3.726122432864574e-05,1.235930206872321e-05,-7.244969116519131e-06,3.471912043125899e-06,3.771182268096508e-06
236.7887425917154,60.99412057239004,12.5,0,-11.4013244540713,1.449035899721552,-0.9539988868718672,-3.764346697280539e-05,1.3757974442366e-05,-7.631991094974937e-06,3.799129941508517e-06,3.755777335770588e-06
231.2387331794287,61.23689764376446,12.5,0,-11.20191867856639,1.238088766231466,-0.7453497943438745,-3.683661078439761e-05,1.29234189947938e-05,-5.962798354750996e-06,3.568655689305308e-06,3.695337253855238e-06
234.8555245190732,63.20252703658888,12.5,0,-11.1836109196489,1.791060220498385,-0.7762918482450548,-3.722040311927518e-05,1.467828144131395e-05,-6.210334785960439e-06,3.996754818476996e-06,3.70808725720675e-06
230.0868119845118,63.39152638502987,12.5,0,-10.68315010285522,1.111550012050346,-0.887433578820247,-3.507532033877696e-05,1.210348012084528e-05,-7.099468630561976e-06,3.375758628967504e-06,3.661209669854173e-06
233.4403106678488,64.81919277207724,12.5,0,-10.68877385539507,1.536801505110517,-0.8549161374598352,-3.543351754135263e-05,1.346878390066971e-05,-6.839329099678681e-06,3.69436941105515e-06,3.683533694568669e-06
228.5132583690306,66.33480398144764,12.5,0,-10.37562289429741,1.393969718709859,-0.6829870097951614,-3.431716903671959e-05,1.276120141530947e-05,-5.463896078361291e-06,3.490849945145449e-06,3.643816390660998e-06
231.5070925952066,67.02759923627607,12.5,0,-10.30735575340738,2.006983770577288,-0.5912461473589329,-3.458912542736545e-05,1.466823266857323e-05,-4.729969178871463e-06,3.970931941247823e-06,3.664142192495591e-06
3.55481351982709,82.25610700723666,12.5,0,-5.841195830471402,-1.430676115107148,1.080809048932901,-1.754728576542277e-05,9.479309603424689e-08,8.64647239146321e-06,9.36471176033334e-07,1.15798537753938e-06
13.26674466784035,92.17679247533729,12.5,0,-6.965654536331637,-1.605760597555564,1.460664300551074,-2.100548603821678e-05,4.340897168875048e-07,1.168531440440859e-05,1.197922000116471e-06,1.103765013835322e-06
3.57238331079104,101.5000142226174,12.5,0,-4.028481270950208,-0.9776529820517545,1.148318044671655,-1.210901768139926e-05,9.429547419455181e-08,9.186544357373237e-06,7.79610475092231e-07,9.14571865629232e-07
13.33231602039822,107.9124668113805,12.5,0,-4.736812377806804,-1.049422808611044,1.540957394706543,-1.431826136209294e-05,4.312969146901028e-07,1.232765915765234e-05,1.033400023359445e-06,8.885212368003407e-07
20.37637170749453,99.43923828358842,12.5,0,-3.777298272539386,-0.7857197569352989,1.012281768613129,-1.145877866657779e-05,5.07535395838552e-07,8.098254148905035e-06,7.540842565442142e-07,1.024964452281714e-06
30.08830285550779,109.359923751689,12.5,0,-4.814996824622837,-1.20817542629832,1.443884459077049,-1.444144949775442e-05,-1.416390445635482e-08,1.155107567261639e-05,9.464627014049202e-07,8.638976781472036e-07
20.4770826419803,112.6067079072821,12.5,0,-2.824072263290383,-0.5461924557268674,0.9457032534704276,-8.60007727794773e-06,5.114419523063308e-07,7.565626027763421e-06,6.598302316649404e-07,8.275368782123296e-07
30.23701535158748,119.0191604960451,12.5,0,-3.49792014561361,-0.8755120408103703,1.348100586867068,-1.049293483331525e-05,-3.302414102297127e-09,1.078480469493654e-05,8.268310214544417e-07,6.869751409046921e-07
20.55080816289848,122.2459646785359,12.5,0,-2.097811680061187,-0.9109173297389376,0.9344601369088369,-5.984263512404646e-06,-1.236686111115651e-06,7.475681095270695e-06,4.426044996004609e-07,6.762407145345742e-07
30.34588045443356,126.0902125549494,12.5,0,-2.624536590127829,-1.262645088195444,1.416219124978703,-7.388401017852697e-06,-1.940835010123156e-06,1.132975299982962e-05,6.646195744430851e-07,5.963485283191914e-07
20.65151909738425,135.4134343022296,12.5,0,-0.9338427265599427,-0.6182830572818411,0.8452477077317463,-2.493670279166344e-06,-1.231431602053937e-06,6.76198166185397e-06,4.482188768091287e-07,4.603194824285002e-07
30.49459295051323,135.7494492993056,12.5,0,-1.03193260975631,-0.8599733122079474,1.289576988173174,-2.614205701453832e-06,-1.926368511260384e-06,1.031661590538539e-05,7.806104950128167e-07,5.256745554497273e-07
3.58524529045447,115.5875320398186,12.5,0,-2.796400756419085,-0.7538736256516023,1.129893156721024,-8.345383520019791e-06,-1.752749969498591e-07,9.039145253768192e-06,6.686175960500179e-07,6.914360198813593e-07
13.38031758198955,119.4317799162321,12.5,0,-3.232483041911389,-1.05843215916125,1.527440958269144,-9.497200006787446e-06,-8.009964757868873e-07,1.221952766615315e-05,8.32736199868198e-07,7.017193311081654e-07
3.602815081418419,134.8314392551994,12.5,0,-1.234919615119657,-0.3632183948707519,1.004520112019779,-3.661168052486301e-06,-1.7436317149068e-07,8.036160896158232e-06,6.627440930537017e-07,3.252310641925501e-07
13.44588893454742,135.1674542522753,12.5,0,-1.319886364924901,-0.57869030995482,1.37156972854202,-3.760684119795828e-06,-7.958998999155029e-07,1.097255782833616e-05,9.1475388958413e-07,4.066108108197363e-07
73.16905047994949,300.8313880949497,12.5,0,4.515465973338991,0.9012163867326306,-2.955848232586845,1.372851800529867e-05,-7.28480341126775e-07,-2.364678586069476e-05,2.149764794203096e-05,2.067804052304138e-05
83.35816646615638,298.2367184906445,12.5,0,4.439062837307102,0.9603073157049822,-3.091100513986563,1.343675522681874e-05,-4.782668595897385e-07,-2.47288041118925e-05,2.152168366042777e-05,2.133437564092673e-05
75.27638846814034,309.8745162414797,12.5,0,4.210298429266935,0.8105477437755437,-2.904837842476597,1.282451677863375e-05,-7.744859633318073e-07,-2.323870273981278e-05,2.00809328852297e-05,2.008635552423682e-05
85.25411667257509,306.2862397870198,12.5,0,4.096670835674696,0.8584077636856691,-3.033558181984418,1.242262046321049e-05,-5.304318247456154e-07,-2.426846545587534e-05,1.993822676956096e-05,2.074164865750374e-05
55.52098390794396,305.3254876783802,12.5,0,4.393875242004958,0.8054349754337042,-2.648796218725165,1.34160527940689e-05,-9.377082722161127e-07,-2.119036974980132e-05,2.051258106290949e-05,1.944379357289608e-05
65.71009989415089,302.730818074075,12.5,0,4.310088174619437,0.7859158411167995,-2.772596517317927,1.316354948588876e-05,-9.331398481217908e-07,-2.218077213854342e-05,2.025034111749192e-05,2.017146058470358e-05
57.99445627425688,316.0895933720957,12.5,0,4.07721380682371,0.7259554026403487,-2.620969492913223,1.246631985972359e-05,-9.387137570098525e-07,-2.096775594330579e-05,1.910098595121107e-05,1.869067148634021e-05
67.97218447869163,312.5013169176358,12.5,0,3.961569301134305,0.6984376901459665,-2.741743939277601,1.2118271611513e-05,-9.342548324403514e-07,-2.19339515142208e-05,1.870601464226383e-05,1.953679784754599e-05
51.23680409844933,286.6815097191584,12.5,0,4.883769012935491,0.4821979961158152,-2.550361301833179,1.524230244450092e-05,-2.363981622777784e-06,-2.040289041466543e-05,2.123444598902419e-05,2.0271734409054e-05
61.79205446277828,285.8078176620388,12.5,0,4.848628025348827,0.439475044822651,-2.669688643930656,1.516402964525812e-05,-2.472582276846578e-06,-2.135750915144525e-05,2.106666757722363e-05,2.08935476624991e-05
53.71027646476226,297.445615412874,12.5,0,4.594333907747306,0.4170476014849488,-2.537802623004857,1.436823042360342e-05,-2.340914801446008e-06,-2.030242098403886e-05,1.996993683144344e-05,1.986743810620684e-05
64.0541390473191,295.5783165055996,12.5,0,4.529915520407637,0.3677947163508427,-2.655650410111441,1.420149389222376e-05,-2.446989324003413e-06,-2.124520328089153e-05,1.968156279107277e-05,2.053500060194002e-05
69.51903401574847,285.1682306860849,12.5,0,5.024850124958494,0.5625634672302514,-2.904676166962258,1.562946962608298e-05,-2.219677004829991e-06,-2.323740933569807e-05,2.226347517064282e-05,2.14024123614434e-05
80.07428438007744,284.2945386289653,12.5,0,5.010036963343223,0.6287167561162977,-3.05386871102056,1.552914487780528e-05,-1.996135951102426e-06,-2.443094968816448e-05,2.253043532764214e-05,2.217084331975145e-05
71.62637200393937,294.211358832615,12.5,0,4.713953888845392,0.4724457407364439,-2.856522929727807,1.47066958517161e-05,-2.259336740719693e-06,-2.285218343782246e-05,2.082609045408489e-05,2.103067688975337e-05
81.97023458649618,292.3440599253406,12.5,0,4.66094723455731,0.5273801830810738,-2.999481793037755,1.449312700411853e-05,-2.041141201786411e-06,-2.399585434430204e-05,2.092075327221333e-05,2.171732719649096e-05
218.0290726758282,61.9647338158656,12.5,0,-11.54267266662047,1.316987232295054,-0.3628473379284212,-3.799014231902152e-05,1.344849727664054e-05,-2.90277870342737e-06,3.673055167140228e-06,3.676640904662876e-06
221.7053172629864,60.81646797040313,12.5,0,-11.34442130235515,1.412799357326087,-0.1338582129595673,-3.743238765339734e-05,1.35964949853276e-05,-1.070865703676539e-06,3.689978418261949e-06,3.663560701110154e-06
218.0481935431794,65.61963751328065,12.5,0,-10.75114474913712,1.514547426461073,-0.3397969954849059,-3.561530113840763e-05,1.344746756398512e-05,-2.718375963879248e-06,3.640101643233356e-06,3.643275076451104e-06
221.1109275478127,65.07911259093476,12.5,0,-10.61288818351897,1.603585679043025,-0.07304557248730961,-3.524411073049512e-05,1.362178471975285e-05,-5.843645798984769e-07,3.670108666178453e-06,3.642295736211282e-06
211.6616302699345,63.9535886007669,12.5,0,-11.13538018982737,1.551441891036095,0.03935940931333658,-3.687437012027644e-05,1.38729182031774e-05,3.148752745066926e-07,3.747032709947984e-06,3.680901382339219e-06
215.3378748570927,62.80532275530442,12.5,0,-11.03647078994963,1.360853522502082,0.2001419709369408,-3.640538934584047e-05,1.318390790396636e-05,1.601135767495527e-06,3.581397037152184e-06,3.681287326194265e-06
212.7433826371812,66.55585414152411,12.5,0,-10.60004249971352,1.77665635950075,-0.1282232874010432,-3.534146108668385e-05,1.416533435017321e-05,-1.025786299208345e-06,3.808874309315249e-06,3.644309319238436e-06
215.8061166418144,66.01532921917823,12.5,0,-10.56023241250007,1.509307278953247,0.09391596948133481,-3.500018954316283e-05,1.327796922265045e-05,7.513277558506785e-07,3.583835813558859e-06,3.643814614397106e-06
209.787980208689,59.44633246947072,12.5,0,-12.06501558900867,1.426848778222142,0.1166925166764469,-3.974952890740545e-05,1.421792856151779e-05,9.335401334115753e-07,3.867130798096402e-06,3.782288133784217e-06
214.5268562957426,57.24542846735041,12.5,0,-11.85642301127658,1.220414555536319,0.292755357699582,-3.891688528051412e-05,1.339046498673749e-05,2.342042861596656e-06,3.672423945987434e-06,3.80847196529469e-06
210.8697325759356,62.04859801022792,12.5,0,-11.61667065951007,1.615888468787789,-0.0240470714574074,-3.846605688546245e-05,1.446417962772898e-05,-1.923765716592592e-07,3.906869294414094e-06,3.717872694268215e-06
214.9950980804643,60.4554349312242,12.5,0,-11.42349735069726,1.355518923754357,0.1957754351870704,-3.763960666123471e-05,1.347645843657175e-05,1.566203481496563e-06,3.666887822831774e-06,3.725407130393747e-06
217.9959543620915,55.63425491528515,12.5,0,-12.97625293397578,0.9780897320524145,-0.3092752560905713,-4.230648117436442e-05,1.351088948974835e-05,-2.47420204872457e-06,3.768691299432895e-06,3.840214231292481e-06
222.7348304491451,53.43335091316484,12.5,0,-12.58338827367374,1.012596003534251,0.009817954151331762,-4.107691927858335e-05,1.330701783024859e-05,7.854363321065409e-08,3.692239189421475e-06,3.900751883239024e-06
218.0150752294429,59.28915861270019,12.5,0,-12.12509610862012,1.191200379178998,-0.3355219446195398,-3.975326785092759e-05,1.351191810026889e-05,-2.684175556956318e-06,3.716499892873918e-06,3.729410592159048e-06
222.1404407339714,57.69599553369648,12.5,0,-11.75726729511971,1.210787387264183,0.02921183714742876,-3.859188525419442e-05,1.328033347534115e-05,2.336946971794301e-07,3.635982630746609e-06,3.732813816982942e-06
124.3964561261886,53.8867509465629,12.5,0,-11.79060434754611,-0.08843353737515169,1.628643596967853,-3.765918708224743e-05,9.149496158436402e-06,1.302914877574282e-05,2.995438392278009e-06,3.140077314698385e-06
128.7123287548641,54.62589631085154,12.5,0,-11.84944366560596,0.07250308914231018,1.848007125445127,-3.797622220125293e-05,9.711564817740161e-06,1.478405700356102e-05,3.154631389940691e-06,3.157569714544335e-06
123.5537894350584,58.27477994901453,12.5,0,-11.10427324080261,0.1201277570944104,1.754382477829404,-3.562977657624387e-05,9.267827415344198e-06,1.403505982263523e-05,2.99310949096535e-06,3.006137754173958e-06
127.3742583460601,58.66780377358761,12.5,0,-11.12372934861349,0.3206421794108198,2.016496309890103,-3.585244765909182e-05,9.925038453005415e-06,1.613197047912082e-05,3.192912974733604e-06,3.028012083698426e-06
116.9211454544611,52.60651362145897,12.5,0,-11.91319803771561,-0.0596026755670338,1.686729492258792,-3.807455158023632e-05,9.339829868357978e-06,1.349383593807034e-05,3.052954200949067e-06,3.13029422887224e-06
121.2370180831366,53.34565898574761,12.5,0,-12.0137707230205,-0.04170556117327218,1.929128875268425,-3.841070186472699e-05,9.47755878266193e-06,1.54330310021474e-05,3.144971328511342e-06,3.132768870339608e-06
116.936543172585,57.59404271628115,12.5,0,-11.10405893975651,0.1425177594888196,1.707085393786889,-3.564700281481189e-05,9.339303982169433e-06,1.365668315029511e-05,2.994506463655532e-06,2.973402345204871e-06
120.7570120835868,57.98706654085424,12.5,0,-11.16755472109264,0.1755950947473264,1.984114108075609,-3.587665118329431e-05,9.495948080065555e-06,1.587291286460487e-05,3.103233476038301e-06,2.991505118846191e-06
116.8944758243504,43.96785982515415,12.5,0,-13.10099614066651,-0.02185739977277201,1.578758639707655,-4.19057017303146e-05,1.041085323326033e-05,1.263006911766124e-05,3.324027287567429e-06,3.432048149154545e-06
122.06841286228,45.30650528181337,12.5,0,-13.29294976460276,-0.07523065311400989,1.855451326734524,-4.247725472423763e-05,1.039362172171738e-05,1.484361061387619e-05,3.395474283321832e-06,3.411330426581186e-06
116.9098735424743,48.95538891997634,12.5,0,-12.35043561578448,0.1657996762538634,1.575694247973435,-3.965403371151342e-05,1.041090745663995e-05,1.260555398378748e-05,3.260875383952892e-06,3.253188001648654e-06
121.5884068627301,49.94791283691998,12.5,0,-12.52557645692949,0.1160322117689052,1.882972360147505,-4.01746704315895e-05,1.039176424320409e-05,1.506377888118004e-05,3.340522698549064e-06,3.245260722505846e-06
125.8559976490458,46.28646176936749,12.5,0,-12.98696654750152,-0.1486867061649013,1.450169485093689,-4.143934358707293e-05,9.913775778273528e-06,1.160135588074951e-05,3.201010794993207e-06,3.412822948759085e-06
131.0299346869754,47.6251072260267,12.5,0,-13.12533529392607,0.06094895475936157,1.719840383223976,-4.204983210437092e-05,1.069530489037082e-05,1.375872306579181e-05,3.4066684345446e-06,3.437618317754064e-06
125.0133309579156,50.6744907718191,12.5,0,-12.26687361379001,0.07360403552396644,1.589254696415096,-3.93128787925472e-05,1.00490318047087e-05,1.271403757132077e-05,3.189809744970911e-06,3.249048284157772e-06
129.6918642781714,51.66701468876274,12.5,0,-12.38197669373438,0.321164053070397,1.899527629178524,-3.987925666240632e-05,1.093330632481277e-05,1.51962210334282e-05,3.437118584697913e-06,3.267323374170881e-06
152.5758044620767,318.558758126846,12.5,0,2.129416616692507,3.279598016686632,-3.180946210507635,4.190454760066717e-06,8.791180360043216e-06,-2.544756968406108e-05,2.124929035522834e-05,2.156670600547346e-05
156.4503750394204,318.2087296534227,12.5,0,2.14658836145202,3.39009947465709,-3.223393967815236,4.157003176920791e-06,9.131047629741071e-06,-2.578715174252188e-05,2.172658857890272e-05,2.158510467085158e-05
152.2893613035687,321.2432507948754,12.5,0,2.023840353888048,3.263140876149353,-3.14802591052449,3.86577643152227e-06,8.822978520567489e-06,-2.518420728419592e-05,2.081585785972129e-05,2.100941926940376e-05
155.8329073888024,321.3848550417741,12.5,0,2.058796758051784,3.383523647297218,-3.198464820373739,3.881330707927933e-06,9.180238264909671e-06,-2.558771856298991e-05,2.139317118177723e-05,2.093278641892542e-05
159.2867575594267,317.952491026792,12.5,0,1.914528601419933,3.499249661389896,-3.089845764879181,3.327091795431869e-06,9.665976035311719e-06,-2.471876611903345e-05,2.122560856288874e-05,2.158956178524589e-05
163.1613281367703,317.6024625533686,12.5,0,1.927960520791482,3.584094553968205,-3.121345738183376,3.302198023358179e-06,9.926734156065069e-06,-2.4970765905467e-05,2.159390280690074e-05,2.158334018284872e-05
158.426963162045,321.4885165450671,12.5,0,1.819682950080989,3.497246476518591,-3.063310592392003,3.025188259044291e-06,9.735442364794698e-06,-2.450648473913602e-05,2.088621305568248e-05,2.085693275405142e-05
161.9705092472786,321.6301207919659,12.5,0,1.84556036606198,3.586733168735185,-3.09972907486172,3.036406636410189e-06,1.000109784710301e-05,-2.479783259889376e-05,2.131577163820813e-05,2.072632953814487e-05
157.7975499791252,324.0770668811946,12.5,0,1.702810287952712,3.339132897255549,-2.891502758553664,2.777686603644237e-06,9.322977040855586e-06,-2.313202206842931e-05,1.979965860663685e-05,2.032850954757219e-05
161.0987693175949,324.5785712580172,12.5,0,1.711709297128966,3.368725881873766,-2.897117404338717,2.78248904531368e-06,9.410555384292876e-06,-2.317693923470974e-05,1.993710116541109e-05,2.011618257035197e-05
156.9377555817434,327.6130923994699,12.5,0,1.691327322153724,3.344982377289556,-2.878416580790935,2.736261529060272e-06,9.350881749603599e-06,-2.302733264632748e-05,1.977114216186859e-05,1.961745953070559e-05
159.9079504281032,328.6062294966145,12.5,0,1.702295297268253,3.375462745169154,-2.886131539126717,2.746974755123084e-06,9.43964454672669e-06,-2.308905231301374e-05,1.99203324361595e-05,1.930624069889066e-05
152.0796703580693,323.2084358203355,12.5,0,1.934592533259942,3.215479170795087,-3.033011194415254,3.618312769795745e-06,8.741859319936324e-06,-2.426408955532203e-05,2.025279614231594e-05,2.061417290126961e-05
155.3808896965391,323.7099401971579,12.5,0,1.954281530518865,3.269714261011905,-3.052148944517197,3.637929488850843e-06,8.899660410823003e-06,-2.441719155613758e-05,2.052269493549228e-05,2.046194565457593e-05
151.7932271995613,325.8929284883649,12.5,0,1.89032962681747,3.210006700774218,-3.013874404443356,3.481049445196529e-06,8.759757741023521e-06,-2.411099523554685e-05,2.007163621481822e-05,2.009162647804379e-05
154.7634220459212,326.8860655855095,12.5,0,1.919365730179649,3.269253034577051,-3.037844175939918,3.526567908913235e-06,8.926117126502842e-06,-2.430275340751934e-05,2.039388520749163e-05,1.982790301597001e-05
224.6747291710616,321.2995613307935,12.5,0,0.209826983143441,2.648857639246177,-0.4395914171755159,-1.44763976533793e-06,8.308482859073013e-06,-3.516731337404127e-06,1.088116355992179e-05,1.121457793229256e-05
227.4889060404289,318.4255397828057,12.5,0,0.1480859731120754,2.732429745936012,-0.4315116514992192,-1.712068682790168e-06,8.625306408505576e-06,-3.452093211993754e-06,1.100726828131481e-05,1.099705529500394e-05
227.6048129555886,326.0160865745876,12.5,0,0.02504425513798447,2.49200566709486,-0.3321691387026685,-1.913462917234337e-06,7.954382730593161e-06,-2.657353109621348e-06,9.688220585530926e-06,9.773111088998863e-06
230.9868967273188,323.618021140681,12.5,0,-0.01248181220474531,2.5894044078491,-0.3367904354645027,-2.111465325334465e-06,8.296079554880915e-06,-2.694323483716022e-06,9.948736226149671e-06,9.427354248428712e-06
229.7497831562048,329.4688226880792,12.5,0,0.05303468278343954,2.029641833704788,-0.1976601954266966,-1.454002482056823e-06,6.452426121628568e-06,-1.581281563413573e-06,7.976519718907592e-06,8.788333321122991e-06
233.5476036344162,327.4191813118384,12.5,0,-0.02227897451162852,2.049684025720259,-0.2488026968462576,-1.711039939013418e-06,6.576812061914131e-06,-1.990421574770061e-06,7.834127973230137e-06,8.359116255711616e-06
232.6798669407318,334.1853479318734,12.5,0,-0.1658610277560727,1.942920344034932,-0.1280506895336179,-2.085091564047378e-06,6.35003392311664e-06,-1.024405516268943e-06,6.981299431217401e-06,7.539337268301152e-06
237.0455943213061,332.6116626697136,12.5,0,-0.2146545489806603,1.971196046416314,-0.1842044962298052,-2.263851393871164e-06,6.479550987716732e-06,-1.473635969838442e-06,6.956523909275949e-06,7.010336831484268e-06
223.1717651300354,333.0189056889601,12.5,0,0.08115052305744164,2.37708059216678,-0.3306532943790221,-1.641982799949611e-06,7.541737476487743e-06,-2.645226355032177e-06,9.418863866428936e-06,9.801999374146836e-06
226.9695856082468,330.9692643127192,12.5,0,0.01440329387522632,2.383145323287553,-0.3763364366341542,-1.860425718229318e-06,7.614542399419987e-06,-3.010691493073234e-06,9.249859966181296e-06,9.174952687468176e-06
225.1182053057183,336.9110507610072,12.5,0,-0.07212603493563896,2.326119711410055,-0.2924292341621483,-2.091699080922088e-06,7.501283904460686e-06,-2.339433873297186e-06,8.75260212345368e-06,8.914300141447835e-06
229.4839326862927,335.3373654988476,12.5,0,-0.1153711284246403,2.338422782743908,-0.3404979312651117,-2.239925837153975e-06,7.575249807520218e-06,-2.723983450120894e-06,8.682330407015623e-06,8.049502699608499e-06
219.80043185192,326.2775126738667,12.5,0,0.2383034364171085,2.805539090290922,-0.5780412220178344,-1.48186027569799e-06,8.787082339797262e-06,-4.624329776142675e-06,1.160681225543295e-05,1.161685037033182e-05
222.6146087212872,323.4034911258789,12.5,0,0.1183355274125093,2.86752071504242,-0.5935264832170937,-1.915342884313906e-06,9.081397866205737e-06,-4.748211865736749e-06,1.147780996029904e-05,1.138065152219429e-05
221.7468720276028,330.1696577459139,12.5,0,0.005532479873516571,2.677711554624211,-0.4821735049469784,-2.124465308104115e-06,8.564250990898659e-06,-3.857388039575827e-06,1.03771637089158e-05,1.052614552545831e-05
225.1289557993331,327.7715923120073,12.5,0,-0.07378062068386093,2.754127295884511,-0.5103973191692206,-2.439399822895964e-06,8.872231843377523e-06,-4.083178553353765e-06,1.043960927441338e-05,1.006753132432014e-05
579.8918245811273,222.3596840547903,12.5,0,2.727666970855195,-0.0510630248274212,-0.6576230537826295,8.769384726598558e-06,-2.345535256131903e-06,-5.260984430261037e-06,1.045743817871519e-05,1.136841322794603e-05
590.8634387432043,221.1642452894851,12.5,0,2.72615156454369,-0.03298140384029957,-0.6789769149345904,8.750070129612047e-06,-2.28646174392391e-06,-5.431815319476723e-06,1.051395308802055e-05,9.087088294702224e-06
584.340932679139,235.2732915883983,12.5,0,2.65037767067369,-0.07847239586063715,-0.638526920910187,8.543986462844315e-06,-2.37141380329299e-06,-5.108215367281496e-06,1.007532035497741e-05,1.137107376540896e-05
595.4696063681333,234.9529747366439,12.5,0,2.653727680199711,-0.05844116232790608,-0.6613445057302575,8.538681506501397e-06,-2.309993863609068e-06,-5.29075604584206e-06,1.015644796334459e-05,8.757392630535998e-06
560.8884314117093,224.430244733599,12.5,0,3.718917331412639,-0.0250722186950163,-0.575591870192885,1.192059323547646e-05,-3.055364964954163e-06,-4.60473496154308e-06,1.428818056906151e-05,1.522554920454407e-05
571.8600455737862,223.2348059682938,12.5,0,3.726210727703744,-0.02089430167584816,-0.5525484837292505,1.194058976999266e-05,-3.047830347525709e-06,-4.420387869834004e-06,1.432297212778515e-05,1.301320887145698e-05
565.0655044292922,235.8280966501475,12.5,0,3.787986861176649,-0.008782763971388441,-0.584052531324051,1.212858416694239e-05,-3.058494333649762e-06,-4.672420250592408e-06,1.460341468346477e-05,1.571101584437248e-05
576.1941781182866,235.5077797983931,12.5,0,3.79047824414073,-0.005704131514079336,-0.5600973063464467,1.21340936864616e-05,-3.050635816157637e-06,-4.480778450771574e-06,1.461636557461542e-05,1.323429148996876e-05
553.6535287184606,204.6885861173455,12.5,0,3.425032558212394,-0.006471990865638322,-1.536365610123673,1.096528177897217e-05,-2.760736417339957e-06,-1.229092488098939e-05,1.368427879380126e-05,1.41150990135534e-05
564.3531078001089,201.9773917349807,12.5,0,3.404741621974174,-0.04575694396304808,-1.556360493862772,1.093177874548779e-05,-2.870215518261093e-06,-1.245088395090217e-05,1.350810527911456e-05,1.236976207546603e-05
557.8306017360436,216.086438033894,12.5,0,3.377797466938668,-0.003739913629951852,-1.545212088082325,1.08119438251077e-05,-2.71420569716678e-06,-1.23616967046586e-05,1.352390911189506e-05,1.479792457855217e-05
568.6872403446091,214.25036556508,12.5,0,3.360513219479081,-0.04373324328771022,-1.564857797055135,1.078862889696323e-05,-2.828356954103937e-06,-1.251886237644108e-05,1.335692183393266e-05,1.278155891301523e-05
572.1857433071435,199.9926596979788,12.5,0,2.559844472993331,-0.03290116462790937,-1.729265364748394,8.217823245280986e-06,-2.153159305203975e-06,-1.383412291798715e-05,1.062281367941861e-05,1.1129084263398e-05
582.8853223887917,197.281465315614,12.5,0,2.536065948353382,-0.03485308385811403,-1.765626615446618,8.143293501817312e-06,-2.14038262702867e-06,-1.412501292357294e-05,1.056806069580159e-05,9.484826382948043e-06
576.634851405155,212.9062672315868,12.5,0,2.431741761541084,-0.06671751174826746,-1.710697433397041,7.83494764633008e-06,-2.158889446827322e-06,-1.368557946717633e-05,1.005693560669534e-05,1.130357233630741e-05
587.4914900137207,211.0701947627728,12.5,0,2.415611836795119,-0.06659935547224449,-1.74863681140188,7.783237362122175e-06,-2.145607406947277e-06,-1.398909449121504e-05,1.003827331656205e-05,9.282003581202106e-06
175.0164417122256,300.6515747461584,12.5,0,2.032379594507612,4.581077045789863,-3.47606193312674,2.838753065792466e-06,1.303354287092147e-05,-2.780849546501392e-05,2.575249209009907e-05,2.587996511900913e-05
177.1627515355081,300.7187562492954,12.5,0,2.016385913136199,4.517723465902599,-3.473334352859044,2.838256149313758e-06,1.284360636037936e-05,-2.778667482287235e-05,2.54737171011411e-05,2.576444875373979e-05
173.8915721191163,302.4317100576677,12.5,0,2.027886120072781,4.544170869640959,-3.497516488703366,2.853898888520131e-06,1.291903788679284e-05,-2.798013190962693e-05,2.562511022999722e-05,2.535675306624899e-05
175.8349776236973,302.6824348407118,12.5,0,2.011737378371374,4.482079945154015,-3.492579690530726,2.851895654665184e-06,1.273326592179575e-05,-2.79406375242458e-05,2.534877402033721e-05,2.519479470007011e-05
173.068110425106,303.7348595499844,12.5,0,1.953388579433667,4.395611424176057,-3.389564801991706,2.734354314846889e-06,1.250324569381645e-05,-2.711651841593365e-05,2.476621545322318e-05,2.498812629184043e-05
174.8629796593287,304.1199473393027,12.5,0,1.933386851093166,4.336867250243479,-3.375042105816959,2.717344123303347e-06,1.23312657199046e-05,-2.700033684653567e-05,2.448114311924745e-05,2.479280980766339e-05
171.9432408319967,305.5149948614937,12.5,0,1.973406657522004,4.361481469210728,-3.407120875741101,2.825716128701831e-06,1.237801537545672e-05,-2.725696700592881e-05,2.47251333943201e-05,2.450423126784335e-05
173.535205747518,306.083625930719,12.5,0,1.950505308999204,4.303979371072733,-3.390175545774402,2.798433491939267e-06,1.221232974023338e-05,-2.712140436619522e-05,2.443316615615812e-05,2.426422071135614e-05
169.9593057185459,303.0678679335228,12.5,0,2.138773598366544,4.288173383744811,-3.51658644021806,3.413536807777092e-06,1.201113594929016e-05,-2.813269152174448e-05,2.509745339873324e-05,2.529328599913845e-05
171.7541749527686,303.4529557228411,12.5,0,2.121614606284624,4.237311305507903,-3.504305322414896,3.399317695704473e-06,1.186210449259759e-05,-2.803444257931916e-05,2.485205118182978e-05,2.5122228483173e-05
169.1858767144964,304.5300969588509,12.5,0,2.153988541662663,4.267831183204938,-3.530551281428752,3.47849838675657e-06,1.193386895292567e-05,-2.824441025143002e-05,2.508754734530602e-05,2.489265154180688e-05
170.7778416300176,305.0987280280762,12.5,0,2.134040332131442,4.217101625321828,-3.515879122675586,3.455247762563151e-06,1.178749293532469e-05,-2.812703298140469e-05,2.483155644888964e-05,2.46726188013562e-05
171.2989240495831,300.5352129693983,12.5,0,2.221971258182293,4.405933628412922,-3.592130705237404,3.585561123453001e-06,1.232141060437551e-05,-2.873704564189923e-05,2.584819448221558e-05,2.602773876817772e-05
173.4452338728655,300.6023944725354,12.5,0,2.216132018225836,4.380122587390819,-3.599666099652287,3.587524388410019e-06,1.224348666506995e-05,-2.87973287972183e-05,2.574481543240951e-05,2.595051346575075e-05
170.5254950455335,301.9974419947263,12.5,0,2.202315624379627,4.390619228282143,-3.603344497845546,3.534914615389091e-06,1.228812903099916e-05,-2.882675598276437e-05,2.573993054374239e-05,2.559743170477393e-05
172.4689005501145,302.2481667777705,12.5,0,2.198540617571034,4.365461027233677,-3.60989114711114,3.542961154440367e-06,1.221064279309094e-05,-2.887912917688912e-05,2.564483466457785e-05,2.54646393264989e-05
500.2999879929076,155.4350850388909,12.5,0,2.266864755337738,-0.09366568566987099,-3.102690227809317,7.328899765616656e-06,-2.113221998413777e-06,-2.482152182247454e-05,1.115791632267771e-05,1.176420856021544e-05
510.8425169888766,153.5816619670794,12.5,0,2.328291383771034,-0.1740138614548892,-2.92395590436124,7.58974351723122e-06,-2.419477463672473e-06,-2.339164723488992e-05,1.089320059502135e-05,1.088875269436843e-05
503.2984829626434,165.8599441502126,12.5,0,2.776436506819566,0.06167483722900591,-3.195715402850945,8.835256952039404e-06,-2.023789726322833e-06,-2.556572322280756e-05,1.329927881889013e-05,1.351165785990288e-05
513.7236580563048,164.1567673781636,12.5,0,2.832709259277623,-0.02168463215432326,-3.013279081973629,9.082017335411852e-06,-2.335558230315933e-06,-2.410623265578903e-05,1.302528969224533e-05,1.244005540453811e-05
495.1064423591789,137.3786993966589,12.5,0,1.122072557692926,-0.1089584971010435,-3.397883087564725,3.677798982298198e-06,-1.24632523687768e-06,-2.71830647005178e-05,8.394505141731749e-06,8.842191924262416e-06
505.8522342764074,135.2650421000143,12.5,0,1.206447212028336,-0.2012606609452127,-3.188295034934103,4.021639607246847e-06,-1.60919188464735e-06,-2.550636027947282e-05,8.047161781763028e-06,8.27113051900439e-06
498.1049373289146,147.8035585079806,12.5,0,1.710749662441933,0.07067709082132634,-3.505594770244179,5.417857247157123e-06,-1.142433039325302e-06,-2.804475816195343e-05,1.054177705948268e-05,1.051302893371488e-05
508.7333753438356,145.8401475110984,12.5,0,1.7895067579293,-0.02501312507866804,-3.291788159937048,5.746432125436693e-06,-1.511647406595177e-06,-2.633430527949638e-05,1.019481315414843e-05,9.771692638018428e-06
513.7186999270473,133.7177375691476,12.5,0,0.7445972196586027,-0.09757294913229445,-3.425186087037525,2.460769462213364e-06,-9.079112129502243e-07,-2.74014886963002e-05,7.575256096790865e-06,7.899807967698504e-06
524.4644918442759,131.604080272503,12.5,0,0.8221317979778591,-0.1735782906535734,-3.236376479686938,2.769684386052008e-06,-1.213155968473722e-06,-2.58910118374955e-05,7.262077364580328e-06,7.456397296749615e-06
516.5139319755235,144.4028309053024,12.5,0,1.285225369614033,0.0630306642939939,-3.516465219655833,4.062296651329711e-06,-8.26482169950446e-07,-2.813172175724667e-05,9.393567372513202e-06,9.285625767712957e-06
527.1423699904444,142.4394199084202,12.5,0,1.357702952769542,-0.01585363941708684,-3.323995267674545,4.357332360396202e-06,-1.136894008350311e-06,-2.659196214139636e-05,9.079877326744821e-06,8.69900267780241e-06
518.5601838538659,152.2248621106507,12.5,0,1.775435562810467,-0.08861612842495969,-3.169718779920122,5.752286703733462e-06,-1.703920061208244e-06,-2.535775023936097e-05,9.81047305342674e-06,1.031655550202169e-05
529.1027128498347,150.3714390388392,12.5,0,1.826933425988703,-0.1606419820606974,-3.017548997730579,5.974700548812408e-06,-1.975601083385194e-06,-2.414039198184463e-05,9.550501998828299e-06,9.628739566362671e-06
521.355415902342,162.9099554468056,12.5,0,2.220192651171553,0.04567271527208638,-3.248065643444097,7.068078311531299e-06,-1.630001432066566e-06,-2.598452514755278e-05,1.157890740728959e-05,1.174729011529192e-05
531.7805909960033,161.2067786747565,12.5,0,2.267252641563221,-0.028940470919537,-3.092817461904161,7.278360829737936e-06,-1.906411620193095e-06,-2.474253969523329e-05,1.130994061487944e-05,1.092622260263551e-05
91.32755180926411,3.611026908657264,12.5,0,-19.16296778514768,-0.8876470146045099,-0.2419675652417549,-6.061137930078897e-05,1.248990378138371e-05,-1.935740521934039e-06,4.174153767920974e-06,4.356790471867098e-06
107.219432243048,3.406229062068622,12.5,0,-18.91827449870059,-0.03064856595301091,0.7070806729871757,-6.051395954307948e-05,1.503654418791084e-05,5.656645383897405e-06,4.598793120413589e-06,4.414813922322138e-06
85.60989426442148,13.47653589102672,12.5,0,-17.28963074870372,-0.09237906794429929,0.3718691464528914,-5.525291514149646e-05,1.353609158154122e-05,2.974953171623132e-06,4.153124041184644e-06,4.165411672231139e-06
99.03264618466685,12.71221992225342,12.5,0,-16.83973731599331,1.026648253580756,1.589956055114063,-5.470847801404319e-05,1.675706426425307e-05,1.271964844091251e-05,4.847324070323544e-06,4.245838680226534e-06
81.4242784414951,20.69858970834125,12.5,0,-16.43926875675701,-0.958300040256491,0.2897018874720597,-5.183901998941723e-05,1.008485487658484e-05,2.317615099776477e-06,3.482859310724212e-06,3.968962342471037e-06
93.03950283949008,19.52467804639066,12.5,0,-16.10404987388063,-0.1682035044137526,0.8632210901891029,-5.139839679288702e-05,1.23449886849805e-05,6.905768721512823e-06,3.853537086180958e-06,4.083069953504443e-06
75.70662089665251,30.56409869071071,12.5,0,-14.81217480238999,-0.1252384854349851,0.9128353874269738,-4.729876857929998e-05,1.144897668852004e-05,7.30268309941579e-06,3.572074605065079e-06,3.623631592066726e-06
84.85271678110892,28.83066890657545,12.5,0,-14.13110347507921,1.082250519669171,1.791775110096077,-4.608533153598881e-05,1.476808444300472e-05,1.433420088076862e-05,4.302088730132637e-06,3.807352764293092e-06
61.30611964321569,22.73186435040077,12.5,0,-15.48972210813169,-0.4080086238989384,0.5534761287135271,-4.924070384690226e-05,1.108615009002875e-05,4.427809029708217e-06,3.551080830939842e-06,3.66028081046308e-06
72.92134404121066,21.55795268845017,12.5,0,-15.24562200157727,0.08053003989940066,1.053472044612607,-4.885041443696677e-05,1.245419372893989e-05,8.427776356900858e-06,3.808731312850516e-06,3.855676333027984e-06
59.86511813416202,33.56648714813218,12.5,0,-14.0464483417909,0.0158193028628788,0.8141238656537578,-4.496129013602118e-05,1.128778044259393e-05,6.512990925230063e-06,3.459112561240417e-06,3.2695911814573e-06
69.01121401861845,31.83305736399693,12.5,0,-13.569661210112,0.7044312881944923,1.500228087075933,-4.398646090291397e-05,1.310990909031197e-05,1.200182469660746e-05,3.863180010767468e-06,3.479538810229878e-06
63.80200747063526,3.96574718422312,12.5,0,-17.47895852906526,-0.3472457252029155,-0.05661951703850181,-5.56548707128465e-05,1.287198050260288e-05,-4.529561363080145e-07,4.050848806137434e-06,4.069833862419377e-06
79.69388790441916,3.760949337634474,12.5,0,-17.30414511117093,0.2783498756699849,0.5179510838091679,-5.559594425628294e-05,1.473403569108069e-05,4.143608670473343e-06,4.377962676443792e-06,4.26435334341419e-06
62.36100596158155,14.80036998195452,12.5,0,-16.29321405195011,0.008592849216765508,0.180383713959666,-5.214515924561375e-05,1.306206835905373e-05,1.443069711677328e-06,3.963780676961264e-06,3.874705190569111e-06
75.78375788182692,14.03605401318121,12.5,0,-16.00011431514399,0.7867424721525031,0.8888105998909939,-5.182975978618276e-05,1.53176673630032e-05,7.110484799127951e-06,4.404284217873663e-06,4.065966753396384e-06
358.2452478371572,167.1301293700961,12.5,0,6.782476125061461,-0.3795638593054154,-2.687066296875836,2.2007574687641e-05,-6.640585249826497e-06,-2.149653037500669e-05,2.579916698986097e-05,2.662634854775581e-05
364.6283758906137,166.5815916214527,12.5,0,6.822695962571236,-0.4482800238997722,-2.422602303990589,2.219125109934777e-05,-6.892652846536259e-06,-1.938081843192471e-05,2.559253953368475e-05,2.553496982597862e-05
359.1953666863543,172.1335741748509,12.5,0,7.419566996061802,-0.2069898631750062,-2.760199341037364,2.390820627793777e-05,-6.598021159009461e-06,-2.208159472829891e-05,2.871851017225138e-05,2.855564355363101e-05
365.4404278098875,172.075032214118,12.5,0,7.404542864792335,-0.2933501010996555,-2.480336548519376,2.392921724821519e-05,-6.862354615352765e-06,-1.984269238815501e-05,2.825296105905505e-05,2.760694536746557e-05
369.3011499367633,166.1800341195933,12.5,0,6.330785090994736,-0.4331329187358208,-2.721817901986451,2.060501862617181e-05,-6.450653412750414e-06,-2.177454321589161e-05,2.399460847125148e-05,2.485470829565468e-05
375.6842779902198,165.6314963709498,12.5,0,6.381911290837968,-0.44293062229782,-2.473218261085164,2.077646062851975e-05,-6.522907024023397e-06,-1.978574608868132e-05,2.399475216582069e-05,2.408757795407331e-05
370.0121298484927,172.0321765244886,12.5,0,7.01134058789005,-0.2601898050869589,-2.76202201060971,2.264444172531772e-05,-6.441679846590307e-06,-2.209617608487768e-05,2.704244020190165e-05,2.707806428200381e-05
376.2571909720259,171.9736345637557,12.5,0,7.011561501554861,-0.2835883962136168,-2.5030750546932,2.266386752194645e-05,-6.516732069127462e-06,-2.00246004375456e-05,2.682162940776155e-05,2.658183247146415e-05
370.5326032670173,176.3162420978182,12.5,0,7.463172042120691,-0.4182237392895329,-2.349247032481318,2.421672952621784e-05,-7.308853599423057e-06,-1.879397625985054e-05,2.80408983691579e-05,2.878650999997376e-05
376.6765923830059,176.6164019493153,12.5,0,7.414201534157802,-0.4732326604806825,-2.060057333252028,2.410403103768951e-05,-7.445705740864424e-06,-1.648045866601622e-05,2.755697887303741e-05,2.850635782004489e-05
371.2435831787466,182.1683845027136,12.5,0,8.286189978628675,-0.2069181831299418,-2.404951983775514,2.668134247811572e-05,-7.291090168918754e-06,-1.923961587020412e-05,3.178821075867559e-05,3.123071451729044e-05
377.249505364812,182.9585401421213,12.5,0,8.168977927948314,-0.2807515493938801,-2.10236033332061,2.63653306089497e-05,-7.433587300419067e-06,-1.681888266656488e-05,3.099346513894917e-05,3.12700043356544e-05
359.890901957166,175.7963499846423,12.5,0,7.806410686691184,-0.3913103238989395,-2.361604955748798,2.529356245653094e-05,-7.497321585829553e-06,-1.889283964599039e-05,2.941699795594122e-05,2.998665723712104e-05
366.0348910731547,176.0965098361393,12.5,0,7.751992150200697,-0.4722263559632731,-2.080358614009765,2.518415596541285e-05,-7.71271805924303e-06,-1.664286891207812e-05,2.884508376728251e-05,2.918315503332323e-05
360.8410208063633,180.7997947893971,12.5,0,8.504808587899001,-0.2048065952058424,-2.436187429635968,2.737923275744148e-05,-7.459227974977896e-06,-1.948949943708774e-05,3.263438944085059e-05,3.196696432103311e-05
366.8469429924286,181.5899504288047,12.5,0,8.382559633311022,-0.306209213224375,-2.137852349319092,2.706915819717477e-05,-7.685917188966817e-06,-1.710281879455273e-05,3.174229275038734e-05,3.141746438252366e-05
151.0340546211804,560.878789272184,12.5,0,0.2000871791079682,0.3061855107355894,-0.2728257626749595,3.953305645570268e-07,8.197238910675114e-07,-2.182606101399676e-06,1.966552974755946e-06,2.366797716452032e-06
165.8235250502537,560.5920295893307,12.5,0,0.1902078165306529,0.2649475485652033,-0.2642529958833823,3.967069740459266e-07,6.956659021841282e-07,-2.114023967067059e-06,1.783312006970245e-06,1.870106730703579e-06
150.3064961003685,574.2688540602552,12.5,0,0.2196047924965867,0.3092851600825859,-0.2855203167199353,4.553072079230085e-07,8.140286782670053e-07,-2.284162533759482e-06,2.053239490946804e-06,2.017344423395172e-06
165.3526103963446,573.267495905059,12.5,0,0.2109535830847505,0.2688503932071162,-0.2777792754768605,4.599711513055086e-07,6.915583917949716e-07,-2.222234203814884e-06,1.877998008300812e-06,1.562776732903532e-06
152.2942229446836,537.6865167430227,12.5,0,0.1797156710039389,0.4661817786003028,-0.3646638129930018,2.021447243323624e-07,1.348009154717818e-06,-2.917310503944015e-06,2.542850431219648e-06,2.902252403369527e-06
166.6391731568383,538.6374779212556,12.5,0,0.1605646954992624,0.401439478061373,-0.345181147730985,1.926554431485413e-07,1.156154573396983e-06,-2.76144918184788e-06,2.236538426780023e-06,2.370186286667246e-06
151.5666644238717,551.0765815310937,12.5,0,0.2204460637549123,0.4735319571182852,-0.3846697667155053,3.266018383210912e-07,1.338945411774582e-06,-3.077358133724043e-06,2.71721365944841e-06,2.603908095054637e-06
166.1682585029292,551.3129442369841,12.5,0,0.2039048909130262,0.4102258036575767,-0.3666276702359536,3.243150079956224e-07,1.149598658973824e-06,-2.933021361887628e-06,2.425750872034193e-06,2.086451468589006e-06
177.140405543735,539.333629819718,12.5,0,0.09474202193429455,0.3457626973386863,-0.191247609656884,2.656431231879357e-08,1.03064701393636e-06,-1.529980877255072e-06,1.699847402566577e-06,1.977527830185733e-06
191.4853557558896,540.284590997951,12.5,0,0.07146119189217544,0.2619660190557319,-0.175110964819912,1.910299881037593e-08,7.811223074646015e-07,-1.400887718559296e-06,1.309941875968325e-06,1.436831093713338e-06
176.8573672398417,551.4859737467028,12.5,0,0.1237441881562522,0.3515909375549034,-0.2154177830347651,1.147086520560841e-07,1.026095649650689e-06,-1.723342264278121e-06,1.831614248318413e-06,1.717963202301926e-06
191.4589613188991,551.722336452593,12.5,0,0.1026923481328308,0.2696238226609089,-0.2010817372748128,1.129164558963314e-07,7.806423540086439e-07,-1.608653898198503e-06,1.458199091060621e-06,1.228691163235484e-06
176.6501688209125,560.3821069319285,12.5,0,0.1038101261434754,0.2226787243060169,-0.1214330925826981,1.540494242143077e-07,6.295238168644738e-07,-9.714647406615848e-07,1.233401137673923e-06,1.524663625228466e-06
191.4396392499857,560.0953472490751,12.5,0,0.09133639949309968,0.1722465801328162,-0.1190292745489798,1.544792142716661e-07,4.781199368305319e-07,-9.522341963918382e-07,1.0080524141866e-06,1.077586495654413e-06
176.3671305170192,572.5344508589133,12.5,0,0.1092116289699501,0.2231901375437036,-0.1357924147977977,1.709251026688775e-07,6.268391369638915e-07,-1.086339318382382e-06,1.262651088937129e-06,1.256123987443553e-06
191.4132448129952,571.5330927037172,12.5,0,0.09727878915730201,0.1736440188377856,-0.1343051636188913,1.723769102331379e-07,4.778378289550723e-07,-1.074441308951131e-06,1.044562987291901e-06,8.729007970224257e-07
144.1838855572882,300.6821285677092,12.5,0,3.347801641091578,3.031609494732436,-3.900497954901803,8.287677655707099e-06,7.022909070270532e-06,-3.120398363921442e-05,2.514765013478337e-05,2.532781749646193e-05
146.4130085739653,300.7507630287076,12.5,0,3.360639595699744,3.076154931077959,-3.92311294326394,8.293122761376812e-06,7.155184102889673e-06,-3.138490354611152e-05,2.536137318512978e-05,2.544051243099981e-05
142.8860077930123,302.5457384720643,12.5,0,3.303711058801221,3.045342215335926,-3.899518389791526,8.135601615895166e-06,7.102126242033985e-06,-3.119614711833221e-05,2.504374816625084e-05,2.485576012893274e-05
145.1384763428888,302.8018857676682,12.5,0,3.319515893370034,3.086148257528455,-3.920904278368762,8.153532252761343e-06,7.220061709395029e-06,-3.136723422695009e-05,2.52538777640004e-05,2.491949552250343e-05
141.9358953275888,303.9099956074828,12.5,0,3.216548812662868,2.93286122177121,-3.794972877936768,7.946667223104209e-06,6.811916859537578e-06,-3.035978302349415e-05,2.427410592875391e-05,2.451464481404724e-05
144.2054539938964,304.3034118250834,12.5,0,3.229415592787949,2.9666977512449,-3.80726681505064,7.960771695925516e-06,6.909900329753321e-06,-3.045813452040512e-05,2.44422559789722e-05,2.454375648492621e-05
140.6380175633128,305.7736055118378,12.5,0,3.198493848893426,2.946308963219682,-3.790622758079889,7.878133145883216e-06,6.869393603188242e-06,-3.032498206463911e-05,2.425394678919445e-05,2.405475781002978e-05
142.9309217628198,306.354534564044,12.5,0,3.212063618793071,2.977333605520903,-3.802601545423047,7.896736695721103e-06,6.957816642632432e-06,-3.042081236338438e-05,2.441481587689212e-05,2.403823525233094e-05
138.0049044068564,303.2285787300892,12.5,0,3.375857199703306,2.762944154743314,-3.799912382291472,8.592387715255926e-06,6.140735535415959e-06,-3.039929905833177e-05,2.425257281939679e-05,2.443603795029308e-05
140.274463073164,303.6219949476898,12.5,0,3.388298258953471,2.789466433595631,-3.814943656936328,8.610981281774601e-06,6.215653980343241e-06,-3.051954925549063e-05,2.439710935134481e-05,2.448578171968333e-05
136.6665909929499,304.7674068778418,12.5,0,3.354677649707321,2.771870108358858,-3.80151598166683,8.517472392376342e-06,6.186242226982489e-06,-3.041212785333464e-05,2.421189531668765e-05,2.405270304284526e-05
138.9594951924569,305.3483359300481,12.5,0,3.368230438045955,2.795994107318973,-3.815492708503889,8.541542115891876e-06,6.252596792983948e-06,-3.052394166803111e-05,2.435124876872407e-05,2.405863444281423e-05
140.3229312361517,300.5632501941121,12.5,0,3.478649439195542,2.818395323812197,-3.897054718125172,8.876961946375976e-06,6.235945484842596e-06,-3.117643774500138e-05,2.487821895006178e-05,2.510481346030835e-05
142.5520542528288,300.6318846551105,12.5,0,3.494384100768384,2.875193199766219,-3.917649901642441,8.881874562645853e-06,6.405110958637193e-06,-3.134119921313953e-05,2.513962168644674e-05,2.523786722836799e-05
138.9846178222453,302.102078341865,12.5,0,3.449437782009041,2.843910006409912,-3.894342014936399,8.763072897300999e-06,6.340961794904486e-06,-3.115473611949119e-05,2.486108875526378e-05,2.471795008699191e-05
141.2370863721218,302.3582256374689,12.5,0,3.466982814467725,2.894337313651325,-3.913806234385183,8.778875155375661e-06,6.488293152110059e-06,-3.131044987508147e-05,2.510654936812311e-05,2.480175619225093e-05
193.6692923790367,60.5870842553798,12.5,0,-11.36582356008289,0.9655221304531061,0.5208039847440026,-3.714305309662774e-05,1.218232966551625e-05,4.166431877952021e-06,3.390517483131815e-06,3.601375703203061e-06
196.7702165689663,61.56890997872328,12.5,0,-11.40930273786843,1.261809745655366,0.6304084552254317,-3.751921655770327e-05,1.316523337639192e-05,5.043267641803453e-06,3.621692573580653e-06,3.594204002897691e-06
192.3133028439058,63.87718978540941,12.5,0,-10.89901482290492,1.219725666513789,0.7207343031699522,-3.585262796650677e-05,1.262233399116806e-05,5.765874425359618e-06,3.482762205827122e-06,3.538046034662948e-06
195.1905153008129,64.45057200601005,12.5,0,-10.89545414230022,1.586504534971816,0.8684694448728326,-3.613465688333815e-05,1.379317782574998e-05,6.947755558982661e-06,3.781194699737696e-06,3.547060371699093e-06
196.0179351483729,54.8884543152076,12.5,0,-12.26369298830782,0.8081976793735497,0.436611504680477,-3.989037570608386e-05,1.239718696464161e-05,3.492892037443816e-06,3.490992244948355e-06,3.762301098496434e-06
199.50633942614,56.57772493731039,12.5,0,-12.36554379503814,1.097483838643554,0.5195131097518983,-4.044772721503687e-05,1.340438331968988e-05,4.156104878015186e-06,3.717956018919969e-06,3.735460458312407e-06
194.661945613242,58.1785598452372,12.5,0,-11.8615443065041,1.033464324943875,0.6146791736563794,-3.878371324076823e-05,1.279632128502368e-05,4.917433389251035e-06,3.562316797931167e-06,3.661464666453963e-06
197.9266381579865,59.45938696459713,12.5,0,-11.93805743170034,1.376024403288146,0.7232435965312924,-3.930260330407159e-05,1.395372403588234e-05,5.785948772250339e-06,3.83706883889229e-06,3.644685653958111e-06
202.0600285946975,57.81435686037054,12.5,0,-11.81163091645223,0.7496693118748246,0.2266695990506257,-3.839695438214699e-05,1.184824653116122e-05,1.813356792405006e-06,3.334258611907543e-06,3.733616397954107e-06
205.5484328724646,59.50362748247335,12.5,0,-11.81698691643152,1.262807063849297,0.2374037265472678,-3.88246037836603e-05,1.349457213746297e-05,1.899229812378142e-06,3.691715734248283e-06,3.755418971546819e-06
200.3165589717292,60.39701749164083,12.5,0,-11.51859643406711,1.08591649078856,0.4389273917013408,-3.77282417816456e-05,1.268980991777708e-05,3.511419133610727e-06,3.504946848572992e-06,3.647386862854987e-06
203.5812515164737,61.67784461100078,12.5,0,-11.49277357583576,1.704474277667654,0.4742056484618242,-3.814045486480856e-05,1.46485365492051e-05,3.793645187694593e-06,3.965739981376975e-06,3.671545715299276e-06
199.0402506263177,62.28765629235822,12.5,0,-11.10625052313526,0.8900908470066704,0.3385377260820954,-3.625207435163815e-05,1.173329112892955e-05,2.708301808656763e-06,3.265137075700742e-06,3.600668071576379e-06
202.1411748162474,63.2694820157017,12.5,0,-11.08657329886742,1.351462411590318,0.4015855924889133,-3.655820448564799e-05,1.319393835618295e-05,3.212684739911306e-06,3.595490093339808e-06,3.62549993593629e-06
197.2967810033494,64.87031692362852,12.5,0,-10.75968382274022,1.240765568154307,0.5648955956141528,-3.542360068729215e-05,1.257819687628596e-05,4.519164764913222e-06,3.450175740160535e-06,3.559259495228708e-06
200.1739934602566,65.44369914422913,12.5,0,-10.68743027927169,1.832457521210756,0.6710522911956731,-3.5665742910638e-05,1.441380829129177e-05,5.368418329565385e-06,3.910894405079491e-06,3.583573783484696e-06
272.1062760011259,51.83230737136505,12.5,0,-11.76803853071087,0.6717312637138924,-2.148263216469,-3.819510830924589e-05,1.156397086845315e-05,-1.7186105731752e-05,3.597580289560998e-06,3.647771100429637e-06
276.1199092256317,53.55310557011882,12.5,0,-11.94938343785036,0.7419092491398596,-1.982515493020051,-3.883155440043303e-05,1.193361634752783e-05,-1.586012394416041e-05,3.63527536166643e-06,3.57961853135472e-06
270.7377454705445,57.58707370328098,12.5,0,-11.04247480528548,0.892814602871002,-2.017739025157684,-3.605017105921034e-05,1.169098657341559e-05,-1.614191220126147e-05,3.55613413515437e-06,3.578232656100222e-06
274.3465666135187,58.22725731519158,12.5,0,-11.11546060275155,1.022544727141929,-1.790534856925671,-3.638750971051851e-05,1.216451160905541e-05,-1.432427885540537e-05,3.597389253296875e-06,3.530491760198448e-06
274.4766404117596,41.86475969897899,12.5,0,-13.19120087232515,0.4493302066688791,-1.919485112550465,-4.257130695677557e-05,1.199081735920053e-05,-1.535588090040372e-05,3.703005142723922e-06,3.892216990073881e-06
279.1914287289828,45.45723726551152,12.5,0,-13.43095953392132,0.5157207407127311,-1.823411115623111,-4.33916471011184e-05,1.239507399741779e-05,-1.458728892498489e-05,3.776618492827567e-06,3.746388643641983e-06
273.1081098811782,47.61952603089492,12.5,0,-12.74072815503883,0.5988353823332067,-1.818145071500767,-4.12493984019908e-05,1.210885574749732e-05,-1.454516057200613e-05,3.673169760309776e-06,3.731902949151285e-06
277.41808611687,50.13138901058429,12.5,0,-12.95093881488977,0.6976298342594505,-1.692199749415817,-4.200110807505483e-05,1.259316652154206e-05,-1.353759799532653e-05,3.756101494089638e-06,3.637467926920011e-06
282.6428933239756,48.08711336915291,12.5,0,-12.00560225119765,0.2342792737801886,-2.227438239544633,-3.860535062285664e-05,1.035417547705472e-05,-1.781950591635707e-05,3.391875036919942e-06,3.668816728179308e-06
287.3576816411988,51.67959093568541,12.5,0,-12.03290665481843,0.6308988051860069,-2.284015566893864,-3.901002033956778e-05,1.164520150044997e-05,-1.827212453515091e-05,3.668389200980715e-06,3.602714660317733e-06
280.5732077006767,51.97020033329007,12.5,0,-11.81109576063937,0.461364756497769,-2.064145275733743,-3.81645982392442e-05,1.092524382930436e-05,-1.651316220586995e-05,3.444347892393871e-06,3.585480514614023e-06
284.8831839363684,54.48206331297941,12.5,0,-11.80537705510917,0.9857424629044127,-2.100005053649309,-3.856580054667285e-05,1.259867752538145e-05,-1.680004042919447e-05,3.806425862172407e-06,3.537883285065267e-06
279.0580926687913,54.81281728112601,12.5,0,-11.11048668595027,0.3995081206208768,-2.321353408117719,-3.587316389153756e-05,1.016681533474702e-05,-1.857082726494175e-05,3.337600962610488e-06,3.5416655223651e-06
283.071725893297,56.53361547987974,12.5,0,-11.15029252512,0.7094368883734563,-2.266785139710199,-3.624848559108276e-05,1.119043206289106e-05,-1.81342811176816e-05,3.532188527728039e-06,3.506128542575852e-06
276.9884070454924,58.69590424526317,12.5,0,-10.78061666928963,0.6487315135210832,-2.139163604078704,-3.501695855254367e-05,1.070043417869917e-05,-1.711330883262963e-05,3.372346067472975e-06,3.505296950968006e-06
280.5972281884666,59.33608785717375,12.5,0,-10.73071956119339,1.13712782567994,-2.010128120896965,-3.52480048563628e-05,1.222338469113052e-05,-1.608102496717572e-05,3.665835115940627e-06,3.48420434796228e-06
152.0031529787527,300.8187537021296,12.5,0,3.062431178371483,3.403546065098851,-3.881106202027169,7.076942918709663e-06,8.441402465619136e-06,-3.104884961621735e-05,2.542095593619326e-05,2.569720697218492e-05
154.2786798289353,300.8391860948576,12.5,0,3.087075607043172,3.49869769216972,-3.919581683287804,7.079683788802373e-06,8.726172129308566e-06,-3.135665346630243e-05,2.586210019498467e-05,2.579433815645092e-05
151.0521356450628,303.0556304153279,12.5,0,2.976669883989731,3.417505722080205,-3.862978857782934,6.791339051102972e-06,8.554682403464871e-06,-3.090383086226347e-05,2.516462160026681e-05,2.512107589236899e-05
153.4777856592534,303.1318851431113,12.5,0,3.001500478317336,3.505767996577849,-3.89919267273436,6.800187133353195e-06,8.817257206395248e-06,-3.119354138187487e-05,2.55811087478729e-05,2.519346072464518e-05
150.3559426379528,304.6931378195871,12.5,0,2.882419181881873,3.313238499275443,-3.735479590871649,6.573150582601638e-06,8.296427852175919e-06,-2.988383672697319e-05,2.437631287862961e-05,2.470554588813046e-05
152.8914904355854,304.8102573328264,12.5,0,2.907837031351997,3.399876418617227,-3.769509270559548,6.585177365432609e-06,8.553334914493529e-06,-3.015607416447639e-05,2.478725968573777e-05,2.476257190642906e-05
149.4049253042629,306.9300145327854,12.5,0,2.816824217705931,3.325659383043808,-3.720048336800367,6.353309990223932e-06,8.388650651575439e-06,-2.976038669440294e-05,2.418521416492176e-05,2.414642788424914e-05
152.0905962659035,307.10295638108,12.5,0,2.841963496610905,3.406701203580245,-3.752279851036571,6.368922226290699e-06,8.627873054168057e-06,-3.001823880829257e-05,2.457468179461522e-05,2.4186239194405e-05
145.9642450275125,304.4902808721025,12.5,0,3.061418757353196,3.1131849044918,-3.765640792615024,7.305992099936788e-06,7.513056688491203e-06,-3.012512634092019e-05,2.432827223155264e-05,2.458193944642455e-05
148.4997928251452,304.6074003853419,12.5,0,3.079463989296738,3.173118618624236,-3.793179079293709,7.315789870850171e-06,7.690408388160165e-06,-3.034543263434967e-05,2.461672234549863e-05,2.465714556634691e-05
144.7532067463726,306.6304704647895,12.5,0,3.011137888099316,3.12590851138182,-3.759861394222657,7.134914432812352e-06,7.593996925942372e-06,-3.007889115378125e-05,2.419692282261342e-05,2.405324997858379e-05
147.4388777080132,306.8034123130842,12.5,0,3.029054035803116,3.1817501151543,-3.785756414514628,7.147572822446531e-06,7.758357139851264e-06,-3.028605131611702e-05,2.446968712233165e-05,2.411079353126891e-05
148.0618248603201,300.7833637598052,12.5,0,3.210037159604581,3.21738015769379,-3.889908460803897,7.698214784579628e-06,7.727586776936463e-06,-3.111926768643118e-05,2.529594932178414e-05,2.55197774725102e-05
150.3373517105026,300.8037961525332,12.5,0,3.225696935473926,3.277299491133561,-3.920399306981242,7.700390600609715e-06,7.906800823248252e-06,-3.136319445584993e-05,2.557909410674969e-05,2.562363865865196e-05
146.8507865791802,302.9235533524921,12.5,0,3.14542745850609,3.229538815786631,-3.885207431649583,7.481736814590181e-06,7.818182243712348e-06,-3.108165945319666e-05,2.511534634800353e-05,2.497489430408794e-05
149.2764365933706,302.9998080802756,12.5,0,3.161442077686138,3.284870303659132,-3.913613269388642,7.488718405668335e-06,7.982431309560311e-06,-3.130890615510914e-05,2.538237569972551e-05,2.506251119648994e-05
283.2579260473461,65.84264292891609,12.5,0,-9.425849085681364,0.8141155780321498,-2.562077242513596,-3.081400953660608e-05,1.014584911824797e-05,-2.049661794010877e-05,3.392354469557464e-06,3.401569251053988e-06
286.4834598483071,65.16190592332771,12.5,0,-9.352970565622833,0.5960668675844145,-2.340576706052929,-3.040635930406059e-05,9.389790428768392e-06,-1.872461364842344e-05,3.128587528174554e-06,3.363447613816752e-06
283.8965003925832,68.83215854941891,12.5,0,-8.669416771372328,1.061301882382834,-2.730186573960053,-2.859117517429771e-05,1.033169944072293e-05,-2.184149259168043e-05,3.541506643573949e-06,3.397097336883386e-06
287.4093758007216,68.97417668110114,12.5,0,-8.760914248387319,0.795623579573697,-2.478135377835175,-2.867142445849838e-05,9.554726853345684e-06,-1.98250830226814e-05,3.22626557929508e-06,3.367940112696572e-06
282.1518828370052,60.66464998427745,12.5,0,-10.62483471756216,0.7348945415996138,-2.27214137153974,-3.458738672947861e-05,1.085153030716849e-05,-1.817713097231792e-05,3.445095705309649e-06,3.460998490984272e-06
284.8797263752155,58.55885927877364,12.5,0,-10.30416606920272,0.5820051549086496,-2.158142550426679,-3.343893554537563e-05,1.010574935106986e-05,-1.726514040341343e-05,3.236110521469832e-06,3.465370376089638e-06
282.7904571822424,63.65416560478027,12.5,0,-9.924046748668978,0.9786072124429279,-2.455115914904441,-3.253983536569507e-05,1.107078047875255e-05,-1.964092731923553e-05,3.55576000809683e-06,3.418691513690204e-06
285.8056423276299,62.37113003654709,12.5,0,-9.769259954280201,0.774984516010842,-2.303006837300089,-3.188161946650532e-05,1.029535841465886e-05,-1.842405469840071e-05,3.317412505608365e-06,3.389553974210463e-06
286.8766464401988,57.01731349230408,12.5,0,-11.18298119527666,0.4777301168446977,-2.33035215918098,-3.616772391836106e-05,1.047512133012436e-05,-1.864281727344784e-05,3.406198480130759e-06,3.483857310552749e-06
289.604489978409,54.91152278680028,12.5,0,-10.82840767781957,0.429670069425093,-2.182612412878493,-3.49946406245627e-05,1.003767036441595e-05,-1.746089930302795e-05,3.251963887662178e-06,3.529992669678946e-06
288.0129110481867,61.43188281272232,12.5,0,-10.20581831159076,0.7886638351234021,-2.526521176519811,-3.328954966518916e-05,1.06883789216675e-05,-2.021216941215848e-05,3.499341730268511e-06,3.383852832798606e-06
291.0280961935743,60.14884724448915,12.5,0,-10.01599917528636,0.6912254504739019,-2.349851970490807,-3.260417772129546e-05,1.022472078174557e-05,-1.879881576392645e-05,3.324159224196959e-06,3.397414564279359e-06
288.8447144720409,64.6635718486659,12.5,0,-9.459088920648425,0.6754819451946252,-2.604888350042498,-3.080947010223066e-05,9.72881336114154e-06,-2.083910680033998e-05,3.317946846997765e-06,3.34949705064818e-06
292.0702482730018,63.98283484307751,12.5,0,-9.389734394568896,0.4560230377772765,-2.389443385989782,-3.041196849284228e-05,8.9710612365424e-06,-1.911554708791826e-05,3.060484121855717e-06,3.349505040513061e-06
289.9809790800288,69.07814116908415,12.5,0,-8.433071147819337,1.029078381525637,-2.852308853809463,-2.780909037824238e-05,1.003950773913751e-05,-2.281847083047571e-05,3.549595754553284e-06,3.355639786029601e-06
293.4938544881672,69.22015930076638,12.5,0,-8.525659922130854,0.758270984419898,-2.602068676097022,-2.788872853835465e-05,9.246995087848356e-06,-2.081654940877618e-05,3.220622407839376e-06,3.351191892811129e-06
67.68600071974714,196.2167839951248,12.5,0,5.132476332367964,-1.382519724258856,-0.8665964592359654,1.752994004298457e-05,-8.53004418352271e-06,-6.932771673887724e-06,1.596090736714259e-05,1.562416829274931e-05
75.02680003652782,196.8523305410976,12.5,0,5.172007826571646,-1.22293942053181,-0.8701008168983351,1.752877658145471e-05,-8.051012406959108e-06,-6.960806535186681e-06,1.652591945427031e-05,1.666818170181821e-05
64.47046598011036,202.1201205640355,12.5,0,5.157140980142175,-1.299660633314905,-0.809416251849752,1.754257964310688e-05,-8.284626810721437e-06,-6.475330014798015e-06,1.625076168378378e-05,1.647328762985077e-05
71.22228018338529,203.6647673493281,12.5,0,5.19374334051459,-1.149634700974539,-0.8207269521774763,1.753968645042632e-05,-7.833825715530197e-06,-6.56581561741981e-06,1.678743041348876e-05,1.744376209071214e-05
62.11653117729355,206.4416628664736,12.5,0,5.400664232929105,-1.099040032820802,-1.130908999449993,1.816135757162977e-05,-7.837459491369849e-06,-9.047271995599946e-06,1.780631793717159e-05,1.695939249100731e-05
68.43717835259891,208.6518172160931,12.5,0,5.468162350148342,-1.000212100920241,-1.191321732976475,1.829828920121088e-05,-7.575208603063443e-06,-9.530573863811802e-06,1.835117700357881e-05,1.79493752273319e-05
58.90099643765679,212.3449994353842,12.5,0,5.270667024943886,-1.082621819351254,-1.124204296631282,1.773223193530144e-05,-7.680923441879119e-06,-8.993634373050252e-06,1.735849532516124e-05,1.743833633244821e-05
64.63265849945641,215.4642540243235,12.5,0,5.356894363677668,-0.9849917681819671,-1.186202184656368,1.793005537831411e-05,-7.437489149124429e-06,-9.489617477250941e-06,1.79712085411329e-05,1.855515561671615e-05
51.16884913314466,202.6135632404321,12.5,0,4.839320898659577,-1.091343392109034,-0.8189188349893589,1.635890158939787e-05,-7.363755573676569e-06,-6.551350679914871e-06,1.560437507832367e-05,1.49407714032358e-05
57.48949630845004,204.8237175900516,12.5,0,4.925712514580639,-0.8922475144231521,-0.8856332496639907,1.647607805819657e-05,-6.795762057818597e-06,-7.085065997311925e-06,1.648844853549832e-05,1.615323952602066e-05
48.9734665349832,206.9422920056962,12.5,0,4.76484130550851,-1.033508932286984,-0.7766620799296626,1.607429932345682e-05,-7.119101627725157e-06,-6.213296639437301e-06,1.546457574433382e-05,1.523771691395862e-05
54.70512859678286,210.0615465946354,12.5,0,4.866030364309447,-0.8420955249542199,-0.8520251785683643,1.62449735857536e-05,-6.587529971301061e-06,-6.816201428546915e-06,1.638932652099894e-05,1.654943131113224e-05
54.97136333514455,195.1159850869446,12.5,0,4.641737310236757,-1.101419240175691,-0.6427361103758588,1.573469478489818e-05,-7.237931416751617e-06,-5.14188888300687e-06,1.47824998980098e-05,1.433242931577273e-05
62.31216265192525,195.7515316329175,12.5,0,4.643316569212065,-1.072531371724864,-0.6176526987285395,1.57166381188585e-05,-7.146753644889215e-06,-4.941221589828316e-06,1.48585666319842e-05,1.499830532720884e-05
52.77598073698309,199.4447138522086,12.5,0,4.695087917406743,-1.077574401631204,-0.6248354143806497,1.588634085700654e-05,-7.204308419145245e-06,-4.998683315045197e-06,1.504263926407281e-05,1.469820032239153e-05
59.52779494025805,200.9893606375014,12.5,0,4.687209825106946,-1.052520036661993,-0.6025824543482343,1.584108746967182e-05,-7.117831977403933e-06,-4.820659634785875e-06,1.507408743506919e-05,1.573761657128239e-05
60.51911189756895,323.3501650736083,12.5,0,3.806589433326635,1.082769350715955,-2.671657410875024,1.131487070607247e-05,4.195903756297483e-07,-2.137325928700019e-05,1.928039270625923e-05,1.820492957492334e-05
70.49265504240053,319.2005014686927,12.5,0,3.683923984003734,1.094018747906851,-2.785313761878927,1.091334175048647e-05,5.537208060989374e-07,-2.228251009503141e-05,1.897805361400178e-05,1.90761901506617e-05
64.94312696605232,332.422310161265,12.5,0,3.532080672033323,0.9969903150080881,-2.60822589795758,1.050506589850016e-05,3.647044703992231e-07,-2.086580718366064e-05,1.797799048326756e-05,1.763098008006628e-05
75.11662409718699,327.7325151886781,12.5,0,3.402636625822965,1.004200414720856,-2.714813710292576,1.00850768708568e-05,4.913320264483673e-07,-2.171850968234061e-05,1.763925706966857e-05,1.845244925752063e-05
77.79379535558712,316.1627368757043,12.5,0,3.926504752933273,1.238479985744273,-2.965180056900221,1.157403122079105e-05,8.219321520350556e-07,-2.372144045520177e-05,2.045181822321246e-05,1.964328317864576e-05
87.7673385004187,312.0130732707888,12.5,0,3.803912859468007,1.291256768400323,-3.081838414331838,1.113951573557736e-05,1.088891371306628e-06,-2.465470731465471e-05,2.029018687660728e-05,2.032134956804379e-05
82.56414088751714,324.2993469918093,12.5,0,3.656415234561861,1.13438009810216,-2.882988240833694,1.079302467211623e-05,7.048841262774237e-07,-2.306390592666955e-05,1.909553654259535e-05,1.902447201781536e-05
92.73763801865179,319.6095520192224,12.5,0,3.526709968227786,1.180235257910127,-2.991048022019062,1.034128369200081e-05,9.553848507301755e-07,-2.39283841761525e-05,1.888444744517575e-05,1.976579808463842e-05
86.05627618640062,330.2557589979239,12.5,0,3.348764127672203,1.56194464985375,-2.901631311761532,9.466489488668047e-06,2.319211577394238e-06,-2.321305049409226e-05,1.938773786419781e-05,1.850727801120159e-05
96.37614979467882,325.1705604214565,12.5,0,3.192760165382316,1.663585697979001,-3.021174730876153,8.885963970840209e-06,2.76926610122695e-06,-2.416939784700922e-05,1.928394551018787e-05,1.927398180880176e-05
90.82662171833061,338.3923691140288,12.5,0,3.047280537367808,1.426628038648569,-2.797964037608188,8.609995288658129e-06,2.127385293781175e-06,-2.238371230086551e-05,1.780687121807522e-05,1.7713088868533e-05
101.3464493129119,332.7670391698899,12.5,0,2.884619005280246,1.518591705876955,-2.908469541652806,8.015907452195222e-06,2.55179825458206e-06,-2.326775633322245e-05,1.764737377810459e-05,1.848586623857495e-05
68.18173076949478,339.0635812987839,12.5,0,3.230583960706236,1.300636214147241,-2.639329841534458,9.297359702942161e-06,1.577568716706184e-06,-2.111463873227566e-05,1.78979149994506e-05,1.714539592228555e-05
78.50160437777299,333.9783827223166,12.5,0,3.103472419875092,1.387389963260731,-2.736756422954667,8.821199772991707e-06,1.956869946534267e-06,-2.189405138363734e-05,1.781910941307231e-05,1.793692514190704e-05
72.60574583797818,348.1357263864408,12.5,0,2.955476319955816,1.184745842587437,-2.552673465783739,8.509727549788662e-06,1.426805640315144e-06,-2.042138772626991e-05,1.648489647937754e-05,1.639270482667873e-05
83.12557343255946,342.510396442302,12.5,0,2.822150365662231,1.263787356590018,-2.643151103100194,8.019851284847124e-06,1.786399248558272e-06,-2.114520882480155e-05,1.635870795942022e-05,1.715222795860488e-05
129.8218539592089,309.9851332622229,12.5,0,3.244110583232285,2.503557551538099,-3.595391539456505,8.378307825112832e-06,5.416095698336087e-06,-2.876313231565204e-05,2.275088464228055e-05,2.273094177301427e-05
133.1816209057653,311.1813900196854,12.5,0,3.204758465790116,2.45601649271702,-3.559164825653839,8.290413896354754e-06,5.295446004062369e-06,-2.847331860523071e-05,2.242545909671041e-05,2.269287415334491e-05
126.7929457185073,312.2035827947926,12.5,0,3.283675127269956,2.48374160650391,-3.579781894428808,8.520767122060732e-06,5.321033038996545e-06,-2.863825515543047e-05,2.280505670341233e-05,2.210105214085681e-05
130.6571355659719,313.6604083730214,12.5,0,3.249175635630514,2.443450381561996,-3.549090078348666,8.442601728768048e-06,5.219700712493975e-06,-2.839272062678933e-05,2.252533308711439e-05,2.206843093629838e-05
135.0680769234738,306.1426659578537,12.5,0,3.297856844466771,2.691754333932451,-3.72133954527616,8.399738435147704e-06,5.975328393010426e-06,-2.977071636220928e-05,2.367671547682643e-05,2.371144489701275e-05
137.5541577771716,306.8876042788888,12.5,0,3.268439165441025,2.640847275750405,-3.693838417419262,8.346327508810956e-06,5.835959950048474e-06,-2.955070733935409e-05,2.338198060375263e-05,2.369500938676485e-05
132.0391686827723,308.3611154904235,12.5,0,3.330156321978016,2.655736405687026,-3.711700061936649,8.531911105780031e-06,5.834231440616069e-06,-2.969360049549319e-05,2.365781577497019e-05,2.316244521150975e-05
135.0296724373782,309.3666226322248,12.5,0,3.305496585735688,2.615575304451592,-3.689735762965553,8.485128830792928e-06,5.725443705656544e-06,-2.951788610372442e-05,2.342017536936652e-05,2.31287145355597e-05
139.3740952737251,307.4329369783684,12.5,0,3.07956889669296,2.826464665342577,-3.666253695145809,7.593448737143411e-06,6.581031811741877e-06,-2.933002956116647e-05,2.333368720033095e-05,2.367112218158294e-05
141.8601761274229,308.1778752994036,12.5,0,3.090168384332759,2.854428548062238,-3.67410484606425,7.604995991415038e-06,6.662036646332953e-06,-2.9392838768514e-05,2.347028693930531e-05,2.362229663362029e-05
137.2188731258822,310.1027049473655,12.5,0,3.072906545685871,2.843206859135344,-3.660635556574107,7.558735458886511e-06,6.639936712684403e-06,-2.928508445259286e-05,2.336172184055218e-05,2.308289715704548e-05
140.2093768804882,311.108212089167,12.5,0,3.0817393396386,2.865614108372285,-3.667195931588137,7.56907460014569e-06,6.70457367508043e-06,-2.93375674527051e-05,2.347262627647222e-05,2.299145242701974e-05
135.6411410121305,312.0571107450083,12.5,0,2.935957984118409,2.706698791574929,-3.521936613266012,7.229706515918965e-06,6.312669745745045e-06,-2.81754929061281e-05,2.231141630158376e-05,2.264218234044107e-05
139.0009079586869,313.2533675024708,12.5,0,2.940430948424109,2.733515694713754,-3.523089993909517,7.222566479186143e-06,6.394905464344724e-06,-2.818471995127614e-05,2.241706937130875e-05,2.254175735172346e-05
133.4859188642875,314.7268787140055,12.5,0,2.944485238713132,2.723311224415182,-3.513349056731963,7.243703784349875e-06,6.359007727158077e-06,-2.81067924538557e-05,2.238728731968977e-05,2.202635209431568e-05
137.3501087117521,316.1837042922342,12.5,0,2.948167476888325,2.746071315699708,-3.514512279450943,7.237278873482872e-06,6.428894228728405e-06,-2.811609823560754e-05,2.247682875538224e-05,2.194401176464884e-05
187.0848594906727,60.27231390599574,12.5,0,-11.59948992131901,0.9833270563779459,0.6473799751646367,-3.790502939332317e-05,1.242623851746463e-05,5.179039801317094e-06,3.468889367737948e-06,3.54180579154738e-06
191.0741087715816,60.2396623847939,12.5,0,-11.53853292823767,1.209339632547361,0.8657323498877298,-3.789077707639843e-05,1.310071316674169e-05,6.925858799101839e-06,3.639750751935008e-06,3.587335644787346e-06
186.8904428199641,63.78750328935332,12.5,0,-10.96884817101274,1.153585778800885,0.751504347075896,-3.602318277028148e-05,1.246655302897302e-05,6.012034776607168e-06,3.454040118284669e-06,3.48246109084284e-06
190.0893051256118,63.69952105826043,12.5,0,-10.87824973674637,1.440827059143357,1.027654976220994,-3.596306080490307e-05,1.331324637865584e-05,8.221239809767951e-06,3.687857684498717e-06,3.520736709526423e-06
180.175277052205,60.32886799966073,12.5,0,-11.45815522102605,1.036576206537742,1.033342550871768,-3.749535767251353e-05,1.248356803774161e-05,8.26674040697414e-06,3.52151158678714e-06,3.471463767915079e-06
184.1645263331139,60.29621647845888,12.5,0,-11.4814886408605,0.9265891956926846,1.236466168288981,-3.748203500730774e-05,1.215027633890499e-05,9.891729346311851e-06,3.484360524438895e-06,3.510758015714943e-06
181.3498507802649,63.93989298376675,12.5,0,-10.84991645768375,1.225992637820481,0.9144272485983016,-3.570052677484439e-05,1.260310960717254e-05,7.315417988786412e-06,3.501485330387274e-06,3.424336533396443e-06
184.5487130859126,63.85191075267385,12.5,0,-10.8658101099538,1.093208527260209,1.164642360670573,-3.564515917366031e-05,1.21909153751957e-05,9.317138885364586e-06,3.449436962701713e-06,3.456630741499398e-06
178.1408556780063,54.07438925990091,12.5,0,-12.52790905237215,0.8118685906696728,0.9390849294659638,-4.073880384012661e-05,1.262030673204067e-05,7.51267943572771e-06,3.603219601046541e-06,3.604937516124046e-06
183.4990953576837,54.1375733394475,12.5,0,-12.56658528084552,0.6928405160460951,1.2421533206984,-4.076734531154253e-05,1.227035787602392e-05,9.937226565587197e-06,3.57815935114728e-06,3.642898083259394e-06
179.3154294060661,57.68541424400692,12.5,0,-11.89294746842533,0.9982787830457407,0.8285072805608256,-3.885605492539765e-05,1.270885008048664e-05,6.628058244486604e-06,3.567453083569667e-06,3.519855655387701e-06
183.8832821104824,57.69326761366246,12.5,0,-11.92862669450534,0.8616370116529302,1.181950600136477,-3.886091503173944e-05,1.230013979289365e-05,9.455604801091814e-06,3.532798110824252e-06,3.560668199514273e-06
187.4215990421724,54.18382729590312,12.5,0,-12.6711934968017,0.7873363515938365,0.5152631663528532,-4.117768827104049e-05,1.265643112254163e-05,4.122105330822825e-06,3.579533946376013e-06,3.681165311952731e-06
192.7798387218498,54.24701137544973,12.5,0,-12.60867296879268,1.074107245476706,0.8251184652474279,-4.120703929651794e-05,1.35240815605596e-05,6.600947721979424e-06,3.786926267828491e-06,3.747752757876882e-06
187.2271823714638,57.69901667926069,12.5,0,-12.03766682354914,0.957113688092647,0.6107563638145936,-3.928622478583136e-05,1.269289726073578e-05,4.886050910516749e-06,3.5506556385846e-06,3.595048427124773e-06
191.79503507588,57.70687004891623,12.5,0,-11.95424022832812,1.297116382861507,0.9767571908674731,-3.929126183693918e-05,1.371416460781932e-05,7.814057526939785e-06,3.813951557873524e-06,3.648164411609864e-06
278.110597809636,66.25835242607026,12.5,0,-9.415877719557422,1.013652985623462,-2.422161988716994,-3.094173109108252e-05,1.077639172964101e-05,-1.937729590973595e-05,3.477026189715175e-06,3.452135939802183e-06
281.0144244258169,66.13643488386074,12.5,0,-9.457831855144075,0.7644909479071011,-2.23242194379379,-3.087665469478671e-05,1.001263651741798e-05,-1.785937555035032e-05,3.222887254186616e-06,3.425333216379114e-06
279.0065367988662,69.18538609329084,12.5,0,-8.869997365284148,1.224505631580759,-2.579746785290457,-2.936359607417388e-05,1.101441591328575e-05,-2.063797428232365e-05,3.625904001785325e-06,3.444305611740906e-06
281.6449664679774,68.88875194084723,12.5,0,-8.875893558330612,0.9698722756643749,-2.38562419062067,-2.917875720718946e-05,1.020430612879049e-05,-1.908499352496536e-05,3.333938591712876e-06,3.417559410681278e-06
273.0810225741301,66.46951980350727,12.5,0,-9.468984624753674,1.099804245917519,-2.27975335347644,-3.118059419594577e-05,1.1094561286739e-05,-1.823802682781152e-05,3.492203501512963e-06,3.495938301870364e-06
275.9848491903111,66.34760226129775,12.5,0,-9.523453575836239,0.8050830909814368,-2.101444311996197,-3.111911791546111e-05,1.019502875180959e-05,-1.681155449596958e-05,3.214427798525205e-06,3.471054515440505e-06
274.4366425598506,69.69917151657408,12.5,0,-8.885926399413345,1.377984267551502,-2.492158076239208,-2.95373518921639e-05,1.151829077569548e-05,-1.993726460991366e-05,3.712623482757946e-06,3.496075853508678e-06
277.0750722289618,69.40253736413047,12.5,0,-8.906890542369201,1.079365274951276,-2.314329989326451,-2.936554195554246e-05,1.057948131373944e-05,-1.851463991461161e-05,3.391911240162779e-06,3.465344029188417e-06
270.7330198831489,60.87559894582418,12.5,0,-10.49428300728172,0.9718638893206899,-2.169038195848122,-3.435919673475807e-05,1.150539085165159e-05,-1.735230556678498e-05,3.55030362406465e-06,3.540757153337581e-06
274.0965274958198,61.05629944946091,12.5,0,-10.61293293936771,0.6256990135177021,-1.923171738142155,-3.446194461679083e-05,1.049258319475081e-05,-1.538537390513724e-05,3.253455368012243e-06,3.504191222823766e-06
272.0886398688692,64.10525065889101,12.5,0,-9.842921985152863,1.263294728674725,-2.388709558631176,-3.250798613542894e-05,1.191688071988141e-05,-1.910967646904941e-05,3.731348654615028e-06,3.507910620075919e-06
275.1867505344706,64.11123455229362,12.5,0,-9.93218471296742,0.9110570531810418,-2.139253417123292,-3.251183672404057e-05,1.086113034055327e-05,-1.711402733698634e-05,3.384591105929426e-06,3.481463589602988e-06
276.558785959835,61.18858139907066,12.5,0,-10.34088982888304,0.982821274550743,-2.337460080895651,-3.387710447206633e-05,1.141773994166881e-05,-1.869968064716521e-05,3.589862904075223e-06,3.484169683179502e-06
279.922293572506,61.36928190270736,12.5,0,-10.42066533961478,0.7942381065350377,-2.090891992154851,-3.398151957199533e-05,1.087809421260395e-05,-1.672713593723881e-05,3.382258791498047e-06,3.466035750137109e-06
277.4547249490653,64.11561506629124,12.5,0,-9.760010423653556,1.173361078772678,-2.461972770501617,-3.217072221870952e-05,1.156276379099541e-05,-1.969578216401294e-05,3.67727244096709e-06,3.462817485550838e-06
280.5528356146666,64.12159895969386,12.5,0,-9.808809512259113,0.9831187511109327,-2.205344633096282,-3.217468544011791e-05,1.099302761336227e-05,-1.764275706477025e-05,3.438082184482747e-06,3.438322412387916e-06
182.6697614257917,300.8398726389325,12.5,0,1.624375409414701,4.860327760352551,-3.171985464972094,1.309739101845004e-06,1.42535485055964e-05,-2.537588371977675e-05,2.51897297497344e-05,2.535081565109416e-05
184.9201115060985,300.8858796678027,12.5,0,1.605393773783822,4.784322754294029,-3.171786511548165,1.309801872673009e-06,1.402551779471383e-05,-2.537429209238532e-05,2.48552497449239e-05,2.512990915960444e-05
181.4383746938714,303.1344473604806,12.5,0,1.613061869865238,4.818943088712446,-3.200931544182107,1.306643512598803e-06,1.413016838798764e-05,-2.560745235345686e-05,2.50273825248525e-05,2.468071277128808e-05
183.770063723712,303.3061479297348,12.5,0,1.595730421526236,4.749358507753682,-3.199360978498647,1.306850542681008e-06,1.392136288759079e-05,-2.559488782798917e-05,2.472066363051562e-05,2.441858587080677e-05
180.5369370423779,304.8141926383456,12.5,0,1.5398709281546,4.629936964336887,-3.063991720648837,1.223637398625212e-06,1.358390154335436e-05,-2.451193376519069e-05,2.400500019993884e-05,2.420317827431218e-05
182.9281703159089,305.0779072653403,12.5,0,1.515221383024009,4.542304234420576,-3.050454846400208,1.214865038140367e-06,1.332319644372664e-05,-2.440363877120167e-05,2.360042077035577e-05,2.391163166844975e-05
179.3055503104575,307.1087673598937,12.5,0,1.553981587242357,4.591935565637415,-3.089877588220583,1.299192626665611e-06,1.345100854024584e-05,-2.471902070576466e-05,2.393414143270251e-05,2.356863264595779e-05
181.7781225335224,307.4981755272725,12.5,0,1.530028123308862,4.510603372034298,-3.07593597013637,1.287607296960919e-06,1.320990829186266e-05,-2.460748776109096e-05,2.355444167600232e-05,2.323793031923858e-05
176.3951995199472,304.3574255056998,12.5,0,1.768531505719583,4.53149142093514,-3.255263158709865,2.034107681554552e-06,1.308594734241678e-05,-2.604210526967893e-05,2.454042057153436e-05,2.463437419932926e-05
178.7864327934783,304.6211401326946,12.5,0,1.74084460010122,4.433140215808298,-3.239989421821699,2.024190547677266e-06,1.279337301050558e-05,-2.591991537457359e-05,2.408803010956304e-05,2.439683655179095e-05
175.0229295948026,306.4342926291234,12.5,0,1.780441317346482,4.482576332815856,-3.280298209374684,2.111351149256056e-06,1.291989121113355e-05,-2.624238567499747e-05,2.442507180988578e-05,2.407352049135801e-05
177.4955018178674,306.8237007965022,12.5,0,1.753784650097421,4.392164934448052,-3.264726440819318,2.098378932753305e-06,1.265190007015583e-05,-2.611781152655454e-05,2.400450862579055e-05,2.379252835777361e-05
178.7720407519537,300.7601861274254,12.5,0,1.834879475613295,4.750065261232571,-3.34475783729639,2.071562112976487e-06,1.373230525545359e-05,-2.675806269837112e-05,2.5607938284132e-05,2.56607782682887e-05
181.0223908322605,300.8061931562956,12.5,0,1.811089331245821,4.655575733916359,-3.340751442897936,2.07102527285354e-06,1.344897088353569e-05,-2.672601154318348e-05,2.519050805593886e-05,2.549306160004831e-05
177.3997708268091,302.837053250849,12.5,0,1.828636920720349,4.69517388953698,-3.375066266065186,2.095499034675534e-06,1.356164690994205e-05,-2.700053012852149e-05,2.541651738514937e-05,2.505967863882463e-05
179.7314598566497,303.0087538201033,12.5,0,1.806688119518676,4.609565833271514,-3.369736153273893,2.093749315842551e-06,1.33052601708539e-05,-2.695788922619114e-05,2.503627809349516e-05,2.485249306074655e-05
159.545821904008,58.68754703876424,12.5,0,-11.5336865042143,0.5937534604901993,1.457372731608121,-3.738279958187792e-05,1.112696027694008e-05,1.165898185286496e-05,3.316414275156809e-06,3.34297602487256e-06
163.4817645833135,59.010371738217,12.5,0,-11.56427073748764,0.6522870352860672,1.675722424891957,-3.75274959881893e-05,1.133873510290553e-05,1.340577939913566e-05,3.411194696038136e-06,3.365631650227346e-06
159.7349984529422,62.08234518405123,12.5,0,-10.91925753046243,0.7435009662799774,1.472216881724293,-3.553642487050376e-05,1.111460911646587e-05,1.177773505379434e-05,3.280384421831406e-06,3.25790932222877e-06
163.0092453220596,62.38101831972087,12.5,0,-10.962492627129,0.8121857732068363,1.734201421878424,-3.572972502537825e-05,1.136898857596507e-05,1.387361137502739e-05,3.401498034278623e-06,3.281819050909068e-06
159.2181585096594,52.80758416979226,12.5,0,-12.56293111792283,0.4876956602972777,1.354215355823063,-4.059153610559089e-05,1.161097100728955e-05,1.083372284658451e-05,3.464902783911768e-06,3.499151461623938e-06
164.3001919513455,53.17224060479884,12.5,0,-12.59839066901,0.5646283684779023,1.656642850507839,-4.076655283561431e-05,1.188552331433728e-05,1.325314280406271e-05,3.582193499393335e-06,3.517631098022753e-06
159.4073350585936,56.20238231507923,12.5,0,-11.9350128135759,0.640976944136106,1.367619655017526,-3.870482255875177e-05,1.159913647209626e-05,1.094095724014021e-05,3.420821871153305e-06,3.40761666130184e-06
163.8276726900916,56.54288718630271,12.5,0,-11.98069347883145,0.728154632026202,1.714958577499418,-3.892074283788161e-05,1.191464960554901e-05,1.371966861999534e-05,3.563702802491645e-06,3.428817297815021e-06
168.0204986362656,53.43918764251924,12.5,0,-12.54290587360631,0.3294872418529105,1.097511311882245,-4.040088858902252e-05,1.108868387281436e-05,8.780090495057961e-06,3.320356199695819e-06,3.537807050427567e-06
173.1025320779517,53.80384407752582,12.5,0,-12.4993810580112,0.711101666393223,1.376074120065164,-4.056690071875042e-05,1.227503017886727e-05,1.100859296052131e-05,3.598070389409801e-06,3.574449141092141e-06
167.0635844228192,56.79215405225239,12.5,0,-11.93328308156486,0.5625773117593549,1.273537144386993,-3.863656771041502e-05,1.134687386288182e-05,1.018829715509594e-05,3.352218868734999e-06,3.448509710798458e-06
171.4839220543172,57.13265892347587,12.5,0,-11.88810097380484,0.9984215670742991,1.591639833366078,-3.884066036983493e-05,1.270542979368163e-05,1.273311866692862e-05,3.698906237715195e-06,3.481109747081944e-06
166.3630746001214,59.24669582014452,12.5,0,-11.51330600829609,0.4744372491158684,1.21339619405843,-3.722212902584017e-05,1.072884400380765e-05,9.707169552467437e-06,3.18789769768059e-06,3.385584383292617e-06
170.2990172794269,59.56952051959728,12.5,0,-11.47425541131546,0.8042433775100521,1.414557369541785,-3.736101201821753e-05,1.175298313708454e-05,1.131645895633428e-05,3.43380722898663e-06,3.417440638424331e-06
165.406160386675,62.59966222987767,12.5,0,-10.9066277130131,0.7202206388853876,1.407545998197198,-3.547738519275021e-05,1.103000821484372e-05,1.126036798557758e-05,3.247470792827789e-06,3.30296653108555e-06
168.6804072557924,62.89833536554733,12.5,0,-10.86620499405282,1.112419711765039,1.646302245740159,-3.566179175038106e-05,1.225270707289038e-05,1.317041796592127e-05,3.570507273497379e-06,3.336832792701911e-06
134.9061847964888,292.4747587329027,12.5,0,4.195267968167572,2.610792891273366,-4.124096003197913,1.133622318511754e-05,4.998322877540712e-06,-3.29927680255833e-05,2.686267075911698e-05,2.641310820484388e-05
137.7811591058831,291.4366122958086,12.5,0,4.16244423444094,2.714918675883554,-4.173066778097044,1.114788660950416e-05,5.357784375274621e-06,-3.338453422477635e-05,2.713630698639502e-05,2.686828799348008e-05
135.9565050899134,295.5520113701591,12.5,0,3.987693307179621,2.515664858531187,-4.048335721809964,1.074808669614984e-05,4.8599729015561e-06,-3.238668577447971e-05,2.576652589175967e-05,2.587535769770507e-05
138.338232709089,294.3744083089563,12.5,0,3.924224444638901,2.627100609219519,-4.097043621696632,1.045583773546887e-05,5.267342393791341e-06,-3.277634897357306e-05,2.595951214425464e-05,2.629120428748864e-05
136.7253929088881,297.8047166482603,12.5,0,3.828111771502683,2.750350116930108,-3.9974434406933,1.00496775752645e-05,5.7386309569742e-06,-3.19795475255464e-05,2.594002570845809e-05,2.546905106533594e-05
138.7460388901738,296.5250242527622,12.5,0,3.780714051863229,2.793481635505311,-4.020262557658581,9.863499657558082e-06,5.914569992126413e-06,-3.216210046126865e-05,2.594180025622152e-05,2.586360894435399e-05
137.7757132023127,300.8819692855166,12.5,0,3.659644168035519,2.677538409544261,-3.940956111882131,9.568830610078249e-06,5.64040757611322e-06,-3.152764889505704e-05,2.507106742335238e-05,2.489675120934291e-05
139.3031124933796,299.4628202659098,12.5,0,3.570787523947638,2.719281546954848,-3.959932826699085,9.251094839068561e-06,5.845070931097404e-06,-3.167946261359268e-05,2.492439973139442e-05,2.527248044777204e-05
133.2255314052544,300.0212088952827,12.5,0,3.771559781457601,2.642500972030539,-3.918525734347621,9.954990523039892e-06,5.438755285331644e-06,-3.134820587478097e-05,2.531679297783127e-05,2.478625186071148e-05
135.24617738654,298.7415164997846,12.5,0,3.726661403639393,2.671163725788381,-3.941305189204449,9.788385511015351e-06,5.566394799611305e-06,-3.153044151363559e-05,2.527914841840846e-05,2.518037410482297e-05
135.1301800267875,303.3400074909429,12.5,0,3.608421843331237,2.561901531857999,-3.857950969235203,9.497428673173558e-06,5.311347427280606e-06,-3.086360775388162e-05,2.443659252861341e-05,2.424766754236358e-05
136.6575793178545,301.9208584713361,12.5,0,3.532831940288878,2.585566592185278,-3.87722188435755,9.236608935176186e-06,5.447547542761786e-06,-3.10177750748604e-05,2.427546741360692e-05,2.462215341895426e-05
129.9265832222521,294.2728811076142,12.5,0,4.187897688195123,2.430958902801858,-4.026701866049915,1.14565054799829e-05,4.428750338409846e-06,-3.221361492839932e-05,2.615976743853719e-05,2.561712349316445e-05
132.8015575316465,293.23473467052,12.5,0,4.157005616689401,2.516662580126161,-4.071161800435209,1.128908790930515e-05,4.727715763052192e-06,-3.256929440348167e-05,2.637390623337628e-05,2.607785968739625e-05
131.8312318437853,297.5916797032744,12.5,0,3.98418521919942,2.315340437749827,-3.941484712779396,1.089712035123828e-05,4.221741225439912e-06,-3.153187770223517e-05,2.500114864596532e-05,2.515319647678715e-05
134.2129594629609,296.4140766420716,12.5,0,3.928564599704819,2.402340598642614,-3.984121905871602,1.064953424014133e-05,4.544638235892511e-06,-3.187297524697281e-05,2.513319705801098e-05,2.557042942385679e-05
9.98228958343597,215.8576454658034,12.5,0,4.075314475462593,-0.1524244123999721,-0.6808237097380495,1.316294585140027e-05,-3.748009700049985e-06,-5.446589677904396e-06,1.529767641558165e-05,1.720082424014631e-05
22.3085232023056,213.4913612732969,12.5,0,3.97510653463789,-0.9749993257331688,-0.5223737158895608,1.350034037142778e-05,-6.300083070056452e-06,-4.178989727116486e-06,1.256898162497261e-05,1.539337495736069e-05
23.93180160294857,224.5064927720123,12.5,0,4.60101046331041,0.7069973959687977,-1.061909101644507,1.415763556581827e-05,-1.418416703548175e-06,-8.495272813156056e-06,2.006628502700117e-05,1.811635204161314e-05
33.53588350685412,220.4627679419449,12.5,0,4.62755641380816,0.09079884764015578,-0.9952350485213516,1.473554144607399e-05,-3.411488818598029e-06,-7.961880388170813e-06,1.823016629917839e-05,1.722824496827502e-05
31.33195247689812,211.7591210193087,12.5,0,4.486461862809256,-0.5139798246765253,-0.8223214303687069,1.476786182073084e-05,-5.233904929212285e-06,-6.578571442949655e-06,1.585670121680915e-05,1.486168369251515e-05
43.65818609576773,209.3928368268021,12.5,0,4.411380959957313,-1.35732767651158,-0.6027722789119968,1.520228121307267e-05,-7.872553332802905e-06,-4.822178231295974e-06,1.324945730678421e-05,1.521652542574046e-05
40.56655942026691,217.5025559146336,12.5,0,4.852143886839128,0.01506066418732832,-1.081315352752303,1.551481190653534e-05,-3.833520984071851e-06,-8.650522822018421e-06,1.888613613347423e-05,1.685906587585341e-05
50.17064132417245,213.4588310845662,12.5,0,4.928562003117447,-0.6107281980462729,-0.968698825648427,1.625998096841285e-05,-5.89717983624203e-06,-7.749590605187416e-06,1.730980862628262e-05,1.673855691156065e-05
47.32676089045378,221.7070420677968,12.5,0,5.144677521527843,-0.963790723548972,-1.224717041999827,1.723400064772827e-05,-7.199872332578985e-06,-9.797736335998612e-06,1.724553155438587e-05,1.804855760170718e-05
54.93808943317959,216.4353454644063,12.5,0,5.27705926122429,-1.224725713724739,-1.192048938000044,1.786637020689751e-05,-8.140769692898596e-06,-9.536391504000354e-06,1.703135131816506e-05,1.773017724427531e-05
56.56136783382258,227.4504769631218,12.5,0,5.374497042632284,-0.6539039550878498,-1.385497980770961,1.772151370049359e-05,-6.392090290386945e-06,-1.108398384616769e-05,1.903804628928093e-05,1.930092724872235e-05
61.4505446615843,220.5013397221706,12.5,0,5.602852648008216,-0.7864000421905952,-1.419695896150469,1.855824850737877e-05,-6.998762253416477e-06,-1.135756716920375e-05,1.954249983269721e-05,1.89173028893651e-05
34.14355314159039,230.8378884267933,12.5,0,4.939622677637995,-0.7069895591795063,-1.326115505023692,1.637238421578519e-05,-6.214064731484816e-06,-1.060892404018954e-05,1.72244211592988e-05,1.887202625212391e-05
41.7548816843162,225.5661918234028,12.5,0,5.080697103796119,-0.8660696249948125,-1.275516775508797,1.695108643214343e-05,-6.835980483020295e-06,-1.020413420407038e-05,1.72931398953574e-05,1.835451512122896e-05
48.09306516110301,239.4867357330021,12.5,0,5.271364067828697,-0.3368757826532536,-1.551665248357261,1.713786564317443e-05,-5.295093758753368e-06,-1.241332198685809e-05,1.963207342397028e-05,2.002103878782978e-05
52.98224198886474,232.5375984920509,12.5,0,5.492867151907141,-0.40663054340073,-1.555561470880246,1.790247932082343e-05,-5.695511460408048e-06,-1.244449176704197e-05,2.026714552730729e-05,1.9596672391364e-05
154.4801889420207,59.51385964677988,12.5,0,-11.43587772955952,0.5272881488212251,1.634110049854496,-3.701663925364745e-05,1.083602425987554e-05,1.307288039883597e-05,3.290892408947203e-06,3.268697220794773e-06
157.133856980391,58.8224562172583,12.5,0,-11.35661110904394,0.4919171431216043,1.763627124864296,-3.67346892634379e-05,1.065942374522429e-05,1.410901699891437e-05,3.282499916445229e-06,3.317002522788139e-06
155.3829012116869,62.34607152373505,12.5,0,-10.91791839847962,0.6817115426374443,1.541705132107114,-3.548270810924473e-05,1.091581165522351e-05,1.233364105685691e-05,3.254657942423145e-06,3.204287222789035e-06
157.6915257074295,62.07298121828906,12.5,0,-10.88358161441895,0.6225043679712519,1.704658667427725,-3.532546466051764e-05,1.069887926904317e-05,1.36372693394218e-05,3.248253314991081e-06,3.237134731496945e-06
149.8839010732241,60.71140551521713,12.5,0,-11.12607957985944,0.4478351326697965,1.770690640210332,-3.596172276168605e-05,1.03339360884309e-05,1.416552512168265e-05,3.205149042677875e-06,3.190764856425976e-06
152.5375691115945,60.02000208569553,12.5,0,-11.0925111548516,0.3195493593188039,1.857218941059368,-3.575167518298015e-05,9.896566873701451e-06,1.485775152847495e-05,3.139919559439124e-06,3.234871940039694e-06
151.3842462895343,62.8190778078135,12.5,0,-10.79326737039827,0.6409252139622685,1.627923531417149,-3.505119575644429e-05,1.068557458099788e-05,1.302338825133719e-05,3.220886182334006e-06,3.149762824444146e-06
153.692870785277,62.54598750236752,12.5,0,-10.79948475910056,0.4569889857946592,1.753764102712155,-3.492394241775751e-05,1.010195256182336e-05,1.403011282169724e-05,3.134691159975604e-06,3.180875990853799e-06
147.2852269297287,57.06081001880062,12.5,0,-11.77272113702419,0.4210281183913969,1.757491422104527,-3.800953013319053e-05,1.076546688847182e-05,1.405993137683622e-05,3.328242205612011e-06,3.281497663270582e-06
150.536527914743,55.64486700492026,12.5,0,-11.70127914791049,0.2251106104450158,1.830856302069988,-3.762418176166958e-05,1.008137727175244e-05,1.464685041655991e-05,3.209045606733673e-06,3.347083508338238e-06
148.7855721460389,59.168482311397,12.5,0,-11.49168266432634,0.6187520939239413,1.619919224737231,-3.726838620098343e-05,1.117335283201768e-05,1.295935379789785e-05,3.359577473899963e-06,3.226063100103465e-06
151.6918295884255,58.17085242159222,12.5,0,-11.43768079405316,0.3712958696773598,1.719102306389178,-3.689761523671198e-05,1.033829141821007e-05,1.375281845111343e-05,3.212622775348184e-06,3.279407110124245e-06
152.916645426371,54.6083247781817,12.5,0,-12.32719011823231,0.4099545100362891,1.580957518428318,-3.977497198637243e-05,1.117360652670197e-05,1.264766014742654e-05,3.406105271273568e-06,3.396722845899853e-06
156.1679464113853,53.19238176430133,12.5,0,-12.17106075221943,0.3983965668178588,1.718200884579929,-3.926611166055645e-05,1.101171761559269e-05,1.374560707663943e-05,3.39397039513412e-06,3.466754193110357e-06
153.8193576960373,57.44053665513685,12.5,0,-11.90053416303105,0.5340892447534928,1.508593351235753,-3.850898071750214e-05,1.122951291363601e-05,1.206874680988602e-05,3.372145439021829e-06,3.320260190600691e-06
156.7256151384239,56.44290676533208,12.5,0,-11.76042948425455,0.5101510031420902,1.670729720370964,-3.804149515212823e-05,1.104082679745833e-05,1.336583776296771e-05,3.361316498896228e-06,3.378528872092006e-06
169.6468568692119,312.7221349051359,12.5,0,1.698006623960302,4.072591937483687,-3.081842929723888,2.175547646686015e-06,1.167388890077956e-05,-2.46547434377911e-05,2.253531765633778e-05,2.254882565817133e-05
172.9731571114313,313.5339659047542,12.5,0,1.634806872285792,3.913066025488933,-3.029594966692347,2.100929170923386e-06,1.121396578373595e-05,-2.423675973353878e-05,2.172167355251856e-05,2.21558242220366e-05
167.3238778249357,315.3567656772682,12.5,0,1.746727849115697,3.994132499059242,-3.098861901571087,2.394223117922837e-06,1.138384171769702e-05,-2.479089521256869e-05,2.24288837230083e-05,2.195761426635833e-05
171.0428977848035,316.3480066531974,12.5,0,1.689844401394796,3.85507295273147,-3.052357958046543,2.32344372227817e-06,1.098435792762486e-05,-2.441886366437234e-05,2.171351713874143e-05,2.151191248076853e-05
173.6703745987438,308.1588205487005,12.5,0,1.725643739322402,4.34786947186244,-3.164394197111665,2.043764388341734e-06,1.253266731850188e-05,-2.531515357689332e-05,2.367252892591407e-05,2.363514040162961e-05
176.3164643368742,308.6599043539689,12.5,0,1.671442508803626,4.18596700849421,-3.124164435228203,1.999842421376234e-06,1.205794042013857e-05,-2.499331548182562e-05,2.288825180509289e-05,2.332201007386903e-05
171.3473955544676,310.7934513208327,12.5,0,1.762720981923083,4.242843409769597,-3.193909118909102,2.246432414338187e-06,1.216692212572424e-05,-2.555127295127282e-05,2.344302123641475e-05,2.299831743138538e-05
174.3862050102464,311.4739451024121,12.5,0,1.715449809816239,4.107721162775107,-3.158766838941297,2.203262461191878e-06,1.177234787302735e-05,-2.527013471153038e-05,2.278154334880006e-05,2.264083841031431e-05
178.2535364664899,309.0267231582597,12.5,0,1.459751150937386,4.397294399940913,-2.940718931975999,1.153368163046904e-06,1.290354115906101e-05,-2.3525751455808e-05,2.281443888104005e-05,2.307258305737635e-05
180.8996262046203,309.5278069635281,12.5,0,1.429391840943741,4.303238536342895,-2.919710010303837,1.131463061945654e-06,1.262684984354227e-05,-2.335768008243069e-05,2.236286533805539e-05,2.270426610326964e-05
176.6107679263027,311.9721011247418,12.5,0,1.485021885867516,4.356188080948509,-2.966799673846935,1.267119570017244e-06,1.275178435034121e-05,-2.373439739077548e-05,2.276854689858941e-05,2.2351896006595e-05
179.6495773820815,312.6525949063212,12.5,0,1.458242666695715,4.276431227607203,-2.948037355627644,1.245231551340526e-06,1.251798579498648e-05,-2.358429884502115e-05,2.238182453342809e-05,2.191996970021028e-05
175.408177889861,314.1282674436088,12.5,0,1.380073742503454,4.153698236839742,-2.818582391883792,1.093277386539259e-06,1.218777536388441e-05,-2.254865913507034e-05,2.158714163951641e-05,2.18382432452223e-05
178.7344781320804,314.9400984432271,12.5,0,1.335990831966287,4.043617928595331,-2.781766593335004,1.040276319415852e-06,1.187078470593203e-05,-2.225413274668003e-05,2.102190103522083e-05,2.136359731714609e-05
173.7654093496738,317.0736454100909,12.5,0,1.42636353896219,4.120910657936324,-2.838240396503724,1.26763479832995e-06,1.204582327422649e-05,-2.270592317202979e-05,2.163336044430596e-05,2.115560485442572e-05
177.4844293095416,318.0648863860201,12.5,0,1.386255462160604,4.02396290541328,-2.805154843491786,1.21684715458331e-06,1.176767692759401e-05,-2.244123874793429e-05,2.11309866259446e-05,2.062785610168132e-05
110.345222221292,282.2201898069975,12.5,0,5.127297796347702,1.377546057678335,-3.803765081962132,1.530531610216998e-05,3.063091474925109e-07,-3.043012065569705e-05,2.58957507975978e-05,2.536411068299358e-05
115.1417393940207,282.0157959516279,12.5,0,5.158965478464745,1.553222128669735,-3.915906590313718,1.526611182815139e-05,8.43138428971355e-07,-3.132725272250974e-05,2.665684759407566e-05,2.598673503025368e-05
111.7438514137088,287.3891059615966,12.5,0,4.810801792532805,1.253353414020771,-3.706245861873579,1.439188300488836e-05,1.62089490840224e-07,-2.964996689498864e-05,2.430051933969947e-05,2.483395070129682e-05
116.3916699840945,286.7490792444659,12.5,0,4.813262656835804,1.418709549834193,-3.810103578581912,1.426747286200722e-05,6.892604340007739e-07,-3.048082862865529e-05,2.491827233989028e-05,2.545166900975956e-05
118.6530336636854,281.8661692647487,12.5,0,5.083865932571287,1.675698705800383,-3.998657249314281,1.492781201958781e-05,1.295143112504195e-06,-3.198925799451425e-05,2.685013390641267e-05,2.646135782507731e-05
123.4495508364141,281.6617754093791,12.5,0,5.125821883765857,1.898417881703074,-4.123862889468125,1.488389572268828e-05,1.974279714437151e-06,-3.2990903115745e-05,2.781477437971704e-05,2.713542706776083e-05
119.7941093218343,286.2805471693447,12.5,0,4.784658388944547,1.555066755437564,-3.899919047926254,1.40668534402725e-05,1.148486906244568e-06,-3.119935238341003e-05,2.532667509091351e-05,2.5916182383884e-05
124.4419278922201,285.6405204522141,12.5,0,4.793802667001116,1.76627142258645,-4.015224431692131,1.392715139633441e-05,1.817026418675746e-06,-3.212179545353705e-05,2.612994800852911e-05,2.656753821437845e-05
120.6294346788439,289.512096079181,12.5,0,4.629883690177733,1.929544688469263,-3.946027479212974,1.327199205779333e-05,2.470636050959455e-06,-3.156821983370379e-05,2.600866028656625e-05,2.550817056059987e-05
125.1683983173047,288.5531639738083,12.5,0,4.615265042030166,2.098665486270917,-4.039155715186887,1.308991574547979e-05,3.023517522442802e-06,-3.231324572149509e-05,2.658395629754874e-05,2.615181262954496e-05
121.7705103369929,293.926473983777,12.5,0,4.366111728506286,1.824227351143584,-3.860547180849378,1.251217565030525e-05,2.344638140854439e-06,-3.088437744679502e-05,2.467235516102207e-05,2.493863697044475e-05
126.1607753731106,292.5319090166433,12.5,0,4.321707785498276,1.982934274214141,-3.944850023311191,1.224311749422317e-05,2.888023449086629e-06,-3.155880018648952e-05,2.510304709974144e-05,2.558391806310769e-05
112.7677190434634,291.1730152066658,12.5,0,4.641578330590498,1.665524805375966,-3.77371794632105,1.352063081358882e-05,1.616416712730694e-06,-3.01897435705684e-05,2.505368841800397e-05,2.442108443932609e-05
117.3066826819242,290.214083101293,12.5,0,4.623850583228282,1.80215001865342,-3.860031871479342,1.335460185140776e-05,2.067799593108317e-06,-3.088025497183474e-05,2.550315167024135e-05,2.504442333972738e-05
114.1663482358803,296.3419313612649,12.5,0,4.356328815668459,1.554205317533308,-3.686714693251051,1.269688795611242e-05,1.488393963571818e-06,-2.949371754600841e-05,2.362090462306326e-05,2.382327281653984e-05
118.5566132719981,294.9473663941312,12.5,0,4.311627936126774,1.681319551746963,-3.765450406290012,1.24521537542081e-05,1.930920216688863e-06,-3.01236032503201e-05,2.393969862273523e-05,2.446687349848388e-05
313.2678578940577,168.8338912481028,12.5,0,8.861837898103024,0.0510848954764711,-2.941521095289434,2.83170133575485e-05,-6.925998652957711e-06,-2.353216876231547e-05,3.498696755830568e-05,3.544864669116384e-05
315.8363886565284,167.5308388219256,12.5,0,8.931021942555583,0.01710366188410184,-2.89067905245639,2.856558728667058e-05,-7.09008583601534e-06,-2.312543241965112e-05,3.511976583221893e-05,3.424112553516129e-05
313.9183198721281,171.3132204930974,12.5,0,9.029213466788867,0.106418770216707,-2.978201652121675,2.880834807755101e-05,-6.882830708737631e-06,-2.38256132169734e-05,3.580050627437342e-05,3.651118966793723e-05
316.6035771026439,170.1423467151827,12.5,0,9.08621720178833,0.06987273394854254,-2.926387556288919,2.901999685856382e-05,-7.045381012795327e-06,-2.341110045031135e-05,3.587935211964037e-05,3.534515555941274e-05
312.1412246996683,164.5395670271579,12.5,0,8.249527241117876,0.1565894105592309,-3.140624764269806,2.627321564312981e-05,-6.098535679104761e-06,-2.512499811415845e-05,3.311635439625601e-05,3.354426904771017e-05
314.5075792889005,163.0075744665185,12.5,0,8.322604859931426,0.147779803792409,-3.101125439832745,2.651411170874663e-05,-6.185188515809431e-06,-2.480900351866196e-05,3.334043525082948e-05,3.225659718945796e-05
312.7916866777387,167.0188962721525,12.5,0,8.386845332159979,0.1986659291098523,-3.16574276565298,2.667897231962404e-05,-6.073745292576455e-06,-2.532594212522384e-05,3.376986553897316e-05,3.465366270699149e-05
315.274767735016,165.6190823597756,12.5,0,8.4490249987655,0.1873567613332114,-3.125672831822194,2.688699458698303e-05,-6.159678362746123e-06,-2.500538265457755e-05,3.394567899904272e-05,3.341354881418127e-05
316.2398710768687,161.8860780753606,12.5,0,7.692213960847004,0.09593325060286473,-3.161194110933821,2.453833807422812e-05,-5.846784766748436e-06,-2.528955288747057e-05,3.087054674841263e-05,3.133065743475295e-05
318.606225666101,160.3540855147212,12.5,0,7.757570534820371,0.07832452837460702,-3.126884876964288,2.47615660887255e-05,-5.955417937057554e-06,-2.50150790157143e-05,3.104021253818262e-05,3.008861483829565e-05
317.0925092281775,164.5943474548174,12.5,0,7.831923275909205,0.143537745513864,-3.193395933421514,2.494732428649836e-05,-5.806217835082998e-06,-2.554716746737211e-05,3.155185700915318e-05,3.252146562118861e-05
319.5755902854549,163.1945335424405,12.5,0,7.887532264453655,0.1235722361196847,-3.158034237009725,2.514124545735595e-05,-5.914594655979932e-06,-2.52642738960778e-05,3.167777047387525e-05,3.132436290606099e-05
317.7166836753807,166.5769382410786,12.5,0,8.345544910081067,-0.02332914099226446,-2.947530928213988,2.672440702505323e-05,-6.7510891792401e-06,-2.358024742571191e-05,3.283080273116071e-05,3.337651932828533e-05
320.2852144378515,165.2738858149014,12.5,0,8.422886992792284,-0.0266823663808462,-2.890492493604472,2.697458427003999e-05,-6.823693166652534e-06,-2.312393994883578e-05,3.307991758150073e-05,3.222189239846291e-05
318.5693218266896,169.2852076205354,12.5,0,8.526985609080771,0.02982511755575601,-2.978609173063309,2.726249385501386e-05,-6.726148111086197e-06,-2.382887338450647e-05,3.368597040959587e-05,3.452176131293731e-05
321.2545790572054,168.1143338426206,12.5,0,8.592352499583209,0.02356755301167768,-2.921151314923232,2.747667395625692e-05,-6.798465830029198e-06,-2.336921051938586e-05,3.388181798083574e-05,3.343824050533539e-05
529.2695006285405,188.790657191104,12.5,0,3.477685991928219,-0.0373644566333623,-2.165724682469107,1.115848673947699e-05,-2.901715054769334e-06,-1.732579745975286e-05,1.428348050141851e-05,1.507783756442661e-05
539.7806824860817,187.4896233040095,12.5,0,3.504373256330705,-0.0739992291087731,-2.052027593100317,1.127319380354527e-05,-3.040296138212637e-06,-1.641622074480254e-05,1.417531232197021e-05,1.369992046765632e-05
532.5539183965376,199.2620051923009,12.5,0,3.793710426189972,0.05537687484418363,-2.21998136540688,1.209557186393256e-05,-2.85776234145059e-06,-1.775985092325504e-05,1.573503578700436e-05,1.636497641786689e-05
543.1265666930292,198.1264318926475,12.5,0,3.815429704679413,0.01732250699592297,-2.105533282744374,1.219551704937738e-05,-2.996911741356576e-06,-1.684426626195499e-05,1.56089314616887e-05,1.472653876581581e-05
511.0635996040102,191.0441139858801,12.5,0,4.215804581620557,-0.04966691916470078,-2.084164159541614,1.353030819651754e-05,-3.531577806623488e-06,-1.667331327633292e-05,1.685921049711817e-05,1.764222288388993e-05
521.5747814615513,189.7430800987856,12.5,0,4.240737778605164,-0.1239762808915092,-1.947541485052231,1.366954191624973e-05,-3.78931432173696e-06,-1.558033188041785e-05,1.663645438851357e-05,1.61341743131428e-05
514.2415543767864,201.2288758429838,12.5,0,4.591327107939844,0.06894114088406122,-2.159031745951846,1.463709383270025e-05,-3.452450035522879e-06,-1.727225396761477e-05,1.864129247057024e-05,1.925197012411379e-05
524.8142026732781,200.0933025433305,12.5,0,4.610198548355996,-0.00721001308820246,-2.021325972935656,1.475840336520975e-05,-3.711230880567044e-06,-1.617060778348525e-05,1.839244504701932e-05,1.757756209568758e-05
505.5592204735046,173.403588986704,12.5,0,3.310636083035914,-0.07050674679892244,-2.656504693637247,1.065044086315406e-05,-2.874130456185283e-06,-2.125203754909798e-05,1.408542728333496e-05,1.476447973703943e-05
515.963939335825,171.8159689555163,12.5,0,3.348747775576572,-0.1587680884383166,-2.504721357347243,1.084300735259568e-05,-3.18705610346387e-06,-2.003777085877794e-05,1.381366204862289e-05,1.355689067079265e-05
508.7371752462809,183.5883508438076,12.5,0,3.736872990234055,0.06638270826538784,-2.744313993451194,1.190488740213666e-05,-2.777073725738002e-06,-2.195451194760955e-05,1.604607005649317e-05,1.643980345866835e-05
519.2033605475518,182.1661914000611,12.5,0,3.768085007567775,-0.02400535607906784,-2.591250878446519,1.207707630908013e-05,-3.091285145507237e-06,-2.073000702757215e-05,1.57496750330627e-05,1.505683865184484e-05
523.58072218119,170.6537504296222,12.5,0,2.697124016122581,-0.05314183155361785,-2.73965034786317,8.673310316835152e-06,-2.327753073869641e-06,-2.191720278290536e-05,1.215316876934962e-05,1.276457457693767e-05
533.9854410435104,169.0661303984345,12.5,0,2.727788134039425,-0.1233671408116747,-2.617996291343172,8.8276157415755e-06,-2.577005357828899e-06,-2.094397033074538e-05,1.191817761538811e-05,1.180751581902608e-05
526.865139949187,181.125098430819,12.5,0,3.048129782855937,0.05956715537119528,-2.811981152787675,9.706361580842041e-06,-2.247888929096924e-06,-2.24958492223014e-05,1.372144000715379e-05,1.411311279875212e-05
537.3313252504579,179.7029389870725,12.5,0,3.073266867443574,-0.01236378961148943,-2.689298610777002,9.844345007508628e-06,-2.498177620711625e-06,-2.151438888621602e-05,1.346796523555606e-05,1.291777062640044e-05
117.1229497166196,60.58834967473462,12.5,0,-10.67281808606511,-0.02970560149797974,1.814508726481353,-3.412925339420995e-05,8.443196544058549e-06,1.451606981185082e-05,2.825031407582824e-06,2.877722136439123e-06
120.6162802679563,60.83980445669263,12.5,0,-10.71384196488004,-0.04656846774921375,2.019241620377402,-3.424703951341676e-05,8.422054475106549e-06,1.615393296301922e-05,2.88310093696957e-06,2.901427400095529e-06
117.6168241476829,63.78141932421213,12.5,0,-10.1122772506584,0.1114792545580081,1.77929820429836,-3.244847060575329e-05,8.446555415112347e-06,1.423438563438688e-05,2.776232086316387e-06,2.773210828468557e-06
120.7117997969461,63.99222182866599,12.5,0,-10.15616690303091,0.09305495727778812,2.01020383237358,-3.257417805552112e-05,8.422709385713645e-06,1.608163065898864e-05,2.844418270062285e-06,2.796594247321776e-06
123.1735757190587,61.02388213288421,12.5,0,-10.68844748743864,-0.02105875613049379,1.765575660944869,-3.418618495489926e-05,8.483369970333334e-06,1.412460528755895e-05,2.820305207894121e-06,2.918823347309901e-06
126.6669062703955,61.27533691484221,12.5,0,-10.69963903128982,0.0796588417889339,1.964708228060229,-3.430257197355857e-05,8.814619518756445e-06,1.571766582448183e-05,2.938380023044088e-06,2.942644695290965e-06
122.9774792202989,64.14653997228241,12.5,0,-10.14486141129009,0.1213730012186875,1.819962737560108,-3.256065491710324e-05,8.504282732931873e-06,1.455970190048086e-05,2.8009994401911e-06,2.81421551203884e-06
126.0724548695621,64.35734247673626,12.5,0,-10.15514909669646,0.2357544441136219,2.045126785783228,-3.268508066471955e-05,8.878533498520753e-06,1.636101428626583e-05,2.943063464126975e-06,2.838974283688307e-06
122.8339266200265,66.43248416527797,12.5,0,-9.808212008250333,-0.01328882349844696,1.853356771676218,-3.13756473676023e-05,7.804045371405236e-06,1.482685417340975e-05,2.658055555741716e-06,2.741278229977833e-06
125.63728624154,66.61352713715665,12.5,0,-9.810646241754487,0.07591910158158299,2.00424775850258,-3.145480325487962e-05,8.091458118464653e-06,1.603398206802064e-05,2.759481955306127e-06,2.766086231017314e-06
122.6378301212667,69.55514200467616,12.5,0,-9.278109829776158,0.1265280400806783,1.91223752267057,-2.979117388734825e-05,7.827377592079096e-06,1.529790018136456e-05,2.648487643813339e-06,2.646617704883765e-06
125.0428348407066,69.69553269905069,12.5,0,-9.277991401391033,0.2314155884383862,2.088658353321841,-2.987470495520201e-05,8.162923004115661e-06,1.670926682657473e-05,2.775207710703563e-06,2.670622779449593e-06
117.9783653237651,66.11890853963644,12.5,0,-9.792398540902928,-0.02228975101501174,1.91201813588115,-3.131784353007736e-05,7.762591629474305e-06,1.52961450870492e-05,2.667488023438623e-06,2.700514490025056e-06
120.7817249452787,66.29995151151513,12.5,0,-9.820095357551176,-0.03414295552155888,2.065339896555847,-3.139699077974652e-05,7.746818828371952e-06,1.652271917244678e-05,2.716166015111213e-06,2.723708334933201e-06
118.4722397548285,69.31197818911394,12.5,0,-9.252833416251937,0.1136079590039127,1.878135337115061,-2.969995329920932e-05,7.765812201814069e-06,1.502508269692049e-05,2.624042703341189e-06,2.606415707835308e-06
120.8772444742685,69.45236888348849,12.5,0,-9.282128537466692,0.1005454061985325,2.056631669180953,-2.978324764485224e-05,7.747448129808657e-06,1.645305335344762e-05,2.683276016551738e-06,2.629413471896886e-06
117.9103580549704,225.6807765416114,12.5,0,7.763737704584035,-0.1981070668499205,-2.903316183218302,2.500244630814885e-05,-6.844932777586973e-06,-2.322652946574642e-05,3.01136335575443e-05,3.022124936210208e-05
119.8874428750045,228.087431883821,12.5,0,8.117344677593355,0.003798565728591718,-3.058191931707063,2.597246411571586e-05,-6.481720331743189e-06,-2.44655354536565e-05,3.21199664329951e-05,3.08795443707707e-05
115.8990455923096,229.872252341372,12.5,0,7.367702089736798,-0.2112129366634514,-2.907096531992941,2.374561703648851e-05,-6.570043069112482e-06,-2.325677225594353e-05,2.860100626090374e-05,2.967428725809862e-05
118.4392512565989,231.7587034168719,12.5,0,7.604480676762634,-0.03390129524498953,-3.045841745165204,2.436145920183642e-05,-6.192068686194073e-06,-2.436673396132163e-05,3.008829799305366e-05,3.042280288355573e-05
121.334769414081,229.8492258705506,12.5,0,7.766142585219306,0.06874590578027506,-3.185098602277524,2.479665954807755e-05,-5.992927169678564e-06,-2.54807888182202e-05,3.107982248471124e-05,3.135344798603924e-05
123.311854234115,232.2558812127602,12.5,0,8.170016700749422,0.2888210564749398,-3.357727666364134,2.591299659721819e-05,-5.61178597987973e-06,-2.686182133091307e-05,3.334568702221475e-05,3.198988173222985e-05
120.2988108644539,233.1396814500721,12.5,0,7.45047690363958,0.02986157706501391,-3.172767073299616,2.381763682999464e-05,-5.864824476303619e-06,-2.538213658639693e-05,2.978437362867401e-05,3.098608402755828e-05
122.8390165287431,235.0261325255721,12.5,0,7.692520048058622,0.2017753274448497,-3.313080307024797,2.445464389183171e-05,-5.508334990623378e-06,-2.650464245619838e-05,3.128301192156992e-05,3.177648110652707e-05
119.5404365716236,235.548462114228,12.5,0,7.609883213095324,0.1773496603576135,-3.388435717270232,2.420974655361894e-05,-5.520387657331896e-06,-2.710748573816186e-05,3.095362942645195e-05,3.075689844258373e-05
122.4928753046913,237.0540972361986,12.5,0,7.822000276107064,0.3878378752452518,-3.545658175979695,2.47201305833464e-05,-5.016519020100844e-06,-2.836526540783756e-05,3.247185621630245e-05,3.162746365581315e-05
118.5044780219964,238.8389176937496,12.5,0,7.357698081969256,0.1533241636789964,-3.369862439508767,2.342197453135842e-05,-5.395521141802616e-06,-2.695889951607013e-05,2.993733254542067e-05,3.049811573852523e-05
122.0200375993194,239.8243485490106,12.5,0,7.483595564073328,0.331097348508288,-3.50250206779021,2.368262792622802e-05,-4.92736493603214e-06,-2.802001654232168e-05,3.10221599178948e-05,3.143374103493381e-05
114.4266626798079,232.9406255853617,12.5,0,7.468750851534322,-0.09660529626416614,-3.11667052271436,2.397728696192116e-05,-6.284137629272788e-06,-2.493336418171488e-05,2.944388653762933e-05,2.935066845945094e-05
117.3791014128757,234.4462607073322,12.5,0,7.646487410151918,0.09027015065000099,-3.248492845038106,2.439654359196613e-05,-5.828325446041531e-06,-2.598794276030485e-05,3.073926920720678e-05,3.014683300840641e-05
112.4153502171471,237.1321013851222,12.5,0,7.185907684034053,-0.09174329753668942,-3.108197647723296,2.306829922693832e-05,-6.042304699344647e-06,-2.486558118178637e-05,2.840385565692882e-05,2.901348756322696e-05
115.9309097944701,238.1175322403832,12.5,0,7.300313002271785,0.07880922919023137,-3.226526325835633,2.329795422391752e-05,-5.588060868408686e-06,-2.581221060668506e-05,2.940781921236176e-05,2.984961077532294e-05
311.0290638359819,160.2513154542413,12.5,0,7.611182940126858,0.273564099942071,-3.323657691915694,2.413693412845228e-05,-5.213541232286859e-06,-2.658926153532555e-05,3.120240929505755e-05,3.156969760891701e-05
313.232781394762,158.5069735420902,12.5,0,7.674004462722944,0.2764547747956316,-3.296333978679168,2.433565046087691e-05,-5.254548290832333e-06,-2.637067182943335e-05,3.142643220464048e-05,3.020255778444038e-05
311.6689313326736,162.7261992123427,12.5,0,7.710078264261394,0.3021624859987708,-3.339140243806249,2.443052045683744e-05,-5.201142656213048e-06,-2.671312195045e-05,3.166478736642213e-05,3.271792309022105e-05
313.9604306980912,161.1018906523968,12.5,0,7.765867740500855,0.3033206227219667,-3.311447756196469,2.460812027142516e-05,-5.24206819969039e-06,-2.649158204957175e-05,3.185758338995086e-05,3.139621473616209e-05
309.9207808216199,155.9646910424597,12.5,0,6.970633850057336,0.3947229331296209,-3.49439109782084,2.199024997367977e-05,-4.313393694031081e-06,-2.795512878256672e-05,2.93177994253529e-05,2.954330767555004e-05
311.9724558313266,154.0124452656903,12.5,0,7.008857992320315,0.4028791883832237,-3.479712671374787,2.210604222471843e-05,-4.317872991029936e-06,-2.783770137099829e-05,2.947205501656305e-05,2.810732699280574e-05
310.5606483183116,158.4395748005611,12.5,0,7.021782856447794,0.4079654536026773,-3.500042793570164,2.21433327777508e-05,-4.311936833629668e-06,-2.800034234856131e-05,2.954942464914696e-05,3.0719061972303e-05
312.7001051346556,156.6073623759968,12.5,0,7.056124559104319,0.4151520361059562,-3.485320956510567,2.224747696024905e-05,-4.316413131744395e-06,-2.788256765208453e-05,2.96866171475311e-05,2.932130296963886e-05
313.4743861789874,152.583302168294,12.5,0,6.293356430162339,0.3261170105351283,-3.533538339045605,1.987784696809138e-05,-3.99111071041746e-06,-2.826830671236484e-05,2.666780615930957e-05,2.70626331623047e-05
315.5260611886941,150.6310563915246,12.5,0,6.340645855733685,0.3267737305776157,-3.517978001056097,2.00286477538857e-05,-4.026840746738578e-06,-2.814382400844877e-05,2.682941521161671e-05,2.564445722164505e-05
314.2662962247525,155.2660897910138,12.5,0,6.366289999330512,0.3488262783274814,-3.547544713495242,2.009306697519565e-05,-3.976787908816469e-06,-2.838035770796193e-05,2.70115403312414e-05,2.831123694937638e-05
316.4057530410965,153.4338773664495,12.5,0,6.408702960699824,0.348224299315363,-3.531502759658372,2.022927003478715e-05,-4.012644610750698e-06,-2.825202207726698e-05,2.715151222853099e-05,2.694944426556721e-05
314.8460146132521,157.2300266366781,12.5,0,7.009745156581174,0.2111202379684416,-3.358664103857617,2.2262288310685e-05,-4.932211363765926e-06,-2.686931283086094e-05,2.88175159697473e-05,2.921764710954231e-05
317.0497321720322,155.4856847245271,12.5,0,7.060619050392571,0.2004744289155094,-3.339008066396431,2.243360141812382e-05,-5.006977067784427e-06,-2.671206453117145e-05,2.895953426954431e-05,2.789396092916606e-05
315.6379246590173,159.9128142593979,12.5,0,7.103168634860167,0.2431851775371043,-3.380550004930229,2.253559148952285e-05,-4.904342339769399e-06,-2.704440003944183e-05,2.92723217930873e-05,3.044540193264588e-05
317.9294240244348,158.288505699452,12.5,0,7.148163127460549,0.2310241915383178,-3.360081405643723,2.26893026546431e-05,-4.979253089045822e-06,-2.688065124514978e-05,2.938774949821414e-05,2.916944139890113e-05
315.0603010828425,116.5461580982362,12.5,0,0.5843604374671426,0.5086911883962522,-3.816340624317291,1.463000449177855e-06,1.160323452894293e-06,-3.053072499453833e-05,9.21620670073158e-06,8.866689307293576e-06
317.0320934813232,119.0513551972644,12.5,0,0.703218548307495,0.6441235411813115,-3.896827923010766,1.735000521638935e-06,1.498620493134201e-06,-3.117462338408613e-05,9.954098858602838e-06,9.700493620693191e-06
312.0630739492071,119.1945376118169,12.5,0,0.522163205227433,0.6817379648010096,-3.797422518103883,1.125531884886978e-06,1.763830923181284e-06,-3.037938014483106e-05,9.442363186794904e-06,1.008239432661966e-05
313.6597751038777,121.6319878922033,12.5,0,0.6566078221056283,0.8189971776964634,-3.886949079595224,1.44594728858084e-06,2.09550471094418e-06,-3.109559263676179e-05,1.024925524766891e-05,1.09988768456832e-05
311.6450564667572,112.2070294398232,12.5,0,-0.1706267813778325,0.6649766019831443,-3.819446204504293,-1.077986981995579e-06,2.264426551448328e-06,-3.055556963603434e-05,7.962715988388559e-06,7.583652010232992e-06
313.6168488652379,114.7122265388514,12.5,0,-0.1008086212146134,0.76917325058524,-3.877309051657154,-9.379261883549547e-07,2.542001298844459e-06,-3.101847241325723e-05,8.430427728212833e-06,8.299483307283822e-06
309.2975064248636,114.9727498853404,12.5,0,-0.1993707405826365,0.7814618171666754,-3.780812342834053,-1.263155823597777e-06,2.66017440739947e-06,-3.024649874267243e-05,8.089230201235439e-06,8.635965285967855e-06
310.8942075795341,117.4102001657269,12.5,0,-0.1198027820430925,0.8884696956413808,-3.847846453858847,-1.094144659051e-06,2.938945251686892e-06,-3.078277163087078e-05,8.606763838241476e-06,9.449254082427473e-06
315.7111324125543,107.4166611087415,12.5,0,-0.9612241121054176,0.4991666699536415,-3.796328991191144,-3.475250494700249e-06,2.366312633535986e-06,-3.037063192952915e-05,6.276822659993079e-06,6.079885238469807e-06
318.3326019027767,110.0391991397062,12.5,0,-0.9195209424335027,0.6465028867009495,-3.853062336055377,-3.459669325147968e-06,2.80442599138984e-06,-3.082449868844301e-05,6.704401630580049e-06,6.613348068190453e-06
313.3635823706607,110.1823815542587,12.5,0,-0.9295431463099318,0.6497989350977529,-3.73110498343382,-3.494377216269984e-06,2.822991109360754e-06,-2.984883986747056e-05,6.478163761139295e-06,6.898752425737901e-06
315.609960617073,112.7371727665816,12.5,0,-0.8859687033113619,0.8013493999590198,-3.797092356138407,-3.476179370563574e-06,3.273093042517952e-06,-3.037673884910726e-05,6.950963075481168e-06,7.539604580982097e-06
320.2516507600297,111.9590302230723,12.5,0,-0.1894450594505236,0.3143521079789812,-3.801048175336441,-8.577058766248604e-07,1.157482793093158e-06,-3.040838540269153e-05,7.183560827158829e-06,7.051437940819034e-06
322.8731202502521,114.581568254037,12.5,0,-0.09615496061119708,0.506980485915357,-3.886843967072819,-7.132802626881162e-07,1.6992615234181e-06,-3.109475173658255e-05,7.896705124355704e-06,7.714858901451932e-06
317.2544236263943,114.607409736653,12.5,0,-0.1859995608246577,0.5372764493082498,-3.74623044455683,-1.025019754085504e-06,1.868084286446125e-06,-2.996984355645464e-05,7.533694437641257e-06,8.05454699144962e-06
319.5008018728066,117.162200948976,12.5,0,-0.08515787962371849,0.7334273916580358,-3.842214338265718,-8.592471281223277e-07,2.415093957004689e-06,-3.073771470612574e-05,8.320286385310384e-06,8.820543664634494e-06
79.17457545814304,165.9920997571987,12.5,0,3.530382701577497,-1.467761454223619,0.07544729908956346,1.247143380842688e-05,-7.521142814777577e-06,6.035783927165077e-07,9.632746341404476e-06,8.752655402177859e-06
86.03524856629649,167.6601665985817,12.5,0,3.374292731882981,-1.561425192080488,0.299033962184953,1.204687689568993e-05,-7.695994800163947e-06,2.392271697479624e-06,8.882432309568728e-06,1.025361122729748e-05
79.92591262920831,174.8698398329757,12.5,0,4.172567986763644,-1.30212386072713,0.03104622757047359,1.439391664622536e-05,-7.50485074373773e-06,2.483698205637888e-07,1.241249168360955e-05,1.158085199884877e-05
86.61543163982698,175.1408954893389,12.5,0,4.13471557737204,-1.365793790034563,0.2484620433841793,1.432372487961817e-05,-7.678312590008233e-06,1.987696347073434e-06,1.212734482386679e-05,1.266609138041078e-05
91.05760985537277,168.8812762768431,12.5,0,4.283649308246304,-1.293918234473226,0.03860755726423715,1.474281237396675e-05,-7.567457796911366e-06,3.088604581138972e-07,1.285039329596346e-05,1.144429650485893e-05
97.91828296352622,170.5493431182261,12.5,0,4.147059778557731,-1.35407436591759,0.2411093839307054,1.435385078411881e-05,-7.650685793782473e-06,1.928875071445643e-06,1.220144391859069e-05,1.319635335399973e-05
91.51249943358954,175.3393220014672,12.5,0,4.683098577018338,-1.192684879126306,0.02028028838891275,1.594006334975972e-05,-7.563070474818847e-06,1.62242307111302e-07,1.461722021076015e-05,1.355368130566021e-05
98.20201844420819,175.6103776578303,12.5,0,4.654572718941771,-1.225809420861382,0.2205534595555256,1.587528023730277e-05,-7.64624832190984e-06,1.764427676444205e-06,1.443280097404668e-05,1.489338269626899e-05
91.84550171666362,180.066939589294,12.5,0,4.911263966451819,-1.400616414753623,-0.4412219284992726,1.683653782444872e-05,-8.410983700373046e-06,-3.529775427994181e-06,1.498019228288141e-05,1.504332536730125e-05
98.40972723196853,179.315312079524,12.5,0,4.991451226398676,-1.37627456244656,-0.1821624620606886,1.707366357443301e-05,-8.397239580947933e-06,-1.457299696485508e-06,1.53137345775991e-05,1.611815776962154e-05
92.30039129488036,186.5249853139181,12.5,0,5.448462594839236,-1.266552218762193,-0.4540760837748558,1.844832207849531e-05,-8.411737175910407e-06,-3.632608670198846e-06,1.735978126800759e-05,1.700372382826956e-05
98.69346271265047,184.3763466191282,12.5,0,5.681327614421899,-1.20404613140728,-0.1949503286645118,1.91434852712759e-05,-8.398009712040813e-06,-1.559602629316094e-06,1.838324344440285e-05,1.776727615573757e-05
80.4759296120198,181.3687966245587,12.5,0,4.556617108873342,-1.404837836079749,-0.4841344164811489,1.570504501725849e-05,-8.14077476255387e-06,-3.873075331849191e-06,1.364665400252637e-05,1.352678971067444e-05
87.04015512732471,180.6171691147887,12.5,0,4.597331974244941,-1.49562997733965,-0.2672362251758508,1.590796629945553e-05,-8.46388150688283e-06,-2.137889801406806e-06,1.353968244347541e-05,1.434897038863618e-05
81.22726678308507,190.2465367003358,12.5,0,5.237312544425865,-1.224855037139511,-0.5520151870078029,1.773928417187437e-05,-8.109386154387126e-06,-4.416121496062424e-06,1.668757502254932e-05,1.601499381130162e-05
87.6203382008552,188.0978980055459,12.5,0,5.407407676002389,-1.282410083943608,-0.3459035729761261,1.832963263036253e-05,-8.429638409421458e-06,-2.767228583809008e-06,1.714744316108857e-05,1.653420118918124e-05
177.7690078902579,328.5029233744146,12.5,0,0.8969352294693655,3.62821982927901,-2.175735818065763,-3.238312912123836e-08,1.089275527011734e-05,-1.74058865445261e-05,1.765261755359177e-05,1.81982470971447e-05
181.8976942891588,328.9335317170979,12.5,0,0.886439967062863,3.591417650873215,-2.169344423871025,-3.65262260974101e-08,1.0783384509144e-05,-1.73547553909682e-05,1.748115739723413e-05,1.769344199599009e-05
176.8293600572407,332.7027363875569,12.5,0,0.9077185483350079,3.623554682923458,-2.187826528742866,5.855608333258473e-09,1.086920014668706e-05,-1.750261222994293e-05,1.767891161333499e-05,1.735743986531555e-05
181.2334466846245,333.2137040893687,12.5,0,0.8977773727533941,3.589167344489678,-2.181711193638542,1.553717219118789e-09,1.076711360416425e-05,-1.745368954910833e-05,1.751820838151588e-05,1.681954555291237e-05
179.3965256782366,321.2286338534941,12.5,0,1.007267354330674,3.897086979012364,-2.361337846855162,1.055859506482652e-07,1.166486444937503e-05,-1.88907027748413e-05,1.911772679921086e-05,1.968566357335551e-05
183.0482048889977,321.5200557033054,12.5,0,1.001787924293189,3.875201792806031,-2.360642190597132,1.055599234933805e-07,1.159921539754475e-05,-1.888513752477705e-05,1.902055785076147e-05,1.9244291828218e-05
178.4568778452193,325.4284468666363,12.5,0,1.006062255485432,3.891826087945161,-2.370194913909752,1.059383471972524e-07,1.164899367703617e-05,-1.896155931127802e-05,1.910163991855479e-05,1.882209275949359e-05
182.3839572844633,325.8002280755762,12.5,0,1.000993738055312,3.871587707887949,-2.369438803147718,1.059097954666383e-07,1.158828567479718e-05,-1.895551042518175e-05,1.901172708225837e-05,1.834315080228838e-05
185.7214196041042,321.7333913037939,12.5,0,0.7766450636072353,3.901726453482787,-2.084773089896139,-6.361169592430772e-07,1.186420860025913e-05,-1.667818471916911e-05,1.820520660576687e-05,1.889156765141995e-05
189.3730988148653,322.0248131536052,12.5,0,0.7738418322826922,3.890926034448622,-2.083933797077903,-6.364469642542827e-07,1.183188984440944e-05,-1.667147037662322e-05,1.815627346628725e-05,1.836927902444629e-05
185.2587789592268,326.072390809808,12.5,0,0.777864912584366,3.900827620823768,-2.089227525710308,-6.314943763890437e-07,1.186035645656857e-05,-1.671382020568247e-05,1.820890009073371e-05,1.796062538825308e-05
189.1858583984707,326.444172018748,12.5,0,0.7752449783308495,3.890801916522856,-2.088393081666471,-6.31857602559566e-07,1.183037015020846e-05,-1.670714465333177e-05,1.816338756660848e-05,1.739448847908307e-05
184.9201025015444,329.2487589020916,12.5,0,0.6631964472073119,3.607918302838764,-1.881703305894832,-7.641060112076128e-07,1.101478141131819e-05,-1.505362644715865e-05,1.662996944627535e-05,1.72905080790311e-05
189.0487889004454,329.6793672447748,12.5,0,0.652685633712371,3.574900885061458,-1.87178148691836,-7.713266801695793e-07,1.091753432522677e-05,-1.497425189534688e-05,1.64690544294247e-05,1.66944772469142e-05
184.457461856667,333.5877584081057,12.5,0,0.6853116586923702,3.610221141509337,-1.892886884991297,-6.95179605391885e-07,1.100445832587598e-05,-1.514309507993038e-05,1.671534186171081e-05,1.639065580629433e-05
188.8615484840508,334.0987261099175,12.5,0,0.6752219352606321,3.579258597992612,-1.883468204615573,-7.026966855600664e-07,1.091344996536785e-05,-1.506774563692458e-05,1.656361849310874e-05,1.575680154004188e-05
214.683549273324,312.4307091699932,12.5,0,0.2393701583079492,3.675037984632102,-0.8730995993791966,-2.174045881120244e-06,1.156862542417636e-05,-6.984796795033573e-06,1.501807906534447e-05,1.562664778986018e-05
217.196631905714,311.4665700867764,12.5,0,0.2179666348135705,3.734230811048205,-0.9009395106550881,-2.289891417435138e-06,1.17751652875034e-05,-7.207516085240705e-06,1.518733961489501e-05,1.509211373204741e-05
216.1052173431105,316.4403521500512,12.5,0,0.1062856807562885,3.613237990740086,-0.8242312036469234,-2.550476214171945e-06,1.147733302576324e-05,-6.593849629175387e-06,1.435816966753236e-05,1.4361251938004e-05
218.6483915153394,314.8035070546331,12.5,0,0.06664777737570549,3.657109061412937,-0.8418359581912274,-2.712414361528092e-06,1.164943077462083e-05,-6.734687665529819e-06,1.441112861819183e-05,1.397785028472774e-05
219.0363360761641,310.7607712923289,12.5,0,0.1534573288735457,3.482735595351213,-0.6753267427973138,-2.295125023885624e-06,1.102198804202504e-05,-5.40261394237851e-06,1.395582906389953e-05,1.46882117646858e-05
221.549418708554,309.7966322091121,12.5,0,0.1479512170563948,3.581557991995277,-0.6914497047806948,-2.391802499015758e-06,1.134262460073977e-05,-5.531597638245558e-06,1.432070154703104e-05,1.411926512634271e-05
220.5101242218288,313.6052532807181,12.5,0,0.07415250981655641,3.420830234293605,-0.6296124540977556,-2.499376156021903e-06,1.088733474188629e-05,-5.036899632782045e-06,1.346402906833422e-05,1.368047379384886e-05
223.0532983940577,311.9684081852999,12.5,0,0.0528866251820963,3.493441296580699,-0.6340480558548051,-2.62551583668185e-06,1.113670284891256e-05,-5.07238444683844e-06,1.367790773700073e-05,1.325142776503297e-05
221.5890120240022,315.687558617345,12.5,0,0.2083910436437006,3.099073163971829,-0.5279161536978459,-1.812407191517621e-06,9.750321289794892e-06,-4.223329229582768e-06,1.261900030003212e-05,1.297995763680707e-05
224.1542147322702,313.5582585424594,12.5,0,0.1322108461364953,3.218182477734228,-0.5331044955025561,-2.151471274550598e-06,1.019241525184033e-05,-4.264835964020449e-06,1.284065544738675e-05,1.264591653766081e-05
223.0628001696668,318.5320406057342,12.5,0,0.07719496461839137,3.005782637186778,-0.4588589126249749,-2.15760222297057e-06,9.556748467302975e-06,-3.6708713009998e-06,1.184181269048949e-05,1.207384987500156e-05
225.6580944177739,315.7300345186473,12.5,0,-0.01278602295386377,3.096132313152106,-0.4518313304050482,-2.517821123974048e-06,9.917852220449829e-06,-3.614650643240386e-06,1.191308246501615e-05,1.185946646116611e-05
217.1459506016483,319.3756145315408,12.5,0,0.2578956080205381,3.191845750513968,-0.70918093578158,-1.728210654745452e-06,1.000758991522827e-05,-5.673447486252641e-06,1.318078359856265e-05,1.35003696416267e-05
219.7111533099165,317.2463144566552,12.5,0,0.1762928155151468,3.278490897138563,-0.7234002519062895,-2.058655708062381e-06,1.035013661843128e-05,-5.787202015250316e-06,1.326338274422798e-05,1.320890765597787e-05
218.5676186714348,323.3852575115989,12.5,0,0.07714264436230456,3.098621971134899,-0.6326596551353014,-2.232041114948545e-06,9.853876192141833e-06,-5.061277241082411e-06,1.224535486655957e-05,1.241379132034351e-05
221.1629129195419,320.5832514245119,12.5,0,-0.02115090037407918,3.16576589522414,-0.6356865795434828,-2.600295597376365e-06,1.014737158501651e-05,-5.085492636347863e-06,1.220543588801377e-05,1.222238077335802e-05
302.7697504364973,126.4615387586788,12.5,0,1.712005381084302,0.9833763868803728,-3.894038105046652,4.691716109965467e-06,1.777200133149751e-06,-3.115230484037322e-05,1.352655413056928e-05,1.422279797904683e-05
305.4153477949552,124.4287847085729,12.5,0,1.895005713691421,0.9091158846171019,-3.825988620679514,5.336725576118866e-06,1.393166259821589e-06,-3.060790896543611e-05,1.375759083946104e-05,1.301541603625447e-05
303.46747720281,128.8905541369767,12.5,0,1.973745138391969,1.080030585578149,-3.964809088646095,5.451959974391782e-06,1.877101763136501e-06,-3.171847270916876e-05,1.467352763712595e-05,1.542924212454571e-05
306.3589308322054,126.8525186949866,12.5,0,2.130196722532506,1.005508891867714,-3.897488411341664,6.012222398609848e-06,1.513471075950679e-06,-3.117990729073331e-05,1.483830585529692e-05,1.413958089678769e-05
301.5612522274647,122.2543607111763,12.5,0,0.9767524545123347,1.044155839304753,-3.875866998622146,2.290283182995669e-06,2.55989672216534e-06,-3.100693598897717e-05,1.162008243068885e-05,1.221883323222397e-05
303.781014033307,120.2307543001482,12.5,0,1.145729912722806,0.9980586167699212,-3.828881636209386,2.867888827297041e-06,2.277203643485503e-06,-3.063105308967508e-05,1.187358190602754e-05,1.115871215890772e-05
302.2589789937774,124.6833760894742,12.5,0,1.211558040970865,1.130193648646208,-3.938441249048112,2.9728308121898e-06,2.647373242891174e-06,-3.150752999238489e-05,1.258332060475667e-05,1.33625715090023e-05
304.7245970705573,122.654488286562,12.5,0,1.353211122504695,1.082309710147155,-3.891181394390022,3.4644278238973e-06,2.38082217446714e-06,-3.112945115512017e-05,1.277110775822799e-05,1.221669466522121e-05
305.4059924558153,118.7493715928165,12.5,0,0.4184895352858789,0.9157510573968481,-3.829366135082139,6.065656669973339e-07,2.595611755441211e-06,-3.063492908065711e-05,9.820019872840745e-06,1.040095913717451e-05
307.6257542616577,116.7257651817885,12.5,0,0.5289811699514296,0.8312803354313135,-3.812494731388897,1.027715475499524e-06,2.236912137419059e-06,-3.049995785111118e-05,9.84488677125904e-06,9.390860455438786e-06
306.5295547747436,121.1692393320366,12.5,0,0.5989386558559231,1.01680921423493,-3.906384751326793,1.10315632735101e-06,2.774638560867036e-06,-3.125107801061434e-05,1.063696857313687e-05,1.139001458342189e-05
308.9951728515234,119.1403515291244,12.5,0,0.6917876937376486,0.9325289325583016,-3.88638943548341,1.467697473913834e-06,2.430662429196446e-06,-3.109111548386728e-05,1.061842496032654e-05,1.027735944202602e-05
307.352059477634,122.9407054646672,12.5,0,1.155799062766966,0.832542949241613,-3.841983539371534,3.032522641461001e-06,1.739498187359589e-06,-3.073586831497228e-05,1.148439171528245e-05,1.214108958391396e-05
309.9976568360919,120.9079514145613,12.5,0,1.275028265775837,0.7096216381266799,-3.810855379814069,3.512393139981332e-06,1.250766629384706e-06,-3.048684303851255e-05,1.143565382433066e-05,1.095976723640903e-05
308.4756217965622,125.3605732038873,12.5,0,1.360940451496885,0.9478870493064853,-3.929913998740146,3.596699805344843e-06,1.944486196583245e-06,-3.143931198992117e-05,1.24882257659569e-05,1.320400919939296e-05
311.3670754259576,123.3225377618972,12.5,0,1.462641246295642,0.8267899049594883,-3.896328772347703,4.019020064178465e-06,1.475614698833849e-06,-3.117063017878162e-05,1.239433817365031e-05,1.193764101563644e-05
60.85164782504953,73.76531466302808,12.5,0,-7.861184841097624,-1.371816038565814,1.402296984332352,-2.405833866065974e-05,1.899136549467494e-06,1.121837587465882e-05,1.446527303633482e-06,1.892486095094866e-06
68.0215167951571,77.17809995714745,12.5,0,-7.931724603005533,-0.7779583096459843,1.46991228646761,-2.475915208190091e-05,3.855913091537276e-06,1.175929829174088e-05,1.735704364810336e-06,1.799685847723586e-06
55.61757398396136,78.78128354953056,12.5,0,-7.471007912029076,-0.8975839760184665,1.660065243799675,-2.318915813767827e-05,3.104537606364168e-06,1.32805219503974e-05,1.643001842048365e-06,1.756067173856726e-06
63.80090759417697,81.95544009833091,12.5,0,-7.497967756447116,-0.3004023949790786,1.74812781330951,-2.37531749046475e-05,5.03708654122464e-06,1.398502250647608e-05,1.977878462534633e-06,1.649940143638017e-06
69.91732964821855,65.07740170257721,12.5,0,-8.964934696694565,-0.8558165290654216,1.50894575964001,-2.800313780617027e-05,4.433334864346302e-06,1.207156607712008e-05,1.931879335219106e-06,2.240106788586363e-06
75.33182637001606,68.90350410772812,12.5,0,-9.063772385148051,-0.5865841156537077,1.519909559947803,-2.853480433995079e-05,5.373948738026576e-06,1.215927647958242e-05,2.088000699024173e-06,2.149449410635124e-06
64.68325580713037,70.09337058907968,12.5,0,-8.711202738074356,-0.5583841495905557,1.673514561865479,-2.742914144216549e-05,5.182132911769705e-06,1.338811649492383e-05,2.068857038747365e-06,2.022184118962307e-06
71.1112171690359,73.68084424891158,12.5,0,-8.773165625219795,-0.2781319699813012,1.70211693099798,-2.78516244247183e-05,6.128510196235671e-06,1.361693544798384e-05,2.239495372543062e-06,1.933528952423157e-06
79.29551306761843,71.70440546314101,12.5,0,-8.105118393474951,-0.7414627000591252,1.63810052824022,-2.534320869907254e-05,4.111414074590761e-06,1.310480422592176e-05,1.839214894817114e-06,2.096076491768819e-06
84.71000978941596,75.53050786829193,12.5,0,-8.323404832937641,-0.5608611070027156,1.720748092178732,-2.618620657979827e-05,4.863968323941422e-06,1.376598473742985e-05,2.00030564098671e-06,2.040916343622863e-06
75.81681147484034,76.30705723861195,12.5,0,-7.807776225580469,-0.5483751917759474,1.776247875526585,-2.454618376843674e-05,4.491420366781342e-06,1.420998300421268e-05,1.919160033331425e-06,1.890636615854744e-06
82.24477283674588,79.89453089844385,12.5,0,-7.961714243532232,-0.359488592297361,1.869662646784969,-2.518989470546525e-05,5.21900789947423e-06,1.495730117427975e-05,2.083014882551575e-06,1.862107739628665e-06
73.27022516466425,79.67643218766052,12.5,0,-7.03303930298136,-1.010104546268982,1.524178344037585,-2.169764213252516e-05,2.394096894324345e-06,1.219342675230068e-05,1.461152127342235e-06,1.759192039530323e-06
80.44009413477184,83.0892174817799,12.5,0,-7.251601092036484,-0.6900574217973794,1.703746820247306,-2.265307755707884e-05,3.593097123877573e-06,1.362997456197845e-05,1.711515579251418e-06,1.741361145520959e-06
69.79152357188616,84.27908396313146,12.5,0,-6.643409475278871,-0.764511774350819,1.701835111901364,-2.064730090141173e-05,2.868289902300476e-06,1.361468089521091e-05,1.556875532345823e-06,1.605518654531448e-06
77.97485718210179,87.4532405119318,12.5,0,-6.796456509046598,-0.443490502266449,1.886683452696477,-2.139386842713595e-05,4.01799559998464e-06,1.509346762157182e-05,1.819740281865168e-06,1.590283919557983e-06
317.1876681346777,185.7354784667716,12.5,0,11.07768547295946,-0.2005301146671563,-2.016963465200066,3.5609017605204e-05,-9.50384474530247e-06,-1.613570772160053e-05,4.226640392387958e-05,4.22170805230333e-05
318.9619478091745,184.5949337651905,12.5,0,11.06575159767273,-0.2041712723297695,-2.023992078694644,3.557374213041653e-05,-9.505949349593442e-06,-1.619193662955715e-05,4.221208347755141e-05,4.132526099533141e-05
317.8531259523294,188.1232188671548,12.5,0,11.05531785830631,-0.2058972815038018,-2.014942078388117,3.554173497178324e-05,-9.503125587457216e-06,-1.611953662710493e-05,4.216443024969071e-05,4.302484277224851e-05
319.7851014905112,186.8646274369408,12.5,0,11.04426374223637,-0.2092620599309769,-2.021369608824341,3.550905362310116e-05,-9.50504958556822e-06,-1.617095687059473e-05,4.211411872857984e-05,4.206339376564611e-05
316.0350613842318,181.5997907780972,12.5,0,10.64325236261485,-0.1521100189341205,-2.272613742355123,3.418009557551482e-05,-9.001353950681065e-06,-1.818090993884098e-05,4.083735757120579e-05,4.07690241243245e-05
317.5362038106875,180.6637090081721,12.5,0,10.63843352946358,-0.1532384497348032,-2.275504834335063,3.416557805407131e-05,-9.001109862722236e-06,-1.82040386746805e-05,4.081664651275893e-05,4.002527128721572e-05
316.7005192018835,183.9875311784805,12.5,0,10.63218380817521,-0.1549074562605832,-2.271414307785378,3.414691415116913e-05,-9.001450906574032e-06,-1.817131446228302e-05,4.078646421419037e-05,4.161263573806981e-05
318.3593574920243,182.9334026799224,12.5,0,10.62776765197342,-0.1559429043290703,-2.274013737564823,3.413361080977818e-05,-9.001231415431757e-06,-1.819210990051858e-05,4.076746374749021e-05,4.077914772317727e-05
318.6351163362036,179.978449592577,12.5,0,10.30223810699222,-0.1234812311672684,-2.343356912793253,3.30659469273089e-05,-8.63693042532903e-06,-1.874685530234602e-05,3.96509145285673e-05,3.948782361098853e-05
320.1362587626593,179.0423678226519,12.5,0,10.27447330607177,-0.1260550496570398,-2.35966474840344,3.297915861915528e-05,-8.622954803759941e-06,-1.887731798722752e-05,3.954369900525444e-05,3.876324209017237e-05
319.5737114018964,182.1617270613044,12.5,0,10.24120494438896,-0.1411832133765967,-2.331348895697383,3.288480239274595e-05,-8.644750238316276e-06,-1.865079116557906e-05,3.936166850191429e-05,4.016987350840285e-05
321.2325496920372,181.1075985627463,12.5,0,10.21580391212308,-0.1436156933043478,-2.345959287267086,3.280546507343734e-05,-8.632213348272379e-06,-1.876767429813669e-05,3.926325176142079e-05,3.933879341271928e-05
320.2608106776877,183.7599970953652,12.5,0,10.65149337183924,-0.2053068076612288,-2.088306059349682,3.424902423601454e-05,-9.178176481987321e-06,-1.670644847479746e-05,4.06487994516497e-05,4.067018445448337e-05
322.0350903521846,182.6194523937842,12.5,0,10.61912033129358,-0.2498139350410811,-2.110889734789078,3.418103620817233e-05,-9.294700857166325e-06,-1.688711787831262e-05,4.040006428481492e-05,3.977230158966585e-05
321.1994057433805,185.9432745640925,12.5,0,10.61668146101487,-0.1964759957740152,-2.098254363896393,3.413056147186678e-05,-9.12206835528874e-06,-1.678603491117115e-05,4.054565645212344e-05,4.135500948140199e-05
323.1313812815624,184.6846831338785,12.5,0,10.58686024297972,-0.2371624431189336,-2.118978869738964,3.406768273203024e-05,-9.22840801236436e-06,-1.695183095791171e-05,4.031744897075767e-05,4.038111663208387e-05
305.0169051665033,134.9574984393152,12.5,0,3.218420193558727,0.837826919019736,-3.883640968751264,9.628683084172136e-06,1.063099860161738e-07,-3.106912775001011e-05,1.778705364490925e-05,1.855859594832602e-05
308.0501575091514,133.1293942530883,12.5,0,3.388184869550961,0.7497918314898049,-3.787816749726275,1.024235811737123e-05,-3.11214034873393e-07,-3.03025339978102e-05,1.797531787595836e-05,1.722097941016458e-05
305.6336807799723,137.4254082987534,12.5,0,3.513247445192658,0.9391513282924779,-3.954784382386093,1.049107076198252e-05,1.946862943818031e-07,-3.163827505908874e-05,1.914392663474927e-05,1.986436982186453e-05
308.6916267310482,135.6982844192561,12.5,0,3.671477815868166,0.8471303091816744,-3.856156414438257,1.107102476343279e-05,-2.263652633131743e-07,-3.084925131550606e-05,1.928741349433017e-05,1.851774847689894e-05
303.9486184671247,130.682953174345,12.5,0,2.443158215479779,0.9149350767029483,-3.900565769919886,7.086158228172934e-06,9.732656730656111e-07,-3.120452615935909e-05,1.55485588505761e-05,1.633782086560334e-05
306.9391002253544,128.6799459663015,12.5,0,2.639432836369259,0.8516059715510369,-3.804009215190151,7.764900299140798e-06,6.135928398679109e-07,-3.043207372152121e-05,1.585490586187148e-05,1.501497002889839e-05
304.5653940805937,133.1508630337831,12.5,0,2.739769099215197,1.013218770158095,-3.966383057587151,7.956686101362152e-06,1.050484785133747e-06,-3.173106446069721e-05,1.685334191219139e-05,1.761366000345642e-05
307.5805694472512,131.2488361324693,12.5,0,2.924446450640406,0.9460276504723103,-3.867232145185083,8.60140652167145e-06,6.877313209990681e-07,-3.093785716148066e-05,1.712307999040768e-05,1.628241275378691e-05
309.1282848113934,127.2136429221494,12.5,0,1.823781513222672,0.7323520236395921,-3.875455728902802,5.250219223400877e-06,8.845012650685567e-07,-3.100364583122242e-05,1.313801330543046e-05,1.405687260706408e-05
312.1187665696231,125.2106357141059,12.5,0,2.040397919490709,0.7143036798572084,-3.762742457180648,5.957830398484501e-06,6.534534399504997e-07,-3.010193965744519e-05,1.356108622862091e-05,1.276215260860567e-05
309.7878310092808,129.856455803404,12.5,0,2.151307023439432,0.830766641242749,-3.932194456975359,6.219569162011982e-06,9.374076332252512e-07,-3.145755565580287e-05,1.446146453297593e-05,1.532401915335799e-05
312.8030063759383,127.9544289020902,12.5,0,2.35593157053804,0.8091033520498691,-3.817382745124583,6.891698344081831e-06,7.043854701291492e-07,-3.053906196099666e-05,1.48637025810986e-05,1.403688639289552e-05
310.2706523360528,131.7911291072976,12.5,0,2.63626889321872,0.6399285846707129,-3.841377892228719,7.924117590563332e-06,-6.12436436286945e-08,-3.073102313782975e-05,1.529708333545605e-05,1.626774520737715e-05
313.3039046787008,129.9630249210707,12.5,0,2.830369054391453,0.654456605882285,-3.723161243265347,8.533615689346821e-06,-1.7003410468985e-07,-2.978528994612278e-05,1.579704085966848e-05,1.500107747190018e-05
310.9301985339401,134.4339419885523,12.5,0,2.943261346702398,0.7243517893148821,-3.882218181771289,8.838954877995764e-06,-3.668335155429525e-08,-3.105774545417031e-05,1.656512515435875e-05,1.75789061891997e-05
313.988144485016,132.706818109055,12.5,0,3.126117457917589,0.7357822455820596,-3.762485524374756,9.414950068870637e-06,-1.463907804714806e-07,-3.009988419499805e-05,1.703919243554302e-05,1.636056270376772e-05
315.146712881415,177.37193702436,12.5,0,10.03932987248061,-0.109655415064474,-2.508552196692719,3.221357992398954e-05,-8.382361226190807e-06,-2.006841757354176e-05,3.875715741585881e-05,3.909468040944789e-05
317.0966850187023,176.3885158135947,12.5,0,10.08852434812706,-0.08194123758613259,-2.471919689807408,3.234883090407549e-05,-8.333031438777271e-06,-1.977535751845926e-05,3.901202644434859e-05,3.821136985749269e-05
315.6187202354809,179.8271476671037,12.5,0,10.16917285798015,-0.0815376328449382,-2.50896021180896,3.260658325181243e-05,-8.396258711487921e-06,-2.007168169447168e-05,3.933385714030282e-05,4.009434002746361e-05
317.1978717411664,178.9100118578411,12.5,0,10.23723907973814,-0.04579358793428501,-2.463884752622802,3.279579992550947e-05,-8.336330745180223e-06,-1.971107802098242e-05,3.968154134050672e-05,3.933723728178444e-05
314.3291721626415,173.1193874479205,12.5,0,9.417930498127667,-0.03448507581727567,-2.728570565116168,3.016496565466236e-05,-7.644696641117416e-06,-2.182856452092935e-05,3.672346866644463e-05,3.728655129742459e-05
316.9214244743462,172.0211565539546,12.5,0,9.494872410224946,-0.01536193670913377,-2.660458265012111,3.039588126208713e-05,-7.645056125649185e-06,-2.128366612009689e-05,3.704062934525458e-05,3.618247777766314e-05
314.8011795167074,175.5745980906642,12.5,0,9.610472768021701,0.01367337855314599,-2.742498636436959,3.074257415482692e-05,-7.644623403047293e-06,-2.193998909149567e-05,3.760117187814031e-05,3.834233568674014e-05
317.0226111968103,174.5426525982009,12.5,0,9.708058144744248,0.03793978666983966,-2.663719120243901,3.103543423384572e-05,-7.64503919845191e-06,-2.130975296195121e-05,3.800804389526715e-05,3.736605459607528e-05
318.8190848724712,171.2171957411639,12.5,0,8.881402600797434,-0.168861262299794,-2.781873493568193,2.855557733239162e-05,-7.645478119997287e-06,-2.225498794854554e-05,3.432625755788006e-05,3.540807700556691e-05
321.4113371841759,170.118964847198,12.5,0,9.003731093670842,-0.1208585073442268,-2.674754709195009,2.890862630562207e-05,-7.589732098438199e-06,-2.139803767356007e-05,3.487764381803894e-05,3.439644827045097e-05
318.6488120521196,173.7872160671083,12.5,0,9.19229484661232,-0.08984786039195791,-2.766367581988306,2.948722179747299e-05,-7.641349030544121e-06,-2.213094065590645e-05,3.572459041969784e-05,3.668429452482754e-05
320.8702437322226,172.755270574645,12.5,0,9.350182098479385,-0.02980152384667489,-2.639519190574024,2.994442393421137e-05,-7.575510555092867e-06,-2.111615352459219e-05,3.644108352023584e-05,3.579797246219262e-05
318.5241636964796,175.6686015221042,12.5,0,9.591282388351194,-0.1909294249989935,-2.602573605777636,3.084484718272301e-05,-8.284000070677734e-06,-2.082058884622109e-05,3.685719657626106e-05,3.759240545257486e-05
320.4741358337668,174.685180311339,12.5,0,9.685591975423433,-0.1236590833279925,-2.532297553572218,3.109282158801738e-05,-8.144182646988322e-06,-2.025838042857774e-05,3.73841975752123e-05,3.678467380214604e-05
318.353890876128,178.2386218480486,12.5,0,9.847596759183777,-0.1223449700122328,-2.569031540485618,3.161018560539786e-05,-8.269581311386165e-06,-2.055225232388495e-05,3.801722344174164e-05,3.87971931269339e-05
319.9330423818136,177.321486038786,12.5,0,9.982582789448777,-0.03339496020933552,-2.478553660454057,3.197098089440355e-05,-8.092930104228895e-06,-1.982842928363246e-05,3.875781989470903e-05,3.807886780316807e-05
306.8302798093766,143.6099946208398,12.5,0,4.786732684324901,0.6548151693827058,-3.806055268966457,1.479369245433352e-05,-1.733977605435262e-06,-3.044844215173165e-05,2.249964916475888e-05,2.324108653571073e-05
309.0660778988061,142.4142059721753,12.5,0,4.918785670990453,0.6554212821709532,-3.714340412080616,1.521577712143268e-05,-1.837680433845312e-06,-2.971472329664493e-05,2.287549274829105e-05,2.224243338925378e-05
307.2930101340509,146.1271904170933,12.5,0,5.152758011634548,0.7545608225205712,-3.849064261773254,1.588517697921409e-05,-1.70761177724181e-06,-3.079251409418603e-05,2.412609853448663e-05,2.461398183396029e-05
309.1326422762368,145.1670337586421,12.5,0,5.309508449503962,0.7542649530916117,-3.737118890936126,1.638701507593939e-05,-1.833958909710012e-06,-2.989695112748901e-05,2.457698656288557e-05,2.379469802455152e-05
306.0288073768521,139.2500836092084,12.5,0,3.961274694507233,0.7509616032815161,-3.850559143664026,1.207530973979793e-05,-7.659426251049352e-07,-3.080447314931221e-05,1.997884505261032e-05,2.084870465471093e-05
308.950785015124,137.6461683816132,12.5,0,4.141008685233502,0.734685180536266,-3.730059360811859,1.266347964831819e-05,-9.618143704707505e-07,-2.984047488649487e-05,2.041443015392895e-05,1.955914391213845e-05
306.4915377015265,141.7672794054619,12.5,0,4.323006479017986,0.8526953500008707,-3.899877508575702,1.315146445285685e-05,-7.297800632116019e-07,-3.119902006860562e-05,2.157206828473489e-05,2.223218355628293e-05
309.0173493925547,140.3989961680799,12.5,0,4.528240397624359,0.8330959808182248,-3.76008203131729,1.382389248774337e-05,-9.566851794811683e-07,-3.008065625053832e-05,2.208065123879644e-05,2.11075200853697e-05
311.0898211048282,136.47202094403,12.5,0,3.338772917642501,0.4732239123985683,-3.840270990670947,1.030549420653715e-05,-1.156701814438582e-06,-3.072216792536758e-05,1.708591895323346e-05,1.866896947702654e-05
314.0117987431,134.8681057164348,12.5,0,3.592190642503771,0.4705120064931773,-3.669614499052671,1.111860045081752e-05,-1.368114093224849e-06,-2.935691599242137e-05,1.771174051636014e-05,1.752652843517094e-05
310.8663718806602,139.3973433192141,12.5,0,3.912448851917832,0.6107637301643928,-3.854580834104901,1.203122534200555e-05,-1.175515145008209e-06,-3.083664667283921e-05,1.940878329996955e-05,2.03359167811391e-05
313.3921835716883,138.0290600818323,12.5,0,4.200883558918673,0.6066080901031834,-3.657362398269714,1.295754091645721e-05,-1.419560958804752e-06,-2.925889918615771e-05,2.016642581045965e-05,1.935252082151666e-05
310.7027956956643,141.538827926276,12.5,0,4.335708164047333,0.484091160669136,-3.849182224090441,1.348699319641616e-05,-1.919474817096631e-06,-3.079345779272353e-05,2.047987847705765e-05,2.155433733004921e-05
312.9385937850939,140.3430392776115,12.5,0,4.507131925964058,0.5278923671867818,-3.728963386531373,1.400050826933556e-05,-1.916449965773544e-06,-2.983170709225098e-05,2.107221749482434e-05,2.06730770821914e-05
310.4793464714964,144.4641503014601,12.5,0,4.848443205413347,0.6123905897360512,-3.83389051460619,1.502510578553387e-05,-1.919104677175314e-06,-3.067112411684952e-05,2.261820153454483e-05,2.321617687068655e-05
312.3189786136822,143.5039936430089,12.5,0,5.050980734807817,0.6641693869320899,-3.688349861250277,1.563180284183934e-05,-1.915442549663566e-06,-2.950679889000222e-05,2.334398944769131e-05,2.245491149441564e-05
222.9855016579016,559.1437526888874,12.5,0,0.02089874167721125,-0.01359696169255975,0.01553325138507782,7.775354272112378e-08,-6.022927075796018e-08,1.242660110806226e-07,5.757281992915328e-08,1.413110334343681e-07
235.440978909756,558.7402243389998,12.5,0,-0.006377399626416778,-0.1222476282429179,0.01281258577748257,7.73904237898006e-08,-3.860904906762038e-07,1.025006862198606e-07,2.730667477095171e-08,2.844032207061361e-08
223.0121366912377,569.4954912673612,12.5,0,0.0179632558488963,-0.01412104180667224,-0.01707812800353433,6.877925216180595e-08,-5.95579384604682e-08,-1.366250240282746e-07,5.026762979416152e-08,8.783159028942103e-08
235.4481157454285,568.699009755261,12.5,0,-0.009471222740396808,-0.1229603360744332,-0.02109380546296192,6.806035609027678e-08,-3.858960972458688e-07,-1.687504437036954e-07,2.769411747397429e-08,2.723183160379603e-08
201.4119822255592,559.8426842931742,12.5,0,0.04455482805498021,0.117758715978248,-0.02600394192660899,4.836847699333823e-08,3.411840286864095e-07,-2.080315354128719e-07,5.999213596707414e-07,7.593987389810509e-07
213.8674594774135,559.4391559432869,12.5,0,0.02719715381480244,0.04863165294258522,-0.02778073858118316,4.812556985329963e-08,1.338635663644307e-07,-2.222459086494653e-07,2.853558314361159e-07,3.371707509401559e-07
201.472389127904,570.8750377135834,12.5,0,0.04249805297064542,0.1175479459627703,-0.04816574873921208,4.195541273584909e-08,3.421549847043486e-07,-3.853259899136966e-07,6.011006258541494e-07,6.01056554156037e-07
213.9083681820948,570.0785562014831,12.5,0,0.02503909182359435,0.04831311545167453,-0.05076603284639262,4.14746014741623e-08,1.34570695986483e-07,-4.06128262771141e-07,2.963907043430119e-07,2.415874612895218e-07
201.3073544015719,540.7340876423128,12.5,0,0.04168591469678784,0.1911474766802625,-0.06641746905400497,-1.95230543144889e-08,5.783231936194096e-07,-5.313397524320398e-07,8.82118727999334e-07,1.05156037935685e-06
213.796603522435,541.0111741343604,12.5,0,0.01778814576627854,0.09686868153553378,-0.05971891721795677,-2.05728787763357e-08,2.957492643006852e-07,-4.777513377436541e-07,4.533796337607345e-07,5.396779494942118e-07
201.3677613039168,551.7664410627218,12.5,0,0.05525192905989257,0.1949514582205023,-0.09657809511798228,2.084500641525438e-08,5.796431230576933e-07,-7.726247609438582e-07,9.567697082690974e-07,8.801108751269834e-07
213.8375122271162,551.6505743925568,12.5,0,0.03182094661879634,0.1006772284069012,-0.09098430054735425,2.128524645462732e-08,2.967103736070468e-07,-7.27874404378834e-07,5.387987722615714e-07,4.170438565235159e-07
222.9393684269029,541.2140155246217,12.5,0,0.01827233216055443,0.01976385062925074,0.002161543663450096,4.266038241037359e-08,4.862645628515882e-08,1.729234930760077e-08,1.381040434424968e-07,2.688862858071814e-07
235.428617547766,541.4911020166694,12.5,0,-0.01474851544462238,-0.1116807693586825,0.00613393565359603,4.21493660641544e-08,-3.455796495920861e-07,4.907148522876824e-08,2.010278972073492e-08,4.095213217929502e-08
222.9660034602391,551.5657541030957,12.5,0,0.02447132076106667,0.02156672836579479,-0.03719617838530231,6.105484374277751e-08,4.943647416168998e-08,-2.975694270824185e-07,1.910260496690131e-07,1.898244928827049e-07
235.4357543834386,551.4498874329306,12.5,0,-0.008355703034768725,-0.1100092837144966,-0.03477134507257018,6.126917726033732e-08,-3.45345145458574e-07,-2.781707605805614e-07,3.073756429111948e-08,3.211666552961642e-08
308.8094906496643,151.9000692693052,12.5,0,6.312141539041247,0.4924333016517284,-3.60923874925657,1.980490628361061e-05,-3.473926665947466e-06,-2.887390999405256e-05,2.729138172938253e-05,2.756154294392855e-05
310.7009074029648,150.3464421160864,12.5,0,6.352937132366028,0.486011990204714,-3.594051655034318,1.994058923140752e-05,-3.527111337237737e-06,-2.875241324027454e-05,2.740838215315198e-05,2.638180727879802e-05
309.4515595385009,154.2124358165154,12.5,0,6.370370872699702,0.5117643781858938,-3.622046265938726,1.997577529009033e-05,-3.458650687964901e-06,-2.897637012750981e-05,2.75710287582963e-05,2.869725300183754e-05
311.4367724136266,152.3348367382238,12.5,0,6.413016955912549,0.5075492506699795,-3.609192552043062,2.011561485838417e-05,-3.506255962586104e-06,-2.887354041634449e-05,2.77033431691221e-05,2.731969149631469e-05
307.6973947122598,147.8949329238865,12.5,0,5.625372194648598,0.5738891683162358,-3.722661456979795,1.754207968822252e-05,-2.663852417106923e-06,-2.978129165583836e-05,2.515217522851546e-05,2.554534804508041e-05
309.4263518170093,146.9024416051095,12.5,0,5.691277383632942,0.5376069108315418,-3.682531444985481,1.778200209896018e-05,-2.83267979224542e-06,-2.946025155988385e-05,2.524503442130565e-05,2.471697314529675e-05
308.3394636010965,150.2072994710967,12.5,0,5.783160551189965,0.6294752222454678,-3.761892433295117,1.800253358601151e-05,-2.612207729766475e-06,-3.009513946636093e-05,2.591821775944773e-05,2.671699255617211e-05
310.1622168276712,148.8908362272469,12.5,0,5.859013377595495,0.6022015929750616,-3.729463960498605,1.826708153392553e-05,-2.760165604556199e-06,-2.983571168398884e-05,2.608106800664979e-05,2.568441099853881e-05
310.6920362617394,146.1758875337246,12.5,0,5.290600903871231,0.5447212886974032,-3.720558984530835,1.649414586143001e-05,-2.489372599265294e-06,-2.976447187624668e-05,2.386928899484668e-05,2.41205875569303e-05
312.4209933664889,145.1833962149475,12.5,0,5.332465359062756,0.5185998942040844,-3.695237843061162,1.664900923363755e-05,-2.606452625797135e-06,-2.956190274448929e-05,2.391744524072668e-05,2.331960672832571e-05
311.4965647991272,147.9271182464929,12.5,0,5.366162343126684,0.5770647162284408,-3.744671907117913,1.671006772502263e-05,-2.446322782570336e-06,-2.99573752569433e-05,2.425622429955985e-05,2.492964396212419e-05
313.3193180257017,146.6106550026432,12.5,0,5.412651876704106,0.5578682014521571,-3.725169976398512,1.687419144429141e-05,-2.544943256716382e-06,-2.98013598111881e-05,2.434689856935423e-05,2.390016362830689e-05
312.085520564609,149.20910810396,12.5,0,5.766487156340625,0.4425009312969066,-3.619452282822583,1.809875815525247e-05,-3.197186744922399e-06,-2.895561826258067e-05,2.517801760872205e-05,2.551737224537303e-05
313.9769373179095,147.6554809507412,12.5,0,5.74504854220001,0.3858271394466029,-3.639852583534427,1.807549362348275e-05,-3.361391987530878e-06,-2.911882066827542e-05,2.495101425930814e-05,2.433542747924357e-05
312.8900491019967,150.9603388167284,12.5,0,5.764088840217775,0.4598245061362694,-3.63382115444032,1.807722468378786e-05,-3.139832652538158e-06,-2.907056923552256e-05,2.523315497050551e-05,2.631401937112848e-05
314.8752619771224,149.0827397384369,12.5,0,5.744417712115115,0.4102681830804251,-3.653788435960509,1.805392213230403e-05,-3.282675983834731e-06,-2.923030748768407e-05,2.503306936336654e-05,2.494403353477004e-05
112.6492491668545,195.9152872443326,12.5,0,6.874564239509446,-0.9691242195672929,-1.246136743731784,2.277390494208406e-05,-8.600848894222893e-06,-9.96909394985427e-06,2.377992930478643e-05,2.422211514477112e-05
115.0807459706514,195.1125629579032,12.5,0,6.988535837770687,-0.9094894293292335,-1.121997492909036,2.309090622432958e-05,-8.501194844070097e-06,-8.975979943272288e-06,2.43440791485039e-05,2.473437547868121e-05
112.513041890552,199.4855349577796,12.5,0,7.246860954035905,-0.8746694678555902,-1.226340787846268,2.388969062719936e-05,-8.596431060366611e-06,-9.81072630277014e-06,2.545564135739596e-05,2.498241621085054e-05
115.5526166656377,198.4425831237269,12.5,0,7.341239177283801,-0.8261943075853906,-1.127031303236619,2.415292081337647e-05,-8.51681312610029e-06,-9.01625042589295e-06,2.592541365197801e-05,2.565009395915225e-05
112.4133312439423,202.0991376795184,12.5,0,7.150991273795277,-0.8688722215025748,-1.592419905451531,2.357826985334694e-05,-8.50118412784446e-06,-1.273935924361225e-05,2.523135096137599e-05,2.548873695110996e-05
115.8980499889559,200.8803270752352,12.5,0,7.285153338950291,-0.8159969463581984,-1.451398682820113,2.396528824172749e-05,-8.439312899506467e-06,-1.16111894625609e-05,2.583926454800322e-05,2.627915149586434e-05
112.2771239676397,205.6693853929656,12.5,0,7.4704796453453,-0.7883615382284526,-1.581156123314472,2.453622409568772e-05,-8.499140638607288e-06,-1.264924898651578e-05,2.666706804358873e-05,2.611172987240395e-05
116.3699206839422,204.2103472410589,12.5,0,7.586747221046596,-0.7428431674470231,-1.461120297652446,2.487186564130672e-05,-8.446495912667749e-06,-1.168896238121957e-05,2.719778837382227e-05,2.708205016664791e-05
106.3776213275994,204.2101795709028,12.5,0,6.821276722885139,-0.9941786591787307,-1.664080927633944,2.262342844057543e-05,-8.638393087680049e-06,-1.331264742107155e-05,2.366231507927614e-05,2.42395463134245e-05
109.8623400726131,202.9913689666195,12.5,0,6.948622957515094,-0.9075525800427966,-1.535544096478022,2.296163552808254e-05,-8.463066622149024e-06,-1.228435277182418e-05,2.433441708910024e-05,2.494222638961388e-05
105.1881921100801,208.1965136022037,12.5,0,7.137717196096691,-0.8992332150056157,-1.607917856553206,2.35600815995139e-05,-8.587720044895322e-06,-1.286334285242565e-05,2.510133202787542e-05,2.471869532826333e-05
109.2809888263826,206.7374754502972,12.5,0,7.248360388924385,-0.824766594928096,-1.497984859485366,2.385456652050051e-05,-8.437941414909414e-06,-1.198387887588293e-05,2.569081433433165e-05,2.547847085205032e-05
108.4377731643126,197.3056464928728,12.5,0,6.75548150487162,-1.022751098591269,-1.262265903602597,2.24357416944622e-05,-8.677188719389357e-06,-1.009812722882077e-05,2.318341482036606e-05,2.342621745928687e-05
110.8692699681095,196.5029222064434,12.5,0,6.839470299879355,-0.9657268293550276,-1.1730186379919,2.265888642309795e-05,-8.561902093839571e-06,-9.384149103935203e-06,2.363365366841712e-05,2.387159525991302e-05
107.2483439467933,201.2919805241737,12.5,0,7.052715004269766,-0.9344394924141857,-1.21065334221736,2.331623960759459e-05,-8.632378379141206e-06,-9.685226737738881e-06,2.454343556094338e-05,2.389322791220794e-05
110.2879187218791,200.2490286901209,12.5,0,7.122691315322464,-0.8879396400431474,-1.138648731521642,2.35029639210664e-05,-8.539559900396041e-06,-9.109189852173137e-06,2.492037446768501e-05,2.45116653723768e-05
300.3914610307662,118.1805730496229,12.5,0,0.2569372307416838,1.094112656505849,-3.837765795099883,-5.309098683129051e-08,3.295610716225368e-06,-3.070212636079907e-05,9.90021582729225e-06,1.041226947201471e-05
302.2911368083035,116.5305435893424,12.5,0,0.4032403953926367,1.051912049315933,-3.792901417345143,4.48839625803691e-07,3.043526241496876e-06,-3.034321133876114e-05,1.006085015285415e-05,9.641633972146466e-06
301.0608522974408,120.5119398881637,12.5,0,0.4682580328043368,1.17100349335503,-3.893347691655494,5.61622910289854e-07,3.372604752492625e-06,-3.114678153324395e-05,1.069110455263551e-05,1.142830218400986e-05
303.1289703212432,118.5898482640864,12.5,0,0.608834092516324,1.136065528886593,-3.855139506472709,1.039416672942963e-06,3.148342418424037e-06,-3.084111605178167e-05,1.088301497670545e-05,1.046872672575869e-05
299.2320413467638,114.1425272342616,12.5,0,-0.4699898868586243,1.122849293145018,-3.801749210660931,-2.402247072463612e-06,3.969109647550956e-06,-3.041399368528745e-05,8.366526002172721e-06,8.801839729263459e-06
300.839966595634,112.9637232644857,12.5,0,-0.340936973995857,1.072143372121859,-3.748750466408159,-1.948713014484229e-06,3.703608369986632e-06,-2.999000373126527e-05,8.40799256737412e-06,8.32041475094695e-06
299.9014326134384,116.4738940728024,12.5,0,-0.2108414995665071,1.216679593895214,-3.869279059921316,-1.648036473728994e-06,4.062047900117889e-06,-3.095423247937053e-05,9.225500667600203e-06,9.708510978336652e-06
301.6778001085738,115.0230279392298,12.5,0,-0.08430670242640781,1.176553433643883,-3.8258413157664,-1.211024194679611e-06,3.832416349601551e-06,-3.06067305261312e-05,9.321317357016345e-06,9.065995513423465e-06
302.0170495725298,112.1007788664826,12.5,0,-0.7710770135791856,1.070674674335871,-3.770636636658104,-3.32398618292209e-06,4.043020568738134e-06,-3.016509309326483e-05,7.646964534372888e-06,7.983982508735013e-06
303.6249748214001,110.9219748967067,12.5,0,-0.6932695738848602,1.002815793408012,-3.744531507570971,-3.020715271157961e-06,3.763626198013525e-06,-2.995625206056777e-05,7.589684185249545e-06,7.546257507985115e-06
302.9781913678714,113.9609202145188,12.5,0,-0.6276750361144594,1.149677359953217,-3.829598826220252,-2.928302003528843e-06,4.181107580741861e-06,-3.063679060976202e-05,8.180397800477256e-06,8.607802240680786e-06
304.7545588630068,112.5100540809462,12.5,0,-0.5522145092335636,1.094796336346153,-3.810016608414059,-2.642923498624326e-06,3.945119883694542e-06,-3.048013286731247e-05,8.162163552487325e-06,7.998510404721494e-06
303.6817959953095,115.322638190483,12.5,0,-0.2027182400963225,0.9948013963387642,-3.789532602943709,-1.444539485379243e-06,3.345539060361103e-06,-3.031626082354967e-05,8.578334083553585e-06,9.090318420543709e-06
305.5814717728468,113.6726087302025,12.5,0,-0.1258121221382701,0.9013599659917585,-3.782502631826864,-1.123686763635871e-06,2.985001588884243e-06,-3.026002105461491e-05,8.507922307388679e-06,8.354731822366331e-06
304.642937790651,117.1827795385191,12.5,0,-0.0863484889750688,1.07275247911958,-3.847379652959968,-1.134517148015884e-06,3.501886724362711e-06,-3.077903722367974e-05,9.104299047130876e-06,9.784757407513532e-06
306.7110558144535,115.2606879144419,12.5,0,-0.01244974791771752,0.9925699338615277,-3.843623503116281,-8.338951404259182e-07,3.186183586691062e-06,-3.074898802493025e-05,9.064589627018878e-06,8.875693937421234e-06
172.7440906027952,319.6835713466659,12.5,0,1.264688840903607,3.829048746909851,-2.644878859834982,9.837652933636609e-07,1.124120491738864e-05,-2.115903087867985e-05,1.991388158837961e-05,2.059186499816639e-05
176.6355465766165,320.7365493532355,12.5,0,1.246402841143481,3.797266296133639,-2.626647835791344,9.506760547522286e-07,1.115412987471286e-05,-2.101318268633075e-05,1.97268523187952e-05,2.004674471597379e-05
171.5965644356688,323.8686436432017,12.5,0,1.305356651988042,3.83138989895878,-2.651899086956035,1.11202936719471e-06,1.121616235507766e-05,-2.121519269564828e-05,2.005767969437751e-05,1.973433745934538e-05
175.5664046430375,324.9108803778852,12.5,0,1.287682992984564,3.800191273510475,-2.634042869466646,1.080432558742226e-06,1.113046568084587e-05,-2.107234295573317e-05,1.987493129374014e-05,1.919486010076136e-05
170.7565169783532,326.9323291974846,12.5,0,1.149052669148052,3.581283485232403,-2.451128831420664,8.119417530878424e-07,1.054086501742525e-05,-1.960903065136531e-05,1.849923773572758e-05,1.911351880403855e-05
174.7837384271885,327.9667027754099,12.5,0,1.130419884789793,3.541037321140212,-2.434124105216889,7.845137744151673e-07,1.042698351981684e-05,-1.947299284173511e-05,1.828181073293081e-05,1.857875553103961e-05
169.6089908112268,331.1174014940204,12.5,0,1.182517769551692,3.579752328920383,-2.461854987733399,9.202549994291088e-07,1.050919323690387e-05,-1.969483990186719e-05,1.860902689805496e-05,1.827493823420258e-05
173.7145964936095,332.1410338000596,12.5,0,1.164435846802999,3.540192631703043,-2.445217864360918,8.940406044071608e-07,1.039706774400734e-05,-1.956174291488735e-05,1.839607120077039e-05,1.774741115892529e-05
163.7811648157646,325.1407416065434,12.5,0,1.431264164989164,3.482763347191423,-2.705956722699453,1.793834650212187e-06,9.99983137902122e-06,-2.164765378159562e-05,1.926484620675682e-05,1.98843653492858e-05
167.8083862645999,326.1751151844687,12.5,0,1.424826988377028,3.474746938528881,-2.6983945893601,1.779648811983385e-06,9.979328612590793e-06,-2.15871567148808e-05,1.920925793868487e-05,1.946335590045687e-05
162.4978731736242,329.3444183317235,12.5,0,1.449494295433093,3.485327600155671,-2.706420651282,1.85011966526136e-06,9.993452884151673e-06,-2.1651365210256e-05,1.93328966123278e-05,1.903926406746916e-05
166.603478856007,330.3680506377627,12.5,0,1.443290152864299,3.477465666994689,-2.698991063122336,1.836555955570007e-06,9.973258012091563e-06,-2.159192850497869e-05,1.927871005920909e-05,1.862108917777594e-05
166.0038911408403,317.8597599400676,12.5,0,1.587214623563604,3.729234416189646,-2.908598844650527,2.095699262451815e-06,1.066377843295598e-05,-2.326879075720422e-05,2.081360707532778e-05,2.141418600155444e-05
169.8953471146616,318.9127379466372,12.5,0,1.581314176935663,3.719681213592999,-2.902532624919577,2.084460395319723e-06,1.063792854194907e-05,-2.322026099935662e-05,2.075557571433388e-05,2.095826978632329e-05
164.7205994986999,322.0634366652477,12.5,0,1.601112325897567,3.730109951139434,-2.910333778626805,2.139471481960666e-06,1.065546198292813e-05,-2.328267022901444e-05,2.08629740973266e-05,2.05207237635911e-05
168.6904397060686,323.1056733999311,12.5,0,1.595412473929156,3.720731317684715,-2.904386597974341,2.128734862425527e-06,1.063001023744776e-05,-2.323509278379473e-05,2.080630306604706e-05,2.008960155706333e-05
346.3208566924594,207.3507725871024,12.5,0,12.09447070872504,-0.3397005565362372,-1.046267867333935,3.897406671314911e-05,-1.076261834789599e-05,-8.370142938671481e-06,4.553057510837017e-05,4.503668954292916e-05
350.0916875144387,210.0609121304072,12.5,0,11.79818302466186,-0.3176824446647029,-0.905929353171316,3.800833163464972e-05,-1.045513024265654e-05,-7.247434825370528e-06,4.444059494565299e-05,4.5264639761353e-05
344.5731046826256,212.7627120945648,12.5,0,12.87040240834715,-0.09293438984736335,-0.8886264806659506,4.125963521858875e-05,-1.059371197418928e-05,-7.109011845327605e-06,4.922870600133575e-05,4.742317519497524e-05
347.9167427010617,215.9187502389034,12.5,0,12.47366023985119,-0.09612783375072187,-0.7570772749225106,3.999261503452437e-05,-1.028653725988326e-05,-6.056618199380085e-06,4.768186344215018e-05,4.77937776024889e-05
339.7895861221618,202.6566732025814,12.5,0,11.84893043838168,-0.3518887245720133,-1.169922121878016,3.819808838247899e-05,-1.060518826933579e-05,-9.35937697502413e-06,4.457146907203547e-05,4.446812307672659e-05
343.5604169441411,205.3668127458861,12.5,0,11.5318312582897,-0.3643306692522188,-1.014384647342027,3.71933245619288e-05,-1.039132314823886e-05,-8.11507717873622e-06,4.329427724234521e-05,4.482326354053225e-05
338.7817537526793,207.2962936780432,12.5,0,12.56226400725023,-0.1515155492985567,-1.071709081995977,4.032045726263958e-05,-1.053466096355557e-05,-8.573672655967819e-06,4.789280153000664e-05,4.647608156624579e-05
342.1253917711155,210.4523318223818,12.5,0,12.12854167707776,-0.1912624133903233,-0.9180506885716468,3.896434329736108e-05,-1.031487306451124e-05,-7.344405508573175e-06,4.608867364498538e-05,4.70700996062052e-05
341.5352029915868,194.6206148113889,12.5,0,10.87046371534364,-0.4624171453000292,-1.584024886427721,3.515541760533967e-05,-1.0176105837235e-05,-1.267219909142176e-05,4.057954987482684e-05,4.078076610101529e-05
346.0459534539174,196.5584353226932,12.5,0,10.64807907723981,-0.3829878751893001,-1.381676758340847,3.438024334731884e-05,-9.744024462397609e-06,-1.105341406672678e-05,3.991803368145965e-05,4.079047825064585e-05
340.5273706221042,199.2602352868508,12.5,0,11.62549743355025,-0.2373121601084809,-1.456380930080496,3.739144151544758e-05,-1.005979685918734e-05,-1.165104744064397e-05,4.411038903021867e-05,4.294206789722509e-05
344.6109282808916,201.6439543991888,12.5,0,11.30039560989727,-0.179272851780349,-1.256194171572039,3.630468423309555e-05,-9.613989613614936e-06,-1.004955337257632e-05,4.29999527670014e-05,4.314064406958926e-05
349.3480519724678,197.9770183928566,12.5,0,10.8791991819201,-0.4400187607185626,-1.47337723170905,3.516545239071916e-05,-1.011141937983548e-05,-1.17870178536724e-05,4.065348847825018e-05,4.078114421431184e-05
353.8588024347983,199.9148389041608,12.5,0,10.67385178976857,-0.3520985951092221,-1.285643136736086,3.443800460334681e-05,-9.665796936164368e-06,-1.028514509388869e-05,4.008866697003243e-05,4.074593100317602e-05
347.600299962634,203.388957900319,12.5,0,11.68590248982332,-0.1754051874228844,-1.299759788141869,3.753521211737293e-05,-9.910018591611884e-06,-1.039807830513495e-05,4.449695845202281e-05,4.32569627056133e-05
351.6838576214214,205.7726770126571,12.5,0,11.39104968593968,-0.1086678477711196,-1.119076045359355,3.653829327322387e-05,-9.460576861619325e-06,-8.952608362874839e-06,4.35361611037778e-05,4.337617495674746e-05
190.5266731537243,300.9316992341366,12.5,0,1.188559099259826,5.010032539170642,-2.767324013572109,-2.04636913705072e-07,1.508125684593819e-05,-2.213859210857687e-05,2.404266059884508e-05,2.445666183821987e-05
192.8063216836895,300.945511804366,12.5,0,1.179001730557047,4.971602240338315,-2.770551095116958,-2.044762544881035e-07,1.496592578463697e-05,-2.216440876093566e-05,2.387441957150383e-05,2.41332688131713e-05
189.7449930102811,303.477148879279,12.5,0,1.176144971504789,4.995275217747778,-2.783575409142389,-2.32556265382898e-07,1.504396471958906e-05,-2.226860327313911e-05,2.396123846320964e-05,2.36784252484452e-05
192.1860253428333,303.5286980931601,12.5,0,1.167415722380904,4.959709905429352,-2.786363417135019,-2.320376127245877e-07,1.49371391194692e-05,-2.229090733708015e-05,2.380589498595427e-05,2.331958442818079e-05
189.1727634300372,305.3405473475521,12.5,0,1.102048955094079,4.763852219261484,-2.618342552302666,-2.845251191081353e-07,1.436268793756149e-05,-2.094674041842133e-05,2.276321450215918e-05,2.312546639537197e-05
191.7319369055969,305.4197217018922,12.5,0,1.089048834947263,4.711252250232409,-2.619669589641545,-2.840455283546859e-07,1.420476813278589e-05,-2.095735671713236e-05,2.253098267246401e-05,2.274478051089604e-05
188.3910832865941,307.8859969926946,12.5,0,1.093355102827625,4.747371058606779,-2.637540884136723,-2.991605178370238e-07,1.431690330527959e-05,-2.110032707309379e-05,2.268937389775672e-05,2.239299130399133e-05
191.1116405647408,308.0029079906862,12.5,0,1.081263738759531,4.698227379309643,-2.638559051009734,-2.985379394172165e-07,1.416931662278323e-05,-2.110847240807787e-05,2.247260662892571e-05,2.198807138940826e-05
184.740144945065,305.2034133431812,12.5,0,1.32361335226923,4.710039819240669,-2.851201629062686,4.675308718690008e-07,1.401323673975476e-05,-2.280961303250149e-05,2.344021521423727e-05,2.369077929788838e-05
187.2993184206246,305.2825876975213,12.5,0,1.305777456377233,4.638787554794135,-2.850079889679126,4.674578165718375e-07,1.379949821023944e-05,-2.280063911743301e-05,2.312449688087812e-05,2.33789460063795e-05
183.6789398560274,307.6835012042131,12.5,0,1.317333911192381,4.682209948571145,-2.875633948862659,4.697005569587014e-07,1.392920470647376e-05,-2.300507159090127e-05,2.33379828924611e-05,2.299522882128833e-05
186.3994971341741,307.8004122022047,12.5,0,1.30070277522873,4.615803619225431,-2.874288852641187,4.696059853515912e-07,1.373000936133839e-05,-2.29943108211295e-05,2.304381821369222e-05,2.26628583245062e-05
186.5782060764958,300.9077751607165,12.5,0,1.405858441270587,4.956217123769978,-2.979704290067167,5.33773313049897e-07,1.473520804304746e-05,-2.383763432053734e-05,2.469144432322001e-05,2.494887958641045e-05
188.857854606461,300.9215877309459,12.5,0,1.389371076274705,4.890094584955434,-2.98241054374011,5.33911776114709e-07,1.453680581083762e-05,-2.385928434992088e-05,2.440128189219404e-05,2.467520408624062e-05
185.5170009874581,303.3878630217483,12.5,0,1.390807519119519,4.925276645801882,-3.00636272049961,5.103627445409548e-07,1.464823925127041e-05,-2.405090176399688e-05,2.455153428511669e-05,2.4214258442679e-05
187.9580333200104,303.4394122356294,12.5,0,1.37569609561998,4.864274186609272,-3.008515812011006,5.108081566965184e-07,1.446512052065368e-05,-2.406812649608805e-05,2.428426703494471e-05,2.391815242811165e-05
111.2248154839997,190.2512477294271,12.5,0,6.511647435009333,-0.9597280482918387,-0.8303421167754412,2.160505423066333e-05,-8.280447702541349e-06,-6.64273693420353e-06,2.231287208803337e-05,2.239296581801846e-05
114.0373577332837,189.4995152636362,12.5,0,6.57704523644528,-0.9597491075288291,-0.7342123369736208,2.181434404264796e-05,-8.332833333248477e-06,-5.873698695788966e-06,2.254189250538667e-05,2.300157561424713e-05
112.3040699415611,193.4409674388955,12.5,0,6.851529291426224,-0.8675854536764702,-0.8817034388049612,2.261896209550509e-05,-8.257496884905683e-06,-7.053627510439689e-06,2.387999119137795e-05,2.352827400319291e-05
114.6747335634158,192.7162751470097,12.5,0,6.939323439632057,-0.8646922896375779,-0.7701005792231942,2.289758883853264e-05,-8.318474078545894e-06,-6.160804633785553e-06,2.420005650268535e-05,2.402470712704696e-05
106.3533494098935,191.5532865538526,12.5,0,6.32155911951389,-1.097607185382026,-0.866329568160788,2.110707493075007e-05,-8.569590288833593e-06,-6.930636545286304e-06,2.121495921430655e-05,2.153540419019221e-05
109.1658916591774,190.8015540880617,12.5,0,6.391370866724901,-1.108295129159262,-0.7608614937946725,2.133902287684709e-05,-8.659641106689559e-06,-6.08689195035738e-06,2.142688958137132e-05,2.200010636898958e-05
108.1979601009275,194.6961713082726,12.5,0,6.693889218334481,-0.9835847675720484,-0.9613191899078352,2.220731331272797e-05,-8.502582630898138e-06,-7.690553519262681e-06,2.297145435918462e-05,2.279444049709747e-05
110.568623722782,193.9714790163868,12.5,0,6.786651203238757,-0.9926519273158716,-0.8409176653107737,2.251140539221672e-05,-8.605807130001794e-06,-6.72734132248619e-06,2.327108784024995e-05,2.319862505323324e-05
103.1583899728954,186.1096504769614,12.5,0,5.858556611165682,-1.146087169601894,-0.55323053026409,1.966425089141169e-05,-8.354324231658606e-06,-4.42584424211272e-06,1.925652059723119e-05,1.931320958223472e-05
106.7362884556519,185.3110830561221,12.5,0,5.914182270382731,-1.20109142276668,-0.4350486411926028,1.988625640343808e-05,-8.574838369159559e-06,-3.480389129540823e-06,1.930080395328861e-05,1.991724378925036e-05
105.0030006639294,189.2525352313814,12.5,0,6.190803770857225,-1.023773292214971,-0.6508036523182945,2.062959070051509e-05,-8.228717551773685e-06,-5.206429218546356e-06,2.087473368954515e-05,2.060261117791751e-05
108.1390205192565,188.4810079844472,12.5,0,6.261408943531519,-1.083114274758281,-0.5194647842853349,2.090300003910748e-05,-8.475092834051714e-06,-4.155718274282679e-06,2.095762962284863e-05,2.112086290927412e-05
109.3554919292419,184.7264911308234,12.5,0,6.062248460283439,-1.025868676513549,-0.5250872033511736,2.021989001411784e-05,-8.132578533070106e-06,-4.200697626809389e-06,2.035737274304226e-05,2.040966259551464e-05
112.9333904119983,183.9279237099841,12.5,0,6.137941474962259,-1.021553217185621,-0.392670972293534,2.045865529362772e-05,-8.179323474963792e-06,-3.141367778348272e-06,2.064025784273073e-05,2.11509415858726e-05
110.4347463868032,187.9162108402917,12.5,0,6.416145282030697,-0.9325072272965322,-0.5756029140069484,2.127767068433545e-05,-8.116939352973459e-06,-4.604823312055588e-06,2.197599312770782e-05,2.155733640985059e-05
113.5707662421304,187.1446835933576,12.5,0,6.510698882467841,-0.9253447305197759,-0.4264031485629871,2.157451220831291e-05,-8.169662243637555e-06,-3.411225188503896e-06,2.233698645963221e-05,2.223155245827704e-05
8.564632509662971,75.97862502537266,12.5,0,-7.722225026212658,-1.164505410020578,1.263895329957053,-2.377951575586404e-05,2.451362708904276e-06,1.011116263965642e-05,1.466263497704165e-06,1.335071014665327e-06
22.26928231816384,78.0721325219737,12.5,0,-8.172866821353695,-1.990460388464434,1.946796163048957,-2.456080551756027e-05,1.688202139967688e-07,1.557436930439165e-05,1.441384559404623e-06,1.575464460694538e-06
17.36514481246016,86.8588929141619,12.5,0,-6.09193703362142,-0.2508835558951672,0.5600736146107109,-1.929349166287241e-05,4.070722248032601e-06,4.480588916885687e-06,1.383323331547365e-06,1.222181922132651e-06
28.62775359034301,88.06579545890801,12.5,0,-6.513814261164181,-1.163325990586454,1.317942571040931,-1.991354484325622e-05,1.488408239054693e-06,1.054354056832745e-05,1.231103085029644e-06,1.330459155054954e-06
32.30178227749903,79.60468637544683,12.5,0,-7.341258160691664,-0.7609545516832052,1.264749502087624,-2.288326247286676e-05,3.437951963167074e-06,1.0117996016701e-05,1.561392914991068e-06,1.65936161387943e-06
46.00643208599992,81.69819387204785,12.5,0,-7.690583472245502,-1.213144509243118,1.90573833340446,-2.363935150379111e-05,2.270404348218423e-06,1.524590666723568e-05,1.632677994096338e-06,1.648179452971477e-06
36.87255544117395,88.94930944140877,12.5,0,-6.047716804915499,-0.3015696197316264,0.922916915743509,-1.911143807994429e-05,3.873150660791194e-06,7.383335325948072e-06,1.416578646106765e-06,1.368711882083548e-06
48.1351642190568,90.15621198615489,12.5,0,-6.369550324557714,-0.8104347717662679,1.667734094554853,-1.973421322117167e-05,2.502248989994114e-06,1.334187275643882e-05,1.470778790280093e-06,1.36494304293587e-06
40.21859362671407,95.79004830298214,12.5,0,-5.492607049907599,-0.875035584121142,1.383061316093549,-1.68763140924074e-05,1.593971770738425e-06,1.10644905287484e-05,1.170395926005261e-06,1.172043096239866e-06
49.69350429609266,96.34791097675591,12.5,0,-5.650384029887377,-1.27931046840214,1.776913679753395,-1.705778052091789e-05,4.26513725023053e-07,1.421530943802716e-05,1.1953434871865e-06,1.167805584259684e-06
44.78936679038898,105.1346713689441,12.5,0,-4.247457110141781,-0.3570418494740478,0.9957415338598739,-1.330622927287446e-05,2.255431769796472e-06,7.96593227087899e-06,1.024830289470368e-06,9.253837128250817e-07
51.82223642914954,104.8059290908629,12.5,0,-4.308821138005963,-0.826807444870403,1.467116093740724,-1.312678168572276e-05,8.012730868194809e-07,1.173692874992579e-05,1.02085963275524e-06,9.124524410940447e-07
23.80756695046878,94.82380180837714,12.5,0,-5.692232284954998,-1.214485964528314,1.563411263904937,-1.724355454023334e-05,6.674307414733925e-07,1.25072901112395e-05,1.139328275540136e-06,1.113366031126883e-06
33.28247761984738,95.3816644821509,12.5,0,-5.87046666040003,-1.727630049212265,1.913782256876954,-1.740338927391028e-05,-8.320428291592228e-07,1.531025805501563e-05,1.133326840830661e-06,1.157456061942075e-06
32.60807925326597,105.7040696971664,12.5,0,-4.366438543594289,-0.3835204486790539,0.9546506860879639,-1.366578698055848e-05,2.265885399102459e-06,7.637205488703711e-06,1.021654343846083e-06,9.289645807482812e-07
39.64094889202654,105.3753274190852,12.5,0,-4.461961890068707,-0.9489197118861956,1.336676721644881,-1.35191422787109e-05,5.330264340191393e-07,1.069341377315905e-05,9.387887712965202e-07,9.298081273106067e-07
359.1660704315324,192.3597678636872,12.5,0,9.717552153268473,-0.4181884433878058,-1.773593735344958,3.143071764516935e-05,-9.112244741455756e-06,-1.418874988275967e-05,3.635859959835834e-05,3.694677429936332e-05
363.9732884365621,193.1948521395759,12.5,0,9.671452905151604,-0.2506664699446093,-1.583450470294464,3.114918247244081e-05,-8.539295027944031e-06,-1.266760376235571e-05,3.662535788914074e-05,3.662716561961684e-05
358.2019881930816,196.9966752920097,12.5,0,10.31936868492329,-0.2270119151586525,-1.649173581703695,3.320358932388146e-05,-8.981933076446322e-06,-1.319338865362956e-05,3.918892474493124e-05,3.896460906828852e-05
362.4619581186204,197.7676902700772,12.5,0,10.26312196798881,-0.03977829336463357,-1.435988795733161,3.28738129322559e-05,-8.337788113157876e-06,-1.148791036586529e-05,3.948325399491868e-05,3.878611213073238e-05
360.8359098511738,184.3284086079835,12.5,0,8.767239501556357,-0.4543192003614887,-2.128253641201389,2.841862176526953e-05,-8.467613042401848e-06,-1.702602912961111e-05,3.276136748137825e-05,3.343490734584206e-05
366.5909893342094,185.2744641629019,12.5,0,8.699569811774097,-0.2960340839269051,-1.878825130472288,2.807545066481863e-05,-7.906964917985372e-06,-1.50306010437783e-05,3.287658166259263e-05,3.29963982535207e-05
359.8718276127231,188.9653160363059,12.5,0,9.398227209410809,-0.263995940649326,-2.01706161305303,3.028552382263404e-05,-8.363368777606489e-06,-1.613649290442424e-05,3.567782044188705e-05,3.546509518849491e-05
365.0796590162677,189.8473022934031,12.5,0,9.319824325379059,-0.09047781289342138,-1.742510438953581,2.989582009152772e-05,-7.745388461562194e-06,-1.394008351162865e-05,3.580711191597905e-05,3.5075816461859e-05
370.8039999172096,185.9670248958555,12.5,0,8.586714322683386,-0.5642076580483981,-2.134978868870038,2.792885195902555e-05,-8.674835963901582e-06,-1.707983095096031e-05,3.175933911653544e-05,3.288817881813348e-05
376.5590794002452,186.9130804507739,12.5,0,8.554326270664077,-0.2809602747208961,-1.903020320839695,2.759861228590176e-05,-7.74253389563813e-06,-1.522416256671756e-05,3.237755202023317e-05,3.303102691459793e-05
368.892056200753,190.4929610451483,12.5,0,9.199261225775848,-0.3037486977533352,-1.940854725588671,2.968063488068538e-05,-8.331404813431351e-06,-1.552683780470937e-05,3.477645910488788e-05,3.497225098264409e-05
374.0998876042976,191.3749473022455,12.5,0,9.159966910651358,0.006950781687904417,-1.686302506444086,2.930633348873402e-05,-7.305731027119791e-06,-1.349042005155269e-05,3.547312495059016e-05,3.507858355814264e-05
367.4924162591542,193.8061762581024,12.5,0,9.56848465338555,-0.4894221651079587,-1.814518485554885,3.101068862292012e-05,-9.220938651053907e-06,-1.451614788443908e-05,3.559305554594552e-05,3.652687569079206e-05
372.299634264184,194.6412605339912,12.5,0,9.526650062683434,-0.2999694616355089,-1.623020356054334,3.072525576989539e-05,-8.581222327380374e-06,-1.298416284843467e-05,3.593649637069882e-05,3.657248718949013e-05
365.5804725426976,198.3321124073953,12.5,0,10.17643499230639,-0.247396488995629,-1.636758303560578,3.276250916657694e-05,-8.932816758631121e-06,-1.309406642848463e-05,3.857865182023815e-05,3.869011721582423e-05
369.8404424682364,199.1031273854629,12.5,0,10.12506479541728,-0.03611092194334908,-1.422714871969239,3.242909608288996e-05,-8.215606786552538e-06,-1.138171897575391e-05,3.896294546255709e-05,3.860635116857192e-05
305.8986100984001,101.2729556676947,12.5,0,-2.258716528115929,0.8308612141950097,-3.778909586922021,-7.892581861326982e-06,4.465729107916774e-06,-3.023127669537617e-05,5.327014454632331e-06,5.132161745653955e-06
308.756189215795,102.946184325029,12.5,0,-2.426752620349025,0.820687698237761,-3.673313046220203,-8.422158543707088e-06,4.567602730640055e-06,-2.938650436976162e-05,5.007274699235133e-06,5.345206642904741e-06
305.3546939150594,104.2482043063081,12.5,0,-1.847406114917978,0.9415884995037029,-3.733571901715451,-6.664970367340492e-06,4.491008090346232e-06,-2.986857521372361e-05,5.831980016045313e-06,5.742456823994702e-06
307.6744099132368,105.8618052708907,12.5,0,-2.082951732849461,0.9199688912694661,-3.611600754223809,-7.401420658133847e-06,4.61026183834186e-06,-2.889280603379047e-05,5.357223687866494e-06,6.004910151599709e-06
310.8480823162869,104.1710727148258,12.5,0,-1.678607057431615,0.6557903546055917,-3.835641748456831,-5.89617486746564e-06,3.441414780683185e-06,-3.068513398765465e-05,5.713812595487055e-06,5.520699769132404e-06
313.7056614336818,105.84430137216,12.5,0,-1.75509085231257,0.7528318850341748,-3.794027581626894,-6.218556235427564e-06,3.813134713959415e-06,-3.035222065301516e-05,5.717840635206014e-06,5.787111009135074e-06
309.3725598829607,107.0430431600571,12.5,0,-1.425803470839994,0.7946408241231471,-3.731924597938992,-5.198283765986498e-06,3.683493413866065e-06,-2.985539678351194e-05,6.065559549809084e-06,6.219994912823734e-06
311.692275881138,108.6566441246398,12.5,0,-1.533938444854771,0.8975291335125881,-3.691100989213143,-5.626626330345339e-06,4.099243983124098e-06,-2.952880791370514e-05,6.04431324242479e-06,6.545164080841569e-06
308.2924024941042,109.1454714437133,12.5,0,-0.8316734083476591,0.7945453543492373,-3.844241425697168,-3.296991190191898e-06,3.207883860595687e-06,-3.075393140557735e-05,7.107392752164505e-06,6.816089201239089e-06
310.2183753615135,110.7154219076656,12.5,0,-0.880066780560672,0.8400790608044516,-3.833699830585506,-3.488276946437711e-06,3.392306419022782e-06,-3.066959864468405e-05,7.101748595812692e-06,7.186177757473589e-06
306.816880060778,112.0174418889447,12.5,0,-0.6544478747683096,0.8997866330325359,-3.765785651954818,-2.814062505684619e-06,3.402875525518762e-06,-3.012628521563854e-05,7.476163194474874e-06,7.745353939669361e-06
308.2049898089697,113.5277646601454,12.5,0,-0.7328370592354352,0.9449692316909827,-3.761007900866722,-3.101053974906179e-06,3.610171188799492e-06,-3.008806320693377e-05,7.427911942311602e-06,8.179406618746751e-06
304.9565196338121,106.4262374748306,12.5,0,-1.370112210995663,0.9598420454230374,-3.784086024496557,-5.152232711524551e-06,4.167584314150249e-06,-3.027268819597246e-05,6.52908148728433e-06,6.265963627986877e-06
306.8824925012215,107.9961879387828,12.5,0,-1.5031790159995,0.9180210741246393,-3.721130208003112,-5.544589710498112e-06,4.140210649998446e-06,-2.97690416640249e-05,6.170652699475306e-06,6.569518568387091e-06
304.4126034504716,109.4014861134439,12.5,0,-1.00496013487794,1.047561682289227,-3.766795431449539,-4.053921777440791e-06,4.156165491227878e-06,-3.013436345159631e-05,7.205006508958938e-06,7.085915736321557e-06
305.8007131986633,110.9118088846446,12.5,0,-1.22316384489708,0.9824562826710552,-3.68796686261053,-4.7000893298075e-06,4.12239118046504e-06,-2.950373490088424e-05,6.608379645454114e-06,7.452353940801853e-06
74.05239236182879,121.6190233855418,12.5,0,-1.868179799518251,-1.183698755880094,1.311736410660385,-5.031216353754327e-06,-2.293292179201701e-06,1.049389128528308e-05,6.086370001678929e-07,7.555778018732168e-07
80.91348978886114,120.6992696510749,12.5,0,-1.769999356015005,-1.263542694612069,1.658659309961328,-4.653163783558361e-06,-2.627337137946617e-06,1.326927447969062e-05,8.736809743458025e-07,8.595695037208518e-07
75.87604075736081,127.9856154816905,12.5,0,-1.062253484863883,-0.956797900408966,1.190399071280395,-2.633772831237252e-06,-2.211950493417585e-06,9.523192570243162e-06,6.492279198142467e-07,8.397974172801597e-07
82.51389720121611,126.4914598509384,12.5,0,-0.8813493030845563,-1.014335519461948,1.52817787180435,-2.008849354301021e-06,-2.540794219810589e-06,1.22254229744348e-05,1.037702416357093e-06,9.600214043240954e-07
62.16862302274222,123.2120835840609,12.5,0,-1.812663986279717,-1.283859466064347,1.201925817443425,-4.773437183243617e-06,-2.658219102382135e-06,9.615406539547401e-06,5.150954004077809e-07,6.228919375332051e-07
69.02972044977457,122.2923298495941,12.5,0,-1.733966176453978,-1.408562822222702,1.522034365317194,-4.421841506874568e-06,-3.120228089949462e-06,1.217627492253755e-05,7.304974718518219e-07,6.921602391486469e-07
64.37893614346157,130.5735689485217,12.5,0,-0.9309647544710692,-1.020286710923016,1.046464320415952,-2.162857845569008e-06,-2.520145671376797e-06,8.371714563327615e-06,5.341815592406196e-07,7.018831614119315e-07
71.01679258731687,129.0794133177696,12.5,0,-0.7755239120006436,-1.123202481222729,1.355641137704005,-1.583114533423876e-06,-2.973828810312218e-06,1.084512910163204e-05,8.563892936161195e-07,7.706294835584091e-07
58.34024839708894,110.4616169138693,12.5,0,-3.365000145999923,-1.174649255705919,1.279969048955077,-9.828281062635017e-06,-1.066877501459001e-06,1.023975239164062e-05,6.768684143101346e-07,7.765477835008152e-07
65.58801054930865,110.5367564477145,12.5,0,-3.422025690742857,-1.363493055473559,1.659369065479616,-9.859687765998294e-06,-1.625557224921102e-06,1.327495252383693e-05,8.306278131174658e-07,8.17897407453212e-07
60.55056151780832,117.8231022783301,12.5,0,-2.399431656269783,-0.8838172907451493,1.106871092505568,-6.971127467467186e-06,-9.086700053686511e-07,8.854968740044546e-06,5.71081720549406e-07,6.428982627244737e-07
67.57508268685095,117.32383991589,12.5,0,-2.374632032034801,-1.049333546782561,1.47443759657806,-6.759355665085312e-06,-1.458161724076356e-06,1.179550077262448e-05,7.554555841637031e-07,7.048256411837609e-07
70.89374068568263,110.5917624041439,12.5,0,-3.240817008148465,-1.057425473742435,1.39995002533521,-9.52467404708114e-06,-7.911079094570197e-07,1.119960020268168e-05,7.609137405070874e-07,8.616946459334052e-07
78.14150283790232,110.6669019379891,12.5,0,-3.293959146559218,-1.229086494290336,1.795190117902631,-9.557400073557228e-06,-1.297909464481702e-06,1.436152094322105e-05,9.483526999116638e-07,9.400013027451943e-07
72.71738908121466,116.9583545002926,12.5,0,-2.383187912034359,-0.8064629709672176,1.257827186225293,-6.981030941736172e-06,-6.741311774676096e-07,1.006261748980235e-05,6.871806548647159e-07,7.61445146607151e-07
79.74191025025728,116.4590921378526,12.5,0,-2.351093158209971,-0.9545881638054499,1.642423789865284,-6.759827575227545e-06,-1.173807597609463e-06,1.313939031892227e-05,9.138163114783864e-07,8.542051336705632e-07
291.9966392933683,84.51825026792537,12.5,0,-6.005070334115295,0.9824359464213577,-3.137513942890071,-2.000217382630603e-05,7.94785129584058e-06,-2.510011154312057e-05,3.519485954208163e-06,3.628093542881584e-06
293.967979206539,82.92801923800747,12.5,0,-5.782764313723796,0.9045780376322761,-3.060684308093359,-1.922850823402197e-05,7.520861171402319e-06,-2.448547446474688e-05,3.38374718365844e-06,3.548739257612645e-06
292.6793997185868,87.1099486263417,12.5,0,-5.507797699984708,1.159874574776864,-3.265896586508043,-1.855285229977255e-05,8.11783679927373e-06,-2.612717269206435e-05,3.824627762681093e-06,3.758770576446703e-06
294.8557070984207,85.95889437176888,12.5,0,-5.37003409392215,1.056623643615647,-3.171316773418749,-1.80294080154434e-05,7.677222934707791e-06,-2.537053418734999e-05,3.641359973755798e-06,3.686859663285621e-06
290.8140635475137,80.02929703333606,12.5,0,-6.850282752257783,0.9327478599185892,-2.945110662534874,-2.266710309515977e-05,8.465019353545711e-06,-2.356088530027899e-05,3.360934089683169e-06,3.475452733064461e-06
292.4303893945316,77.67838951502991,12.5,0,-6.588910604389721,0.9075472878660837,-2.924174689653894,-2.181055176433997e-05,8.175279804683243e-06,-2.339339751723115e-05,3.306549060830388e-06,3.408690743070488e-06
291.4968239727322,82.62099539175242,12.5,0,-6.473529895410632,1.071278911761317,-3.048490689928077,-2.157231879472307e-05,8.606916433964718e-06,-2.438792551942462e-05,3.538327351264694e-06,3.552178755548348e-06
293.3181172864133,80.70926464879133,12.5,0,-6.282746310176868,1.024011815369579,-3.011155652829468,-2.092399764486164e-05,8.303034857324145e-06,-2.408924522263574e-05,3.460223388195639e-06,3.474204120083882e-06
293.6136220360853,75.95740576780729,12.5,0,-7.497996944403849,0.707513952251734,-2.90878103463392,-2.45596013838937e-05,8.262442202728627e-06,-2.327024827707136e-05,3.214822947816389e-06,3.37918907083847e-06
295.2299478831033,73.6064982495011,12.5,0,-7.23577403624047,0.6783641046934832,-2.889760957918001,-2.369716819972429e-05,7.959384364011521e-06,-2.311808766334401e-05,3.1515878084813e-06,3.365350993382895e-06
294.6513965274566,79.3097806146119,12.5,0,-7.021250236274189,0.8947256649848074,-3.049916947386541,-2.318378128806525e-05,8.480122316970734e-06,-2.439933557909233e-05,3.414928964001756e-06,3.433799601360231e-06
296.4726898411377,77.39804987165078,12.5,0,-6.826777763084095,0.8422646438698007,-3.013249275850998,-2.251950055696494e-05,8.156669070850638e-06,-2.410599420680799e-05,3.331002396831593e-06,3.401387038811619e-06
295.411100181907,81.76388932838447,12.5,0,-6.341074757408086,0.8195626419813544,-3.12226819559918,-2.094708933729096e-05,7.695460260266802e-06,-2.497814556479344e-05,3.367354343668375e-06,3.504735072592023e-06
297.3824400950778,80.17365829846656,12.5,0,-6.134848952141223,0.7407216981524301,-3.052310319144957,-2.022409400537385e-05,7.278188595800754e-06,-2.441848255315966e-05,3.23789297467406e-06,3.463867688633848e-06
296.4488746732784,85.11626417518909,12.5,0,-5.755182543628228,1.042445468748124,-3.286649120826503,-1.925054051460883e-05,7.939971534896579e-06,-2.629319296661202e-05,3.711128343118929e-06,3.643923853542594e-06
298.6251820531122,83.96520992061626,12.5,0,-5.625999102534815,0.9380550193136554,-3.198130162999024,-1.875364114356233e-05,7.502575343831547e-06,-2.558504130399219e-05,3.536769864661358e-06,3.598531953016628e-06
105.9223491592337,146.7017191138236,12.5,0,2.422841297665729,-0.9721300941827462,1.137120397482956,8.530796227876527e-06,-5.04908933951737e-06,9.096963179863648e-06,7.187780470082702e-06,6.269183459790027e-06
108.8953462963528,149.4795873514167,12.5,0,2.509931721284447,-0.8502709732586606,1.075472107439366,8.711998286717158e-06,-4.728812491455271e-06,8.603776859514928e-06,7.727078518125077e-06,7.704013804374283e-06
103.8977633847953,149.6912804708599,12.5,0,2.387526928476662,-0.9295588638771828,1.155030560575241,8.383733262227065e-06,-4.884609907188314e-06,9.240244484601929e-06,7.175831482361302e-06,7.127697645470643e-06
107.6424689111882,152.6872491549107,12.5,0,2.456083970482945,-0.8249077254574733,1.105829166736684,8.519394885911402e-06,-4.60457189785027e-06,8.846633333893471e-06,7.619482889340504e-06,8.809881790934971e-06
97.41174315381534,144.5021104922917,12.5,0,1.477997380214268,-1.026094653198831,1.263504105887577,5.55046733924472e-06,-4.465900794407672e-06,1.010803284710061e-05,4.164400747536776e-06,4.544141735485995e-06
100.7729670670791,141.890310189667,12.5,0,1.567505519602594,-1.126349700612586,1.284366920720909,5.917097423218368e-06,-4.85832345764235e-06,1.027493536576727e-05,4.286380492155686e-06,4.070185115800691e-06
101.1564486802083,147.4980791763426,12.5,0,1.642556117241402,-0.8576607632130095,1.161546224659936,5.942308185742895e-06,-4.058559336074752e-06,9.292369797279492e-06,4.842717868281572e-06,5.984696042527571e-06
103.7459642041982,144.6681784272601,12.5,0,1.769622187160609,-0.9378568676659231,1.166451147291235,6.413076493046687e-06,-4.41683972625944e-06,9.33160917832988e-06,5.096465427197479e-06,5.295501997283991e-06
106.5947776603627,137.3665393663786,12.5,0,1.158673250129957,-0.8856376106342614,1.477416413018555,4.416264488923272e-06,-3.760978954133602e-06,1.181933130414844e-05,3.809236685515221e-06,3.537807188614228e-06
108.2311366586565,139.7666465495601,12.5,0,1.418603581540731,-0.7651967619299254,1.382204114176574,5.151688870474277e-06,-3.583512503408345e-06,1.105763291341259e-05,4.606658705008316e-06,4.372645900758561e-06
103.233553747099,139.9783396690032,12.5,0,0.9887698835995239,-0.8462356916293727,1.41033249045271,3.841052180821974e-06,-3.498970120093611e-06,1.128265992362168e-05,3.339432706465263e-06,3.800538586659254e-06
105.6416211346666,142.5965472986425,12.5,0,1.177457467677635,-0.7458125445908033,1.326992183252655,4.364513932241074e-06,-3.328566116832678e-06,1.061593746602124e-05,3.871236029054912e-06,4.863554463651953e-06
109.4290345847791,141.5236469511852,12.5,0,1.822843440465983,-0.8174415465638103,1.324891010610094,6.487052246742191e-06,-4.074087701376979e-06,1.059912808488075e-05,5.687435472804484e-06,5.048243349092713e-06
111.0653935830729,143.9237541343668,12.5,0,1.954592588595339,-0.7666786455993864,1.281963883539475,6.868039199984593e-06,-4.017045736794307e-06,1.02557110683158e-05,6.183304138168507e-06,6.059171191339645e-06
107.4044488103408,144.5132083082215,12.5,0,1.722249478032299,-0.8280232742058491,1.306961873986579,6.173616949068035e-06,-4.027474059884556e-06,1.045569499189263e-05,5.322372877811809e-06,5.711995360395474e-06
109.8125161979084,147.1314159378608,12.5,0,1.807422713155282,-0.791377371737057,1.272320549635664,6.416854579486549e-06,-3.978345760082808e-06,1.017856439708531e-05,5.63312467947719e-06,6.966963120623924e-06
392.4274715963764,40.33448438358184,12.5,0,-9.235434049841441,-0.4031510291813376,-2.575810492037791,-2.923086813614754e-05,6.098263946492872e-06,-2.060648393630233e-05,2.585897694381313e-06,2.75014170835702e-06
401.2645963699639,41.79564800081248,12.5,0,-9.280722451980235,-0.1342144969318064,-2.322131361307678,-2.959094024879131e-05,6.995091571402408e-06,-1.857705089046142e-05,2.642693848108542e-06,2.634339097570121e-06
389.2454722450665,48.91175344230616,12.5,0,-8.444393928879293,-0.09625964104257356,-2.352143353374209,-2.694505285957968e-05,6.447484291767199e-06,-1.881714682699367e-05,2.519491062487684e-06,2.647608499404995e-06
397.9913885071916,51.40556804677982,12.5,0,-8.567881889846083,0.1345597895151665,-2.127810440806711,-2.75248698791196e-05,7.284896838325399e-06,-1.702248352645369e-05,2.589288476100089e-06,2.559911805951069e-06
386.9160870503555,55.19075018321391,12.5,0,-7.277192525028288,-0.2437128470962564,-3.045579574838909,-2.309204580241351e-05,5.041872909314609e-06,-2.436463659871127e-05,2.619963634131288e-06,2.620222960257884e-06
395.5952340480103,58.44051777680347,12.5,0,-7.459617335019461,-0.1630348425401471,-2.848066346081363,-2.374034759803015e-05,5.445982371887097e-06,-2.27845307686509e-05,2.572653397239439e-06,2.554602412604405e-06
383.7340876990456,63.76801924193826,12.5,0,-6.649384209153888,-0.0368785464553274,-2.906306671007059,-2.124852663212818e-05,5.201496018666062e-06,-2.325045336805647e-05,2.590459370279514e-06,2.647937484864153e-06
392.3220261852382,68.05043782277082,12.5,0,-6.887286066329633,0.02187172631082457,-2.727271640155793,-2.205681279330348e-05,5.579818377258344e-06,-2.181817312124634e-05,2.541971649213777e-06,2.614524171842386e-06
371.8833634843285,49.56198759842709,12.5,0,-8.59434501726809,-0.220794330016814,-2.87018557055082,-2.732526859124443e-05,6.168934157760667e-06,-2.296148456440656e-05,2.71852983725483e-06,2.864074696863344e-06
380.5625104819834,52.81175519201665,12.5,0,-8.727323864619564,-0.03658981437322728,-2.711499740973723,-2.789816451528401e-05,6.864771685701323e-06,-2.169199792778978e-05,2.771695349764765e-06,2.7031458089023e-06
368.8593419089511,56.35065268079249,12.5,0,-8.13548281879293,-0.02313097667113295,-2.722745921350869,-2.601504023880047e-05,6.434367129686718e-06,-2.178196737080695e-05,2.689018699173456e-06,2.797158489593758e-06
377.4472803951437,60.63307126162508,12.5,0,-8.317097461487027,0.1326133391658693,-2.585950822208853,-2.672080254809118e-05,7.078040654520402e-06,-2.068760657767082e-05,2.747107535245817e-06,2.696874202814319e-06
377.1211224959725,37.80367476041272,12.5,0,-10.18636898708715,-0.0251816874506301,-2.393498345440573,-3.257623540871838e-05,8.068513789827704e-06,-1.914798676352458e-05,2.912859031349172e-06,3.078109504766688e-06
385.9582472695599,39.26483837764336,12.5,0,-10.29665130087455,0.01318616253496696,-2.107859263045074,-3.295983309282652e-05,8.27951676081153e-06,-1.686287410436059e-05,2.857782927193939e-06,2.869049630586471e-06
374.0971009205952,44.59233984277814,12.5,0,-9.525696097718793,0.1648282821095011,-2.261936233364419,-3.061409013838774e-05,8.148007380925438e-06,-1.809548986691535e-05,2.847668612062666e-06,2.939355294489292e-06
382.8430171827202,47.08615444725178,12.5,0,-9.712659109727236,0.1788392383348256,-2.00167667296466,-3.122358054179501e-05,8.342412850453228e-06,-1.601341338371728e-05,2.800996449132706e-06,2.749280075728895e-06
319.4633898735386,194.2066511518392,12.5,0,11.84448521797446,-0.275366957255446,-1.524027481968274,3.812264626332261e-05,-1.035676243759699e-05,-1.219221985574619e-05,4.484925381666262e-05,4.499605983648076e-05
321.7033710518407,193.203036982873,12.5,0,11.8615823334564,-0.2896396110911703,-1.508902176500267,3.81887751559334e-05,-1.041611262225686e-05,-1.207121741200214e-05,4.486889915351261e-05,4.409414559587593e-05
320.1147911179008,196.6896203654763,12.5,0,11.90250279173314,-0.255271997193399,-1.538112510359845,3.829222653130076e-05,-1.033887262440539e-05,-1.230490008287876e-05,4.513443897232082e-05,4.576403848469762e-05
322.4740648874794,195.8281294240423,12.5,0,11.91538575972108,-0.2704046064127414,-1.52253651382366,3.834555811623765e-05,-1.039760334829764e-05,-1.218029211058928e-05,4.513523851988792e-05,4.490876651303267e-05
318.3351298222098,189.9060223202676,12.5,0,11.48942134037192,-0.2422312505795507,-1.777990044184391,3.695993328965377e-05,-9.966677074152094e-06,-1.422392035347513e-05,4.364877241259379e-05,4.361518747385852e-05
320.3684901714582,188.6562435002845,12.5,0,11.48644899787075,-0.2497095131655995,-1.780363596848647,3.695640440371889e-05,-9.98822964042652e-06,-1.424290877478918e-05,4.361567451232559e-05,4.264261155241667e-05
318.9865310665721,192.3889915339047,12.5,0,11.48759165721865,-0.2404476214709423,-1.781168161557394,3.695265140027642e-05,-9.959505714481932e-06,-1.424934529245915e-05,4.36479119600246e-05,4.442027694348954e-05
321.139184007097,191.2813359414538,12.5,0,11.48483558897162,-0.2478119087396249,-1.783253368831822,3.694972341170086e-05,-9.980866579144092e-06,-1.426602695065457e-05,4.361590800772648e-05,4.348693120427399e-05
321.8570132571408,187.7413419058723,12.5,0,11.04233812220747,-0.2558718493936047,-1.874649144738006,3.554017947057878e-05,-9.65266041582551e-06,-1.499719315790405e-05,4.192545627961324e-05,4.192541233522405e-05
323.8903736063893,186.4915630858892,12.5,0,11.04239291939608,-0.2677129799248852,-1.875601527089659,3.554982772600737e-05,-9.690595871276499e-06,-1.500481221671727e-05,4.18906259444362e-05,4.093856355606375e-05
322.7150353305568,190.4704757705263,12.5,0,11.05098211340313,-0.248536600827395,-1.882088726655668,3.556197204355191e-05,-9.636102813370163e-06,-1.505670981324534e-05,4.198241168253427e-05,4.279895688579581e-05
324.8676882710816,189.3628201780754,12.5,0,11.05051402606225,-0.2604881909451082,-1.882565703586764,3.557003543615527e-05,-9.673973431874143e-06,-1.506052562869412e-05,4.194511359941519e-05,4.185272183254647e-05
323.3431510822861,192.468340420025,12.5,0,11.45510843259563,-0.2902613309527173,-1.599783454471602,3.688855604906818e-05,-1.00929230051252e-05,-1.279826763577282e-05,4.333112309991273e-05,4.342968709953989e-05
325.5831322605882,191.4647262510588,12.5,0,11.4741341751844,-0.3107418186620152,-1.582749769910315,3.696582281551968e-05,-1.017368115986596e-05,-1.266199815928252e-05,4.333894951659068e-05,4.251626696855663e-05
324.201173155702,195.197474284679,12.5,0,11.5300954755439,-0.2615318408868763,-1.621011328950029,3.710553099444997e-05,-1.006097827127312e-05,-1.296809063160024e-05,4.370869386791558e-05,4.4279329538859e-05
326.5604469252806,194.335983343245,12.5,0,11.54429926471972,-0.2831172984194152,-1.60321201751729,3.716825148583863e-05,-1.01414147667179e-05,-1.282569614013832e-05,4.369450322668724e-05,4.341494771684594e-05
112.9397227725237,66.97871440834247,12.5,0,-9.702730980027681,-0.03275718446112519,1.946476167470817,-3.102253338851967e-05,7.657361793746544e-06,1.557180933976653e-05,2.653286376252834e-06,2.613563282267688e-06
115.8771071745977,66.30078250968788,12.5,0,-9.643812658701737,-0.09170937387648825,2.067331141888615,-3.078683300874437e-05,7.421580130556626e-06,1.653864913510892e-05,2.646559987297291e-06,2.671001212113967e-06
114.2575929139706,69.38322099736601,12.5,0,-9.25393093341496,0.1310511763200926,1.819397694155837,-2.971741992798395e-05,7.822508510956264e-06,1.455518155324669e-05,2.615911087232427e-06,2.552962379206104e-06
116.6985094651264,69.29345006886969,12.5,0,-9.263903176877861,0.02548562346848149,1.996459303599195,-2.966487866478394e-05,7.492676536601428e-06,1.597167442879356e-05,2.61301706081248e-06,2.585930699288974e-06
107.8520237468626,68.15292690086281,12.5,0,-9.383172607891199,-0.1497850407449568,2.003444834781387,-2.990632431265587e-05,7.027225955929097e-06,1.602755867825109e-05,2.537284504169795e-06,2.517795217236957e-06
110.7894081489366,67.47499500220817,12.5,0,-9.397791931197608,-0.3676682176208601,2.052736099935379,-2.977879960573565e-05,6.341695248571333e-06,1.642188879948303e-05,2.435056672591529e-06,2.572511859666065e-06
110.0298014304089,69.53870880656147,12.5,0,-9.132557726491893,0.2208445671874655,1.825762258540579,-2.940086037852402e-05,8.012748796193403e-06,1.460609806832464e-05,2.647828430525646e-06,2.500091597067421e-06
112.4707179815647,69.44893787806515,12.5,0,-9.223127454950379,-0.1871234647637388,1.944324728779023,-2.936430908403022e-05,6.779706876716338e-06,1.555459783023218e-05,2.462826952717706e-06,2.529961861087542e-06
107.8772940956119,64.05602565004673,12.5,0,-9.730423854691638,-0.3564741264275164,1.931619327792708,-3.085217703387123e-05,6.643621879185257e-06,1.545295462234167e-05,2.471082958737441e-06,2.662742002025372e-06
109.55860392824,66.02996852590368,12.5,0,-9.632117740905924,-0.2209385939133455,1.857562026091309,-3.064602589576828e-05,6.998690692202034e-06,1.486049620873047e-05,2.502270422561887e-06,2.60809019120014e-06
104.0800021514385,65.7526822320262,12.5,0,-9.723160947012115,-0.1202196048769184,1.92714474641323,-3.101793934653723e-05,7.393826022003552e-06,1.541715797130584e-05,2.600557501248991e-06,2.560719356719949e-06
106.2577798349848,67.13846413772488,12.5,0,-9.603239812333589,0.1088579874143307,1.837084964437014,-3.081745378939895e-05,8.030937409592728e-06,1.469667971549611e-05,2.682138591576989e-06,2.534040376474254e-06
110.6571047298006,62.81398682909442,12.5,0,-10.41002565010727,-0.03817710483819337,1.871448539651273,-3.328154039647271e-05,8.205853784603597e-06,1.497158831721018e-05,2.778698533670908e-06,2.735790442333324e-06
114.454396673974,61.11733024711499,12.5,0,-10.27061542044938,-0.06817161989186804,1.991377743883946,-3.281143204952452e-05,7.998343152705524e-06,1.593102195107157e-05,2.767165828298961e-06,2.833339847371373e-06
111.9749748712475,65.21849341811794,12.5,0,-10.10039867224305,0.0697815583512833,1.787187735038347,-3.237710099785878e-05,8.303619924518544e-06,1.429750188030678e-05,2.750893479853938e-06,2.662551914134848e-06
115.2757989645028,64.10999780629679,12.5,0,-9.975469673253828,0.0203932918271641,1.939867602064312,-3.193781758787398e-05,8.045634272449987e-06,1.551894081651449e-05,2.740356859725639e-06,2.737294293540655e-06
158.588477228972,313.1755130166551,12.5,0,2.137072208117279,3.578684127770279,-3.29545947929258,3.975683763759068e-06,9.742131442371069e-06,-2.636367583434064e-05,2.241476833620574e-05,2.27316349422542e-05
161.8039647858323,312.8194743232589,12.5,0,2.178120715166755,3.847039776911149,-3.378099741473897,3.892354467004695e-06,1.056803071398227e-05,-2.702479793179117e-05,2.355790076277992e-05,2.280638688000908e-05
159.3300351232248,315.7250284447463,12.5,0,1.959981173491494,3.485332859825015,-3.21007726544832,3.483673467312768e-06,9.585080212646852e-06,-2.568061812358656e-05,2.143443714809857e-05,2.209188672260805e-05
163.1167026828233,315.2416569473559,12.5,0,1.990817500084676,3.709293150119937,-3.277855832043481,3.403181480175012e-06,1.027708408031606e-05,-2.622284665634785e-05,2.237616275867586e-05,2.214068986779432e-05
153.0190894094845,313.7921901230669,12.5,0,2.32080501186152,3.346144606993085,-3.346087891120685,4.749660352362396e-06,8.851018732888654e-06,-2.676870312896548e-05,2.226115889505601e-05,2.261606746194901e-05
156.2345769663448,313.4361514296706,12.5,0,2.350382090694491,3.546348129314764,-3.411510187671529,4.68414418677056e-06,9.468008341251651e-06,-2.729208150137223e-05,2.310905469294506e-05,2.268063900788263e-05
152.771334518745,316.5622524371418,12.5,0,2.182970167493926,3.324025141986592,-3.295636895430416,4.326284422391291e-06,8.890504320361952e-06,-2.636509516344332e-05,2.168465909931881e-05,2.199720609117348e-05
156.5580020783436,316.0788809397516,12.5,0,2.205239881943672,3.493234805521593,-3.350054664235175,4.262179777802475e-06,9.414159472114159e-06,-2.68004373138814e-05,2.239195109201484e-05,2.205344036053673e-05
153.448213468061,308.9943014550437,12.5,0,2.548913847259858,3.421183970527554,-3.540596313604393,5.419577134809503e-06,8.908657627880283e-06,-2.832477050883514e-05,2.345306377123228e-05,2.376153567757395e-05
155.6743882399292,308.8588096476312,12.5,0,2.580136015557373,3.581066170361648,-3.594389483720791,5.391582313494275e-06,9.395302932711374e-06,-2.875511586976633e-05,2.415494467349738e-05,2.381938337879651e-05
153.2004585773217,311.7643637691186,12.5,0,2.405233276434652,3.398319169993961,-3.48714521903431,4.978091148595716e-06,8.950434722832955e-06,-2.789716175227448e-05,2.285008034155802e-05,2.308881814979264e-05
155.997813351928,311.501539157712,12.5,0,2.426021182552358,3.524416144891982,-3.528310143747602,4.94373486825396e-06,9.337314717612453e-06,-2.822648114998082e-05,2.339006433007124e-05,2.315382201348999e-05
157.3040612793955,308.7596227606002,12.5,0,2.403128605483235,3.609699350235467,-3.49918375947586,4.802252057357976e-06,9.628535036366906e-06,-2.799347007580688e-05,2.358171589819597e-05,2.386301864338486e-05
159.5302360512637,308.6241309531875,12.5,0,2.451456380541408,3.846321795997417,-3.564879229941483,4.767602980934569e-06,1.034706464275861e-05,-2.851903383953186e-05,2.461960281004644e-05,2.392438470202447e-05
158.0456191736482,311.3091381886911,12.5,0,2.222745796461925,3.507741055837358,-3.402964074238144,4.306593704008274e-06,9.446574741510004e-06,-2.722371259390515e-05,2.254833156194061e-05,2.320620831010056e-05
160.8429739482546,311.0463135772846,12.5,0,2.255329082566954,3.689884312898175,-3.451568643225556,4.265145613895711e-06,1.00033665352206e-05,-2.761254914580445e-05,2.332994626591347e-05,2.328432647036974e-05
207.3298345431056,311.1290922079229,12.5,0,0.3653019630647018,4.139223799498582,-1.370581155141513,-2.14241275779182e-06,1.29532745879437e-05,-1.09646492411321e-05,1.737646093400872e-05,1.787258539410672e-05
209.985719772527,309.7205058105661,12.5,0,0.3337054312448379,4.376528745893848,-1.387136008494873,-2.433365616731597e-06,1.373792764186444e-05,-1.109708806795898e-05,1.818082387026883e-05,1.76249902200752e-05
208.4986585990312,313.2088924763653,12.5,0,0.2325826900413134,4.022764958435412,-1.28801679411816,-2.473947358616127e-06,1.268678171496027e-05,-1.030413435294528e-05,1.649036820381372e-05,1.701220476238352e-05
211.5258557465108,311.3607967639585,12.5,0,0.1952417851478233,4.211400540271979,-1.29503710447722,-2.744346719744549e-06,1.332028830075207e-05,-1.036029683581776e-05,1.709108420145356e-05,1.67360212680087e-05
202.7297063867586,313.5688354149514,12.5,0,0.4886531181387629,4.165311988219934,-1.557756887979518,-1.768559612531906e-06,1.293807586779278e-05,-1.246205510383614e-05,1.79529440807123e-05,1.827589560842916e-05
205.3855916161801,312.1602490175947,12.5,0,0.4438691234077973,4.294649667057858,-1.586105887721178,-2.015338538741335e-06,1.338778363585891e-05,-1.268884710176942e-05,1.831391049667964e-05,1.80469949672598e-05
203.255399335163,316.4098881474468,12.5,0,0.3502745654567144,4.108510123361783,-1.50055933628617,-2.16592948922794e-06,1.286701274239233e-05,-1.200447469028936e-05,1.728204194678989e-05,1.74208277894505e-05
206.2825964826427,314.5617924350399,12.5,0,0.3019553511504708,4.215118667939405,-1.520697263877921,-2.405837810670017e-06,1.324681545648572e-05,-1.216557811102337e-05,1.754447347340625e-05,1.719569811676971e-05
201.8191794909579,308.6479877353754,12.5,0,0.5543208158410499,4.473509155297333,-1.772895127071277,-1.804980713546507e-06,1.387177264427862e-05,-1.418316101657022e-05,1.942841441927655e-05,1.988150061083285e-05
203.8319336128581,308.0006538020715,12.5,0,0.5467948712696057,4.581901375408476,-1.801771345129467,-1.915777512264042e-06,1.422464850429144e-05,-1.441417076103574e-05,1.982616411745428e-05,1.962547519279537e-05
202.3448724393623,311.4890404678708,12.5,0,0.4291673830032515,4.420988663265701,-1.718705111979654,-2.163455305002155e-06,1.380382981604764e-05,-1.374964089583723e-05,1.881471267895399e-05,1.893523090373525e-05
204.7289384793208,310.4021972195168,12.5,0,0.411051914150236,4.503527667340756,-1.736828699188832,-2.287456008591849e-06,1.408244700417023e-05,-1.389462959351065e-05,1.907775102930019e-05,1.869805177254827e-05
205.3053718931701,307.5267724734498,12.5,0,0.4503678722393527,4.427204074458331,-1.601437046831256,-2.100586068400736e-06,1.380675874047518e-05,-1.281149637465005e-05,1.88389128662398e-05,1.943132859227943e-05
207.3181260150704,306.8794385401458,12.5,0,0.4694472909944254,4.651978485738248,-1.619293876204134,-2.219351457408437e-06,1.451077332156685e-05,-1.295435100963307e-05,1.975058530964359e-05,1.915693563356805e-05
206.4741959490957,309.6065727418923,12.5,0,0.3390799136616417,4.311214817319401,-1.520184709303139,-2.363916130138267e-06,1.352462348449277e-05,-1.216147767442511e-05,1.801832340226498e-05,1.852078767069803e-05
208.8582619890542,308.5197294935383,12.5,0,0.3409268382331104,4.470847766564806,-1.524555698587082,-2.485712330905891e-06,1.403397138242089e-05,-1.219644558869665e-05,1.86257767781591e-05,1.827367226925154e-05
128.7811611502408,241.5620151413047,12.5,0,7.722716043722346,0.8528010431313924,-3.973031160241063,2.403045050540639e-05,-3.44920949695742e-06,-3.178424928192851e-05,3.380898350970103e-05,3.321630349685233e-05
131.3657195690579,241.1920433875508,12.5,0,7.72623254162658,0.9310079398226938,-4.013411187510434,2.39791377813469e-05,-3.201760625868644e-06,-3.210728950008347e-05,3.408971510878004e-05,3.399430909834665e-05
129.170132009959,244.6128364563809,12.5,0,7.584529138672414,0.8070977932342116,-3.931564836209075,2.362481500916435e-05,-3.484910372588453e-06,-3.14525186896726e-05,3.313278375444712e-05,3.308492441584828e-05
131.7455851255928,244.1227571492656,12.5,0,7.582430388237039,0.8832588609059575,-3.970163571363103,2.355717015363376e-05,-3.239515955690567e-06,-3.176130857090483e-05,3.338517674239109e-05,3.385719007249221e-05
129.4548784419244,246.8461926637358,12.5,0,7.421848756742292,1.079806193647932,-4.145734522203028,2.288607106665699e-05,-2.482099185720449e-06,-3.316587617762422e-05,3.352982899078801e-05,3.295995676682162e-05
132.0236660130099,246.2681885251909,12.5,0,7.415609719516676,1.150233314642103,-4.181645989949005,2.280976445073968e-05,-2.251741168758612e-06,-3.345316791959204e-05,3.37506885265318e-05,3.372666300708436e-05
129.8438493016426,249.897013978812,12.5,0,7.290335913534404,1.036476427231275,-4.106790021090814,2.249989378152507e-05,-2.515544163687444e-06,-3.285432016872651e-05,3.28878077429613e-05,3.27499178813679e-05
132.4035315695449,249.1989022869057,12.5,0,7.278798775808153,1.104981223427741,-4.141040502310442,2.24081711038439e-05,-2.287099105677753e-06,-3.312832401848354e-05,3.30820792110599e-05,3.350717545846653e-05
125.0056078550326,247.8473251986626,12.5,0,7.24020126240594,0.9132369527966769,-4.01237028103556,2.243805447746166e-05,-2.869802760975385e-06,-3.209896224828448e-05,3.225633585379729e-05,3.16336139822616e-05
127.5743954261182,247.2693210601178,12.5,0,7.232180680175903,0.9653880057201104,-4.044931310056623,2.23706677719868e-05,-2.696502925836369e-06,-3.235945048045298e-05,3.24110666196245e-05,3.239912597091907e-05
125.4103495624823,251.1061788985298,12.5,0,7.11625507670188,0.8740466936014197,-3.980277996300092,2.207277889056488e-05,-2.896054641836961e-06,-3.184222397040074e-05,3.166034556624998e-05,3.142826041622579e-05
127.9700318303846,250.4080672066235,12.5,0,7.103572665337565,0.9245990996872113,-4.0115530386733,2.199175324933044e-05,-2.724141013270975e-06,-3.20924243093864e-05,3.179219622440397e-05,3.219287427468393e-05
124.3045746538003,242.2028250161603,12.5,0,7.543389635568971,0.6676486478702304,-3.826778576086013,2.360472791552452e-05,-3.89823603527044e-06,-3.06142286086881e-05,3.248292021789246e-05,3.192371325645467e-05
126.8891330726173,241.8328532624064,12.5,0,7.544527960564112,0.7339422549648831,-3.866129685093129,2.355533566983325e-05,-3.687007152563664e-06,-3.092903748074503e-05,3.271634692978353e-05,3.266148901318341e-05
124.7093163612499,245.4616787160275,12.5,0,7.401334401371861,0.6221981688864198,-3.788283108489483,2.318651154928082e-05,-3.930033380660945e-06,-3.030626486791587e-05,3.179615860928412e-05,3.17663701706845e-05
127.2847694768837,244.9715994089122,12.5,0,7.397084972979276,0.6866171168363333,-3.826084861030319,2.312137822006461e-05,-3.720493204507154e-06,-3.060867888824255e-05,3.200285320282307e-05,3.252469091165742e-05
132.2135551870957,261.4833702946163,12.5,0,6.422579278300541,1.700808652319,-4.414965241916179,1.919160676870653e-05,3.045242647803674e-07,-3.531972193532943e-05,3.205648233322912e-05,3.177921708850778e-05
134.195124538207,261.1709705643924,12.5,0,6.422967690566872,1.814076794035895,-4.478689696085586,1.910223517458527e-05,6.666715884613667e-07,-3.582951756868469e-05,3.246697004530227e-05,3.225979995473562e-05
132.1423832122608,263.9879946045851,12.5,0,6.19239131211479,1.647197006688855,-4.362033573166358,1.849789459341624e-05,3.17117371712505e-07,-3.489626858533087e-05,3.102026114199762e-05,3.137618252841031e-05
134.4516951938243,263.9553312796849,12.5,0,6.216207935383501,1.751141811752748,-4.422835236139921,1.8490951943825e-05,6.306874493019912e-07,-3.538268188911937e-05,3.148294341438973e-05,3.186455379633948e-05
132.0902817106088,265.8215068532764,12.5,0,6.071374603971002,1.818722222714449,-4.412315119315347,1.797342095453565e-05,9.628114295094354e-07,-3.529852095452278e-05,3.116960680158795e-05,3.107604425465478e-05
134.6395179494595,265.9936247897912,12.5,0,6.134893505508858,2.004059515795475,-4.518699871515466,1.802841160499196e-05,1.505075646138435e-06,-3.614959897212373e-05,3.207230920205259e-05,3.15592545420889e-05
132.019109735774,268.3261311632453,12.5,0,5.812650432769069,1.758651932842207,-4.350182111732972,1.719355983858725e-05,9.775658388798078e-07,-3.480145689386377e-05,3.00064065300867e-05,3.065908580152127e-05
134.8960886050768,268.7779855050838,12.5,0,5.890926182366377,1.929247557243396,-4.450405276707484,1.730756573777769e-05,1.460851237285768e-06,-3.560324221365987e-05,3.090955994995515e-05,3.112040762632411e-05
127.6748750245032,265.5233898423442,12.5,0,6.073730469581592,1.525337498749516,-4.254469240745127,1.821566750366148e-05,2.209562033317868e-08,-3.403575392596102e-05,3.01235854774917e-05,3.034762933143455e-05
130.2241112633538,265.6955077788591,12.5,0,6.135007443448371,1.707762753252819,-4.351821437404269,1.826581361643253e-05,5.568348556503225e-07,-3.481457149923415e-05,3.099604059560747e-05,3.075139025794086e-05
127.036036161929,267.5434964855743,12.5,0,5.894296117358702,1.521092088410864,-4.225662680317502,1.764487390481915e-05,1.520577890278029e-07,-3.380530144254002e-05,2.944486269875303e-05,2.997125503989254e-05
129.9130150312318,267.9953508274129,12.5,0,5.96538706227821,1.681231117954622,-4.31370113275183,1.774425370492657e-05,6.076299276322217e-07,-3.450960906201464e-05,3.027496218027236e-05,3.035117129401637e-05
128.7813763923112,262.0244624996251,12.5,0,6.384675787492225,1.464084153738152,-4.287193195202354,1.925969519698459e-05,-4.226713380316919e-07,-3.429754556161883e-05,3.107469779603864e-05,3.10067878493846e-05
130.7629457434226,261.7120627694013,12.5,0,6.388566344665151,1.60388601052075,-4.357244382074284,1.916030349451188e-05,2.158215793427766e-08,-3.485795505659427e-05,3.158293872553171e-05,3.144347350678299e-05
128.1425375297371,264.0445691428552,12.5,0,6.190393428375163,1.458496763116987,-4.257224661657499,1.864246156030693e-05,-2.851251007257734e-07,-3.405779729325999e-05,3.033548146806034e-05,3.062509951146524e-05
130.4518495113006,264.0119058179551,12.5,0,6.217735664049666,1.576816664484058,-4.319877606213345,1.863530079337168e-05,7.162479510925172e-08,-3.455902084970676e-05,3.085504068548564e-05,3.10440717537333e-05
130.2243204916197,252.0230770696779,12.5,0,7.100802727308814,1.312096190694221,-4.277128128568001,2.167289177483282e-05,-1.481934371625544e-06,-3.421702502854401e-05,3.317927066619263e-05,3.260526470060563e-05
132.7072618285662,251.3155845589153,12.5,0,7.085467705739019,1.371294225761606,-4.312246776509672,2.157646127775557e-05,-1.280232642154077e-06,-3.449797421207737e-05,3.333464454026703e-05,3.333021444466574e-05
130.8748162537791,254.7807681391915,12.5,0,6.957404577297169,1.257988274115841,-4.233912708583054,2.125730402805827e-05,-1.540361184667043e-06,-3.387130166866443e-05,3.245827994052633e-05,3.242010374672354e-05
133.1572027715088,254.1677543080569,12.5,0,6.942639643613707,1.323286636744994,-4.272802170914548,2.115781755016786e-05,-1.319594477306986e-06,-3.418241736731639e-05,3.263756501815677e-05,3.306623551260039e-05
131.3510122017678,256.7995381135685,12.5,0,6.778537057984766,1.52808708799882,-4.385781369780022,2.046884891515219e-05,-5.329509647915872e-07,-3.508625095824018e-05,3.277186685329599e-05,3.226239192837192e-05
133.4865824021341,256.2556874761507,12.5,0,6.76890279660166,1.594431352492541,-4.419962209247674,2.038494386713128e-05,-3.129419093051973e-07,-3.53596976739814e-05,3.29719003448152e-05,3.285018386988548e-05
132.0015079639273,259.5572291830821,12.5,0,6.612612805321102,1.463032495399646,-4.331685592044348,1.998993498070781e-05,-6.083862589780138e-07,-3.465348473635478e-05,3.192770568624635e-05,3.201667618154497e-05
133.9365233450767,259.1078572252923,12.5,0,6.604631991130378,1.537556966295626,-4.370414332598017,1.99047767985807e-05,-3.635233007582997e-07,-3.496331466078413e-05,3.216283260712864e-05,3.252389873696988e-05
127.6520961116698,257.7415150492881,12.5,0,6.651154631626637,1.38692434427786,-4.285939145404268,2.017415534578295e-05,-8.827658036121566e-07,-3.428751316323415e-05,3.179265419955826e-05,3.125422568791459e-05
129.7876663120361,257.1976644118702,12.5,0,6.642360449183436,1.427125879737686,-4.311219278853377,2.011385273359684e-05,-7.470855441861534e-07,-3.448975423082702e-05,3.190641990507308e-05,3.183475622237228e-05
128.6499630104094,260.3355642454567,12.5,0,6.536910714798237,1.335989039486111,-4.247054103181355,1.984932305576547e-05,-9.543636454830339e-07,-3.397643282545084e-05,3.119146182394276e-05,3.117536170029623e-05
130.5849783915589,259.886192287667,12.5,0,6.529049064482407,1.381482471858062,-4.275776239739521,1.978777102885725e-05,-8.024953416401251e-07,-3.420620991791617e-05,3.132779321749992e-05,3.165533677161605e-05
125.9237399438924,253.2484900442714,12.5,0,6.940860855562587,1.145200193404768,-4.145946828039944,2.129459458307646e-05,-1.888048065554811e-06,-3.316757462431955e-05,3.198110359813573e-05,3.133830223304896e-05
128.4066812808391,252.5409975335087,12.5,0,6.924700935383052,1.189994676077255,-4.178786709593439,2.120704725236396e-05,-1.731777784859224e-06,-3.343029367674751e-05,3.208636200182259e-05,3.207153343212583e-05
126.9216068426322,255.8425392404401,12.5,0,6.8164778892153,1.092353611257554,-4.106223534073058,2.093884635648291e-05,-1.957650755348068e-06,-3.284978827258446e-05,3.133632571740976e-05,3.129788547207862e-05
129.2039933603618,255.2295254093054,12.5,0,6.800559305315297,1.142042559007865,-4.142665377187005,2.084815572980266e-05,-1.785911255427071e-06,-3.314132301749604e-05,3.146037468998301e-05,3.194627578144494e-05
128.2581162054491,231.8769071473037,12.5,0,8.114526546947539,0.4563245511427236,-3.548075041990564,2.560142530931794e-05,-5.031382673901315e-06,-2.838460033592451e-05,3.376306161308555e-05,3.346982796536595e-05
130.2707212190515,231.2764184462586,12.5,0,8.118657032688629,0.4965846305065413,-3.551349520696887,2.558243480019838e-05,-4.905854808529971e-06,-2.84107961655751e-05,3.390192229649875e-05,3.4108834567617e-05
128.3809897898431,234.6426331352741,12.5,0,8.085764931248608,0.4468222244576705,-3.526790778066902,2.55169900004294e-05,-5.03878082673434e-06,-2.821432622453522e-05,3.361402156709299e-05,3.343578453783276e-05
130.5792862255575,234.1307411453119,12.5,0,8.09086846614623,0.4843642378155406,-3.530768313622652,2.55032877014155e-05,-4.922729211907252e-06,-2.824614650898122e-05,3.374870819337863e-05,3.413605452837993e-05
128.4709394965238,236.667285078196,12.5,0,7.93990365966232,0.6531657360368033,-3.766610220206027,2.488515912208998e-05,-4.261792572412084e-06,-3.013288176164822e-05,3.385685611988731e-05,3.338973745264572e-05
130.8051714877481,236.2202503821272,12.5,0,7.938917224984392,0.7161665889337228,-3.796721914131427,2.483160184880307e-05,-4.0594006953996e-06,-3.037377531305142e-05,3.406497096173154e-05,3.412456411385386e-05
128.5938130809178,239.4330110661663,12.5,0,7.831945263254878,0.6229478516705058,-3.735760136431051,2.45638665610792e-05,-4.272123085258283e-06,-2.988608109144841e-05,3.334583489394516e-05,3.329797790390215e-05
131.113736494254,239.0745730811805,12.5,0,7.835310836321922,0.6828114838523007,-3.765023462101933,2.452674548914831e-05,-4.083251920730175e-06,-3.012018769681546e-05,3.35597721962943e-05,3.406595175680432e-05
124.4279310911434,237.4415718845192,12.5,0,7.710393378259697,0.4670861019641237,-3.655323745360962,2.429958992885973e-05,-4.673639176322561e-06,-2.924258996288769e-05,3.237193292181984e-05,3.219434741877192e-05
126.7621630823676,236.9945371884505,12.5,0,7.716967549849413,0.5436033300229972,-3.675811154404285,2.425941349549972e-05,-4.434043383805939e-06,-2.940648923523428e-05,3.264069125642916e-05,3.287253744799754e-05
124.2291776979156,240.0538438675133,12.5,0,7.636338495503781,0.4547392512049482,-3.625062410995988,2.407249178464814e-05,-4.653905192547191e-06,-2.90004992879679e-05,3.204074491357943e-05,3.203838941445502e-05
126.7491011112518,239.6954058825274,12.5,0,7.64558238215454,0.526127198235173,-3.645325082289169,2.404496186430639e-05,-4.432858871371078e-06,-2.916260065831335e-05,3.230364746135033e-05,3.27546942116828e-05
124.7721820663844,232.9169840868663,12.5,0,7.966774616666395,0.3351881713899005,-3.44548297673948,2.522552823622054e-05,-5.300817544885434e-06,-2.756386381391584e-05,3.278471105901023e-05,3.243692643538748e-05
126.7847870799869,232.3164953858211,12.5,0,7.956804792119288,0.3814601874549937,-3.46853772940906,2.515660718481773e-05,-5.14477123383945e-06,-2.774830183527248e-05,3.290144146636787e-05,3.302184153152997e-05
124.5734286731566,235.5292560698602,12.5,0,7.871840747511543,0.3160886730713512,-3.423864632152833,2.493701945357986e-05,-5.28598884418091e-06,-2.739091705722266e-05,3.236133483596655e-05,3.230113509168135e-05
126.771725108871,235.017364079898,12.5,0,7.867355172295893,0.3593719763960432,-3.446021679922161,2.488803897023002e-05,-5.143893813369375e-06,-2.756817343937729e-05,3.248880832376348e-05,3.294411935660851e-05
350.5302046668164,8.134118831586997,12.5,0,-14.74341102275935,-0.4780985448059418,-1.112769870830063,-4.679643643698517e-05,1.026481347482847e-05,-8.902158966640501e-06,3.383921637666586e-06,3.872526690971635e-06
358.0691753288381,17.53825576647819,12.5,0,-14.32102215077794,-0.145277426479085,-1.334910501091295,-4.571104894130612e-05,1.099192995588928e-05,-1.067928400873036e-05,3.496670317578162e-06,3.590804932306361e-06
346.9885618068139,20.27572290923269,12.5,0,-15.1411736934585,-0.4807434772868109,-1.02636721145173,-4.806716103723774e-05,1.0574559827449e-05,-8.210937691613841e-06,3.467379930834033e-06,3.612917751796772e-06
354.7053866852196,27.83002946586435,12.5,0,-14.76034962735136,-0.1343725208193449,-1.244941837614725,-4.712562079086887e-05,1.137828763525918e-05,-9.959534700917797e-06,3.593810606661805e-06,3.332005597895871e-06
363.5880848899744,24.42256180386091,12.5,0,-11.84890521216718,0.01752543384721683,-1.879741451088176,-3.793051702601275e-05,9.535205558044838e-06,-1.503793160870541e-05,3.130163462781446e-06,3.417304411035787e-06
371.127055551996,33.82669873875212,12.5,0,-11.37238412086259,0.2537586022182508,-2.072037450007874,-3.65946360685349e-05,9.909934823788477e-06,-1.657629960006299e-05,3.22125785354956e-06,3.225013930430013e-06
360.354494569084,33.3601656810343,12.5,0,-12.20945511073266,-0.02842198927474815,-1.881401008019072,-3.904751876292471e-05,9.676613722906934e-06,-1.505120806415258e-05,3.184224908941753e-06,3.182638840881868e-06
368.0713194474898,40.91447223766596,12.5,0,-11.77842599931638,0.2119242696949928,-2.084888760275812,-3.786050261356841e-05,1.010089846247708e-05,-1.66791100822065e-05,3.287057393588838e-06,3.055473425641365e-06
357.9873421634298,39.90294581677164,12.5,0,-10.08564926257257,-0.1743540496156455,-2.584523234178208,-3.213459440053971e-05,7.510586451287991e-06,-2.067618587342566e-05,2.879646681815496e-06,3.062353731757337e-06
365.8343653645637,46.10308255119053,12.5,0,-10.22962130209275,0.02443069535825115,-2.560680604924608,-3.275433272298341e-05,8.261875266820604e-06,-2.048544483939686e-05,3.015852382421469e-06,2.960324169704217e-06
354.7537518425395,48.84054969394499,12.5,0,-9.804406346814083,-0.0199565755225426,-2.456442345746747,-3.135813504938703e-05,7.77966403577913e-06,-1.965153876597398e-05,2.865224519691647e-06,2.968394272375099e-06
362.7786292600574,53.19085605010437,12.5,0,-9.89479235456159,0.2256346819851371,-2.402600056538835,-3.18438432801852e-05,8.63786486600171e-06,-1.922080045231069e-05,3.012675366856919e-06,2.869912072959147e-06
344.3958992911387,29.16399397907691,12.5,0,-11.93873097431175,-0.1747027084634327,-2.176148069382887,-3.806417695102684e-05,8.991936112366411e-06,-1.740918455506309e-05,3.119891182817197e-06,3.433806075789718e-06
352.2429224922724,35.3641307134958,12.5,0,-12.15349854626665,-0.09925090955905302,-2.098688905764553,-3.881179462040602e-05,9.405195926424345e-06,-1.678951124611642e-05,3.187951465758715e-06,3.189222826119747e-06
340.8542564311362,41.30559805672258,12.5,0,-11.48527054474861,-0.008849268760088957,-2.056100052938979,-3.674578632818749e-05,9.159898775766605e-06,-1.644880042351183e-05,3.082693873682414e-06,3.204072815863689e-06
348.8791338486541,45.65590441288192,12.5,0,-11.63689449612882,0.09665431755260734,-1.955856774499211,-3.731538584165431e-05,9.6188094130714e-06,-1.564685419599369e-05,3.150238463612062e-06,3.057932373575769e-06
125.3430491996211,222.275113841833,12.5,0,8.231198340887961,0.06295431376456984,-2.988903146671564,2.628947123982982e-05,-6.383504868663745e-06,-2.391122517337251e-05,3.268188027322781e-05,3.224721813333569e-05
128.534782489533,221.3831176084751,12.5,0,8.261354408276723,0.0765952302813071,-2.949940333731165,2.637505792226046e-05,-6.363978789721196e-06,-2.359952266984932e-05,3.281377535841281e-05,3.330851276532209e-05
126.2694602872545,225.0476303159798,12.5,0,8.330852789553404,0.08586685649250425,-2.999061514970536,2.659003544137689e-05,-6.389908290866709e-06,-2.399249211976429e-05,3.312900848218551e-05,3.269625714932541e-05
129.0586547211134,224.2392598128155,12.5,0,8.3663933784671,0.1016999670419159,-2.954667514338996,2.669109883746118e-05,-6.367674808239549e-06,-2.363734011471197e-05,3.328498057266591e-05,3.361938890208176e-05
126.9476402720684,227.0772532397907,12.5,0,8.202522955997246,0.2568504768489146,-3.297250328904359,2.604259307771206e-05,-5.74009683888127e-06,-2.637800263123487e-05,3.333392778450978e-05,3.299199156456069e-05
129.4421558112884,226.3301010199455,12.5,0,8.223615009132184,0.2751294660375723,-3.27362692447677,2.609546445639293e-05,-5.698477715985516e-06,-2.618901539581416e-05,3.345304995279659e-05,3.381045768079759e-05
127.8740513597018,229.8497697139374,12.5,0,8.27764013708466,0.2699703212827211,-3.300076901748836,2.627247218164473e-05,-5.758207081563019e-06,-2.640061521399069e-05,3.365490810084157e-05,3.335091399657479e-05
129.9660280428687,229.1862432242859,12.5,0,8.303808584582715,0.2918910661291234,-3.272035294090741,2.633867461776138e-05,-5.708995456052976e-06,-2.617628235272593e-05,3.380146892876418e-05,3.40215911552519e-05
122.6270126179469,228.371358845527,12.5,0,7.960079581939111,0.1428066313557907,-3.221009680891629,2.535800935712052e-05,-5.911082445212758e-06,-2.576807744713303e-05,3.204377874162692e-05,3.174245325296901e-05
125.1215281571669,227.6242066256819,12.5,0,7.977774146070862,0.1127609598801524,-3.19147728867787,2.543866849952263e-05,-6.021384245240202e-06,-2.553181830942296e-05,3.200219368948644e-05,3.243787144819729e-05
124.2506414562722,230.9990313061609,12.5,0,8.07746243160094,0.1983461854751118,-3.263546870634259,2.568920283274292e-05,-5.827262151760393e-06,-2.610837496507407e-05,3.267256949074143e-05,3.228722808788323e-05
126.3426181394392,230.3355048165095,12.5,0,8.100083696170815,0.1635579954958064,-3.229181622095414,2.578942143134996e-05,-5.956681371350071e-06,-2.583345297676331e-05,3.263211675271311e-05,3.288619281330546e-05
119.8148049773839,223.8200966381414,12.5,0,7.876725298530761,-0.1181893328538477,-2.915370431244268,2.530007242158151e-05,-6.679586103956921e-06,-2.332296344995414e-05,3.077751610884797e-05,3.072518987350526e-05
123.0065382672959,222.9281004047833,12.5,0,7.911882314755717,-0.1293925399908087,-2.863277218990095,2.542153743921094e-05,-6.743561979775161e-06,-2.290621775192076e-05,3.084617468585873e-05,3.155501885070608e-05
121.4384338157092,226.4477690987752,12.5,0,8.014256032678585,-0.07234034360086961,-2.9539521308137,2.570349157945216e-05,-6.64289392566565e-06,-2.36316170465096e-05,3.144911471157471e-05,3.132390637489291e-05
124.2276282495682,225.6393985956109,12.5,0,8.055803446070946,-0.08461334608071036,-2.895002465650051,2.584626170429159e-05,-6.715405464315029e-06,-2.316001972520041e-05,3.153484264358346e-05,3.208118445994455e-05
107.7642810170205,74.75242921018361,12.5,0,-8.246270154883284,-0.1756727534279712,1.911015515543903,-2.624752629288413e-05,6.034863312937119e-06,1.528812412435123e-05,2.257618198640908e-06,2.29549236194545e-06
109.9792569992141,75.70716629868731,12.5,0,-8.424499277088685,-0.2510990221010494,2.064234580727616,-2.675751846900295e-05,5.93608255094759e-06,1.651387664582093e-05,2.307734594186983e-06,2.297456863874381e-06
108.2349095750443,77.77966052721591,12.5,0,-7.70567013388871,-0.03396587641037829,1.862730458966192,-2.463097172731557e-05,6.055845302597757e-06,1.490184367172954e-05,2.214393077684456e-06,2.205794137794024e-06
110.3810026700651,78.63155913947699,12.5,0,-7.873947949272024,-0.1075582996424245,2.018765806740511,-2.511058679795653e-05,5.954971800561861e-06,1.615012645392409e-05,2.26524963468436e-06,2.206106035544903e-06
103.9278300783854,73.09877606505451,12.5,0,-8.469186681621183,-0.2863720814008996,1.900479004720997,-2.687229971606707e-05,5.858958684814067e-06,1.520383203776797e-05,2.236729506775704e-06,2.294381640459234e-06
106.1428060605789,74.05351315355821,12.5,0,-8.636713572040541,-0.3430662222407241,2.045343896234216,-2.736303045273715e-05,5.811558946462115e-06,1.636275116987373e-05,2.29152092311422e-06,2.294668358314842e-06
104.5177672967624,76.30412884790881,12.5,0,-7.919118921149049,-0.144911170196657,1.854015478979555,-2.522525161151963e-05,5.871579392289936e-06,1.483212383183644e-05,2.188612892265944e-06,2.202952880293199e-06
106.6638603917831,77.15602746016989,12.5,0,-8.076621277428728,-0.1993780215083363,2.001401706263902,-2.568568567056526e-05,5.823287353116306e-06,1.601121365011121e-05,2.24454216898967e-06,2.204949252390747e-06
102.9060288428989,67.5469421890683,12.5,0,-9.326777027501123,-0.3175849882305943,1.785980241075577,-2.959161849741911e-05,6.445149659662996e-06,1.428784192860461e-05,2.36163132992536e-06,2.482056213026049e-06
105.2403134854456,68.67980074339403,12.5,0,-9.557748654563193,-0.3746496534840058,1.964459482292707,-3.028507597181501e-05,6.447320032501735e-06,1.571567585834166e-05,2.435183671412836e-06,2.469018573718458e-06
103.4959660612759,70.75229497192262,12.5,0,-8.672977304126801,-0.1543064186723218,1.741225684867396,-2.76300822382679e-05,6.44460130355001e-06,1.392980547893917e-05,2.299784554897441e-06,2.369167153067509e-06
105.7613678166499,71.78231505000571,12.5,0,-8.893328682676177,-0.2087035690597063,1.922990328580544,-2.8291688929316e-05,6.446811525149881e-06,1.538392262864435e-05,2.375024874214356e-06,2.365425519708235e-06
106.9491284430449,69.5091107629142,12.5,0,-9.030488568756258,-0.1679907917730117,1.850557220486001,-2.876317078660161e-05,6.686820321331367e-06,1.480445776388801e-05,2.402517399452233e-06,2.461959943930691e-06
109.2834130855917,70.64196931723991,12.5,0,-9.2416222478163,-0.2369296340239813,2.01350695051843,-2.938364748579297e-05,6.635122969376299e-06,1.610805560414744e-05,2.461941397867506e-06,2.455713048025463e-06
107.4197570010688,72.53634207994654,12.5,0,-8.477103992033378,-0.02638842789410001,1.809967852687862,-2.710562203219152e-05,6.697240224365581e-06,1.44797428215029e-05,2.355708671873361e-06,2.364131782826101e-06
109.6851587564427,73.56636215802961,12.5,0,-8.679245526337747,-0.09341078884455056,1.976059716203634,-2.769885705320514e-05,6.644481896767634e-06,1.580847772962907e-05,2.416137326832928e-06,2.36433886129161e-06
334.473433537361,201.4532238675864,12.5,0,11.73147833408787,-0.3806192037765794,-1.211230867944431,3.784522603210243e-05,-1.060316411935535e-05,-9.689846943555444e-06,4.404247822288288e-05,4.472392832665241e-05
337.3547362567559,201.6080302231662,12.5,0,11.72787096054514,-0.3308079640555244,-1.092753953786267,3.779383344498885e-05,-1.044088225341379e-05,-8.742031630290135e-06,4.415790890117756e-05,4.444150628638834e-05
334.0762411948214,205.2992298114016,12.5,0,12.26432010833123,-0.2386944764632686,-1.15693300677957,3.943677992783055e-05,-1.057527841134744e-05,-9.255464054236558e-06,4.650070979625363e-05,4.633032194770547e-05
336.6249903560719,205.9155241557289,12.5,0,12.19597114827912,-0.2012596677046905,-1.033659199779833,3.918811540865692e-05,-1.04008078552783e-05,-8.269273598238668e-06,4.633265009878491e-05,4.627785874007837e-05
329.4828708354725,201.1850913943927,12.5,0,11.93247604847052,-0.3302553243486148,-1.186508382924298,3.844812761458454e-05,-1.060279787669198e-05,-9.492067063394385e-06,4.495905634968009e-05,4.547314813838345e-05
332.3641735548673,201.3398977499723,12.5,0,11.91999326431393,-0.3186620488888932,-1.072313506358534,3.839890808491567e-05,-1.05557131678956e-05,-8.578508050868273e-06,4.492793881259343e-05,4.500035592776404e-05
329.6616781518662,204.2317766946288,12.5,0,12.35951876799144,-0.2247032101190989,-1.187676947291666,3.973022262566787e-05,-1.060666528677427e-05,-9.501415578333332e-06,4.691256075100522e-05,4.663251324952042e-05
332.2104273131168,204.8480710389559,12.5,0,12.28024964400238,-0.2278376202302979,-1.059456527660054,3.947906895699184e-05,-1.055328009993885e-05,-8.475652221280432e-06,4.657988118519571e-05,4.642535133709957e-05
329.1731674787189,195.9080776598053,12.5,0,11.3768169006347,-0.3387712382213026,-1.469151700976178,3.667683107260807e-05,-1.018552148281593e-05,-1.175321360780943e-05,4.285794412953135e-05,4.347669258910575e-05
332.6304698570472,195.2635633718058,12.5,0,11.43916153573258,-0.2909297944378304,-1.358637981113789,3.683806074989451e-05,-1.008230457078712e-05,-1.086910384891031e-05,4.321680739365076e-05,4.254041664977201e-05
329.3519747951127,198.9547629600414,12.5,0,11.69617668559467,-0.2610320275643829,-1.461874921354135,3.763659101595446e-05,-1.019224383668176e-05,-1.169499937083308e-05,4.431124535187849e-05,4.462754854099421e-05
332.4767236152966,198.7717366607895,12.5,0,11.72442788955727,-0.2182162624167372,-1.341205759741466,3.769274225651664e-05,-1.007783435137937e-05,-1.072964607793173e-05,4.452389066295319e-05,4.395939081567936e-05
335.1613908550045,194.7917461668063,12.5,0,10.92556582691037,-0.4333603150480965,-1.538275557732886,3.530849889815167e-05,-1.012720566968221e-05,-1.230620446186309e-05,4.086546378296205e-05,4.189752791422133e-05
338.6186932333329,194.147231878807,12.5,0,11.00685936336068,-0.3562136919024019,-1.400991457431433,3.550692091627611e-05,-9.945371304776233e-06,-1.120793165945147e-05,4.137522049157355e-05,4.107739916434227e-05
334.7641985124649,198.6377521106215,12.5,0,11.40418728546283,-0.3058231706851129,-1.489293377704805,3.673805785002916e-05,-1.010198397456263e-05,-1.191434702163844e-05,4.306525123161083e-05,4.35361647452038e-05
337.8889473326489,198.4547258113697,12.5,0,11.44255936927901,-0.2355517176843516,-1.345798235554568,3.680463135584031e-05,-9.907812992013132e-06,-1.076638588443654e-05,4.339288325622035e-05,4.304804734284252e-05
125.4586933607101,212.2948419838,12.5,0,8.17086919314864,-0.2916231955868502,-2.411029620806235,2.638007997454513e-05,-7.469889580396833e-06,-1.928823696644988e-05,3.110633381803103e-05,3.142565030356525e-05
127.6109203696567,211.3884037481831,12.5,0,8.261845648993823,-0.2272088075387453,-2.332899043241171,2.661967312281123e-05,-7.336544703319043e-06,-1.866319234592937e-05,3.160324598476412e-05,3.209994935787131e-05
125.3119138361017,215.1887218578352,12.5,0,8.399198214448901,-0.2320035892144183,-2.38668922429249,2.706303715760801e-05,-7.461770057045258e-06,-1.909351379433992e-05,3.213247171189368e-05,3.169454794625355e-05
127.8472320433711,214.2770651775134,12.5,0,8.466629306551345,-0.1797119764948496,-2.321124592641922,2.723698336216018e-05,-7.348381770024595e-06,-1.856899674113538e-05,3.251266079579956e-05,3.25174016244012e-05
125.2044637665822,217.30718895654,12.5,0,8.23871496484643,-0.1405680076701086,-2.698221474966979,2.647634229364466e-05,-7.040789596421491e-06,-2.158577179973583e-05,3.194952203368294e-05,3.185423167358063e-05
128.0202241949444,216.3917121095577,12.5,0,8.290961372519771,-0.08363082877031625,-2.645749426937949,2.659798105507952e-05,-6.900387750080828e-06,-2.11659954155036e-05,3.228782184719494e-05,3.278104481613446e-05
125.0576842419739,220.2010688305752,12.5,0,8.356597722472497,-0.1090037009070346,-2.679478974335684,2.682831567263761e-05,-7.034090020880508e-06,-2.143583179468547e-05,3.247663435635929e-05,3.202159808711046e-05
128.2565358686589,219.2803735388879,12.5,0,8.398536207487227,-0.0598572240964379,-2.633819082225561,2.692320164323627e-05,-6.910372083098382e-06,-2.107055265780449e-05,3.27574818921561e-05,3.30838791445201e-05
120.3274236428045,218.8928413686379,12.5,0,7.924994007872829,-0.3316867273895396,-2.657747164129099,2.562533020710468e-05,-7.40139273394479e-06,-2.126197731303279e-05,3.018871307111752e-05,3.047879957730312e-05
123.1431840711668,217.9773645216555,12.5,0,7.973140992416892,-0.2260222747683298,-2.61883551942433,2.569486899554871e-05,-7.101784073192168e-06,-2.095068415539464e-05,3.065837673636443e-05,3.123734692107658e-05
119.5171106987805,221.7957598540386,12.5,0,7.998387714036744,-0.2888295202617761,-2.615627951024354,2.5825904301127e-05,-7.322964636067078e-06,-2.092502360819483e-05,3.056725871530917e-05,3.049874418958008e-05
122.7159623254656,220.8750645623512,12.5,0,8.037746772948909,-0.1979760144776854,-2.583167566444863,2.587917048501865e-05,-7.063720664687719e-06,-2.06653405315589e-05,3.096533773698215e-05,3.132891326363037e-05
121.7309268318595,213.8648390617832,12.5,0,8.019371878961323,-0.3907581457316298,-2.395159435586089,2.597459652926154e-05,-7.665923569510273e-06,-1.916127548468871e-05,3.023723107842438e-05,3.038411705144043e-05
123.8831538408061,212.9584008261664,12.5,0,8.0783777014527,-0.3214622303468704,-2.346383212672572,2.610797842892614e-05,-7.491381298272145e-06,-1.877106570138058e-05,3.063928993527631e-05,3.096589442272417e-05
120.9206138878356,216.767757547184,12.5,0,8.149998927095552,-0.3399593352474111,-2.355994957445413,2.63519640349037e-05,-7.607869014468157e-06,-1.88479596595633e-05,3.085980481977181e-05,3.044808532820886e-05
123.455932095105,215.8561008668621,12.5,0,8.193299558872996,-0.2841516356045859,-2.316877464988733,2.644587989687725e-05,-7.46392488103307e-06,-1.853501971990987e-05,3.116914154580103e-05,3.11400763158215e-05
298.2946536600311,109.8867371758624,12.5,0,-1.33525379600271,1.137926544658974,-3.736292235897244,-5.18315338293585e-06,4.709567979710883e-06,-2.989033788717795e-05,6.839293732609561e-06,7.352883044135344e-06
300.2174310777071,108.5842703615308,12.5,0,-1.167852217181637,1.128363730516804,-3.64996001214563,-4.63981807939468e-06,4.54504571139908e-06,-2.919968009716504e-05,6.915106997021613e-06,6.930394352542201e-06
298.8015062237964,112.3775038633644,12.5,0,-0.9311081524983364,1.254614021114113,-3.797578875211212,-3.983237304885966e-06,4.759651389563829e-06,-3.038063100168969e-05,7.821311641086121e-06,8.170651126645668e-06
300.4486618931741,111.2384633713352,12.5,0,-0.7320196142191904,1.244590682686266,-3.697509287291906,-3.338135311650422e-06,4.568305875971403e-06,-2.958007429833525e-05,7.972851041253612e-06,7.748182144551657e-06
297.4167592676588,105.5726027233865,12.5,0,-2.139118641276912,1.14920413727057,-3.655643999305521,-7.764542961902573e-06,5.388748152287352e-06,-2.924515199444417e-05,5.756725614609368e-06,6.179070356630833e-06
299.81692755705,103.987073215538,12.5,0,-1.947229237577818,1.104229258802,-3.557203192598659,-7.114516967290617e-06,5.091317018228654e-06,-2.845762554078927e-05,5.715334555030659e-06,5.784356435817133e-06
297.9236118314241,108.0633694108884,12.5,0,-1.751850042979433,1.268014723381429,-3.727980724250427,-6.620331916239327e-06,5.459127149204119e-06,-2.982384579400341e-05,6.525588920034014e-06,6.819240585165124e-06
300.0481583725169,106.6412662253424,12.5,0,-1.532318723054765,1.218132898193622,-3.617391834800205,-5.877926232330144e-06,5.123880252663401e-06,-2.893913467840164e-05,6.523376976714181e-06,6.404188839827686e-06
301.5739726915253,102.8263850589425,12.5,0,-2.622810028661925,0.9061086960579495,-3.687737337446735,-9.117879048564518e-06,4.997795850314977e-06,-2.950189869957388e-05,5.006400926493103e-06,5.516108306339839e-06
303.9741409809164,101.240855551094,12.5,0,-2.372725389718572,0.9062211292857786,-3.552814159731653,-8.317698150528052e-06,4.798087925489349e-06,-2.842251327785322e-05,4.99036879143468e-06,5.1779547083551e-06
301.6034343835755,105.6002144399614,12.5,0,-2.098981958057493,1.037925296387531,-3.722194839321058,-7.547082502894003e-06,5.000546514886094e-06,-2.977755871456846e-05,5.715276676369681e-06,6.12423245666752e-06
303.7279809246683,104.1781112544154,12.5,0,-1.812252987800583,1.03905398990388,-3.569910837491835,-6.63045275288497e-06,4.774775157932883e-06,-2.855928669993468e-05,5.767362322196518e-06,5.774429139275647e-06
301.6250018390322,107.6307984783082,12.5,0,-1.737045999513886,0.9778556891633169,-3.772405465360116,-6.34083174977509e-06,4.518775004933723e-06,-3.017924372288093e-05,6.083595512822061e-06,6.644541582849647e-06
303.5477792567083,106.3283316639766,12.5,0,-1.542384032633559,0.9885884108280713,-3.66931944116797,-5.726499633089844e-06,4.397390140756675e-06,-2.935455552934376e-05,6.161562511095198e-06,6.286065984125241e-06
301.6544635310824,110.4046278593271,12.5,0,-1.23209933592923,1.104765082858783,-3.799750978390173,-4.826529941260563e-06,4.52092773389149e-06,-3.039800782712139e-05,7.032504800575055e-06,7.457928400953737e-06
303.3016192004601,109.2655873672979,12.5,0,-0.9996200900974559,1.118555699432066,-3.67953261553775,-4.093628847857511e-06,4.379074310260575e-06,-2.9436260924302e-05,7.208109808456478e-06,7.087409408417448e-06
123.6883161584444,202.9022167123973,12.5,0,7.803967932054037,-0.5066467659390392,-1.734257048391987,2.537801479532415e-05,-7.864443996648154e-06,-1.38740563871359e-05,2.880168160621234e-05,2.932460305540275e-05
126.1817003485774,201.5511493162088,12.5,0,7.965770156362721,-0.4623745987876777,-1.622157239250334,2.586036417939085e-05,-7.852214841210745e-06,-1.297725791400267e-05,2.95064790333989e-05,2.999418200973769e-05
124.2771016216194,205.5920768558105,12.5,0,8.153640170621779,-0.4202152332941296,-1.761178372263661,2.642782073262499e-05,-7.867600883038636e-06,-1.408942697810929e-05,3.039288552404281e-05,3.000126951275097e-05
126.6151060667429,204.3851438234805,12.5,0,8.319512423418562,-0.3746361472715543,-1.640631369294795,2.692214867275664e-05,-7.854445610003822e-06,-1.312505095435836e-05,3.111706059158362e-05,3.067301320984781e-05
124.7081224954031,207.5611911459598,12.5,0,8.022237867105281,-0.3835967105654712,-2.057148890809068,2.597803854318927e-05,-7.645299767493731e-06,-1.645719112647254e-05,3.011640074062162e-05,3.047681406724691e-05
126.9323810727174,206.4597717910863,12.5,0,8.137866381032415,-0.352099696672306,-1.969594272577073,2.632285217664157e-05,-7.637012134177311e-06,-1.575675418061658e-05,3.061144518702457e-05,3.113823194212744e-05
125.296907958578,210.251051289373,12.5,0,8.332608784035161,-0.3067625172530812,-2.081255843405214,2.690975812271498e-05,-7.647727082437988e-06,-1.665004674724171e-05,3.152814557929427e-05,3.109935949409956e-05
127.3657867908829,209.293766298358,12.5,0,8.450109447393983,-0.2745719837143485,-1.986115062864243,2.726000781863222e-05,-7.638717905801101e-06,-1.588892050291394e-05,3.203146733557939e-05,3.173040195529207e-05
120.855593630393,209.468905429006,12.5,0,7.81194387596319,-0.486845272727281,-2.108347202755013,2.538769662126403e-05,-7.80745997349785e-06,-1.68667776220401e-05,2.904152985385223e-05,2.944172359631541e-05
123.0798522077073,208.3674860741326,12.5,0,7.932805781910955,-0.4683954672940773,-2.016773807213046,2.575969487595031e-05,-7.84511012086981e-06,-1.613419045770437e-05,2.951298902714627e-05,3.002223602604807e-05
121.7135047063867,211.9091175311041,12.5,0,8.118539276591493,-0.4051540382528724,-2.154328302017397,2.630344891569507e-05,-7.791324343682385e-06,-1.723462641613918e-05,3.045917196454972e-05,3.011446323809438e-05
123.7823835386915,210.9518325400892,12.5,0,8.24188475909645,-0.3871913801153632,-2.05396366507712,2.668378433320093e-05,-7.832520223646322e-06,-1.643170932061696e-05,3.093664277332593e-05,3.066637001982173e-05
119.3696480584226,205.2423340870035,12.5,0,7.649095558285808,-0.6038624575491518,-1.79403321861537,2.49601957525539e-05,-8.05163631078593e-06,-1.435226574892296e-05,2.795461376137333e-05,2.823905423021848e-05
121.8630322485557,203.891266690815,12.5,0,7.784897721472739,-0.5817142173494854,-1.700430013818046,2.537704408259235e-05,-8.089403672696544e-06,-1.360344011054437e-05,2.849863204851738e-05,2.885431798428178e-05
120.2275591344163,207.6825461891017,12.5,0,7.925529473397042,-0.5303001476553773,-1.835388906764569,2.578593443299483e-05,-8.037384051214839e-06,-1.468311125411655e-05,2.923235232883689e-05,2.893920926719264e-05
122.5655635795398,206.4756131567717,12.5,0,8.0652458083061,-0.508131258207372,-1.734057860603808,2.621529159314541e-05,-8.078216672908469e-06,-1.387246288483046e-05,2.978994514848598e-05,2.953669814649708e-05
121.9178918071975,192.5401700291188,12.5,0,7.224490077181188,-0.6789350809941852,-1.07479903865788,2.366151631177515e-05,-7.952184320926341e-06,-8.598392309263039e-06,2.588889429557369e-05,2.635163885349293e-05
124.7524676939666,191.454139199805,12.5,0,7.376425274127127,-0.6199516900519164,-0.9283532802280969,2.410052222924834e-05,-7.884985627467834e-06,-7.426826241824775e-06,2.660565141848507e-05,2.711288460622772e-05
122.4197884063451,195.5670450633675,12.5,0,7.623845189666687,-0.5827459586844124,-1.090887228174197,2.486250137388092e-05,-7.963863219523468e-06,-8.727097825393578e-06,2.76965680692098e-05,2.728143864391091e-05
125.1625916111854,194.3784365749105,12.5,0,7.79814740482662,-0.5177797471723928,-0.9412845940247956,2.53682954931831e-05,-7.895413114812952e-06,-7.530276752198365e-06,2.851943788137187e-05,2.80126152192974e-05
122.7872022170516,197.7828713765052,12.5,0,7.526402749243624,-0.6171773560704699,-1.428488694083031,2.457823068243597e-05,-7.996089738820402e-06,-1.142790955266425e-05,2.731982723668901e-05,2.792927983517102e-05
125.462823155976,196.5191708298371,12.5,0,7.704215050197537,-0.5572600137862067,-1.28766130894507,2.509929617166108e-05,-7.94660408427389e-06,-1.030129047156056e-05,2.812911322515217e-05,2.863859163432663e-05
123.2890988161993,200.8097464107538,12.5,0,7.933644044472848,-0.5182118713804185,-1.446995401006862,2.580223043941745e-05,-8.005193223995617e-06,-1.15759632080549e-05,2.916454614382096e-05,2.876941509458686e-05
125.8729470731948,199.4434682049426,12.5,0,8.136004426049471,-0.4518631792369314,-1.303131678824993,2.639670470674785e-05,-7.954765714397757e-06,-1.042505343059995e-05,3.008981759848847e-05,2.94490603915293e-05
118.1528908091227,199.9716649288475,12.5,0,7.348173655545651,-0.7131418531707503,-1.509302994030374,2.408466918028268e-05,-8.16059285458292e-06,-1.207442395224299e-05,2.639251519631986e-05,2.680117221154513e-05
120.8285117480471,198.7079643821794,12.5,0,7.500882409083809,-0.6869651394444087,-1.387780996084299,2.455239582062371e-05,-8.198994373489153e-06,-1.110224796867439e-05,2.700825698834669e-05,2.743694478469478e-05
118.8137423561151,203.1762096804504,12.5,0,7.737243749479045,-0.6129633095473199,-1.544977543186803,2.52495506459708e-05,-8.151277590134659e-06,-1.235982034549442e-05,2.81724830657683e-05,2.766616892778774e-05
121.3975906131107,201.8099314746392,12.5,0,7.911159546484845,-0.5816644378635618,-1.421911954981564,2.578104209904235e-05,-8.190253838351273e-06,-1.137529563985252e-05,2.888629177022001e-05,2.829169076669983e-05
117.0082623534921,194.4212306040427,12.5,0,7.015060735949763,-0.814668821960693,-1.16136758050033,2.309992941260779e-05,-8.218988819034027e-06,-9.290940644002638e-06,2.472497629764048e-05,2.516513770062387e-05
119.8428382402612,193.3351997747289,12.5,0,7.154749323192136,-0.7741030615642976,-1.025253757931694,2.351448028346627e-05,-8.20092925555946e-06,-8.202030063453551e-06,2.533700264650552e-05,2.58297416430924e-05
117.6691139004844,197.6257753556457,12.5,0,7.41546414915239,-0.7158611635495715,-1.189850590090992,2.430217420812731e-05,-8.22312704268054e-06,-9.518804720727933e-06,2.654145384916685e-05,2.613102291400241e-05
120.4119171053247,196.4371668671887,12.5,0,7.575615699612039,-0.6700955803463184,-1.051593806384395,2.477804670303558e-05,-8.20479841679785e-06,-8.412750451075156e-06,2.724946443147703e-05,2.677726750523819e-05
283.4462006455448,75.79209273605474,12.5,0,-7.51247579351681,1.069470292023577,-2.88386174869468,-2.489549877287265e-05,9.432285569288892e-06,-2.307089398955744e-05,3.493942650705591e-06,3.452004104279356e-06
286.2412441494204,76.04286754964122,12.5,0,-7.542952750145537,1.087072587917767,-2.729274079106558,-2.500710687079993e-05,9.512994481453282e-06,-2.183419263285247e-05,3.416063752922845e-06,3.430862113651553e-06
283.120171411762,78.58784223884086,12.5,0,-7.037479392647427,1.191582341362031,-2.85159377454901,-2.347319992956139e-05,9.44304700647644e-06,-2.281275019639208e-05,3.537259816250313e-06,3.507383349994324e-06
285.5229478341968,78.74691752388715,12.5,0,-7.06180294377448,1.21510099208534,-2.66989404376335,-2.356985021374661e-05,9.53776552969267e-06,-2.13591523501068e-05,3.441085095810579e-06,3.488394541770614e-06
284.0108998431993,70.94971255208074,12.5,0,-8.318133040639555,0.9149910183314787,-2.811172353536497,-2.735001854471176e-05,9.582477691172375e-06,-2.248937882829197e-05,3.420658051290773e-06,3.403125972124556e-06
287.4853698622547,71.35931560812605,12.5,0,-8.36369270541306,0.9538526557063287,-2.625993023565066,-2.752689878188685e-05,9.743282662590699e-06,-2.100794418852052e-05,3.357175875380796e-06,3.378083819995991e-06
283.6848706094164,73.74546205486688,12.5,0,-7.869603600832522,1.032362523298006,-2.773648221607924,-2.600862154130247e-05,9.599242955219637e-06,-2.218918577286339e-05,3.435262294250759e-06,3.424068424075035e-06
286.7670735470312,74.06336558237201,12.5,0,-7.91288464469243,1.078501881981428,-2.56341334433876,-2.618403236860091e-05,9.781513738094512e-06,-2.050730675471008e-05,3.359611240867175e-06,3.401304444836468e-06
290.0288584454701,71.65916585607397,12.5,0,-8.047555284131787,0.6973610614801902,-2.952748085596936,-2.631006575840587e-05,8.669599624042037e-06,-2.362198468477549e-05,3.299497465855378e-06,3.365376612675565e-06
293.5033284645256,72.06876891211927,12.5,0,-8.059796878633451,0.8534819105869254,-2.786288549882105,-2.647413554009658e-05,9.17897961678492e-06,-2.229030839905684e-05,3.323837813319631e-06,3.355702028780939e-06
289.0234026965073,74.29608711640125,12.5,0,-7.64140952794953,0.8502442496413574,-2.842767241221047,-2.513270588915158e-05,8.833909221211966e-06,-2.274213792976838e-05,3.302305514780097e-06,3.385835382396537e-06
292.105605634122,74.61399064390639,12.5,0,-7.647576625738715,1.030496114875951,-2.651588985524197,-2.529664209426465e-05,9.415648868194015e-06,-2.121271188419357e-05,3.335205815104913e-06,3.366337097101958e-06
288.2873580035356,76.22644745443731,12.5,0,-7.312891340330038,0.8373579554164121,-3.031365700641311,-2.407113865338925e-05,8.529858529596548e-06,-2.425092560513049e-05,3.378714609484614e-06,3.415006107410745e-06
291.0824015074112,76.47722226802378,12.5,0,-7.311830704493686,0.9592397547618945,-2.904613967402104,-2.416525005818931e-05,8.919031778833011e-06,-2.323691173921683e-05,3.395010430986084e-06,3.392828683381688e-06
287.2819022545728,78.86336871476459,12.5,0,-6.920433651819057,0.9857450002568391,-2.924427925087741,-2.293398368602645e-05,8.69073092227713e-06,-2.339542340070193e-05,3.397139758606236e-06,3.474243240525597e-06
289.6846786770076,79.02244399981087,12.5,0,-6.909404939207069,1.132989060993522,-2.772481156698855,-2.301648705425744e-05,9.153088946544925e-06,-2.217984925359084e-05,3.42159156350239e-06,3.454569974753061e-06
120.4465831921161,182.0736222618331,12.5,0,6.460168391459448,-0.7658960145827751,-0.4141565084253614,2.128525566433645e-05,-7.619001959832439e-06,-3.313252067402891e-06,2.25940855352762e-05,2.290358018007883e-05
123.4033828593023,181.3291281023341,12.5,0,6.567423547285862,-0.7054538611150383,-0.2643866122429914,2.158011844020679e-05,-7.511391193396812e-06,-2.115092897943931e-06,2.316438483320606e-05,2.368318922114408e-05
120.8621965024113,185.0944112845698,12.5,0,6.846219951288399,-0.6739733674668826,-0.4207924121045707,2.244708253809638e-05,-7.633690736924743e-06,-3.366339296836566e-06,2.433733104510502e-05,2.394962686464308e-05
123.7903872389535,184.2517947355699,12.5,0,6.967558753025116,-0.6099984511427192,-0.2704857236670734,2.278418677059455e-05,-7.526042046076794e-06,-2.163885789336587e-06,2.497475053570563e-05,2.472704281388652e-05
121.1664465618364,187.3057823280654,12.5,0,6.869093655390426,-0.7331193394999234,-0.7373380459279129,2.25675951688493e-05,-7.841256810712095e-06,-5.898704367423303e-06,2.4300908080021e-05,2.468727912824768e-05
124.0736941075979,186.3913352045939,12.5,0,6.999490040775276,-0.6674180897174937,-0.5882366675278987,2.293230260225488e-05,-7.7353299197162e-06,-4.70589334022319e-06,2.496445938871537e-05,2.546297068077567e-05
121.5820598721317,190.3265713508022,12.5,0,7.257752534502172,-0.6405488625980831,-0.7440968976896316,2.373724720048542e-05,-7.855958387915603e-06,-5.952775181517053e-06,2.605599757935762e-05,2.565653590625509e-05
124.4606984872492,189.3140018378297,12.5,0,7.402571174499005,-0.5712329604133846,-0.5944617214742745,2.414521412672752e-05,-7.750002412922034e-06,-4.755693771794195e-06,2.678887006503419e-05,2.642970941116566e-05
116.1309461024882,188.8896512067249,12.5,0,6.671246949319549,-0.8772361548534267,-0.8107962440596869,2.20497791617053e-05,-8.144153254986604e-06,-6.486369952477495e-06,2.314929795792734e-05,2.347349724689119e-05
119.0381936482496,187.9752040832534,12.5,0,6.787922736333345,-0.8301888276376224,-0.6751281660351074,2.23855038183768e-05,-8.086942437507066e-06,-5.401025328280859e-06,2.37021611244396e-05,2.415420132829176e-05
116.5961115342083,192.0803931934342,12.5,0,7.050233694968136,-0.7852713061868626,-0.8239232442672261,2.318896486884752e-05,-8.153055135772468e-06,-6.591385954137809e-06,2.486074927069104e-05,2.445305584427859e-05
119.4747501493257,191.0678236804617,12.5,0,7.180109866000902,-0.7349292723012542,-0.688030023832603,2.356429498904389e-05,-8.095861564164734e-06,-5.504240190660825e-06,2.547683335935374e-05,2.512689317930809e-05
115.3252559408388,183.3631239720006,12.5,0,6.270572984289586,-0.9172031865916124,-0.4836437466868058,2.079959609899996e-05,-7.951508584524828e-06,-3.869149973494446e-06,2.144932658126101e-05,2.167500354400925e-05
118.282055608025,182.6186298125015,12.5,0,6.367825243201112,-0.8700023163916195,-0.3455875731528719,2.107304263135685e-05,-7.878267607014071e-06,-2.764700585222975e-06,2.193803428631501e-05,2.236548844965555e-05
115.7904213725589,186.5538659587098,12.5,0,6.649617980736428,-0.825944353204797,-0.4948073519660013,2.193953302092041e-05,-7.962716314844492e-06,-3.95845881572801e-06,2.315791253956959e-05,2.272912037652576e-05
118.7186121091011,185.7112494097099,12.5,0,6.759867742815141,-0.7754990029681135,-0.3564514733334679,2.225197597938294e-05,-7.889491003750074e-06,-2.851611786667743e-06,2.370849304272868e-05,2.341428516102891e-05
321.436893889867,148.1760509048642,12.5,0,5.288486093722271,0.1639549842002805,-3.519834889587703,1.679199151255104e-05,-3.706132925536919e-06,-2.815867911670162e-05,2.256105011998525e-05,2.340060102746918e-05
323.8962266345669,147.3465129078253,12.5,0,5.365797039036538,0.1192105599293387,-3.423532613299694,1.707518207697345e-05,-3.911163839455346e-06,-2.738826090639755e-05,2.262028501894807e-05,2.270416936980379e-05
321.9963426864811,150.7713317669622,12.5,0,5.584686485726458,0.2524333486675663,-3.570240726808328,1.766905007539061e-05,-3.659962472844953e-06,-2.856192581446662e-05,2.39226184036795e-05,2.460534205696121e-05
324.2877247032202,149.8219337916831,12.5,0,5.68798989596857,0.2113133511537966,-3.471682007015215,1.803251698617638e-05,-3.874189193082706e-06,-2.777345605612172e-05,2.40875517275606e-05,2.3827254781341e-05
322.4058876298186,152.6712092178483,12.5,0,6.008450127131033,0.08036956049747501,-3.400038025407612,1.916274475842132e-05,-4.549577508112905e-06,-2.72003042032609e-05,2.480350666635202e-05,2.549545652340532e-05
324.5743211805273,151.6340676487069,12.5,0,6.095221002485244,0.0638835307154253,-3.331327896445496,1.945360038338044e-05,-4.671749503698834e-06,-2.665062317156396e-05,2.501508897339882e-05,2.466706924472209e-05
322.9653364264328,155.2664900799463,12.5,0,6.250941970545509,0.1507324044809886,-3.437503561625138,1.988242838216084e-05,-4.518409882097243e-06,-2.750002849300111e-05,2.592013701235585e-05,2.672255344089405e-05
324.9658192491806,154.1094885325647,12.5,0,6.363109357113523,0.1387725285136936,-3.367113830649113,2.025093191995232e-05,-4.646415394446999e-06,-2.693691064519291e-05,2.623865979250826e-05,2.583839961617073e-05
318.6500505472215,154.4675911102105,12.5,0,6.435071343526055,0.1423747769495241,-3.376337921843939,2.047832847772376e-05,-4.692457788582367e-06,-2.701070337475151e-05,2.651917017228927e-05,2.70690580011848e-05
320.8184840979303,153.4304495410692,12.5,0,6.504774308588742,0.1272049842606047,-3.321108918747493,2.071351380007549e-05,-4.796763497237058e-06,-2.656887134997994e-05,2.668763706051818e-05,2.613906747090811e-05
319.5003985378269,157.270475544411,12.5,0,6.648211505607637,0.2083155190582138,-3.416888741924464,2.110762440269787e-05,-4.651959543499826e-06,-2.733510993539572e-05,2.752390573182171e-05,2.8352404588066e-05
321.5008813605748,156.1134739970294,12.5,0,6.737117647011532,0.1968862096676036,-3.36121035893601,2.140126750270282e-05,-4.759658246672894e-06,-2.688968287148808e-05,2.777479488647023e-05,2.739617904286025e-05
317.1772046234053,149.6128528625187,12.5,0,5.629401605692267,0.2497279350581534,-3.543542542214676,1.781430279016873e-05,-3.704391892367723e-06,-2.834834033771741e-05,2.405158002397185e-05,2.481475165908853e-05
319.6365373681052,148.7833148654798,12.5,0,5.704149197707297,0.2064521512501363,-3.450430892601997,1.808811571166324e-05,-3.902672474165401e-06,-2.760344714081598e-05,2.411336464138315e-05,2.396612984742486e-05
318.0275526140107,152.4157372967192,12.5,0,5.940669870046238,0.3487760194713474,-3.606303359531416,1.873112276857088e-05,-3.636452633728679e-06,-2.885042687625133e-05,2.551714797725542e-05,2.612114675579319e-05
320.3189346307498,151.46633932144,12.5,0,6.039357500777609,0.3094785371417927,-3.512147298991258,1.907836117277491e-05,-3.84115468176835e-06,-2.809717839193007e-05,2.567940366394365e-05,2.521998855902078e-05
119.3511650955664,171.5080434377177,12.5,0,5.503441859847043,-0.7726819660998048,0.1628674357714245,1.822915952439038e-05,-6.875335779397008e-06,1.302939486171396e-06,1.889144479458277e-05,1.900304979135899e-05
122.155017585518,171.177581713161,12.5,0,5.560166228070853,-0.7107597490940369,0.305093892509593,1.836113972910196e-05,-6.722564179557599e-06,2.440751140076744e-06,1.929429522404574e-05,1.974836704092671e-05
119.6556421330888,174.561516837708,12.5,0,5.884646278309244,-0.6822591667114255,0.1681333667774189,1.937667542395872e-05,-6.890946356123955e-06,1.345066934219352e-06,2.060831519621645e-05,2.018179500847401e-05
122.5122430906308,174.1090060988867,12.5,0,5.95455804049471,-0.6183344447842425,0.3072571677084124,1.954925328541047e-05,-6.742316655705344e-06,2.458057341667299e-06,2.106927136832182e-05,2.093442810360548e-05
119.8785347942837,176.796814505966,12.5,0,6.002567121747911,-0.7830884855344988,-0.1186326851766579,1.983468557802091e-05,-7.307936851108724e-06,-9.490614814132634e-07,2.077089794061056e-05,2.101633833507202e-05
122.7737503101218,176.2549576876931,12.5,0,6.086753482872234,-0.7200625372695679,0.03076208153942337,2.00536611750068e-05,-7.173602905560404e-06,2.46096652315387e-07,2.127084419459874e-05,2.177695365729247e-05
120.1830118318061,179.8502879059563,12.5,0,6.389407069300248,-0.6905424102026925,-0.1164361032332107,2.099853654992295e-05,-7.321261368088813e-06,-9.314888258656854e-07,2.251725207006713e-05,2.211760788743725e-05
123.1309758152346,179.1863820734189,12.5,0,6.485863910843191,-0.625538367631844,0.02970367563727265,2.125519520880368e-05,-7.190413905096453e-06,2.376294050981812e-07,2.307270997866294e-05,2.28927152140595e-05
114.8638744220806,177.7353380456253,12.5,0,5.810485967092237,-0.947890448157173,-0.1924925895925728,1.93518674532209e-05,-7.681638207776743e-06,-1.539940716740582e-06,1.957674826314664e-05,1.978099914808821e-05
117.7590899379186,177.1934812273524,12.5,0,5.891202176993201,-0.882451684695067,-0.05155804632050808,1.95578083141343e-05,-7.536807132618774e-06,-4.124643705640646e-07,2.006278809915975e-05,2.048152393621812e-05
115.0769884337164,181.0002065393318,12.5,0,6.201115608897368,-0.853386150253393,-0.1827529923508444,2.052627886867429e-05,-7.69172816792875e-06,-1.462023938806755e-06,2.13349424288306e-05,2.088505684168495e-05
118.0249524171449,180.3363007067944,12.5,0,6.293574432274982,-0.7860704463156691,-0.04444240291548784,2.076829454033247e-05,-7.550284974030126e-06,-3.555392233239028e-07,2.18753480200917e-05,2.157965744789865e-05
114.4947501261292,172.0804199345964,12.5,0,5.318867068580578,-0.9290703012137527,0.1045502382449483,1.776363086042885e-05,-7.22811861874847e-06,8.364019059595864e-07,1.774694612356757e-05,1.775199310728357e-05
117.2986026160807,171.7499582100397,12.5,0,5.370468661496573,-0.8771620574823009,0.2374754959684547,1.788722936277487e-05,-7.103293513140621e-06,1.899803967747638e-06,1.80954297946058e-05,1.846812300806542e-05
114.707864137765,175.3452884283029,12.5,0,5.702567571673512,-0.8359455046595261,0.1122999194118308,1.891697263308286e-05,-7.237079672249292e-06,8.983993552946464e-07,1.94731699646668e-05,1.894149725064625e-05
117.564465095307,174.8927776894816,12.5,0,5.766741907844171,-0.7818439335634746,0.2426056719004764,1.907904925195212e-05,-7.115294113678455e-06,1.940845375203811e-06,1.987829663884144e-05,1.964779079586913e-05
304.182346579803,92.6365168892667,12.5,0,-3.831348318688493,0.8433622942268373,-3.590840264585868,-1.293500445518465e-05,5.763837996476673e-06,-2.872672211668694e-05,4.161616287932653e-06,4.06842703004491e-06
306.2928848914779,93.80089317665447,12.5,0,-3.92689620792154,0.8547598603827113,-3.52728518358597,-1.324987575365509e-05,5.876748519561908e-06,-2.821828146868776e-05,4.064396730379448e-06,4.160091109724888e-06
303.2294358818356,95.98047610353582,12.5,0,-3.42437985862674,0.9663146952779695,-3.518182800818308,-1.173106730382794e-05,5.831710911790894e-06,-2.814546240654647e-05,4.379168947113584e-06,4.418641920799242e-06
304.9198273873137,97.556684179329,12.5,0,-3.596230965548795,0.9594486468919647,-3.458662396171896,-1.227549800726971e-05,5.947220442493323e-06,-2.766929916937517e-05,4.219943893552552e-06,4.598929094127227e-06
300.5267869927271,90.61975800041895,12.5,0,-4.291122991176253,0.9329265021212998,-3.473165414324693,-1.447793477346105e-05,6.418263199729161e-06,-2.778532331459754e-05,3.986155831437344e-06,3.942803540770639e-06
302.637325304402,91.78413428780669,12.5,0,-4.414618689390774,0.8869262546960672,-3.388626433670509,-1.483632080980733e-05,6.369858966540033e-06,-2.710901146936407e-05,3.812016637180222e-06,4.010205001420109e-06
300.3015919097172,93.25040363301073,12.5,0,-3.888604630376362,1.031145193363993,-3.471488550334744,-1.326845097189555e-05,6.410548323065868e-06,-2.777190840267795e-05,4.216731255905741e-06,4.168382995147812e-06
301.9919834151954,94.82661170880391,12.5,0,-4.121159062516583,0.9559256622144527,-3.373424112564712,-1.395244952982462e-05,6.355889369099514e-06,-2.698739290051769e-05,3.939846513049501e-06,4.303277441276929e-06
300.9168363181079,86.06334610814267,12.5,0,-5.219230632346004,0.8542957330895224,-3.411775951140295,-1.738497460997883e-05,6.909130851763274e-06,-2.729420760912236e-05,3.683348147627499e-06,3.671654768951623e-06
303.7550902447404,86.51440881385307,12.5,0,-5.288588541857072,0.8173706094173754,-3.259195286711095,-1.757737982147653e-05,6.846456783621258e-06,-2.607356229368876e-05,3.495200626568237e-06,3.660257497105508e-06
300.691641235098,88.69399174073448,12.5,0,-4.710473412163639,0.9793690337783811,-3.40531322539576,-1.585701014594635e-05,6.90235963782173e-06,-2.724250580316608e-05,3.873138294546903e-06,3.809705613707769e-06
303.1097483555337,89.55688623485031,12.5,0,-4.876031643090134,0.9162512211234055,-3.23432049059789,-1.633630223478715e-05,6.832829222067005e-06,-2.587456392478312e-05,3.605496608613564e-06,3.837908326667633e-06
305.8328363237289,86.84460963181856,12.5,0,-4.966330063342039,0.6667918796140113,-3.532685336347913,-1.642568970638573e-05,6.106798065438467e-06,-2.82614826907833e-05,3.653233676438034e-06,3.656899825462864e-06
308.6710902503613,87.29567233752898,12.5,0,-5.001325225927205,0.7339425628138316,-3.407175471784431,-1.659139477321812e-05,6.349676381746025e-06,-2.725740377427545e-05,3.585078230801428e-06,3.659123767785752e-06
304.8799256257614,90.18856884608769,12.5,0,-4.439257788050761,0.8308243385075424,-3.431991917448272,-1.487028439256847e-05,6.210044113664744e-06,-2.745593533958618e-05,3.795429810215132e-06,3.864318850765088e-06
307.2980327461971,91.05146334020353,12.5,0,-4.547441533154413,0.8828942462246956,-3.307426942653351,-1.525812830307388e-05,6.463214814442556e-06,-2.645941554122681e-05,3.69412164840409e-06,3.908271031497059e-06
106.7422349631677,45.98240992150091,12.5,0,-13.11470101514303,-0.07469394332220203,1.562328677902278,-4.190728809379994e-05,1.025274019348338e-05,1.249862942321822e-05,3.293621190569493e-06,3.291123533207761e-06
112.7878388333553,44.14896792751324,12.5,0,-12.88115488105048,-0.01279715400180992,1.850383242098028,-4.120945789616009e-05,1.026397301203459e-05,1.480306593678423e-05,3.337039941048494e-06,3.399838809151485e-06
107.8501792427395,51.13123949330594,12.5,0,-12.41707231195613,0.09902602866545651,1.507296941318236,-3.981385222119198e-05,1.025054114129436e-05,1.205837553054589e-05,3.22260966426585e-06,3.117108968521868e-06
113.2287265463774,49.27246034192731,12.5,0,-12.12165656985349,0.1767782854634965,1.827262482074019,-3.893072365190197e-05,1.026301576936598e-05,1.461809985659215e-05,3.272699806512545e-06,3.218849842661084e-06
108.661250747307,54.90044433922008,12.5,0,-11.74977853886677,-0.1295021657670192,1.699389061853369,-3.749568959176006e-05,8.985415900638957e-06,1.359511249482695e-05,2.978842345548671e-06,2.991958224291018e-06
113.5514787527288,53.02311710131269,12.5,0,-11.51848592049305,-0.03103049800868884,1.920976759083513,-3.68343305471708e-05,9.115491142766634e-06,1.53678140726681e-05,3.039354616451281e-06,3.09256412997899e-06
109.7691950268789,60.0492739110251,12.5,0,-11.09635552979777,0.02386024043772883,1.665023173004136,-3.552742588770305e-05,8.953437193238948e-06,1.332018538403309e-05,2.911921735957548e-06,2.824054597118638e-06
113.9923664657509,58.14660951572675,12.5,0,-10.79000018408517,0.1466463793987125,1.918090412392223,-3.46453176925915e-05,9.101268561344014e-06,1.534472329913778e-05,2.98464202867009e-06,2.9285341131372e-06
100.1911273814724,58.15207049765023,12.5,0,-11.02014767324185,-0.1735750007929586,1.780498065361877,-3.512561255373954e-05,8.260678136056009e-06,1.424398452289502e-05,2.810140979009186e-06,2.783863891486935e-06
105.0813553868942,56.27474325974281,12.5,0,-10.85547712485932,-0.2168515215858449,1.950383450105441,-3.456404558228114e-05,7.990456830812751e-06,1.560306760084353e-05,2.795786602228133e-06,2.909242244686351e-06
102.4544475258102,63.34478531337496,12.5,0,-10.45108365659589,0.0107983390931583,1.650677728653339,-3.345210637238137e-05,8.395421610374817e-06,1.320542182922671e-05,2.756291822485951e-06,2.627659365815818e-06
106.6776189646822,61.44212091807659,12.5,0,-10.23234657255027,-0.02820175645494061,1.836655527537253,-3.272094762699692e-05,8.095631637384408e-06,1.469324422029803e-05,2.735895826154671e-06,2.743435451553465e-06
96.27094189775579,49.15802460776092,12.5,0,-12.47815685556054,-0.143232550035334,1.604397632616562,-3.981551589776545e-05,9.52418132433536e-06,1.28351810609325e-05,3.116237554080257e-06,3.079670242166489e-06
102.3165457679434,47.32458261377323,12.5,0,-12.2965729420904,-0.2143198009071559,1.853210109883872,-3.917757757396354e-05,9.151434990769419e-06,1.482568087907098e-05,3.090640819878887e-06,3.205334624244972e-06
98.53426204209353,54.35073942348566,12.5,0,-11.82548272997827,0.06629941802899664,1.457190905815786,-3.789458427035366e-05,9.672544321675405e-06,1.165752724652629e-05,3.056895886987963e-06,2.904979840771412e-06
103.9128093457314,52.49196027210701,12.5,0,-11.5945892753643,-0.003285968723504951,1.726971877346786,-3.710005690618696e-05,9.265156320376226e-06,1.381577501877429e-05,3.023062094380122e-06,3.033007754989792e-06
118.9634655162627,161.9703435045362,12.5,0,4.325447031651754,-0.768340747698725,0.6096549239740664,1.445610309944459e-05,-5.919048017957322e-06,4.877239391792531e-06,1.447263572115249e-05,1.521519976042195e-05
121.0962849168923,161.301454642722,12.5,0,4.462055957765673,-0.6659258371877173,0.7597987595496661,1.481131973460033e-05,-5.700607445213233e-06,6.078390076397329e-06,1.5316514093992e-05,1.556355878882126e-05
119.0526348038671,164.6881756444697,12.5,0,4.794095066228246,-0.6539631810785191,0.6378271611065846,1.58642747567932e-05,-5.927958232433857e-06,5.102617288852676e-06,1.658134802820628e-05,1.633782983900137e-05
121.3958188842924,164.1429442238718,12.5,0,4.891688464100289,-0.5667481165350916,0.7739591169459944,1.6106801578349e-05,-5.726944744192524e-06,6.191672935567955e-06,1.72348014945454e-05,1.68071632443431e-05
119.1179112528655,166.6777668572601,12.5,0,4.941975990450839,-0.7615847241203677,0.4091813287260845,1.642359094873898e-05,-6.390651909545848e-06,3.273450629808676e-06,1.680025882574138e-05,1.713395621587348e-05
121.6150929670125,166.2230589663626,12.5,0,5.023924622826628,-0.6893663847857667,0.5533074715717404,1.662805190087382e-05,-6.225112129575755e-06,4.426459772573923e-06,1.734030681358489e-05,1.769596828187029e-05
119.2070805404698,169.3955989971935,12.5,0,5.340238966759512,-0.6638271268767957,0.4263199602430832,1.761982639513187e-05,-6.396437979413355e-06,3.410559681944666e-06,1.860030375204468e-05,1.818638384824685e-05
121.9146269344124,169.0645485475123,12.5,0,5.395620601935037,-0.6018789489510104,0.5591861498241953,1.774748908535292e-05,-6.242509118191262e-06,4.473489198593563e-06,1.900999826975648e-05,1.888062434699913e-05
114.7926656483086,167.4653440268828,12.5,0,4.800479033722827,-0.921707810685189,0.3253586377602744,1.60988991564612e-05,-6.789848221170865e-06,2.602869102082195e-06,1.580727018854904e-05,1.615707593031338e-05
117.2898473624556,167.0106361359854,12.5,0,4.889096966070801,-0.8229437772619097,0.4713690266910285,1.630346531323609e-05,-6.544697660094751e-06,3.770952213528228e-06,1.643788068375458e-05,1.672161125304821e-05
114.5174726223956,169.9689951958995,12.5,0,5.169356682846932,-0.8212431778137055,0.3704780344102145,1.719893592736115e-05,-6.763463515281403e-06,2.963824275281716e-06,1.749667088784507e-05,1.70059096631356e-05
117.2250190163382,169.6379447462183,12.5,0,5.229931953072882,-0.7360168588930851,0.5023715967412753,1.732459573694769e-05,-6.539199510916176e-06,4.018972773930202e-06,1.79862277442092e-05,1.768405556268248e-05
115.2693139510698,163.1288929977947,12.5,0,4.34222371681941,-0.8627427628192947,0.55631043976515,1.458531010407755e-05,-6.23455581447727e-06,4.4504835181212e-06,1.426586963591769e-05,1.465758909298862e-05
117.4021333516995,162.4600041359804,12.5,0,4.462473296813125,-0.7807619565762005,0.6900541894489827,1.490452411506296e-05,-6.068416898494341e-06,5.520433515591861e-06,1.497996897471772e-05,1.497244591206408e-05
114.9941209251569,165.6325441668114,12.5,0,4.731347179005551,-0.7589460932200627,0.5959897983442421,1.574746784739381e-05,-6.213705241508641e-06,4.767918386753937e-06,1.6039009734598e-05,1.552784532999268e-05
117.3373050055822,165.0873127462134,12.5,0,4.814869298117586,-0.6913337011287048,0.7148600217489832,1.596064871487924e-05,-6.064163282105923e-06,5.718880173991866e-06,1.657445207583023e-05,1.599503763699918e-05
52.62762233563775,139.0029653267248,12.5,0,-0.1872727385954239,-1.34130058399213,0.8828652750970125,4.737677036883479e-07,-4.142343677898478e-06,7.062922200776101e-06,6.415092685779863e-07,9.292260191216292e-07
61.11591950057959,137.4313221454172,12.5,0,-0.08443115510112453,-1.632986311121599,1.239070208282533,1.03620935257368e-06,-5.158011271508216e-06,9.912561666260267e-06,1.027807186031369e-06,1.014246158623867e-06
55.71278391648781,147.5302679817046,12.5,0,0.7616570846684936,-0.9996105953487147,0.6424120527233594,3.236991147218151e-06,-3.808079572850681e-06,5.139296421786876e-06,1.608800795644035e-06,1.795635967869367e-06
64.81178698722428,145.6445000733994,12.5,0,0.8765448131116522,-1.262107025054051,0.9666645206018373,3.814629022000527e-06,-4.739978330662284e-06,7.733316164814698e-06,2.030488224164005e-06,1.925725408374566e-06
57.97127894313355,153.7726867764013,12.5,0,1.366679936295144,-1.412588488452313,0.5324186976789258,5.503446586906311e-06,-5.613627112083515e-06,4.259349581431407e-06,2.635625349753426e-06,3.035749788831091e-06
67.51734976537506,151.65696360803,12.5,0,1.541368490332464,-1.684282602874192,0.9423234643559361,6.279805251363238e-06,-6.622799121463386e-06,7.538587714847488e-06,3.163121520257741e-06,3.24912931860238e-06
61.0564405239836,162.2999894313811,12.5,0,2.347230636521787,-1.074066789405205,0.2995174492264446,8.370391468393883e-06,-5.314798235314086e-06,2.396139593811556e-06,6.224565934130961e-06,5.557393806263198e-06
71.21321725201975,159.8701415360121,12.5,0,2.528351719193545,-1.321346223331467,0.6777190943048415,9.147802480084515e-06,-6.25098929001553e-06,5.421752754438732e-06,6.502412193254719e-06,5.953256790683106e-06
41.43699926665751,157.4372267987054,12.5,0,1.267603436247999,-1.358618318608876,0.3490177626682545,5.143225650880697e-06,-5.361661368546801e-06,2.792142101346036e-06,2.322394321443009e-06,3.510747753515283e-06
50.98307008889905,155.321503630334,12.5,0,1.425142359018194,-1.598570133483395,0.7168432384081574,5.839311655644937e-06,-6.25553831436142e-06,5.734745907265259e-06,2.759058472948735e-06,3.105850237188915e-06
43.46438719020791,166.5086094407488,12.5,0,2.196184383391046,-1.071966165582065,0.1748570907978717,7.885362959316997e-06,-5.187239236575444e-06,1.398856726382973e-06,5.660071514158419e-06,6.289673216627207e-06
53.62116391824406,164.0787615453798,12.5,0,2.360137230552978,-1.291244572321271,0.5157392105654761,8.585434795626544e-06,-6.020092415870449e-06,4.125913684523809e-06,5.900596549107347e-06,5.647536315912679e-06
37.92546037647979,141.7251311680699,12.5,0,-0.220080312139762,-1.27328895620775,0.7370835653668217,3.143741661189616e-07,-3.89846041015299e-06,5.896668522934574e-06,5.031855785373874e-07,9.62660764652337e-07
46.41375754142165,140.1534879867623,12.5,0,-0.1110942930557105,-1.51329656431578,1.082365439606308,8.551355136743499e-07,-4.753673571365926e-06,8.658923516850467e-06,8.65113318574649e-07,9.154037544661466e-07
39.95284830003016,150.7965138101134,12.5,0,0.7408268341423112,-0.9750565249150094,0.5540299256921423,3.150691089187403e-06,-3.712842347041879e-06,4.432239405537139e-06,1.491494600641485e-06,2.083379068982505e-06
49.05185137076666,148.9107459018082,12.5,0,0.8612315305903262,-1.191540613579122,0.8704290506840631,3.709173388752341e-06,-4.501915187925451e-06,6.963432405472504e-06,1.935563486277211e-06,1.83787913891176e-06
336.1683001419379,212.1880835695047,12.5,0,12.89352929079129,-0.1616369843784975,-0.8043633094330762,4.138860331803491e-05,-1.083206178264422e-05,-6.434906475464609e-06,4.91014986997638e-05,4.863330649133134e-05
337.8114330987463,209.8502273885105,12.5,0,12.71932241919936,-0.2732428572978205,-0.8842259682998515,4.092042602727621e-05,-1.104983507871251e-05,-7.073807746398812e-06,4.810629130582842e-05,4.759213909848191e-05
338.3370559967069,214.9203745381414,12.5,0,12.71513053074039,-0.1050947439777907,-0.7942028298192985,4.077249349355148e-05,-1.050840760532124e-05,-6.353622638554388e-06,4.858575149147174e-05,4.921670247944535e-05
340.7257964235177,213.0122009893777,12.5,0,12.58892359217313,-0.217853404496974,-0.8692317486283389,4.045883821855159e-05,-1.076826976812882e-05,-6.953853989026711e-06,4.777013429706477e-05,4.824731802184577e-05
339.9246954715427,216.92055034816,12.5,0,13.07454346518309,-0.1993605462307722,-0.6322501800021116,4.199802752557049e-05,-1.109758852008494e-05,-5.058001440016893e-06,4.966753838931102e-05,4.962478784632836e-05
342.859258448875,215.3269263173057,12.5,0,13.05373947431075,-0.3590393755587886,-0.6517258791631508,4.205919781824141e-05,-1.159191758123672e-05,-5.213807033305207e-06,4.911060291914265e-05,4.865255243012739e-05
342.0934513263118,219.6528413167966,12.5,0,13.1469332592416,-0.05490236467561305,-0.707445423619123,4.211410832131361e-05,-1.069323417435524e-05,-5.659563388952984e-06,5.038710624180943e-05,5.015630181441152e-05
345.7736217736464,218.488899918173,12.5,0,13.11586242030104,-0.2263785957731472,-0.7132345818376293,4.215186262158184e-05,-1.12171014427149e-05,-5.705876654701035e-06,4.975190409295324e-05,4.91044944992111e-05
334.8418832968841,219.6807881377127,12.5,0,13.42457808272942,-0.1197832074590419,-0.5513683283070111,4.305447643070137e-05,-1.112296873005247e-05,-4.410946626456089e-06,5.12456667162461e-05,5.138304540360737e-05
337.7764462742163,218.0871641068584,12.5,0,13.40049334191424,-0.2810538000884297,-0.5731350381441217,4.310642173419632e-05,-1.161976683381437e-05,-4.585080305152974e-06,5.066981319817953e-05,5.035642123348841e-05
335.7192091311292,221.6688469562094,12.5,0,13.46403221362514,-0.05602506949244912,-0.604370119152445,4.31297231391944e-05,-1.095050599327595e-05,-4.83496095321956e-06,5.15933438301211e-05,5.191999418742135e-05
339.3993795784638,220.5049055575857,12.5,0,13.43345733108574,-0.2152463191718432,-0.6118721436437877,4.315926051481184e-05,-1.143555408621849e-05,-4.894977149150301e-06,5.099677017922684e-05,5.091071268213404e-05
334.9654433340144,213.8995130747087,12.5,0,13.15319612246281,-0.1968657688146904,-0.7187147128585869,4.224772020693275e-05,-1.115252735817726e-05,-5.749717702868695e-06,4.998442891361484e-05,4.940271009605921e-05
336.5883766382619,216.317254525436,12.5,0,13.08309141272837,-0.1818189464131739,-0.7182913451269539,4.201134767786133e-05,-1.104829375870485e-05,-5.746330761015632e-06,4.976040875168779e-05,4.995235315837819e-05
333.322310377206,216.2373692557029,12.5,0,13.29498178559198,-0.1063973361410646,-0.6538980431192338,4.26290595828072e-05,-1.097645690412499e-05,-5.231184344953871e-06,5.079580461498624e-05,5.046359244294234e-05
334.1996362114511,218.2254280741996,12.5,0,13.17374585554581,-0.1011817452337715,-0.6644675207872131,4.223693213393359e-05,-1.086277826918471e-05,-5.315740166297704e-06,5.034675208677775e-05,5.099280373233109e-05
224.2851598229078,592.5846824604281,12.5,0,0.012656788306834,-0.04596648491468841,0.02660173643396318,7.727491051361952e-08,-1.572181823724701e-07,2.128138914717054e-07,3.453403042889287e-08,2.452535700957687e-08
235.7892212654951,592.5904219227766,12.5,0,0.001050649051911153,-0.09239736791969741,0.02534245566600501,7.727997130187361e-08,-2.965120965845606e-07,2.027396453280401e-07,2.867613154940919e-08,2.820914382646946e-08
224.8872704736224,601.7836771376287,12.5,0,0.01036404700090455,-0.04404778248984801,0.01144598410191877,6.840317639477298e-08,-1.492441415682373e-07,9.156787281535013e-08,2.118294277443062e-08,2.269561292631684e-08
235.9505563281032,602.2403305416212,12.5,0,-0.001601196072807082,-0.09245480767864382,0.01087290864962996,6.884001870993239e-08,-2.945744277134145e-07,8.698326919703972e-08,2.258509086210674e-08,2.768098402337176e-08
204.3595409113106,592.5747414200325,12.5,0,0.02663478720853948,0.03751553509497991,0.02126542221333948,5.521889099134241e-08,9.874188253710412e-08,1.701233777067159e-07,2.393699354324232e-07,3.157017902505604e-07
215.8636023538979,592.580480882381,12.5,0,0.01454879025805288,-0.01084410239574396,0.01813767828140464,5.523141074236438e-08,-4.634015987282295e-08,1.451014262512372e-07,4.765344390824189e-08,1.015587794464008e-07
205.725097275348,600.9927302404785,12.5,0,0.02146705515149596,0.04215894576607986,0.00704066913237953,3.496741987192318e-08,1.177349823302588e-07,5.632535305903624e-08,2.330310401038703e-07,2.383143652697579e-07
216.7883831298288,601.449383644471,12.5,0,0.009120389930652957,-0.008588810431727406,0.004530072902979842,3.605629612347139e-08,-3.478050532605006e-08,3.624058322383874e-08,1.914195039901495e-08,7.913465732856626e-08
201.9943279082412,577.9943570857353,12.5,0,0.03843905348182978,0.06180689955179269,0.0002539537035406542,7.355945150042113e-08,1.670308357802728e-07,2.031629628325234e-09,3.648872116848865e-07,5.010304837214641e-07
214.2618350641513,577.219090691329,12.5,0,0.02634219720842347,0.01464617253210005,-0.00280283795019078,7.257809304127506e-08,2.579399433598139e-08,-2.242270360152624e-08,1.496179833220849e-07,1.861379118250038e-07
203.3598842722787,586.4123459061813,12.5,0,0.03598394690013869,0.06657370267022163,-0.01277687372285238,6.18896679442665e-08,1.842486910245982e-07,-1.022149897828191e-07,3.755339058543966e-07,3.860963620261433e-07
215.1866158400822,586.0879934534191,12.5,0,0.02351070877602013,0.0172381939817617,-0.0153164678662769,6.144371289785505e-08,3.635365372082133e-08,-1.225317429302152e-07,1.531023701837872e-07,1.302302150753308e-07
223.2422735841104,576.6515563012472,12.5,0,0.02101503521431137,-0.03712712460815643,0.02252010028753938,9.694981237232152e-08,-1.356188269175496e-07,1.80160802300315e-07,4.431063250027449e-08,5.915675481258736e-08
235.5097807400205,575.8762899068411,12.5,0,0.0005232574029123485,-0.1176029802481117,0.01825557354095715,9.575680788780881e-08,-3.767481427162871e-07,1.460445883276572e-07,3.11712818002317e-08,2.71303541324957e-08
223.844384234825,585.8505509784478,12.5,0,0.01695684567118049,-0.03412030084165193,-0.001929233908053613,8.155814682109912e-08,-1.227504392302306e-07,-1.54338712644289e-08,2.541206653071511e-08,3.429509053281557e-08
235.6711158026286,585.5261985256858,12.5,0,-0.004126895350149658,-0.1177820172653387,-0.005244027849853682,8.101954869179205e-08,-3.736009389689641e-07,-4.195222279882946e-08,2.652064504642271e-08,2.806160299188537e-08
116.122518038173,152.9185276875961,12.5,0,3.027614715849618,-0.6754258349370087,1.024648441634883,1.022870775866838e-05,-4.583454444478122e-06,8.197187533079062e-06,1.001376899920746e-05,1.077966318644621e-05
119.3802064549741,151.5555198288409,12.5,0,3.228102768619149,-0.6107206458727161,1.203296493334327,1.081850537627945e-05,-4.536788281688011e-06,9.626371946674617e-06,1.103491995453169e-05,1.105995949081147e-05
117.0289867826607,155.5191803704256,12.5,0,3.461091780343832,-0.5717593024956715,0.9732225053784722,1.15329011390968e-05,-4.598503192261214e-06,7.785780043027777e-06,1.187865110140756e-05,1.205807246173809e-05
119.8987351518136,154.3656112690911,12.5,0,3.681641985954826,-0.4999371394882302,1.177504147566862,1.218120406664602e-05,-4.545112435126196e-06,9.4200331805349e-06,1.300751232906361e-05,1.236562014936408e-05
117.6925679590707,157.4229902670162,12.5,0,3.6793439310038,-0.6831370994969228,0.8540900491413674,1.23204102588097e-05,-5.129513863193192e-06,6.83272039313094e-06,1.234120221847582e-05,1.300746119400934e-05
120.2783245030664,156.4227409771813,12.5,0,3.828421633997793,-0.6230010310113319,0.9962354361556907,1.2749350053602e-05,-5.056340606434496e-06,7.969883489245525e-06,1.312765458864079e-05,1.332214272884053e-05
118.5990367035585,160.0236429498458,12.5,0,4.126654695873514,-0.5810107606819959,0.8064181116112196,1.367010363534084e-05,-5.160558190881197e-06,6.451344892889757e-06,1.429578137328e-05,1.432283017152618e-05
120.7968531999059,159.2328324174315,12.5,0,4.292439481942785,-0.5123098043786505,0.975546746346202,1.414565418571983e-05,-5.073342959565909e-06,7.804373970769616e-06,1.517901933420894e-05,1.462975035611552e-05
113.213906248947,159.1554728572139,12.5,0,3.787922741123462,-0.8454542727270165,0.7743249227394038,1.279771618977669e-05,-5.735791865625221e-06,6.19459938191523e-06,1.228264666221613e-05,1.262276512319579e-05
115.7996627929427,158.1552235673789,12.5,0,3.908007484010615,-0.8297904101009101,0.8922271077596584,1.316945627691469e-05,-5.781735299531404e-06,7.137816862077267e-06,1.282139880382223e-05,1.282006352937825e-05
114.7923068662402,161.3933669711233,12.5,0,4.128802011880377,-0.749548618221697,0.6788592474999532,1.381180533259456e-05,-5.701597187813732e-06,5.430873979999626e-06,1.379685780093525e-05,1.387917519765398e-05
116.9901233625876,160.602556438709,12.5,0,4.263382955856767,-0.7332434029614499,0.8214426830077786,1.422942018111081e-05,-5.757085254162053e-06,6.571541464062228e-06,1.439647397643839e-05,1.412171416396381e-05
110.4800361851461,155.2793265500332,12.5,0,3.100540852314476,-0.8559982555681486,0.8779609861867399,1.060652933186084e-05,-5.219627099669656e-06,7.023687889493919e-06,9.735921289469126e-06,1.040764410530292e-05
113.7377246019473,153.9163186912781,12.5,0,3.284340334610882,-0.8339805758939375,1.044411013993183,1.117707353146997e-05,-5.296210110549305e-06,8.355288111945468e-06,1.05607835284617e-05,1.060487580569424e-05
112.0584368024394,157.5172206639426,12.5,0,3.467620755451618,-0.7507305087514238,0.7741691066250448,1.169697082444632e-05,-5.17643423236585e-06,6.193352853000358e-06,1.133096593022075e-05,1.169257117052974e-05
114.9281851715922,156.3636515626081,12.5,0,3.67094914781672,-0.7274941283362508,0.9662804799851006,1.23290325756825e-05,-5.264740528929378e-06,7.730243839880805e-06,1.223881875159392e-05,1.187772953139845e-05
66.22986573670974,182.7642299450731,12.5,0,4.188337935554926,-1.332315130409129,-0.4312469937742367,1.446853349810306e-05,-7.614078765753152e-06,-3.449975950193894e-06,1.24389277700005e-05,1.201708967551124e-05
74.89982937572009,181.944099840116,12.5,0,4.199986938337696,-1.495204379957616,-0.2160642753732891,1.463612170664672e-05,-8.144643566534525e-06,-1.728514202986313e-06,1.205332205199457e-05,1.290196415676634e-05
68.15743046367679,191.0303887351501,12.5,0,4.891639853076546,-1.111235119311607,-0.5693198867411624,1.654223562529423e-05,-7.46926426425838e-06,-4.554559093929299e-06,1.568408155274789e-05,1.443013364960798e-05
76.01219637270898,191.0322952231205,12.5,0,4.841015509038855,-1.31311903670209,-0.316555364590841,1.654174485828601e-05,-8.074793324677773e-06,-2.532442916726728e-06,1.492140093914934e-05,1.545121061326997e-05
51.2130482144389,184.1847369556502,12.5,0,3.843872496338192,-1.220853889747815,-0.2721529308687936,1.327707510008046e-05,-6.98183044426356e-06,-2.177223446950349e-06,1.139999899894044e-05,1.153026087591538e-05
59.88301185344924,183.364606850693,12.5,0,3.803306529199831,-1.577237060071979,-0.08004171064046531,1.343237054149704e-05,-8.089803815590196e-06,-6.403336851237224e-07,1.038640365359723e-05,1.164954288916354e-05
54.55257682791753,191.0270866011214,12.5,0,4.439889784222466,-0.9017986465585661,-0.5123062708015814,1.492908622675874e-05,-6.437667496365384e-06,-4.098450166412651e-06,1.452107977107003e-05,1.348358249944517e-05
62.40734273694974,191.0289930890918,12.5,0,4.329769238263427,-1.341687631901277,-0.2678673531769232,1.492861166796399e-05,-7.757215812694828e-06,-2.142938825415386e-06,1.29194718289349e-05,1.390290928552026e-05
45.42881498266782,172.3334397267562,12.5,0,2.681111245421944,-1.236334402880975,0.0494332560323712,9.568623507655e-06,-6.101159085556675e-06,3.954660482589696e-07,7.046804507221822e-06,8.048256427023327e-06
55.51074250818976,170.0895004771933,12.5,0,2.775627071420568,-1.581504899477796,0.3415457072034195,1.014721054812805e-05,-7.281317335465399e-06,2.732365657627356e-06,6.728947572463289e-06,7.475332620652448e-06
48.76834359614644,179.1757893722273,12.5,0,3.43638534540014,-0.8988605706926721,-0.2033774007999054,1.171552156183458e-05,-5.625462102536662e-06,-1.627019206399243e-06,1.06754359836534e-05,1.007386964425545e-05
58.03507339169023,177.753886715592,12.5,0,3.476068424659084,-1.311746256751266,0.1432032429034355,1.217281596431008e-05,-6.978442761331319e-06,1.145625943227484e-06,9.796346453189524e-06,9.927278912576681e-06
62.89122569478522,168.4468229374851,12.5,0,2.807367617638476,-1.430605344785988,0.07612043064298404,1.012806065227191e-05,-6.82383119742594e-06,6.089634451438723e-07,7.095241780263209e-06,7.463774491512963e-06
72.97315322030715,166.2028836879221,12.5,0,2.955090964103393,-1.625096768053997,0.408387518504724,1.075636849957405e-05,-7.564382429055503e-06,3.267100148037792e-06,7.287446519895768e-06,8.005120901832984e-06
64.81879042175223,176.712981727562,12.5,0,3.736614745896956,-1.145804786560582,-0.09395093541892288,1.287381101611872e-05,-6.655867113711427e-06,-7.51607483351383e-07,1.116835405625813e-05,1.015045936497262e-05
74.08552021729604,175.2910790709266,12.5,0,3.828720175792397,-1.380601104522625,0.2833500292582074,1.335638544615377e-05,-7.480899675106318e-06,2.266800234065659e-06,1.095639147596997e-05,1.090679043187921e-05
116.2697468711453,142.5336669524313,12.5,0,1.555884782055633,-0.7600971747426633,1.245415856895066,5.586909042372154e-06,-3.677018784821028e-06,9.963326855160531e-06,4.86100900858775e-06,6.549070948984922e-06
118.4648074224219,141.4523967056583,12.5,0,1.846638026459548,-0.5586972969438275,1.465991542503367,6.356199522225617e-06,-3.265141771387886e-06,1.172793234002694e-05,6.504651625162342e-06,6.621490939571833e-06
116.1151285246278,145.5784454354277,12.5,0,2.186128281210685,-0.5946495468288087,1.319500638344442,7.471330137337237e-06,-3.651781174820735e-06,1.055600510675554e-05,7.415179435991765e-06,7.729147296732576e-06
118.6990186901363,144.3814912953973,12.5,0,2.420318016192493,-0.4266791669939513,1.505736160717756,8.086360985411136e-06,-3.301627747334638e-06,1.204588928574205e-05,8.8409049499856e-06,7.856450702846313e-06
116.0019400391996,147.8073779826788,12.5,0,2.276441196524202,-0.7884462107761888,1.086271793433258,7.915368797498397e-06,-4.344180831703166e-06,8.69017434746606e-06,7.055207248071796e-06,8.615570553461128e-06
118.870473237801,146.5257373551703,12.5,0,2.575562533965395,-0.6035977115339556,1.332364677571002,8.724678277916426e-06,-3.991962704080973e-06,1.065891742056801e-05,8.77716153973936e-06,8.788940738737819e-06
115.8473216926821,150.8521564656752,12.5,0,2.852723110194744,-0.6390541072454917,1.139136781642701,9.639957238419573e-06,-4.327151631341368e-06,9.113094253141606e-06,9.539159902822172e-06,9.857247580209512e-06
119.1046845055153,149.4548319449094,12.5,0,3.10677849929482,-0.4785671315514978,1.355260308137401,1.032454490298462e-05,-4.016837620400649e-06,1.08420824650992e-05,1.104788907546827e-05,1.010159113117897e-05
111.0334947961131,150.027244666528,12.5,0,2.273178791152683,-0.9719782259698695,0.8948764068219454,8.05175471246448e-06,-4.928873356025728e-06,7.159011254575563e-06,6.477416685141767e-06,8.297438024008509e-06
113.9020279947145,148.7456040390196,12.5,0,2.610847206326556,-0.7378688354347724,1.171535373196286,8.945006128592794e-06,-4.449858038452515e-06,9.372282985570287e-06,8.434649931644894e-06,8.483872797975805e-06
110.2054038022708,153.2723935302599,12.5,0,2.957341507797924,-0.7623125710604844,1.019905445760091,1.007334288180174e-05,-4.805273433631889e-06,8.15924356608073e-06,9.526889608189401e-06,9.497920920524733e-06
113.462766615104,151.8750690094941,12.5,0,3.242020773970263,-0.5603412699181208,1.260718431208348,1.082273949263934e-05,-4.386708682914197e-06,1.008574744966679e-05,1.125864586014728e-05,9.695494634775016e-06
112.4677904707124,144.406481956521,12.5,0,1.718416094230539,-0.8780608170884278,1.154293240358366,6.201380155208466e-06,-4.184527490067399e-06,9.234345922866927e-06,5.036581264506604e-06,6.448927216833083e-06
114.662851021989,143.325211709748,12.5,0,2.000788910539262,-0.6802258440727207,1.368497862469793,6.946705188983814e-06,-3.777353829464115e-06,1.094798289975834e-05,6.626386332515021e-06,6.502832638835605e-06
111.6396994768701,147.6516308202529,12.5,0,2.374323559653956,-0.6725707174152235,1.281072219156602,8.135891964824839e-06,-4.05168514345188e-06,1.024857775325282e-05,7.846398181660875e-06,7.48046262340218e-06
114.2235896423785,146.4546766802225,12.5,0,2.59870264031498,-0.5097723811476754,1.459448967642839,8.723666353926076e-06,-3.710233731924545e-06,1.167559174114271e-05,9.212303316024835e-06,7.628401594484928e-06
113.9657833921507,133.1678799715643,12.5,0,0.2350570556326785,-0.5805058657809014,1.579803485757379,1.216587270649292e-06,-2.045664415005027e-06,1.263842788605903e-05,2.423220684927047e-06,3.328284296797522e-06
116.8926133894051,131.622333571959,12.5,0,0.4770402421121543,-0.4664816396549658,1.752816254541167,1.899714086482866e-06,-1.874373440585614e-06,1.402253003632933e-05,3.333147542328475e-06,3.351006849646087e-06
114.7277264693074,135.8312491543906,12.5,0,0.6678383137383467,-0.487826592700898,1.554624940437477,2.527343878123428e-06,-2.095315747633551e-06,1.243699952349982e-05,3.369914558109536e-06,4.090555272902711e-06
117.3724165503988,134.4492298477349,12.5,0,0.9336034532458996,-0.3620144792672717,1.746390750235489,3.277142633800695e-06,-1.905329096251989e-06,1.397112600188391e-05,4.586449377651907e-06,4.117249584416484e-06
115.2855075142377,137.7809707154498,12.5,0,0.9408512588383038,-0.5823915059407785,1.496491896988715,3.476637233035195e-06,-2.616333826081134e-06,1.197193517590972e-05,3.780153442899615e-06,4.738870220695081e-06
117.7236568418635,136.5186615492422,12.5,0,1.144250846605286,-0.4865376606625891,1.644444204080925,4.050832837666986e-06,-2.472321191404514e-06,1.31555536326474e-05,4.744100672733278e-06,4.772128806186763e-06
116.0474505913943,140.4443398982761,12.5,0,1.396794280735924,-0.4844334550714017,1.469529305589873,4.857288462412076e-06,-2.667622480817224e-06,1.175623444471898e-05,5.237784895182762e-06,5.747828621340313e-06
118.2034600028572,139.3455578250181,12.5,0,1.624171986768597,-0.3765284066351074,1.637227827415135,5.498573082967597e-06,-2.504228490647222e-06,1.309782261932108e-05,6.425460598808078e-06,5.795049378189999e-06
111.0625090024257,139.9673543261419,12.5,0,1.186343180656863,-0.7609443865751533,1.413861218626276,4.405053687362083e-06,-3.38409658156598e-06,1.131088974901021e-05,3.994925907963853e-06,4.788683852641715e-06
113.5006583300515,138.7050451599343,12.5,0,1.367165330765391,-0.6908169420636436,1.545180405668535,4.927582612100165e-06,-3.304346479215972e-06,1.236144324534828e-05,4.825194166745009e-06,4.743306132023206e-06
112.3131327492109,142.3474862755706,12.5,0,1.557240571598802,-0.6828084676175843,1.351118257915336,5.529416603210233e-06,-3.430779553655311e-06,1.080894606332269e-05,5.154555516245228e-06,5.727667269027024e-06
114.4691421606738,141.2487042023126,12.5,0,1.759842989500087,-0.6038070637522709,1.500413251508909,6.114543217402093e-06,-3.340056995607336e-06,1.200330601207127e-05,6.158066207824193e-06,5.72977363960635e-06
108.8963651318806,135.8448448610876,12.5,0,0.5619746025743685,-0.7289514889123454,1.505441655201482,2.381479919367855e-06,-2.782224446579e-06,1.204353324161186e-05,2.705510817742934e-06,3.415928174433244e-06
111.823195129135,134.2992984614824,12.5,0,0.752661505162057,-0.6886441537707843,1.64069597480593,2.959432139535209e-06,-2.805790496196155e-06,1.312556779844744e-05,3.389044447934622e-06,3.345679913345258e-06
110.1469888786658,138.2249768105163,12.5,0,0.8935589724661517,-0.6425483321359667,1.437620374229717,3.373427377600459e-06,-2.771001840808015e-06,1.150096299383774e-05,3.462805909925459e-06,4.169255229153135e-06
112.7916789597572,136.8429575038606,12.5,0,1.103207608762748,-0.5983189416985073,1.587923012835361,4.008919501399598e-06,-2.797186700445421e-06,1.270338410268289e-05,4.324813876639949e-06,4.104490143411322e-06
112.98585398442,217.2125508737369,12.5,0,7.403292950039387,-0.5669255100489918,-2.304711356894727,2.414407784816523e-05,-7.736795992188282e-06,-1.843769085515782e-05,2.736338980052481e-05,2.810690724224973e-05
115.2632687479353,214.8431779209817,12.5,0,7.61464446243501,-0.5875687640981813,-2.252046937954421,2.483691729107057e-05,-7.971935615062187e-06,-1.801637550363537e-05,2.807269276385005e-05,2.838447237210877e-05
116.9099360266112,220.814392268937,12.5,0,7.757580744704724,-0.3617940553686485,-2.479551842716113,2.511369362735003e-05,-7.363805572943452e-06,-1.98364147417289e-05,2.937858021314282e-05,2.963541027816979e-05
118.2160066955848,218.053038600085,12.5,0,8.094156877434809,-0.3326427760036728,-2.463760127354367,2.616741622859432e-05,-7.539782385159599e-06,-1.971008101883494e-05,3.072230644772007e-05,2.971437414582368e-05
106.1891445143984,210.9739785765578,12.5,0,7.080594977713838,-0.8088914650654617,-1.914321677612233,2.330501710073665e-05,-8.252928670380547e-06,-1.531457342089786e-05,2.526985353162135e-05,2.545479704000014e-05
110.1489766012617,209.2835361396571,12.5,0,7.192238866883025,-0.9008773845352289,-1.80863805955261,2.373586628165386e-05,-8.636598724019151e-06,-1.446910447642088e-05,2.538460272066448e-05,2.614451341430716e-05
110.1132265565896,214.5758199717579,12.5,0,7.396282162872101,-0.618896351760843,-2.071975334219953,2.41632200025994e-05,-7.897494055932378e-06,-1.657580267375962e-05,2.707420080650985e-05,2.698671530125017e-05
113.1017145489111,212.4933968187604,12.5,0,7.585887915271429,-0.683785490017526,-1.985120009606155,2.482186972088259e-05,-8.256823900273225e-06,-1.588096007684924e-05,2.756446375009497e-05,2.74279310720371e-05
113.0477748781639,208.0460463886278,12.5,0,7.40896113443533,-0.6724074198908583,-1.86663312797666,2.424660156610574e-05,-8.078872651199009e-06,-1.493306502381328e-05,2.687746736061332e-05,2.673865512048637e-05
117.0076069650271,206.355603951727,12.5,0,7.54008118301229,-0.7274092735985453,-1.745880007165803,2.471018720451816e-05,-8.359774621925176e-06,-1.396704005732642e-05,2.716710885925208e-05,2.767216407442563e-05
115.289439597007,210.9689572679733,12.5,0,7.663591100718869,-0.5636306357379874,-1.95993640317079,2.497439603089077e-05,-7.934490914936654e-06,-1.567949122536632e-05,2.819351383685093e-05,2.782845382957409e-05
118.2779275893285,208.8865341149758,12.5,0,7.899558808975582,-0.5951607047814629,-1.845187334009294,2.575471675254703e-05,-8.224161302481146e-06,-1.476149867207435e-05,2.894938336472851e-05,2.848148658201232e-05
116.930452064665,213.1086765375591,12.5,0,7.526228852949798,-0.5437930367619082,-2.176393668462411,2.451896675884888e-05,-7.761120799997944e-06,-1.741114934769929e-05,2.782945709607018e-05,2.864311920327149e-05
119.2078668281803,210.7393035848037,12.5,0,7.764170791570702,-0.5471076193266802,-2.110726554630631,2.528303262848759e-05,-7.962081015101938e-06,-1.688581243704505e-05,2.868730176018365e-05,2.907219035739575e-05
119.1721167835082,216.0315874169045,12.5,0,7.816137276192785,-0.4171220426474473,-2.283879964837013,2.534533691793487e-05,-7.587700357426059e-06,-1.82710397186961e-05,2.934090459645215e-05,2.977902768638676e-05
120.4781874524817,213.2702337480525,12.5,0,8.258455917375644,-0.3620057388759985,-2.249708613683937,2.671666352670285e-05,-7.765183098303708e-06,-1.79976689094715e-05,3.115646682876304e-05,2.987670057644793e-05
111.3601090405011,122.4811336060245,12.5,0,-1.257178225668346,-0.5377147891630853,1.723882141846756,-3.592798490808238e-06,-7.149447447871962e-07,1.379105713477405e-05,1.362407259940444e-06,1.725549110670897e-06
115.2395761717153,121.4383204379133,12.5,0,-1.08751591990992,-0.4528194984210496,1.949337587587816,-3.117795344974904e-06,-5.790096590194228e-07,1.559470070070253e-05,1.801977160071395e-06,1.862910540583497e-06
112.1111505483545,125.6159453158095,12.5,0,-0.7937636795933402,-0.4299050875515961,1.695484920533302,-2.196119704657411e-06,-7.406853364904352e-07,1.356387936426641e-05,1.630650271160967e-06,1.990175117203554e-06
115.7164582660181,124.3915393580616,12.5,0,-0.5723140511795706,-0.3300374772490542,1.932950924787341,-1.567374981975382e-06,-5.98268686253317e-07,1.546360739829873e-05,2.277421053234836e-06,2.11460539042963e-06
112.660951090673,127.9107867594363,12.5,0,-0.5088478699109371,-0.5730299980563396,1.648621128284105,-1.169889185269927e-06,-1.426617697851537e-06,1.318896902627284e-05,1.654380580416029e-06,2.29037994232889e-06
116.0655601882528,126.5534456533919,12.5,0,-0.2881494617712974,-0.461324359455431,1.851047645865688,-5.530187901038067e-07,-1.245718380840341e-06,1.48083811669255e-05,2.300941098998023e-06,2.389276725237343e-06
113.4119925985264,131.0455984692213,12.5,0,-0.04877342045780127,-0.4701779649682512,1.627308309170033,2.200674265096369e-07,-1.465550751532163e-06,1.301846647336026e-05,2.208284970484783e-06,2.84592877075085e-06
116.5424422825555,129.5066645735402,12.5,0,0.2335782975479951,-0.3401703254432576,1.84228720540507,1.019586812508191e-06,-1.27540767945682e-06,1.473829764324056e-05,3.217792893399577e-06,2.887997917500549e-06
106.7639951538596,130.2617705182647,12.5,0,-0.2582061912346185,-0.7419984504851974,1.570761665643838,-2.326610515626212e-07,-2.167830088564937e-06,1.25660933251507e-05,1.629032242821418e-06,2.208692722191523e-06
110.1686042514393,128.9044294122203,12.5,0,-0.06750405288327427,-0.686199071873719,1.749395794571582,3.329462882724975e-07,-2.141833787689281e-06,1.399516635657266e-05,2.167210768347766e-06,2.241992604548288e-06
107.9898946953475,133.7111101659828,12.5,0,0.2100489560641694,-0.6277981734214928,1.511475823386925,1.174395198142536e-06,-2.176993319800112e-06,1.20918065870954e-05,2.211686157693944e-06,2.890597033998492e-06
111.1203443793765,132.1721762703018,12.5,0,0.4521987874465006,-0.5588770827471545,1.696134030261138,1.894137786026526e-06,-2.150165694748095e-06,1.356907224208911e-05,3.045193577818564e-06,2.846625201917486e-06
104.6406748630654,124.2873389959626,12.5,0,-1.080962727114659,-0.7036626140378005,1.656288299038655,-2.896150635536669e-06,-1.386950183229234e-06,1.325030639230924e-05,1.248675825167523e-06,1.545821240478267e-06
108.5201419942796,123.2445258278513,12.5,0,-0.9403311468080023,-0.6890891794099619,1.857924127224502,-2.457788326257638e-06,-1.452820456665476e-06,1.486339301779601e-05,1.586634726655917e-06,1.640585288781795e-06
105.8665744045533,127.7366786436807,12.5,0,-0.6052048030488008,-0.5783432735605445,1.585927725299419,-1.473980750907727e-06,-1.366534632954702e-06,1.268742180239535e-05,1.483916168493309e-06,1.848361134328071e-06
109.4718821222168,126.5122726859328,12.5,0,-0.4203247089188004,-0.5533692920096616,1.793442336187077,-9.02343634932432e-07,-1.434521967295876e-06,1.434753868949662e-05,1.976006852183298e-06,1.918835183793936e-06
60.77541140380049,364.5353944851411,12.5,0,2.588547210607596,1.311518071164963,-2.345474051716758,7.234136617012335e-06,2.126020059241804e-06,-1.876379241373407e-05,1.541653152859127e-05,1.482739244997699e-05
69.03949843076451,358.8044690134026,12.5,0,2.454549357707616,1.353187484096097,-2.407922625073728,6.772007957387493e-06,2.366560462941418e-06,-1.926338100058983e-05,1.514634267581346e-05,1.538059880941656e-05
64.35830978027619,373.4338031768474,12.5,0,2.354819389806508,1.222356371115118,-2.280892489746813,6.557536950488731e-06,2.02768487572317e-06,-1.824713991797451e-05,1.425874474056488e-05,1.40367171009218e-05
73.43279191616057,367.4269208413743,12.5,0,2.236602767333875,1.262774489207343,-2.33990606500889,6.146909264102523e-06,2.251596151596397e-06,-1.871924852007112e-05,1.404106369635253e-05,1.464794275686446e-05
66.98117343010092,379.947890445412,12.5,0,2.154674297737903,1.399951338707028,-2.212956434502282,5.774996681795665e-06,2.756104845672168e-06,-1.770365147601826e-05,1.407952730133152e-05,1.349980871015192e-05
76.64890595989509,373.7389936649965,12.5,0,2.024923182069774,1.509417019774181,-2.274360298366176,5.27222056680393e-06,3.210195917621561e-06,-1.819488238692941e-05,1.405504317845924e-05,1.411384904690679e-05
70.56407180657661,388.8462991371183,12.5,0,1.913200215226327,1.289628002841606,-2.128880550829671,5.09053828645096e-06,2.596249436912077e-06,-1.703104440663737e-05,1.281444236649616e-05,1.282362305655136e-05
81.04219944529112,382.3614454929683,12.5,0,1.79720529443119,1.393734806526622,-2.187719795801497,4.636069096958509e-06,3.022187145340239e-06,-1.750175836641198e-05,1.282166717395041e-05,1.338733394778955e-05
50.23616949481194,390.7020151278492,12.5,0,2.075688744262418,1.184784326758296,-2.102404286961073,5.694376520233101e-06,2.130758850216614e-06,-1.681923429568858e-05,1.300339588887285e-05,1.271955480890186e-05
59.9039020246061,384.4931183474337,12.5,0,1.961900109541422,1.278184112155095,-2.15651698889432,5.255533060808473e-06,2.520669071263167e-06,-1.725213591115456e-05,1.297045558270155e-05,1.312620869507875e-05
52.4154223684575,400.0783951282324,12.5,0,1.859310319369631,1.10464997613193,-2.039335454258463,5.066073041077274e-06,2.047431668126472e-06,-1.63146836340677e-05,1.194419665243175e-05,1.202743682679219e-05
62.893550007172,393.5935414840825,12.5,0,1.758110993802157,1.193025886495221,-2.090880321774207,4.671534470970724e-06,2.411194041742981e-06,-1.672704257419365e-05,1.193983531240761e-05,1.245923972120205e-05
46.46159279518517,374.4616485764045,12.5,0,2.471181192086319,1.128352938506624,-2.250580854710122,7.005097463870923e-06,1.633784449552139e-06,-1.800464683768098e-05,1.433165946634005e-05,1.41683207796263e-05
54.7256798221492,368.730723104666,12.5,0,2.352493254621758,1.218542365830703,-2.298797998520946,6.553144522125063e-06,2.017340966960844e-06,-1.839038398816757e-05,1.425597186899286e-05,1.450256353090281e-05
48.64084566883074,383.8380285767878,12.5,0,2.231425357878547,1.038685277264084,-2.179211453967416,6.309612923400083e-06,1.53865260094223e-06,-1.743369163173932e-05,1.314789637432512e-05,1.329320293513465e-05
57.7153278047151,377.8311462413147,12.5,0,2.128054355578846,1.123627104817277,-2.225174009179657,5.910872253998484e-06,1.893163250952209e-06,-1.780139207343726e-05,1.310980305899696e-05,1.367371565974632e-05
338.8891479335241,48.69263098684352,12.5,0,-9.808199029661733,-0.06359334319699705,-3.00482586027806,-3.133536222035995e-05,7.643060525498995e-06,-2.403860688222448e-05,3.080696846535029e-06,3.095017719467594e-06
346.7633148000476,52.29390140235009,12.5,0,-10.10559811190945,-0.005600632588496968,-2.756251763575332,-3.233343345203943e-05,8.066556465244367e-06,-2.205001410860265e-05,3.055469994508705e-06,2.995990078978736e-06
337.0620145354368,56.73277619233066,12.5,0,-8.991472285091719,0.1739871752631874,-2.877196535589215,-2.891190105250405e-05,7.749936788915574e-06,-2.301757228471372e-05,3.030331330848134e-06,3.026806915202504e-06
344.3465783030052,60.13747273945128,12.5,0,-9.31926415281491,0.2344127376041203,-2.610352830786835,-3.000917547909101e-05,8.205532082585111e-06,-2.088282264629468e-05,2.997717799237358e-06,2.958051035539026e-06
352.5276050133731,54.93021431818351,12.5,0,-8.50181292901639,-0.1737623063593032,-3.16422194657299,-2.7066791527765e-05,6.245410962863341e-06,-2.531377557258392e-05,2.892321343971186e-06,2.926213330900316e-06
360.4017718798966,58.53148473369011,12.5,0,-8.730206874746813,-0.01765177467005286,-2.969340034104516,-2.792254057945375e-05,6.92767982085328e-06,-2.375472027283613e-05,2.915084835488334e-06,2.834607350443894e-06
349.6792490916139,62.62988359619194,12.5,0,-7.816984677578352,0.08122301229681828,-2.981730978812139,-2.507932937808818e-05,6.513501381412499e-06,-2.385384783049711e-05,2.853396396522033e-06,2.904932315057457e-06
356.9638128591824,66.03458014331255,12.5,0,-8.068868371053139,0.2471189017742002,-2.773455636049366,-2.60180739087894e-05,7.24587518251995e-06,-2.218764508839493e-05,2.87994940481833e-06,2.828565151526071e-06
347.5941078389352,68.26643270893163,12.5,0,-6.567917611359422,-0.1371899427943513,-3.459779339924418,-2.090758440211467e-05,4.815326272145613e-06,-2.767823471939534e-05,2.914932578169773e-06,2.917005110566759e-06
354.4470521817868,71.52722719695947,12.5,0,-6.773920009741574,-0.01235661148372524,-3.293930361567419,-2.166665874198605e-05,5.379594851045338e-06,-2.635144289253935e-05,2.887186302910585e-06,2.863961580232045e-06
344.7457519171761,75.96610198694003,12.5,0,-5.889427726447719,0.1130270097576929,-3.281492430161749,-1.893659033243885e-05,5.073228612382792e-06,-2.625193944129399e-05,2.920294264947154e-06,2.97126961713182e-06
351.0090931610727,79.03032260658192,12.5,0,-6.120478129388601,0.2464232519825134,-3.102725196254825,-1.978266861562953e-05,5.684936909854923e-06,-2.48218015700386e-05,2.884655257701717e-06,2.96670862078519e-06
335.7244600558878,62.61857098272832,12.5,0,-7.735926055208444,0.05044248614451918,-3.315607602035408,-2.479531736558263e-05,6.350156799829216e-06,-2.652486081628326e-05,3.031790143729517e-06,3.006816598034161e-06
342.5774043987394,65.87936547075617,12.5,0,-8.029066054279177,0.04481688666920824,-3.083240153455564,-2.572886488302873e-05,6.566666880764808e-06,-2.466592122764451e-05,2.917964877982071e-06,2.955282997220378e-06
333.8973266578005,70.65871618821546,12.5,0,-6.88552704918526,0.2829111449583865,-3.208616197651701,-2.226001547335954e-05,6.413737303215044e-06,-2.566892958121361e-05,3.039965114152142e-06,3.020412840133602e-06
340.1606679016971,73.72293680785735,12.5,0,-7.213767099247129,0.2744116849073241,-2.956376500143159,-2.330358406551667e-05,6.64913107110114e-06,-2.365101200114527e-05,2.894166362320614e-06,2.985659619335922e-06
151.8762541718511,35.21315079612904,12.5,0,-15.61869803223656,0.2776912907736717,1.357445065286934,-5.020198673577594e-05,1.3383570556265e-05,1.085956052229547e-05,4.052900825747575e-06,4.143649495450743e-06
159.6017550898874,34.01541314956106,12.5,0,-15.58176028008576,-0.1824604890291686,1.720438216886276,-4.971566450505109e-05,1.188153465917527e-05,1.376350573509021e-05,3.834791806081962e-06,4.155724029224549e-06
154.2237306117653,40.49121689151546,12.5,0,-14.70384425777258,0.6798299661150478,1.05660248846048,-4.75961655977643e-05,1.393853129778622e-05,8.45281990768384e-06,4.045430738413507e-06,3.861960714765657e-06
161.1741473044716,39.80064371098793,12.5,0,-14.72841664587201,0.1317127294102289,1.487801281258129,-4.723630345031862e-05,1.220421405081034e-05,1.190241025006503e-05,3.776435839170295e-06,3.880965520733847e-06
165.2572142755696,33.1386083381726,12.5,0,-16.38339963609356,0.1069189411127711,0.8754102788076196,-5.251241398838959e-05,1.344886032043571e-05,7.003282230460957e-06,4.079137066715643e-06,4.177830880505254e-06
172.9827151936059,31.94087069160463,12.5,0,-16.20628230735069,0.1039877268077865,1.331341399213237,-5.194329356496845e-05,1.329778657166547e-05,1.065073119370589e-05,4.085582185274306e-06,4.226153387628269e-06
166.2622054570912,39.29510905651883,12.5,0,-15.22085807733975,0.4048640243044828,0.7864528836485404,-4.903063706693077e-05,1.347225133964614e-05,6.291623069188323e-06,3.969561347400145e-06,3.910651211971312e-06
173.2126221497975,38.60453587599128,12.5,0,-15.09840065299639,0.3824323843024366,1.29992070979928,-4.86208279970304e-05,1.330250415216491e-05,1.039936567839424e-05,3.985138176935138e-06,3.972749222725129e-06
166.9979100630924,43.80198037899094,12.5,0,-14.34327756735117,0.394481581110369,1.060810781425144,-4.621407348041205e-05,1.273696311343412e-05,8.48648625140115e-06,3.781856451223936e-06,3.761639016203409e-06
173.380925722736,43.48267735538275,12.5,0,-14.29518649190357,0.3947048550908812,1.444673512569372,-4.606036065816413e-05,1.269920472981368e-05,1.155738810055497e-05,3.826180255340785e-06,3.822646857429759e-06
168.002901244614,49.95848109733713,12.5,0,-13.11676992248149,0.703413819337757,0.9801185448513787,-4.253639480741097e-05,1.274434015986601e-05,7.84094835881103e-06,3.675824582228061e-06,3.621709794934731e-06
173.6108326789276,50.14634253976939,12.5,0,-13.16011493617579,0.6789238388555181,1.424759563505211,-4.265550686684695e-05,1.270064823327829e-05,1.139807650804168e-05,3.73829690183171e-06,3.66596373399225e-06
155.9422026352804,44.35502943888072,12.5,0,-14.03670627978154,0.3812391424543273,1.441252680441309,-4.52224514092644e-05,1.244933027967908e-05,1.153002144353047e-05,3.756925627235815e-06,3.711053792949073e-06
162.3252182949241,44.03572641527255,12.5,0,-14.08199903169665,0.02892643890893609,1.776549831292449,-4.508553805255643e-05,1.135816382986591e-05,1.421239865033959e-05,3.619285695985512e-06,3.731737744695826e-06
158.2896790751947,49.63309553426712,12.5,0,-13.02538984177911,0.7950474263450547,1.13496148702006,-4.231728543476919e-05,1.296446363772746e-05,9.079691896160481e-06,3.735472681909439e-06,3.5804571959999e-06
163.8976105095083,49.82095697669939,12.5,0,-13.17217634105747,0.346369620648582,1.553829168796507,-4.242805998790278e-05,1.164612385892144e-05,1.243063335037205e-05,3.555175811383273e-06,3.598798387132813e-06
104.1983516501706,15.77829841916921,12.5,0,-17.91044061472524,-0.5561604394378774,0.9441567456321097,-5.686848161557046e-05,1.254863908557898e-05,7.553253965056877e-06,4.082241504975644e-06,4.15722895783865e-06
112.9929635757238,7.446013576535069,12.5,0,-17.33385445910602,-0.6380146189323508,1.110579838414493,-5.495792257399337e-05,1.182543678670129e-05,8.884638707315944e-06,3.916131371502972e-06,4.287905502574724e-06
104.8885695192176,24.91929662186698,12.5,0,-17.01979526503587,-0.3110403709093967,0.8001331254639419,-5.421451255138726e-05,1.262050702511862e-05,6.401065003711535e-06,3.98948558514713e-06,3.834715686224691e-06
112.8746640825717,18.68770796874525,12.5,0,-16.50337351069905,-0.4333354749057192,1.002066419576412,-5.246412685431238e-05,1.181602528886094e-05,8.016531356611298e-06,3.816114066120263e-06,3.88316180144673e-06
105.3938440676305,31.61097173785304,12.5,0,-15.28671712725042,-0.2979195552154197,1.204768974235841,-4.8679159163029e-05,1.127603112511099e-05,9.638151793886723e-06,3.622284356246239e-06,3.640199658987932e-06
112.7880628430784,26.91719942665534,12.5,0,-14.79464934780832,-0.08322380229950266,1.504292853985408,-4.727629887114703e-05,1.156940331088825e-05,1.203434283188326e-05,3.669991063633793e-06,3.678183738037331e-06
106.0840619366775,40.75196994055081,12.5,0,-14.07676278729877,-0.006829707447712163,1.230806790513293,-4.50401771533979e-05,1.123955516600634e-05,9.846454324106345e-06,3.502630855332167e-06,3.431285261282019e-06
112.6697633499263,38.15889381886551,12.5,0,-13.718325760082,0.1872662141588863,1.562100782779902,-4.40484554035895e-05,1.157391249337403e-05,1.249680626223922e-05,3.586756295015433e-06,3.522916955469962e-06
92.58668146650504,39.74082385986138,12.5,0,-13.91960974506374,-0.05023094706427367,1.524756923848724,-4.450256642655255e-05,1.097494876544532e-05,1.219805539078979e-05,3.487717841783468e-06,3.431187029264458e-06
99.98090024195299,35.04705154866367,12.5,0,-13.56320980728785,-0.1045813587350866,1.721472911971431,-4.331860629633304e-05,1.0515907497878e-05,1.377178329577145e-05,3.411645309478256e-06,3.574017090341155e-06
94.67729248565743,45.24330953112274,12.5,0,-13.2122616645357,0.1871997443829692,1.362485105372947,-4.242899712202061e-05,1.116884851365406e-05,1.089988084298357e-05,3.433300843877356e-06,3.220667033370264e-06
101.2629938989062,42.65023340943742,12.5,0,-12.95234816998504,0.07165744944861219,1.627441717581798,-4.150484010351102e-05,1.059118237422359e-05,1.301953374065439e-05,3.353983344603976e-06,3.350297638745556e-06
97.76024888808813,21.87795426685411,12.5,0,-14.81772115055556,0.1333001258183426,1.410524541830618,-4.752334778243246e-05,1.228073732306314e-05,1.128419633464495e-05,3.785963923446174e-06,4.025739215489867e-06
99.04234254504135,29.48113612762785,12.5,0,-14.6907148151605,0.1760198856757991,1.37666051535696,-4.715110331705425e-05,1.231583548629096e-05,1.101328412285568e-05,3.776078213839769e-06,3.755001115358565e-06
88.96563696253486,30.21023910948824,12.5,0,-14.93874151166682,0.1815943812906706,1.384101042623667,-4.794924834236635e-05,1.25320952294636e-05,1.107280834098934e-05,3.838962858527778e-06,3.797179103439654e-06
91.05624798168724,35.71272478074958,12.5,0,-14.80434705928059,0.2406100049795978,1.33915956394734,-4.756639859368155e-05,1.261342966335918e-05,1.071327651157872e-05,3.835686023644748e-06,3.585662972861538e-06
296.2669831685324,101.4417950115154,12.5,0,-2.815508762714455,1.140410633414401,-3.573227131547878,-9.921956547417774e-06,5.901721037097647e-06,-2.858581705238302e-05,5.04542228353356e-06,5.312373295367199e-06
298.4017476931063,100.0740607798894,12.5,0,-2.672551722542325,1.005314956484866,-3.506671480635123,-9.356417477323331e-06,5.355049238785431e-06,-2.805337184508098e-05,4.8440964217372e-06,5.048323270717297e-06
296.9728669552925,103.7983572105071,12.5,0,-2.517925880768912,1.264267115849441,-3.671221323998719,-9.068776511140072e-06,6.059995475333341e-06,-2.936977059198975e-05,5.623569129670488e-06,5.775306483241172e-06
299.3757731451057,102.2273958199543,12.5,0,-2.38852331225059,1.146034391153659,-3.613343341553018,-8.560102112124812e-06,5.578128701492178e-06,-2.890674673242414e-05,5.450418043516108e-06,5.421053351540146e-06
295.0443565856467,97.36010955173876,12.5,0,-3.536822642077462,1.114684901677149,-3.479846328566295,-1.220958037598959e-05,6.396449799028845e-06,-2.783877062853036e-05,4.471363265728801e-06,4.669247998935514e-06
296.7146861224087,96.34437508484564,12.5,0,-3.411782892778486,1.014137883467785,-3.413123879795544,-1.172901556366538e-05,5.9746675413197e-06,-2.730499103836435e-05,4.307258764547307e-06,4.523053414693374e-06
295.7502403724068,99.71667175073051,12.5,0,-3.210302514201569,1.243372565700261,-3.577953851154444,-1.126766609800523e-05,6.547034221602091e-06,-2.862363080923555e-05,4.952121544515322e-06,5.016005817725131e-06
297.6887115744079,98.49771012491057,12.5,0,-3.099259123991295,1.158976548686489,-3.522108189573346,-1.084481043572133e-05,6.188132254989799e-06,-2.817686551658677e-05,4.81627208841833e-06,4.807704912843493e-06
297.9374522086494,95.6008058481126,12.5,0,-3.748936572837276,1.050568415004611,-3.45719188295617,-1.283705176508297e-05,6.360968186284576e-06,-2.765753506364936e-05,4.272903412895803e-06,4.423348626258484e-06
299.6077817454113,94.58507138121949,12.5,0,-3.674454345789703,0.9239590651537757,-3.422704449002389,-1.249742115865007e-05,5.896232485123843e-06,-2.738163559201911e-05,4.101134010874135e-06,4.297144662727018e-06
299.1077709832215,97.60536828237153,12.5,0,-3.538113895483573,1.188893063839991,-3.557010202311116,-1.227307891661942e-05,6.63494892067483e-06,-2.845608161848893e-05,4.672431226895518e-06,4.663644785673325e-06
301.0462421852227,96.3864066565516,12.5,0,-3.471944751078556,1.082768321673505,-3.528897491002832,-1.197643786079018e-05,6.242414430218061e-06,-2.823117992802266e-05,4.523539151040288e-06,4.478366103764495e-06
299.9645037872236,99.07280983113063,12.5,0,-3.130126335533621,0.988142308973211,-3.524132763021201,-1.080691812088615e-05,5.666156457141171e-06,-2.81930621041696e-05,4.562059461437095e-06,4.866120483870385e-06
302.0992683117977,97.70507559950471,12.5,0,-3.018582200551255,0.8278049578218585,-3.477705413609718,-1.03217070080215e-05,5.063841625470951e-06,-2.782164330887774e-05,4.343606839908009e-06,4.632383237552719e-06
301.1348225617958,101.0773722653896,12.5,0,-2.899055079045063,1.136036060959879,-3.631208952716071,-1.01858051017121e-05,5.954559458307661e-06,-2.904967162172857e-05,5.066865096737561e-06,5.178998219251412e-06
303.5377287516089,99.50641087483683,12.5,0,-2.798284982160231,0.996074538498969,-3.591335991936096,-9.751371573711912e-06,5.426066508924885e-06,-2.873068793548877e-05,4.870119305652145e-06,4.871944431278691e-06
198.3857772136473,300.8731249932481,12.5,0,0.8256066508372193,5.037839944597424,-2.296306075306044,-1.388330672998838e-06,1.546060250204198e-05,-1.837044860244835e-05,2.268647500190125e-05,2.315741305363572e-05
200.6473948950046,300.8362137684337,12.5,0,0.8195941288687248,5.015563892554844,-2.307311526158318,-1.389749901663955e-06,1.539412915308052e-05,-1.845849220926654e-05,2.25921884818069e-05,2.269947990287491e-05
198.0597932210666,303.2585468362616,12.5,0,0.7967958668024759,5.027887484373381,-2.305793617948179,-1.472563213730782e-06,1.545180325655284e-05,-1.844634894358543e-05,2.256569580073522e-05,2.239369647468439e-05
200.4335335105084,303.1207922698804,12.5,0,0.7898486782735641,5.006167097429345,-2.316714304560484,-1.477417907468071e-06,1.538785576915505e-05,-1.853371443648387e-05,2.247062629099937e-05,2.195872033708093e-05
197.8211563760535,305.0047968227578,12.5,0,0.7491549315359417,4.800313619950882,-2.139604774773576,-1.442955115045692e-06,1.476167963861407e-05,-1.711683819818861e-05,2.146933832449888e-05,2.184824037683385e-05
200.2769761112868,304.7932198067479,12.5,0,0.7385426721599158,4.771970570317555,-2.156863207943572,-1.454239905342313e-06,1.467947168728824e-05,-1.725490566354857e-05,2.134196470414353e-05,2.14295536122512e-05
197.4951723834728,307.3902186657713,12.5,0,0.7091328914367878,4.787157604406141,-2.150834362696119,-1.560500830927191e-06,1.475159802095022e-05,-1.720667490156895e-05,2.130287517678961e-05,2.112174318309589e-05
200.0631147267906,307.0777983081944,12.5,0,0.6974046269240384,4.759452995445218,-2.167828315545834,-1.575867590199252e-06,1.467232588388547e-05,-1.734262652436667e-05,2.117450449646733e-05,2.072460280007407e-05
193.5675518204756,305.3712589641943,12.5,0,0.9207582330521531,4.785401659685983,-2.376429290247353,-8.81894981981897e-07,1.457667872455343e-05,-1.901143432197882e-05,2.210419777894747e-05,2.24778102727486e-05
196.0233715557088,305.1596819481843,12.5,0,0.9097395676056621,4.755167472925812,-2.393441206743487,-8.929673620025315e-07,1.448874425927807e-05,-1.91475296539479e-05,2.19697998690815e-05,2.212911990246593e-05
193.0473657740188,307.9313465984034,12.5,0,0.8778520476746332,4.769270718149842,-2.390227839101029,-1.006290021961047e-06,1.455938465993979e-05,-1.912182271280823e-05,2.191965446784669e-05,2.171882330250963e-05
195.6153081173367,307.6189262408266,12.5,0,0.8656983622841624,4.7395989881262,-2.407094168892911,-1.02144443119164e-06,1.447415807217651e-05,-1.925675335114329e-05,2.178400113896641e-05,2.138814376381367e-05
194.4685404823108,300.9370571099951,12.5,0,1.032026031698399,5.055912270497579,-2.51732634814808,-7.422465149631877e-07,1.535329844023353e-05,-2.013861078518464e-05,2.354426762256733e-05,2.386911195358789e-05
196.7301581636681,300.9001458851807,12.5,0,1.020038034489225,5.010811119695799,-2.535068817771416,-7.445271853911175e-07,1.521856515543518e-05,-2.028055054217133e-05,2.335247706015638e-05,2.347081501705607e-05
193.948354435854,303.4971447442042,12.5,0,0.9809390318236111,5.034195711905216,-2.538645944798987,-8.883516676886174e-07,1.53246750526378e-05,-2.03091675583919e-05,2.331807230005992e-05,2.30539783802809e-05
196.3220947252958,303.3593901778229,12.5,0,0.9674587102069698,4.990083443065934,-2.556494265323759,-8.96198881790444e-07,1.519430004964541e-05,-2.045195412259007e-05,2.312578356316771e-05,2.268716998285438e-05
294.0538273772495,93.16974428877606,12.5,0,-4.35692962248663,1.10236858154432,-3.375346444967943,-1.482406965719267e-05,7.013123158931128e-06,-2.700277155974354e-05,4.05095306467432e-06,4.198468778256836e-06
295.8938237456322,92.20909084254212,12.5,0,-4.231122263292935,1.06054650912108,-3.286251891341141,-1.438802844983426e-05,6.778646639821802e-06,-2.629001513072913e-05,3.931893669294785e-06,4.098604355467522e-06
294.5898040935788,95.60586562545751,12.5,0,-3.955872350849691,1.225504211745533,-3.449514201141722,-1.363919489211544e-05,7.086311358265457e-06,-2.759611360913378e-05,4.409282270407712e-06,4.450189609434271e-06
296.2337473781988,94.65934462668068,12.5,0,-3.801064849617719,1.1836126844486,-3.353249889968195,-1.311029766633558e-05,6.828412469929695e-06,-2.682599911974556e-05,4.292462415225784e-06,4.333050492997937e-06
293.1254884729099,88.95025836031698,12.5,0,-5.14622779247186,1.072015443492755,-3.283168487885681,-1.732554129070415e-05,7.547431653154302e-06,-2.626534790308544e-05,3.783732313102121e-06,3.869942275961452e-06
295.3050587433443,87.96512679705249,12.5,0,-5.018436235526632,0.996090702573978,-3.172779290865727,-1.68558685157444e-05,7.202239236658034e-06,-2.538223432692582e-05,3.610575381401291e-06,3.7956090097894e-06
293.6614651892393,91.38637969699845,12.5,0,-4.728225959054523,1.204642814474693,-3.368173720753181,-1.609403732055422e-05,7.637437773562634e-06,-2.694538976602545e-05,4.079476068981062e-06,4.042991973847321e-06
295.6449823759108,90.41538058119104,12.5,0,-4.57541431802772,1.125768789729527,-3.250123972517145,-1.554194084947232e-05,7.262791581556663e-06,-2.600099178013716e-05,3.892318568109195e-06,3.954597344067292e-06
296.9006149199009,87.2439604406338,12.5,0,-5.387414682849636,0.9173879143991028,-3.33173387872553,-1.797363731663812e-05,7.245573072356837e-06,-2.665387102980424e-05,3.652863343885885e-06,3.748837812957545e-06
299.0801851903352,86.2588288773693,12.5,0,-5.231777661748121,0.9040204692378853,-3.20049101756173,-1.74649048929843e-05,7.078287630959729e-06,-2.560392814049384e-05,3.527022878302611e-06,3.695389793048732e-06
297.0970177341787,89.70455989434581,12.5,0,-4.935554260559941,1.035363603832325,-3.370328744053182,-1.662206451685767e-05,7.261606940711391e-06,-2.696262995242546e-05,3.8599381928315e-06,3.896279299564024e-06
299.0805349208501,88.73356077853842,12.5,0,-4.749592302237287,1.024576303798398,-3.227390743059993,-1.601835641019803e-05,7.078318013944702e-06,-2.581912594447995e-05,3.728084480375993e-06,3.825346068756288e-06
297.2407945729734,91.50584371146263,12.5,0,-4.625821700862454,0.9698181582463696,-3.416922245941733,-1.557848396935695e-05,6.804075467078344e-06,-2.733537796753387e-05,3.890807292891793e-06,4.03163787245893e-06
299.080790941356,90.5451902652287,12.5,0,-4.484983661489034,0.9357226036372086,-3.316963090949717,-1.510052579967468e-05,6.582299260830295e-06,-2.653570472759773e-05,3.771851182277822e-06,3.948546461256793e-06
297.437197387251,93.96644316517464,12.5,0,-4.184482147408943,1.088115214982286,-3.469970010682973,-1.426083504369445e-05,6.829554405870467e-06,-2.775976008546378e-05,4.190005435468951e-06,4.254002884257071e-06
299.0811406718709,93.01992216639781,12.5,0,-4.009240221259212,1.054673733045525,-3.360207351160759,-1.36733076944659e-05,6.582348122753049e-06,-2.688165880928607e-05,4.071289599474629e-06,4.155179917387351e-06
115.8088988227938,299.6536152076151,12.5,0,4.145394191042333,1.95752872803749,-3.732129121794689,1.169923842890547e-05,2.9477765768861e-06,-2.985703297435752e-05,2.420718320718596e-05,2.346366345510758e-05
120.026151684216,298.0394695926874,12.5,0,4.09930009391342,2.047230789049497,-3.788239606152904,1.147997566928334e-05,3.271698449827654e-06,-3.030591684922323e-05,2.438779905666921e-05,2.411859556911388e-05
118.8978012880174,303.5323875802345,12.5,0,3.954420601132655,1.837322712115561,-3.64447142579529,1.118428775393204e-05,2.715896197863672e-06,-2.915577140636232e-05,2.307611952014503e-05,2.307900403154173e-05
122.7910747001665,301.7539693409103,12.5,0,3.894563656920598,1.922951686003308,-3.697252031224475,1.092424235334326e-05,3.037794469674108e-06,-2.95780162497958e-05,2.319326531465451e-05,2.374463241212321e-05
123.1133950470112,296.857832991796,12.5,0,4.175286442949185,2.19642703336673,-3.885304996720722,1.160377499074401e-05,3.688337352414188e-06,-3.108243997376578e-05,2.522343320452047e-05,2.458869632846961e-05
127.3306479084334,295.2436873768684,12.5,0,4.124494277840399,2.306644638313915,-3.948364640265961,1.135306597843814e-05,4.081667420332207e-06,-3.158691712212769e-05,2.546347070795573e-05,2.521810337375445e-05
125.6411486454955,300.4520768326732,12.5,0,3.974745246287831,2.074477004672159,-3.796621272899156,1.105960318438333e-05,3.458530217920642e-06,-3.037297018319325e-05,2.405212228523261e-05,2.420217430507472e-05
129.5344220576446,298.6736585933492,12.5,0,3.907635271003128,2.180892100008655,-3.856174307740064,1.075971918720309e-05,3.852746503225192e-06,-3.084939446192051e-05,2.422081355169516e-05,2.478657362268116e-05
127.4915927085225,303.0832459388749,12.5,0,3.751233440001084,2.452891858247423,-3.800147438278022,1.004163352140553e-05,4.848267194390885e-06,-3.040117950622418e-05,2.451293969759381e-05,2.387348347406577e-05
131.1476967032055,301.1845717922051,12.5,0,3.685159229306,2.538342517882923,-3.846313424753565,9.76183551947286e-06,5.174568673780552e-06,-3.077050739802852e-05,2.461032217935425e-05,2.443607157161519e-05
130.0193463070068,306.6774897797522,12.5,0,3.561179713646062,2.336792170230331,-3.715838758904892,9.526341347483133e-06,4.628791173820208e-06,-2.972671007123913e-05,2.340149770070896e-05,2.336200544712403e-05
133.3514708524166,304.6145430086859,12.5,0,3.477543581813365,2.417415120093337,-3.757753947685941,9.194207365728098e-06,4.953693518847986e-06,-3.006203158148753e-05,2.342001690717481e-05,2.391001191097846e-05
121.1590348320897,306.3718460278656,12.5,0,3.720574225945332,2.247891034424101,-3.661527769128492,1.010752469548578e-05,4.216791929400856e-06,-2.929222215302793e-05,2.36070014862982e-05,2.276382012796173e-05
124.8151388267727,304.4731718811957,12.5,0,3.658484177799163,2.312903104530157,-3.705141847303187,9.856826885333193e-06,4.474502592257171e-06,-2.964113477842549e-05,2.364676911469494e-05,2.3425405050211e-05
124.2479372973134,310.250618400485,12.5,0,3.536280264933148,2.135421867367219,-3.578429031700508,9.607759353892298e-06,4.004325763628581e-06,-2.862743225360407e-05,2.252821031446398e-05,2.228738111318254e-05
127.5800618427232,308.1876716294187,12.5,0,3.459225905476213,2.195565657803128,-3.618262967251217,9.313070371281377e-06,4.258429380589039e-06,-2.894610373800974e-05,2.249822610177494e-05,2.292722283525427e-05
85.2939591967795,55.11809208652346,12.5,0,-11.31787059252878,-0.2035397081904531,1.667294218683047,-3.605435412953974e-05,8.402969407813576e-06,1.333835374946437e-05,2.831968455473213e-06,2.735122692119047e-06
91.70975357306548,51.24628917712366,12.5,0,-11.1884217034603,-0.3474891912480893,1.734388852082248,-3.552495809807448e-05,7.838771950774352e-06,1.387511081665798e-05,2.739490865522496e-06,2.953677334685791e-06
88.80150395316153,59.81196032101034,12.5,0,-11.0518243135073,-0.03001486129278241,1.543455704990502,-3.534182591418914e-05,8.745411894668938e-06,1.234764563992402e-05,2.841969985992503e-06,2.603773283448939e-06
94.48519996570037,56.31212752512404,12.5,0,-10.90334136864174,-0.1896689582753015,1.617370368274639,-3.473895721303332e-05,8.115732428432424e-06,1.293896294619711e-05,2.734479198039039e-06,2.78996681076202e-06
91.36920492454583,63.24811035254228,12.5,0,-10.10925002699256,-0.2596582978215287,1.848252077781213,-3.214187344811897e-05,7.256493468565157e-06,1.47860166222497e-05,2.580508281750106e-06,2.512430743025056e-06
96.51696773870648,60.02057857863345,12.5,0,-9.984284352774914,-0.3674547616709853,1.9103014299759,-3.165574611954293e-05,6.811572244872777e-06,1.52824114398072e-05,2.512646475545394e-06,2.677538570072719e-06
94.87674968092789,67.94197858702918,12.5,0,-9.811888521659776,-0.07735189883213067,1.715199522660211,-3.133616175024558e-05,7.601984741065001e-06,1.372159618128169e-05,2.581149712866529e-06,2.394227690354091e-06
99.29241413134136,65.08641692663385,12.5,0,-9.662967790360151,-0.1993221399436407,1.784991716910668,-3.076203921719757e-05,7.092543384468469e-06,1.427993373528534e-05,2.499286539651294e-06,2.534089428214678e-06
82.45301818526605,68.83835936789485,12.5,0,-9.099882648775147,-0.4155116069222751,1.859866046096171,-2.878721519054265e-05,5.950268976868836e-06,1.487892836876937e-05,2.283428924268382e-06,2.230596746836172e-06
87.6007809994267,65.610827593986,12.5,0,-9.109092189286095,-0.6649995903823476,1.831790772488447,-2.861709533340962e-05,5.159275062205363e-06,1.465432617990758e-05,2.14705531081534e-06,2.392673042428857e-06
87.22859450377345,72.88795646689077,12.5,0,-8.949562163278859,-0.1173836742376548,1.735740125585728,-2.854469198310222e-05,6.784021973062592e-06,1.388592100468582e-05,2.377872081421716e-06,2.156379071165893e-06
91.64425895418694,70.03239480649543,12.5,0,-8.958009277999036,-0.4006419883207601,1.701590855960562,-2.83451160989403e-05,5.884353059772796e-06,1.36127268476845e-05,2.212431992316185e-06,2.293020505213148e-06
74.18147736633716,61.82425144237642,12.5,0,-10.00352509614405,-0.3488294763502777,1.691384934875221,-3.173221672658074e-05,6.886565752594351e-06,1.353107947900177e-05,2.464726404007521e-06,2.390719553319945e-06
80.59727174262315,57.95244853297662,12.5,0,-10.04703602687216,-0.6670666598652435,1.641084499771656,-3.16168619580987e-05,5.903015509928946e-06,1.312867599817325e-05,2.294769635408307e-06,2.584278609233946e-06
78.95705368484454,65.87384854137234,12.5,0,-9.891361425029205,-0.06728576412417997,1.58569180395295,-3.15985279487941e-05,7.697774694825987e-06,1.26855344316236e-05,2.569619390875089e-06,2.293388089781316e-06
84.64074969738337,62.37401574548603,12.5,0,-9.938844443201685,-0.4207204123592234,1.528114952489142,-3.146772588835801e-05,6.604770235011832e-06,1.222491961991314e-05,2.370177434546886e-06,2.470715416187821e-06
92.60226436639365,137.1337887668953,12.5,0,0.3344463304390757,-1.100442133174938,1.30608513419313,1.950581963944992e-06,-3.788971890511062e-06,1.044868107354504e-05,1.680905567384687e-06,2.32403121826912e-06
96.77116031566466,135.0759966122117,12.5,0,0.5537192775992408,-1.108855452596884,1.472995661074713,2.658986050395077e-06,-3.99131287038942e-06,1.178396528859771e-05,2.25117556857465e-06,2.21165538978976e-06
95.11965637509307,141.7250072470451,12.5,0,0.8406042634213484,-0.9379152661592416,1.177731322674054,3.440265855875708e-06,-3.673812262446652e-06,9.421850581392436e-06,2.525049935532383e-06,3.563269552095452e-06
98.90407399783922,139.3200928187523,12.5,0,1.122563794614408,-0.9295155587301176,1.338105435031584,4.3358165897502e-06,-3.872500823627903e-06,1.070484348025267e-05,3.44622231142093e-06,3.243870907766871e-06
88.24201350483669,129.1815650907695,12.5,0,-0.6887553121306758,-1.042229717959109,1.439684346717267,-1.370233224450875e-06,-2.784130847764609e-06,1.151747477373813e-05,1.009856756485907e-06,1.240890822910212e-06
93.07684545004591,127.7250063504052,12.5,0,-0.5532202194861603,-1.13796812266947,1.635798623496864,-8.599302042201368e-07,-3.198921816953376e-06,1.308638898797491e-05,1.286827268083752e-06,1.29614880683308e-06
90.75940551353614,133.7727835709193,12.5,0,-0.1644712783376235,-0.8473073721440967,1.288804032645876,1.515378070348823e-07,-2.579806568191011e-06,1.031043226116701e-05,1.235670476016359e-06,1.701751713284085e-06
95.20975913222046,131.9691025569458,12.5,0,0.02799474675119068,-0.9276089332079941,1.477753011287039,8.316703361702053e-07,-2.990744383666533e-06,1.182202409029631e-05,1.658393020336863e-06,1.689764825780543e-06
96.61618807984563,126.6587313482953,12.5,0,-0.9042349226338647,-0.8818896370857959,1.544535271578563,-2.18804004275973e-06,-2.098658900567455e-06,1.235628217262851e-05,1.098657634112903e-06,1.357532381567753e-06
101.4510200250548,125.2021726079309,12.5,0,-0.7357483603725754,-0.9136591861335515,1.769882934340917,-1.6234674042854e-06,-2.335110707329304e-06,1.415906347472734e-05,1.453136364421276e-06,1.469977442577344e-06
98.46764409260689,130.6487164141259,12.5,0,-0.4145690358495155,-0.7329837729819121,1.437723432453088,-7.402338963329198e-07,-2.013892844862506e-06,1.15017874596247e-05,1.306804640462735e-06,1.714368666277251e-06
102.9179977112912,128.8450354001523,12.5,0,-0.1799989882269847,-0.7485810663342203,1.661045134376256,2.28680907410254e-08,-2.251460221687917e-06,1.328836107501005e-05,1.842291188236841e-06,1.793574496081977e-06
99.82300396186939,133.5695882036307,12.5,0,0.0196380564382638,-0.9205779864215617,1.44926136076395,7.993041697396934e-07,-2.961560001699608e-06,1.15940908861116e-05,1.610796822713535e-06,2.176013442183915e-06
103.9918999111404,131.5117960489472,12.5,0,0.2647651053637637,-0.8941504151480189,1.635667546279542,1.562568669282459e-06,-3.073093412764671e-06,1.308534037023634e-05,2.23762664075962e-06,2.191013658919258e-06
101.6744599746307,137.5595732694613,12.5,0,0.482812486939929,-0.7903715396255819,1.356909151017563,2.177297189908238e-06,-2.915438916353805e-06,1.085527320814051e-05,2.239988513435969e-06,3.080414140353791e-06
105.4588775973768,135.1546588411685,12.5,0,0.8004367465126823,-0.7457508320975421,1.540973174680618,3.157998254518617e-06,-3.02675205992228e-06,1.232778539744494e-05,3.247663462328431e-06,2.95324059124988e-06
101.80719662576,171.2699432005005,12.5,0,4.742519302231766,-1.180174958131363,0.05211086064234479,1.612020173364674e-05,-7.570575307805773e-06,4.168868851387583e-07,1.487548227378482e-05,1.423766550910215e-05
105.5712332295297,171.5705923959133,12.5,0,4.712710506814876,-1.191036919408601,0.1878997814522642,1.603350315733448e-05,-7.581486547559424e-06,1.503198251618114e-06,1.474058511555421e-05,1.533052637436118e-05
102.0254026762394,175.6885987407565,12.5,0,5.131799582734392,-1.082673743665667,0.04343556988160294,1.728789765968259e-05,-7.569995645917649e-06,3.474845590528236e-07,1.661314248811664e-05,1.574150044176775e-05
105.7815636448318,175.63124705718,12.5,0,5.136380026939555,-1.084912755663191,0.1780746491856339,1.730434629073713e-05,-7.580824839673857e-06,1.424597193485071e-06,1.662986569000649e-05,1.671889982276085e-05
108.326699264921,171.7906828822009,12.5,0,5.102165147938537,-1.060314662570633,0.07354705555480692,1.717518020345982e-05,-7.474739038576853e-06,5.883764444384554e-07,1.656129822521594e-05,1.61023314225308e-05
112.0907358686907,172.0913320776137,12.5,0,5.079309397955448,-1.042354585313237,0.2097349690138498,1.708767374170802e-05,-7.398982191366717e-06,1.677879752110799e-06,1.65297719822984e-05,1.711808116249896e-05
108.5312643151317,175.5892627109042,12.5,0,5.434557413044852,-0.9783781113576007,0.07545547111367722,1.81732862108296e-05,-7.478455886780202e-06,6.036437689094178e-07,1.805181981713923e-05,1.741610882705183e-05
112.2874252837242,175.5319110273276,12.5,0,5.446345901077925,-0.9519570527715153,0.2113857590914574,1.818987252566657e-05,-7.403339289731188e-06,1.69108607273166e-06,1.81760738588574e-05,1.834351986935717e-05
108.6810163253325,178.370016142003,12.5,0,5.605062073621207,-1.096332059480628,-0.2578193681841944,1.881326428317236e-05,-7.992312249234973e-06,-2.062554945473555e-06,1.838914910814814e-05,1.833920316482918e-05
112.4314119288336,178.0505896258631,12.5,0,5.649440442984756,-1.04858374821781,-0.1042129862115745,1.891707641612546e-05,-7.875020348684795e-06,-8.337038896925962e-07,1.867978795195619e-05,1.920696602748399e-05
108.8855813755432,182.1685959707063,12.5,0,5.976284220944576,-1.005332416233389,-0.2519123876441095,1.992837544000935e-05,-7.998091108702505e-06,-2.015299101152876e-06,2.00546313719947e-05,1.954736639140224e-05
112.628101343867,181.4911685755771,12.5,0,6.058898049223455,-0.9483340097129416,-0.09820670424563356,2.014714096528541e-05,-7.881787270460175e-06,-7.856536339650685e-07,2.052084888561404e-05,2.034050609432869e-05
102.1851405917025,178.9232790972321,12.5,0,5.323052317037265,-1.244152020030438,-0.3149802245737731,1.80290890305436e-05,-8.239728317727214e-06,-2.519841796590185e-06,1.692534794463183e-05,1.6830675586192e-05
105.9355361952035,178.6038525810922,12.5,0,5.363334482295827,-1.205637915705053,-0.1700491013199203,1.812718067591069e-05,-8.148708916092832e-06,-1.360392810559362e-06,1.716852738044018e-05,1.770247806012301e-05
102.4033466421818,183.341934637488,12.5,0,5.737311185265995,-1.142104491386097,-0.310370027983303,1.927307938596006e-05,-8.244583320648306e-06,-2.482960223866424e-06,1.877314594153613e-05,1.830252248656112e-05
106.1458666105056,182.6645072423588,12.5,0,5.813806878651006,-1.094750374000245,-0.1654439052729823,1.947998231088341e-05,-8.154246699721588e-06,-1.323551242183858e-06,1.918285427903244e-05,1.900129032953005e-05
125.164158763397,336.7229241913192,12.5,0,2.199458067601885,2.29718475978142,-2.812464466919725,5.200518008500895e-06,5.591424777219036e-06,-2.24997157353578e-05,1.778461383797873e-05,1.854041725562837e-05
133.5475462090551,336.9034891483571,12.5,0,2.251557375605161,2.489167812969412,-2.890215076884226,5.213649351560985e-06,6.164091101017989e-06,-2.312172061507381e-05,1.868005432098568e-05,1.849101695523178e-05
124.6611151631952,343.0896307680787,12.5,0,2.048065062569608,2.270069181382007,-2.762700266121758,4.737752855117141e-06,5.625769330366734e-06,-2.210160212897407e-05,1.714075702533806e-05,1.761054499467335e-05
132.1117825290705,342.4920934940513,12.5,0,2.08465999177916,2.487625416432879,-2.844764327260473,4.680811640547011e-06,6.292673339161883e-06,-2.275811461808378e-05,1.807574811192277e-05,1.766692584070092e-05
124.2928616894408,347.7503834589514,12.5,0,1.979050342184989,2.257342369200866,-2.578844921553524,4.527087199631273e-06,5.640255307694779e-06,-2.063075937242819e-05,1.669060067660763e-05,1.697900627103149e-05
131.0607305677044,346.5832358183258,12.5,0,1.981609677668096,2.389281028596514,-2.640357917755141,4.429726145660695e-06,6.060411549374366e-06,-2.112286334204113e-05,1.720498237234504e-05,1.710840633721838e-05
123.789818089239,354.1170900357107,12.5,0,1.804740551276562,2.223517399364106,-2.534714270030552,3.996355844593714e-06,5.671463236943888e-06,-2.027771416024442e-05,1.595488472843931e-05,1.618348265197641e-05
129.6249668877198,352.1718401640199,12.5,0,1.770694129813742,2.376255775867859,-2.599880353597039,3.765216594709686e-06,6.187463178926155e-06,-2.079904282877631e-05,1.642417889458504e-05,1.64065937911519e-05
112.5705689335346,349.7719424724128,12.5,0,2.176161197902907,2.032886813315339,-2.59408486982729,5.33740638263703e-06,4.764308844286758e-06,-2.075267895861832e-05,1.661066218858887e-05,1.643484993998844e-05
119.3384378117983,348.6047948317871,12.5,0,2.180260266085548,2.191600035188817,-2.665731727152572,5.2235528233227e-06,5.268911899735774e-06,-2.132585381722058e-05,1.722484746788239e-05,1.679852737834254e-05
113.6830439007272,357.4863616468357,12.5,0,1.918541944783457,1.942575511289203,-2.50866794119373,4.585273814275701e-06,4.681408080298684e-06,-2.006934352954985e-05,1.53626324224003e-05,1.559177209670478e-05
119.5181926992081,355.5411117751448,12.5,0,1.883175339261695,2.111839268775967,-2.578127564745486,4.33668967061665e-06,5.251345388673738e-06,-2.062502051796389e-05,1.588047058991024e-05,1.596515183698074e-05
110.6437057682431,336.4101765116688,12.5,0,2.569756582611296,1.999215903420513,-2.844758730491868,6.623848341619735e-06,4.341685624856603e-06,-2.275806984393495e-05,1.807154647600192e-05,1.818585546899985e-05
119.0270932139012,336.5907414687066,12.5,0,2.636305258877533,2.242171037593534,-2.9546067370145,6.642439998333277e-06,5.065903113197283e-06,-2.3636853896116e-05,1.920810446239327e-05,1.845864948183399e-05
111.7561807354358,344.1245956860918,12.5,0,2.297096287783906,1.901031333595,-2.747179126389399,5.829883054032499e-06,4.245623237276875e-06,-2.197743301111519e-05,1.673010579726396e-05,1.712993248467228e-05
119.206848101311,343.5270584120643,12.5,0,2.338321516103755,2.16163386085382,-2.858479651222046,5.75332176284896e-06,5.04657114184922e-06,-2.286783720977637e-05,1.784139089344057e-05,1.746665805858908e-05
377.6978667767423,193.5587188623427,12.5,0,9.464281369424874,-0.1141573953561132,-1.735778200385719,3.037702629844448e-05,-7.936728760679461e-06,-1.388622560308576e-05,3.62852520489639e-05,3.55269934612436e-05
380.9121674018578,189.1550999756243,12.5,0,9.032764501722562,-0.4091930287818286,-1.942794783652302,2.923220082853766e-05,-8.5356292934799e-06,-1.554235826921842e-05,3.383244734204809e-05,3.345312595873162e-05
382.3198972773094,198.6429074598084,12.5,0,9.097866633657048,0.06160763301708849,-1.704197713239182,2.906388712128888e-05,-7.081148881270954e-06,-1.363358170591346e-05,3.540633410011448e-05,3.664573952368601e-05
387.0499455095519,194.334355674419,12.5,0,8.778112016894688,-0.2154254303633976,-1.886010963193503,2.826229879835372e-05,-7.711850990678622e-06,-1.508808770554803e-05,3.341694787772235e-05,3.446347389671569e-05
385.7034584377136,202.3647918282575,12.5,0,9.857681180515151,-0.03746704977091442,-1.372459644982584,3.157455341746521e-05,-8.006039503679046e-06,-1.097967715986067e-05,3.792417115202326e-05,3.757047494139391e-05
391.543110929777,198.1258339911662,12.5,0,9.548708414253717,-0.4752473793779495,-1.587093017890574,3.093606482911425e-05,-9.159758345412411e-06,-1.269674414312459e-05,3.549220360112472e-05,3.525486019729901e-05
390.3254889382806,207.4489804257233,12.5,0,9.679418835872845,0.2018829231368309,-1.410798861684901,3.081263393628364e-05,-7.097509714660416e-06,-1.128639089347921e-05,3.797560589650516e-05,3.897815302379527e-05
397.680889037471,203.3050896899609,12.5,0,9.425374972011042,-0.2121199174746495,-1.596668562649527,3.033089584441505e-05,-8.219083713527711e-06,-1.277334850119621e-05,3.580396496000588e-05,3.640661984101446e-05
375.5888836230953,209.7068821731101,12.5,0,10.94460040232479,-0.07251472214142352,-1.097874601944639,3.508073306515247e-05,-8.987727432712388e-06,-8.782996815557111e-06,4.192957439013738e-05,4.174038185583924e-05
381.4285361151587,205.4679243360187,12.5,0,10.84713240291603,-0.3289301462480627,-1.183636632351895,3.497396780632973e-05,-9.730282390326621e-06,-9.469093058815157e-06,4.080216587071552e-05,3.930826523224023e-05
377.5855622567144,214.6264097209489,12.5,0,10.9245857794122,0.001311554976408669,-1.169319136248476,3.495762525013792e-05,-8.735471647605252e-06,-9.35455308998781e-06,4.208766546268712e-05,4.338391799989163e-05
384.9409623559049,210.4825189851865,12.5,0,10.84360324670671,-0.2288978544481552,-1.233270369706177,3.488264867302e-05,-9.407355731599464e-06,-9.866162957649412e-06,4.109651479307515e-05,4.084771443075939e-05
372.1305347833421,201.1860105111717,12.5,0,10.39820805157026,-0.09845178112923314,-1.407681440924313,3.335302718992822e-05,-8.633612140869756e-06,-1.126145152739451e-05,3.981740146631641e-05,3.911734064359718e-05
375.3448354084575,196.7823916244533,12.5,0,10.11292142663451,-0.2741749190262226,-1.535362230033408,3.25806885004514e-05,-8.967696882191518e-06,-1.228289784026726e-05,3.823006472986822e-05,3.70447152117626e-05
374.1272134169611,206.1055380590105,12.5,0,10.13032525762232,-0.1011528899182914,-1.427641444248525,3.249796313632605e-05,-8.427949453836386e-06,-1.14211315539882e-05,3.878852266813918e-05,4.059715589881081e-05
378.8572616492037,201.796986273621,12.5,0,9.946526371618736,-0.2435238199362066,-1.527855013390059,3.202370344512892e-05,-8.736497321090849e-06,-1.222284010712047e-05,3.768341847900759e-05,3.828925466272556e-05
107.7417458348093,94.14594314956986,12.5,0,-5.147971600136384,-0.3144577299633204,1.891180451641838,-1.622194293646577e-05,3.112112544226481e-06,1.512944361313471e-05,1.615359228371276e-06,1.721108533615485e-06
111.8829164742366,95.54465884853016,12.5,0,-5.389352318033529,-0.3834035293757949,2.157791554248559,-1.693920459420666e-05,3.084590560424279e-06,1.726233243398847e-05,1.762557493422313e-06,1.761314542293766e-06
107.8943239048422,97.26937244063049,12.5,0,-4.673804184686615,-0.1956344896825941,1.880191647236301,-1.479966579925109e-05,3.113012980764991e-06,1.504153317789041e-05,1.612478210516009e-06,1.645344750176123e-06
112.1994407736808,98.49482785877345,12.5,0,-4.868166499821845,-0.2524279000853298,2.134297434144717,-1.537619047936164e-05,3.08676391958442e-06,1.707437947315774e-05,1.760862424929675e-06,1.698972936399259e-06
100.5690278846378,91.72329649366992,12.5,0,-5.512452557465592,-0.4526306688647197,1.831653425728936,-1.727774364879812e-05,2.96154390560537e-06,1.465322740583149e-05,1.565813599020791e-06,1.680071737174126e-06
104.710198524065,93.12201219263022,12.5,0,-5.729074197776772,-0.4899234028095243,2.074874226254216,-1.794109871063805e-05,3.015504469230939e-06,1.659899381003372e-05,1.705501984230708e-06,1.699339589593516e-06
100.437642755626,95.14682139403443,12.5,0,-5.0250630583719,-0.3303016320163665,1.843686110341993,-1.581596048117698e-05,2.963085224245147e-06,1.474948888273595e-05,1.562537341442898e-06,1.58349076250488e-06
104.7427596244645,96.3722768121774,12.5,0,-5.20025088916576,-0.3578540430376804,2.078336331361495,-1.635451961090029e-05,3.01506777361203e-06,1.662669065089196e-05,1.705248592588343e-06,1.614401394941897e-06
100.7965936034414,85.79357742536796,12.5,0,-6.353922154123887,-0.3901427450023769,1.857462486216143,-2.002043669719453e-05,3.834680939291502e-06,1.485969988972914e-05,1.754964851221739e-06,1.85964837918295e-06
104.6538010438238,87.49238873363215,12.5,0,-6.626518059874412,-0.4678514172959889,2.089077826069207,-2.083057665776133e-05,3.804089912552365e-06,1.671262260855366e-05,1.867689513001578e-06,1.858035719056056e-06
100.6652084744295,89.21710232573247,12.5,0,-5.867663409331484,-0.2688690547037569,1.861428550213613,-1.856142766609774e-05,3.833749752413164e-06,1.48914284017089e-05,1.738865793009071e-06,1.754067947544415e-06
104.6863621442233,90.74265335317932,12.5,0,-6.093624445549684,-0.3345447836555939,2.08375273874029,-1.923196239883451e-05,3.804356248741847e-06,1.667002190992232e-05,1.850409158913304e-06,1.764621209986376e-06
107.4774728653965,88.73600492370123,12.5,0,-5.903436804127493,-0.2684142878155948,1.893710652086474,-1.86762663429555e-05,3.86382372229209e-06,1.514968521669179e-05,1.760858457165117e-06,1.863802568275166e-06
111.3346803057789,90.43481623196544,12.5,0,-6.190822209674868,-0.351057075974027,2.137855581297355,-1.952978541018036e-05,3.829275124623008e-06,1.710284465037884e-05,1.884538306597957e-06,1.881170553468929e-06
107.6300509354293,91.85943421476186,12.5,0,-5.443273308451631,-0.1529978025701229,1.882207287698836,-1.729607634498912e-05,3.865025678536911e-06,1.505765830159069e-05,1.747659041563796e-06,1.779644129553568e-06
111.6512046052231,93.38498524220871,12.5,0,-5.678774828503699,-0.2221274829727222,2.113842246173695,-1.799437746483366e-05,3.832211917290248e-06,1.691073796938956e-05,1.868701715053417e-06,1.810134246648939e-06
329.6243530884053,206.1111117552823,12.5,0,12.46885879493599,-0.2909650709106946,-0.9906494317819814,4.013312020052372e-05,-1.090617526286301e-05,-7.925195454255851e-06,4.710504073781699e-05,4.735761411849556e-05
331.9226661420598,206.9444524458185,12.5,0,12.3851198093552,-0.2608945854136238,-0.8973744737321627,3.984109905826754e-05,-1.074295852080776e-05,-7.178995789857302e-06,4.68620354313902e-05,4.728508578588339e-05
329.3435718022363,208.1988653254153,12.5,0,12.78758935194116,-0.2031933627796163,-0.9506249253510464,4.108284061643541e-05,-1.08802902424477e-05,-7.604999402808371e-06,4.858631309161413e-05,4.817926142209526e-05
331.2902342440036,209.1636996726696,12.5,0,12.65352640367637,-0.179467404348117,-0.8489914780014954,4.063485841524286e-05,-1.069711681685507e-05,-6.791931824011964e-06,4.813117888753107e-05,4.820892857174236e-05
333.6051480689621,207.5545001712796,12.5,0,12.4475423169107,-0.3269594223614551,-0.9730492323989522,4.009370295200341e-05,-1.100430400508522e-05,-7.784393859191618e-06,4.691329822950234e-05,4.727835839357473e-05
335.9034611226165,208.387840861816,12.5,0,12.38153021633245,-0.2617637088587386,-0.894094500456785,3.983030765935083e-05,-1.074286804141392e-05,-7.15275600365428e-06,4.684526238062567e-05,4.73325071485964e-05
332.7152900565029,209.8700074357173,12.5,0,12.76072476656802,-0.2094127640452403,-0.8885695291281723,4.100184946425386e-05,-1.087870065819918e-05,-7.108556233025379e-06,4.845717406751071e-05,4.826204851017361e-05
334.6619524982704,210.8348417829716,12.5,0,12.65571960948638,-0.1483291571659504,-0.8088158052458769,4.061696607608918e-05,-1.059922899052015e-05,-6.470526441967016e-06,4.822893719194508e-05,4.837750773122177e-05
332.0638687798882,211.5650763985084,12.5,0,12.92848864264748,-0.2453340664879322,-0.7874309924769821,4.156743090966229e-05,-1.112785992687937e-05,-6.299447939815857e-06,4.898256043963975e-05,4.897857523013355e-05
333.7531051072526,212.6261707833492,12.5,0,12.8465354640431,-0.2104509856081607,-0.7436033277962405,4.127727427342444e-05,-1.095067152518059e-05,-5.948826622369924e-06,4.87683085970623e-05,4.914178708658693e-05
331.1740107674291,213.880583662946,12.5,0,13.21534336983781,-0.1353857658875435,-0.7077643594977524,4.239740739619101e-05,-1.100550914671038e-05,-5.662114875982019e-06,5.040711321958409e-05,4.995247251752912e-05
332.5115964829064,215.0731717045049,12.5,0,13.08544974805462,-0.109154043284367,-0.6674842350607801,4.196076242840227e-05,-1.081765273695367e-05,-5.339873880486241e-06,4.998384401886855e-05,5.018483653408394e-05
329.1380256349547,209.727207012371,12.5,0,12.84657690074313,-0.2433313867214082,-0.8010532718849853,4.130371119175514e-05,-1.105592195810301e-05,-6.408426175079883e-06,4.867545383182964e-05,4.877286093698469e-05
330.827261962319,210.7883013972119,12.5,0,12.74405708957986,-0.2303444744884198,-0.7434050525512225,4.096525826624629e-05,-1.093234799002683e-05,-5.947240420409779e-06,4.831505514548799e-05,4.887972176628398e-05
328.8572443487856,211.8149605825041,12.5,0,13.16270770819125,-0.1552270979629942,-0.7582508829775958,4.22448463445824e-05,-1.102689288003458e-05,-6.066007063820766e-06,5.014984057870099e-05,4.95729576674801e-05
330.1948300642629,213.007548624063,12.5,0,12.9904366940662,-0.1538957722966039,-0.6966495539946927,4.16925140388491e-05,-1.088481582660209e-05,-5.573196431957542e-06,4.948666415309728e-05,4.978852006936206e-05
337.8091366467345,186.0113567836863,12.5,0,10.2242190203048,-0.2321187428618368,-1.90318685491732,3.290319585926482e-05,-8.922155193401716e-06,-1.522549483933856e-05,3.88821832008615e-05,3.789204768090539e-05
340.1141418639972,183.2771704460256,12.5,0,10.00505163894254,-0.3475064295780408,-1.996116712887272,3.229417038827855e-05,-9.116061885803758e-06,-1.596893370309818e-05,3.773330135961319e-05,3.631257010301718e-05
340.0992918605348,189.7564506033231,12.5,0,9.982127225795704,-0.2370134851732875,-1.88065728630751,3.213241791068488e-05,-8.744144933191082e-06,-1.504525829046008e-05,3.793744763030422e-05,3.897990498087696e-05
342.2003838439761,186.7326409367789,12.5,0,9.739479697887607,-0.3536968507766733,-1.972240509505799,3.144929251386167e-05,-8.923413680795439e-06,-1.577792407604639e-05,3.669568411194615e-05,3.729001636387869e-05
333.8424714592849,179.5246640090799,12.5,0,9.539124186534767,-0.2708030715365983,-2.175839478612423,3.074183985414053e-05,-8.497869178144928e-06,-1.740671582889939e-05,3.625053418571126e-05,3.589922575993556e-05
336.5006647578557,177.2921199920935,12.5,0,9.420032876069477,-0.3586873954477618,-2.241616720043612,3.043105511978053e-05,-8.683825966288418e-06,-1.79329337603489e-05,3.556339887225287e-05,3.44316743002453e-05
336.1326266730852,183.2697578287166,12.5,0,9.390749829089678,-0.261593078346555,-2.16927155504749,3.025967391576421e-05,-8.349697713980718e-06,-1.735417244037992e-05,3.571166781439061e-05,3.70665821715405e-05
338.5869067378345,180.7475904828468,12.5,0,9.257561259883444,-0.3492983611219613,-2.234943794209769,2.990363472052458e-05,-8.523803763497029e-06,-1.787955035367815e-05,3.497196358437742e-05,3.554667965539855e-05
338.446597308666,175.657784341595,12.5,0,8.846003357726532,-0.2777528399826439,-2.346199819469559,2.852941301671101e-05,-7.965611774125685e-06,-1.876959855575647e-05,3.366907065850512e-05,3.335298313552643e-05
341.1047906072367,173.4252403246086,12.5,0,8.721339243930885,-0.3787716010722688,-2.417011776116622,2.821130286143665e-05,-8.189140518575968e-06,-1.933609420893298e-05,3.293149556657844e-05,3.187349552740378e-05
340.3835644411581,178.9012358405574,12.5,0,8.717825787984337,-0.2633537350404618,-2.345829061148948,2.810772550958224e-05,-7.816992582516946e-06,-1.876663248919158e-05,3.322634285715031e-05,3.442154930891491e-05
342.8378445059075,176.3790684946876,12.5,0,8.578571329898656,-0.3637271600345389,-2.417213684659107,2.774240998370332e-05,-8.026783976029447e-06,-1.933770947727285e-05,3.243636090924663e-05,3.28675385531953e-05
341.8015227946731,181.2756071295824,12.5,0,9.451657504923212,-0.2747889152667957,-2.131472440869734,3.046513514796771e-05,-8.440650532792315e-06,-1.705177952695787e-05,3.588996703189495e-05,3.51503206108882e-05
344.1065280119358,178.5414207919217,12.5,0,9.235945891086825,-0.3944732963405531,-2.225323354578221,2.987060548855028e-05,-8.651071261159228e-06,-1.780258683662576e-05,3.47531336464814e-05,3.355447352507392e-05
343.7384899271653,184.5190586285448,12.5,0,9.250862345873976,-0.2746350392884174,-2.117224067122953,2.982246753822745e-05,-8.279522002422116e-06,-1.693779253698362e-05,3.512212865257429e-05,3.607279466167352e-05
345.8395819106065,181.4952489620007,12.5,0,9.011768089337245,-0.3953526287294693,-2.210373109366043,2.915393998886276e-05,-8.474542883404098e-06,-1.768298487492834e-05,3.389437525520103e-05,3.443717174403047e-05
321.5601953253844,202.7978200606733,12.5,0,12.5292258775429,-0.2788141192584193,-1.060449891918638,4.031657410354401e-05,-1.091558588366126e-05,-8.483599135349101e-06,4.738248229751917e-05,4.763277647685097e-05
323.7770696210442,202.2589722043826,12.5,0,12.55193443437391,-0.2869182957681158,-1.021085547558135,4.039572482661099e-05,-1.095968609395709e-05,-8.16868438046508e-06,4.743996176573174e-05,4.698359438532299e-05
322.1354722373934,205.2759807005062,12.5,0,12.66332844025416,-0.2413668479312641,-1.078790145293764,4.071574448715832e-05,-1.090303666558337e-05,-8.630321162350109e-06,4.801173660398711e-05,4.838055344905221e-05
324.2636635806399,204.866118803802,12.5,0,12.68164202853583,-0.2514370872507015,-1.036652641763923,4.078240416111522e-05,-1.094991230203091e-05,-8.293221134111385e-06,4.804602496569852e-05,4.782383184124682e-05
320.5637864853811,198.5055199232425,12.5,0,12.17452266577761,-0.2867483702267437,-1.291360508129203,3.918787122666975e-05,-1.065721291734767e-05,-1.033088406503363e-05,4.603472814773477e-05,4.632280487889958e-05
322.9342641603837,197.743261831489,12.5,0,12.20299311887481,-0.285828449234788,-1.257028688167854,3.927824073978722e-05,-1.067704553265117e-05,-1.005622950534283e-05,4.614070518148154e-05,4.551739744337356e-05
321.1390633973903,200.9836805630754,12.5,0,12.28155016937525,-0.2583544390630386,-1.303460287116009,3.950764409325121e-05,-1.065197434050192e-05,-1.042768229692808e-05,4.65320465033972e-05,4.708140440926944e-05
323.4208581199793,200.3504084309084,12.5,0,12.30728453676153,-0.2584720304535124,-1.267054939901912,3.959008814199971e-05,-1.067293812686046e-05,-1.013643951921529e-05,4.662408661784789e-05,4.636558715103673e-05
324.6695742566196,197.1852501798687,12.5,0,11.82271726376739,-0.3095589837589428,-1.367469826061432,3.80803424310628e-05,-1.044876255904253e-05,-1.093975860849145e-05,4.463227930199745e-05,4.492606586081689e-05
327.0400519316223,196.4229920881152,12.5,0,11.86095328612667,-0.2938083941817329,-1.324008863268941,3.819009723095073e-05,-1.042894949028288e-05,-1.059207090615152e-05,4.481768959540693e-05,4.411592536860929e-05
325.0912477892861,199.8868210551644,12.5,0,11.96279060183239,-0.2757331700947243,-1.372631083091573,3.850151646193943e-05,-1.045257862576903e-05,-1.098104866473259e-05,4.527099833088065e-05,4.584333991226206e-05
327.3730425118752,199.2535489229974,12.5,0,11.99771019041137,-0.2604962034295202,-1.327070217543554,3.860106957206001e-05,-1.043175600330356e-05,-1.061656174034843e-05,4.544193843585776e-05,4.513235117998918e-05
325.3999342393918,201.8645081960451,12.5,0,12.23820785826503,-0.3049751893470423,-1.122474783054242,3.940624529792571e-05,-1.076648689252255e-05,-8.979798264433935e-06,4.619688543242542e-05,4.651356741261263e-05
327.6168085350518,201.3256603397544,12.5,0,12.26967145269877,-0.3022143957251524,-1.072329196056014,3.950472016521619e-05,-1.07828232284795e-05,-8.57863356844811e-06,4.631841448222901e-05,4.587861193371352e-05
325.8216077720583,204.5660790713407,12.5,0,12.41784861746373,-0.2590067022854221,-1.135685058686301,3.994432093771226e-05,-1.076310034128433e-05,-9.085480469490405e-06,4.702545432855148e-05,4.742738894483295e-05
327.9497991153048,204.1562171746365,12.5,0,12.44386883785726,-0.2578912781877181,-1.082635849851844,4.00266933036934e-05,-1.07803471604865e-05,-8.661086798814749e-06,4.712081333848593e-05,4.690100841728983e-05
94.94062203668787,202.7230057944533,12.5,0,6.264637901993278,-1.210175036128522,-1.212581328274594,2.101498131528131e-05,-8.884270437205892e-06,-9.70065062619675e-06,2.07938130648157e-05,2.136026765574768e-05
98.29214238434753,199.2064473503702,12.5,0,6.47653226467612,-1.259227003520542,-1.169946252587839,2.173228484978002e-05,-9.21075222300663e-06,-9.359570020702712e-06,2.144714645654247e-05,2.120596552518385e-05
101.3457024097349,207.1208396999146,12.5,0,6.587141851474423,-0.9504063401046827,-1.41182921114264,2.18391789968019e-05,-8.311013769514523e-06,-1.129463368914112e-05,2.279963330283915e-05,2.361522610758111e-05
103.2773962008567,203.1960128804452,12.5,0,6.902454716193816,-0.94539622011159,-1.409994021267802,2.284417206790948e-05,-8.547231677312139e-06,-1.127995217014241e-05,2.400714993523422e-05,2.323841823211962e-05
83.84669740420748,195.1057340270821,12.5,0,5.43143263441369,-1.340904283339074,-0.7961181221926024,1.845330785679506e-05,-8.636039814215987e-06,-6.368944977540819e-06,1.717211829985403e-05,1.768844409737838e-05
89.65742948568217,192.2963171522789,12.5,0,5.581816706731362,-1.534885293562444,-0.6763666980029215,1.908972169639031e-05,-9.377086304784908e-06,-5.410933584023372e-06,1.720580908295836e-05,1.79950721901268e-05
90.25177777725455,199.5035679325435,12.5,0,5.804196182226038,-1.009919402320042,-1.030381909356019,1.938136330497935e-05,-7.875099033204965e-06,-8.243055274848155e-06,1.953854729914573e-05,1.977219120244798e-05
94.64268330219133,196.285882682354,12.5,0,6.041502396423354,-1.162138510893984,-0.9420859143555846,2.026251847726992e-05,-8.552045151999431e-06,-7.536687314844677e-06,1.999543146871873e-05,1.980101518763868e-05
93.91118059831126,190.239681260369,12.5,0,5.603612279485281,-1.225804224550345,-0.6416045154996074,1.891220267399317e-05,-8.405463342149328e-06,-5.13283612399686e-06,1.809042892036423e-05,1.831542109452496e-05
99.72191267978593,187.4302643855658,12.5,0,5.799278753819771,-1.387194123650881,-0.4870171826342454,1.966744731114397e-05,-9.078444198738634e-06,-3.896137461073963e-06,1.837472370178523e-05,1.888400248477856e-05
97.85704923754329,193.9303735965504,12.5,0,5.937551565378786,-1.013007198264639,-0.8100446027334609,1.981057076782383e-05,-7.991664286749874e-06,-6.480356821867688e-06,1.997475833786072e-05,1.993864620926798e-05
102.2479547624801,190.7126883463609,12.5,0,6.258961859149322,-1.140328331372012,-0.6781033508976906,2.094094061437544e-05,-8.656220147709896e-06,-5.424826807181525e-06,2.081815544646493e-05,2.028583716788214e-05
100.745625561331,196.6321479016254,12.5,0,6.187438409698135,-1.174036239509952,-0.9843503923979215,2.073903190264199e-05,-8.706866694190355e-06,-7.874803139183372e-06,2.052794426261268e-05,2.119509607979655e-05
104.0971459089907,193.1155894575423,12.5,0,6.448551673581536,-1.18527882317617,-0.915850988326241,2.158358841400185e-05,-8.951733573028971e-06,-7.326807906609928e-06,2.146905684246887e-05,2.13197023333109e-05
104.691494200563,200.3228402378068,12.5,0,6.468327878390069,-1.02460606482377,-1.118132529460105,2.151833406270723e-05,-8.453401710148119e-06,-8.945060235680837e-06,2.204339062063701e-05,2.300455584864685e-05
106.6231879916848,196.3980134183375,12.5,0,6.897662551441754,-0.9798805085633626,-1.086694039178194,2.28564245714643e-05,-8.653747668556163e-06,-8.693552313425551e-06,2.379039312585877e-05,2.274243981045442e-05
119.4167745914487,7.645713783728651,12.5,0,-18.08349051273191,-0.8472180274558498,0.1981081372295112,-5.718939521877743e-05,1.175569472232681e-05,1.58486509783609e-06,3.933524876958673e-06,4.354211454652884e-06
128.1723407398225,16.52358973872088,12.5,0,-19.55669833602919,-0.7653841857347743,0.6047738353007083,-6.196912732670556e-05,1.319612927447207e-05,4.838190682405667e-06,4.345302616684993e-06,4.40468613984627e-06
118.6008054058406,18.7805540322631,12.5,0,-16.00815253547194,-0.2850583681925238,0.4913102301753357,-5.099804141895617e-05,1.189433525016147e-05,3.930481841402686e-06,3.740106474570241e-06,3.919547966956515e-06
126.2588198696417,25.26580284820918,12.5,0,-17.45145039896234,-0.1092349574585345,1.012005484800287,-5.575725331071266e-05,1.361160845530256e-05,8.096043878402293e-06,4.224055045662329e-06,3.970510704604042e-06
134.5818600091897,23.02264600079296,12.5,0,-15.86417259831033,0.0072176376637616,0.7173085125115107,-5.077112642472406e-05,1.27144345191723e-05,5.738468100092086e-06,3.883615768927039e-06,4.3657511918942e-06
143.3374261575635,31.9005219557852,12.5,0,-16.50569155852305,0.2008675724846709,0.8458889377544275,-5.297890704526148e-05,1.384732947876938e-05,6.76711150203542e-06,4.161137033860411e-06,4.208904250701186e-06
131.8648755420031,30.01333448100577,12.5,0,-15.22998922409808,0.2802074808766859,0.9230745065446017,-4.896013150181521e-05,1.308065531808386e-05,7.384596052356814e-06,3.909062783081721e-06,3.970485649588608e-06
139.5228900058043,36.49858329695185,12.5,0,-15.90464467264895,0.5706625460711354,1.120512058844223,-5.135139298933356e-05,1.454983588554679e-05,8.96409647075378e-06,4.269213588299177e-06,3.919454460365926e-06
129.8759048687317,35.13087362819044,12.5,0,-14.3879696305602,-0.2599100381069928,1.080011842758941,-4.583357478730703e-05,1.067866358250578e-05,8.640094742071527e-06,3.413949913642458e-06,3.751202335168052e-06
136.730455735527,39.86459781486104,12.5,0,-14.74689960758887,0.04980824911366799,1.222412037174267,-4.722992534357533e-05,1.195690608323484e-05,9.779296297394134e-06,3.693034651112044e-06,3.747245904930058e-06
127.1589204015451,42.12156210840326,12.5,0,-13.6119080140345,0.1025231057126432,1.359907258446038,-4.364012412948052e-05,1.121760034950806e-05,1.087925806756831e-05,3.476372255410357e-06,3.547374721199119e-06
132.9159195837677,44.4626591560277,12.5,0,-13.86890858035627,0.6509554308384269,1.647909291559606,-4.490127180181079e-05,1.317818424296798e-05,1.318327433247685e-05,3.925693945680308e-06,3.566213172296484e-06
118.0034745045902,26.93182282800663,12.5,0,-15.44457776319485,-0.2371677344628793,1.079854351055472,-4.923291465465322e-05,1.159672546027467e-05,8.638834808443775e-06,3.678548421223793e-06,3.704885473323248e-06
124.8580253713855,31.66554701467723,12.5,0,-16.07519800742901,-0.2837083309318982,1.407682628860287,-5.121366695902729e-05,1.195229174696113e-05,1.12614610308823e-05,3.844306527401456e-06,3.739851891728327e-06
117.1875053189821,38.06666307654107,12.5,0,-13.81798751056267,0.1833017474713938,1.199898613127892,-4.436420143177764e-05,1.164095560035859e-05,9.599188905023135e-06,3.548234022476894e-06,3.553080121909166e-06
122.9445045012048,40.40776012416553,12.5,0,-14.27915040760116,0.2106850968781151,1.637043821982918,-4.58618293818262e-05,1.209751263609089e-05,1.309635057586334e-05,3.744888982462595e-06,3.54385573095379e-06
69.55270707785493,99.46862433140799,12.5,0,-4.594812218336805,-0.9607042484134977,1.388870259551836,-1.393483569994698e-05,6.015961797462514e-07,1.111096207641469e-05,9.782587005792182e-07,1.118350922588376e-06
77.36517103411936,100.8587175170221,12.5,0,-4.803366069166459,-1.047106633384645,1.811587390451738,-1.453308611462495e-05,4.919516285023045e-07,1.44926991236139e-05,1.174670582420275e-06,1.164818079179208e-06
70.04576669860748,105.9054033296989,12.5,0,-3.747303575051008,-0.7468435745787865,1.354182930601545,-1.13938965805002e-05,6.079434213886894e-07,1.083346344481236e-05,9.146623891794445e-07,9.573272603786012e-07
77.50465748433859,106.4867941568447,12.5,0,-3.847344416064952,-0.8073769789286684,1.791015073606603,-1.166560054826491e-05,4.942692002802224e-07,1.432812058885282e-05,1.148288105488761e-06,1.023229790650298e-06
56.0211225735475,97.0609123067123,12.5,0,-5.011169551998133,-1.013362051423245,1.257737152198298,-1.522505292525543e-05,7.661770770441229e-07,1.006189721758639e-05,9.802730903187954e-07,1.152537073126874e-06
63.83358652981195,98.45100549232643,12.5,0,-5.24789371563258,-1.197900667692985,1.695112148677973,-1.583493935586987e-05,3.650328358885127e-07,1.356089718942378e-05,1.126204973315131e-06,1.115060236934514e-06
57.12658888984596,104.898404878046,12.5,0,-3.938855974089757,-0.7287571768970735,1.154384664549793,-1.202133337556956e-05,8.190618132011701e-07,9.235077316398345e-06,8.609470966033444e-07,9.131050911754464e-07
64.58547967557709,105.4797957051917,12.5,0,-4.063953941939629,-0.8880632689491574,1.595968800341156,-1.229420199904749e-05,4.093606929143998e-07,1.276775040272924e-05,1.026230294432179e-06,9.278194360885133e-07
54.10639874769698,83.48597696946271,12.5,0,-6.634175268658261,-0.8109741738532916,1.321737472824145,-2.05805815206238e-05,2.712222858596075e-06,1.057389978259316e-05,1.404767330486329e-06,1.607665634362164e-06
62.53126939950732,86.2767837281196,12.5,0,-7.093660670280292,-1.135249902045171,1.80642877710724,-2.17915142232608e-05,2.042128849679687e-06,1.445143021685792e-05,1.516806831830913e-06,1.508161984416139e-06
55.21186506399543,91.32346954079635,12.5,0,-5.567066882623023,-0.5184971286668849,1.192774612648493,-1.739981632146016e-05,2.794462694364386e-06,9.542196901187949e-06,1.280220102040526e-06,1.338644009762485e-06
63.28316254527248,93.30557394098491,12.5,0,-5.929614597423249,-0.822943493279111,1.680333956448538,-1.831641191713111e-05,2.110272499445444e-06,1.34426716515883e-05,1.389319681474012e-06,1.270562554087481e-06
68.6987027635662,88.3197960694762,12.5,0,-5.918205657110359,-0.7837401030214953,1.398943468254302,-1.831126602033595e-05,2.226596196019501e-06,1.119154774603442e-05,1.297350304935585e-06,1.470661537671748e-06
77.12357341537654,91.11060282813307,12.5,0,-6.330754384610199,-0.941841985850315,1.856658614819881,-1.950494044207238e-05,2.050709152967151e-06,1.485326891855905e-05,1.481424649993956e-06,1.46771206180121e-06
69.19176238431876,94.75657506776709,12.5,0,-5.070807240131859,-0.5689229457341602,1.359128277606168,-1.577144481183462e-05,2.236092365756174e-06,1.087302622084934e-05,1.218651722989512e-06,1.255898427632008e-06
77.26305986559579,96.73867946795565,12.5,0,-5.391152704040362,-0.7058762698448555,1.830735325310813,-1.668698763705327e-05,2.054118099728752e-06,1.46458826024865e-05,1.419934719055306e-06,1.28391674478034e-06
141.457564313093,313.7156656273036,12.5,0,2.725939505774473,2.889189256642326,-3.445407632966383,6.411655013164452e-06,7.064654016635864e-06,-2.756326106373106e-05,2.214471895825441e-05,2.251741763202421e-05
144.8095073437966,313.782430835182,12.5,0,2.749711112052319,2.976431879645776,-3.485435134590819,6.417930054850798e-06,7.32481312522463e-06,-2.788348107672655e-05,2.255661585338664e-05,2.255134526987863e-05
140.0980466549287,316.7192893130154,12.5,0,2.648537488374872,2.899757585566844,-3.433459408616502,6.155513894346115e-06,7.160394283114004e-06,-2.746767526893201e-05,2.191025122473852e-05,2.192400575199097e-05
143.7413628845883,316.7257092233961,12.5,0,2.668952547901958,2.98076992524364,-3.470281320657191,6.156032213091352e-06,7.403301722458082e-06,-2.776225056525753e-05,2.228704515802977e-05,2.195168863861731e-05
143.8123179707783,308.5132367969271,12.5,0,2.901859625464255,2.988513293049652,-3.615801875915025,6.895140167045892e-06,7.241754837387481e-06,-2.89264150073202e-05,2.323093313691497e-05,2.362197148004563e-05
146.6595878169352,308.6845231260676,12.5,0,2.92987650752574,3.079632105656639,-3.652648716473805,6.911899139557055e-06,7.510921532080653e-06,-2.922118973179044e-05,2.366675712482791e-05,2.366990869192201e-05
142.452800312614,311.5168604826388,12.5,0,2.823854422632227,3.004919589389462,-3.59893463683604,6.632398480911557e-06,7.356659147940496e-06,-2.879147709468832e-05,2.300887411179019e-05,2.297238617761802e-05
145.5914433577269,311.6278015142815,12.5,0,2.847647771230821,3.088703126002541,-3.632258279949235,6.641510367136593e-06,7.605731786223472e-06,-2.905806623959388e-05,2.340270120569729e-05,2.301174094556626e-05
148.7439340070923,308.809913421635,12.5,0,2.703977975068613,3.207296507196535,-3.57717588398733,6.086892314462333e-06,8.100166442974021e-06,-2.861740707189864e-05,2.327261812059985e-05,2.369863549816067e-05
151.5912038532493,308.9811997507755,12.5,0,2.738978216874736,3.322637229740052,-3.62073319688078,6.106620510207112e-06,8.441256561668377e-06,-2.896586557504624e-05,2.382235697475932e-05,2.372918138047082e-05
147.8890895334746,311.7090159860846,12.5,0,2.612552696734873,3.212909773373124,-3.549504178057596,5.789840810853093e-06,8.191269117406098e-06,-2.839603342446077e-05,2.296155309857535e-05,2.303436195195378e-05
151.0277325785877,311.8199570177274,12.5,0,2.642199672155594,3.318193368995345,-3.588527297333076,5.800484255701624e-06,8.504459043060628e-06,-2.870821837866461e-05,2.345521789774055e-05,2.305680892277724e-05
147.2632999462437,313.8313063595248,12.5,0,2.513485425618163,3.109944609884429,-3.402865396637242,5.555197674070577e-06,7.941034411135641e-06,-2.722292317309793e-05,2.214364735536082e-05,2.256982211737043e-05
150.6152429769473,313.8980715674032,12.5,0,2.545283243531686,3.228498869778366,-3.447108685979012,5.562107283478703e-06,8.294969788465419e-06,-2.75768694878321e-05,2.269492025094727e-05,2.258637416562946e-05
146.408455472626,316.7304089239746,12.5,0,2.429878881790235,3.114541611712447,-3.378271781080145,5.283979132358793e-06,8.022630052047642e-06,-2.702617424864116e-05,2.185880228860927e-05,2.1964949233302e-05
150.0517717022856,316.7368288343552,12.5,0,2.457447298779078,3.224105993920687,-3.418596303816397,5.2845465609565e-06,8.351181341522936e-06,-2.734877043053118e-05,2.236193119705021e-05,2.197349496509436e-05
206.0579446892862,300.7148605346172,12.5,0,0.5025905199615326,4.979960234637859,-1.784995926330309,-2.375678523833382e-06,1.553380033487192e-05,-1.427996741064247e-05,2.116998841751789e-05,2.143415238631782e-05
208.2422029371971,300.6634597383691,12.5,0,0.4701948127384831,4.850211261548719,-1.785434988645602,-2.375545608475829e-06,1.514452018676511e-05,-1.428347990916482e-05,2.058389814777507e-05,2.084409923562729e-05
205.6769366014887,302.6678958356001,12.5,0,0.4986794682262026,4.958105053490721,-1.827681551322562,-2.370709744468728e-06,1.546699259658934e-05,-1.46214524105805e-05,2.109876050940697e-05,2.087814891526136e-05
207.7619675548546,302.4760654524469,12.5,0,0.4637802361069238,4.817805563667171,-1.831760066180882,-2.370147695391581e-06,1.504595361484941e-05,-1.465408052944706e-05,2.046826240701532e-05,2.038159466448435e-05
205.3980193231381,304.0976169048344,12.5,0,0.4936850495047679,4.754474299159148,-1.708240945931961,-2.223787280912062e-06,1.481936971770546e-05,-1.366592756745569e-05,2.025640430041042e-05,2.048232601380035e-05
207.4104108554025,303.8029849291851,12.5,0,0.4764521951853222,4.686101238090721,-1.712374178512224,-2.224233965879546e-06,1.461436220574205e-05,-1.369899342809779e-05,1.994902440534524e-05,2.00576008492851e-05
205.0170112353405,306.0506522058173,12.5,0,0.4895398398676973,4.741527758388597,-1.732732446391614,-2.226694719134246e-06,1.478125695494935e-05,-1.386185957113291e-05,2.020806004152673e-05,1.995692120722002e-05
206.9301754730601,305.6155906432629,12.5,0,0.4706026296386001,4.666727402055183,-1.739522864012129,-2.227453506800626e-06,1.455704558286571e-05,-1.391618291209703e-05,1.987307684416472e-05,1.963493785592797e-05
201.9124549445973,304.6079344561843,12.5,0,0.6197291708322323,4.766190420809757,-1.918411918328664,-1.829818989984661e-06,1.475602600992543e-05,-1.534729534662932e-05,2.080693172101568e-05,2.114136901519545e-05
203.9248464768617,304.3133024805349,12.5,0,0.602233442886444,4.71653520286239,-1.934947946451504,-1.846081145053292e-06,1.461112589485049e-05,-1.547958357161203e-05,2.057709251949127e-05,2.077272081862955e-05
201.7033135724461,306.8042009365685,12.5,0,0.5787208078603013,4.75130627002615,-1.939289356536151,-1.949138430867956e-06,1.474120341779544e-05,-1.551431485228921e-05,2.063632195458078e-05,2.047263353617174e-05
203.6164778101656,306.369139374014,12.5,0,0.5567200674970019,4.69719695391501,-1.95861550719641,-1.976253347141601e-06,1.458565419853043e-05,-1.566892405757128e-05,2.037812886280733e-05,2.01813810882374e-05
202.2746984271213,300.8038893252667,12.5,0,0.6518536430483746,5.003104618002942,-2.043950399885541,-1.916552036647555e-06,1.548845186317071e-05,-1.635160319908433e-05,2.186276962843863e-05,2.234553159186405e-05
204.4589566750321,300.7524885290186,12.5,0,0.6396197207182789,4.954869867554849,-2.047354256343911,-1.917112787745386e-06,1.534388779960089e-05,-1.637883405075129e-05,2.164706907623202e-05,2.18364599736489e-05
202.0655570549701,303.0001558056509,12.5,0,0.642843460545768,4.996587971841662,-2.062143068201622,-1.940171303726871e-06,1.54748067414567e-05,-1.649714454561297e-05,2.182117790017152e-05,2.16432105367084e-05
204.150588008336,302.8083254224977,12.5,0,0.629229203688118,4.945050773647309,-2.06708805827628,-1.94250716711587e-06,1.532077911272089e-05,-1.653670446621024e-05,2.158997979382181e-05,2.121619786937156e-05
267.7809459169702,76.32832018137157,12.5,0,-7.882519143616531,1.424745157949695,-2.434908203056106,-2.636385738593266e-05,1.086519982033225e-05,-1.947926562444885e-05,3.582535180535085e-06,3.602323037112679e-06
269.8566751817647,76.19960133457174,12.5,0,-7.853446142576156,1.447256738153588,-2.283299121375338,-2.628883304676657e-05,1.091397847615241e-05,-1.826639297100271e-05,3.519970788508906e-06,3.583023567177027e-06
267.4644925047606,78.09495803013607,12.5,0,-7.529250929769231,1.515449768442128,-2.405889426423437,-2.530596279001524e-05,1.087284000283019e-05,-1.924711541138749e-05,3.606410018428554e-06,3.635997009833019e-06
269.6745292577355,78.1523482953523,12.5,0,-7.535126192652893,1.527957968203579,-2.267366894595458,-2.533477019105211e-05,1.091756645237377e-05,-1.813893515676367e-05,3.543777702019708e-06,3.619735965595009e-06
268.3290593051357,73.26841366879222,12.5,0,-8.493014895764444,1.357706045086015,-2.351923928805621,-2.826381250251503e-05,1.11390712608868e-05,-1.881539143044496e-05,3.568373686659657e-06,3.56338246670092e-06
270.1721611765689,72.81734438423486,12.5,0,-8.403224021425009,1.353315375573637,-2.206000358682714,-2.797296916901893e-05,1.105318841897564e-05,-1.764800286946171e-05,3.482652229228584e-06,3.544581422759763e-06
268.0126058929263,75.03505151755672,12.5,0,-8.102616855888087,1.450552310770387,-2.33622886638415,-2.708881578745818e-05,1.112386087917571e-05,-1.86898309310732e-05,3.583964134895435e-06,3.582866028922284e-06
269.9900152525399,74.77009134501543,12.5,0,-8.061121830910476,1.436675342751778,-2.203300526328695,-2.694493013311494e-05,1.104625856153407e-05,-1.762640421062956e-05,3.500852737600354e-06,3.562885968117419e-06
271.5214053899259,72.48713875021917,12.5,0,-8.551530443257414,1.240734834376441,-2.423532358119803,-2.835748528592488e-05,1.081157582461054e-05,-1.938825886495842e-05,3.51395022433668e-06,3.532269998739609e-06
273.3645072613591,72.03606946566183,12.5,0,-8.466531046406933,1.226542775454077,-2.282277427920334,-2.807413356886544e-05,1.069816171857859e-05,-1.825821942336267e-05,3.422019357162807e-06,3.51743560674275e-06
271.4375793710777,74.57612703674121,12.5,0,-8.10311505198213,1.351184601278566,-2.433266263636338,-2.701091584736567e-05,1.080628276567712e-05,-1.94661301090907e-05,3.546494319172393e-06,3.548587355024801e-06
273.4149887306912,74.3111668641999,12.5,0,-8.063804165791623,1.328044683026524,-2.300412276937092,-2.686660907695441e-05,1.070078631831817e-05,-1.840329821549674e-05,3.453932924138887e-06,3.529502878381202e-06
271.3762144662871,76.10537259882659,12.5,0,-7.8160034166854,1.37635808788074,-2.513907958215348,-2.611229740369787e-05,1.065714861456669e-05,-2.011126366572278e-05,3.574038750620497e-06,3.568692330207867e-06
273.4519437310815,75.97665375202675,12.5,0,-7.809261979193039,1.308585517801163,-2.362855143460399,-2.603650674765865e-05,1.043488324031815e-05,-1.890284114768319e-05,3.432674058379099e-06,3.548838132606799e-06
271.2923884474388,78.19436088534863,12.5,0,-7.397233680186481,1.478180336211113,-2.536205474960699,-2.485369204556563e-05,1.064796402002475e-05,-2.02896437996856e-05,3.632185001812001e-06,3.607302787610056e-06
273.5024252004136,78.25175115056484,12.5,0,-7.424523468997657,1.406224125962167,-2.392264418483027,-2.488345440156223e-05,1.043953597827706e-05,-1.913811534786421e-05,3.48616637992646e-06,3.589595757892184e-06
261.132419739177,74.95130671097654,12.5,0,-8.154792001206678,1.466488013223092,-2.199746751932572,-2.726852481443984e-05,1.121659524327924e-05,-1.759797401546057e-05,3.539269952500211e-06,3.638959953320643e-06
263.033198200998,75.41098805550581,12.5,0,-8.180586025610154,1.616745314074773,-2.110111253254322,-2.747127153321231e-05,1.171805382552739e-05,-1.688089002603458e-05,3.636074355231808e-06,3.626901277604134e-06
259.953932007928,77.40770542297226,12.5,0,-7.833223999936823,1.627601046644289,-2.078465013452145,-2.636839763711326e-05,1.147490254921118e-05,-1.662772010761716e-05,3.581581186999882e-06,3.689470606040864e-06
262.1170908345323,77.62275704427651,12.5,0,-7.819371090027143,1.786053445544905,-1.980981823960896,-2.645083024452278e-05,1.197086789776541e-05,-1.584785459168717e-05,3.684704518639481e-06,3.673496214715444e-06
263.1736203657601,70.69669933822965,12.5,0,-8.762963633965821,1.342799206938501,-2.112389590627197,-2.911572299424143e-05,1.130732836937586e-05,-1.689911672501758e-05,3.492345064644457e-06,3.583946393713279e-06
264.6199427048763,71.58009179241854,12.5,0,-8.824749738297594,1.431834566171188,-2.082875412466161,-2.938466681548925e-05,1.164167040238587e-05,-1.666300329972929e-05,3.565068647929623e-06,3.574151349732989e-06
261.9951326345112,73.15309805022537,12.5,0,-8.542730881049115,1.466793070090852,-2.018599746324116,-2.851017327542985e-05,1.152792252913002e-05,-1.614879797059293e-05,3.520788790426548e-06,3.610684825846416e-06
263.7038353384105,73.79186078118924,12.5,0,-8.569924337692127,1.565198407889974,-1.978910198250782,-2.867591660692679e-05,1.186457437540162e-05,-1.583128158600625e-05,3.594459115380262e-06,3.600281901260735e-06
265.6787241411861,72.22677995188029,12.5,0,-8.466401592748365,1.344822534051524,-2.250718909897298,-2.816834312403598e-05,1.107655338316357e-05,-1.800575127917838e-05,3.505917275216302e-06,3.570502297146255e-06
267.1250464803023,73.1101724060692,12.5,0,-8.552681129310665,1.431268552337927,-2.206451462225987,-2.851359445566447e-05,1.14222042709299e-05,-1.76516116978079e-05,3.572963034575566e-06,3.570327944059673e-06
264.9546925326421,74.25946755421639,12.5,0,-8.253992759719598,1.439058143652434,-2.177619905062087,-2.756402334602465e-05,1.120818026746346e-05,-1.742095924049669e-05,3.519957662689988e-06,3.595143891809723e-06
266.6633952365415,74.89823028518026,12.5,0,-8.293969660952554,1.532784626397794,-2.125281820344904,-2.776693061616641e-05,1.154008653323498e-05,-1.700225456275923e-05,3.584589862008435e-06,3.591509513524872e-06
264.4246646089245,75.7474981549785,12.5,0,-7.937844232908549,1.463110124390298,-2.308738005566617,-2.65715896448196e-05,1.103222778437579e-05,-1.846990404453294e-05,3.55852262225198e-06,3.619719063599775e-06
266.3254430707457,76.20717949950779,12.5,0,-7.989219598630245,1.544450577610883,-2.199240070558712,-2.680106317770549e-05,1.133361752725902e-05,-1.75939205644697e-05,3.584685150451563e-06,3.612155565744708e-06
263.7006330003805,77.7801857573146,12.5,0,-7.661987459759747,1.560528740420756,-2.240950736203935,-2.576678286356779e-05,1.112328193715421e-05,-1.792760588963148e-05,3.576224395737224e-06,3.662218086874318e-06
265.8637918269849,77.99523737861887,12.5,0,-7.668029809142118,1.648945657559935,-2.131278617667183,-2.585685191530272e-05,1.141104995150549e-05,-1.705022894133747e-05,3.604705274470503e-06,3.647380059922217e-06
252.4680599427102,74.27667125414118,12.5,0,-8.542589547338483,1.66973915243427,-1.92170996892234,-2.867207787343056e-05,1.217723692566045e-05,-1.537367975137872e-05,3.659743431720864e-06,3.674175960520537e-06
255.0401808490396,74.44012120584054,12.5,0,-8.539405183867334,1.773780605994036,-1.780654310364773,-2.874512107317069e-05,1.250762208627478e-05,-1.424523448291819e-05,3.699181619951567e-06,3.667457477801473e-06
251.903230520913,76.90865443731725,12.5,0,-8.107202058922022,1.803381332374207,-1.840987598985579,-2.738575165444983e-05,1.225658191073508e-05,-1.472790079188463e-05,3.68220741516618e-06,3.716592875068954e-06
254.2462750133625,77.04433109614247,12.5,0,-8.101316938365896,1.918519395979653,-1.685437548677217,-2.745902971955459e-05,1.262031561782761e-05,-1.348350038941773e-05,3.730714521156065e-06,3.713053174436238e-06
253.4463731988552,69.71794265629525,12.5,0,-9.306066768870414,1.482790736222622,-1.870752760039829,-3.096564624936342e-05,1.218978377100872e-05,-1.496602208031863e-05,3.612349675042619e-06,3.631191829200646e-06
256.415266092833,69.92949736234527,12.5,0,-9.308985469577692,1.588786278133702,-1.708659832866288,-3.105978252515557e-05,1.253130446569e-05,-1.36692786629303e-05,3.647000063983348e-06,3.616623361668884e-06
252.8815437770579,72.34992583947134,12.5,0,-8.878631602942217,1.611576659126009,-1.795954841350429,-2.97008824567159e-05,1.2259950591557e-05,-1.436763873080343e-05,3.617857669100778e-06,3.651292819248062e-06
255.6213602571559,72.53370725264719,12.5,0,-8.879802653528277,1.72717918332976,-1.61974079144762,-2.979711183795429e-05,1.263081550947785e-05,-1.295792633158096e-05,3.659401759044405e-06,3.64161918734498e-06
258.5886465333626,70.08436615574759,12.5,0,-9.133827345859052,1.297646259650248,-2.098332482267919,-3.026636451446916e-05,1.145952990756803e-05,-1.678665985814336e-05,3.514533772742776e-06,3.606270000777114e-06
261.5575394273404,70.29592086179761,12.5,0,-9.102889519060268,1.53190336836893,-1.949708619286748,-3.035476915568799e-05,1.218440239402879e-05,-1.559766895429398e-05,3.645596531852875e-06,3.592552560322261e-06
257.6270451239169,72.66824458457302,12.5,0,-8.723769858999697,1.479440863712936,-1.958843965035103,-2.909961623976938e-05,1.171322665108115e-05,-1.567075172028082e-05,3.538201418724939e-06,3.633094119590525e-06
260.3668616040149,72.8520259977489,12.5,0,-8.688251925661255,1.734619115446209,-1.796833063822116,-2.919010145447298e-05,1.250138270995687e-05,-1.437466451057693e-05,3.694325531760215e-06,3.619476833249483e-06
256.9231040356028,74.55977487497407,12.5,0,-8.404428714579169,1.522448816624444,-2.11859398515648,-2.81121309399529e-05,1.159537918486156e-05,-1.694875188125184e-05,3.58958442989227e-06,3.660428525185879e-06
259.4952249419321,74.72322482667343,12.5,0,-8.37529339898704,1.722233466218728,-1.99249162181329,-2.817872564973351e-05,1.221138181108956e-05,-1.593993297450632e-05,3.710155877749317e-06,3.64794355223433e-06
255.9615026261571,77.14365330379948,12.5,0,-7.999333595469896,1.702493018440273,-1.980326988386622,-2.695986192025588e-05,1.184744453538479e-05,-1.584261590709297e-05,3.630399419665148e-06,3.708283391256841e-06
258.3045471186066,77.2793299626247,12.5,0,-7.965029013883596,1.923366557550329,-1.84077740071056,-2.702678609046777e-05,1.252679619526793e-05,-1.472621920568448e-05,3.777478726137501e-06,3.6987918019018e-06
244.056025788818,74.34099140219898,12.5,0,-8.729723924189493,1.817554022365853,-1.552963787817608,-2.938915977529906e-05,1.279995201092232e-05,-1.242371030254086e-05,3.692618933109108e-06,3.683525162454916e-06
246.4673843387937,74.30091912051286,12.5,0,-8.719966658491701,1.831308400864587,-1.400797593371496,-2.936894002786511e-05,1.283616020956004e-05,-1.120638074697197e-05,3.656914838182965e-06,3.682200031779643e-06
243.9201394860534,76.60760600922968,12.5,0,-8.310079214477479,1.923166769521598,-1.538852727360983,-2.813078690194521e-05,1.280219703405109e-05,-1.231082181888787e-05,3.715655045178097e-06,3.714974869726187e-06
246.220107834946,76.68874904997917,12.5,0,-8.321817516892395,1.931995097740565,-1.380908097453506,-2.817541213224811e-05,1.283983832628372e-05,-1.104726477962805e-05,3.675473639031668e-06,3.717245916653368e-06
244.2913877692547,70.41509974171461,12.5,0,-9.458179018385579,1.648099876005069,-1.482738289137471,-3.15846527596379e-05,1.284046281792468e-05,-1.186190631309976e-05,3.65771488142845e-06,3.658495431265693e-06
246.8956798069683,70.16507636291792,12.5,0,-9.414837352592816,1.659058251970956,-1.313565943328943,-3.145472612987377e-05,1.284085628838131e-05,-1.050852754663154e-05,3.613814873304237e-06,3.649382458717577e-06
244.1555014664901,72.6817143487453,12.5,0,-9.029043807422523,1.755390691142003,-1.473043852122093,-3.029725273666567e-05,1.284048525759243e-05,-1.178435081697674e-05,3.666299594935227e-06,3.668391542530934e-06
246.6484033031205,72.55290629238422,12.5,0,-9.004836297555794,1.761570088500305,-1.2975994323978,-3.022473222297878e-05,1.284089332124561e-05,-1.03807954591824e-05,3.618724517439385e-06,3.664016073030731e-06
248.8021538962406,69.98204654656649,12.5,0,-9.444010779327392,1.531482972500915,-1.689613917645876,-3.144602087184838e-05,1.245595413546484e-05,-1.351691134116701e-05,3.618371185471314e-06,3.644034512691766e-06
251.4064459339542,69.73202316776981,12.5,0,-9.38259353938354,1.617103730980177,-1.52020625094174,-3.131798231081147e-05,1.268080677064339e-05,-1.216165000753392e-05,3.62733297304927e-06,3.638536624980606e-06
248.4733341057382,72.45861225070774,12.5,0,-8.982570142117481,1.656472985789965,-1.637755197977312,-3.006940284340791e-05,1.248676966822187e-05,-1.31020415838185e-05,3.621639519023365e-06,3.660812501922511e-06
250.9662359423686,72.32980419434666,12.5,0,-8.93958502584497,1.739637287769255,-1.464444475170494,-2.999838191291931e-05,1.271850734153759e-05,-1.171555580136395e-05,3.633187870031317e-06,3.656435652389029e-06
248.2326213125665,74.27158417434465,12.5,0,-8.66278266244557,1.736100829593281,-1.737724676594449,-2.910978518350045e-05,1.248574878465495e-05,-1.390179741275559e-05,3.669817716426989e-06,3.680641490171657e-06
250.6439798625422,74.23151189265852,12.5,0,-8.642319531247214,1.793020848579127,-1.587348407044585,-2.908983917885438e-05,1.265152234045097e-05,-1.269878725635668e-05,3.666128694958399e-06,3.67770860598802e-06
247.9038015220641,76.7481498784859,12.5,0,-8.212209599452985,1.856454900855757,-1.692163034533651,-2.776423463893415e-05,1.251042336230081e-05,-1.353730427626921e-05,3.690687036584381e-06,3.718037304302566e-06
250.2037698709567,76.82929291923539,12.5,0,-8.212519825828824,1.909846452400538,-1.53806398923848,-2.780794060457266e-05,1.268152450834478e-05,-1.230451191390784e-05,3.686775559822352e-06,3.717928368641567e-06
49.51249519509845,125.1058055628519,12.5,0,-1.739196047791878,-1.302188823612588,1.047544742675213,-4.523676294043941e-06,-2.775647397326777e-06,8.380357941401705e-06,4.172039811467306e-07,5.402235602183539e-07
56.9389982774182,123.9659521293295,12.5,0,-1.64432021190725,-1.472298122636576,1.393734782842791,-4.083986179993938e-06,-3.395897822911243e-06,1.114987826274233e-05,6.304526222475594e-07,5.821806271144333e-07
50.96625997995339,132.9943487310782,12.5,0,-0.8118645000431886,-1.036009795715779,0.9095428407351084,-1.76915856356558e-06,-2.665739746255943e-06,7.276342725880867e-06,4.426920065616871e-07,5.928392783339981e-07
59.00641212367184,131.6225727309051,12.5,0,-0.7098872177345106,-1.188212909172112,1.225704503048542,-1.321068769412744e-06,-3.234371535163148e-06,9.805636024388337e-06,7.345454809725371e-07,6.542444195013697e-07
36.64941453418492,127.080089622859,12.5,0,-1.661574234872641,-1.168616937259068,0.9613021957540145,-4.382144001785198e-06,-2.410314811330903e-06,7.690417566032117e-06,3.861867257839203e-07,5.581796489631307e-07
44.07591761650467,125.9402361893366,12.5,0,-1.572239149040367,-1.317014164420843,1.280324277523488,-3.9775539453925e-06,-2.956654006914402e-06,1.024259422018791e-05,5.786204409278199e-07,5.337925175053555e-07
37.0403079666994,135.3703344599389,12.5,0,-0.7690488532743874,-0.9373285078674801,0.8763597024695287,-1.711093524184055e-06,-2.384212142556426e-06,7.01087761975623e-06,4.369106390367317e-07,5.53984811774448e-07
45.08046011041787,133.9985584597658,12.5,0,-0.6729069547407145,-1.070537453758573,1.169103717415758,-1.296872292163428e-06,-2.887394288234861e-06,9.352829739326061e-06,7.140810288413543e-07,5.659747974109444e-07
35.972367248737,112.720964358109,12.5,0,-3.372399346129464,-1.017251629947908,1.158762101265667,-9.977876603655957e-06,-5.57285738929735e-07,9.270096810125338e-06,6.693166676848872e-07,7.97700863226557e-07
42.3359989787163,111.9828125934402,12.5,0,-3.341588863563258,-1.308838197456209,1.502500711703465,-9.646013805437457e-06,-1.515011141009262e-06,1.202000569362772e-05,7.50686494689045e-07,7.779145756909383e-07
36.36326068125149,121.0112091951889,12.5,0,-2.257944226836833,-0.7222116316648488,0.9997842998243571,-6.647652220545988e-06,-5.047218398580492e-07,7.998274398594857e-06,5.485004532358849e-07,6.234831681301927e-07
43.34054147262951,120.0411348638694,12.5,0,-2.209992997685356,-0.9821263230037323,1.309563213312271,-6.286276534190153e-06,-1.374809835463658e-06,1.047650570649817e-05,6.578024666462524e-07,5.905816099377436e-07
46.99450072552054,111.442447998029,12.5,0,-3.370014307888944,-1.263898770311382,1.176123236938487,-9.772926768995516e-06,-1.348464618685266e-06,9.408985895507897e-06,6.047782663085456e-07,7.687155247546664e-07
53.35813245549983,110.7042962333602,12.5,0,-3.309600111105314,-1.414792683128924,1.506840570114014,-9.458886209033864e-06,-1.879656497128306e-06,1.205472456091211e-05,7.21546898088799e-07,7.63369537749908e-07
48.44826551037546,119.3309911662553,12.5,0,-2.365192009262647,-0.9789368033909734,1.034035290333726,-6.785464986927689e-06,-1.240444163440998e-06,8.272282322669811e-06,5.0110846439084e-07,5.873494584131224e-07
55.42554630175349,118.3609168349358,12.5,0,-2.29187792334551,-1.110475657399006,1.331235541056932,-6.445628828786426e-06,-1.720019765000411e-06,1.064988432845546e-05,6.384793675120807e-07,6.114206144221699e-07
148.540203344784,47.77517149197435,12.5,0,-13.35985340535857,0.2787922286082698,1.657172439637188,-4.297456468003403e-05,1.158001785583332e-05,1.32573795170975e-05,3.577647236561103e-06,3.550919378872936e-06
152.2485190118544,45.35701072729232,12.5,0,-13.27013445944616,0.05192561584844402,1.681972035660522,-4.250597076290645e-05,1.078226953827194e-05,1.345577628528417e-05,3.426656951814533e-06,3.662603657851623e-06
151.5021002812775,52.01849798824101,12.5,0,-12.95771646525596,0.6240540320426065,1.428751022527754,-4.196393591445315e-05,1.236314607474111e-05,1.143000818022203e-05,3.656794777945724e-06,3.458527789122296e-06
154.9683121198719,50.22192487362564,12.5,0,-12.88795985222955,0.3399687458303058,1.474881499330608,-4.151344652379881e-05,1.139826786844062e-05,1.179905199464486e-05,3.470425054659044e-06,3.542871802542321e-06
142.1172121990299,51.96354879719797,12.5,0,-12.49854439055246,0.2597843431726372,1.787855534227648,-4.020316952430596e-05,1.08301454105944e-05,1.430284427382118e-05,3.398390485699219e-06,3.383736424216482e-06
145.8255278661002,49.54538803251594,12.5,0,-12.50931091455218,-0.05751887687646029,1.747848342260706,-3.998377982506581e-05,9.823388325637072e-06,1.398278673808565e-05,3.203351156246899e-06,3.476197128827225e-06
145.4984452671432,55.13025390221114,12.5,0,-12.27992883477123,0.6784873066368089,1.602811524102396,-3.983856211657737e-05,1.199510244905477e-05,1.282249219281917e-05,3.572272735035811e-06,3.323746103133281e-06
148.9646571057376,53.33368078759579,12.5,0,-12.31236814883403,0.2743384015852142,1.573642732936833,-3.961904879753704e-05,1.07277774041399e-05,1.258914186349466e-05,3.317342877061557e-06,3.399813234926566e-06
140.388396531621,42.98387250689046,12.5,0,-13.46850709921309,-0.1313843289641956,1.66826368133369,-4.299411525431052e-05,1.035437582668504e-05,1.334610945066952e-05,3.363818159436099e-06,3.694732750526437e-06
143.5275257712583,46.77216526197031,12.5,0,-13.36489306427061,0.1456769907148114,1.535639973707545,-4.288419939823778e-05,1.115808082170388e-05,1.228511978966036e-05,3.475031573090008e-06,3.555220574861929e-06
136.2607447329307,46.47865466282597,12.5,0,-13.41674572289937,0.1965601632928742,1.760666957755859,-4.309083444391227e-05,1.136238910085669e-05,1.408533566204688e-05,3.562623249650332e-06,3.537729757959988e-06
139.6419778010441,49.64535976783915,12.5,0,-13.29829712980568,0.5379790975333809,1.62972316445939,-4.298493409340487e-05,1.236017081595136e-05,1.303778531567512e-05,3.71903037425619e-06,3.441073171718974e-06
143.4100473640868,40.42551440746933,12.5,0,-14.5964644266157,0.2030029228030745,1.592326496074032,-4.687108850341269e-05,1.23267808942624e-05,1.273861196859226e-05,3.805859537234162e-06,3.833988912794971e-06
147.537699162777,36.93073225153383,12.5,0,-14.52725701470796,0.009648698259755673,1.576516490649236,-4.649494140567326e-05,1.165268144619758e-05,1.261213192519389e-05,3.673157958152086e-06,4.057440830829387e-06
146.3719443005803,44.66884090373599,12.5,0,-14.36857729464394,0.4388797363467414,1.442641266411128,-4.633055113193799e-05,1.289927699202472e-05,1.154113013128902e-05,3.87025174274859e-06,3.65152388374718e-06
150.2574922707946,41.79564639786716,12.5,0,-14.30660709909972,0.2095851543506897,1.434768006506119,-4.594881084059966e-05,1.211595817320198e-05,1.147814405204895e-05,3.71501982974927e-06,3.800482013426919e-06
236.625836800378,74.7850689524643,12.5,0,-8.829114689280608,1.797811802912717,-1.244821513599501,-2.969141644802812e-05,1.281628952074518e-05,-9.958572108796008e-06,3.604120266708754e-06,3.683278699803301e-06
238.7392678637127,74.64646355740848,12.5,0,-8.771320315122049,1.930587981949763,-1.091676771696688,-2.961269539395036e-05,1.319493779433688e-05,-8.733414173573502e-06,3.677713494347753e-06,3.683539118515061e-06
236.200133070361,76.40831327038018,12.5,0,-8.50093221756093,1.904795139997809,-1.175164370252613,-2.872681920819322e-05,1.289609022204173e-05,-9.401314962020901e-06,3.623951055695822e-06,3.700822403336446e-06
238.4202719898076,76.46305444297535,12.5,0,-8.481089526149351,2.018012110474378,-1.038961938958365,-2.875389617205742e-05,1.324251037443749e-05,-8.311695511666918e-06,3.695341590277932e-06,3.705699875773385e-06
237.3631772897257,71.97352732078707,12.5,0,-9.376022579191201,1.733874920870659,-1.196884999155275,-3.139037219010837e-05,1.304921781013907e-05,-9.575079993242196e-06,3.642360880060464e-06,3.667842224189182e-06
239.2917849247111,71.50003584709667,12.5,0,-9.26683623850556,1.8002410891513,-1.042186759481247,-3.109406883453883e-05,1.317424047608861e-05,-8.337494075849974e-06,3.64501616869699e-06,3.664287567477905e-06
236.9374735597087,73.59677163870292,12.5,0,-9.017150158552782,1.832671560095589,-1.14798268571265,-3.032101775544537e-05,1.307826911914811e-05,-9.1838614857012e-06,3.647820573388349e-06,3.674441687434833e-06
238.9727890508061,73.31662673266352,12.5,0,-8.957812166875472,1.882743265952255,-1.009979333387609,-3.017119354676331e-05,1.319102818454759e-05,-8.079834667100872e-06,3.651500314360304e-06,3.672442723950924e-06
240.7036237013257,71.15341603141938,12.5,0,-9.468388534710112,1.632261891699474,-1.341836052168107,-3.160465282443193e-05,1.27979488812064e-05,-1.073468841734485e-05,3.608864902923525e-06,3.662742294947619e-06
242.6322313363112,70.67992455772898,12.5,0,-9.359146433605286,1.702710513833366,-1.18831027023274,-3.13114369986036e-05,1.2935990791151e-05,-9.506482161861923e-06,3.610154206137572e-06,3.662075188594434e-06
240.462743399658,73.1115464279698,12.5,0,-9.04536985561097,1.743635332362273,-1.304120853500045,-3.034009180384492e-05,1.281592894804805e-05,-1.043296682800036e-05,3.612335311964611e-06,3.671348001273536e-06
242.4980588907553,72.8314015219304,12.5,0,-8.983814824887499,1.799075178640251,-1.163309624452042,-3.01874675825522e-05,1.29440924315588e-05,-9.30647699561634e-06,3.61487014454233e-06,3.670356126782496e-06
240.2864067803022,74.54499736602877,12.5,0,-8.776774853728561,1.825223788757029,-1.380527128022767,-2.954585856293702e-05,1.286213600700534e-05,-1.104421702418214e-05,3.65584139343698e-06,3.683713844873632e-06
242.3998378436368,74.40639197097295,12.5,0,-8.746568334273846,1.849353381530682,-1.232651108204846,-2.946850137490085e-05,1.291518548831726e-05,-9.861208865638766e-06,3.632316428479805e-06,3.683930787450929e-06
240.0455264786344,76.50312776257921,12.5,0,-8.397940782409417,1.921894547007556,-1.356694881541026,-2.841092614131618e-05,1.286841517635171e-05,-1.085355905232821e-05,3.671593792307027e-06,3.708892251543063e-06
242.265665398081,76.55786893517438,12.5,0,-8.402877476274559,1.936179192177461,-1.218826632165809,-2.843815127782055e-05,1.291807539598752e-05,-9.750613057326468e-06,3.647369331722182e-06,3.712736511906111e-06
229.8567465003476,73.33507616782268,12.5,0,-9.0428372099644,1.686722076802062,-0.9100797114081316,-3.028645673332773e-05,1.263178041373812e-05,-7.280637691265053e-06,3.475253334476209e-06,3.661966885076747e-06
231.7919864469489,73.81948190156623,12.5,0,-9.04955626160382,1.923928244801356,-0.8284946831102566,-3.049772263297331e-05,1.339621539264739e-05,-6.627957464882053e-06,3.6730742261401e-06,3.665555257396472e-06
228.6572675143397,75.70150591490042,12.5,0,-8.720994429689114,1.891438034325531,-0.7571465037219615,-2.942033260246559e-05,1.302939725359299e-05,-6.057172029775692e-06,3.567186124988911e-06,3.685122765060651e-06
230.8296602679607,75.92318241632779,12.5,0,-8.685428582062544,2.143118322612799,-0.6598296848332827,-2.950786612069037e-05,1.380632149801099e-05,-5.278637478666262e-06,3.784197963991042e-06,3.688168497355084e-06
231.9343050466872,69.23629961341533,12.5,0,-9.661121676565635,1.561458993669265,-0.8924969776390591,-3.216475655994544e-05,1.272556612099416e-05,-7.139975821112473e-06,3.49629514645005e-06,3.661091839474228e-06
233.4587842823802,70.17576572615592,12.5,0,-9.717846176008528,1.715288793216787,-0.8721309188365503,-3.246933879780072e-05,1.326320107910054e-05,-6.977047350692402e-06,3.633231535568496e-06,3.65954771150128e-06
230.7348260606793,71.60272936049306,12.5,0,-9.420926565647258,1.730625430167823,-0.7662617344708742,-3.153146535420548e-05,1.307474262905484e-05,-6.130093875766993e-06,3.567772489699861e-06,3.655527817972693e-06
232.4964581033919,72.27946624091746,12.5,0,-9.440086238108579,1.899968155519923,-0.7289871047354313,-3.172825048636339e-05,1.363196708815061e-05,-5.83189683788345e-06,3.714390468524879e-06,3.657886340940441e-06
234.5747805379437,70.86350265264204,12.5,0,-9.344539694461337,1.641961297522665,-1.046557020000508,-3.121609606029441e-05,1.27299079076416e-05,-8.372456160004064e-06,3.524984183805276e-06,3.661129750581679e-06
236.0992597736366,71.80296876538264,12.5,0,-9.404176450796356,1.812578460479222,-1.025894144598949,-3.154342741093171e-05,1.332359223417059e-05,-8.207153156791595e-06,3.68008014952874e-06,3.666996089702019e-06
233.7860622628441,72.77487202072274,12.5,0,-9.152134447062796,1.764655896525335,-0.9475545316088942,-3.069855494782121e-05,1.296860642653131e-05,-7.580436252871154e-06,3.572253592657187e-06,3.662220364608724e-06
235.5476943055567,73.45160890114714,12.5,0,-9.17070252717887,1.945797644371877,-0.9096147899445941,-3.090288620246988e-05,1.35631144837331e-05,-7.276918319556753e-06,3.730907271745796e-06,3.671702614504435e-06
233.2086804126376,74.17409151012913,12.5,0,-8.850294502667577,1.757103542507033,-1.06117545699207,-2.972662524254187e-05,1.270296693815657e-05,-8.489403655936563e-06,3.528426323163093e-06,3.670316391882401e-06
235.1439203592389,74.65849724387272,12.5,0,-8.875144085472233,1.946064855828673,-0.9655148589129514,-2.995731295817408e-05,1.332752280702954e-05,-7.724118871303611e-06,3.684727676663674e-06,3.679735680880453e-06
232.419962137538,76.08546087820984,12.5,0,-8.590890257964858,1.885516920436477,-0.9620431360629406,-2.899926236183672e-05,1.290636635176861e-05,-7.696345088503524e-06,3.573909978011621e-06,3.691344535707447e-06
234.5923548911589,76.30713737963724,12.5,0,-8.570432644826946,2.083535435017164,-0.8560545436465429,-2.909221281145995e-05,1.352365950791648e-05,-6.848436349172343e-06,3.737196582757498e-06,3.696975901558824e-06
221.412568942002,72.40449601148822,12.5,0,-9.364094312535073,1.745585989362688,-0.5640023022951716,-3.136157059160238e-05,1.307715061598866e-05,-4.512018418361373e-06,3.54283014910785e-06,3.637707935631027e-06
223.9095477275041,72.64763894945207,12.5,0,-9.351487172010147,1.933347545716003,-0.430157459148748,-3.147143698700527e-05,1.366790188389933e-05,-3.441259673189984e-06,3.69248791916054e-06,3.644732462867195e-06
220.6655636802152,75.13387475370975,12.5,0,-8.914084887189116,1.916453406053416,-0.4341126515638885,-3.00582343638479e-05,1.326391880912222e-05,-3.472901212511108e-06,3.588475973012557e-06,3.651069513486521e-06
222.9884739020721,75.29090508384628,12.5,0,-8.888029822137515,2.125026088907856,-0.285210463206963,-3.014171630196633e-05,1.391050734221515e-05,-2.281683705655704e-06,3.767436552598415e-06,3.663264966791375e-06
222.7064200089149,67.67707335694702,12.5,0,-10.15576684143762,1.54848503806901,-0.5833492032119919,-3.373724192305558e-05,1.307976559497093e-05,-4.666793625695935e-06,3.552578129910219e-06,3.634233759800381e-06
225.5048943906455,68.06936770683735,12.5,0,-10.16556294343805,1.726713108617999,-0.4383866835556502,-3.391117190589617e-05,1.365793230232804e-05,-3.507093468445202e-06,3.687363243959936e-06,3.632815228930573e-06
221.9594147471281,70.40645209916856,12.5,0,-9.718883925523285,1.708327239175071,-0.4659121319962117,-3.246709035301457e-05,1.324175430577885e-05,-3.727297055969693e-06,3.577293659975717e-06,3.633196809026997e-06
224.5838205652135,70.71263384123158,12.5,0,-9.718960638267914,1.903696860919431,-0.3073081992081611,-3.262363153119286e-05,1.386699846555651e-05,-2.458465593665289e-06,3.733908139293145e-06,3.636573480197908e-06
227.5535198216651,68.35654710246706,12.5,0,-10.00969994838763,1.428427665857788,-0.8413139828391598,-3.317378196752665e-05,1.257872848945503e-05,-6.730511862713278e-06,3.457086617993215e-06,3.638500723972288e-06
230.3519942033957,68.74884145235741,12.5,0,-9.983992434369675,1.7406805635035,-0.7090683832998733,-3.334132024078576e-05,1.355737175070694e-05,-5.672547066398986e-06,3.687530748908111e-06,3.655452316162902e-06
226.5050189636497,70.93677443276212,12.5,0,-9.591257144307813,1.653546435109624,-0.6638245449982551,-3.201486000987269e-05,1.296435430779704e-05,-5.31059635998604e-06,3.524625905220003e-06,3.641371331695188e-06
229.1294247817351,71.24295617482514,12.5,0,-9.553102705035192,1.995758551759986,-0.5168404758638392,-3.21665354975206e-05,1.402890952966011e-05,-4.134723806910713e-06,3.797846900299873e-06,3.651102634582573e-06
225.7374630638355,72.8256319335356,12.5,0,-9.254987150912019,1.673732535548623,-0.785319109498537,-3.095494491135736e-05,1.275993383448521e-05,-6.282552875988296e-06,3.487196742611768e-06,3.650124769601304e-06
228.2344418493375,73.06877487149944,12.5,0,-9.216946524316493,1.951636737841765,-0.6666414494018447,-3.105553826808618e-05,1.361879478054684e-05,-5.333131595214758e-06,3.707285277777486e-06,3.657832298333342e-06
224.6889622058201,75.40585926383066,12.5,0,-8.846122564861606,1.895360801486547,-0.6103235092844747,-2.982388084874638e-05,1.314205261664623e-05,-4.882588074275798e-06,3.574577312805969e-06,3.671168998979829e-06
227.011872427677,75.5628895939672,12.5,0,-8.792857009210188,2.204704430041053,-0.4759015024875942,-2.990090597350544e-05,1.408933978349952e-05,-3.807212019900754e-06,3.84205651661639e-06,3.680567763199409e-06
212.7921187401651,72.46858222666268,12.5,0,-9.451258247737814,1.806696778451129,-0.1709818040408856,-3.16893838155219e-05,1.334243628923386e-05,-1.367854432327085e-06,3.586363374426004e-06,3.601076574828281e-06
215.2796277644899,72.41917004414196,12.5,0,-9.430896992558754,1.856031969026501,-0.008982882339777728,-3.166369595140921e-05,1.348401989493181e-05,-7.186305871822183e-08,3.622355296632346e-06,3.611473010786504e-06
212.6266277336209,74.832763643495,12.5,0,-8.98970935395845,1.925393831501796,-0.1399759325877205,-3.030738499786847e-05,1.33530277439725e-05,-1.119807460701764e-06,3.594665935907275e-06,3.600078015196904e-06
214.9470005406179,74.91140406535854,12.5,0,-8.992689579974362,1.971565054547034,0.03079530575100906,-3.035385869955558e-05,1.350315983852999e-05,2.463624460080725e-07,3.635646053124093e-06,3.613671987841208e-06
213.0787575716901,68.37369989447252,12.5,0,-10.23369264262555,1.609291783411974,-0.1492304858034926,-3.403524988313133e-05,1.333668782101875e-05,-1.193843886427941e-06,3.591141368081178e-06,3.62468718546103e-06
215.8557550162063,68.10249409512069,12.5,0,-10.17207989564648,1.679668901990257,0.0332069570078305,-3.389439078766094e-05,1.3512604402886e-05,2.656556560626439e-07,3.633021979413641e-06,3.625992497778875e-06
212.913266565146,70.73788131130482,12.5,0,-9.7778549638029,1.726891983584795,-0.1164856817210339,-3.267064947103712e-05,1.334833831851366e-05,-9.318854537682716e-07,3.586918023071748e-06,3.607670582126748e-06
215.5231277923344,70.59472811633729,12.5,0,-9.734578683178237,1.795693889817107,0.07494424994494384,-3.258720689802404e-05,1.353388339395733e-05,5.995539995595506e-07,3.63528167517849e-06,3.614774281474539e-06
217.8886582379947,67.90395767069626,12.5,0,-10.27636944389208,1.517779113764326,-0.4104756634989329,-3.409860551146612e-05,1.307798871915951e-05,-3.283805307991464e-06,3.540029168771155e-06,3.62822061631995e-06
220.6656556825109,67.6327518713444,12.5,0,-10.18497629802057,1.712388628945395,-0.2287091482810572,-3.396183505682213e-05,1.362762465104172e-05,-1.829673186248457e-06,3.667388514900709e-06,3.63300263706187e-06
217.4336788112591,70.48993270435967,12.5,0,-9.788889839529187,1.670670906020755,-0.3083306899986297,-3.266098421131e-05,1.317725877088977e-05,-2.466645519989038e-06,3.549714902498307e-06,3.620456894571143e-06
220.0435400384476,70.34677950939211,12.5,0,-9.714235705082793,1.868902824009442,-0.1213772183518858,-3.258067651547248e-05,1.375187760089645e-05,-9.710177468150866e-07,3.695025701508145e-06,3.628878382923692e-06
217.1006107545043,72.38299781602545,12.5,0,-9.457788174137653,1.736770544121766,-0.3737824247495813,-3.16543385925379e-05,1.312389628049977e-05,-2.99025939799665e-06,3.538037143668769e-06,3.619474946224879e-06
219.5881197788291,72.33358563350471,12.5,0,-9.409557910286154,1.899084901718096,-0.2185082412254762,-3.162985323429017e-05,1.360471801372683e-05,-1.74806592980381e-06,3.660534034044924e-06,3.630940204444113e-06
216.6456313277687,74.96897284968887,12.5,0,-8.974065319886499,1.888299332397069,-0.2728413985617453,-3.022764848955445e-05,1.322181011957982e-05,-2.182731188493962e-06,3.563395611682844e-06,3.624555935201172e-06
218.9660041347657,75.04761327155241,12.5,0,-8.946641978997654,2.052769514823706,-0.1133530246376975,-3.027146994465145e-05,1.372617603063398e-05,-9.068241971015804e-07,3.70317759024782e-06,3.640697459732458e-06
107.8102632937868,84.16002364989843,12.5,0,-6.620631369614655,-0.2819581245079437,1.918691384305339,-2.096045388316054e-05,4.394239097266304e-06,1.534953107444271e-05,1.889344372204884e-06,2.001745598074884e-06
110.9464267925878,85.54843170722212,12.5,0,-6.851207548815127,-0.3271582324424649,2.114609885439126,-2.166213757025443e-05,4.434059695236213e-06,1.691687908351301e-05,1.994761636485651e-06,2.006590384609395e-06
107.525760621283,86.67295408071462,12.5,0,-6.246023753867701,-0.1873079922823209,1.938111178920207,-1.983742961855078e-05,4.397433427790734e-06,1.550488943136166e-05,1.88649588986726e-06,1.923314477401367e-06
111.1458356600458,88.33501804088786,12.5,0,-6.453176145620651,-0.2283215641823713,2.107675574544791,-2.046750641464018e-05,4.431911911112932e-06,1.686140459635833e-05,1.980602242396574e-06,1.933810816981932e-06
102.3782687731179,81.75523035301904,12.5,0,-7.038500888528497,-0.4279940341929427,1.894378056517838,-2.218080761593684e-05,4.261219801405381e-06,1.51550244521427e-05,1.876263941126906e-06,2.006045131825905e-06
105.514432271919,83.1436384103427,12.5,0,-7.191302932920581,-0.3375813435179056,2.030086268914548,-2.274210431053153e-05,4.672782047079166e-06,1.624069015131639e-05,2.01102346995673e-06,2.001599498031882e-06
101.2556067270465,83.79417485631718,12.5,0,-6.785838893596223,-0.3243027296759051,1.973756637269853,-2.145524227576719e-05,4.390902379914082e-06,1.579005309815883e-05,1.920092652366001e-06,1.927165462220142e-06
104.8756817658093,85.45623881649041,12.5,0,-6.922674056017902,-0.2483395497125724,2.089282905581173,-2.195388533948723e-05,4.743452685734089e-06,1.671426324464939e-05,2.039662221151423e-06,1.921533859959583e-06
104.3227764766079,78.2236748795568,12.5,0,-7.639404731342023,-0.3022634793137593,1.905202447432375,-2.420428435684347e-05,5.144280651269589e-06,1.5241619579459e-05,2.063949184225837e-06,2.141049530883498e-06
106.6207806018413,79.13809700936243,12.5,0,-7.756669240271702,-0.2556415968647288,2.022709363095367,-2.461682829137766e-05,5.387282282250229e-06,1.618167490476294e-05,2.15929468793732e-06,2.142269816601619e-06
103.2001144305365,80.26261938285496,12.5,0,-7.372922944297365,-0.2044091079368222,1.981195886036762,-2.342982613540211e-05,5.24422921004006e-06,1.584956708829409e-05,2.098546288980631e-06,2.06335519529635e-06
105.9820300957317,81.45069741551015,12.5,0,-7.475996635009136,-0.1687099647381511,2.075594397978208,-2.378822126023871e-05,5.440925420845225e-06,1.660475518382566e-05,2.178555598430012e-06,2.060745519352785e-06
108.3030363774436,79.80750046791704,12.5,0,-7.424648881772023,-0.2702468522701429,1.956129497979097,-2.354267893985436e-05,5.074929178153161e-06,1.564903598383277e-05,2.060692961015234e-06,2.142846628970446e-06
110.6010405026771,80.72192259772268,12.5,0,-7.638365270018554,-0.3767361013749428,2.152646962404169,-2.414137998295942e-05,4.905136691615026e-06,1.722117569923335e-05,2.124473554968136e-06,2.143202223950463e-06
108.0185337049398,82.32043089873324,12.5,0,-6.960583628056833,-0.15980688848661,1.956193179893024,-2.214602209899257e-05,5.057084859288314e-06,1.564954543914419e-05,2.037121396567418e-06,2.060569060798654e-06
110.8004493701351,83.50850893138843,12.5,0,-7.149012204416921,-0.2507004555938854,2.118874363049275,-2.267627868965903e-05,4.916968305633102e-06,1.69509949043942e-05,2.091736933319769e-06,2.062696643006883e-06
205.2904579994859,73.01890634698961,12.5,0,-9.43223886306836,1.642238788895361,0.1693597726990739,-3.149695539293504e-05,1.280095521491984e-05,1.354878181592591e-06,3.441812545688302e-06,3.553655725748585e-06
207.41796190711,72.84711005472082,12.5,0,-9.360703126523942,1.804721443195872,0.3271696877344299,-3.139802715943331e-05,1.326367111944594e-05,2.617357501875439e-06,3.572955656069008e-06,3.567654586573235e-06
204.8874705196349,74.6619395872912,12.5,0,-9.089040594156593,1.757169394500198,0.2477198585169383,-3.049066541690125e-05,1.289417453772591e-05,1.981758868135506e-06,3.469518126477303e-06,3.54924681236345e-06
207.1113802463439,74.70778728578237,12.5,0,-9.061387793769214,1.896745516621881,0.3871244642156756,-3.051383735335898e-05,1.331869588820539e-05,3.096995713725405e-06,3.596577094907395e-06,3.564964264740981e-06
205.9884527893896,70.1730892963139,12.5,0,-9.996840995610373,1.591118777279747,0.1748133285644793,-3.326278620777699e-05,1.308905288378349e-05,1.398506628515835e-06,3.524326486935183e-06,3.573824615796342e-06
207.9489769202162,69.62432255409354,12.5,0,-9.861730056317459,1.701219323868171,0.337103101023948,-3.29185116393104e-05,1.333328588143211e-05,2.696824808191584e-06,3.592810693947136e-06,3.588883518998658e-06
205.5854653095385,71.81612253661547,12.5,0,-9.624050847073402,1.701132980995594,0.2361142756480017,-3.215786909543136e-05,1.314286621684462e-05,1.888914205184014e-06,3.535670977256035e-06,3.560241328329954e-06
207.6423952594501,71.48499978515508,12.5,0,-9.545852212451187,1.789799211505033,0.3797930000833008,-3.197856644904782e-05,1.336403924677706e-05,3.038344000666406e-06,3.602839440248904e-06,3.574063731434935e-06
209.384180193385,69.22259741730126,12.5,0,-10.17920183004314,1.536209357823867,0.0172833742957863,-3.380241334239713e-05,1.305923140907089e-05,1.382669943662904e-07,3.518254866025805e-06,3.600695888644113e-06
211.3447043242115,68.67383067508088,12.5,0,-10.04062058237842,1.65905079868166,0.1813099198011029,-3.345722650255627e-05,1.334145902168405e-05,1.450479358408824e-06,3.589804638943134e-06,3.617908979472336e-06
209.1481724903314,71.24260110755439,12.5,0,-9.728407951642076,1.660132940986931,0.07533352234192114,-3.245901179804419e-05,1.309515177247184e-05,6.026681787353692e-07,3.519455335162033e-06,3.584606405653753e-06
211.2051024402429,70.91147835609398,12.5,0,-9.64476117193812,1.763295545921507,0.2243903814105777,-3.227387218693919e-05,1.335835468449932e-05,1.795123051284622e-06,3.592403989866498e-06,3.599587124163458e-06
208.9754028607259,72.72134644023345,12.5,0,-9.448910692803477,1.726132311175578,0.03782790937434388,-3.161742006591159e-05,1.308275195000463e-05,3.026232749947511e-07,3.513808713740297e-06,3.57795443965529e-06
211.1029067683499,72.54955014796461,12.5,0,-9.393729478110105,1.828353153671789,0.1874379593920156,-3.152261685288976e-05,1.336571367423781e-05,1.499503675136125e-06,3.593614674154181e-06,3.592095300762506e-06
208.7393951576723,74.74135013048658,12.5,0,-9.055323148523241,1.834847019626622,0.09027604019233929,-3.044491169097567e-05,1.311576898162378e-05,7.222083215387143e-07,3.525541621989762e-06,3.575870413566854e-06
210.9633048843813,74.78719782897774,12.5,0,-9.040751271694047,1.92155491493491,0.2274483120269294,-3.046764800136888e-05,1.338157674514695e-05,1.819586496215435e-06,3.604880933871489e-06,3.589949113897781e-06
95.61099731543882,79.70949285855431,12.5,0,-7.484273016461676,-0.3862652263119262,1.974701084874551,-2.364066147162782e-05,4.751369688971177e-06,1.579760867899641e-05,2.015767110425739e-06,1.999821604655599e-06
98.03382192424988,77.46288097844275,12.5,0,-7.523008118077987,-0.479898746718648,1.936951914067662,-2.368970698047464e-05,4.482730504962716e-06,1.54956153125413e-05,1.958129771509779e-06,2.097314388735928e-06
98.77314201051777,82.25433891782932,12.5,0,-7.472036555107716,-0.2578953389487748,1.944230780468915,-2.370420070518567e-05,5.152364159450093e-06,1.555384624375132e-05,2.071792334638327e-06,1.94814260018804e-06
100.3738452716304,80.23307598679172,12.5,0,-7.52088975419715,-0.3619619305348794,1.89060225880591,-2.377727766900297e-05,4.858433625646105e-06,1.512481807044728e-05,2.00250207030705e-06,2.031691859492889e-06
93.98078259576218,72.6647624771949,12.5,0,-8.234239920913522,-0.5500970890133245,1.922302970778272,-2.590949007571261e-05,4.827081251888179e-06,1.537842376622618e-05,2.055839515827488e-06,2.22797164719973e-06
96.32080594314274,75.43495748554383,12.5,0,-8.122278208581193,-0.3792011327079763,1.831238065845165,-2.568792936129343e-05,5.284378942199429e-06,1.464990452676132e-05,2.091024630732679e-06,2.149907399340892e-06
90.1340020427761,75.30169018652779,12.5,0,-8.240160693302593,-0.3698616537978134,1.942380763885753,-2.607262489553005e-05,5.408571262489071e-06,1.553904611108603e-05,2.159740536088679e-06,2.105867173022328e-06
93.29614673785505,77.8465362458028,12.5,0,-8.138788858998426,-0.1804850425073181,1.862722815418498,-2.589973631478911e-05,5.933478951175323e-06,1.490178252334798e-05,2.215643033565772e-06,2.042083776571775e-06
96.79682140599617,70.73439741815905,12.5,0,-9.074209115579624,-0.290707032740142,1.897374395822438,-2.880490354366268e-05,6.329104787695244e-06,1.51789951665795e-05,2.358142365946086e-06,2.31792302429969e-06
100.6436019589822,68.09746970882614,12.5,0,-8.932771165340164,-0.330357423595276,1.965123771884496,-2.83205817902123e-05,6.089073176767247e-06,1.572099017507597e-05,2.329829087282963e-06,2.441570282580614e-06
98.5350101569001,73.66955930665539,12.5,0,-8.86375588870372,-0.2003004113227043,1.827348870336108,-2.820377851479374e-05,6.450043394730322e-06,1.461879096268887e-05,2.341663086281185e-06,2.227657852446592e-06
101.5596693621877,71.25798054639644,12.5,0,-8.665344450071311,-0.2394061468565551,1.903503378735866,-2.753757732274295e-05,6.166175890116072e-06,1.522802702988693e-05,2.304097084420381e-06,2.332252417882781e-06
99.80745263565237,75.81824693738318,12.5,0,-8.243650262269536,-0.2918071897212902,1.932600523264195,-2.614623508748548e-05,5.6611372027075e-06,1.546080418611356e-05,2.199662635209856e-06,2.167081164043193e-06
102.2302772444634,73.57163505727161,12.5,0,-8.139383452109401,-0.2735159693073317,1.972721932503521,-2.582721427130422e-05,5.636255659904059e-06,1.578177546002817e-05,2.204038454722486e-06,2.260194754790657e-06
101.5456413865563,78.75340882587952,12.5,0,-8.077516724119249,-0.2436739784208533,1.891639683444293,-2.565311433444491e-05,5.682256648348668e-06,1.513311746755435e-05,2.178142352584905e-06,2.091847745416901e-06
103.1463446476689,76.73214589484192,12.5,0,-7.899655707901067,-0.2088974742096905,1.940333441749918,-2.511178028591566e-05,5.651252648849843e-06,1.552266753399934e-05,2.180790826195002e-06,2.172647422837757e-06
198.5254209704257,71.64471370161569,12.5,0,-9.52078977890084,1.419371221172272,0.4500255070803049,-3.16020242694205e-05,1.215861973087194e-05,3.600204056642439e-06,3.295627804202919e-06,3.510146203842861e-06
200.457689947672,72.10857396669661,12.5,0,-9.526591121928838,1.674467203870253,0.5413208871188043,-3.182466535326848e-05,1.297956794992788e-05,4.330567096950434e-06,3.514442679190099e-06,3.520464984005939e-06
197.3456910342968,73.97544281791374,12.5,0,-9.172828849438872,1.637797202309508,0.6132878481364151,-3.066329008005199e-05,1.257921412694152e-05,4.906302785091321e-06,3.415756950760126e-06,3.495716586315525e-06
199.5172877190783,74.191614177605,12.5,0,-9.134900024404784,1.905805374825296,0.7198184213180931,-3.075632437795554e-05,1.340649721896477e-05,5.758547370544745e-06,3.656664999879118e-06,3.511433911094097e-06
200.5687731589744,67.6077724535799,12.5,0,-10.13670179056957,1.370497512072893,0.4254013041990289,-3.353384373948093e-05,1.249495347108891e-05,3.403210433592231e-06,3.394180994804849e-06,3.562744656447376e-06
202.0865143871179,68.50064248725911,12.5,0,-10.20221842179735,1.524096887371664,0.4560595097636503,-3.386637645964885e-05,1.30388847770272e-05,3.648476078109203e-06,3.531867209239366e-06,3.560985005659195e-06
199.3890432228454,69.93850156987794,12.5,0,-9.86928223877149,1.546208459064375,0.5566750905384023,-3.281866993132027e-05,1.284329286002319e-05,4.453400724307218e-06,3.484709199423535e-06,3.528106321104349e-06
201.1461121585243,70.58368269816751,12.5,0,-9.893766415606896,1.714527549729677,0.6035652907776555,-3.303167456972581e-05,1.340150129162048e-05,4.828522326221244e-06,3.633699563220761e-06,3.533742159778322e-06
203.1975780788137,69.15426871644026,12.5,0,-9.891023722688754,1.474607637225573,0.3066393629999826,-3.283096202238447e-05,1.263156341727283e-05,2.45311490399986e-06,3.412637492669734e-06,3.562025556898794e-06
204.7153193069573,70.04713875011947,12.5,0,-9.963582320942221,1.65063526737644,0.340206141788901,-3.320397164091626e-05,1.325289871235839e-05,2.721649134311208e-06,3.573311225424478e-06,3.566628046541562e-06
202.4323758917874,71.05598806414,12.5,0,-9.664970628885502,1.607184769027159,0.4133030553934948,-3.221365382765533e-05,1.287496776399531e-05,3.306424443147958e-06,3.476922682718368e-06,3.539899852892467e-06
204.1894448274663,71.70116919242956,12.5,0,-9.690524180901662,1.792892275567679,0.4635004737404925,-3.244399119933946e-05,1.34896746265379e-05,3.70800378992394e-06,3.64293566264349e-06,3.55108714466447e-06
201.8722090128452,72.44814324833378,12.5,0,-9.385056857149877,1.549295496946668,0.3360352552126132,-3.127161834043694e-05,1.246579107594924e-05,2.688282041700906e-06,3.362278172090826e-06,3.529374972636491e-06
203.8044779900914,72.9120035134147,12.5,0,-9.4066749894182,1.758901430021697,0.4387243523336463,-3.150848111015559e-05,1.315382456760399e-05,3.50979481866917e-06,3.551213436390063e-06,3.543398734107979e-06
201.1070068258189,74.34986259603355,12.5,0,-9.107628987849226,1.686845578469098,0.4429432868577159,-3.04938892238928e-05,1.268400904138049e-05,3.543546294861727e-06,3.425992312671254e-06,3.522746169038693e-06
203.2786035106004,74.56603395572483,12.5,0,-9.083554293331757,1.903314158996109,0.5552828054381496,-3.05900250658585e-05,1.335744874345295e-05,4.442262443505197e-06,3.623012166862567e-06,3.537934507714394e-06
190.1640124450383,70.7215709141623,12.5,0,-9.706227433653865,1.319294462419053,0.7108322615408441,-3.211536335762761e-05,1.198672422666406e-05,5.686658092326753e-06,3.286248575550201e-06,3.434375518773662e-06
192.6346259712216,70.96474057664038,12.5,0,-9.684566388602949,1.548760201583696,0.8471186882859049,-3.222962060479639e-05,1.270368575595018e-05,6.776949506287239e-06,3.483659230224995e-06,3.457322245763712e-06
189.3761650957109,73.40980449370851,12.5,0,-9.244737760872246,1.50958800163557,0.8616113447478326,-3.079083123609964e-05,1.222647181393162e-05,6.892890757982661e-06,3.359545911202046e-06,3.411000303160707e-06
191.6920107676254,73.56684198465706,12.5,0,-9.208286100024548,1.762437537560939,1.012857326616813,-3.087646555012731e-05,1.300642900021464e-05,8.102858612934506e-06,3.594225082309392e-06,3.437308133107078e-06
191.5286040826574,66.06541377185917,12.5,0,-10.50322744511995,1.182302548341319,0.6244644386003978,-3.455616986305687e-05,1.218595011078817e-05,4.995715508803182e-06,3.353700094760027e-06,3.499664255477598e-06
194.2672833958078,66.45776873158999,12.5,0,-10.5043490838257,1.409379458397931,0.77306932342569,-3.474142063496059e-05,1.291349353393394e-05,6.18455458740552e-06,3.542708789189878e-06,3.516035377234974e-06
190.74075673333,68.75364735140539,12.5,0,-10.04377867494814,1.365379140783519,0.7660621095699005,-3.323239507246087e-05,1.240423619046577e-05,6.128496876559204e-06,3.404705611813431e-06,3.458132953193985e-06
193.3246681922116,69.05987013960666,12.5,0,-10.03350078798068,1.612699704791013,0.9284592067664726,-3.339736228537098e-05,1.318743968571578e-05,7.427673654131781e-06,3.623979617429661e-06,3.478417147249453e-06
196.2721357985866,66.74499249670237,12.5,0,-10.417794950106,1.172752833624338,0.4359472287542737,-3.427514610723867e-05,1.208704502768268e-05,3.487577830034189e-06,3.310305556541878e-06,3.530768254616212e-06
199.0108151117371,67.13734745643315,12.5,0,-10.39163006280466,1.499009727735592,0.5723029942429435,-3.445242398316339e-05,1.311013517899762e-05,4.578423953943548e-06,3.56465002984297e-06,3.554648102407768e-06
195.216222662292,69.28404077899584,12.5,0,-9.983891973880233,1.410025292344907,0.6221404301023968,-3.307647455029266e-05,1.249919451460789e-05,4.977123440819175e-06,3.408562294650849e-06,3.494337314036563e-06
197.8001341211736,69.5902635671971,12.5,0,-9.94451084530534,1.766010212406004,0.7731929641958111,-3.323524287490189e-05,1.360684135594348e-05,6.185543713566489e-06,3.709094649306897e-06,3.5175478245103e-06
194.4432405981778,71.14275312442615,12.5,0,-9.666576897129515,1.328443969718314,0.5340475734381752,-3.199580124658909e-05,1.198428222080221e-05,4.272380587505402e-06,3.264437297146212e-06,3.474311250673539e-06
196.913854124361,71.38592278690422,12.5,0,-9.624962602024056,1.630685223640538,0.6605151097700346,-3.21044285053894e-05,1.291816279726897e-05,5.284120878160277e-06,3.512371563341021e-06,3.497779348269148e-06
193.3873274618831,73.68180140671964,12.5,0,-9.234234095585709,1.567627446269193,0.7221150222358604,-3.080365106288962e-05,1.240379510452998e-05,5.776920177886884e-06,3.384031347956362e-06,3.456029968667487e-06
195.7031731337976,73.83883889766818,12.5,0,-9.176289762068112,1.90191844512745,0.8646184357924013,-3.088566199471992e-05,1.342717083406233e-05,6.91694748633921e-06,3.684273606169738e-06,3.480871144685277e-06
213.5799225269498,300.9726150225164,12.5,0,0.26698026671805,4.669465626118022,-1.205583983995472,-2.881235647396658e-06,1.472870579020323e-05,-9.644671871963776e-06,1.900426414014365e-05,1.905704962756135e-05
215.7429638684268,301.1289340730735,12.5,0,0.2003026299635787,4.424730027574967,-1.168583708761735,-2.898815606176521e-06,1.399889398426903e-05,-9.348669670093879e-06,1.785759871816003e-05,1.82605905655004e-05
212.733564622199,303.6298486803487,12.5,0,0.3558741751814466,4.587057637087799,-1.323034522701688,-2.53084874908961e-06,1.43938850985358e-05,-1.05842761816135e-05,1.901453058563883e-05,1.851990967892361e-05
214.7394130027719,304.2132393192371,12.5,0,0.2761943425558511,4.351829650096074,-1.269279541426036,-2.597641823898135e-06,1.370489940626275e-05,-1.015423633140829e-05,1.785676914586371e-05,1.770520146676978e-05
212.1139876345601,305.5750787253814,12.5,0,0.2434627148719429,4.398751080736758,-1.226694595154266,-2.739920176999188e-06,1.388123328646007e-05,-9.813556761234131e-06,1.791539310279198e-05,1.815658044441485e-05
214.0047627811639,306.4711074653841,12.5,0,0.1398893333323342,4.162404310650959,-1.149251637542331,-2.882277581857298e-06,1.32077823274172e-05,-9.194013100338651e-06,1.667212449744605e-05,1.731869970126127e-05
211.2676297298092,308.2323123832139,12.5,0,0.3793455300623461,4.321991115192397,-1.345998085330565,-2.243687195954409e-06,1.352689514456579e-05,-1.076798468264452e-05,1.809648551789604e-05,1.770108646445733e-05
213.001211915509,309.5554127115478,12.5,0,0.2555930740081644,4.094558929574355,-1.250951839209044,-2.457749306833358e-06,1.28981141154314e-05,-1.000761471367235e-05,1.681377920454922e-05,1.681814633936266e-05
208.8390690150126,304.0231114226828,12.5,0,0.3504127122558678,4.670370977303175,-1.4976534745685,-2.614976102623763e-06,1.466485695756546e-05,-1.1981227796548e-05,1.939231648266975e-05,1.959807067510279e-05
210.7298441616165,304.9191401626854,12.5,0,0.2434872293931385,4.448365129354385,-1.417232220826661,-2.779532969425465e-06,1.403997863041952e-05,-1.133785776661329e-05,1.818979573816106e-05,1.876733605608762e-05
208.2649773051348,305.9406353910696,12.5,0,0.4769739849579756,4.628135290508363,-1.579933698633295,-2.176191480541168e-06,1.442845374166038e-05,-1.263946958906636e-05,1.966433412100814e-05,1.920161404000346e-05
209.9985594908346,307.2637357194036,12.5,0,0.3450018308260507,4.411607809566892,-1.483107159492393,-2.425280389010151e-06,1.384114352595321e-05,-1.186485727593914e-05,1.839459280143771e-05,1.833973471000982e-05
209.833425024707,300.7018624847653,12.5,0,0.3851969993667429,4.877436764906411,-1.505499414821757,-2.669319013951551e-06,1.529964004820712e-05,-1.204399531857405e-05,2.028359225626182e-05,2.035772386789687e-05
211.9964663661841,300.8581815353225,12.5,0,0.3235517071819516,4.650379086824407,-1.472365960042271,-2.684937806477281e-06,1.462237171209254e-05,-1.177892768033817e-05,1.922240655894079e-05,1.961897480234141e-05
209.2593333148293,302.6193864531522,12.5,0,0.4458265700184988,4.822924850577336,-1.589687555520318,-2.431694856402673e-06,1.507669826583268e-05,-1.271750044416254e-05,2.03053636626115e-05,1.990784936983887e-05
211.2651816954022,303.2027770920405,12.5,0,0.3722961853077329,4.60345573350847,-1.540626125714334,-2.491416793822031e-06,1.443322139898092e-05,-1.232500900571467e-05,1.922879080621051e-05,1.911010740574271e-05
181.4659999097314,70.52928638168433,12.5,0,-9.707385648784603,1.248297432165688,1.03398708738421,-3.206227202184328e-05,1.176046030195788e-05,8.27189669907368e-06,3.282686640486192e-06,3.335671832440175e-06
183.98165952888,70.56262263668287,12.5,0,-9.685849568148797,1.354931226309722,1.188070459499651,-3.207866359912392e-05,1.208445957871015e-05,9.504563675997204e-06,3.3917976073802e-06,3.365619522686478e-06
181.316446384501,73.03999904869947,12.5,0,-9.249342697904968,1.369481992314602,1.088994978945779,-3.069348222714758e-05,1.17818165337307e-05,8.711959831566229e-06,3.289316533419442e-06,3.309185799971953e-06
183.6443621206473,73.14081184757055,12.5,0,-9.239517466034627,1.48073135483723,1.253249934672144,-3.075104097518058e-05,1.212995430830683e-05,1.002599947737715e-05,3.414344703513568e-06,3.339761712647701e-06
181.7250342138768,66.18060447928551,12.5,0,-10.44679317038177,1.129916140100296,1.003462559903135,-3.43336710573019e-05,1.197316618462636e-05,8.027700479225076e-06,3.353412377127224e-06,3.394043718374912e-06
184.5658757771898,66.09706793197978,12.5,0,-10.41114598657557,1.223275796543231,1.171870019658916,-3.42942877942764e-05,1.224339933819879e-05,9.374960157271326e-06,3.445103027745499e-06,3.423772718332026e-06
181.5754806886464,68.69131714630063,12.5,0,-10.01317439196424,1.24319199574103,1.045830348101571,-3.303671165087838e-05,1.198875389994269e-05,8.366642784812567e-06,3.348372910000377e-06,3.358409443146926e-06
184.2285783689571,68.67525714286744,12.5,0,-9.986287778362463,1.339935466470147,1.224512608804078,-3.3028069263936e-05,1.227682371539444e-05,9.796100870432625e-06,3.452303005425601e-06,3.388130203814219e-06
186.6455161376999,66.03591493506572,12.5,0,-10.54589623013965,1.09657598154606,0.7687372811572856,-3.462412872168373e-05,1.194576012505911e-05,6.149898249258284e-06,3.317419829397391e-06,3.447126199593209e-06
189.4863577010129,65.95237838776001,12.5,0,-10.47502734926013,1.32857147855178,0.9463266717475078,-3.458294470047384e-05,1.26314506107738e-05,7.570613373980063e-06,3.499015087738677e-06,3.481200096977969e-06
186.1707806683051,68.6635004043851,12.5,0,-10.06415100891106,1.256097559344977,0.8872029261131894,-3.321016127599136e-05,1.207083299703277e-05,7.097623408905515e-06,3.34284617092612e-06,3.409934182119731e-06
188.8238783486158,68.64744040095194,12.5,0,-10.00057943394209,1.499149370981773,1.073345655120068,-3.320117368540011e-05,1.279774153429535e-05,8.586765240960539e-06,3.550556867459719e-06,3.439782997992759e-06
185.8232501845678,70.58702646907486,12.5,0,-9.735683848173439,1.275349662796894,0.8658840932093935,-3.217446804439252e-05,1.186966599948881e-05,6.927072745675149e-06,3.280958582418048e-06,3.387019592307807e-06
188.3389098037164,70.62036272407342,12.5,0,-9.6948225347682,1.459021051668286,1.017597509087422,-3.219064895259286e-05,1.242472539315307e-05,8.140780072699375e-06,3.442277313188047e-06,3.415537979554974e-06
185.348514715173,73.21461193839426,12.5,0,-9.256973848403391,1.431144304171673,0.9776264665510126,-3.076723175822818e-05,1.198524085207207e-05,7.8210117324081e-06,3.318589124762301e-06,3.361607786177851e-06
187.6764304513192,73.31542473726535,12.5,0,-9.226428123122837,1.623853069274087,1.137275155321162,-3.082365244941234e-05,1.257747232017535e-05,9.098201242569294e-06,3.504562158702605e-06,3.390716456334896e-06
173.9437160177249,70.98930025569884,12.5,0,-9.612987917889015,1.00694447919486,1.244722112205227,-3.156711692060073e-05,1.091261266773476e-05,9.957776897641813e-06,3.124298552124787e-06,3.236360938097831e-06
176.0745508048325,70.83687799168638,12.5,0,-9.542345350696559,1.178300349606427,1.404595397497942,-3.147814540191413e-05,1.140443739929781e-05,1.123676317998354e-05,3.275328644535609e-06,3.264314084161815e-06
173.5717632137717,72.84497643492875,12.5,0,-9.227208105204905,1.131497644032572,1.329248789912134,-3.043226405188176e-05,1.100255894506815e-05,1.063399031929707e-05,3.153827335909148e-06,3.207489739214616e-06
175.7965654469484,72.89601538864518,12.5,0,-9.198007656424526,1.281390409547206,1.472184771929516,-3.045873682819625e-05,1.145885543569068e-05,1.177747817543613e-05,3.301935987150705e-06,3.235858240876522e-06
174.5879571721782,67.7751748309351,12.5,0,-10.24613832873725,0.9729918222804348,1.221558733833498,-3.356603610978354e-05,1.131048449428719e-05,9.772469870667982e-06,3.235113834546924e-06,3.290782049423573e-06
176.5560355684394,67.27034740045271,12.5,0,-10.11472667914639,1.103970190326297,1.385488797655459,-3.325030152552947e-05,1.162448595236126e-05,1.108391038124367e-05,3.337459431777878e-06,3.317430477867439e-06
174.2160043682248,69.630851010165,12.5,0,-9.833461075240795,1.095693781347686,1.291165619608968,-3.234363046584869e-05,1.137298896050523e-05,1.032932495687174e-05,3.24834272619464e-06,3.258679045353349e-06
176.2780502105553,69.3294847974115,12.5,0,-9.754348729473504,1.205600618390119,1.437757656298045,-3.21783964290273e-05,1.166140096242718e-05,1.150206125038436e-05,3.34945350021443e-06,3.286171299187651e-06
177.9967689477201,66.90078807230087,12.5,0,-10.4171237254986,0.9963758086604262,1.11190513024069,-3.413189656852385e-05,1.152210156811224e-05,8.895241041925523e-06,3.269007016710609e-06,3.339013953123768e-06
179.9648473439814,66.39596064181846,12.5,0,-10.28847915817013,1.134383915475688,1.26957188218579,-3.383064043852496e-05,1.18608118560583e-05,1.015657505748632e-05,3.371861257395539e-06,3.371332675686608e-06
177.7875725346131,69.10886941800071,12.5,0,-9.955416378899336,1.12354928845949,1.177791991281374,-3.275617184324547e-05,1.155969082618983e-05,9.422335930250989e-06,3.271295893333039e-06,3.307074436474256e-06
179.8496183769435,68.8075032052472,12.5,0,-9.875162046925061,1.243034531166105,1.321498967621449,-3.259494617509308e-05,1.187784013727158e-05,1.057199174097159e-05,3.375381470884307e-06,3.336690615746974e-06
177.6344301314641,70.72529715022932,12.5,0,-9.664815841727197,1.132855379855222,1.159407646635171,-3.18336949974112e-05,1.135698988891847e-05,9.275261173081366e-06,3.210530793415882e-06,3.285146667012061e-06
179.7652649185716,70.57287488621687,12.5,0,-9.612338630082304,1.235741659112025,1.311591671443236,-3.174807694355299e-05,1.164424421322432e-05,1.049273337154589e-05,3.311294523071746e-06,3.314109195750259e-06
177.4252337183571,72.93337849592918,12.5,0,-9.23232109383858,1.250146113674603,1.213389961950796,-3.054354439122314e-05,1.138632443882959e-05,9.707119695606366e-06,3.218598748593026e-06,3.257178403391655e-06
179.6500359515337,72.9844174496456,12.5,0,-9.218350287854753,1.338462297761548,1.353987769549476,-3.056949075934444e-05,1.165775958312075e-05,1.08319021563958e-05,3.319718249166014e-06,3.287057668949195e-06
167.2252793416355,69.72154570870968,12.5,0,-9.634020870936338,0.7577399418932051,1.412471117902617,-3.143505874051084e-05,1.013198451080733e-05,1.129976894322093e-05,2.990951896743774e-06,3.183245713424359e-06
169.1421130822326,70.1487608181661,12.5,0,-9.64811221827517,0.9740296281026457,1.515209992871353,-3.165318280096266e-05,1.08353845845486e-05,1.212167994297082e-05,3.174394324057968e-06,3.19499376329739e-06
166.0424702553786,72.1869996680565,12.5,0,-9.250608831372597,0.967698053361246,1.571112081240924,-3.03761067030813e-05,1.049712083585406e-05,1.256889664992739e-05,3.101489928528996e-06,3.132032493986789e-06
168.2099310809652,72.39335198789199,12.5,0,-9.223493643440335,1.190754743731862,1.683243840948088,-3.046778345399456e-05,1.118921009469422e-05,1.346595072758471e-05,3.298852432214579e-06,3.152802317837787e-06
169.2739647746496,65.45125418747585,12.5,0,-10.2844335914382,0.7663568365298876,1.380303903211953,-3.352327296182614e-05,1.06798887500462e-05,1.104243122569562e-05,3.133236359043535e-06,3.29165550175112e-06
170.7566996702999,66.26101487005025,12.5,0,-10.35902690647812,0.8909034827441631,1.426462809971902,-3.38616088869253e-05,1.113811266996381e-05,1.141170247977521e-05,3.246945960934346e-06,3.284148267038384e-06
168.0911556883929,67.91670814682269,12.5,0,-9.977323721505215,0.9369753328998769,1.509294297662753,-3.267701617513659e-05,1.098018004248378e-05,1.207435438130202e-05,3.216693147493166e-06,3.226016569446907e-06
169.8245176690325,68.50560603977614,12.5,0,-10.00923230365879,1.071900908963175,1.567156087132213,-3.288706409887866e-05,1.143746875160919e-05,1.25372486970577e-05,3.336996751645837e-06,3.230187804313694e-06
171.842136948025,66.85380083164115,12.5,0,-10.11061198515715,0.8629623819205765,1.309300816748298,-3.304432825803933e-05,1.084996921027156e-05,1.047440653398639e-05,3.14559571124444e-06,3.281321735103496e-06
173.3248718436752,67.66356151421556,12.5,0,-10.20285039391617,1.003882977600884,1.366841194080761,-3.345222764261245e-05,1.137470584345576e-05,1.093472955264609e-05,3.279239444747142e-06,3.281106740960573e-06
171.093426706715,68.93670921787,12.5,0,-9.820206799055816,1.00023513547311,1.418087715404132,-3.222484986535709e-05,1.10569178727586e-05,1.134470172323306e-05,3.205387135538491e-06,3.23528631054346e-06
172.8267886873547,69.52560711082347,12.5,0,-9.859351663310786,1.147560634178708,1.486188043306355,-3.246797382993748e-05,1.155967536002049e-05,1.188950434645084e-05,3.340181301713228e-06,3.245044453739696e-06
170.5453327699523,70.46150398403599,12.5,0,-9.533184352829842,0.8958636498759369,1.358894801830602,-3.122288084895624e-05,1.049331116186687e-05,1.087115841464482e-05,3.053057625161671e-06,3.204964862449672e-06
172.4621665105493,70.88871909349241,12.5,0,-9.562191799916658,1.071053907738078,1.473295007122813,-3.145585688592376e-05,1.107712594469517e-05,1.178636005698251e-05,3.216488641940276e-06,3.220458362069142e-06
169.7966225286422,72.54441237026485,12.5,0,-9.211099812655393,1.034107033147662,1.464468655449665,-3.030280502701538e-05,1.067802235619683e-05,1.171574924359732e-05,3.112370602701464e-06,3.168160550254893e-06
171.9640833542288,72.75076469010033,12.5,0,-9.196327946364125,1.211917201278844,1.582540597862874,-3.039778318938828e-05,1.12351974011836e-05,1.2660324782903e-05,3.278924196001075e-06,3.189350197683662e-06
158.5803211999485,68.97558136786785,12.5,0,-9.75384941019237,0.633720518247773,1.55059348456314,-3.17192945272138e-05,9.830985186546769e-06,1.240474787650512e-05,2.967876770933204e-06,3.088753140802918e-06
161.1442827541664,69.1658906816785,12.5,0,-9.73710799418099,0.8144363314894658,1.698603358920382,-3.181029464657074e-05,1.039588265611108e-05,1.358882687136305e-05,3.130559543041416e-06,3.11672761527535e-06
157.9969674260936,71.66883616553557,12.5,0,-9.276020821921406,0.7967962422385044,1.669012103475056,-3.03207036239393e-05,9.970564632700337e-06,1.335209682780045e-05,3.012360301783659e-06,3.030080060017748e-06
160.3378256267342,71.81170976874749,12.5,0,-9.251615412411368,0.9975633912207043,1.83325439383714,-3.040322003269294e-05,1.059349518183535e-05,1.466603515069712e-05,3.206309274596626e-06,3.060491626467087e-06
159.5907195750341,64.31072722066253,12.5,0,-10.53616467413966,0.5832122156781852,1.488959313320242,-3.418229672978945e-05,1.029521082948192e-05,1.191167450656193e-05,3.091574079784274e-06,3.202144151715636e-06
162.5411074729799,64.58319759532185,12.5,0,-10.53326312597466,0.7561156627685177,1.657256332745179,-3.431133453333371e-05,1.084618062163898e-05,1.325805066196143e-05,3.249245149527233e-06,3.227086380979177e-06
159.0073658011792,67.00398201833025,12.5,0,-10.07001685375351,0.7362939136971423,1.593518866070887,-3.281308906296894e-05,1.041215400683366e-05,1.27481509285671e-05,3.117990594525845e-06,3.134857575218327e-06
161.7346503455477,67.22901668239085,12.5,0,-10.06188018274499,0.925526979385499,1.77723483164368,-3.293843816829238e-05,1.101119048022959e-05,1.421787865314944e-05,3.301253845793884e-06,3.161366545208737e-06
164.7009413162208,64.78265975312132,12.5,0,-10.50488239997541,0.5560208951355339,1.341417951489023,-3.406044039602974e-05,1.018317278441404e-05,1.073134361191219e-05,3.033506206304026e-06,3.248512329750653e-06
167.6513292141666,65.05513012778066,12.5,0,-10.46604750968018,0.8657032916119833,1.497463719519072,-3.418391466426614e-05,1.114308854090249e-05,1.197970975615257e-05,3.269788420202756e-06,3.282106881133643e-06
163.7311611986379,67.39375348994039,12.5,0,-10.05267775249124,0.7750526964615028,1.514603278505113,-3.278861096514118e-05,1.05223108306698e-05,1.21168262280409e-05,3.120358029076483e-06,3.182358537218873e-06
166.4584457430065,67.61878815400098,12.5,0,-10.00555003053552,1.113933642671987,1.686046845698379,-3.290890701185126e-05,1.156902768097878e-05,1.348837476558703e-05,3.400651210994693e-06,3.213200755954677e-06
163.0212328804273,69.30520676853556,12.5,0,-9.748957793109815,0.6530881720166533,1.43596888889272,-3.171913547556473e-05,9.889048384941141e-06,1.148775111114176e-05,2.950410067551002e-06,3.13795136377654e-06
165.5851944346452,69.4955160823462,12.5,0,-9.709778074370208,0.9174009607302986,1.57336927555524,-3.18052106065689e-05,1.070350553383312e-05,1.258695420444192e-05,3.162357777060803e-06,3.16796124853889e-06
162.0514527628445,71.9163005053546,12.5,0,-9.292773648294315,0.8718627753867145,1.60840651309901,-3.043436589485117e-05,1.022417979987294e-05,1.286725210479208e-05,3.051400096044615e-06,3.082782502238185e-06
164.392310963485,72.05917410856652,12.5,0,-9.24375207072776,1.165900792224433,1.762012352162737,-3.051272726010837e-05,1.112588419170039e-05,1.40960988173019e-05,3.308989765879698e-06,3.113270740943283e-06
150.7365899378551,68.81699061161825,12.5,0,-9.725077121535687,0.4921270431950502,1.665085081684711,-3.151394842347023e-05,9.35486823545271e-06,1.332068065347769e-05,2.898923801515396e-06,2.998514723481215e-06
152.9654751324032,68.84569639764653,12.5,0,-9.698838564674574,0.6178126463031757,1.825441924218591,-3.153053352400117e-05,9.73607131990982e-06,1.460353539374873e-05,3.02516109740127e-06,3.024455443740789e-06
150.1661526921431,71.30805894065659,12.5,0,-9.231892184521289,0.6462427507229136,1.760565085105306,-3.005904919104645e-05,9.453490549930354e-06,1.408452068084245e-05,2.926528998666912e-06,2.933771086915421e-06
152.4172274528101,71.40763100910655,12.5,0,-9.219411961654933,0.765697693076647,1.915705794229387,-3.01146764317571e-05,9.825762187169215e-06,1.53256463538351e-05,3.059345415137232e-06,2.96036277477594e-06
151.7246162299404,64.50233370067568,12.5,0,-10.51586806151448,0.4626618699970955,1.643036555168571,-3.402090729284402e-05,9.89321243320229e-06,1.314429244134857e-05,3.04668019007352e-06,3.110972010481902e-06
153.9150679685731,64.4082954850083,12.5,0,-10.46865918078225,0.5840991971822405,1.80191127246354,-3.396698873624898e-05,1.024404477560897e-05,1.441529017970832e-05,3.159162712355055e-06,3.137190737088276e-06
151.1541789842283,66.99340202971402,12.5,0,-10.02673402710843,0.613816476187127,1.734809934255061,-3.257660206769668e-05,9.98559994548555e-06,1.387847947404049e-05,3.06469590421166e-06,3.045995567847425e-06
153.36682028898,66.97023009646831,12.5,0,-9.993928847141339,0.7289947843980467,1.888443824517088,-3.256376813837072e-05,1.032792638778682e-05,1.510755059613671e-05,3.182831102483391e-06,3.071836353440146e-06
155.5185899327116,64.33945473328956,12.5,0,-10.56393964376058,0.4755624472269022,1.566465313266604,-3.418505681781537e-05,9.972951546134549e-06,1.253172250613284e-05,3.046318012433543e-06,3.156556414975806e-06
157.7090416713444,64.24541651762216,12.5,0,-10.50688080456094,0.6377728105923488,1.722799285381108,-3.413223682306889e-05,1.044637763754427e-05,1.378239428304886e-05,3.181030738768727e-06,3.183245704283427e-06
154.9865861429149,66.95326706402358,12.5,0,-10.05964952328788,0.6379507617320672,1.675586426188994,-3.270123908390686e-05,1.008916205617292e-05,1.340469140951196e-05,3.071208481980884e-06,3.09056342094395e-06
157.1992274476666,66.93009513077786,12.5,0,-10.01689355388266,0.7932334979233211,1.826501124441022,-3.268864617076317e-05,1.055186203646076e-05,1.461200899552817e-05,3.212991253150999e-06,3.115885935250568e-06
154.5971323389811,68.86671049148954,12.5,0,-9.747983937406854,0.5403597141889827,1.631117454096588,-3.162583637105311e-05,9.527538235330226e-06,1.30489396327727e-05,2.926123045273035e-06,3.043367753699388e-06
156.8260175335291,68.89541627751781,12.5,0,-9.716160609236722,0.6873762969172574,1.783544078798456,-3.164161498709131e-05,9.9725326375246e-06,1.426835263038765e-05,3.063266117648115e-06,3.069096425137392e-06
154.0651285491843,71.48052282222355,12.5,0,-9.255162015029617,0.6971015350081364,1.73395749267631,-3.017419967610128e-05,9.634854524049729e-06,1.387165994141048e-05,2.958099495749599e-06,2.980419786916504e-06
156.3162033098513,71.58009489067351,12.5,0,-9.236560196797372,0.8377632744583607,1.881335744577002,-3.022720324931828e-05,1.007009063570465e-05,1.505068595661601e-05,3.102441798745816e-06,3.008624875274362e-06
323.4526774019052,211.1966136903941,12.5,0,13.19036720939192,-0.1985283730549301,-0.6588236064119213,4.236799776849807e-05,-1.118758456128931e-05,-5.27058885129537e-06,5.011703477694968e-05,5.016979522727625e-05
325.0882229723377,210.5969531100988,12.5,0,13.201267421206,-0.2012028600266942,-0.6469941105967185,4.240501803588054e-05,-1.120486308905022e-05,-5.175952884773748e-06,5.014989744926755e-05,4.969985695747434e-05
323.9801316452501,213.5862138460371,12.5,0,13.2419630439643,-0.1838194346901232,-0.6663344200991128,4.252133728843786e-05,-1.118179262617983e-05,-5.330675360792902e-06,5.036004033341444e-05,5.089698340342816e-05
325.3963403027195,212.8735874829679,12.5,0,13.25907239100435,-0.1855037685417691,-0.6535990169313083,4.257743466604732e-05,-1.120086997213714e-05,-5.228792135450466e-06,5.041964400234187e-05,5.04447815348099e-05
322.5390998537804,207.0577048111205,12.5,0,12.85036780233206,-0.2450973196640955,-0.8462218871676684,4.131725482319387e-05,-1.106460566479076e-05,-6.769775097341347e-06,4.868948107695598e-05,4.891828114391971e-05
324.5545481014335,206.6537067061027,12.5,0,12.8663044172728,-0.2466141983785692,-0.8141046699711998,4.136946549397581e-05,-1.108220896862966e-05,-6.512837359769598e-06,4.874269777967019e-05,4.840521814051331e-05
323.0665540971253,209.4473049667634,12.5,0,12.95704749010994,-0.2169409881334454,-0.8577129549541297,4.163610475885855e-05,-1.105984915411497e-05,-6.861703639633038e-06,4.91847782984171e-05,4.963960355479583e-05
324.8626654318153,208.9303410789718,12.5,0,12.98266893735888,-0.2165275131978768,-0.8229393464045205,4.171776261010672e-05,-1.107902319212031e-05,-6.583514771236164e-06,4.928067900429932e-05,4.91533575930775e-05
326.0299586186785,206.3579595670806,12.5,0,12.61150782071847,-0.2690800578701711,-0.9269401098081813,4.057208907259522e-05,-1.095026244175932e-05,-7.415520878465451e-06,4.770997527408625e-05,4.804133491606032e-05
328.0454068663317,205.9539614620627,12.5,0,12.63755482856846,-0.2471703339207187,-0.8846588501760904,4.063791171855563e-05,-1.090098893140106e-05,-7.077270801408722e-06,4.787062143091015e-05,4.75602504621969e-05
326.1775101848028,208.551897247446,12.5,0,12.73474516837412,-0.2394396175143072,-0.923103949598391,4.094273623280863e-05,-1.095400291074508e-05,-7.384831596787128e-06,4.827137386572448e-05,4.880484497040672e-05
327.9736215194928,208.0349333596544,12.5,0,12.77459513731258,-0.2122460956950869,-0.8751870886634711,4.104850131595632e-05,-1.089886361607434e-05,-7.001496709307768e-06,4.850039054598641e-05,4.833893673986887e-05
326.2855254279376,210.157971098045,12.5,0,12.95427143243846,-0.2278142252078834,-0.7562415221565115,4.163591996396936e-05,-1.109242266661599e-05,-6.049932177252092e-06,4.913107152997174e-05,4.936003444102502e-05
327.9210709983701,209.5583105177497,12.5,0,12.9834993920467,-0.2104027097099253,-0.7276213850959472,4.171552022231738e-05,-1.106008818470912e-05,-5.820971080767578e-06,4.929289785115072e-05,4.890156033029198e-05
326.4330769940619,212.3519087784105,12.5,0,13.05557353865641,-0.2034423562107777,-0.7531308519454198,4.194058920866913e-05,-1.109547437079961e-05,-6.025046815563359e-06,4.959296234042269e-05,5.01133302282996e-05
327.8492856515313,211.6392824153413,12.5,0,13.10055404173548,-0.1805759721394278,-0.7195799538097393,4.206623371126508e-05,-1.105828634423455e-05,-5.756639630477914e-06,4.983132385851565e-05,4.965999028725813e-05
275.0793530795573,75.90531768728174,12.5,0,-7.748051968007466,1.303800768029366,-2.61260288397581,-2.583680691204738e-05,1.037060403209994e-05,-2.090082307180648e-05,3.557454208340212e-06,3.531738485340998e-06
277.4497888397003,75.83914278077791,12.5,0,-7.760367412260911,1.210003098061536,-2.454084939799376,-2.580117819768414e-05,1.008030384360564e-05,-1.963267951839501e-05,3.389674300242573e-06,3.504875577818407e-06
275.1491880866398,78.29989781326806,12.5,0,-7.275767656223619,1.424804165334308,-2.657978077078894,-2.442229983218303e-05,1.037998745404868e-05,-2.126382461663115e-05,3.644806481315819e-06,3.575267370596381e-06
277.438191207045,78.37404667677752,12.5,0,-7.315149310043539,1.320873136143667,-2.491307394726346,-2.446517630105426e-05,1.007891348369456e-05,-1.993045915781077e-05,3.452874101318958e-06,3.553828518229935e-06
274.9583952991456,71.75778324635328,12.5,0,-8.529593875042156,1.194694529904373,-2.490584107581189,-2.825045602405839e-05,1.064669759572772e-05,-1.992467286064952e-05,3.505667745216035e-06,3.500284991126353e-06
277.4698765287066,71.44856044068111,12.5,0,-8.500605893594157,1.103591602324617,-2.327259604972346,-2.8084812141361e-05,1.03319778423141e-05,-1.861807683977877e-05,3.348885576588121e-06,3.468263029876138e-06
275.0282303062281,74.15236337233961,12.5,0,-8.062208558923727,1.314525143494986,-2.536618307851565,-2.685068750335191e-05,1.065624730632294e-05,-2.029294646281252e-05,3.563800482118239e-06,3.511647017316065e-06
277.4582788960512,73.98346433668077,12.5,0,-8.05709372539906,1.214024510067457,-2.365415816673027,-2.675391952933095e-05,1.033055341253511e-05,-1.892332653338422e-05,3.388639776072904e-06,3.481948374314746e-06
279.3084083909226,71.22219363607969,12.5,0,-8.526620713364762,1.01980074733559,-2.611393265256419,-2.810102688063571e-05,1.00846589621657e-05,-2.089114612205135e-05,3.425671251251172e-06,3.447191023148772e-06
281.8198896204836,70.9129708304075,12.5,0,-8.488388543089069,0.9590258761155925,-2.441288923236558,-2.793006403877749e-05,9.859593638041151e-06,-1.953031138589246e-05,3.287399174625738e-06,3.421643191399941e-06
279.2371979285872,73.85982166123435,12.5,0,-8.00067513810111,1.149127079442061,-2.63806602872048,-2.65214621054772e-05,1.007774676469548e-05,-2.110452822976384e-05,3.470899259453264e-06,3.462904441777411e-06
281.6672465184104,73.69092262557547,12.5,0,-7.986872099168878,1.080208117772691,-2.461483380868687,-2.642215721155856e-05,9.846163656207713e-06,-1.969186704694949e-05,3.317028301583528e-06,3.440574093508607e-06
279.1850682521294,75.79069938703302,12.5,0,-7.651902102678234,1.168416472777944,-2.733722697165189,-2.54208199067927e-05,9.860454395032008e-06,-2.186978157732152e-05,3.500160630722725e-06,3.487583206011009e-06
281.5555040122725,75.72452448052914,12.5,0,-7.65534179974954,1.111251064714421,-2.57886561233691,-2.538609461097006e-05,9.680276846885777e-06,-2.063092489869528e-05,3.361621502182245e-06,3.467202475170411e-06
279.1138577897941,78.42832741218764,12.5,0,-7.15040697868148,1.291949850851454,-2.755907814289192,-2.39148622124619e-05,9.854565105669837e-06,-2.204726251431354e-05,3.573765518081584e-06,3.539293425139439e-06
281.4028609101994,78.50247627569709,12.5,0,-7.179719835431992,1.226600483779567,-2.594932412392165,-2.395638386040603e-05,9.668897416440208e-06,-2.075945929913732e-05,3.416021370308085e-06,3.521021664688222e-06
181.1403792014794,315.3142015838631,12.5,0,1.119752341035938,4.174813246082126,-2.532930500262268,2.433568944493008e-07,1.246360051463405e-05,-2.026344400209814e-05,2.061138113187271e-05,2.104616729090487e-05
184.3871229191219,315.524439371777,12.5,0,1.110182313635764,4.134773725498183,-2.534672484134727,2.447644232358987e-07,1.234313007068557e-05,-2.027737987307781e-05,2.043732364275393e-05,2.065357825940525e-05
180.1155676995119,318.5185299980091,12.5,0,1.110046106487616,4.16121010544392,-2.547715693267564,2.231794564052357e-07,1.242783545223045e-05,-2.038172554614051e-05,2.054267918839503e-05,2.028160254793525e-05
183.5849515030935,318.7666664186152,12.5,0,1.101169593742487,4.123892284282295,-2.549244738739608,2.246288725501209e-07,1.231551963470936e-05,-2.039395790991687e-05,2.038066191206015e-05,1.986336899950389e-05
182.9154047910362,309.7641419665254,12.5,0,1.227296102800842,4.42546436991636,-2.699012959074534,3.869760330296051e-07,1.317964910149168e-05,-2.159210367259627e-05,2.198731208245777e-05,2.244169481695857e-05
185.7765245680376,309.90873739708,12.5,0,1.220149208448529,4.394882652062921,-2.702376681343034,3.885713453849541e-07,1.308750511984252e-05,-2.161901345074427e-05,2.185642597663246e-05,2.209265367622422e-05
181.8905932890687,312.9684703806714,12.5,0,1.213737222977222,4.412453199301151,-2.712364945069435,3.539965540861885e-07,1.31488604593819e-05,-2.169891956055548e-05,2.190739221848584e-05,2.162496226994837e-05
184.9743531520092,313.1509644439183,12.5,0,1.207222187731482,4.384236976053088,-2.715378894914782,3.557214198982722e-07,1.30637805731847e-05,-2.172303115931826e-05,2.178692282449228e-05,2.125091328821295e-05
187.8710096112537,310.0145885987838,12.5,0,0.9963889328331621,4.473811497476423,-2.452904850192172,-3.906046129150195e-07,1.351908564565802e-05,-1.962323880153738e-05,2.125145869333006e-05,2.180928036416885e-05
190.732129388255,310.1591840293383,12.5,0,0.9925143370608096,4.456111885356249,-2.456922217148067,-3.888436296904083e-07,1.346554656349135e-05,-1.965537773718454e-05,2.11774547803086e-05,2.138413121882596e-05
187.2318220499273,313.284559370289,12.5,0,0.9830633403357351,4.466990036127515,-2.46095524061202,-4.277893398276595e-07,1.350791744333946e-05,-1.968764192489616e-05,2.11903867631795e-05,2.094702751095289e-05
190.3155819128678,313.4670534335359,12.5,0,0.9795712225446814,4.450636636932887,-2.4646188139656,-4.258813974033289e-07,1.345838026014949e-05,-1.97169505117248e-05,2.112230070599468e-05,2.049084510948096e-05
186.7639042794902,315.6783441141943,12.5,0,0.8866381580666558,4.209208197134332,-2.27507040015291,-5.30124451894167e-07,1.276015570437654e-05,-1.820056320122328e-05,1.981136240115459e-05,2.033575540900518e-05
190.0106479971327,315.8885819021081,12.5,0,0.8781490852405074,4.17588982732876,-2.273277223555279,-5.30634789093384e-07,1.266032817925962e-05,-1.818621778844223e-05,1.96615223441308e-05,1.986003626536852e-05
186.1247167181639,318.9483148856995,12.5,0,0.8875870316142032,4.203664746275733,-2.286717003490331,-5.226532958551363e-07,1.274165756279098e-05,-1.829373602792265e-05,1.980238021392199e-05,1.952798182237958e-05
189.5941005217455,319.1964513063057,12.5,0,0.8796431896198241,4.172547345531398,-2.284963636816177,-5.23179669641681e-07,1.264843695400461e-05,-1.827970909452941e-05,1.966238834078994e-05,1.902992056266126e-05
327.7728295647563,227.4135323274692,12.5,0,14.34910190268488,0.07500649981579244,-0.1684649048037707,4.585712088873897e-05,-1.123926072273736e-05,-1.347719238430165e-06,5.537072419907185e-05,5.520985895143533e-05
329.7078785191964,225.1058301204303,12.5,0,14.34032347539617,0.06786678216955844,-0.1731695509374361,4.583474169553208e-05,-1.125508507737434e-05,-1.385356407499489e-06,5.531542424425756e-05,5.417994031758002e-05
328.3802156197719,229.7810659943649,12.5,0,14.34238657320135,0.0747675418210525,-0.1700269113630578,4.583582300078746e-05,-1.123465312473371e-05,-1.360215290904462e-06,5.534422393562381e-05,5.600051096345085e-05
330.3143054318834,227.3001112361476,12.5,0,14.33337114962917,0.06774167529034525,-0.1747389910241649,4.581259433858106e-05,-1.124992355877423e-05,-1.397911928193319e-06,5.528835977192983e-05,5.490182685908304e-05
326.7208060576793,223.3128437278497,12.5,0,14.06942355404053,0.01011724533125902,-0.2738189078571769,4.501406157666468e-05,-1.122316365817239e-05,-2.190551262857415e-06,5.410202018372786e-05,5.388203485369375e-05
328.6575162953639,221.305223741987,12.5,0,14.02345673592168,-0.01361831081760556,-0.2943433461721647,4.488595620360347e-05,-1.126234398335368e-05,-2.354746769377318e-06,5.385422854711726e-05,5.295081084760625e-05
327.3281921126949,225.6803773947454,12.5,0,14.02376833276498,0.00225705169571544,-0.2748761145945799,4.487425302349135e-05,-1.121179210078569e-05,-2.199008916756639e-06,5.390282467352831e-05,5.464221498865895e-05
329.2639432080511,223.4995048577045,12.5,0,13.9758851643474,-0.02151597632684643,-0.2950852217269563,4.474004530697316e-05,-1.124955925572383e-05,-2.36068177381565e-06,5.364756792050928e-05,5.365716715290089e-05
330.0752865888276,219.8355439101074,12.5,0,13.66687282773131,-0.009894159189938634,-0.4433641245278207,4.374190837609215e-05,-1.096515957159285e-05,-3.546912996222566e-06,5.25018842718463e-05,5.22384380728391e-05
332.0119968265124,217.8279239242447,12.5,0,13.57044533972433,-0.08188952539627925,-0.4934842775692282,4.349093670743488e-05,-1.111840275304756e-05,-3.947874220553826e-06,5.191666559630417e-05,5.122342346425121e-05
330.6810113605987,221.9029953558268,12.5,0,13.59151399063428,-0.01499551052323111,-0.4534387198909526,4.350484117844828e-05,-1.092119682618176e-05,-3.627509759127621e-06,5.219746403733882e-05,5.289024122708109e-05
332.6167624559549,219.7221228187858,12.5,0,13.49197699558349,-0.08584936446837199,-0.503205744756144,4.324300587744186e-05,-1.106829956276558e-05,-4.025645958049152e-06,5.160384530823209e-05,5.178000846776857e-05
333.0594816233594,221.1087726491717,12.5,0,13.81655505934621,-0.03073210861868558,-0.4064546671854073,4.423756187680282e-05,-1.115158679505676e-05,-3.251637337483258e-06,5.301208691653e-05,5.219079523175054e-05
333.6642472528018,223.0029715437128,12.5,0,13.74064657269989,-0.02558896058118343,-0.4268153010555487,4.39905402011046e-05,-1.10744019320197e-05,-3.414522408444389e-06,5.273699484988088e-05,5.275650053855646e-05
331.1244326689193,223.4164748562107,12.5,0,13.93219939860183,0.07200330902649643,-0.3410646942393885,4.452543542830464e-05,-1.091534892999667e-05,-2.728517553915108e-06,5.376469738082059e-05,5.337098463201755e-05
331.7301574406903,225.48392630193,12.5,0,13.85878294764337,0.07490824765757509,-0.361400164282182,4.428817883433273e-05,-1.084731996561046e-05,-2.891201314257456e-06,5.349225468739914e-05,5.40325968855215e-05
221.2560367378846,301.0269985487297,12.5,0,0.100176288777903,4.183027356773605,-0.6727436052553382,-3.025857761329595e-06,1.330554651065322e-05,-5.381948842042705e-06,1.646620584374265e-05,1.620565330693479e-05
223.5063576574162,300.9511422632988,12.5,0,0.02331047927169894,3.874973070800595,-0.6748848120508886,-3.025384922971039e-06,1.238126544314454e-05,-5.399078496407108e-06,1.505667417539844e-05,1.530246267838938e-05
220.3654374192695,303.832810763278,12.5,0,0.07749693285347692,4.072198427488193,-0.8046257379730414,-3.009768556859428e-06,1.296903742167943e-05,-6.437005903784331e-06,1.601175526849807e-05,1.582907100039554e-05
222.6970176196155,303.5497112519675,12.5,0,-0.0005866063068509231,3.757689998412016,-0.8171619348593028,-3.008029138911535e-06,1.202507727996393e-05,-6.537295478874423e-06,1.458220827477695e-05,1.499812037254136e-05
219.7134734688848,305.8868078607373,12.5,0,0.1467950562356904,3.980509479490603,-0.6820045630773368,-2.714663403638272e-06,1.262019428938137e-05,-5.456036504618694e-06,1.583712473698385e-05,1.555721793125811e-05
222.1045395913708,305.451995778565,12.5,0,0.08696585281333125,3.722186931635947,-0.6892554131687928,-2.699458816306097e-06,1.184142549898436e-05,-5.514043305350342e-06,1.467045373292362e-05,1.479166780333756e-05
218.8228741502698,308.6926200752857,12.5,0,0.1546523516354059,3.898999913872153,-0.7836127587760273,-2.624312405864423e-06,1.235307784308256e-05,-6.268902070208219e-06,1.55799070226144e-05,1.51910838406888e-05
221.2951995535701,308.0505647672336,12.5,0,0.09587552828596013,3.636224708480898,-0.7987291844476404,-2.602178076269645e-06,1.15592186445101e-05,-6.389833475581124e-06,1.440498824737987e-05,1.453197120074367e-05
215.5720254605568,306.6399244787913,12.5,0,0.2284732363780638,4.192818393936201,-0.9342268934606152,-2.623140358739156e-06,1.323424027149339e-05,-7.473815147684921e-06,1.697474448372841e-05,1.676379497548406e-05
217.9630915830428,306.2051123966189,12.5,0,0.1668829674146021,3.939653140021808,-0.9477803125628197,-2.617697016290719e-06,1.24733836741381e-05,-7.582242500502558e-06,1.582861709100973e-05,1.608564781438979e-05
214.5406809389874,309.8046924900812,12.5,0,0.2153255712158804,4.094186129367562,-1.049756585717392,-2.586307075603232e-06,1.292913515700349e-05,-8.398052685739137e-06,1.660254491382989e-05,1.627040725651394e-05
217.0130063422877,309.1626371820291,12.5,0,0.153231593499607,3.835888615655311,-1.071155197877889,-2.578369793325506e-06,1.215225829529731e-05,-8.569241583023109e-06,1.544334775077045e-05,1.56568963779111e-05
217.3583665719908,301.1583854891672,12.5,0,0.166246436552008,4.455040981431429,-0.9260582264825507,-3.032044188178718e-06,1.412313399133897e-05,-7.408465811860405e-06,1.777965662842646e-05,1.766627533723999e-05
219.6086874915224,301.0825292037363,12.5,0,0.09931388134945962,4.184168075178555,-0.9201619957440672,-3.029530039824573e-06,1.330988673549181e-05,-7.361295965952537e-06,1.654262568196486e-05,1.683903499991257e-05
216.3270220504214,304.323153500457,12.5,0,0.1698729674425623,4.347750008767603,-1.054894470774799,-2.934606511197882e-06,1.377690165410228e-05,-8.439155766198393e-06,1.742800204487689e-05,1.713781670044335e-05
218.6586022507673,304.0400539891464,12.5,0,0.1036308951846855,4.071201320849093,-1.0579840289958,-2.925342192088281e-06,1.294493951056935e-05,-8.463872231966399e-06,1.617858108234051e-05,1.640240090348687e-05
325.5815365390205,219.297323819095,12.5,0,13.79401630667078,-0.03191214870438763,-0.3665020093664931,4.416638190030998e-05,-1.113733192119066e-05,-2.932016074931945e-06,5.292009287173896e-05,5.261769441609726e-05
327.2815475235404,217.8224712450757,12.5,0,13.73752692573261,-0.1011747991417389,-0.4036985725108891,4.404102600165776e-05,-1.131378089783966e-05,-3.229588580087113e-06,5.249555710517744e-05,5.189858869721374e-05
326.2527911072725,221.6025096770628,12.5,0,13.74481167093615,-0.02620956011745346,-0.3853357261068174,4.400436499508965e-05,-1.107971992912477e-05,-3.082685808854539e-06,5.274911957668051e-05,5.333956620123253e-05
328.1263349726369,219.7840671701262,12.5,0,13.69205994208715,-0.08673112002470962,-0.4192168672917406,4.388397671069863e-05,-1.123118753774879e-05,-3.353734938333925e-06,5.236521572370991e-05,5.247960117059277e-05
324.4188895220162,215.3046247922774,12.5,0,13.52250947977693,-0.128322987872401,-0.4951251597358616,4.33746887255841e-05,-1.122864114501323e-05,-3.961001277886893e-06,5.159255551227757e-05,5.141469659429475e-05
325.8183327401351,214.4248874390294,12.5,0,13.49755267215997,-0.165618901953644,-0.5128816561621511,4.33246636724748e-05,-1.132802262397963e-05,-4.103053249297208e-06,5.138543245950822e-05,5.092210686912466e-05
325.0901440902682,217.6098106502451,12.5,0,13.49135229866032,-0.1244274627705848,-0.5074335696597351,4.327186932592949e-05,-1.119124971979413e-05,-4.05946855727788e-06,5.148534988234831e-05,5.210192715939912e-05
326.6631201892316,216.3864833640798,12.5,0,13.46773426801077,-0.1557026097929564,-0.5234520016553917,4.322131174546882e-05,-1.127243576574607e-05,-4.187616013243134e-06,5.130140419470424e-05,5.148125935693228e-05
326.8427962780623,213.7808749991631,12.5,0,13.30539794195119,-0.1200362494941301,-0.6023001154325245,4.26733024138391e-05,-1.102843435194217e-05,-4.818400923460196e-06,5.079070261249239e-05,5.055668738795163e-05
328.2422394961812,212.9011376459151,12.5,0,13.24031341569013,-0.2059008064724535,-0.6475540280757587,4.253372357538638e-05,-1.125113331326396e-05,-5.180432224606069e-06,5.028578812491665e-05,5.005093252443909e-05
327.8146186127153,215.4909456363595,12.5,0,13.24701669392031,-0.09825021500116904,-0.6133983776086003,4.246905359254593e-05,-1.091201404313999e-05,-4.907187020868802e-06,5.063297547197434e-05,5.101466588679732e-05
329.3875947116788,214.2676183501942,12.5,0,13.18809658182709,-0.1668497191959504,-0.6516399864910528,4.233538883720344e-05,-1.108439636688871e-05,-5.213119891928422e-06,5.020300095191825e-05,5.036057662232138e-05
328.5260419375813,216.7428042272658,12.5,0,13.470464426407,-0.07402757503133328,-0.5156515472525968,4.316470822452747e-05,-1.101325978122587e-05,-4.125212378020774e-06,5.155765514349295e-05,5.135506923464804e-05
330.2260529221013,215.2679516532465,12.5,0,13.36543105446954,-0.2008317066030409,-0.5843541861951788,4.293004473958495e-05,-1.133500630470536e-05,-4.67483348956143e-06,5.077677875351813e-05,5.058925216683638e-05
329.4978642722343,218.4528748644622,12.5,0,13.40963276175714,-0.04284422220884743,-0.5327043415767562,4.294510021538993e-05,-1.086480772047402e-05,-4.261634732614049e-06,5.141924245247914e-05,5.182708997723659e-05
331.3714081375988,216.6344323575256,12.5,0,13.31456667263628,-0.1502200784952263,-0.5932802276881807,4.272678941523228e-05,-1.113235758929375e-05,-4.746241821505445e-06,5.07343229829971e-05,5.090436127504409e-05
228.8325325103064,301.3502476137884,12.5,0,0.004154444652955336,3.409894104729083,-0.2238020034821134,-2.714621060893809e-06,1.09083375794107e-05,-1.790416027856907e-06,1.312834267616407e-05,1.295375715415544e-05
230.9785461800886,301.553705751149,12.5,0,-0.07669151638045335,3.117010052247009,-0.1812912052595153,-2.739020894215058e-06,1.003578538029479e-05,-1.450329642076122e-06,1.175610890925673e-05,1.199842606009829e-05
227.6255291424272,305.0391926976138,12.5,0,0.1280634599900722,3.262557016319225,-0.4207559698903918,-2.200242541087148e-06,1.033773168422946e-05,-3.366047759123135e-06,1.297155231825572e-05,1.275916799532064e-05
229.5678293870989,305.7985088034803,12.5,0,0.03010072710242573,2.98666180829967,-0.3517816749526206,-2.293007119911973e-06,9.533237204877002e-06,-2.814253399620965e-06,1.160219067442733e-05,1.188690925627948e-05
226.7419413522705,307.7396879251906,12.5,0,-0.007501548842864358,3.251455616657162,-0.3443006806091024,-2.625169449622895e-06,1.041065921237721e-05,-2.754405444872819e-06,1.250196270921338e-05,1.265322392572139e-05
228.5351130195837,308.9059203057782,12.5,0,-0.1348169242830771,3.041941642735207,-0.2519874794026586,-2.864967471894012e-06,9.842066796179122e-06,-2.015899835221269e-06,1.130317484961849e-05,1.183233516817627e-05
225.5349379843914,311.4286330090159,12.5,0,0.2500219530723216,3.176433201114006,-0.4785642736022001,-1.741076311059775e-06,9.96456868110696e-06,-3.8285141888176e-06,1.303155700873372e-05,1.255836850363811e-05
227.1243962265939,313.1507233581095,12.5,0,0.08694876109255512,2.975171183121511,-0.3673805133824726,-2.101900911001032e-06,9.450988777114791e-06,-2.939044107059781e-06,1.173429593973915e-05,1.179475279051405e-05
223.636076917847,305.7197141886171,12.5,0,0.01541389020061934,3.610444313378494,-0.5158888247028075,-2.839031002060813e-06,1.154109069065069e-05,-4.12711059762246e-06,1.3980933799331e-05,1.418226211889286e-05
225.4292485851602,306.8859465692047,12.5,0,-0.1199219787284296,3.378067203163778,-0.4167319521319521,-3.086204094461997e-06,1.090575263310683e-05,-3.333855617055617e-06,1.266402836768145e-05,1.328288495441843e-05
222.7819155524371,308.4458850292154,12.5,0,0.2207088630969093,3.545768368257447,-0.6362247109437666,-2.130346332695847e-06,1.11698916879463e-05,-5.089797687550133e-06,1.439182893305385e-05,1.39836963273459e-05
224.3713737946396,310.167975378309,12.5,0,0.04782125871045273,3.322073580372718,-0.5148295146001048,-2.504630836424725e-06,1.059237845022433e-05,-4.118636116800839e-06,1.297574592274528e-05,1.314489415659127e-05
225.1155278005729,300.997847782673,12.5,0,0.05874442663124668,3.795581021607219,-0.4380861127834941,-2.848482652065786e-06,1.20988637278381e-05,-3.504688902267953e-06,1.480511820426255e-05,1.461928924065124e-05
227.2615414703552,301.2013059200335,12.5,0,-0.02375081586756955,3.496129978039331,-0.3953101258127684,-2.872906593207687e-06,1.120661658241991e-05,-3.162481006502147e-06,1.339992609594932e-05,1.365601532683521e-05
224.261366435163,303.7240186232713,12.5,0,0.1558226532409758,3.684319425728256,-0.5954598482104442,-2.448823050211482e-06,1.166516403973764e-05,-4.763678785683553e-06,1.471040950753504e-05,1.435256872672267e-05
226.2036666798346,304.4833347291378,12.5,0,0.05570782885439307,3.400639987476319,-0.525141619792837,-2.542246937646997e-06,1.08374816968407e-05,-4.201132958342696e-06,1.33026634531786e-05,1.341983945921548e-05
120.5896257586866,263.8533114473181,12.5,0,6.085135649173325,1.231224789949647,-4.086068963601851,1.848745424539492e-05,-9.281891914997894e-07,-3.268855170881481e-05,2.910917422757111e-05,2.922130110237546e-05
122.6169475479941,261.9447937590506,12.5,0,6.134835335058732,1.182669381455513,-4.082756499808217,1.868533756702353e-05,-1.123326247389343e-06,-3.266205199846573e-05,2.913532693661819e-05,2.973976766705654e-05
124.5378415357073,266.4336403786945,12.5,0,6.212768490994934,1.388558894046983,-4.172900910358185,1.87700120559462e-05,-5.26826331845602e-07,-3.338320728286548e-05,3.012697195273999e-05,2.966850723449979e-05
125.6365416503446,264.5183890497277,12.5,0,6.302616337083579,1.359273789022783,-4.186686298483925,1.908095324744922e-05,-6.92416944793957e-07,-3.34934903878714e-05,3.037047273401105e-05,3.007656587517045e-05
113.7511154337646,259.3840506380146,12.5,0,6.295082520169547,0.8375659741481001,-3.862118543856159,1.947421128522407e-05,-2.355854898861717e-06,-3.089694835084928e-05,2.847405817913203e-05,2.83163087370795e-05
117.3868571445817,257.4871959575581,12.5,0,6.320210179764093,0.7698805012117923,-3.845316269950259,1.960876817427566e-05,-2.592550539933539e-06,-3.076253015960207e-05,2.83461415053785e-05,2.907417673025088e-05
117.6993312107853,261.964379569391,12.5,0,6.380833541554273,0.9425610598816132,-3.920380128031278,1.966461848506838e-05,-2.088471441622256e-06,-3.136304102425022e-05,2.91511062775507e-05,2.885898060699639e-05
120.4064512469321,260.0607912482351,12.5,0,6.422688401465851,0.8770092809056663,-3.908629940757903,1.985099545996619e-05,-2.331721022274548e-06,-3.126903952606322e-05,2.909338754682745e-05,2.947117830518198e-05
120.048404799984,256.0986019569482,12.5,0,6.627008005160986,0.9997363300185585,-4.005227592371483,2.040663655250031e-05,-2.102450148069401e-06,-3.204182073897186e-05,3.028532997687548e-05,2.971470476168135e-05
123.684146510801,254.2017472764917,12.5,0,6.637021280635882,0.967777734194125,-3.998616803983137,2.046424591067952e-05,-2.212728275087505e-06,-3.19889344318651e-05,3.021869741255633e-05,3.070679189412449e-05
122.3882006554951,258.6672678805136,12.5,0,6.660559435238294,1.031436926847449,-4.024802018015486,2.048864065128458e-05,-2.027849382278798e-06,-3.219841614412389e-05,3.05195387112076e-05,2.998378003930156e-05
125.095320691642,256.7636795593578,12.5,0,6.67926634544872,0.9974919476074965,-4.02019648886233,2.057565874734991e-05,-2.151438844014988e-06,-3.216157191089864e-05,3.047982861160217e-05,3.077203632283815e-05
124.1010501009956,260.5476618441544,12.5,0,6.319180682980519,1.280803792361807,-4.165037840111928,1.919673515164821e-05,-9.567724108266334e-07,-3.332030272089543e-05,3.016929563171516e-05,3.016457451669507e-05
126.1283718903031,258.639144155887,12.5,0,6.361543856146397,1.241945428758346,-4.161530555259322,1.936338399666179e-05,-1.115009712890409e-06,-3.329224444207458e-05,3.019888083348978e-05,3.080670184867907e-05
126.4408459565068,263.1163277677198,12.5,0,6.416354088187614,1.366728496579253,-4.219680998346237,1.943895028493696e-05,-7.595520814964829e-07,-3.37574479867699e-05,3.082998489676793e-05,3.038943893706278e-05
127.5395460711442,261.201076438753,12.5,0,6.508364003621462,1.338994491974346,-4.232354592541564,1.97555692180092e-05,-9.219088285792611e-07,-3.385883674033251e-05,3.108577099539553e-05,3.083616539783793e-05
232.6342730896512,301.8357341870725,12.5,0,0.02822069826182638,2.905213527001093,-0.05212330383425062,-2.23386458716303e-06,9.274106727794035e-06,-4.16986430674005e-07,1.1250735415835e-05,1.128541126455286e-05
235.0117894604451,302.4027920658671,12.5,0,-0.1127778680340557,2.507899026810545,0.05230311701946787,-2.367208399157414e-06,8.115499180220989e-06,4.18424936155743e-07,9.300478609949298e-06,1.029274971054876e-05
231.3059304203146,306.851053255559,12.5,0,0.3519660275295429,2.793062486098786,-0.3064643405567753,-1.108158700784492e-06,8.656227133492481e-06,-2.451714724454202e-06,1.185100559884703e-05,1.112236936914466e-05
234.1122105072782,308.9673420701184,12.5,0,0.1853653826587804,2.496990960382762,-0.1806107155853841,-1.404423543798113e-06,7.842078767097815e-06,-1.444885724683073e-06,1.01755029379899e-05,9.905866292031742e-06
236.7522522396191,302.8179072439593,12.5,0,0.01032153122362767,2.309689749571875,0.08046380129878472,-1.814722899741892e-06,7.382749973651099e-06,6.437104103902778e-07,8.909404274533267e-06,9.747097090706273e-06
239.129768610413,303.3849651227539,12.5,0,-0.09142529793488385,2.023902071808102,0.1561178159725319,-1.91168261083811e-06,6.549626868133832e-06,1.248942527780255e-06,7.513707337595716e-06,9.24900796395425e-06
236.166550111117,310.5165730057998,12.5,0,0.4178308153976819,2.34958605702223,-0.2333183779314093,-5.426102363452023e-07,7.184410730152991e-06,-1.866547023451274e-06,1.035451831203043e-05,9.230006298528618e-06
238.9728301980806,312.6328618203593,12.5,0,0.2790380236798984,2.104333140758349,-0.1287081138232976,-7.905448368310036e-07,6.510635631482795e-06,-1.029664910586381e-06,8.959585746882755e-06,8.600025534509336e-06
235.7377863949705,316.1523874937185,12.5,0,-0.1266437118305417,2.086577526258669,-0.05174392567582542,-2.074521898864668e-06,6.778363053492172e-06,-4.139514054066033e-07,7.641394560335012e-06,8.863494267879732e-06
238.857943306599,319.4027920658671,12.5,0,-0.4523938007354716,1.696676994974202,0.1644429436745576,-2.80500175833287e-06,5.791281424505823e-06,1.315543549396461e-06,5.25799556373428e-06,8.035821366965245e-06
235.1520842664684,323.851053255559,12.5,0,0.4203281435624859,2.166893156197594,-0.3323897997974912,-3.884644655581201e-07,6.597795584982312e-06,-2.65911839837993e-06,9.683665687564454e-06,8.379255570696817e-06
238.7010048942665,328.6506887634726,12.5,0,0.07936259632466736,1.817635522375375,-0.1145439881791951,-1.200148109661365e-06,5.752943594541467e-06,-9.163519054335612e-07,7.233114910275926e-06,7.143369344772066e-06
230.3335160965399,310.522521629704,12.5,0,0.03127138302917454,2.737104159326053,-0.2396290906713834,-2.089614901767484e-06,8.733716203420029e-06,-1.917032725371067e-06,1.063021470483162e-05,1.10319958136463e-05
233.4536730081684,313.7729262018527,12.5,0,-0.3314623109850573,2.324476537985934,-0.005805630552701175,-2.92026062554093e-06,7.703494770343033e-06,-4.64450444216094e-08,7.962964234400599e-06,9.666316791225702e-06
229.0051734272034,315.5378406981905,12.5,0,0.4095327558606652,2.698963283387304,-0.3989642031656523,-8.486658079557142e-07,8.309056302150839e-06,-3.191713625325218e-06,1.169218625093871e-05,1.094813256376184e-05
232.5540940550014,320.337476206104,12.5,0,0.05495415640019075,2.353968839343069,-0.1809241985219673,-1.707321770993845e-06,7.488736960777667e-06,-1.447393588175738e-06,9.224356507075731e-06,9.398738802585033e-06
619.0218881893682,179.4298164190583,12.5,0,0.6979303369741539,-0.007092431944613065,-2.402977457338968,2.239051023872983e-06,-5.810400518020849e-07,-1.922381965871174e-05,5.853939794088257e-06,6.024753002177813e-06
634.3789318817865,171.3942251534983,12.5,0,0.5477368957870773,0.09238444042121838,-2.508124873301603,1.678850514181672e-06,-1.42559307281763e-07,-2.006499898641283e-05,5.896742448392679e-06,5.683523552770065e-06
620.8609427151941,198.9807181560417,12.5,0,0.1421219584853523,-0.1659273756493911,-2.299009251718084,5.875321676726401e-07,-6.446651688663332e-07,-1.839207401374467e-05,4.164198875044216e-06,5.165110958524182e-06
634.871705056803,193.5388627179715,12.5,0,0.02853728529684495,-0.04184147817270897,-2.424242219797336,1.24792495488071e-07,-1.567225583901447e-07,-1.939393775837869e-05,4.402643697388314e-06,4.645135544169191e-06
622.2072240659309,213.2929715606917,12.5,0,0.7995402354552651,-0.09409736925754691,-1.021563305168071,2.633806648862886e-06,-9.407437699883621e-07,-8.172506441344565e-06,3.679426197475732e-06,4.416525904767823e-06
635.2324400575067,209.7498625296751,12.5,0,0.7957480990249427,0.1280406801131844,-1.084528733463348,2.443961372789269e-06,-2.268683028577639e-07,-8.676229867706788e-06,4.335374048236138e-06,3.813333492569795e-06
624.0462785917567,232.843873297675,12.5,0,0.3485367047682155,-0.2465745734652016,-0.8370966733821416,1.312577114030451e-06,-1.067867998903217e-06,-6.696773387057132e-06,1.816212234123459e-06,3.230995547685456e-06
635.7252132325232,231.8945000941483,12.5,0,0.3947940153749488,0.01929465148527747,-0.9282749390702918,1.247905128011614e-06,-2.540923275470711e-07,-7.426199512562334e-06,2.632830470016396e-06,2.579196034264472e-06
599.6468881893683,219.4298164190583,12.5,0,1.829597412942564,-0.05847756566966528,-0.807054082471558,5.901493773951936e-06,-1.65080614049698e-06,-6.456432659772464e-06,7.140101845472237e-06,7.488177639625571e-06
612.6721041809441,215.8867073880417,12.5,0,1.77935995367833,-0.00238277987101182,-0.8940790072887165,5.695858075667465e-06,-1.431112858529902e-06,-7.152632058309732e-06,7.180604340965903e-06,5.40119742625101e-06
603.8177704160364,234.4882359214983,12.5,0,1.43308318344329,-0.1869382549616632,-0.7243216550241374,4.73541679098786e-06,-1.744668962631955e-06,-5.794573240193099e-06,5.263409626554516e-06,6.885439625302794e-06
615.496705056803,233.5388627179715,12.5,0,1.430453988763123,-0.1046454345281909,-0.835796350785636,4.661169111664547e-06,-1.47922858150071e-06,-6.686370806285088e-06,5.574444671094273e-06,4.38485004027996e-06
592.4227082605227,193.3478687596148,12.5,0,1.725698383176884,0.01311425240643754,-1.994317876824142,5.511743424240878e-06,-1.338593098840907e-06,-1.595454301459313e-05,8.209263832577837e-06,8.305364666317582e-06
607.7797519529408,185.3122774940548,12.5,0,1.546921912822135,0.049503568649366,-2.120967429330133,4.91054726611134e-06,-1.079126110579737e-06,-1.696773943464107e-05,7.911019195258565e-06,6.727273211213722e-06
596.5935904871909,208.4062882620548,12.5,0,1.246181095915186,-0.1344511529839132,-1.905295670618675,4.095340429315726e-06,-1.427188566280671e-06,-1.52423653649494e-05,6.222147122773451e-06,7.868645407666371e-06
610.6043528287997,202.9644328239846,12.5,0,1.099207529970415,-0.07745651750525989,-2.056767336972617,3.579429309909536e-06,-1.127226879993164e-06,-1.645413869578094e-05,6.168326644615684e-06,6.028847823215127e-06
223.3478859904288,608.8330001638518,12.5,0,0.006503144823004282,-0.01081136952333368,0.03478580492923562,2.945915905228064e-08,-3.979889833307119e-08,2.78286439433885e-07,5.816455365883174e-08,2.343669856579016e-08
235.5380794990033,609.3890092584504,12.5,0,2.422499017141512e-05,-0.04016818824340444,0.02774734465993562,3.221207056327208e-08,-1.285575823710313e-07,2.21978757279485e-07,2.415219490901819e-08,2.473869005906078e-08
218.540098719067,618.8931141540766,12.5,0,-0.008292749064954984,-0.02280212992222366,0.0255903318328841,-8.295093070077023e-09,-6.63326164991517e-08,2.047226546630728e-07,1.878051192061834e-08,2.729112626893704e-08
234.2498367823013,619.2696541017997,12.5,0,-0.01372814171485009,-0.04596522134379897,0.01986860804006049,-7.157876412481107e-09,-1.361061949282766e-07,1.589488643204839e-07,1.122515593083955e-08,1.722835326051586e-08
215.0205541645969,626.2576287245424,12.5,0,-0.01006678702349235,0.01857477241221337,0.02798614924251128,-4.70735364049462e-08,6.749270133787666e-08,2.238891939400903e-07,7.477998818974482e-08,3.488983826743468e-08
233.3067776612351,626.5027881383671,12.5,0,-0.01655531057896142,-0.009553686091372663,0.01190990451010714,-4.533404497957841e-08,-1.732754702922338e-08,9.527923608085715e-08,5.828862382930765e-09,1.097522164139692e-08
210.2127668932351,636.3177427147671,12.5,0,-0.03120097202477467,0.007549539660924023,0.01966728615022989,-1.058827422080181e-07,4.91193045347766e-08,1.573382892018391e-07,2.382817346605329e-08,5.179547781714919e-08
232.0185349445332,636.3834329817163,12.5,0,-0.0370559853070971,-0.01628282632869599,0.006007587938078104,-1.055528919197539e-07,-2.246025600614949e-08,4.806070350462483e-08,3.901647656523333e-09,1.401685149367128e-09
183.3478859904288,625.8330001638518,12.5,0,-0.02155753978846813,0.08075527031386676,0.05559518736658353,-1.335883435741914e-07,2.756628968351481e-07,4.447614989326682e-07,2.818578371781074e-07,8.720073306396073e-08
201.634109487067,626.0781595776765,12.5,0,-0.04022062795137727,0.0001713145675020528,0.01175901276728502,-1.288430610984089e-07,3.272470897710838e-08,9.407210213828014e-08,1.263257891180958e-08,5.531440249512429e-08
172.4440687310033,636.2039638348504,12.5,0,-0.08707245263181798,0.02682768491306631,0.01942705150789425,-3.000939963522705e-07,1.555065538272666e-07,1.55416412063154e-07,4.709549539880077e-08,-6.569998072575707e-08
194.2498367823014,636.2696541017996,12.5,0,-0.1040600455303782,-0.04226106541167126,-0.01828309442411424,-2.991832933678731e-07,-5.19873728930455e-08,-1.462647553929139e-07,1.195060833931434e-08,3.381564063568622e-08
202.2338514798607,607.8699641625539,12.5,0,0.0162893139348461,0.07331766626318019,0.02813784068517494,-6.528328419036638e-09,2.215850808942997e-07,2.251027254813995e-07,3.406458545240614e-07,1.958673833324139e-07
214.4240449884353,608.4259732571525,12.5,0,-0.0007209449363928112,0.002559907258062906,0.0233949259494373,-4.35494960290732e-09,8.768459174915546e-09,1.871594075954984e-07,4.625996744704787e-08,6.929049372875133e-08
191.3300342204353,618.2409278335525,12.5,0,-0.006282600631295456,0.02196632132656785,0.006654290887307108,-3.767737908139973e-08,7.531830875005346e-08,5.323432709845687e-08,6.865565024961328e-08,1.572874970275038e-07
207.0397722836697,618.6174677812756,12.5,0,-0.02025974584114031,-0.03509209240830094,0.002370580179160783,-3.675751276500823e-08,-9.608689903365075e-08,1.896464143328626e-08,2.519748641842575e-09,6.481986073272797e-08
363.5323033004631,220.7379023555395,12.5,0,12.32267175936791,-0.6859800329797894,-0.9118035834888052,3.998133365636113e-05,-1.205327351302965e-05,-7.294428667910442e-06,4.536061987083156e-05,4.82576689092594e-05
371.7194705246704,220.3902252610145,12.5,0,12.54895975365632,0.02454799001205821,-0.4423909597380606,4.013703281969058e-05,-9.960614234886471e-06,-3.539127677904485e-06,4.831113586585382e-05,4.667666287545317e-05
360.2841959761137,226.9553406400343,12.5,0,13.2289048893047,-0.2236669750037699,-0.5660722229973794,4.251142922577804e-05,-1.129885823145582e-05,-4.528577783979035e-06,5.018244021278933e-05,5.143261059697366e-05
369.4393814274379,226.7198870903195,12.5,0,13.4102189363426,0.3977558314092322,-0.1564084873170951,4.259449593116893e-05,-9.455356488564535e-06,-1.251267898536761e-06,5.274684967489923e-05,4.986782709881466e-05
357.9064163863543,231.5068213570149,12.5,0,13.68036874236593,-0.6137575441445224,-0.5298077780044737,4.426818601088657e-05,-1.290831913515521e-05,-4.238462224035789e-06,5.074975268324388e-05,5.348347476703157e-05
367.7702403625509,231.3535211439032,12.5,0,13.87878568837341,0.1005103137384671,-0.01479137332219629,4.433170595180411e-05,-1.078139554673563e-05,-1.183309865775703e-07,5.363918047505533e-05,5.199679376800108e-05
354.6583090620047,237.7242596415097,12.5,0,14.52749947376293,-0.1998023934049096,-0.2196135274462466,4.664784023076531e-05,-1.226136723790606e-05,-1.756908219569973e-06,5.522710654387777e-05,5.59115981915763e-05
365.4901512653186,237.6831829732082,12.5,0,14.69188658494514,0.4402864352623883,0.2417019530573665,4.666180792361454e-05,-1.034459267511647e-05,1.933615624458932e-06,5.780349850278184e-05,5.462207465272489e-05
340.8217721029724,231.7723451149308,12.5,0,14.14490861338827,-0.6040019149194973,-0.5442993928828408,4.574690909477805e-05,-1.3248733018453e-05,-4.354395143062726e-06,5.256359482377141e-05,5.483364329956556e-05
350.6855960791692,231.6190449018191,12.5,0,14.3443323863866,0.1186502743933007,-0.05726690710307775,4.580694341692248e-05,-1.109578503105072e-05,-4.58135256824622e-07,5.548346587676049e-05,5.424360630803922e-05
335.8970080266335,237.7954065180123,12.5,0,14.95167009839876,-0.09288476329049367,-0.170857654045026,4.791965212550843e-05,-1.225856732124859e-05,-1.366861232360208e-06,5.717822092507679e-05,5.73728424610884e-05
346.7288502299473,237.7543298497108,12.5,0,15.11661540930992,0.5505082882493579,0.2622093733903211,4.793276267919225e-05,-1.033166580504999e-05,2.097674987122568e-06,5.977411248570761e-05,5.664866420436989e-05
349.3517136983285,221.3400967478739,12.5,0,12.88057870508123,-0.8104216647035392,-0.8322629423509386,4.186618918802277e-05,-1.289781229111631e-05,-6.658103538807508e-06,4.71253652113249e-05,4.973758331996552e-05
357.5388809225356,220.9924196533489,12.5,0,13.13640962580704,0.02810432865629853,-0.3839406231420384,4.20140273396575e-05,-1.041919384894548e-05,-3.071524985136308e-06,5.057584177596416e-05,4.907784007043688e-05
344.4269496219894,227.3631581509554,12.5,0,13.7656322389946,-0.167495403517516,-0.3890857720427064,4.418401948759671e-05,-1.154849108245173e-05,-3.112686176341651e-06,5.240297659829729e-05,5.278778177876301e-05
353.5821350733137,227.1277046012407,12.5,0,13.97178636441622,0.5595222982374755,-0.00264168594079706,4.426209852754191e-05,-9.386957737173051e-06,-2.113348752637648e-08,5.539980919592225e-05,5.221501009537695e-05
331.2415792150957,228.4968857676377,12.5,0,14.44098370315688,-0.1240641314133244,-0.27198818964403,4.631039915523267e-05,-1.194979218304814e-05,-2.17590551715224e-06,5.512425910778523e-05,5.520991932718612e-05
333.1685113907785,229.5722534772945,12.5,0,14.42419586633313,0.006969116255528984,-0.2666631460720049,4.615185147926158e-05,-1.151705552104881e-05,-2.133305168576039e-06,5.545550911161325e-05,5.532975706200578e-05
328.9543632250904,231.4044821393979,12.5,0,14.71278911515157,0.1788311629207358,-0.09082247609396629,4.693786023814844e-05,-1.11979715707749e-05,-7.265798087517303e-07,5.708260813078914e-05,5.651672824394976e-05
329.9155775989158,233.4722038627487,12.5,0,14.61857282648665,0.2312730625593855,-0.1362570985987853,4.659441459470975e-05,-1.095478446099928e-05,-1.090056788790282e-06,5.688081934413207e-05,5.713640807006227e-05
335.2031535175973,223.4607811239364,12.5,0,13.54725990073441,-0.2976119366750729,-0.5871524462477603,4.358932123169017e-05,-1.179016611794776e-05,-4.697219569982082e-06,5.118490930346765e-05,5.266915891570637e-05
338.8027579918411,222.8173412628114,12.5,0,13.70331465866626,0.04501988183009065,-0.4079146712988234,4.381459100226794e-05,-1.081858810507671e-05,-3.263317370390587e-06,5.280639182339925e-05,5.186483185764835e-05
332.9159375275922,226.3683774956967,12.5,0,14.09924499029154,0.112900622864744,-0.3071873041450221,4.502726347064114e-05,-1.091811399906605e-05,-2.457498433160177e-06,5.452941898351126e-05,5.417896623289263e-05
335.5498241999784,226.7172916482656,12.5,0,14.11987827720759,0.3655090521766784,-0.1919127100726394,4.489120324532294e-05,-1.01262736548007e-05,-1.535301680581115e-06,5.537551890393291e-05,5.391724247309432e-05
341.4378513540277,222.3463105928728,12.5,0,13.25751745598407,-0.4562147325416275,-0.684280422450474,4.278902764518231e-05,-1.206590110892046e-05,-5.474243379603792e-06,4.960587690001077e-05,5.123413344295903e-05
345.0374558282714,221.7028707317479,12.5,0,13.39700509548288,-0.1697560079586595,-0.5144106197662051,4.300622111191215e-05,-1.126082330185402e-05,-4.11528495812964e-06,5.098681628630217e-05,5.031536038775942e-05
337.4779630654617,226.972714535415,12.5,0,14.00471358599427,0.07852564683389351,-0.3116285867851799,4.475226295771453e-05,-1.095248879892695e-05,-2.493028694281439e-06,5.406199579950998e-05,5.364731024619757e-05
340.1118497378478,227.3216286879839,12.5,0,14.01526860906641,0.2787930553480669,-0.2027937120275625,4.462582510473406e-05,-1.032007711013931e-05,-1.6223496962205e-06,5.470879117648647e-05,5.317156544748243e-05
334.5791236460576,230.3594772775489,12.5,0,14.5684442592497,-0.1261338289027267,-0.308496140228264,4.671992869272122e-05,-1.205838365988848e-05,-2.467969121826112e-06,5.560898257756893e-05,5.530514958228571e-05
336.5060558217403,231.4348449872057,12.5,0,14.53259450704059,0.00240175157594047,-0.2904622082627514,4.650238102126914e-05,-1.161839000058946e-05,-2.323697666102012e-06,5.585895908436906e-05,5.511808296262175e-05
330.6192353574916,234.985881220091,12.5,0,15.06272127359175,0.3580208584506721,-0.01219824259147701,4.791429138873305e-05,-1.090451027183125e-05,-9.758594073181609e-08,5.897338824559018e-05,5.742127407621877e-05
331.5804497313169,237.0536029434418,12.5,0,14.93205604012409,0.3993337568558055,-0.04963730874604517,4.746311232291245e-05,-1.06677768101607e-05,-3.970984699683613e-07,5.859782220150802e-05,5.757986265230818e-05
145.4429122430919,58.42928374122819,12.5,0,-11.07838189949099,0.2293919103818967,1.755088773845642,-3.563433560667666e-05,9.596759632814856e-06,1.404071019076513e-05,3.053747912889077e-06,3.222802522495397e-06
147.2117334827954,60.40065885234304,12.5,0,-11.16550611795966,0.3319205156534988,1.740139231017324,-3.599515598999369e-05,9.994550544458918e-06,1.392111384813859e-05,3.132664442538099e-06,3.174782004717384e-06
143.6609159004702,60.75208046600183,12.5,0,-10.9372260197685,0.3656331762276772,1.84058899969267,-3.529162980424132e-05,9.919806979743362e-06,1.472471199754136e-05,3.130316545928042e-06,3.128030260801022e-06
145.8181837341016,62.76939787644044,12.5,0,-11.00132781376151,0.4671966369203862,1.834885285169841,-3.557800631357312e-05,1.029609148915444e-05,1.467908228135873e-05,3.20751660012698e-06,3.088023456669651e-06
148.5066004997102,61.8438055943945,12.5,0,-10.5167473511338,0.3657102308299685,1.729444279857922,-3.394615970829214e-05,9.583670619562939e-06,1.383555423886337e-05,3.007847742472656e-06,3.145407011281338e-06
150.2754217394137,63.81518070550932,12.5,0,-10.68237353921847,0.4405661754628589,1.743773706910138,-3.453604826586938e-05,9.955710592855921e-06,1.39501896552811e-05,3.095762975143304e-06,3.113173554516658e-06
147.3974133937867,64.246176715812,12.5,0,-10.31594584152743,0.4724209437277329,1.810559770458011,-3.338896344786996e-05,9.764503693150689e-06,1.448447816366409e-05,3.055388261387508e-06,3.065594157432797e-06
149.5546812274183,66.26349412625061,12.5,0,-10.43696566920377,0.5471840961192669,1.831038890314515,-3.383603741834748e-05,1.010056164294467e-05,1.464831112251612e-05,3.13633931538733e-06,3.04432297646831e-06
146.5854320771851,66.00483443525107,12.5,0,-9.774783312965472,0.3570976957371261,1.787980035798264,-3.156498475807921e-05,8.962539276731181e-06,1.430384028638611e-05,2.858185741161328e-06,3.010151055257743e-06
149.0270625535869,68.05578394300979,12.5,0,-9.967213454989473,0.4814636010077642,1.836469436038226,-3.228025393677253e-05,9.514454287216424e-06,1.469175548830581e-05,2.994366312384968e-06,2.99468187413908e-06
145.4762449712617,68.40720555666857,12.5,0,-9.529506417490971,0.482440074536183,1.88295785814349,-3.088037259560005e-05,9.167413372508561e-06,1.506366286514792e-05,2.917594258750623e-06,2.938490537028367e-06
148.3063220415915,70.50409736375107,12.5,0,-9.679606560015738,0.6024699904797886,1.93349606213045,-3.145671698443419e-05,9.671589217547914e-06,1.54679684970436e-05,3.045696110147032e-06,2.92791043847448e-06
142.3564040388246,62.45248568411841,12.5,0,-10.36623277848247,0.1520101813889161,1.819655385481417,-3.329355303625502e-05,8.779418803230504e-06,1.455724308385134e-05,2.867538795864574e-06,3.063216141969143e-06
144.7980345152263,64.50343519187713,12.5,0,-10.45069957420455,0.3251388996854718,1.815223006015766,-3.370234975720295e-05,9.401004138357151e-06,1.452178404812613e-05,2.991674008503804e-06,3.028514756976095e-06
140.5744076962028,64.77528240889202,12.5,0,-10.20519614382121,0.3110929709069286,1.918822057228236,-3.290550203695342e-05,9.15965442195914e-06,1.535057645782588e-05,2.960729082129317e-06,2.98091293795949e-06
143.4044847665326,66.87217421597452,12.5,0,-10.2695754037028,0.4778335602796497,1.921894763709655,-3.324490814007267e-05,9.744727715857118e-06,1.537515810967724e-05,3.082401768710198e-06,2.952692513961764e-06
127.6066285895853,66.89957956227853,12.5,0,-9.7066740968056,0.01625596126886686,1.845553372292013,-3.107436187879301e-05,7.817358353504853e-06,1.476442697833611e-05,2.651372565792523e-06,2.777951829178301e-06
130.1836123206573,67.50004634949434,12.5,0,-9.755975573595839,0.1402590858206119,1.97069809367754,-3.133132910416317e-05,8.253609533502627e-06,1.576558474942032e-05,2.776090056548846e-06,2.785561245178212e-06
126.7812183980302,69.83944131899494,12.5,0,-9.262636407102699,0.1722512221444843,1.955132049688611,-2.977823748044422e-05,7.961313036544508e-06,1.564105639750889e-05,2.687890117400651e-06,2.685941960949157e-06
129.1255658804424,70.09221628597194,12.5,0,-9.266549605723052,0.3338269772596281,2.112490852905132,-2.992002032012147e-05,8.48148601180925e-06,1.689992682324105e-05,2.847076570471641e-06,2.703789668572285e-06
129.0362809784183,61.8075896325085,12.5,0,-10.45734344823746,0.03357220884816137,1.790803923978655,-3.349035680143839e-05,8.473305826904083e-06,1.432643139182924e-05,2.808364979010099e-06,2.947957487236254e-06
132.0162025118439,63.01027631774323,12.5,0,-10.57661491707913,0.1474995190554136,1.914034441067364,-3.396316734989753e-05,8.933290394640623e-06,1.531227552853891e-05,2.937762846231116e-06,2.938650956780381e-06
128.2108707868632,64.74745138922492,12.5,0,-10.05180475329059,0.1757458660167353,1.890467824073816,-3.230637190334326e-05,8.603830573886021e-06,1.512374259259053e-05,2.835100208027249e-06,2.848158677849159e-06
130.958156071629,65.60244625422082,12.5,0,-10.14728996498106,0.3168521046073391,2.037996921563179,-3.272480957162527e-05,9.131758706728334e-06,1.630397537250543e-05,2.990074088089396e-06,2.848492137684946e-06
134.1976564767872,63.89070407688422,12.5,0,-10.20317687321689,0.02824008875434503,1.794643966841887,-3.267275806529752e-05,8.252909782587416e-06,1.43571517347351e-05,2.750715880153777e-06,2.934986871050232e-06
137.1775780102128,65.09339076211896,12.5,0,-10.29327950889149,0.234248615946131,1.89809252152694,-3.312589332120968e-05,8.984219178140814e-06,1.518474017221552e-05,2.925205968097802e-06,2.934282933127625e-06
132.9693084828784,66.22834593558171,12.5,0,-9.87531917998237,0.2071136187357014,1.927926067998772,-3.176671227093214e-05,8.563018923940139e-06,1.542340854399017e-05,2.828572370725767e-06,2.851523412614421e-06
135.7165937676442,67.08334080057764,12.5,0,-9.941527062103754,0.4630467218142602,2.0613386044517,-3.218332397618342e-05,9.434971159488634e-06,1.64907088356136e-05,3.049632148029382e-06,2.859471549898022e-06
132.0700953420001,67.93961854597528,12.5,0,-9.562075760441171,-0.009120186496187177,1.825199200617058,-3.05913462842148e-05,7.620476011565137e-06,1.460159360493646e-05,2.599213128653713e-06,2.793293469709004e-06
134.647079073072,68.5400853331911,12.5,0,-9.57287673905264,0.2096094778864988,1.916973223988522,-3.080089314727764e-05,8.329051720478907e-06,1.533578579190817e-05,2.762897689644982e-06,2.806808883983645e-06
130.8417473480913,70.27726040467279,12.5,0,-9.250884617946951,0.1781361334852463,1.964090758169464,-2.974533968421844e-05,7.970743321510348e-06,1.571272606535571e-05,2.692186329903581e-06,2.717669765598618e-06
133.1860948305035,70.5300353716498,12.5,0,-9.217019423009319,0.4671793857165301,2.09442889662582,-2.986820566220304e-05,8.86858957270035e-06,1.675543117300656e-05,2.91805160532197e-06,2.737743188267028e-06
100.4554683865288,97.79326593523284,12.5,0,-4.674090383179195,-0.5128275268120693,1.809623961013907,-1.454682720472377e-05,2.098224220744733e-06,1.447699168811126e-05,1.396947184245276e-06,1.514798135636549e-06
104.8438031881409,98.84661587538515,12.5,0,-4.842868762635034,-0.5493299645937703,2.075127598799694,-1.505771606875709e-05,2.116439123407963e-06,1.660102079039755e-05,1.555896849394349e-06,1.555458718430188e-06
100.6355540448462,101.5999619811431,12.5,0,-4.119660156573646,-0.3744304286269292,1.801566668518231,-1.288336815813412e-05,2.097550753652744e-06,1.441253334814585e-05,1.395648217784865e-06,1.423707363588164e-06
105.0872982374948,102.3563712919614,12.5,0,-4.236026456604579,-0.39795721808863,2.061285301765019,-1.323691888666375e-05,2.115358067400047e-06,1.649028241412015e-05,1.566471533298877e-06,1.479362526110876e-06
108.056287223407,99.6177215496935,12.5,0,-4.377129146576384,-0.3555780416321541,1.877794242589582,-1.37223508357387e-05,2.363853584038214e-06,1.502235394071665e-05,1.483245142608194e-06,1.594210834648225e-06
112.4446220250191,100.6710714898458,12.5,0,-4.551515766748635,-0.3961179911386364,2.151214602481517,-1.424795606068472e-05,2.373635041755271e-06,1.720971681985214e-05,1.657193223343268e-06,1.659423002267582e-06
108.3462011686746,102.9101013387749,12.5,0,-3.892704228338638,-0.2346504676046296,1.862608019621708,-1.226893315659994e-05,2.363281886336096e-06,1.490086415697366e-05,1.493360845182135e-06,1.530274162869498e-06
112.7979453613231,103.6665106495931,12.5,0,-4.012374402000705,-0.2615990042991728,2.128267052377169,-1.263031888296292e-05,2.372782707843211e-06,1.702613641901735e-05,1.67880084890756e-06,1.613712178673749e-06
108.5584329064242,105.320290622093,12.5,0,-3.598680871375532,-0.4190152889384475,1.853005685717192,-1.118056655725094e-05,1.538095772497393e-06,1.482404548573754e-05,1.357950196036813e-06,1.492493671558694e-06
113.0565959949864,105.8593243054164,12.5,0,-3.675581103027834,-0.3895582170514892,2.131942507611951,-1.145021295604788e-05,1.693878587857502e-06,1.705554006089561e-05,1.590262118038288e-06,1.587833738144452e-06
108.8483468516918,108.6126704111744,12.5,0,-3.111569752478101,-0.3000257259456719,1.849561875050776,-9.717002627173383e-06,1.52917347895633e-06,1.479649500040621e-05,1.399990540598911e-06,1.453212121536998e-06
113.4099193312904,108.8547634651638,12.5,0,-3.137657429857449,-0.2592039419457296,2.12209413949635,-9.833140621987252e-06,1.680673329659624e-06,1.69767531159708e-05,1.660921666944966e-06,1.56284334738859e-06
100.7673858964435,104.3866568956024,12.5,0,-3.781741113060028,-0.6040382851255268,1.772647049910114,-1.161834093369167e-05,1.092470378046337e-06,1.418117639928091e-05,1.223401530400258e-06,1.366468168164738e-06
105.2655489850057,104.925690578926,12.5,0,-3.858686258091519,-0.5883159306888441,2.040930171745269,-1.187714328134178e-05,1.204338028268913e-06,1.632744137396215e-05,1.42136481137971e-06,1.43317894585242e-06
100.947471554761,108.1933529415126,12.5,0,-3.23140442415381,-0.4677191807463852,1.773574428692109,-9.966318812695081e-06,1.088422160934615e-06,1.418859542953687e-05,1.250640136837211e-06,1.301178550125308e-06
105.5090440343596,108.4354459955021,12.5,0,-3.259664650470055,-0.4405804498782285,2.036977983622248,-1.007846252160159e-05,1.197874280765713e-06,1.629582386897798e-05,1.474942039862536e-06,1.383099250424831e-06
323.2777320220642,181.4319488615953,12.5,0,10.34243140685168,-0.17491392989584,-2.230833090358401,3.323571164584203e-05,-8.833669701148027e-06,-1.784666472286721e-05,3.96100359289962e-05,3.896805530190673e-05
324.898412525425,179.328173578931,12.5,0,10.13278688804355,-0.2567545668223992,-2.304410456390156,3.263032169519728e-05,-8.927844124266516e-06,-1.843528365112125e-05,3.859570530261769e-05,3.766869644667426e-05
324.5964067479202,183.5511082151712,12.5,0,10.12319896233984,-0.2030588958550803,-2.195155807809873,3.255668379617156e-05,-8.748347636608131e-06,-1.756124646247898e-05,3.867954693474894e-05,3.956893034815943e-05
326.6669552183803,181.7127153731595,12.5,0,9.965855939131766,-0.2741377392975384,-2.269308948458126,3.211004919665967e-05,-8.849925517057534e-06,-1.815447158766501e-05,3.789679722506344e-05,3.832388900449111e-05
321.8352067259269,175.19802603863,12.5,0,9.70335081608019,-0.1496218951137633,-2.530835993280072,3.117042012754762e-05,-8.241470717228194e-06,-2.024668794624058e-05,3.737359236776701e-05,3.66876384049011e-05
323.6037494188821,177.5825678328585,12.5,0,9.412753912783387,-0.2275089401675485,-2.447576979481593,3.030281967304088e-05,-8.258231738762865e-06,-1.958061583585274e-05,3.600667187072257e-05,3.723026441991283e-05
320.9937203982656,177.7614571919329,12.5,0,10.13253678313804,-0.04577320013675079,-2.482091417145603,3.246073626615113e-05,-8.252503666948035e-06,-1.985673133716483e-05,3.929120401416186e-05,3.801293472556701e-05
322.3123951241217,179.8806165455089,12.5,0,9.727671993935624,-0.1531166980841987,-2.384059315269841,3.125104373906135e-05,-8.272111029017934e-06,-1.907247452215873e-05,3.739579265539381e-05,3.85511275314197e-05
322.4512174716233,173.3214641927871,12.5,0,9.52729913392989,-0.06499674953527235,-2.669690821956996,3.053935462820386e-05,-7.829828905656783e-06,-2.135752657565597e-05,3.701920539329019e-05,3.568157476351204e-05
323.2927037992846,170.7580330394842,12.5,0,9.118374852140269,-0.1794577987764847,-2.734530312788841,2.932236576587005e-05,-7.868964837796965e-06,-2.187624250231073e-05,3.516484885954928e-05,3.425825410013843e-05
324.5490863731789,175.9002794170017,12.5,0,9.089395746347057,-0.1410906758397679,-2.549801077255412,2.919893892898239e-05,-7.723006759764901e-06,-2.03984086180433e-05,3.508364580347018e-05,3.624989239945401e-05
325.8404406679394,173.6022307043513,12.5,0,8.769635115311125,-0.2373091693325597,-2.627855456060915,2.825267970446165e-05,-7.775097434113091e-06,-2.102284364848732e-05,3.362777051688259e-05,3.48923293406346e-05
326.084832996671,177.7881031843786,12.5,0,9.762788983489294,-0.1741074650302576,-2.389467428560343,3.138021071918994e-05,-8.367375074888259e-06,-1.911573942848274e-05,3.746870031126686e-05,3.67137808967329e-05
327.7055135000318,175.6843279017143,12.5,0,9.544899187125189,-0.2747032709175574,-2.472808705662901,3.076344001553465e-05,-8.514969816636334e-06,-1.978246964530321e-05,3.637811055149081e-05,3.540426195247709e-05
328.1827018982265,180.3669184085931,12.5,0,9.506848422905554,-0.1733695121859453,-2.337948696468512,3.056061056304652e-05,-8.160261177319467e-06,-1.87035895717481e-05,3.647943607409896e-05,3.741283020445751e-05
330.2532503686866,178.5285255665814,12.5,0,9.334715694220813,-0.2683203963287175,-2.423241155480066,3.008574653856958e-05,-8.326397823628547e-06,-1.938592924384053e-05,3.558007981468762e-05,3.616881261764549e-05
263.125959130092,40.12362944292835,12.5,0,-14.33958542301029,0.3339402012098964,-1.793898640832776,-4.615382551460083e-05,1.25402769822799e-05,-1.435118912666221e-05,3.864287785399748e-06,3.956980187801468e-06
270.171910806844,40.43562379021798,12.5,0,-14.35061127236946,0.4748721184523887,-1.378567522151811,-4.630185376634419e-05,1.300007979694321e-05,-1.102854017721449e-05,3.877952752068737e-06,3.948644824262483e-06
262.8706821442021,46.0648837515913,12.5,0,-13.26266043939745,0.6091292092941094,-1.721108409833864,-4.292781677350712e-05,1.255934182125911e-05,-1.376886727867091e-05,3.775566154814209e-06,3.785230081693821e-06
269.2101447348538,46.52990923076474,12.5,0,-13.31064524399827,0.7559121103383419,-1.264004118810849,-4.319879446906512e-05,1.306743494828131e-05,-1.01120329504868e-05,3.796033359065617e-06,3.771495699193578e-06
262.6838064205356,50.41418376603517,12.5,0,-12.44486277786238,0.7429280280680581,-1.933538125065372,-4.041790331161404e-05,1.233325991210768e-05,-1.546830500052297e-05,3.730843704389478e-06,3.699442165526618e-06
268.506083105191,50.99123580888258,12.5,0,-12.50986192959064,0.8047164163335707,-1.61196079340074,-4.067533130775689e-05,1.258298207593993e-05,-1.289568634720592e-05,3.709948267157771e-06,3.679877746439161e-06
262.4285294346457,56.35543807469813,12.5,0,-11.4026501391768,1.00751333422254,-1.879225449396036,-3.729449111274379e-05,1.234616278085357e-05,-1.503380359516829e-05,3.672518462083129e-06,3.636815325980044e-06
267.5443170332007,57.08552124942933,12.5,0,-11.51858467019644,1.066583012206458,-1.51791373243518,-3.771273735439376e-05,1.262793337521781e-05,-1.214330985948144e-05,3.648503050570671e-06,3.606721969686912e-06
252.59932738717,49.41470030923003,12.5,0,-12.84728198784557,0.9322995581463696,-1.444883881949662,-4.185714200762291e-05,1.326118417634484e-05,-1.155907105559729e-05,3.838605693447864e-06,3.788637492466678e-06
258.4216040718254,49.99175235207743,12.5,0,-13.00118442366691,0.6551232203099384,-1.093951887018465,-4.212788873198206e-05,1.249734184392533e-05,-8.75161509614772e-06,3.632515582062621e-06,3.728584251642799e-06
253.5677253933768,55.09089692233523,12.5,0,-11.77592611994824,1.247488018349691,-1.623633095617754,-3.868095399851411e-05,1.34127025546776e-05,-1.298906476494203e-05,3.860256291142138e-06,3.717074723385894e-06
258.6835129919318,55.82098009706642,12.5,0,-11.99838506957226,0.9175970944208545,-1.215615474189945,-3.912890989816791e-05,1.253501875780454e-05,-9.724923793519562e-06,3.592719110400982e-06,3.666384257215317e-06
250.9220128385016,39.58323938175813,12.5,0,-14.70021838516137,0.6257729516536439,-1.19518108339864,-4.754131719383929e-05,1.376264815342075e-05,-9.561448667189121e-06,4.027917064040769e-06,4.089744216597712e-06
257.9679645152536,39.89523372904776,12.5,0,-14.83988292473058,0.2659329360475366,-0.7404233444673509,-4.770037170797589e-05,1.272289173513658e-05,-5.923386755738808e-06,3.790212897555504e-06,3.994787656029038e-06
251.8904108447084,45.25943599486331,12.5,0,-13.5737740482447,0.9588999177168387,-1.387152039055694,-4.420319688855649e-05,1.392749897528964e-05,-1.109721631244555e-05,4.012610249344968e-06,3.888493982213393e-06
258.2298734353602,45.72446147403674,12.5,0,-13.76892391198866,0.5466883520505492,-0.8742835744793471,-4.449790720000414e-05,1.276454185615268e-05,-6.994268595834777e-06,3.718223669374879e-06,3.816579677143833e-06
73.13155910749161,149.5094124636638,12.5,0,1.205707491007955,-1.402940346297921,0.8376903308778145,4.980616248263791e-06,-5.453975100959711e-06,6.701522647022516e-06,2.498039925905072e-06,3.216125442473447e-06
78.92379345289248,145.7579167935246,12.5,0,1.551735930553173,-1.450106800981017,1.024046230129591,6.125640418554967e-06,-5.881730507581792e-06,8.192369841036726e-06,3.505487262754994e-06,2.91257764626737e-06
76.9176905019351,157.2504815319614,12.5,0,1.909761736124775,-1.1510604610706,0.6502233757436827,7.032085924455759e-06,-5.211202864325739e-06,5.201787005949462e-06,4.703201162203056e-06,5.831994371570308e-06
82.34582452374785,152.5232851974031,12.5,0,2.343458544639748,-1.164033246280634,0.8086263838604727,8.430293939871699e-06,-5.599673223809828e-06,6.469011070883781e-06,6.255502121622501e-06,5.104836297071438e-06
66.57378716830172,136.1014875327135,12.5,0,-0.2920797515161912,-1.350081101120595,1.101668199484347,1.454096760446638e-07,-4.086595722372949e-06,8.813345595874779e-06,7.838131189787838e-07,1.053669709407575e-06
72.99666177319816,134.0399549862964,12.5,0,-0.1173056918346413,-1.499974647612555,1.341323921825201,8.246015042191914e-07,-4.706074318892461e-06,1.073059137460161e-05,1.129497223632413e-06,1.076356713665776e-06
70.35991856274521,143.842556601011,12.5,0,0.4694651024702642,-1.061002863119568,0.8861055786570278,2.3510906184005e-06,-3.77078124395883e-06,7.088844629256222e-06,1.330640104054573e-06,1.935777208113073e-06
76.41869284405352,140.8053233901749,12.5,0,0.7452648445152037,-1.168862802232752,1.092238093622977,3.319937744234853e-06,-4.336572842756969e-06,8.737904748983816e-06,1.999628085262534e-06,1.833149795202152e-06
77.69853231442632,132.5308084209265,12.5,0,-0.5041912285390312,-1.216965597679383,1.243423277859786,-6.398394531813934e-07,-3.4909369297428e-06,9.947386222878291e-06,8.352932568767468e-07,1.113401816232096e-06
84.12140691932274,130.4692758745094,12.5,0,-0.3115068387109365,-1.361748022157514,1.50388837022837,9.257653385101461e-08,-4.108388199935297e-06,1.203110696182696e-05,1.208265352261783e-06,1.191923914360984e-06
80.85402344937424,138.5819143655019,12.5,0,0.1110744872093663,-0.9845323022619372,1.066902523345545,1.143064200879522e-06,-3.239362957005692e-06,8.535220186764362e-06,1.137533397728896e-06,1.776683319967968e-06
86.91279773068256,135.5446811546658,12.5,0,0.4095192036625865,-1.084504545276911,1.289977198739267,2.178065087941805e-06,-3.798029907816183e-06,1.031981758991413e-05,1.773115083895714e-06,1.725041453608209e-06
83.1640032828911,143.0116313587248,12.5,0,0.7262684071903623,-1.308281212009583,1.056393540090079,3.370683872616826e-06,-4.767514604182956e-06,8.45114832072063e-06,1.833493066302565e-06,2.709268751249093e-06
88.95623762829197,139.2601356885856,12.5,0,1.083027098934898,-1.309499611677412,1.253490891204669,4.513286405933602e-06,-5.056820436515636e-06,1.002792712963736e-05,2.782804950712114e-06,2.457366316610935e-06
86.31949441783902,149.0627373033002,12.5,0,1.250044266911279,-1.136223954248561,0.9245755364375255,4.909120817514941e-06,-4.635952067124416e-06,7.396604291500204e-06,2.968574648384313e-06,4.59385802828011e-06
91.74762843965178,144.335540968742,12.5,0,1.689343964747735,-1.107783501710557,1.094734895644639,6.292127488561195e-06,-4.896382377271968e-06,8.757879165157112e-06,4.459207462744843e-06,3.924997510818133e-06
141.0084339230948,69.24838015591162,12.5,0,-9.443431277084333,0.4032791222500647,1.884689809694958,-3.054160338446992e-05,8.845238212867672e-06,1.507751847755966e-05,2.848354051283504e-06,2.855477773134674e-06
142.8611645471443,69.86357579447436,12.5,0,-9.698232663730105,0.05598360877926778,2.124709939511559,-3.107913141095974e-05,7.937733679077739e-06,1.699767951609247e-05,2.765228796846064e-06,2.865482193232996e-06
141.8304078675339,71.10536646085345,12.5,0,-9.126373248949198,0.5519931315819386,1.77237606558626,-2.964598890190298e-05,9.067476620221561e-06,1.417900852469008e-05,2.844178721263143e-06,2.820254986754805e-06
143.9806923148097,71.36208801165418,12.5,0,-9.216093042060781,0.3478832338689788,1.910686166923357,-2.976980432168967e-05,8.486100782029355e-06,1.528548933538685e-05,2.77406650255749e-06,2.844932373258301e-06
140.0881302902806,66.24745445477923,12.5,0,-9.752460364676544,0.3514963517970449,1.782967531587811,-3.148907024840258e-05,8.926756617491779e-06,1.426374025270249e-05,2.848325474195135e-06,2.933370972150151e-06
142.8007887588587,68.07221748511004,12.5,0,-9.995356689686501,0.3238735350808168,1.914388540773146,-3.224424023506146e-05,9.032680664007814e-06,1.531510832618516e-05,2.922868869553447e-06,2.913964342572345e-06
140.5415920532934,67.94670655702309,12.5,0,-9.519526647252409,0.4041964057029719,1.767803704205847,-3.078584239577008e-05,8.909049816051436e-06,1.414242963364678e-05,2.827864623149734e-06,2.885787110071464e-06
142.5450103421904,68.98205764371134,12.5,0,-9.766466071591227,0.3867506194453316,1.946405065488718,-3.156209192464818e-05,9.050774839498041e-06,1.557124052390974e-05,2.925241125541148e-06,2.883979253662048e-06
143.8628374068082,69.91922428667792,12.5,0,-9.411774664063714,0.4021160484313495,1.929939644688972,-3.043937176374896e-05,8.816191086231289e-06,1.543951715751177e-05,2.856096775939297e-06,2.878255738602013e-06
144.7467279280396,69.45606315618633,12.5,0,-9.40211171860758,0.2315323367051039,1.93360898724597,-3.027198336890834e-05,8.262592852342396e-06,1.546887189796776e-05,2.746405212650127e-06,2.903149293446116e-06
145.4597896141894,71.44426008384194,12.5,0,-9.144706284089963,0.7814465705320912,1.738401447117928,-2.988821736551355e-05,9.81639405297466e-06,1.390721157694343e-05,2.99591612437167e-06,2.864426661068863e-06
147.3504741383283,71.41203680923091,12.5,0,-9.197033711902895,0.5641016449326317,1.784155148682322,-2.988178919403537e-05,9.162752233306736e-06,1.427324118945857e-05,2.870860380969101e-06,2.893008659323457e-06
138.5507831664623,66.16204628123377,12.5,0,-9.755793630148895,0.1661160985407819,1.974212048083592,-3.135143249530909e-05,8.336206419449617e-06,1.579369638466874e-05,2.793062527913415e-06,2.917520936433948e-06
139.3225278892856,67.87898077013377,12.5,0,-9.661098359588889,0.2366542012029758,1.918652421362572,-3.110483811164682e-05,8.486172131520632e-06,1.534921937090057e-05,2.798813931374616e-06,2.872430247751179e-06
137.0633311837204,67.75346984204681,12.5,0,-9.807896080101871,0.2434161748645036,1.986163422522074,-3.158000039621758e-05,8.625248623647907e-06,1.588930738017659e-05,2.85585308896248e-06,2.85481120397585e-06
137.9954009442852,68.72930156604993,12.5,0,-9.695915475062506,0.3739510642182564,1.912906371305379,-3.132609037157462e-05,8.953375785548424e-06,1.530325097044303e-05,2.891325358941466e-06,2.83413076485149e-06
138.311555149239,69.61081971681294,12.5,0,-9.482873056057201,0.229601194769002,1.854874055592673,-3.052887473519824e-05,8.321022268106566e-06,1.483899244474138e-05,2.736387440355835e-06,2.8128967386113e-06
139.789369759087,69.18065436902229,12.5,0,-9.376099268338134,0.3017791660883868,1.982100222945881,-3.024494099155273e-05,8.466572746153344e-06,1.585680178356705e-05,2.801902921157515e-06,2.841387543035606e-06
138.2432347396715,71.04334036859093,12.5,0,-9.167130447921403,0.3106396283795063,1.878147160577945,-2.958332913605209e-05,8.327751169151542e-06,1.502517728462356e-05,2.72906006993858e-06,2.775564739195747e-06
140.2930607437157,71.01995828730799,12.5,0,-9.155004235971676,0.3484957096208796,1.971660100653776,-2.957481012280606e-05,8.439189659564155e-06,1.577328080523021e-05,2.78306426057495e-06,2.801667985227464e-06
136.0510757541422,68.97297136874758,12.5,0,-9.373335091030135,0.07492065487285826,1.909502866994185,-3.005460881519472e-05,7.738414168417254e-06,1.527602293595348e-05,2.636138529668385e-06,2.809793191686604e-06
137.3098822895751,69.5551712246094,12.5,0,-9.432614450299347,0.2283006652414321,1.962817411399397,-3.036700677315105e-05,8.276653689012059e-06,1.570253929119518e-05,2.760542688818235e-06,2.804431057682214e-06
134.7729944729214,70.71328793893052,12.5,0,-9.17638021164878,0.2184241923074186,2.008163948507417,-2.953915603112203e-05,8.040061584702762e-06,1.606531158805934e-05,2.71747702110949e-06,2.749511427309492e-06
136.764137440292,70.96116829640317,12.5,0,-9.161691117586361,0.3689531105223809,2.074568910615883,-2.961257406469426e-05,8.510002847740706e-06,1.659655128492707e-05,2.834907135783713e-06,2.761589431622074e-06
226.3601783597708,206.535284798589,12.5,0.6544169609412711,17.2055383009383,9.983734323531362,-3.269957437028526,0.0001362067282942615,5.261693179178155e-05,-7.569717416537505e-05,0.0002876894936981296,0.0002725749710180822
227.6672474456391,207.7789627174348,12.5,0.6758175125249712,16.68415134725027,9.96121499171384,-3.408544930726586,0.000140107236117523,5.715474342861069e-05,-8.41142273236247e-05,0.0003005591503775128,0.000288927978860486
224.9939593066011,207.8882014729499,12.5,0.6630817568576074,16.36843421073301,10.22206985473991,-3.167459904172951,0.0001311930549628111,5.822147231811069e-05,-7.521017264320185e-05,0.0002882666963227922,0.0002789668550957059
226.0892787041092,209.0412240771959,12.5,0.6833857144088529,15.99873475186391,10.24166076088439,-3.353257704379067,0.0001358202221260082,6.308725645794871e-05,-8.472789402078269e-05,0.0003027747653294637,0.000295193286476789
228.7265391740867,204.1919643802309,12.5,0.6274848789426051,17.50854213406886,9.887788539536565,-3.244290831218081,0.0001291681901685207,4.733791629506754e-05,-6.967321642158456e-05,0.0002690061826228732,0.0002544596533083221
230.4003694786753,205.5926619099367,12.5,0.648785552403054,16.95812512744637,10.05716535740828,-3.394655101115794,0.0001316012722088932,5.300587481274011e-05,-7.732381453764118e-05,0.0002812653586261481,0.0002685761285407617
227.3603201209171,205.5448810545918,12.5,0.6450797318773176,16.5195632132442,9.968985313385614,-2.978658419761975,0.0001264718249794545,5.264591546453997e-05,-6.713977616476649e-05,0.0002726221976078144,0.0002660082860906105
228.8224007371454,206.8549232696979,12.5,0.6667908166390164,15.98713613653726,10.11031571738357,-3.15242947815653,0.0001292598920250997,5.87117713535633e-05,-7.568649690525083e-05,0.0002860512122585386,0.0002817959328869377
225.8273800433429,201.7658850927877,12.5,0.5822137045626343,17.52557643145634,10.14117784631724,-3.273725612168852,0.0001148168401584105,4.411659301498875e-05,-6.268708472099028e-05,0.0002421318205220615,0.0002289035135129978
227.5012103479315,203.1665826224936,12.5,0.6098105095758652,16.7478670174319,10.17405858530233,-3.358549936553928,0.0001164919320049649,4.910099920476202e-05,-6.88598748859831e-05,0.0002521942733909808,0.0002438294081503328
224.8279222088935,203.2758213780087,12.5,0.6012099487905319,16.56530271468855,10.06867311465118,-2.934340419213533,0.0001127260573801775,4.756265041619623e-05,-5.886486707106431e-05,0.0002439085002692356,0.0002389724601886985
226.2900028251219,204.5858635931148,12.5,0.6276029105185582,15.87825238586647,10.13381427622926,-3.06671620146368,0.0001146715627483909,5.296927482088571e-05,-6.58805621866496e-05,0.0002550382076879064,0.0002545337711643782
224.096268294085,204.3811714549354,12.5,0.6122000472631237,17.31665785262978,10.2464283645141,-3.254964943540913,0.0001217539148820896,4.882735119152767e-05,-6.714729943764421e-05,0.0002597866741226198,0.0002452142025045229
225.4033373799533,205.6248493737811,12.5,0.637432141822355,16.67357398174937,10.18741136662317,-3.367886630256697,0.0001246815089332888,5.31234546950864e-05,-7.43118631019202e-05,0.0002707815284371876,0.0002608618999457517
223.0968104596355,205.8911077401564,12.5,0.6238497733422461,16.38597339754408,10.29854097302297,-3.010175706346947,0.0001174963590648993,5.276230343387756e-05,-6.402071285387372e-05,0.0002589980522604436,0.0002521980129641317
224.1921298571436,207.0441303444024,12.5,0.6471638341944645,15.92533694390244,10.3172360578605,-3.19029760586914,0.0001210399996176622,5.746260671363852e-05,-7.233493422842516e-05,0.0002715696220297522,0.0002674463062799927
154.2809447506895,117.6557827846775,12.5,0,-1.472518253520773,1.3376121531232,2.019315314204433,-5.782148133765033e-06,5.458373492810858e-06,1.615452251363546e-05,4.255363856516877e-06,4.444702501893028e-06
155.759325013778,116.8485551263458,12.5,0,-1.430993612292781,1.238843154516031,2.043984591074455,-5.570254082949724e-06,5.109092984285522e-06,1.635187672859564e-05,4.125118413602973e-06,4.427822480676644e-06
155.4856206771648,119.1663440915545,12.5,0,-1.315352381230253,1.466573846269891,1.934488448463214,-5.382386696952722e-06,5.745318213047851e-06,1.547590758770571e-05,4.631091091997045e-06,4.964482208879589e-06
156.9867992402832,118.3749177567605,12.5,0,-1.276035487674148,1.366620400116878,1.960127051568791,-5.176609880650775e-06,5.394013670513326e-06,1.568101641255033e-05,4.482108424828481e-06,4.940240786122603e-06
156.3675046619624,120.2721517160891,12.5,0,-1.025822086431036,1.478795101136786,1.991626098611963,-4.465666757488745e-06,5.552801992782545e-06,1.59330087888957e-05,5.189704932970103e-06,5.402707470695155e-06
157.8853727390282,119.492292752951,12.5,0,-0.9825533301703746,1.375423946025089,2.021964494801073,-4.244509813365269e-06,5.187399291416584e-06,1.617571595840858e-05,5.040393199387251e-06,5.374714766453422e-06
157.5721805884378,121.782713022966,12.5,0,-0.8575084413762499,1.612236192498564,1.902751438697043,-4.03381596640285e-06,5.845162569096405e-06,1.522201150957634e-05,5.723586195173148e-06,6.080181444199795e-06
159.1128469655334,121.0186553833656,12.5,0,-0.8165792283015717,1.507654874014615,1.934076145923157,-3.819177429776721e-06,5.477758979488025e-06,1.547260916738525e-05,5.552744250362442e-06,6.049301449888407e-06
158.9965292905799,118.9213963692202,12.5,0,-1.247576447813602,1.61384214915946,1.968261578532843,-5.283318352331093e-06,6.162356035561154e-06,1.574609262826275e-05,5.152031317240494e-06,5.353032043517472e-06
160.5143973676456,118.1415374060821,12.5,0,-1.211092860671058,1.497316956104123,1.993522973508989,-5.073350719030685e-06,5.76028854807004e-06,1.594818378807191e-05,4.946207526137497e-06,5.32178644704923e-06
160.2406930310324,120.4593263712908,12.5,0,-1.080775609260525,1.75934948049179,1.874730069938744,-4.865961534027111e-06,6.494538824982146e-06,1.499784055950995e-05,5.690817060848664e-06,6.024973700667962e-06
161.781359408128,119.6952687316904,12.5,0,-1.046531343701964,1.641550532254164,1.901037666437915,-4.662140725649616e-06,6.090186778174894e-06,1.520830133150332e-05,5.458588767239268e-06,5.989389048072471e-06
156.8415744792199,116.2576234671973,12.5,0,-1.702055622921564,1.460950998900212,1.996496969365965,-6.615338792469173e-06,6.036687694817929e-06,1.597197575492772e-05,4.237004606495751e-06,4.41527397740842e-06
158.3199547423084,115.4503958088656,12.5,0,-1.665513251649035,1.352929315796099,2.017462116319577,-6.411985857913791e-06,5.661784411866745e-06,1.613969693055662e-05,4.072668830738943e-06,4.397870850135616e-06
158.0857382196724,117.7955534692679,12.5,0,-1.5453764717288,1.599506285180749,1.907864625868217,-6.224809737676758e-06,6.354721289961434e-06,1.526291700694574e-05,4.612410266940456e-06,4.921714302626899e-06
159.5869167827908,117.0041271344739,12.5,0,-1.510964858797609,1.490248441927301,1.929842835457108,-6.027286301694187e-06,5.97756690120545e-06,1.543874268365687e-05,4.426114055984946e-06,4.895340431185886e-06
294.0599243227374,140.7051009297142,12.5,0,4.476198952318052,1.341192410829699,-3.954954384612338,1.3250882718754e-05,7.108565528005963e-07,-3.16396350768987e-05,2.363800613589751e-05,2.400399274403098e-05
296.2666495430602,140.4673256019443,12.5,0,4.467137507428708,1.138692086921495,-3.809288420184373,1.338388635423467e-05,7.01046722058167e-08,-3.047430736147498e-05,2.284047854744945e-05,2.343585445148558e-05
294.7089709319669,143.0480823926371,12.5,0,4.936540705859083,1.516183119389569,-4.087616280965608,1.458398376323741e-05,9.025534173593558e-07,-3.270093024772486e-05,2.59157659688758e-05,2.533813798855324e-05
296.9202752378901,142.8456402989582,12.5,0,4.920708418156259,1.310658397439875,-3.939675267471392,1.469774022014813e-05,2.575401372825921e-07,-3.151740213977114e-05,2.508331623339239e-05,2.476826548910797e-05
290.2377641228636,141.1169398781905,12.5,0,4.555197342729325,1.575520537723162,-3.977260804326411,1.331621506655531e-05,1.397507846530657e-06,-3.181808643461129e-05,2.466115587985017e-05,2.501844754809848e-05
292.4444893431863,140.8791645504207,12.5,0,4.540016933625657,1.343437835597142,-3.82806469474242,1.345330391912439e-05,6.669875270103303e-07,-3.062451755793936e-05,2.374228114371256e-05,2.442804728620227e-05
290.8788795231811,143.3987223844731,12.5,0,5.019447279962983,1.759076497232137,-4.120365706820927,1.465497009809583e-05,1.613486967172451e-06,-3.296292565456741e-05,2.699721693583126e-05,2.635248438678078e-05
293.0901838291041,143.1962802907943,12.5,0,4.997246564429466,1.523693001061959,-3.96866993658025,1.477223460532472e-05,8.780203518546966e-07,-3.1749359492642e-05,2.604090683730044e-05,2.576262816280558e-05
291.3482085697084,145.0691031108228,12.5,0,5.313926415303597,1.464544933389823,-3.962981271084002,1.583292858225965e-05,4.35402654604556e-07,-3.170385016867201e-05,2.697164567808088e-05,2.732575766812734e-05
293.562864998943,144.8925267396933,12.5,0,5.290398574381912,1.240711834632602,-3.807232626009478,1.593670597031604e-05,-2.620409886812045e-07,-3.045786100807583e-05,2.605470309705871e-05,2.67350336348636e-05
291.9893239700259,147.3508856171055,12.5,0,5.785980411841009,1.646769718658169,-4.10232802996232,1.719772154296469e-05,6.40878770233333e-07,-3.281862423969856e-05,2.934441397859364e-05,2.865075288384615e-05
294.208559484861,147.2096424800669,12.5,0,5.755266549628138,1.419661841069569,-3.944111120498736,1.728112348595439e-05,-6.129534827988871e-08,-3.155288896398989e-05,2.838937815869643e-05,2.805711391359376e-05
295.1841060263829,144.7632638646158,12.5,0,5.233809973704929,1.236766601508609,-3.920313542142231,1.575877863464888e-05,-2.293948541363944e-07,-3.136250833713785e-05,2.594333223738778e-05,2.630933681069936e-05
297.3987624556177,144.5866874934862,12.5,0,5.214254031669077,1.032945331509532,-3.769131037950521,1.585925663613342e-05,-8.659781645047569e-07,-3.015304830360417e-05,2.511133272000804e-05,2.573703549167625e-05
295.8331526356125,147.1062453275387,12.5,0,5.701702411082361,1.413046114363991,-4.05291166954752,1.711501082397236e-05,-3.961436290111919e-08,-3.242329335638016e-05,2.82710553587888e-05,2.762855609264418e-05
298.0523881504475,146.9650021905001,12.5,0,5.675213969562066,1.206166567035065,-3.899433563833786,1.719575144897055e-05,-6.804381611374456e-07,-3.119546851067028e-05,2.740280454715488e-05,2.705135332203154e-05
292.0061906631996,227.9017950750194,12.5,0,15.03125705813334,-0.07294025173180163,0.2301426590004061,4.815837478741212e-05,-1.225841445204844e-05,1.841141272003249e-06,5.754557411553008e-05,5.755414910043601e-05
294.0229614890545,227.7991419323397,12.5,0,15.02852253489852,-0.07410978983980776,0.2109410141402262,4.81505599435471e-05,-1.22599693554062e-05,1.687528113121809e-06,5.753107256296474e-05,5.741266250417622e-05
292.6195925840308,229.7674140211535,12.5,0,14.98307702664341,-0.0848347303120196,0.2359049448613562,4.801371426950852e-05,-1.225793275831319e-05,1.887239558890849e-06,5.732465965939636e-05,5.741049167397171e-05
294.636520979643,229.6917209206437,12.5,0,14.98100923685007,-0.08584174689390434,0.2165414574628903,4.800790295543533e-05,-1.225950097954055e-05,1.732331659703122e-06,5.731319454176814e-05,5.734596813681362e-05
293.0686339555206,231.1331418772288,12.5,0,14.96664408998918,-0.04471783273307528,0.2284111900736744,4.792903535415184e-05,-1.211641233673719e-05,1.827289520589396e-06,5.73825259726995e-05,5.733283316742214e-05
295.0856777002008,231.0771848973606,12.5,0,14.96349452146376,-0.05440593054236365,0.2178223030450206,4.792670721311793e-05,-1.214489459490657e-05,1.742578424360165e-06,5.734088204152794e-05,5.732228981757116e-05
293.682035876352,232.9987608233628,12.5,0,14.9410224703741,-0.04836588637465278,0.2283064092552939,4.784996461429684e-05,-1.210758881269817e-05,1.826451274042351e-06,5.727304024872658e-05,5.726432360834403e-05
295.6992371907893,232.9697638856645,12.5,0,14.93822288434083,-0.05804328301325112,0.2176741640627384,4.784874785630127e-05,-1.213631681311507e-05,1.741393312501907e-06,5.723277532491154e-05,5.732429381372276e-05
296.5622562023329,231.0362215450607,12.5,0,14.96796129554948,-0.04620967716747604,0.1933148484073313,4.793444388749232e-05,-1.212224000337551e-05,1.546518787258651e-06,5.738226964020785e-05,5.73127130803717e-05
298.579299947013,230.9802645651926,12.5,0,14.96320973647282,-0.06600165072915054,0.1959406964634138,4.793507247729633e-05,-1.218177307151153e-05,1.56752557170731e-06,5.730425459275227e-05,5.729709229762189e-05
297.1759310419894,232.9485366540063,12.5,0,14.97678933124456,-0.03823931162666971,0.1852535927665631,4.795631730928392e-05,-1.210379726220099e-05,1.482028742132505e-06,5.744012336843011e-05,5.736397563356908e-05
299.1931323564267,232.9195397163081,12.5,0,14.97189594886601,-0.0582234073486565,0.1880018650564277,4.795664576225014e-05,-1.21638316626085e-05,1.504014920451421e-06,5.736096881484584e-05,5.741241817615189e-05
295.4993402007402,227.7239946163448,12.5,0,14.97741089466274,-0.07897891143501123,0.1931851440080515,4.799089799206876e-05,-1.223466123232222e-05,1.545481152064412e-06,5.731956808091766e-05,5.731134800692385e-05
297.5161110265951,227.6213414736651,12.5,0,14.97384342073615,-0.09007726283121364,0.1867463792802409,4.798836075662065e-05,-1.22673219776488e-05,1.493971034241927e-06,5.727221365908796e-05,5.717603824913513e-05
296.1130150403967,229.6363097252904,12.5,0,14.96221367503877,-0.07961633147249048,0.1911742566779607,4.794277682530204e-05,-1.222454320074298e-05,1.529394053423686e-06,5.725920213347875e-05,5.729861155031299e-05
298.1299434360088,229.5606166247806,12.5,0,14.95884039902669,-0.09075147222079361,0.1847367001004156,4.794089045466205e-05,-1.225747703032789e-05,1.477893600803325e-06,5.721248487938336e-05,5.723375448707279e-05
142.0377188077245,93.71070970079396,12.5,0,-5.530949011163943,0.584697910118251,2.10021474040045,-1.816679516381922e-05,6.295792521309558e-06,1.68017179232036e-05,2.392120667708014e-06,2.382000718545293e-06
144.0663183712076,92.74271900389745,12.5,0,-5.462168323805827,0.4706155429234018,2.15672293044163,-1.785543107051737e-05,5.875704396399547e-06,1.725378344353304e-05,2.331340797018185e-06,2.434775622913298e-06
143.1399430070324,95.58618152831508,12.5,0,-5.290051577147138,0.7229875671939898,1.998579140430847,-1.750655510062603e-05,6.545601476738478e-06,1.598863312344677e-05,2.41466247644748e-06,2.390634686395315e-06
145.1316780490102,94.74805726807156,12.5,0,-5.229510415247336,0.5975046345766242,2.062278717208074,-1.721243703645277e-05,6.095623162843066e-06,1.649822973766459e-05,2.345712297945638e-06,2.443033181345806e-06
138.5240812956229,95.38731876904262,12.5,0,-5.225072257711647,0.5212681027764134,2.117212682618784,-1.71372457068984e-05,5.84811573505384e-06,1.693770146095027e-05,2.320155304541384e-06,2.285141898701885e-06
140.552680859106,94.4193280721461,12.5,0,-5.164246929657614,0.4271461355266195,2.167058476354019,-1.686730708332566e-05,5.498265177411273e-06,1.733646781083215e-05,2.27401656670497e-06,2.341906482983631e-06
139.6901567191736,97.0378553300869,12.5,0,-5.0373285023537,0.6375322300006552,2.033118867066576,-1.662947699153237e-05,6.069965937885056e-06,1.626495093653261e-05,2.340582624622521e-06,2.297259944300551e-06
141.6818917611514,96.19973106984335,12.5,0,-4.983147336321365,0.533068417135341,2.089583387459956,-1.637252620993664e-05,5.692336803890183e-06,1.671666709967965e-05,2.288146982240204e-06,2.351574865252184e-06
140.5437831746338,98.24613195246994,12.5,0,-4.747605974973863,0.5890536274769862,2.114368356557887,-1.566358202189795e-05,5.683056387905446e-06,1.69149468524631e-05,2.332748689911463e-06,2.312353402567453e-06
142.5085315138741,97.50307652205026,12.5,0,-4.700996106689113,0.4741095143651479,2.174907418215898,-1.542247515289728e-05,5.277947331319764e-06,1.739925934572719e-05,2.278978393137974e-06,2.366094098596404e-06
141.7098585981844,99.89666851351419,12.5,0,-4.526627314555756,0.7279171492243299,2.014388031042415,-1.506754112595788e-05,5.95063672916246e-06,1.611510424833932e-05,2.367296622502532e-06,2.341471451817636e-06
143.6377424159194,99.28347951974752,12.5,0,-4.489820588027912,0.5993898645011413,2.083563331987096,-1.484693777329023e-05,5.509904036825981e-06,1.666850665589677e-05,2.303506482096785e-06,2.396092999512894e-06
143.9468271222234,96.95912219416623,12.5,0,-4.968721472459904,0.6958734114873717,2.074216154757607,-1.645660744106159e-05,6.201772094727512e-06,1.659372923806086e-05,2.411369789962673e-06,2.405180369493445e-06
145.9115754614637,96.21606676374657,12.5,0,-4.908714866468337,0.6168805595032318,2.144350313243168,-1.620139202030126e-05,5.900989683585011e-06,1.715480250594534e-05,2.388726976863515e-06,2.458225351438149e-06
145.0490513215313,98.83459402168734,12.5,0,-4.716480022342699,0.817071564983181,1.982472236286563,-1.574639332348318e-05,6.387813025820338e-06,1.58597778902925e-05,2.436422672545113e-06,2.436285946899998e-06
146.9769351392663,98.22140502792067,12.5,0,-4.666367130241188,0.7282602094090618,2.060524372534669,-1.551498298429905e-05,6.063526374301947e-06,1.648419498027735e-05,2.408961807953714e-06,2.491473573576915e-06
150.4416850855835,102.1395477082646,12.5,0,-4.101029635308299,0.9924881680650659,2.01801458112593,-1.391728536743861e-05,6.456785846054849e-06,1.614411664900744e-05,2.618598545484505e-06,2.656523142816963e-06
152.197229529826,101.8452288349246,12.5,0,-4.075022629354734,0.9380008144607193,2.108475405974503,-1.379047306550372e-05,6.261620709758088e-06,1.686780324779602e-05,2.637672295110924e-06,2.715720337577767e-06
151.2262230135438,103.7952693254723,12.5,0,-3.850319107844671,1.083048994881312,1.95124920811444,-1.3187460341008e-05,6.546012069895933e-06,1.560999366491552e-05,2.670729289381782e-06,2.731552817530278e-06
152.8704430759704,103.4682921392964,12.5,0,-3.815064022974272,1.028392774492546,2.044597306643595,-1.303091909311171e-05,6.342908096755562e-06,1.635677845314876e-05,2.692492802196945e-06,2.788903160144507e-06
153.4823772579022,101.6297724660225,12.5,0,-4.204593033119967,1.107702178187155,1.970645778209051,-1.434085944853362e-05,6.908321396694871e-06,1.576516622567241e-05,2.701780994626001e-06,2.75905566183031e-06
155.2379217021447,101.3354535926825,12.5,0,-4.166468264526674,1.09202917762139,2.06926635250089,-1.420632178858247e-05,6.827667980009787e-06,1.655413082000712e-05,2.765805615434239e-06,2.81825277469496e-06
154.0740957004396,103.2289282261099,12.5,0,-3.952684659450979,1.179380976665359,1.926606892253339,-1.359209569157542e-05,6.936166852889933e-06,1.541285513802671e-05,2.754669514140545e-06,2.830704398382816e-06
155.7183157628662,102.901951039934,12.5,0,-3.904040481597051,1.165161021736881,2.029502772872858,-1.342505835850007e-05,6.851747654835658e-06,1.623602218298287e-05,2.828803870020133e-06,2.887557162459791e-06
152.4574908516702,98.85995344038447,12.5,0,-4.664246210784174,1.040930686197164,1.962760268055058,-1.575833242346709e-05,7.062375164458264e-06,1.570208214444047e-05,2.633078026161761e-06,2.669988385938997e-06
154.4058547813356,98.6222004241648,12.5,0,-4.635970075766049,1.016929126077118,2.073600865659415,-1.564864754331305e-05,6.962949264059616e-06,1.658880692527532e-05,2.689419690389983e-06,2.732226473412818e-06
153.0492092942076,100.4591092004718,12.5,0,-4.41031009057857,1.114059834776275,1.917455072389428,-1.500424015767244e-05,7.093239543746934e-06,1.533964057911542e-05,2.667793867835474e-06,2.715991936086579e-06
154.8862488420572,100.1886978714162,12.5,0,-4.372934882588567,1.090982503049075,2.032787109573588,-1.486617762672267e-05,6.989491915827893e-06,1.62622968765887e-05,2.731287896180231e-06,2.776632042006349e-06
149.0828255339157,99.27175374412226,12.5,0,-4.569071572738919,0.9180502040988889,2.020993965443309,-1.535546919604365e-05,6.593017911307579e-06,1.616795172354647e-05,2.551073351705211e-06,2.563975498171853e-06
151.0311894635811,99.03400072790261,12.5,0,-4.554715732701245,0.844897048985328,2.12425436513195,-1.525100798383224e-05,6.347443142914046e-06,1.69940349210556e-05,2.558449121049143e-06,2.624905672998835e-06
149.867363461876,100.92747536133,12.5,0,-4.313054098361888,1.01360745892746,1.950361626793879,-1.461265908190001e-05,6.693987147257381e-06,1.560289301435103e-05,2.586536486458198e-06,2.611620935426498e-06
151.7044030097256,100.6570640322743,12.5,0,-4.290687027874258,0.9395060632096113,2.056790380470174,-1.448180333976531e-05,6.438969024570162e-06,1.645432304376139e-05,2.593820114268121e-06,2.671777343337718e-06
209.3253902426986,189.1451231434893,12.5,0.05920680254465938,16.3378722270703,11.21036056942018,-2.770162398944653,4.603870732509721e-05,2.423790488936947e-05,-2.355597303583737e-05,0.0001067211108374797,0.0001060699623794338
211.0732442636589,188.4261990288149,12.5,0.08325409663069483,16.31707194537676,10.46315443880458,-2.2935839038162,4.782580048956015e-05,2.228364105341825e-05,-2.001500215391522e-05,0.0001064806516579213,0.0001087512186514649
210.3505165863901,190.7710627702851,12.5,0.1283972008251811,16.41771021213249,11.02437188261691,-3.051166360814562,5.015722209029071e-05,2.540586362920422e-05,-2.800510841592728e-05,0.0001148413502037435,0.0001141692643504186
212.1888340102531,190.1068671978952,12.5,0.1562120502493292,16.19829575483322,10.23269949523142,-2.569503112305702,5.172909477100108e-05,2.344902150679031e-05,-2.436160045248296e-05,0.0001142610096428994,0.0001177851139995062
211.1009611541178,191.9613331870885,12.5,0.17761159216413,16.68743490579245,11.39142912654604,-3.042097703946187,5.385125565405296e-05,2.809210959224041e-05,-2.95928072425196e-05,0.00012449540094168,0.0001207269099986764
213.0055023851282,191.3372016882735,12.5,0.2073793958022693,16.40625358756899,10.49021605844191,-2.46339387852988,5.564811007923774e-05,2.579252723016389e-05,-2.486328380043324e-05,0.0001237270825325666,0.0001250724976872827
212.1260874978093,193.5872728138843,12.5,0.2420353316531308,16.66401531666531,11.11853222343623,-3.277895276964003,5.861753864000343e-05,2.935241151831927e-05,-3.45968134278674e-05,0.0001337589305383333,0.0001305434291175267
214.1210921317225,193.0178698573539,12.5,0.2735301348224051,16.21117052182253,10.194757067762,-2.703699493485751,6.018135384725778e-05,2.705450995489763e-05,-2.97735625174189e-05,0.0001326290275378536,0.0001359481048293421
214.3997233312784,190.8803057205562,12.5,0.2238579564979463,16.75932232935643,11.34056785621028,-2.894239974327017,5.740879204008028e-05,2.948217979938258e-05,-2.983206487583464e-05,0.0001319884962988092,0.000127615472141148
216.3042645622889,190.2561742217412,12.5,0.2400518778321065,16.72227393160508,10.50080130703343,-2.35751334342892,5.936015133088692e-05,2.66133232614985e-05,-2.481762398942364e-05,0.0001306158758632426,0.0001302174198631468
215.5815368850201,192.6010379632114,12.5,0.2910099895650992,16.70928425203505,11.11048980369228,-3.210461878469255,6.288003654129307e-05,3.129259882882988e-05,-3.6225750221783e-05,0.0001431746908083072,0.0001391456191475226
217.5765415189333,192.031635006681,12.5,0.3083847529014833,16.52681396578223,10.27340546058603,-2.686703152782072,6.458371256189458e-05,2.841673370230081e-05,-3.10774311474873e-05,0.0001414001713124884,0.0001424767150112767
212.352762211161,187.8999100501091,12.5,0.09666630126565234,16.44637932942059,11.25164867990032,-2.690010192634746,4.829565748665319e-05,2.529316945017873e-05,-2.38229588592007e-05,0.0001117358428702349,0.0001103064407983321
214.1006162321213,187.1809859354346,12.5,0.1098083644935045,16.55170584793327,10.48387140289382,-2.282458666358465,5.007726405529243e-05,2.281196879519031e-05,-2.051206571995978e-05,0.0001107146100036445,0.0001118741304487791
213.5345757649027,189.6206422927643,12.5,0.1716164985589534,16.39793567962231,11.08908802747847,-3.032837810789945,5.26351909193735e-05,2.700045704112208e-05,-2.928921501226477e-05,0.0001210153316357179,0.0001198880375923458
215.3728931887657,188.9564467203744,12.5,0.1866737079801659,16.35720914603879,10.3182197395671,-2.626826107325116,5.420763340403031e-05,2.450742837820075e-05,-2.583785752998682e-05,0.0001196462763944897,0.0001220174820435756
169.7479877833138,147.0404038298033,12.5,0,3.877909830851627,2.732256237016425,1.628333498413786,1.022350646911207e-05,5.640892093771257e-06,1.302666798731029e-05,2.438313223842296e-05,2.428144079635816e-05
171.3741313066992,146.1846466544188,12.5,0,3.965577946692167,2.655474448803597,1.688783960274664,1.056546987037206e-05,5.325055878817775e-06,1.351027168219731e-05,2.446210045413147e-05,2.428534348693964e-05
170.9586207906932,148.6241873321446,12.5,0,4.108818016027646,2.863574854574441,1.52925975264192,1.085735776762891e-05,5.876385121816093e-06,1.223407802113536e-05,2.564455747886957e-05,2.587865763135565e-05
172.5849278608761,147.7704144796838,12.5,0,4.196322953142766,2.786625135948269,1.589838406453002,1.119893334129823e-05,5.560142072520246e-06,1.271870725162402e-05,2.572016473052577e-05,2.589943128082113e-05
171.8448656613771,149.7835973239985,12.5,0,4.446721669554389,2.987303072058098,1.576475719605981,1.183966688492756e-05,6.001992494942404e-06,1.261180575684785e-05,2.733271304391084e-05,2.707229503604871e-05
173.4712924561253,148.9312770967364,12.5,0,4.5223943696061,2.885048153788974,1.628348811923676,1.216362345970834e-05,5.614238596439837e-06,1.302679049538941e-05,2.727395253300756e-05,2.710379269936101e-05
173.0554986687565,151.3673808263397,12.5,0,4.67177612618636,3.133899878307015,1.471598907383756,1.244256370115074e-05,6.291058709633358e-06,1.177279125907005e-05,2.86341509941906e-05,2.873615623662593e-05
174.6820890103022,150.5170449220013,12.5,0,4.74728381678371,3.031447476416748,1.52360064324382,1.276615023257447e-05,5.902804871106625e-06,1.218880514595056e-05,2.8571902707356e-05,2.878008149174608e-05
174.6619195046217,148.3073353860883,12.5,0,4.191373451304655,3.22914145842338,1.551902347814347,1.082908187743619e-05,6.980153905911091e-06,1.241521878251478e-05,2.723905893145143e-05,2.711292861178327e-05
176.2883462993698,147.4550151588261,12.5,0,4.277244889013103,3.141639082694001,1.611302878988585,1.117387237868673e-05,6.631449153410318e-06,1.289042303190868e-05,2.726665357438825e-05,2.710639072538317e-05
175.8728357833638,149.8945558365519,12.5,0,4.427394934203847,3.369401734281578,1.447974914891073,1.147214240202705e-05,7.240169602337971e-06,1.158379931912859e-05,2.855870998057593e-05,2.880033000678023e-05
177.4994261249095,149.0442199322134,12.5,0,4.513097461169251,3.281716842167269,1.507507460959902,1.181653840200779e-05,6.891015925999857e-06,1.206005968767921e-05,2.858313831724798e-05,2.881172472351355e-05
172.5645509861657,145.5581889231224,12.5,0,3.636476629509531,2.991999189691383,1.619897734746465,9.24312586267739e-06,6.665216103404802e-06,1.295918187797172e-05,2.441491297693916e-05,2.427552711697583e-05
174.1906945095511,144.7024317477379,12.5,0,3.715993532922203,2.896638636594667,1.674201035689614,9.573868396075316e-06,6.296448810765173e-06,1.339360828551691e-05,2.439075576198299e-05,2.424480560490619e-05
173.7754672649079,147.145409373586,12.5,0,3.864189068896587,3.134871996267218,1.516246381546957,9.857507423455302e-06,6.940239132937828e-06,1.212997105237565e-05,2.570261450978378e-05,2.59005113315879e-05
175.4017743350908,146.2916365211252,12.5,0,3.943541201949019,3.039322028846958,1.570678285971565,1.018787422315929e-05,6.570997530751048e-06,1.256542628777252e-05,2.567505148124643e-05,2.588268843569215e-05
298.4492041917308,156.8402799711366,12.5,0,7.426751403760242,0.8558181680656005,-3.663237341804219,2.308094995758029e-05,-3.202782985198271e-06,-2.930589873443375e-05,3.251089492403113e-05,3.291763116798713e-05
300.6978510722865,156.8316021847368,12.5,0,7.381579702904105,0.6688298908867656,-3.500220490483162,2.308599113658372e-05,-3.765008111485633e-06,-2.800176392386529e-05,3.166200323819705e-05,3.232181131670558e-05
299.0488648988983,159.1521816338536,12.5,0,7.89168987134823,1.019391254164301,-3.780235392761972,2.44378945849829e-05,-3.051299883752821e-06,-3.024188314209577e-05,3.480726789941013e-05,3.411705995425839e-05
301.2965884637109,159.1616099565767,12.5,0,7.842788357616369,0.8306658646845209,-3.615903355069837,2.443239005262476e-05,-3.616099919102628e-06,-2.89272268405587e-05,3.393767432864831e-05,3.351255758167839e-05
294.554433546397,156.855310338078,12.5,0,7.523111289131116,1.070925694487697,-3.743677012174167,2.321721556962941e-05,-2.591526808944263e-06,-2.994941609739334e-05,3.358263106892622e-05,3.398173982096286e-05
296.8030804269527,156.8466325516782,12.5,0,7.4728650387603,0.8634176712089994,-3.574948974608831,2.322243398706576e-05,-3.215355483139441e-06,-2.859959179687065e-05,3.264373867641557e-05,3.336240767018243e-05
295.1556934833429,159.1358512998672,12.5,0,7.999088612702135,1.242592920732472,-3.869261204215795,2.460300922406085e-05,-2.422973543817798e-06,-3.095408963372636e-05,3.595371091688376e-05,3.519947276698607e-05
297.4034170481555,159.1452796225904,12.5,0,7.944961756695859,1.033208559400835,-3.699117916098672,2.459731077390608e-05,-3.049702015274014e-06,-2.959294332878937e-05,3.499290754583215e-05,3.456906751584732e-05
295.5958463057243,160.805323152568,12.5,0,8.22730815969652,0.9223398805805916,-3.612696263996252,2.558951420656439e-05,-3.630358909899323e-06,-2.890157011197002e-05,3.564191084326115e-05,3.60711371259773e-05
297.8428939565015,160.8280060670959,12.5,0,8.173825558709204,0.7251817941122614,-3.44580180941642,2.557609635257964e-05,-4.218478705808127e-06,-2.756641447533136e-05,3.473496732343441e-05,3.543308232441337e-05
296.1971062426701,163.0858641143571,12.5,0,8.694974120574125,1.088951809692188,-3.73301990672022,2.695275573808345e-05,-3.471333505444298e-06,-2.986415925376176e-05,3.796749388680673e-05,3.723483549596634e-05
298.4432305777044,163.126653138008,12.5,0,8.637651577430427,0.8899753832468202,-3.564750312411277,2.692850474117991e-05,-4.062200035554516e-06,-2.851800249929022e-05,3.703871515866106e-05,3.658695483434319e-05
299.4878470038289,160.8446111129934,12.5,0,8.117455141533435,0.7167887803691573,-3.524715343946379,2.540242542861166e-05,-4.200240016045444e-06,-2.819772275157104e-05,3.454891454990704e-05,3.497604410965747e-05
301.7348946546062,160.8672940275214,12.5,0,8.069483815260639,0.541057846714911,-3.364023431278162,2.538950193146212e-05,-4.724201942720796e-06,-2.691218745022529e-05,3.373592331876301e-05,3.436544728745461e-05
300.0875077109964,163.1565127757104,12.5,0,8.572855810513985,0.8747890818843709,-3.635951518286568,2.673330732813725e-05,-4.058959586381201e-06,-2.908761214629255e-05,3.679396916275617e-05,3.612340367893288e-05
302.3336320460306,163.1973017993613,12.5,0,8.521206109116948,0.6973851575515833,-3.473989562572007,2.670995142313296e-05,-4.585332383128492e-06,-2.779191650057605e-05,3.596047026201109e-05,3.550483903201399e-05
326.5028787653704,236.8637702724867,12.5,0,15.33264922742283,0.07751785196555705,0.1242057881633933,4.900246324618059e-05,-1.201806225564848e-05,9.936463053071467e-07,5.915718592718415e-05,5.851719220719245e-05
328.4552120639028,236.7287012753658,12.5,0,15.42631961185553,0.3105901741541959,0.3346944207313672,4.911575061861432e-05,-1.134716713219099e-05,2.677555365850938e-06,6.02314783366609e-05,5.828193830359009e-05
327.0644290267611,239.1596497772605,12.5,0,15.98242749621721,0.1773486710205896,0.1654734123888221,5.100188905107859e-05,-1.221842624970788e-05,1.323787299110576e-06,6.195798476824543e-05,5.894767789562683e-05
329.0505734564449,239.1234581485606,12.5,0,16.04879038818765,0.4052139354761577,0.3732815716173858,5.103195809381955e-05,-1.154234771702642e-05,2.986252572939087e-06,6.291365366516534e-05,5.860599952191327e-05
325.5302451816555,232.8871903222337,12.5,0,14.83204723204173,0.1566738644030155,0.03826427543340751,4.733721205101113e-05,-1.136428141954374e-05,3.061142034672601e-07,5.747312230932681e-05,5.734134059429276e-05
327.4240158831734,232.580860699292,12.5,0,14.86958702273443,0.2039147390763487,0.1043391138192036,4.741954668148907e-05,-1.124314245314322e-05,8.347129105536286e-07,5.776163190419744e-05,5.708784085118374e-05
326.0917954430462,235.1830698270076,12.5,0,15.04258025895104,0.1976481410720927,0.03773565825733374,4.797813831578564e-05,-1.140159015573013e-05,3.018852660586699e-07,5.840680988650465e-05,5.80867754245414e-05
328.0193772757155,234.9756175724869,12.5,0,15.07116722671967,0.2429603791042023,0.1035244164998041,4.803336682221958e-05,-1.127946056824229e-05,8.281953319984325e-07,5.865517571402032e-05,5.787514891379846e-05
322.2501381088,233.4177687930226,12.5,0,14.97113522687218,0.03094754082812878,0.04402301292372158,4.788287469332847e-05,-1.187787605084773e-05,3.521841033897726e-07,5.762603677151948e-05,5.763210035822951e-05
324.143908810318,233.111439170081,12.5,0,15.01660373374312,0.07282625399011788,0.1325441670609853,4.79948709447859e-05,-1.178023897422612e-05,1.060353336487883e-06,5.792856893679702e-05,5.748717448967411e-05
322.7531257731762,235.5423876719757,12.5,0,15.23862954808709,0.08937854573872839,0.03433997819142585,4.869211171728768e-05,-1.190489229210574e-05,2.747198255314068e-07,5.883111312607327e-05,5.825969092553918e-05
324.6807076058456,235.334935417455,12.5,0,15.27184879340981,0.1284209821883371,0.1228513499673808,4.87671793531607e-05,-1.180653189172516e-05,9.828107997390464e-07,5.907805275245734e-05,5.818981314603996e-05
323.1213382990644,237.0977166380233,12.5,0,15.4032720319695,-0.002656515915592017,0.03518610667535408,4.929259571503485e-05,-1.233111847650549e-05,2.814888534028327e-07,5.918488310372986e-05,5.861700406983124e-05
325.0736715975969,236.9626476409023,12.5,0,15.40809613795321,-0.0431820298528427,0.1204999221943723,4.934045326533253e-05,-1.246465940589166e-05,9.639993775549787e-07,5.908153316634568e-05,5.860697280866529e-05
323.6243259634406,239.2223355169762,12.5,0,15.66758067915662,0.07461736065262592,-0.006931692115479463,5.007656428477909e-05,-1.22952889892369e-05,-5.54535369238357e-08,6.043466635184019e-05,5.896561116698115e-05
325.6104703931244,239.1861438882763,12.5,0,15.66060568507366,0.03085119229196387,0.07983338945439458,5.008925723840214e-05,-1.242976073272464e-05,6.386671156351567e-07,6.027551840382567e-05,5.904403554550859e-05
260.121384705017,90.29161255569322,12.5,0,-5.512503386534005,2.211860005257014,-2.465251462393156,-1.940949884111443e-05,1.148795472604965e-05,-1.972201169914525e-05,4.372282661044542e-06,4.355864895637528e-06
262.3407971784044,90.37919885237865,12.5,0,-5.605710210235275,1.903587517808211,-2.297172966332929,-1.946114268699945e-05,1.057604822517449e-05,-1.837738373066343e-05,3.841364201739414e-06,4.344118689603193e-06
260.8968718299577,92.52728747073127,12.5,0,-5.043410222645064,2.429374239595395,-2.638387217863633,-1.808241210414052e-05,1.180872574482131e-05,-2.110709774290906e-05,4.915673077858246e-06,4.577043072938414e-06
263.1070289577418,92.61862051773093,12.5,0,-5.137945155692356,2.119204106809785,-2.469172064745976,-1.813678778366337e-05,1.089180926634519e-05,-1.97533765179678e-05,4.295011140553942e-06,4.565394604532696e-06
258.7782016040284,86.41931001370969,12.5,0,-6.239131745691385,2.107760340416662,-2.322880265494308,-2.165142985854576e-05,1.173613848588642e-05,-1.858304212395447e-05,4.098402854498247e-06,4.069751133361879e-06
261.0136448062418,86.50040674848772,12.5,0,-6.329393628844098,1.806143054573516,-2.155010589217554,-2.169897405595992e-05,1.084317267771053e-05,-1.724008471374043e-05,3.646801661091517e-06,4.057506427857761e-06
259.5536887289691,88.65498492874772,12.5,0,-5.77333461534224,2.321659192162307,-2.492465175976937,-2.033199812282501e-05,1.204797710719317e-05,-1.99397214078155e-05,4.51586874212308e-06,4.219936430105408e-06
261.7798765855793,88.73982841383997,12.5,0,-5.864893338573808,2.018198647536361,-2.323475872068406,-2.038221760146527e-05,1.11501503429754e-05,-1.858780697654725e-05,3.994000379653306e-06,4.208030462822065e-06
254.90630040043,86.27884634874871,12.5,0,-6.353101303876776,2.202205956635087,-2.174643433982089,-2.209168893771375e-05,1.21295401043337e-05,-1.739714747185672e-05,4.117460101936058e-06,4.08301805466787e-06
257.1417436026433,86.35994308352674,12.5,0,-6.443314202177588,1.900219701407938,-2.008325405094443,-2.213878120809463e-05,1.123535440624747e-05,-1.606660324075554e-05,3.671223640404074e-06,4.076586953163039e-06
255.6978182541967,88.50803170187935,12.5,0,-5.892165994778759,2.417041820355069,-2.344686429311656,-2.078856463957608e-05,1.244826662095922e-05,-1.875749143449325e-05,4.52424988828813e-06,4.232948933399186e-06
257.9240061108068,88.59287518697161,12.5,0,-5.983670630406843,2.113202846836951,-2.177251777419351,-2.083830829477146e-05,1.154918561420372e-05,-1.741801421935481e-05,4.009028474677203e-06,4.226613314172959e-06
256.2772495382272,90.13990863978995,12.5,0,-5.632149579313083,2.318626558414469,-2.315838632830736,-1.987777990053344e-05,1.192532465037676e-05,-1.852670906264588e-05,4.390751435076625e-06,4.368664171047829e-06
258.4966620116144,90.22749493647541,12.5,0,-5.72610954741585,2.00687037045661,-2.148901929405517,-1.992904684809601e-05,1.100287282339383e-05,-1.719121543524414e-05,3.861266648514989e-06,4.362441837568247e-06
257.068767391994,92.36909399292058,12.5,0,-5.166681276134707,2.538492142454402,-2.49073637017443,-1.856417379759458e-05,1.225651987676185e-05,-1.992589096139544e-05,4.924578460425045e-06,4.589514216949658e-06
259.278924519778,92.46042703992026,12.5,0,-5.261970522361644,2.224810827561991,-2.322661549064846,-1.861815433360685e-05,1.132897106608769e-05,-1.858129239251877e-05,4.305637910855651e-06,4.583505903607089e-06
249.5888882814311,82.26883236159404,12.5,0,-7.169860051190055,2.157518252224813,-1.87661745940951,-2.466956676558802e-05,1.263994644807144e-05,-1.501293967527608e-05,3.945143172651971e-06,3.890551858947245e-06
251.8244135659802,82.38955925090472,12.5,0,-7.270989129878251,1.840334271105967,-1.708596812206701,-2.473943263249517e-05,1.170586097144169e-05,-1.366877449765361e-05,3.544549639884837e-06,3.891853062657495e-06
250.4494114341284,84.46808351196864,12.5,0,-6.713841216785744,2.384333426632339,-2.054439585890831,-2.339175863502025e-05,1.300093993865208e-05,-1.643551668712665e-05,4.27575064002345e-06,3.992075783010995e-06
252.6736542777021,84.5865301987059,12.5,0,-6.815097224410385,2.065812076505656,-1.885755511040529,-2.346096077931775e-05,1.206267642434641e-05,-1.508604408832423e-05,3.817197373940789e-06,3.99310511868356e-06
248.0984184598968,78.45961763060939,12.5,0,-7.864243789036292,2.024744090214454,-1.74031691873959,-2.678537539708769e-05,1.277057611991528e-05,-1.392253534991672e-05,3.823579650304071e-06,3.757436258164536e-06
250.3534855054484,78.58429394662873,12.5,0,-7.963718939447391,1.7155911021125,-1.573508889250584,-2.685637348792165e-05,1.186086667831791e-05,-1.258807111400467e-05,3.474736130825239e-06,3.758461552802092e-06
248.9589416125941,80.65886878098398,12.5,0,-7.416087122537591,2.245694183791454,-1.913151567725906,-2.552803413915345e-05,1.311909108616272e-05,-1.530521254180725e-05,4.082878823897778e-06,3.827680387754171e-06
251.2027262171703,80.7812648944299,12.5,0,-7.51568641482738,1.93524828498587,-1.745687433390368,-2.559839515543631e-05,1.220534364381669e-05,-1.396549946712294e-05,3.688534475205599e-06,3.828980508672353e-06
244.1925277625972,78.24367191676725,12.5,0,-7.981847059522716,2.066674070744394,-1.567926533251605,-2.71952498470682e-05,1.299883467400023e-05,-1.254341226601284e-05,3.816559457599986e-06,3.751683718656266e-06
246.4475948081489,78.36834823278659,12.5,0,-8.082805217064779,1.75185020438518,-1.40052893989562,-2.726645685811543e-05,1.207216482768439e-05,-1.120423151916496e-05,3.470682159445631e-06,3.755620142978787e-06
245.072592676297,80.44687249385051,12.5,0,-7.530491315323228,2.292973231689342,-1.744621285839915,-2.59319507943858e-05,1.336190739366448e-05,-1.395697028671932e-05,4.07005984705292e-06,3.820524451753603e-06
247.3163772808733,80.56926860729642,12.5,0,-7.631577988650525,1.976835503240193,-1.576568662080681,-2.600251796627383e-05,1.243113600128904e-05,-1.261254929664545e-05,3.678621508995528e-06,3.825414594131711e-06
245.7168449070567,82.05972725547196,12.5,0,-7.28305548377529,2.213268162493939,-1.707380535018145,-2.507639207807608e-05,1.290890250700083e-05,-1.365904428014516e-05,3.940183959293641e-06,3.882705211176875e-06
247.9523701916058,82.18045414478263,12.5,0,-7.384562813573299,1.893696386018575,-1.540930219294458,-2.514555811224941e-05,1.196747868611808e-05,-1.232744175435566e-05,3.546022347666357e-06,3.88810069953061e-06
246.5969098207565,84.26292783255522,12.5,0,-6.829623504650696,2.442904216508288,-1.887095461026349,-2.380911858808885e-05,1.328099229654708e-05,-1.509676368821079e-05,4.260942976453527e-06,3.983745472084352e-06
248.8211526643302,84.38137451929248,12.5,0,-6.931261411799602,2.121987690000753,-1.719991575981441,-2.387762666975933e-05,1.233536973744209e-05,-1.375993260785153e-05,3.809831267703931e-06,3.989567873263374e-06
267.4704561594817,157.348191938522,12.5,0,8.023457607303213,3.471312355515624,-4.234940152619859,2.289801445895778e-05,4.689433451807428e-06,-3.387952122095887e-05,4.345821187421144e-05,4.3157318456221e-05
269.7438748063378,157.8393189737546,12.5,0,7.76104772991501,2.979829664705246,-3.939769123740612,2.245148900396383e-05,3.32661674312478e-06,-3.151815298992489e-05,4.069040257425364e-05,4.272884160243237e-05
267.9123128918018,159.4889010029446,12.5,0,8.693942961096045,3.721663109382594,-4.445452923563566,2.484328698800127e-05,4.954167581147466e-06,-3.556362338850852e-05,4.68701052956522e-05,4.477359484112755e-05
270.1876589624185,159.980990536367,12.5,0,8.431562876594535,3.230504403332759,-4.150460424674101,2.43965976824363e-05,3.592363789389199e-06,-3.320368339739281e-05,4.410485730163188e-05,4.428847423630223e-05
266.7051378494509,153.6403750747854,12.5,0,7.178726745807117,3.570608118671458,-4.214329253656211,2.01154390916456e-05,5.682964583102971e-06,-3.371463402924968e-05,4.070254507811682e-05,4.030035346484834e-05
268.975218100426,154.1298350142512,12.5,0,6.92178111342417,3.085151752688122,-3.926473968194732,1.968157816080684e-05,4.335060717862655e-06,-3.141179174555786e-05,3.796544791420245e-05,3.99643209669153e-05
267.1469945817709,155.7810841392081,12.5,0,7.832757338015189,3.816060173441399,-4.422063302529959,2.201197534289548e-05,5.945186684600326e-06,-3.537650642023967e-05,4.402972085852585e-05,4.195871704193481e-05
269.4190022565065,156.2715065768636,12.5,0,7.575841584250521,3.330924749499381,-4.134381710923325,2.157795327000216e-05,4.598285930997601e-06,-3.30750536873866e-05,4.129579022329364e-05,4.157018822598781e-05
262.7732435175741,152.7926055913763,12.5,0,6.937411558670906,4.021732899242357,-4.188909547498699,1.898233066835301e-05,7.319616030638815e-06,-3.35112763799896e-05,4.133012467132403e-05,4.081888352794338e-05
265.0433237685491,153.2820655308421,12.5,0,6.67371977607946,3.513096907211062,-3.897435861918057,1.854542575768542e-05,5.902934282211829e-06,-3.117948689534446e-05,3.847465241605588e-05,4.052933281295056e-05
263.211761854013,154.931647560032,12.5,0,7.596323088076634,4.271935734524895,-4.404587570440823,2.089068529422531e-05,7.593135880018358e-06,-3.523670056352658e-05,4.469387308937301e-05,4.257362918047547e-05
265.4837695287486,155.4220699976877,12.5,0,7.332665267149832,3.763638026863545,-4.113288418455981,2.045361843338862e-05,6.177509472243478e-06,-3.290630734764785e-05,4.184250408555229e-05,4.222758823533372e-05
263.5327795563233,156.4975349605436,12.5,0,7.804542956246153,3.950402689958262,-4.239835039163532,2.181421530802108e-05,6.397654242869515e-06,-3.391868031330826e-05,4.426338309784003e-05,4.3845914413132e-05
265.8061982031793,156.9886619957763,12.5,0,7.533214865976842,3.430185227496881,-3.93916201415283,2.136213938912839e-05,4.950020835208543e-06,-3.151329611322264e-05,4.134911735175641e-05,4.345663721372541e-05
263.9712978927623,158.6365769291994,12.5,0,8.483772987445061,4.207424413170692,-4.460433012204945,2.378213402928764e-05,6.676739732190164e-06,-3.568346409763955e-05,4.773432143658688e-05,4.556711665808489e-05
266.246643963379,159.1286664626219,12.5,0,8.212479464113567,3.68755216164926,-4.159940284879742,2.332989255584401e-05,5.230183345986779e-06,-3.327952227903793e-05,4.482362022513852e-05,4.511620604544173e-05
313.1065217490601,185.7765337901553,12.5,0,11.23061233705496,-0.1864150222302063,-2.053441575261615,3.608709149636004e-05,-9.581017940780631e-06,-1.642753260209292e-05,4.290289964969106e-05,4.332111021502096e-05
315.6187114505788,186.0520872392276,12.5,0,11.17512740229608,-0.256775343031316,-1.912769892610945,3.596582796177249e-05,-9.761783019537071e-06,-1.530215914088756e-05,4.244045278877644e-05,4.275186670964676e-05
313.632856934578,188.1901298035044,12.5,0,11.58064494674246,-0.08730945572131654,-2.10308588386094,3.712791139415294e-05,-9.543906215702183e-06,-1.682468707088752e-05,4.455007656688312e-05,4.416303342431334e-05
316.2046369919796,188.47838615583,12.5,0,11.52552018868239,-0.1563332662281796,-1.96546522304177,3.700673121676619e-05,-9.720682602876087e-06,-1.572372178433416e-05,4.40933847562751e-05,4.358743952316724e-05
312.1948824659482,181.5960628661643,12.5,0,10.75652342665171,-0.1236919227247579,-2.309240149260593,3.451982850346527e-05,-9.001032894040591e-06,-1.847392119408474e-05,4.136602393016439e-05,4.178987334483395e-05
314.6038586434383,181.8496142413985,12.5,0,10.6978560795877,-0.2123521820374976,-2.167402560314722,3.440302120031062e-05,-9.237811846190148e-06,-1.733922048251777e-05,4.083005881406728e-05,4.124184782061088e-05
312.7212176514661,184.0096588795133,12.5,0,11.12363051649257,-0.01608642318494136,-2.367949829185328,3.560848679132417e-05,-8.950380967385867e-06,-1.894359863348263e-05,4.310599473852911e-05,4.268522388823446e-05
315.1897841848392,184.2759131580009,12.5,0,11.06536748449595,-0.10294810418634,-2.22929083273178,3.549153443373611e-05,-9.181727920993046e-06,-1.783432666185424e-05,4.257732967103865e-05,4.21233673071932e-05
308.0224133323872,181.1568990019376,12.5,0,10.93683495810123,-0.03909635221179908,-2.40130848739762,3.502914894769338e-05,-8.874576293558742e-06,-1.921046789918096e-05,4.23376220034493e-05,4.280274095243712e-05
310.4313895098774,181.4104503771718,12.5,0,10.8756809173289,-0.1294697921664301,-2.25160225708859,3.490575476918563e-05,-9.114848068795698e-06,-1.801281805670872e-05,4.178275625512209e-05,4.220811339896506e-05
308.4455349938767,183.5484929414485,12.5,0,11.32009536701774,0.06962991808868546,-2.455698441325015,3.61686012399858e-05,-8.833260555730395e-06,-1.964558753060012e-05,4.414181884425325e-05,4.371644756231356e-05
310.9141015272497,183.8147472199361,12.5,0,11.25936314420414,-0.01889916062512809,-2.309382857847457,3.604508138995333e-05,-9.067967829363716e-06,-1.847506286277965e-05,4.359477739516916e-05,4.311208845605865e-05
308.7552815478567,185.2992612161699,12.5,0,11.43265595823524,-0.1215952341282165,-2.143267280171977,3.668177525365532e-05,-9.53522951579848e-06,-1.714613824137581e-05,4.389464137735657e-05,4.436064888491072e-05
311.2674712493753,185.5748146652422,12.5,0,11.37438036062293,-0.1971926547738012,-1.996994173052597,3.655577127781241e-05,-9.730520783774507e-06,-1.597595338442078e-05,4.340291125647603e-05,4.37521820996671e-05
309.178403209346,187.6908551556808,12.5,0,11.79252535026067,-0.02155642035057381,-2.189735298951706,3.77533262571146e-05,-9.503000825330371e-06,-1.751788239161365e-05,4.558181742688207e-05,4.520693301874763e-05
311.7501832667476,187.9791115080064,12.5,0,11.73464963527729,-0.09569496075318407,-2.046661994580803,3.762743480148988e-05,-9.693943582632022e-06,-1.637329595664642e-05,4.50965212531516e-05,4.459697539858806e-05
224.5791693333097,218.4126885111763,12.5,0.7518233715983658,16.50862706846508,10.887240847939,-4.104955724621946,0.0001777678028139677,8.716481160193847e-05,-0.0001323236841779873,0.0004037349781045649,0.0003673101142595609
227.0660523422437,217.7808559592847,12.5,0.7712913753400329,15.48391497655221,9.546480557434339,-3.22215689249356,0.0001832521337633478,7.940936127594624e-05,-0.0001127078402848727,0.0004000441489257385,0.0003948012728913652
225.7396224649569,220.036623854644,12.5,0.7730795036509438,16.36876737044217,10.56144677400895,-4.235502560191404,0.0001935959901067372,9.12284968239759e-05,-0.0001493211103743127,0.000434408602334974,0.0003975358527997841
228.0895750506644,219.5164724956555,12.5,0.7906643307708563,15.31783617791972,9.240297711683372,-3.336367234084504,0.000198842546773206,8.271253436555027e-05,-0.000127503057510278,0.0004291494103707672,0.0004266148266143687
226.5891331170889,221.2254270342186,12.5,0.7877822160858274,16.43591396526644,10.73798591138881,-4.168726234133339,0.0002073555530932241,9.995780444493831e-05,-0.0001571489875068831,0.000468497548381354,0.0004215581043969395
228.8388456758971,220.7870319826815,12.5,0.8040221159270353,15.31168929634913,9.338501284252056,-3.326770185665908,0.0002118943416362979,8.997878896356489e-05,-0.0001358018615785163,0.000460019741175413,0.0004517466706894118
227.7495862487359,222.8493623776863,12.5,0.8066083410171578,16.31098322375303,10.47411681905653,-4.329709923303888,0.0002265653704571189,0.0001058390385067975,-0.0001791063770206562,0.0005071799093892957,0.0004569623777351377
229.8623683843178,222.5226485190522,12.5,0.8210976512574832,15.16261113789274,9.085111128976884,-3.462480775842991,0.0002305853837472371,9.470119772880012e-05,-0.0001548322109879654,0.0004960883443764926,0.0004885945918702442
230.4857495713004,220.4661045311833,12.5,0.8107324699310541,16.18747396667042,10.24557014381892,-4.024594100675937,0.0002303800369900027,0.0001048032131008337,-0.0001701123948396164,0.0005111463455743323,0.0004655363240359847
232.7354621301087,220.0277094796462,12.5,0.8142094350182818,15.99136005288345,9.417993733941024,-3.466514103278711,0.0002348771434457298,9.33550738058804e-05,-0.0001492654528983134,0.0005004884392743301,0.0004730217913067133
231.4090322528218,222.2834773750054,12.5,0.8272651239822565,16.06420072411872,9.960168842870221,-4.130239126208253,0.0002514680778097284,0.0001101177721396336,-0.0001912868655793166,0.0005518314663511585,0.0005034462007838745
233.5218143884037,221.9567635163713,12.5,0.8308043126024119,15.77896694622281,9.100190217965514,-3.54912972631588,0.0002553997842273407,9.750505698023228e-05,-0.0001678118292921206,0.0005385073852868696,0.0005123893367766741
228.8865770571856,217.3183224294439,12.5,0.779033476612654,16.25006284210609,10.33371000314426,-3.83141303436505,0.0001979179127308862,9.08183802177066e-05,-0.0001387146967108218,0.0004400289476275686,0.0004069232260382673
231.3734600661195,216.6864898775524,12.5,0.7824711951379781,16.18295001393557,9.388526004098861,-3.255131111982698,0.0002035345124495032,7.859613448808512e-05,-0.0001197131060981987,0.0004300357416560238,0.000412549859292177
229.809859738707,219.1356952732661,12.5,0.797797418345718,16.16872496367293,10.10034874234595,-3.988786553788481,0.0002159202940569976,9.58748194309128e-05,-0.0001578134768074664,0.000475547862378378,0.0004396730709026545
232.1598123244146,218.6155439142776,12.5,0.8012406631373463,16.02576510592499,9.136078570903569,-3.396789612862655,0.0002212403511520249,8.258650688442565e-05,-0.0001367196999740404,0.0004634594060676587,0.0004462698839428297
168.1232846913831,90.96949709947337,12.5,0,-6.063271060317195,1.515494779880272,1.60232707581815,-2.061486321691924e-05,9.700200143870625e-06,1.28186166065452e-05,3.016777498341381e-06,3.038673355271713e-06
170.6554243295069,90.94664700667468,12.5,0,-6.082885806275924,1.422032214479771,1.7682700355692,-2.060286035166677e-05,9.416811731356007e-06,1.41461602845536e-05,3.008544328669472e-06,3.105412428691646e-06
168.7884625827964,93.11634505412314,12.5,0,-5.712621094135688,1.624505911996555,1.534685692407587,-1.957999223083144e-05,9.768515793697526e-06,1.22774855392607e-05,3.05930352868602e-06,3.085754779405438e-06
171.4028737798255,93.00166302837664,12.5,0,-5.716564420944265,1.539720005989021,1.690543650724718,-1.952478215181287e-05,9.500355555920278e-06,1.352434920579774e-05,3.049304737195982e-06,3.160983480588239e-06
166.9711627874045,87.25104736596148,12.5,0,-6.671558998600406,1.403960078369464,1.606778501969962,-2.247215685821687e-05,9.82991944966261e-06,1.28542280157597e-05,2.993429233375912e-06,2.993564737245001e-06
169.3608039054889,87.38725484678275,12.5,0,-6.726121746477992,1.280256196024414,1.775162538351992,-2.25477945455491e-05,9.477717224460518e-06,1.420130030681594e-05,2.96375849770131e-06,3.046609571288952e-06
167.6363406788178,89.39789532061124,12.5,0,-6.301992222479569,1.524269804253916,1.528661694800545,-2.138579095533775e-05,9.919257151596184e-06,1.222929355840436e-05,3.022180979317474e-06,3.013971107925402e-06
170.1082533558075,89.44227086848473,12.5,0,-6.337094316200733,1.411891280701234,1.685544211054823,-2.140821483640333e-05,9.587727551204532e-06,1.348435368843858e-05,2.989175517978418e-06,3.074766032060665e-06
162.8321829591011,87.01512908881233,12.5,0,-6.693767809583256,1.234518136467257,1.692469211839785,-2.240767149984022e-05,9.305472284361826e-06,1.353975369471828e-05,2.880573093051706e-06,2.904253228154285e-06
165.2218240771854,87.1513365696336,12.5,0,-6.731317134468006,1.177072601116328,1.856289780098413,-2.248187291119068e-05,9.151686031146653e-06,1.48503182407873e-05,2.911395494212348e-06,2.955420470065806e-06
163.3548623304749,89.32103461708206,12.5,0,-6.307015301167986,1.340850642566922,1.642794139281742,-2.125512947779109e-05,9.336334297148537e-06,1.314235311425393e-05,2.897780658389916e-06,2.914525838815641e-06
165.8267750074646,89.36541016495553,12.5,0,-6.326546249404568,1.290415757527139,1.797360601684441,-2.127728060411632e-05,9.190567423610497e-06,1.437888481347553e-05,2.927812455906423e-06,2.971034877551727e-06
163.7374901863725,91.00907462115768,12.5,0,-6.030185986285431,1.374632285483636,1.681505067892958,-2.039630098450029e-05,9.222972102575981e-06,1.345204054314366e-05,2.912029848229754e-06,2.929819088056033e-06
166.2696298244962,90.98622452835899,12.5,0,-6.04622975654834,1.294372727749221,1.859470433380646,-2.038343340315406e-05,8.978976534036178e-06,1.487576346704517e-05,2.929134993468866e-06,2.991623261453582e-06
164.2601695577463,93.3149801494274,12.5,0,-5.626766334200032,1.490015559354826,1.621905304460009,-1.919766471692396e-05,9.269462857295469e-06,1.297524243568007e-05,2.952531499873998e-06,2.961328411334018e-06
166.8745807547754,93.20029812368091,12.5,0,-5.626274580862942,1.417556053782807,1.790302226456272,-1.913812350178766e-05,9.037199036795334e-06,1.432241781165018e-05,2.969121641203351e-06,3.032257364835654e-06
252.0050330671601,78.67409806946276,12.5,0,-7.750280742147753,1.969228401937585,-1.902029039410182,-2.637628109642288e-05,1.250175547991847e-05,-1.521623231528146e-05,3.821141337375414e-06,3.757820450356197e-06
254.2620778715129,78.7947711797656,12.5,0,-7.850300078132872,1.655927486810175,-1.733558697653386,-2.644570223947333e-05,1.157920802029885e-05,-1.386846958122709e-05,3.461143751514674e-06,3.755043631263525e-06
252.847992217656,80.86539658741221,12.5,0,-7.303901110105759,2.187887056094064,-2.07362996591787,-2.512279319721368e-05,1.284435946758561e-05,-1.658903972734296e-05,4.088996548640418e-06,3.828039366170186e-06
255.0991579185634,80.97285253373053,12.5,0,-7.401255850492699,1.875795770109815,-1.90613693135317,-2.518465533766449e-05,1.192355114474557e-05,-1.524909545082536e-05,3.685173131031753e-06,3.824167996118812e-06
253.4650811444978,82.46953843703338,12.5,0,-7.058003354319137,2.089463935504926,-2.035778589647659,-2.425718188222518e-05,1.233268727707107e-05,-1.628622871718128e-05,3.940649779468527e-06,3.890595964340878e-06
255.7119430429805,82.56731874778347,12.5,0,-7.154642916676993,1.774201332917659,-1.866883291602836,-2.43142183997005e-05,1.14011585986781e-05,-1.493506633282269e-05,3.534327958091877e-06,3.885860304159376e-06
254.3080402949938,84.66083695498281,12.5,0,-6.605384310634373,2.311214291417595,-2.209813501213691,-2.298620122716407e-05,1.26801931810438e-05,-1.767850800970952e-05,4.27558827534967e-06,3.991284853085155e-06
256.549023090031,84.74540010174837,12.5,0,-6.699318608482139,1.997180084081167,-2.041910705153369,-2.303556361440777e-05,1.175043115584544e-05,-1.633528564122695e-05,3.815019841406223e-06,3.985282459314268e-06
257.3567601101905,82.63889890322936,12.5,0,-6.946595890405477,2.010497499795983,-2.182402545448161,-2.383750484913431e-05,1.199086871167153e-05,-1.745922036358529e-05,3.925729777829322e-06,3.880211646490327e-06
259.6036220086731,82.73667921397944,12.5,0,-7.044765007680301,1.690472046763121,-2.010316535988057,-2.389562566198746e-05,1.104532255578623e-05,-1.608253228790445e-05,3.508050954889635e-06,3.869514886924768e-06
258.1895363548162,84.80730462162606,12.5,0,-6.490379675111537,2.233443179390859,-2.357338259238468,-2.25559695038696e-05,1.233932191413998e-05,-1.885870607390774e-05,4.273631393895651e-06,3.978722151946213e-06
260.4305191498534,84.89186776839161,12.5,0,-6.58579341010342,1.914664710275334,-2.186259613759305,-2.260627068055121e-05,1.13955618009638e-05,-1.749007691007444e-05,3.799540904083582e-06,3.966801452673547e-06
255.9143493431883,78.8831100276109,12.5,0,-7.641899714984138,1.908790010182549,-2.058299593389566,-2.598111109609528e-05,1.222164780457146e-05,-1.646639674711653e-05,3.819594394919801e-06,3.750810802441561e-06
258.171394147541,79.00378313791374,12.5,0,-7.739519187522427,1.607129025339259,-1.886248887842073,-2.605216462034317e-05,1.133442823110357e-05,-1.508999110273659e-05,3.462218020425896e-06,3.742023318132394e-06
256.747125587814,81.0515157460076,12.5,0,-7.191614869183235,2.123075198360467,-2.225180992257653,-2.471162774007473e-05,1.254713253010008e-05,-1.780144793806122e-05,4.090760812654399e-06,3.819142984446569e-06
258.9982912887214,81.15897169232591,12.5,0,-7.286516770639096,1.822614167537259,-2.05408777765822,-2.477494500007491e-05,1.166157875263051e-05,-1.643270222126576e-05,3.689951001615047e-06,3.809285767300166e-06
188.3387833814141,156.0686577589171,12.5,0,5.976618558760766,4.967294377302704,1.149142069392111,1.515134388619229e-05,1.111404716036004e-05,9.193136555136886e-06,3.983061231472521e-05,3.96307589375335e-05
189.8845710255404,155.1275803583828,12.5,0,6.08359534519407,4.850897088295243,1.203690122290589,1.558678743398483e-05,1.065599440638952e-05,9.629520978324716e-06,3.981754850654203e-05,3.951262356102868e-05
189.5105094611474,157.6386667762161,12.5,0,6.246092056129898,5.142520442933751,1.023966436426851,1.587347822526867e-05,1.145919177248408e-05,8.191731491414807e-06,4.142101554384943e-05,4.167348494696292e-05
191.0487983033561,156.6881306436374,12.5,0,6.354755511608914,5.027183323532552,1.077751511362394,1.631347097832248e-05,1.100318222601703e-05,8.62201209089915e-06,4.141672248338902e-05,4.155213800414996e-05
186.3092942787989,153.3493223726628,12.5,0,5.358103949660031,4.635442403768863,1.246875202681731,1.343757871589701e-05,1.054693253233234e-05,9.975001621453851e-06,3.640540507424751e-05,3.620829348568561e-05
187.8680702288423,152.4246279766042,12.5,0,5.451324526398272,4.516779879066522,1.296048777200445,1.383081458122125e-05,1.009263599189425e-05,1.036839021760356e-05,3.633279878038627e-05,3.608953638359844e-05
187.4810203585322,154.9193313899618,12.5,0,5.607623516920661,4.803904385158446,1.128103204759212,1.410127174601936e-05,1.08863952189705e-05,9.024825638073697e-06,3.789371853350265e-05,3.816636529904836e-05
189.032297506658,153.9851782618588,12.5,0,5.702404188617217,4.686259428624238,1.176552571498232,1.44986858606757e-05,1.043410682070379e-05,9.412420571985858e-06,3.782920793748791e-05,3.804892386827451e-05
183.6094151357559,154.9509400480817,12.5,0,5.660306168435066,4.342480326147762,1.291951662701115,1.4638995478074e-05,9.367692108924785e-06,1.033561330160892e-05,3.647654290627782e-05,3.63327921126295e-05
185.1681910857992,154.0262456520231,12.5,0,5.764062371421499,4.240521316376641,1.348752078542511,1.505258253544748e-05,8.95841831526805e-06,1.079001662834009e-05,3.650972336131666e-05,3.62734736618317e-05
184.7941295214062,156.5373320698564,12.5,0,5.921198549051626,4.504337759269601,1.174346289001881,1.534436514954952e-05,9.676921990421422e-06,9.394770312015047e-06,3.798316207175515e-05,3.828335061342472e-05
186.3454066695319,155.6031789417535,12.5,0,6.026569905337915,4.403348417011841,1.230438782120108,1.576234496347185e-05,9.269459010167558e-06,9.843510256960864e-06,3.802426403119977e-05,3.822917975609365e-05
185.6614006441231,157.6986516304681,12.5,0,6.285427183574193,4.667324383766108,1.191746009751724,1.637950748042453e-05,9.907096281192192e-06,9.533968078013794e-06,3.990385740919179e-05,3.974369887885172e-05
187.2071882882495,156.7575742299338,12.5,0,6.395912031808361,4.563477709529199,1.249380192079265,1.68161363341634e-05,9.486399045046745e-06,9.995041536634119e-06,3.995467886571437e-05,3.969267538233303e-05
186.8461150297734,159.2850436522428,12.5,0,6.55603880513422,4.835143259156325,1.069790898480672,1.711120956910444e-05,1.022762738519287e-05,8.558327187845375e-06,4.147262917519168e-05,4.17828860361178e-05
188.3844038719822,158.3345075196642,12.5,0,6.66820009974229,4.732302669333873,1.126690480703337,1.755239818370823e-05,9.80880846207456e-06,9.013523845626697e-06,4.153183954335993e-05,4.173531369578185e-05
233.1662627787012,162.5167620082859,12.5,0,8.534078190122075,8.177899051964147,-3.013261763489119,2.076673096681932e-05,1.934201441418761e-05,-2.410609410791295e-05,6.111704227553259e-05,6.049493408983145e-05
235.1402864269263,162.5367360672625,12.5,0,8.394494478228394,7.642776482975224,-2.781831671307694,2.074816114395068e-05,1.7741289162938e-05,-2.225465337046156e-05,5.862099112685561e-05,6.014425815181517e-05
233.7308426905733,164.5570864547242,12.5,0,9.199888679115459,8.486429688963632,-3.283800378642,2.265050002199856e-05,1.979666406139126e-05,-2.6270403029136e-05,6.471607826328914e-05,6.331904610626219e-05
235.7114588953432,164.571427366709,12.5,0,9.062744930152379,7.954383210100501,-3.054084214258452,2.263727720840721e-05,1.82038303281997e-05,-2.443267371406762e-05,6.224288050857188e-05,6.286881899465628e-05
229.7471535246943,162.4821659233058,12.5,0,8.417982306312014,8.462923196970628,-2.673084592714594,2.016720482262194e-05,2.034696838525639e-05,-2.138467674171675e-05,6.162027478790815e-05,6.087936631516365e-05
231.7211771729194,162.5021399822823,12.5,0,8.290386413548999,7.975385897195682,-2.445452193520795,2.014892780560025e-05,1.888892574018698e-05,-1.956361754816636e-05,5.933997438590581e-05,6.069190572854406e-05
230.3003147936794,164.53224726654,12.5,0,9.072794015498044,8.753426690521394,-2.923894872552821,2.203019949717662e-05,2.075273019727002e-05,-2.339115898042257e-05,6.510156272538205e-05,6.386156733081215e-05
232.2809309984492,164.5465881785248,12.5,0,8.947546361685223,8.268704623102638,-2.697897579155117,2.20171846589106e-05,1.930181770458026e-05,-2.158318063324094e-05,6.284235652594727e-05,6.358505222121422e-05
230.7052569473385,166.0330109693728,12.5,0,9.522912695912844,8.773484830587924,-2.879533863200701,2.345453276245076e-05,2.045682130115108e-05,-2.303627090560561e-05,6.678908881475521e-05,6.611140453634192e-05
232.6906992384506,166.0432281315533,12.5,0,9.382328356487164,8.224065978236158,-2.627437400869417,2.344419795817e-05,1.881114844516597e-05,-2.101949920695534e-05,6.424116644428615e-05,6.57588921126002e-05
231.2584182163235,168.0830923126071,12.5,0,10.24736625441227,9.096900150539534,-3.159952479690905,2.551405189368762e-05,2.09121874781967e-05,-2.527961983752724e-05,7.065566745106021e-05,6.927587307522085e-05
233.2504530639805,168.0876763277958,12.5,0,10.10935913323842,8.550620454997746,-2.909661369567045,2.550945286236474e-05,1.927449814940205e-05,-2.327729095653636e-05,6.813092828873612e-05,6.880478665096904e-05
234.144143870979,166.0507076133783,12.5,0,9.624590626774365,8.406010352915093,-3.205811808665817,2.407388172334589e-05,1.919956062790881e-05,-2.564649446932653e-05,6.5941467249089e-05,6.543451314437591e-05
236.1295861620911,166.0609247755588,12.5,0,9.475357033157353,7.821949479886607,-2.954523024702161,2.406358292219424e-05,1.744995270911126e-05,-2.363618419761728e-05,6.32395646484755e-05,6.490080574598437e-05
234.7087237828512,168.0910320598165,12.5,0,10.34660231019544,8.740920401564228,-3.499663446452766,2.611639107137403e-05,1.969366343684918e-05,-2.799730757162213e-05,6.98518868502781e-05,6.838996455805475e-05
236.7007586305081,168.0956160750054,12.5,0,10.19998706479173,8.160187956618806,-3.250222698770528,2.61118082420385e-05,1.795261180934679e-05,-2.600178159016422e-05,6.717428439222806e-05,6.772773594831445e-05
183.7141633543738,91.94357411378161,12.5,0,-5.964397872171764,2.1298277387916,1.154608458176837,-2.078993538198292e-05,1.158696706187053e-05,9.2368676654147e-06,3.49740900077854e-06,3.486471550595693e-06
185.8421538589118,92.16635317502953,12.5,0,-6.034197143984893,2.000423969176097,1.302379543535573,-2.090977003609253e-05,1.122871441655142e-05,1.041903634828458e-05,3.406759058010241e-06,3.553665013815971e-06
184.4048912073058,93.97935584563572,12.5,0,-5.587542759783971,2.260588704175699,1.064813073343871,-1.968860779464926e-05,1.170391806118941e-05,8.518504586750965e-06,3.607143906614912e-06,3.588927312788251e-06
186.5285365300921,94.2071077387792,12.5,0,-5.658589165623706,2.130442990848349,1.213266833907227,-1.981183972267454e-05,1.134428890321368e-05,9.70613467125782e-06,3.500245313394166e-06,3.666288431983689e-06
182.5177876189143,88.4174967211531,12.5,0,-6.567941244914387,1.965042915935101,1.178189602255806,-2.258944631647412e-05,1.154249032692383e-05,9.425516818046447e-06,3.379586706378421e-06,3.361780589085407e-06
184.6533041990141,88.63166258490054,12.5,0,-6.636896381338257,1.833296221739842,1.326443754784553,-2.270470539767429e-05,1.11760650146381e-05,1.061155003827642e-05,3.300120409440562e-06,3.415486809135093e-06
183.2085154718462,90.45327845300721,12.5,0,-6.190726486391871,2.096594712811347,1.08754591120525,-2.148760052670306e-05,1.166168427010981e-05,8.700367289642e-06,3.454651518598939e-06,3.425607769418035e-06
185.3396868701944,90.67241714865023,12.5,0,-6.260920959304064,1.964100805459888,1.236483026977899,-2.160622771414092e-05,1.129385934491489e-05,9.891864215823189e-06,3.3624765152554e-06,3.486462921515366e-06
178.8189644018422,88.04655056390233,12.5,0,-6.610814339978456,1.832587919596832,1.300109661073737,-2.262067622360852e-05,1.115293281469263e-05,1.04008772885899e-05,3.286204650460466e-06,3.269993244981233e-06
180.954480981942,88.26071642764975,12.5,0,-6.678727153989278,1.705429004632821,1.448607517225013,-2.273627009647194e-05,1.080035453801645e-05,1.158886013780011e-05,3.221163120626378e-06,3.322795706067668e-06
179.5172183303359,90.07371909825596,12.5,0,-6.234352183081418,1.962935475747458,1.210655347133491,-2.15202753664585e-05,1.1268875268857e-05,9.685242777067926e-06,3.348691247942498e-06,3.322398741386953e-06
181.6483897286841,90.29285779389896,12.5,0,-6.303505123371121,1.835042581644562,1.359836864903776,-2.163925046010323e-05,1.091494035995949e-05,1.087869491923021e-05,3.272742835041044e-06,3.38164690484712e-06
180.0283756825562,91.55770946084468,12.5,0,-6.01094408299781,1.988686830569121,1.281564360117189,-2.082597053004829e-05,1.117255312421944e-05,1.025251488093751e-05,3.38255219475151e-06,3.373050180759678e-06
182.1563661870941,91.78048852209258,12.5,0,-6.07964428373125,1.864089829510424,1.429537759085494,-2.094613357154834e-05,1.082880288141836e-05,1.143630207268395e-05,3.309386086672659e-06,3.438075951938683e-06
180.7266296110499,93.58487799519831,12.5,0,-5.634922740220626,2.118142955206276,1.193047299420593,-1.972626713287102e-05,1.128599564883658e-05,9.54437839536474e-06,3.47514847816432e-06,3.459026990202619e-06
182.8502749338362,93.8126298883418,12.5,0,-5.704870513208559,1.992818263863337,1.34170370478761,-1.984984025335805e-05,1.094091485492952e-05,1.073362963830088e-05,3.388194851839064e-06,3.533391776842631e-06
255.6167805921776,218.1153153596793,12.5,0.1249529507675089,16.95094557741627,4.396957279126132,-2.502103340154299,5.796883729728905e-05,5.822622128918639e-07,-2.287514338662278e-05,9.067522828183972e-05,0.000113736922092544
257.4454558304762,219.098173884063,12.5,0,18.26712443794114,3.736728172251416,-2.059599534463797,5.54654156636105e-05,-2.656169399148378e-06,-1.647679627571038e-05,8.211824673422069e-05,9.980212242797237e-05
255.0588551953565,219.4857991725193,12.5,0.1886987810054335,16.6912070390383,4.041968102824443,-2.433228085140256,6.184914661517237e-05,-5.16044709893658e-07,-2.399333838699978e-05,9.51307913954155e-05,0.0001223096650177383
256.6733404004568,220.3065290745035,12.5,0.06964266820878218,17.99770112872276,3.257354001989754,-1.939975836856026,5.910283987815195e-05,-4.272152172927622e-06,-1.668155467208273e-05,8.547365910806195e-05,0.0001072171289977962
254.6504254580678,220.4890629544263,12.5,0.2362106897052315,16.68206881139585,4.304424499528613,-2.553677825702981,6.53833196193475e-05,5.610229726958453e-07,-2.674745814096238e-05,0.0001021624471417059,0.0001295906775291053
256.1081126763988,221.1911064674579,12.5,0.1267533597421218,18.23018116838913,3.867892007348843,-2.276225019445717,6.326078290625034e-05,-2.527224737496026e-06,-2.085298621954984e-05,9.440634657097245e-05,0.0001139625102981324
254.0925000612467,221.8595467672663,12.5,0.3003154768475432,16.31277585164821,3.904002940694521,-2.461574216302914,7.014258390566821e-05,-7.96660855930699e-07,-2.814496116292173e-05,0.0001076136908158366,0.0001409100307163561
255.3359972463794,222.3994616578983,12.5,0.2067423797536134,17.62821483065317,3.275785668057931,-2.095573689148579,6.780856250323403e-05,-4.563533503293372e-06,-2.113385246520737e-05,9.85754312501007e-05,0.0001249762281580354
257.1752137817155,221.7050379880993,12.5,0.04344580842141166,17.37429791116011,3.560464087674057,-2.336892206433241,5.51452102870633e-05,-2.619771331758593e-06,-1.954425354679969e-05,8.174356969390719e-05,0.0001043832515254536
258.6329010000464,222.4070815011309,12.5,0,17.46020086086972,2.829405385533537,-1.906228297688213,5.360911844635627e-05,-4.914063454988457e-06,-1.524982638150571e-05,7.608730208831086e-05,9.384039708950547e-05
256.2463003649267,222.7947067895871,12.5,0.1342071650707521,16.40188479814592,2.932592324415547,-2.075290631440734,5.791218807976381e-05,-4.316520361008058e-06,-1.917586330323767e-05,8.363049970512092e-05,0.0001149060672772989
257.4897975500593,223.3346216802191,12.5,0.03332036156788354,17.52254907733457,2.208395183246456,-1.683494366698954,5.617728846441091e-05,-7.19077386046249e-06,-1.393218021581138e-05,7.687382767233259e-05,0.0001033276786678852
258.784139015397,219.8176762605336,12.5,0,17.28974379264443,3.028215120365504,-1.768991454211076,5.290460804016975e-05,-4.141506648945928e-06,-1.41519316336886e-05,7.605323936348036e-05,9.162303001466365e-05
260.6128142536957,220.8005347849173,12.5,0,17.06908975032015,2.387187606013839,-1.598088451874508,5.271133711621341e-05,-6.016271461011836e-06,-1.278470761499606e-05,7.313288163513457e-05,8.321213364532467e-05
257.8552255986083,220.9073450620214,12.5,0,17.28087015012961,2.693220855343066,-1.89960598650661,5.31442077961403e-05,-5.206389383005878e-06,-1.519684789205288e-05,7.496495060263454e-05,9.814458049378087e-05
259.4697108037086,221.7280749640056,12.5,0,17.02511547712339,1.939308539080452,-1.706368845686606,5.292892269553049e-05,-7.414305056641264e-06,-1.365095076549284e-05,7.156039059846489e-05,8.845045304556624e-05
296.2988446307807,148.8123296125615,12.5,0,5.982069581775154,1.118084618762733,-3.861536966759559,1.824815496667031e-05,-1.207784885379377e-06,-3.089229573407647e-05,2.820096149887866e-05,2.85793744633619e-05
298.5227224963313,148.6959597404465,12.5,0,5.953160962105075,0.918191440182044,-3.704547688415403,1.83155619265906e-05,-1.824316161101519e-06,-2.963638150732322e-05,2.735414860188238e-05,2.799849529546063e-05
296.9220922130829,151.1304570985139,12.5,0,6.450691139339954,1.290010398010154,-3.988797613817513,1.961020332747973e-05,-1.032519637839471e-06,-3.19103809105401e-05,3.052715270430517e-05,2.985783927909819e-05
299.1540741310552,151.0467090158319,12.5,0,6.415275809202692,1.087674876478932,-3.829997864407105,1.965874268826547e-05,-1.651661042629572e-06,-3.063998291525684e-05,2.964757065105617e-05,2.927181745860469e-05
292.4469751778883,149.0138881435314,12.5,0,6.066513953373497,1.344991687413154,-3.91900505242056,1.833685130086466e-05,-5.492377629767037e-07,-3.135204041936448e-05,2.925425271530085e-05,2.960771632941987e-05
294.670853043439,148.8975182714163,12.5,0,6.033342483598237,1.125243048578942,-3.75705038407999,1.84065015086512e-05,-1.225896231425976e-06,-3.005640307263992e-05,2.83219689489878e-05,2.901056393984103e-05
293.0561861296492,151.275513032753,12.5,0,6.540040849628451,1.522152218642398,-4.052538029078098,1.971040894389712e-05,-3.61145580047087e-07,-3.242030423262479e-05,3.162403081533147e-05,3.089719386810579e-05
295.2881680476215,151.191764950071,12.5,0,6.500131576541958,1.299820825783616,-3.888637734727508,1.976056438430737e-05,-1.040678618725996e-06,-3.110910187782007e-05,3.065751915174511e-05,3.029335757540705e-05
293.5021594988467,152.9311373592551,12.5,0,6.803087039876153,1.212105049076422,-3.844836687959177,2.080019448834255e-05,-1.563733474856371e-06,-3.075869350367341e-05,3.145374938237122e-05,3.182708325726753e-05
295.7400739949385,152.8712700838709,12.5,0,6.760253262981538,0.995569709358781,-3.678074962081723,2.083635467405389e-05,-2.222379540437131e-06,-2.942459969665378e-05,3.050430338231758e-05,3.121889933510617e-05
294.1113704506076,155.1927622484766,12.5,0,7.280297783883479,1.388263446674658,-3.975937876707911,2.21863421510874e-05,-1.381795197747879e-06,-3.180750301366329e-05,3.384087666953593e-05,3.307811077529871e-05
296.3573889991212,155.1655167625255,12.5,0,7.230667460041228,1.169159222007922,-3.807262649587612,2.220280849452559e-05,-2.043224457607632e-06,-3.045810119670089e-05,3.285657315984358e-05,3.246473281167234e-05
297.3783411090031,152.8274441965808,12.5,0,6.713516258979313,0.9893686084630394,-3.774017451002782,2.069175714196337e-05,-2.204833460101724e-06,-3.019213960802226e-05,3.038669109649432e-05,3.078073425142816e-05
299.616255605095,152.7675769211966,12.5,0,6.675322115891889,0.7928786102919451,-3.612611510774749,2.072672788262049e-05,-2.803046139779287e-06,-2.890089208619799e-05,2.952458380515806e-05,3.019182890282764e-05
298.0015886913053,155.1455716825332,12.5,0,7.185451435727173,1.160162494906795,-3.898748409343676,2.206531459840151e-05,-2.035841164879995e-06,-3.118998727474941e-05,3.272945262856796e-05,3.20236653902544e-05
300.2476072398189,155.1183261965821,12.5,0,7.140698613310384,0.9612456161748303,-3.735564891284456,2.208123906965336e-05,-2.636572918888851e-06,-2.988451913027565e-05,3.183399158209969e-05,3.143202474895235e-05
239.4672568850506,114.596521891506,12.5,0,-1.549241752839169,3.765497530512948,-2.087024075647545,-7.969971633495698e-06,1.328898549991277e-05,-1.669619260518036e-05,1.136918557408192e-05,1.187940352257414e-05
241.5429642222401,115.4100709530358,12.5,0,-1.54968392378435,4.064753566660019,-2.057153235822994,-8.210791409437934e-06,1.424695855233954e-05,-1.645722588658396e-05,1.236946374044469e-05,1.24060296111945e-05
238.4463112512234,115.8881484094854,12.5,0,-1.39792094541972,3.93697962868945,-1.985100273201176,-7.622930728294662e-06,1.371667156814201e-05,-1.588080218560941e-05,1.221136069625825e-05,1.267256677582705e-05
240.7925534828871,116.8871537763984,12.5,0,-1.404224787689857,4.191279726429945,-1.963033618058622,-7.846543101751498e-06,1.453547495472771e-05,-1.570426894446897e-05,1.307155758311762e-05,1.335810334246238e-05
243.0624874546417,116.0056302005002,12.5,0,-1.143834449080669,3.850624693459928,-2.352580781344411,-6.740769991826084e-06,1.32370665783363e-05,-1.882064625075529e-05,1.285392122377676e-05,1.278081924620205e-05
245.1381947918312,116.81917926203,12.5,0,-1.234279584637356,3.922305873197758,-2.256769113169108,-7.087539369397746e-06,1.353880246194271e-05,-1.805415290535286e-05,1.279261439998339e-05,1.327813748261606e-05
242.5101220032556,117.6184764619816,12.5,0,-0.928326780770893,3.927429905878069,-2.298909245253874,-6.112589623169312e-06,1.331043712342653e-05,-1.839127396203099e-05,1.360250600407569e-05,1.384523143294262e-05
244.8563642349192,118.6174818288947,12.5,0,-1.015838952677717,3.987717163376538,-2.216532689224525,-6.440858379269925e-06,1.357336608494709e-05,-1.77322615137962e-05,1.351878025299136e-05,1.449055355934993e-05
244.019212480771,113.2120985308671,12.5,0,-1.698147513074881,3.660391567482696,-2.322073296126678,-8.362385295825774e-06,1.307177102640453e-05,-1.857658636901342e-05,1.093220003554443e-05,1.108377590124351e-05
245.6263396355193,113.704427848895,12.5,0,-1.764736190126928,3.714282552398243,-2.226177915334431,-8.618581850324762e-06,1.329749311977592e-05,-1.780942332267545e-05,1.087333372781695e-05,1.135608051673598e-05
243.4668470293849,114.8249447923486,12.5,0,-1.443372088524061,3.745665188836589,-2.264887461081704,-7.615322834346266e-06,1.314082627509633e-05,-1.811909968865363e-05,1.170994830420321e-05,1.204088946657184e-05
245.3445090786074,115.5027304157596,12.5,0,-1.51167791278056,3.787477251509784,-2.18611643241015,-7.867351122105618e-06,1.332926953505575e-05,-1.74889314592812e-05,1.162174793143312e-05,1.243825796217667e-05
241.2355865945733,112.3593591380026,12.5,0,-1.957070694175904,3.625538170554555,-2.115615490536402,-9.163056757806537e-06,1.31673787011153e-05,-1.692492392429122e-05,1.008765143782925e-05,1.060690443833666e-05
242.8427137493217,112.8516884560304,12.5,0,-1.949204764025673,3.864487894367556,-2.076924232087562,-9.329045560376196e-06,1.392572507319671e-05,-1.66153938567005e-05,1.085001347297088e-05,1.088303477605394e-05
240.214640960746,113.650985655982,12.5,0,-1.793994878479554,3.798795341221898,-2.010704253423254,-8.779819884112091e-06,1.359134099469372e-05,-1.608563402738603e-05,1.088648767959029e-05,1.132591096742543e-05
242.0923030099686,114.328771279393,12.5,0,-1.7956115168771,3.989817453424415,-1.983634085114816,-8.937810816746249e-06,1.420390506445981e-05,-1.586907268091853e-05,1.150533440714241e-05,1.174283698763434e-05
187.0296007640875,148.9890247470516,12.5,0,4.418234019603119,4.555305025801543,1.26817116221178,1.049410484208874e-05,1.104238886688244e-05,1.014536929769424e-05,3.27152242273049e-05,3.266654307244352e-05
188.5261428066011,148.113794125187,12.5,0,4.517091392212135,4.497584123313785,1.326370164931172,1.08566251564278e-05,1.07785960808344e-05,1.061096131944937e-05,3.287837176158183e-05,3.249534934286954e-05
188.0660668322415,150.6356619960088,12.5,0,4.693737656686073,4.689024800872143,1.166015350855077,1.126874066069772e-05,1.1249889237442e-05,9.328122806840614e-06,3.416824065215836e-05,3.456685231749835e-05
189.3309641209473,149.8454257405685,12.5,0,4.816381760915856,4.625289124891504,1.23115222336407,1.171219033501753e-05,1.094781979092013e-05,9.849217786912562e-06,3.439695556049708e-05,3.438839583710383e-05
189.6216876173374,147.4730808416691,12.5,0,4.052590342051587,4.719034133873316,1.1120498938696,9.193061787466424e-06,1.185883695475334e-05,8.896399150956798e-06,3.195916418932594e-05,3.236599897378192e-05
191.118229659851,146.5978502198044,12.5,0,4.195523386994727,4.733865132499017,1.202383732811338,9.638582732383911e-06,1.179194971440107e-05,9.619069862490702e-06,3.254627767429511e-05,3.218380092301572e-05
190.2569332025967,149.2669326516277,12.5,0,4.402945155559534,4.816756824553998,1.054436067684708,1.023601903814731e-05,1.189126571412517e-05,8.435488541477668e-06,3.355891304579641e-05,3.424886840711002e-05
191.5218304913024,148.4766963961873,12.5,0,4.58059499872406,4.83691006410604,1.158890504056852,1.078837594463216e-05,1.181363620616008e-05,9.271124032454812e-06,3.429377579753644e-05,3.404612885969573e-05
188.5214099884043,144.3660383656272,12.5,0,3.383828201972019,4.478235531956665,1.167122784701668,7.245661820745128e-06,1.162329114068371e-05,9.33698227761334e-06,2.871162610152204e-05,2.920289984894678e-05
190.4191725138125,143.3435931827611,12.5,0,3.551812734338467,4.488328578059525,1.283092693939356,7.775137887435474e-06,1.15212012623197e-05,1.026474155151485e-05,2.937625638077542e-05,2.899171329784347e-05
189.1566555736635,146.1598901755858,12.5,0,3.730676087029932,4.57680039007431,1.10809395589507,8.276723166436334e-06,1.166122037861385e-05,8.864751647160557e-06,3.028958878388428e-05,3.101393577363133e-05
190.822773345264,145.2224393591441,12.5,0,3.928607639118341,4.590366212213332,1.238311697298063,8.899251475408027e-06,1.154628576778799e-05,9.9064935783845e-06,3.107803945312191e-05,3.082947435504826e-05
185.2343888737561,146.1369653702735,12.5,0,3.798937042498258,4.295623247044392,1.32736602634075,8.72009993835891e-06,1.070684475654345e-05,1.0618928210726e-05,2.956760332514072e-05,2.950589415549672e-05
187.1321513991643,145.1145201874074,12.5,0,3.911558320166109,4.228798577719286,1.402915296367857,9.13394776235612e-06,1.040290879256883e-05,1.122332237094286e-05,2.975135149679485e-05,2.934067419451422e-05
186.27085494191,147.7836026192307,12.5,0,4.059963148012939,4.418254351999961,1.232903956863943,9.457278592041432e-06,1.089044340798952e-05,9.863231654911545e-06,3.092136910787325e-05,3.131046342004969e-05
187.9369727135104,146.846151802789,12.5,0,4.192531251007797,4.345354277810778,1.316238849325435,9.939816580976327e-06,1.055110868818825e-05,1.052991079460348e-05,3.115633666628359e-05,3.114281640516265e-05
196.790108878911,137.708573832791,12.5,0,2.301139315673273,4.752970682919824,0.6995747742061502,3.561269263818614e-06,1.336859473280482e-05,5.596598193649202e-06,2.584429760875236e-05,2.592627655553291e-05
198.325680833512,138.0118865632946,12.5,0,2.291651553608741,4.945987309604707,0.8010684690398941,3.376495123864207e-06,1.399383814784807e-05,6.408547752319153e-06,2.655442732507633e-05,2.660954389501723e-05
196.4552271086762,139.5775393001611,12.5,0,2.646244334275651,4.87686782716905,0.806073626627939,4.566487607946841e-06,1.348898157952044e-05,6.448589013023512e-06,2.751826276303389e-05,2.753152627991332e-05
198.226762829556,139.971950231734,12.5,0,2.631316216016678,5.041554912987368,0.8918663196786888,4.386967960863476e-06,1.402792274874623e-05,7.13493055742951e-06,2.809851296314915e-05,2.838837159993532e-05
194.1304202349119,137.1832207729858,12.5,0,2.198174786928099,4.472308973774466,0.8630856858133116,3.456312139150344e-06,1.255284888653581e-05,6.904685486506493e-06,2.447311983980097e-05,2.474336616427477e-05
195.665992189513,137.4865335034893,12.5,0,2.216708671571299,4.746931265377357,0.9432537545880422,3.295922736726269e-06,1.34168131119505e-05,7.546030036704337e-06,2.558311905343267e-05,2.542623573966309e-05
193.3868372327443,138.8943995276286,12.5,0,2.493851229003884,4.661111833853298,1.012026180587534,4.251434465729788e-06,1.292047688512745e-05,8.09620944470027e-06,2.623238062369483e-05,2.600909856906392e-05
195.1583729536241,139.2888104592014,12.5,0,2.503856179931412,4.893769288795597,1.078054691958569,4.09732434474404e-06,1.365697678020078e-05,8.624437535668548e-06,2.715100312577461e-05,2.689400199273802e-05
192.8424966955361,140.1470693168063,12.5,0,2.788092247259682,4.486740086517176,0.8892076674594255,5.332503122017242e-06,1.212709447904721e-05,7.113661339675404e-06,2.657815696203022e-05,2.694509299964823e-05
194.78676988207,140.6081687600372,12.5,0,2.799391829803366,4.837561393683303,0.9850647187998771,5.088004740424127e-06,1.324068299594387e-05,7.880517750399017e-06,2.794142298859089e-05,2.797329649726984e-05
192.0989136933684,141.8582480714491,12.5,0,3.09313286524784,4.68313322510849,1.044277934789616,6.151518588706295e-06,1.25115200281489e-05,8.354223478316929e-06,2.84095220127971e-05,2.823654493492564e-05
194.2791506461811,142.4104457157493,12.5,0,3.098216467314614,4.99147294840862,1.126881775130156,5.921114336679867e-06,1.349414026105589e-05,9.015054201041246e-06,2.958807969282818e-05,2.945421766703107e-05
196.2100766383461,140.9457169798096,12.5,0,2.976100985800612,4.895226211054426,0.720640238109036,5.607342185718416e-06,1.328384308673367e-05,5.765121904872288e-06,2.871965654797675e-05,2.871288431802808e-05
198.15434982488,141.4068164230405,12.5,0,2.956991528243733,5.148741908064065,0.8352660536591194,5.343379363928691e-06,1.411038088321002e-05,6.682128429272955e-06,2.961618268299557e-05,2.970527232346301e-05
195.8751948681113,142.8146824471797,12.5,0,3.309722859137354,5.018909092686992,0.832250301138548,6.575985875089936e-06,1.341273080928849e-05,6.658002409108384e-06,3.036769225582132e-05,3.033516477584428e-05
198.055431820924,143.3668800914799,12.5,0,3.287429119484257,5.242853299124825,0.9326265036989465,6.325490543049761e-06,1.414718726161203e-05,7.461012029591572e-06,3.113814912202347e-05,3.152428430389974e-05
183.724739241698,138.3600037030222,12.5,0,2.3233747534478,3.870375932051036,1.421217657314737,4.33849846539213e-06,1.052650317980507e-05,1.13697412585179e-05,2.284739297737285e-05,2.264088138906015e-05
185.3102428791892,137.1098434214285,12.5,0,2.361447641040507,3.680590149017298,1.401741269252452,4.612160332115784e-06,9.888730364022947e-06,1.121393015401961e-05,2.22743775811738e-05,2.213038238513864e-05
185.1979614652871,140.0867008417305,12.5,0,2.503707294126436,4.105882653511498,1.290492333162336,4.727157218395397e-06,1.113585865593564e-05,1.032393866529869e-05,2.42909691139343e-05,2.448900921215056e-05
186.9116242329544,138.9000009103765,12.5,0,2.531332902134021,3.908614335642993,1.278380347104801,4.973373818314473e-06,1.048249955235036e-05,1.022704277683841e-05,2.365622921630939e-05,2.405258354483006e-05
180.9785663860274,140.5253448283084,12.5,0,2.71180945882566,3.687526010566868,1.492867767923347,5.727769459788618e-06,9.630635666753448e-06,1.194294214338677e-05,2.356041044732225e-05,2.344838502834229e-05
182.5640700235186,139.2751845467146,12.5,0,2.784487627391733,3.543878634155694,1.496918384611892,6.075257500328991e-06,9.112821527384833e-06,1.197534707689514e-05,2.329529913114453e-05,2.299403913291766e-05
182.2298104847014,142.1421254161371,12.5,0,2.901408303285083,3.866620277855789,1.37996798536572,6.191210348227635e-06,1.005205824651046e-05,1.103974388292576e-05,2.483618232772638e-05,2.514865920795885e-05
183.9434732523688,140.9554254847832,12.5,0,2.961079697881678,3.716694317402193,1.390424429300948,6.502099579299613e-06,9.524558057381676e-06,1.112339543440758e-05,2.450436971682638e-05,2.478270180092018e-05
183.1457847375626,143.3256909510685,12.5,0,3.264335967764714,3.991959372272738,1.408274914256898,7.252307599028894e-06,1.016280121706099e-05,1.126619931405518e-05,2.658597041888834e-05,2.642069425601958e-05
184.9532664999687,142.1854472203543,12.5,0,3.335861677753837,3.818915575597338,1.432879714720188,7.619624908334407e-06,9.55184049970841e-06,1.146303771776151e-05,2.622085373077518e-05,2.612286095480285e-05
184.3970288362367,144.9424715388973,12.5,0,3.479397117733774,4.181821821836238,1.286050760360326,7.788613319279085e-06,1.059831213568894e-05,1.028840608288261e-05,2.800157089182754e-05,2.819568445686102e-05
186.332669728819,143.8656881584228,12.5,0,3.537153007313904,4.002992926648247,1.316720990879195,8.116495282085894e-06,9.979854959423265e-06,1.053376792703356e-05,2.756696907691468e-05,2.799558118559197e-05
186.2764349837479,141.350730876495,12.5,0,2.904972852978996,4.242414882712485,1.324494808696528,5.901981223362798e-06,1.125174934229675e-05,1.059595846957223e-05,2.620556602667559e-05,2.587859594826467e-05
188.083916746154,140.2104871457807,12.5,0,2.954116330876696,4.033798688242273,1.332982259173565,6.226133308211606e-06,1.054486273767392e-05,1.066385807338852e-05,2.561625770758581e-05,2.550908484107957e-05
187.7496572073369,143.0774280152033,12.5,0,3.122322539101709,4.481662717874342,1.184040125786158,6.406101950825995e-06,1.184346266591653e-05,9.472321006289265e-06,2.780573857023521e-05,2.782688968992323e-05
189.6852980999192,142.0006446347288,12.5,0,3.15933114709452,4.266158857717116,1.199378204638166,6.696932584528771e-06,1.112424342701915e-05,9.595025637105332e-06,2.71490819007383e-05,2.756611922420091e-05
300.0776357687796,230.904203988885,12.5,0,14.96054978005018,-0.04702784664080939,0.1572855111475394,4.791138157347321e-05,-1.211892893329073e-05,1.258284089180315e-06,5.735062582958402e-05,5.727824706062421e-05
302.1541216161404,230.7523596098189,12.5,0,14.95643994937531,-0.0743569174130414,0.1714080127486505,4.79200933719314e-05,-1.220309409522198e-05,1.371264101989204e-06,5.72525076610447e-05,5.724238169841352e-05
300.6910265904183,232.8672472881475,12.5,0,15.00116391071373,-0.02890867843469547,0.1425783972102941,4.802685145703168e-05,-1.209343889956201e-05,1.140627177682353e-06,5.756124302101236e-05,5.743934099256264e-05
302.7661484277844,232.7533786552538,12.5,0,14.99627223243897,-0.05674338839595805,0.1570617386074773,4.803346585452147e-05,-1.217859662881824e-05,1.256493908859818e-06,5.745853084330675e-05,5.746445295229998e-05
303.6742147575416,230.6412018095035,12.5,0,14.94121702687132,-0.04796557769071974,0.1210883490474732,4.785026694814078e-05,-1.210646347010735e-05,9.687067923797857e-07,5.727294850996136e-05,5.720889680466601e-05
305.7507006049024,230.4893574304374,12.5,0,14.93788947054941,-0.07967169757314752,0.1453418247854429,4.786498366381663e-05,-1.22052610086736e-05,1.162734598283543e-06,5.716471873753508e-05,5.715327973586856e-05
304.2852430445675,232.6700210305908,12.5,0,15.01084544713423,-0.02125130265917097,0.1011436244763167,4.805170647295687e-05,-1.207668052621673e-05,8.091489958105338e-07,5.762105990878817e-05,5.747458899138992e-05
306.3603648819335,232.5561523976971,12.5,0,15.00624155353639,-0.05362844721495197,0.1259015508271732,4.80628757290884e-05,-1.217660427391696e-05,1.007212406617386e-06,5.750577416655706e-05,5.747716920543496e-05
302.61588271957,227.1271838392711,12.5,0,14.85099186212205,-0.08387751843416158,0.1079248445343069,4.759027597353788e-05,-1.214920154868696e-05,8.63398756274455e-07,5.681756757908123e-05,5.680846719371202e-05
304.6947311015437,226.9095635383802,12.5,0,14.84895131361391,-0.1075189597068631,0.1217430294198193,4.760265937132999e-05,-1.222322172195309e-05,9.739442353585547e-07,5.673853875492044e-05,5.664625693005129e-05
303.2269110065959,229.1560030603584,12.5,0,14.89226215901347,-0.06659656632674738,0.09422517899791444,4.770851616190449e-05,-1.212691873945636e-05,7.538014319833156e-07,5.70282043353883e-05,5.7030410006923e-05
305.3043953785748,228.9763585056399,12.5,0,14.88947242347363,-0.09068611565756912,0.1083695644382623,4.771886064764167e-05,-1.220177350888313e-05,8.669565155060982e-07,5.694488918339548e-05,5.693063746270532e-05
299.0152117008241,227.5041132571658,12.5,0,14.91964489382164,-0.08171747062017021,0.1519987846680958,4.780823763672539e-05,-1.219721182104186e-05,1.215990277344766e-06,5.708853945768983e-05,5.70718477903413e-05
301.0940600827977,227.2864929562749,12.5,0,14.91616070153496,-0.1003495261767307,0.1557403117698685,4.781199386585326e-05,-1.225404704499351e-05,1.245922494158948e-06,5.7018964288946e-05,5.692250392102925e-05
299.6286025224628,229.4671565564283,12.5,0,14.93265376826419,-0.07309373552244747,0.1437660842398564,4.784296704686336e-05,-1.218002296828318e-05,1.150128673918852e-06,5.716444134003462e-05,5.717977755386814e-05
301.7060868944417,229.2875120017098,12.5,0,14.92890859259424,-0.09199814706441023,0.1476821276589742,4.784610601395308e-05,-1.22375209446815e-05,1.181457021271794e-06,5.709302594633464e-05,5.709716689315022e-05
157.6058790280011,83.17970188512939,12.5,0,-7.299279759804858,1.011836957227262,1.766108732689417,-2.416716479715735e-05,9.077302070971123e-06,1.412886986151534e-05,2.824618227413812e-06,2.826643647833017e-06
160.0387592682356,83.34693811924092,12.5,0,-7.350655490158813,0.9189445221900665,1.932130601063941,-2.425725318626026e-05,8.821146863135262e-06,1.545704480851153e-05,2.831195206879445e-06,2.871592091792628e-06
158.1893193843093,85.13371889689499,12.5,0,-6.943815698635514,1.119871492625787,1.701200836059646,-2.311610742973427e-05,9.138641335310928e-06,1.360960668847716e-05,2.825565672844409e-06,2.817185461931272e-06
160.6495156439475,85.31786960365368,12.5,0,-6.99746500823157,1.026997914934082,1.866199001617077,-2.321348635828829e-05,8.884365334374316e-06,1.492959201293662e-05,2.829932963021223e-06,2.866076030387283e-06
156.5953306877074,79.79524514195826,12.5,0,-7.870483729431167,0.9222240016909122,1.757922755861206,-2.592332713553246e-05,9.247503788955853e-06,1.406338204688965e-05,2.854694968104129e-06,2.85532203962308e-06
158.9808981944748,79.9331846500622,12.5,0,-7.916693013561387,0.8302091810061363,1.920313489397458,-2.599758498820134e-05,8.990023790068745e-06,1.536250791517966e-05,2.857738144376761e-06,2.895013547124327e-06
157.1787710440156,81.74926215372386,12.5,0,-7.515129493996177,1.030711878092896,1.692397411194932,-2.487298388326208e-05,9.310381605094208e-06,1.353917928955946e-05,2.84860916387956e-06,2.836862313027306e-06
159.5916545701868,81.90411613447496,12.5,0,-7.563696478096139,0.9387044696744322,1.85378663131099,-2.495479230564719e-05,9.054811485435094e-06,1.483029305048792e-05,2.84973526218544e-06,2.879345876033039e-06
152.463406561175,79.55632690555545,12.5,0,-7.875699424535449,0.7886919588250776,1.817885200854386,-2.58331917255735e-05,8.824373807868606e-06,1.454308160683509e-05,2.778179867753429e-06,2.787111571466782e-06
154.8489740679424,79.69426641365941,12.5,0,-7.91724223261667,0.7147054014785148,1.978783185977124,-2.590693946555615e-05,8.620851070824582e-06,1.5830265487817e-05,2.796535141787395e-06,2.826409792384817e-06
152.9995341840161,81.48104719131348,12.5,0,-7.52940465739362,0.8895374777657379,1.761615724883567,-2.480572488587217e-05,8.870043654765256e-06,1.409292579906854e-05,2.767741517416792e-06,2.764123734743333e-06
155.4124177101874,81.63590117206459,12.5,0,-7.573309732461639,0.8154486438137436,1.921438873277777,-2.488695005892824e-05,8.66808344617329e-06,1.537151098622222e-05,2.785203339992882e-06,2.805988633319505e-06
153.3920068432603,82.89004023078692,12.5,0,-7.314684505081759,0.871336252613907,1.828681727178838,-2.410405941835275e-05,8.640023612429908e-06,1.462945381743071e-05,2.742678815684763e-06,2.749854140265351e-06
155.8248870834948,83.05727646489846,12.5,0,-7.362557871018041,0.7933904088592572,1.995680000580594,-2.419489751434513e-05,8.428895605164054e-06,1.596544000464475e-05,2.764656194784283e-06,2.79402406203408e-06
153.9281344661015,84.81476051654496,12.5,0,-6.962848687380976,0.9738127862314272,1.771487398714793,-2.306016602860426e-05,8.686479865845347e-06,1.417189918971834e-05,2.738397079788068e-06,2.733856719869892e-06
156.3883307257397,84.99891122330365,12.5,0,-7.013030665134066,0.8957904089600328,1.937378612807601,-2.315833045559703e-05,8.476953840779356e-06,1.549902890246081e-05,2.759277666194713e-06,2.78175740445544e-06
246.6953048939968,117.3099207223395,12.5,0,-0.8632144962142831,3.905869931319442,-2.624113018351114,-5.886982332941259e-06,1.318935537719364e-05,-2.099290414680891e-05,1.401070836292922e-05,1.356791331726118e-05
248.8737014690836,117.8371022638128,12.5,0,-0.9753115918943593,3.809538120873868,-2.472025447314665,-6.168627590761043e-06,1.297077126031186e-05,-1.977620357851732e-05,1.324278064226436e-05,1.386227738393696e-05
246.5213357402591,119.1889091170214,12.5,0,-0.5291096349770941,3.983925561363705,-2.636096712213846,-4.880291281017665e-06,1.317184950434553e-05,-2.108877369771077e-05,1.516305262801986e-05,1.484783220059643e-05
248.7238802545319,119.7510721341683,12.5,0,-0.6447971648993154,3.887594387624315,-2.485652391007957,-5.173426437777261e-06,1.295613977231726e-05,-1.988521912806365e-05,1.437146906480242e-05,1.517861347457522e-05
250.4683984410134,118.2230259369673,12.5,0,-0.5818257478610076,3.763096817677806,-2.839369486438384,-4.872319847297468e-06,1.250737041485778e-05,-2.271495589150707e-05,1.446746221335712e-05,1.406630307122802e-05
252.6467950161001,118.7502074784405,12.5,0,-0.6981534709629744,3.653537221907484,-2.68457710769112,-5.156920884607504e-06,1.224984188687433e-05,-2.147661686152896e-05,1.362493338243417e-05,1.432934754830426e-05
250.3362547448432,120.1626040248385,12.5,0,-0.2331367754688085,3.845373711668628,-2.859168723064241,-3.822336650835089e-06,1.249170529771465e-05,-2.287334978451393e-05,1.570489953814831e-05,1.54056160935838e-05
252.538799259116,120.7247670419853,12.5,0,-0.3531259720477451,3.735908337329637,-2.705897695077326,-4.118729780416494e-06,1.223740745709303e-05,-2.164718156061861e-05,1.483889024867331e-05,1.569501750821399e-05
250.697278036676,114.8635781435874,12.5,0,-1.222368107317004,3.583089963685552,-2.753135889721112,-6.778049914362853e-06,1.244378236964737e-05,-2.20250871177689e-05,1.219434515720039e-05,1.193723557948066e-05
252.8338491541952,115.3301699918713,12.5,0,-1.325268770736869,3.483844341035767,-2.603682194413266,-7.027935539186592e-06,1.220851690790395e-05,-2.082945755530613e-05,1.146389721518099e-05,1.215385172792872e-05
250.5651343405058,116.8031562314586,12.5,0,-0.8763566872813513,3.665032857426835,-2.77103671800081,-5.736367685241792e-06,1.242919049359095e-05,-2.216829374400648e-05,1.331159555880092e-05,1.313695331345916e-05
252.725853397211,117.3047295554161,12.5,0,-0.9831149396897925,3.565765465704722,-2.623100061824866,-5.998580179571113e-06,1.219694144200694e-05,-2.098480049459893e-05,1.255177757040013e-05,1.338049503724163e-05
246.9966283072149,114.0554173559768,12.5,0,-1.47836472114989,3.694321235625783,-2.532033231323152,-7.686224096180273e-06,1.300451973092242e-05,-2.025626585058522e-05,1.173915235245549e-05,1.154074528628013e-05
249.1331994247342,114.5220092042607,12.5,0,-1.568123883711788,3.627189601107899,-2.3944629972207,-7.919748108764041e-06,1.286150583051471e-05,-1.91557039777656e-05,1.117393852714643e-05,1.177295420357171e-05
246.8226591534772,115.9344057506586,12.5,0,-1.164958957397869,3.769023125647188,-2.536885080447169,-6.743087164190931e-06,1.299284116798929e-05,-2.029508064357735e-05,1.271157974850069e-05,1.268178204929817e-05
248.9833782101825,116.4359790746161,12.5,0,-1.258345525616621,3.701585837938443,-2.400922969170388,-6.987974352323941e-06,1.285175110189631e-05,-1.920738375336311e-05,1.212141543259093e-05,1.29497337326044e-05
258.4648057703849,182.4997503368953,12.5,0,14.13844035562138,4.547688073436327,-3.824768421327907,4.160485867923936e-05,3.241849550499141e-06,-3.059814737062325e-05,6.957454559431302e-05,6.989978819857855e-05
260.5318143017719,182.9677715648985,12.5,0,13.85195785700312,3.98558253593608,-3.522500144135618,4.11377991136611e-05,1.672297829392964e-06,-2.818000115308494e-05,6.653425427073385e-05,6.848995932151845e-05
258.7326692804114,184.4840438880881,12.5,0,14.81853041720068,4.781560546585005,-4.047530431085472,4.359404889777417e-05,3.446169415311472e-06,-3.238024344868378e-05,7.298515948239522e-05,7.129630851277829e-05
260.7900933343568,184.9496802725859,12.5,0,14.53079363800617,4.216870586853053,-3.7438832759268,4.312504317213728e-05,1.869350967524837e-06,-2.99510662074144e-05,6.993000888057431e-05,6.978107542919719e-05
258.0008525615338,179.0628530891599,12.5,0,13.36257976973853,4.676785941600591,-4.006783360372421,3.901882650988282e-05,4.275651197331067e-06,-3.205426688297937e-05,6.715923177077858e-05,6.731721526360096e-05
260.0844618948134,179.5350049872824,12.5,0,13.0703338150557,4.117124070211237,-3.693783175621936,3.853136895200926e-05,2.718529972631396e-06,-2.955026540497549e-05,6.408778325023558e-05,6.608707796278357e-05
258.2687160715602,181.0471466403527,12.5,0,14.06527899297932,4.915298081081477,-4.227703011457898,4.107665431266863e-05,4.476730665077273e-06,-3.382162409166318e-05,7.067016339623139e-05,6.883359337588654e-05
260.3427409273982,181.5169136949698,12.5,0,13.77176472785922,4.353084186470982,-3.913285301864518,4.058717977997272e-05,2.912457614419762e-06,-3.130628241491615e-05,6.758466868640655e-05,6.750015568358111e-05
254.3919353332337,178.2450620127362,12.5,0,13.3024035783632,5.396872213522478,-4.063057096900021,3.825019367994424e-05,6.62806822058137e-06,-3.250445677520017e-05,6.936562252596509e-05,6.948050956181296e-05
256.4755446665133,178.7172139108588,12.5,0,12.98979840483717,4.789992133603993,-3.731137625444267,3.773536118859575e-05,4.936136103663043e-06,-2.984910100355413e-05,6.603714119800524e-05,6.822648252010285e-05
254.6763996451527,180.2334862340483,12.5,0,14.04771097594865,5.655708096638444,-4.304740871181358,4.042810864572492e-05,6.860097128484101e-06,-3.443792696945086e-05,7.311093160974315e-05,7.120714650782413e-05
256.7504245009906,180.7032532886655,12.5,0,13.73374869120492,5.046061236814463,-3.971319306396123,3.991114682240417e-05,5.160397004842342e-06,-3.177055445116898e-05,6.976786881133156e-05,6.982687857356112e-05
254.8846419744087,181.6891137909875,12.5,0,14.13658616056423,5.299412670481216,-3.892722636830362,4.099754557742056e-05,5.648851617088505e-06,-3.11417810946429e-05,7.209684145282737e-05,7.243119357819145e-05
256.9516505057957,182.1571350189907,12.5,0,13.83022505802131,4.689698636065246,-3.572501369291663,4.050496127681598e-05,3.942855588991742e-06,-2.858001095433331e-05,6.880058559817074e-05,7.095583873480309e-05
255.1691062863277,183.6775380122996,12.5,0,14.85699474577716,5.553216405803625,-4.136388005692695,4.309981006184399e-05,5.884696701949875e-06,-3.309110404554156e-05,7.573239932583412e-05,7.404871541942188e-05
257.226530340273,184.1431743967975,12.5,0,14.54929181998877,4.940699615212198,-3.814707106642758,4.26051741317943e-05,4.170805312688017e-06,-3.051765685314206e-05,7.242066556603456e-05,7.243981920171016e-05
287.5792175977385,224.7363631167148,12.5,0,15.22209623360199,-0.07425153678196317,0.1973828542240028,4.877010917695194e-05,-1.241528190458387e-05,1.579062833792022e-06,5.827419254656027e-05,5.83968245474941e-05
289.5630780619333,224.6857368670345,12.5,0,15.22389552845974,-0.05809410753075994,0.1624311982976654,4.876294097709577e-05,-1.236501756686622e-05,1.299449586381323e-06,5.832924682253096e-05,5.808617504192085e-05
288.1174802605315,226.6255313330586,12.5,0,15.13184819275017,-0.1010729289653121,0.2128838119477578,4.850277255997277e-05,-1.242891192688913e-05,1.703070495582062e-06,5.784675590275828e-05,5.805744924116927e-05
290.1115227250793,226.5814744562527,12.5,0,15.13396145767563,-0.08488665939400342,0.1780211890403064,4.849658599207721e-05,-1.237880647620131e-05,1.424169512322451e-06,5.790300351767021e-05,5.783251990294726e-05
286.6469193179806,221.4642277820217,12.5,0,15.35794771228978,-0.06801533573599539,0.0733787493813426,4.919984494791609e-05,-1.250400724418701e-05,5.870299950507408e-07,5.881328266972778e-05,5.900970605895374e-05
288.6131440402417,221.4022230447494,12.5,0,15.35943600987203,-0.0514654905255636,0.03997989116418595,4.919136762401096e-05,-1.245223837757943e-05,3.198391293134876e-07,5.886881272111096e-05,5.855795348240516e-05
287.1851819807735,223.3533959983656,12.5,0,15.2707205426819,-0.09424833257375909,0.08878639065309277,4.894170440264108e-05,-1.251817109838155e-05,7.102911252247421e-07,5.839899148854494e-05,5.865198099279853e-05
289.1615887033876,223.2979606339676,12.5,0,15.27251552777942,-0.07767318097040565,0.05547108703786701,4.893418823367045e-05,-1.246656660132883e-05,4.437686963029361e-07,5.845568246736618e-05,5.828055438369297e-05
283.2413181999876,221.5716231372852,12.5,0,15.5278916093539,-0.01768654785787671,0.06758567557944319,4.970340238821878e-05,-1.247891024062833e-05,5.406854046355455e-07,5.961847178972153e-05,5.987963263101624e-05
285.2075429222487,221.509618400013,12.5,0,15.52988411375203,0.004176164373913771,0.02380021188260633,4.969228823250736e-05,-1.24105435650051e-05,1.904016950608507e-07,5.969208488979202e-05,5.936384891946612e-05
283.7619451208468,223.4494128660371,12.5,0,15.41425248740669,-0.05175009762468274,0.08740083357061407,4.936700803780114e-05,-1.249700230232433e-05,6.992066685649126e-07,5.907892501350258e-05,5.937369432895915e-05
285.7383518434609,223.3939775016392,12.5,0,15.41664681656394,-0.02985587854817773,0.043726979819306,4.935715451584314e-05,-1.242885626460532e-05,3.498158385544479e-07,5.915402078719879e-05,5.89448869583377e-05
284.1430704786877,224.824050353356,12.5,0,15.34268206928347,-0.04412929771758467,0.2069794407818875,4.913188605988118e-05,-1.241535940812305e-05,1.6558355262551e-06,5.882880328032058e-05,5.900552668750406e-05
286.1269309428825,224.7734241036758,12.5,0,15.34611788873327,-0.01802470948446189,0.158797613326509,4.912199701153405e-05,-1.23345733813369e-05,1.270380906612072e-06,5.892001639440835e-05,5.864316407848067e-05
284.6636973995468,226.7018400821079,12.5,0,15.21872051819206,-0.08174114461335691,0.2292370991118561,4.876529857390528e-05,-1.243654807731639e-05,1.833896792894849e-06,5.823933116258849e-05,5.850561228736028e-05
286.6577398640947,226.657783205302,12.5,0,15.22258626817275,-0.05561017503733989,0.1811755817383073,4.875676419818266e-05,-1.235602157465768e-05,1.449404653906458e-06,5.833206819339602e-05,5.823780380199865e-05
228.5686463567517,77.38597254790095,12.5,0,-8.406828382131184,2.160443364864649,-0.8283750077233332,-2.863020551471151e-05,1.363888147327182e-05,-6.627000061786665e-06,3.778558739666933e-06,3.7128973143633e-06
230.8226550307264,77.50652661787694,12.5,0,-8.509863503103835,1.835266791269274,-0.6593722588842355,-2.869977664294768e-05,1.268074453454474e-05,-5.274978071073883e-06,3.459334842659569e-06,3.716853345207966e-06
229.5260078375934,79.62159122603077,12.5,0,-7.943815437419107,2.403108800869931,-1.015839457800354,-2.734269644043708e-05,1.404500051271906e-05,-8.12671566240283e-06,3.997852887905218e-06,3.765622914234789e-06
231.7658425456707,79.72860290780116,12.5,0,-8.044509970431246,2.078117716263796,-0.8472956340158848,-2.740492607839103e-05,1.308558466838914e-05,-6.778365072127078e-06,3.636870298390758e-06,3.772608566994143e-06
230.226845082749,81.25817768470222,12.5,0,-7.693465150198836,2.329218017349786,-0.9575832254877321,-2.64824628945161e-05,1.360826977567838e-05,-7.660665803901857e-06,3.867597233935045e-06,3.816175303552176e-06
232.4563037276452,81.35527565025069,12.5,0,-7.791896414813946,2.003686119467973,-0.7957630835182843,-2.6537017422979e-05,1.264531271414867e-05,-6.366104668146274e-06,3.508674977563636e-06,3.825322417772676e-06
231.1842065635906,83.49379636283207,12.5,0,-7.241250481458914,2.571225118783645,-1.145132870532912,-2.522898163569544e-05,1.402092076527479e-05,-9.161062964263295e-06,4.141923917132501e-06,3.901561399745664e-06
233.3994912425896,83.57735194017491,12.5,0,-7.337371932846646,2.245874661766918,-0.9838029961354873,-2.52762899145228e-05,1.305669646393145e-05,-7.870423969083898e-06,3.732709166480885e-06,3.913584114582177e-06
234.0883807290136,81.42635629434071,12.5,0,-7.602852674158965,2.308595314945001,-1.150375309343229,-2.617600480926468e-05,1.346978714715117e-05,-9.203002474745831e-06,3.8827683944454e-06,3.832068415971249e-06
236.3178393739097,81.52345425988918,12.5,0,-7.701182459528503,1.98336488395662,-0.9887998042495336,-2.62304757776565e-05,1.250771359628399e-05,-7.910398433996269e-06,3.51425147058241e-06,3.841351711577801e-06
235.0211921807768,83.63851886804301,12.5,0,-7.156577252932148,2.545692819335513,-1.334727109710031,-2.493760146485128e-05,1.387147882421936e-05,-1.067781687768025e-05,4.166093050739523e-06,3.922439352794295e-06
237.2364768597757,83.72207444538587,12.5,0,-7.252608481396291,2.220617383761797,-1.173628709584811,-2.498484104747757e-05,1.290806241315478e-05,-9.389029676678488e-06,3.746670431393914e-06,3.934609598667441e-06
232.4727039007066,77.59477832215484,12.5,0,-8.305733125083709,2.138089595006828,-1.009967126042977,-2.828881767627333e-05,1.348647320408881e-05,-8.079737008343814e-06,3.77602526799184e-06,3.720163076721804e-06
234.7267125746813,77.71533239213085,12.5,0,-8.41183047749159,1.799924567710312,-0.8420855850940686,-2.835779718214133e-05,1.248922299866627e-05,-6.736684680752549e-06,3.437414657117834e-06,3.725249400532739e-06
233.4055153524698,79.80694089585714,12.5,0,-7.850365711647564,2.380634438195715,-1.198633948925362,-2.702567782782877e-05,1.389832277154434e-05,-9.589071591402896e-06,4.008855882308544e-06,3.777868651151337e-06
235.6453500605472,79.91395257762753,12.5,0,-7.954155799302075,2.04260571149594,-1.031227607538852,-2.708738312696339e-05,1.289966291622867e-05,-8.249820860310817e-06,3.626161701530101e-06,3.785253815562134e-06
304.9354268398532,197.5078607350567,12.5,0,13.07897688053392,-0.2253604293061393,-1.458457402084171,4.203301436115346e-05,-1.118433487820678e-05,-1.166765921667336e-05,4.971499359665969e-05,5.011027915975208e-05
307.5918195459346,198.4939206322586,12.5,0,12.94941034394639,-0.2031778186728612,-1.320966633795652,4.160065535556672e-05,-1.100969729491026e-05,-1.056773307036522e-05,4.926079012164065e-05,4.96451324880819e-05
304.012145205647,199.2315604517239,12.5,0,13.36270849929719,-0.133485314629302,-1.38694841871729,4.286745544945444e-05,-1.111731980625152e-05,-1.109558734973832e-05,5.106593365287927e-05,5.093017449212481e-05
306.3625034677776,200.02644496293,12.5,0,13.22599013060447,-0.1037577192533847,-1.225101133457338,4.240617459333701e-05,-1.091281680609441e-05,-9.800809067658702e-06,5.060514976154838e-05,5.04926698020219e-05
300.3344197081474,195.7999548938275,12.5,0,13.24055153047256,-0.1036370287942576,-1.61994028542679,4.24526745205476e-05,-1.092407971651967e-05,-1.295952228341432e-05,5.073058333139101e-05,5.107371358525983e-05
302.9908124142289,196.7860147910294,12.5,0,13.09852445212854,-0.1246911537612947,-1.474712752158678,4.201503116982037e-05,-1.087783125373898e-05,-1.179770201726943e-05,5.009522183189281e-05,5.049306631105137e-05
299.9412052797207,197.85478009219,12.5,0,13.57461363619914,-0.01777496872274487,-1.591107781438294,4.345298361081544e-05,-1.091657080887209e-05,-1.272886225150635e-05,5.226361880989139e-05,5.184598227853988e-05
302.2915635418512,198.6496646033962,12.5,0,13.42627582081303,-0.03824746748264252,-1.423963083004584,4.29946806005878e-05,-1.086341255259488e-05,-1.139170466403668e-05,5.160294893049405e-05,5.129279347730346e-05
299.6533523398554,199.3590165380002,12.5,0,13.60291887243752,-0.1392504317486187,-1.353824523957897,4.364074073719896e-05,-1.13279364795456e-05,-1.083059619166318e-05,5.196412955152895e-05,5.23835593406536e-05
301.7796778401574,200.0139509535068,12.5,0,13.520910410357,-0.1463721552204991,-1.251284967749476,4.338401103731878e-05,-1.128511922499119e-05,-1.001027974199581e-05,5.161207161062092e-05,5.18601956618755e-05
299.2601379114286,201.4138417363627,12.5,0,13.9062372071956,-0.06063235689952373,-1.326282850597064,4.454846494854553e-05,-1.131901330783495e-05,-1.061026280477651e-05,5.335985780618705e-05,5.307997849411433e-05
301.0804289677798,201.8776007658736,12.5,0,13.82551182250158,-0.06474415861619853,-1.202792972066109,4.429343315889801e-05,-1.12675907655731e-05,-9.622343776528874e-06,5.301942018965389e-05,5.26106400922657e-05
303.3362561397416,200.4933962212627,12.5,0,13.47356726554172,-0.2373682176114129,-1.260011883033564,4.330530982382262e-05,-1.15384321087899e-05,-1.008009506426851e-05,5.115846262340763e-05,5.151480619482139e-05
305.4625816400435,201.1483306367694,12.5,0,13.40183581122395,-0.2125263730048754,-1.164062714124209,4.305589569432054e-05,-1.140155304259476e-05,-9.312501712993668e-06,5.094363544795784e-05,5.109454830116835e-05
302.4129745055354,202.21709593793,12.5,0,13.72857570243787,-0.1524490041818969,-1.194116477836642,4.405340145114669e-05,-1.147069737533236e-05,-9.552931822693136e-06,5.238202793496296e-05,5.229215437799913e-05
304.2332655618865,202.6808549674409,12.5,0,13.65745406802327,-0.1171931768564183,-1.074019915112199,4.37976075591596e-05,-1.130098142035916e-05,-8.592159320897595e-06,5.219898696317008e-05,5.189137362694965e-05
307.6022602486224,201.1482459544724,12.5,0,13.35411500166101,-0.2050598535766599,-1.132364328368813,4.289721588817655e-05,-1.133948353277412e-05,-9.058914626950505e-06,5.077850157163132e-05,5.046815685142383e-05
309.0213016624971,199.791366665318,12.5,0,13.2587271578472,-0.2549125938115062,-1.177000419501543,4.263185698016024e-05,-1.142270202647458e-05,-9.416003356012346e-06,5.026934024674124e-05,4.963975291929472e-05
308.6389805009322,203.4181787482712,12.5,0,13.19590482080739,-0.2235786375250894,-1.122728752637493,4.240575833660372e-05,-1.12721754967262e-05,-8.981830021099948e-06,5.011455234808127e-05,5.083869091504651e-05
310.2703267275415,202.349995250664,12.5,0,13.12372055936338,-0.2694326993491951,-1.167105534949755,4.221145194944218e-05,-1.136116108540813e-05,-9.336844279598036e-06,4.970648834974159e-05,5.009020233571486e-05
305.1444084217915,203.4984298229834,12.5,0,13.69731071876988,-0.173690797612883,-1.008317833530207,4.397034693815393e-05,-1.151365912737713e-05,-8.066542668241656e-06,5.217369650257692e-05,5.184620987506866e-05
306.563449835666,202.141550533829,12.5,0,13.59080962719558,-0.2146494748640122,-1.054068603345105,4.366231038691705e-05,-1.15595260213213e-05,-8.432548826760842e-06,5.164752368533772e-05,5.105937521083908e-05
305.8134059517599,205.2683268379004,12.5,0,13.54628316776975,-0.2037239040364849,-0.994792084017907,4.351108526009237e-05,-1.148894302713255e-05,-7.958336672143256e-06,5.150209673515989e-05,5.212360096131361e-05
307.4447521783692,204.2001433402931,12.5,0,13.46881401975538,-0.2380692117219905,-1.04079460685135,4.329066023259481e-05,-1.153687269331467e-05,-8.326356854810799e-06,5.110734529694297e-05,5.138353843464928e-05
306.3031461338142,206.563981376929,12.5,0,13.77695126658395,-0.2148392951657825,-0.8009069136791571,4.425811548920125e-05,-1.170904675779766e-05,-6.407255309433257e-06,5.23333097676248e-05,5.232991598722983e-05
308.08991027003,205.7071378666566,12.5,0,13.75370825360606,-0.250867881813003,-0.8185776471667444,4.421256071698978e-05,-1.180574382468646e-05,-6.548621177333955e-06,5.213758174314863e-05,5.162949106572623e-05
306.9721436637827,208.333878391846,12.5,0,13.744875394256,-0.2100567041004533,-0.8094235369951875,4.415164662489954e-05,-1.166808176852625e-05,-6.4753882959615e-06,5.222533307663875e-05,5.261618803417684e-05
308.9712126127332,207.7657306731206,12.5,0,13.7274004718371,-0.2453828283716777,-0.8251078095492448,4.412398777257605e-05,-1.176714542825905e-05,-6.600862476393958e-06,5.205367382204736e-05,5.197728292630209e-05
309.3979123988263,205.0798848830281,12.5,0,13.4953482564886,-0.2297555727790175,-0.8827792503292309,4.336891887898674e-05,-1.153149643808374e-05,-7.062234002633847e-06,5.121560173295751e-05,5.111980906635621e-05
311.1846765350422,204.2230413727557,12.5,0,13.47400948958605,-0.2642549004587189,-0.8989784942038388,4.332823428704232e-05,-1.162482327313674e-05,-7.19182795363071e-06,5.103192652240743e-05,5.04277568698184e-05
310.4346326511361,207.349817676827,12.5,0,13.46077741420673,-0.2197760424910258,-0.8923174111510239,4.325030855945435e-05,-1.147190526733666e-05,-7.138539289208191e-06,5.111388093951426e-05,5.151730407507415e-05
312.4337016000866,206.7816699581017,12.5,0,13.44424909458492,-0.2543891742652122,-0.9068661273401585,4.322510844208391e-05,-1.156944463331661e-05,-7.254929018721268e-06,5.094814121936289e-05,5.089952359093356e-05
199.2121852102798,153.2666658155457,12.5,0,5.533314288650031,6.169357649225996,0.4989918957903035,1.27711196042993e-05,1.531529304660316e-05,3.991935166322428e-06,4.247949307346264e-05,4.185515023422984e-05
201.6146666904926,153.3575223305564,12.5,0,5.508386516848532,6.142424202385861,0.691747972677526,1.271289749200661e-05,1.524904823415593e-05,5.533983781420208e-06,4.230936973673526e-05,4.2910361658086e-05
200.085978398218,155.4408599060843,12.5,0,6.025898081297876,6.300455080944021,0.4171602030572066,1.424250979539798e-05,1.534073779398256e-05,3.337281624457653e-06,4.472893566243813e-05,4.455810428774507e-05
202.2991836173993,155.482604958441,12.5,0,6.00962548402881,6.274224504199376,0.623351203556089,1.421142194553269e-05,1.526981802621495e-05,4.986809628448712e-06,4.459061457183648e-05,4.551620016581047e-05
200.7256394070692,157.0324804458069,12.5,0,6.438731795923559,6.609131367534343,0.4196559378045849,1.531663665292791e-05,1.599823493937105e-05,3.357247502436679e-06,4.734480963809493e-05,4.658947307088641e-05
202.8002847865146,157.0382734122684,12.5,0,6.423178553882936,6.551550507188098,0.5856064082705579,1.531293096667492e-05,1.582641877989556e-05,4.684851266164463e-06,4.709107898671891e-05,4.748144091183205e-05
201.5994325950075,159.2066745363454,12.5,0,6.938766121041904,6.758217990557583,0.3212988890859928,1.679747719488802e-05,1.607528467295074e-05,2.570391112687942e-06,4.969414120553876e-05,4.943632174205863e-05
203.4848017134213,159.163356040153,12.5,0,6.934279323810454,6.699101512601947,0.4999487178977767,1.683041262611189e-05,1.588970138127787e-05,3.999589743182213e-06,4.947363945510672e-05,5.024473997157138e-05
204.3190306118921,157.0425141580445,12.5,0,6.439433754384617,6.979745343049283,0.1242066147894941,1.502239173959135e-05,1.718363809425001e-05,9.936529183159526e-07,4.868497771466714e-05,4.81232573938476e-05
206.3936759913374,157.0483071245061,12.5,0,6.445015236964556,7.00693404221633,0.2983290114169025,1.501850152451351e-05,1.726617674552061e-05,2.38663209133522e-06,4.880922868562725e-05,4.898476479097809e-05
204.8649876990628,159.131644700034,12.5,0,6.936754840865589,7.096829149640947,0.08637156169780374,1.652015217105712e-05,1.716044940615856e-05,6.909724935824299e-07,5.090866593218649e-05,5.082482080130835e-05
206.7503568174765,159.0883262038415,12.5,0,6.955849643587541,7.12966912305868,0.2761271568743943,1.655498356103319e-05,1.725026147891774e-05,2.209017254995154e-06,5.110158677331749e-05,5.16012128712011e-05
203.373405198177,153.42403391574,12.5,0,5.595107485696012,6.629753359640478,0.1987671154871201,1.260054126651485e-05,1.673912476229272e-05,1.590136923896961e-06,4.43694007108461e-05,4.365784836290309e-05
205.77588667839,153.5148904307507,12.5,0,5.584063348543152,6.656184913508442,0.3850316190096402,1.254405478453133e-05,1.683254104439249e-05,3.080252952077122e-06,4.443475142757953e-05,4.464480859467626e-05
203.9193622853477,155.5131644577294,12.5,0,6.051382261654216,6.736801959395578,0.1646140118203448,1.397498166977703e-05,1.671666046074247e-05,1.316912094562759e-06,4.640029978037547e-05,4.620287291686056e-05
206.132567504529,155.5549095100861,12.5,0,6.049653057623772,6.767796225647502,0.3653707988874449,1.394465280387807e-05,1.681722547597299e-05,2.92296639109956e-06,4.651481929032797e-05,4.712080188291686e-05
231.011131502806,155.5538505662243,12.5,0,6.541796940946603,7.633756747098634,-2.560480710374212,1.482674481335022e-05,1.919458403795834e-05,-2.04838456829937e-05,5.186003287634121e-05,5.138438384928047e-05
232.8695146394757,155.4269461548165,12.5,0,6.466491705119703,7.207669841640447,-2.388751823254333,1.492663758307069e-05,1.789135012915367e-05,-1.911001458603466e-05,4.999066048117096e-05,5.110331858111909e-05
231.6400639604974,157.5602895427893,12.5,0,7.112448100154043,7.916069616712895,-2.801387597819348,1.642697822712262e-05,1.964146429335803e-05,-2.241110078255479e-05,5.499874680323562e-05,5.392756138093755e-05
233.5349947676121,157.4814602383602,12.5,0,7.024373124668232,7.487912138841965,-2.62579624287656,1.648766428786477e-05,1.83418203445597e-05,-2.100636994301248e-05,5.307740148761177e-05,5.363940911257437e-05
227.7923174902227,155.7736554544831,12.5,0,6.518140338617454,7.813560205270409,-2.249851285282173,1.460720091935952e-05,1.978888038597134e-05,-1.799881028225739e-05,5.233570499551087e-05,5.172046687694432e-05
229.6507006268923,155.6467510430754,12.5,0,6.452774521512526,7.432391316503367,-2.084520119620755,1.470296541563739e-05,1.862143259560075e-05,-1.667616095696605e-05,5.066875016676256e-05,5.154974823675194e-05
228.3579475258063,157.6968259031834,12.5,0,7.038586615466933,8.056244854657375,-2.457043322654878,1.607848128576828e-05,2.014911424253005e-05,-1.965634658123903e-05,5.513530040411298e-05,5.425557640709568e-05
230.2528783329209,157.6179965987543,12.5,0,6.961035615111255,7.673389096909682,-2.288448204424695,1.613660269082827e-05,1.898601661802198e-05,-1.830758563539756e-05,5.341954874063897e-05,5.409266290990186e-05
228.7720174501229,159.1046843831872,12.5,0,7.430326379403631,8.14380702283322,-2.455381551645181,1.726199879582504e-05,2.01159213695434e-05,-1.964305241316145e-05,5.685443988557733e-05,5.615649695133624e-05
230.6937030089004,159.0610484996442,12.5,0,7.328925317879426,7.692193579779984,-2.256632812499301,1.729880615339017e-05,1.87518792009924e-05,-1.805306249999441e-05,5.479954367625379e-05,5.599753758580359e-05
229.3376474857065,161.0278548318875,12.5,0,8.012286302263025,8.416459952896441,-2.688771489264846,1.890614820492453e-05,2.052284280745819e-05,-2.151017191411877e-05,5.999727886505945e-05,5.881479892942237e-05
231.295880714929,161.0322940553231,12.5,0,7.897839756469351,7.963249149140745,-2.486557025832309,1.890248790138932e-05,1.91641254720749e-05,-1.989245620665847e-05,5.789057095558089e-05,5.865883730948973e-05
232.1004744740371,159.029104815859,12.5,0,7.512214417406232,7.911777652041054,-2.779909088813168,1.77096640140671e-05,1.930791695260638e-05,-2.223927271050534e-05,5.640716455105271e-05,5.583111682622148e-05
234.0221600328146,158.985468932316,12.5,0,7.396032032197786,7.400008074667207,-2.577133447868261,1.774729604329915e-05,1.776320021317683e-05,-2.061706758294608e-05,5.407993486971427e-05,5.553540622112228e-05
232.7294069317285,161.035543792424,12.5,0,8.139156653610366,8.228547458170404,-3.052805903358557,1.946246332501685e-05,1.9820026543257e-05,-2.442244722686846e-05,5.988988638582667e-05,5.848854948632562e-05
234.687640160951,161.0399830158596,12.5,0,8.009563901955813,7.714858730062691,-2.845824493333894,1.945871750220845e-05,1.827989681463596e-05,-2.276659594667115e-05,5.750855718986044e-05,5.817927612144381e-05
268.6474401872487,140.0057821399549,12.5,0,4.24342265894509,3.271171609444515,-4.02870235551947,1.096201522106868e-05,7.073011023066376e-06,-3.222961884415576e-05,2.913064633992515e-05,2.859699735331779e-05
270.796864657751,140.4345882602757,12.5,0,4.063792704124235,2.947499843048248,-3.808536478720512,1.064613677875895e-05,6.180965334455003e-06,-3.04682918297641e-05,2.723460584708661e-05,2.849797592998525e-05
268.8460396349975,142.0507691651227,12.5,0,4.742723730200913,3.42126232416445,-4.150704402935578,1.243970607731136e-05,7.15386045316551e-06,-3.320563522348462e-05,3.147304117562381e-05,3.018970688989957e-05
271.0176908184014,142.467579519674,12.5,0,4.569160415887283,3.102398321707837,-3.933971468006805,1.213939467347303e-05,6.272346296755252e-06,-3.147177174405444e-05,2.961857492260595e-05,3.004500036961356e-05
268.9914245210986,143.547803568301,12.5,0,4.991804857296134,3.283589329354742,-4.100484650515566,1.334690407986383e-05,6.514041968098266e-06,-3.280387720412453e-05,3.184295557256447e-05,3.135499269611223e-05
271.1793467876311,143.9558324128337,12.5,0,4.811336534463682,2.946564988037832,-3.872346604161638,1.303902491985352e-05,5.579938734150114e-06,-3.09787728332931e-05,2.989845830604411e-05,3.117515028178581e-05
269.1900239688474,145.5927905934689,12.5,0,5.503458099838645,3.437503195378411,-4.225957180448571,1.486106336318093e-05,6.597243745339997e-06,-3.380765744358857e-05,3.426207253791178e-05,3.294590318757764e-05
271.4001729482816,145.988823672232,12.5,0,5.329050442521154,3.105371825175816,-4.001301892963107,1.456866395592704e-05,5.673949486545687e-06,-3.201041514370485e-05,3.236029105249357e-05,3.271575282251283e-05
272.781017049676,144.2545302579726,12.5,0,5.192598111840384,2.942427318421032,-4.130169617672233,1.42623721031524e-05,5.261688929474994e-06,-3.304135694137786e-05,3.143940219731348e-05,3.102769591700595e-05
274.9689393162085,144.6625591025053,12.5,0,5.010213733896412,2.604302395282658,-3.898465666251282,1.394924203224239e-05,4.325596677787376e-06,-3.118772533001026e-05,2.949030904110997e-05,3.08046855149389e-05
273.0181142934551,146.2787400073522,12.5,0,5.708867991169529,3.102593265841707,-4.258682899578885,1.578630295906913e-05,5.361204057757838e-06,-3.406946319663108e-05,3.390057275313591e-05,3.253252235060634e-05
275.2282632728893,146.6747730861155,12.5,0,5.532688229314473,2.769493139482867,-4.030574719343974,1.548900782222002e-05,4.436227462893596e-06,-3.22445977547518e-05,3.199469125926742e-05,3.226207775690648e-05
272.3703525771235,140.7484961269338,12.5,0,4.463232890556392,2.96051737818803,-4.080140317742561,1.191393134723003e-05,5.90306929775658e-06,-3.264112254194049e-05,2.890136116837529e-05,2.840851089027659e-05
274.5197770476257,141.1773022472546,12.5,0,4.283517362244273,2.639457698535492,-3.858703684053955,1.159568940035328e-05,5.019450745518154e-06,-3.086962947243164e-05,2.702030448205068e-05,2.826310927961353e-05
272.6074498209026,142.7727058763134,12.5,0,4.962269380013479,3.115146342338516,-4.203715255932756,1.338714494217232e-05,5.998652791472468e-06,-3.362972204746205e-05,3.126253437281549e-05,2.99226703766683e-05
274.7791010043065,143.1895162308648,12.5,0,4.788706332692242,2.798971717831575,-3.985788133295249,1.308468289034991e-05,5.125744430907247e-06,-3.1886305066362e-05,2.942322784854479e-05,2.973316514092409e-05
288.5239512715962,136.7044785984828,12.5,0,3.700035072346623,1.676088923491762,-3.954850585661512,1.049924109271578e-05,2.403456497296341e-06,-3.16388046852921e-05,2.200930975413955e-05,2.24752696931198e-05
290.9184871251031,136.4931750419819,12.5,0,3.66848203331677,1.407963149088055,-3.803216887161935,1.061277198734322e-05,1.570696450428361e-06,-3.042573509729547e-05,2.090817388577822e-05,2.190580995771716e-05
289.6067629996378,139.3232226618532,12.5,0,4.219378854971768,1.928062529462643,-4.148482567990709,1.195956231233954e-05,2.794297010303044e-06,-3.318786054392567e-05,2.477539268531836e-05,2.397955100208226e-05
291.8625849651619,139.0830729122764,12.5,0,4.19451857273491,1.649353052390303,-3.991692346997993,1.210297699083947e-05,1.922314909461043e-06,-3.193353877598394e-05,2.365573165905159e-05,2.339461596282734e-05
292.6714090303408,136.3384901028098,12.5,0,3.639891789348379,1.461231456068337,-3.957626700262245,1.047866856106014e-05,1.764027227939974e-06,-3.166101360209796e-05,2.114350051748046e-05,2.150124918503058e-05
295.0659448838477,136.1271865463089,12.5,0,3.617714312669133,1.229362697028747,-3.803384823973784,1.059319564291823e-05,1.039789180356685e-06,-3.042707859179027e-05,2.018962248097146e-05,2.096542833465719e-05
293.5139612566853,138.9072710941688,12.5,0,4.144131147499207,1.670029314871201,-4.117834749680228,1.19251962201005e-05,2.028788889588476e-06,-3.294267799744182e-05,2.367647981315304e-05,2.297590148771106e-05
295.7697832222095,138.6671213445921,12.5,0,4.129115573936973,1.428591788840828,-3.957583098420367,1.207029640552565e-05,1.268201265141071e-06,-3.166066478736294e-05,2.271026348395878e-05,2.241688730703514e-05
291.2120657663082,131.8892309123388,12.5,0,2.807037006267632,1.569537018752759,-3.956121177589529,7.726888805054214e-06,2.776888854994723e-06,-3.164896942071623e-05,1.871397465399005e-05,1.895505556259784e-05
293.8468611215122,131.7278904278493,12.5,0,2.768184948642851,1.301700988367626,-3.778841664407362,7.81683104496302e-06,1.950895203862123e-06,-3.02307333152589e-05,1.755883107586839e-05,1.846185893801847e-05
292.0546179926527,134.4580119036978,12.5,0,3.324138186719082,1.784288988559109,-4.121161244354779,9.209811006653774e-06,3.050414214013884e-06,-3.296928995483823e-05,2.126788209148141e-05,2.042386676654006e-05
294.550699459874,134.2678252261325,12.5,0,3.291152095083044,1.505980027727989,-3.93729771306793,9.32690268208335e-06,2.18621441266313e-06,-3.149838170454344e-05,2.008875426638374e-05,1.990568167716998e-05
286.6484663436303,132.1686808287873,12.5,0,2.836878561446881,1.794151609740309,-3.962951382411437,7.642690108837774e-06,3.471782302011481e-06,-3.17036110592915e-05,1.951116486642024e-05,1.982839933509174e-05
289.2832616988343,132.0073403442978,12.5,0,2.791695626484202,1.499985578217967,-3.784634357867223,7.73343754217507e-06,2.566597349110133e-06,-3.027707486293778e-05,1.824422653382764e-05,1.932121895840673e-05
287.7312780716719,134.7874248921577,12.5,0,3.376944671036666,2.049446467815073,-4.158074694828701,9.166665773065272e-06,3.8566729601789e-06,-3.326459755862961e-05,2.231540017892803e-05,2.136297195632519e-05
290.2273595388933,134.5972382145924,12.5,0,3.337500943911116,1.744360692337537,-3.973736130416874,9.284514466645542e-06,2.911953460351226e-06,-3.178988904333499e-05,2.102200304172755e-05,2.081434651996527e-05
264.9685282939503,228.6273839163946,12.5,0,15.83446088088982,0.306883228967116,-0.1111374990917153,5.042476823567373e-05,-1.168554237201708e-05,-8.890999927337224e-07,6.178327460587398e-05,6.692811020920481e-05
266.8552000978017,228.5689739807873,12.5,0,15.86737082934185,0.4873966203930826,-0.2668682668989042,5.038566935757947e-05,-1.113422747821562e-05,-2.134946135191234e-06,6.246488574219194e-05,6.440972990922387e-05
265.4463245018519,230.390596355066,12.5,0,15.43235715521836,0.1630445394122342,-0.00751546984449061,4.925310726516894e-05,-1.182414319805553e-05,-6.012375875592488e-08,5.979928967744192e-05,6.460030070424294e-05
267.3579971376662,230.3397363317655,12.5,0,15.46672804758437,0.3420780935515184,-0.1618753169068342,4.921986727742878e-05,-1.127873253870264e-05,-1.295002535254674e-06,6.047842999909357e-05,6.242659011261357e-05
265.7960956016847,231.6813574446561,12.5,0,15.14136465563683,0.1307726396274491,0.1027072304422529,4.83477487863359e-05,-1.169461927770163e-05,8.216578435380232e-07,5.858353231892105e-05,6.296055040181694e-05
267.7260701167266,231.6360243407565,12.5,0,15.17670932532418,0.3147805806038453,-0.07713326504433746,4.83136453765543e-05,-1.113406960232704e-05,-6.170661203546996e-07,5.927958122884732e-05,6.103595064723181e-05
266.2738918095862,233.4445698833276,12.5,0,14.69089751607998,-0.02490072991981185,0.2108726369420355,4.703079263539177e-05,-1.183240034860738e-05,1.686981095536284e-06,5.638241621752501e-05,6.080847876863406e-05
268.2288671565911,233.4067866917347,12.5,0,14.72786359928561,0.1576699387759462,0.03263529941514159,4.700302756669317e-05,-1.127774707534545e-05,2.610823953211328e-07,5.707577259894216e-05,5.92197927692472e-05
269.1389095189903,231.6028382054387,12.5,0,15.04431390208666,0.1049869894257376,0.2090897100511256,4.805781489513673e-05,-1.169949275550697e-05,1.672717680409005e-06,5.813406262963693e-05,6.001676854208714e-05
271.0688840340323,231.557505101539,12.5,0,15.06895908633888,0.2390423490582472,0.05926459068090193,4.80294351970378e-05,-1.129023175208471e-05,4.741167254472154e-07,5.863436364030386e-05,5.915691100313364e-05
269.6600084380824,233.3791274758178,12.5,0,14.66713208650591,-0.02359532058062896,0.2963281156105266,4.69536989332834e-05,-1.180921069506274e-05,2.370624924884213e-06,5.629745419883595e-05,5.840333383510479e-05
271.6149837850874,233.3413442842248,12.5,0,14.69318147820238,0.1094889724725561,0.1478410981143718,4.693058955226957e-05,-1.140418047064972e-05,1.182728784914974e-06,5.67972333290228e-05,5.776141254402619e-05
268.2363397153699,228.5262149402579,12.5,0,15.64643583929104,0.2351940863064299,0.06864259862325214,4.988043941668617e-05,-1.176452759525225e-05,5.491407889860172e-07,6.084177649552256e-05,6.303043573619547e-05
270.1230115192212,228.4678050046507,12.5,0,15.66926265067651,0.3694231244395394,-0.06840547908558349,4.98461019826132e-05,-1.135325612233468e-05,-5.47243832684668e-07,6.133912786792853e-05,6.17805142767189e-05
268.7574386344619,230.302504210637,12.5,0,15.29148206729222,0.1112146983281752,0.1547085714478122,4.884377085667257e-05,-1.187729861918362e-05,1.237668571582497e-06,5.910171061138598e-05,6.125659675974231e-05
270.6691112702763,230.2516441873364,12.5,0,15.31566158872974,0.2444297971977343,0.01888081256124679,4.881457324617698e-05,-1.147035391995104e-05,1.510465004899743e-07,5.9598619415671e-05,6.023382606667365e-05
194.9954794148707,159.8471108268241,12.5,0,6.910036410403258,5.986563029912027,0.827317277469526,1.73228660893608e-05,1.362897256739588e-05,6.618538219756208e-06,4.684666860259102e-05,4.670509474729873e-05
196.5999548184675,158.937917326798,12.5,0,7.02610923826029,5.865680531585628,0.8966071437702801,1.779100513716442e-05,1.314929031046578e-05,7.172857150162241e-06,4.684637511334091e-05,4.6598604313053e-05
196.105895075294,161.4725245553592,12.5,0,7.266020203493794,6.195996506542111,0.6738294977856298,1.829446744594645e-05,1.401437265813972e-05,5.390635982285038e-06,4.888446486946806e-05,4.901398580226401e-05
197.6563554898449,160.7462692293143,12.5,0,7.367185040770146,6.050931272164855,0.7592696800423464,1.873424711273258e-05,1.346923203831142e-05,6.074157440338771e-06,4.87436382023451e-05,4.908885165680386e-05
197.774512333345,158.2723414908959,12.5,0,6.554399396882602,6.259371465955561,0.6696129500448598,1.596658089725988e-05,1.478646917355171e-05,5.356903600358878e-06,4.65162476507255e-05,4.649693956149236e-05
199.3789877369418,157.3631479908698,12.5,0,6.69757382668273,6.190188315923671,0.7590927042103469,1.64800855926458e-05,1.445054354960956e-05,6.072741633682776e-06,4.679650490470943e-05,4.632567672912375e-05
198.7913712883723,160.2146134314046,12.5,0,6.992535314149191,6.444933949122113,0.5294871530714439,1.722016584597972e-05,1.502976038587141e-05,4.235897224571551e-06,4.876942187936033e-05,4.91213612687695e-05
200.3418317029231,159.4883581053597,12.5,0,7.119328914480534,6.35935728613101,0.634058524716087,1.76943666974329e-05,1.46544801840348e-05,5.072468197728696e-06,4.893177899685464e-05,4.913531332585792e-05
196.013260959138,154.9082278078798,12.5,0,5.707050822643806,5.814842112510157,0.8268997926033227,1.361068894245205e-05,1.404185410191746e-05,6.615198340826581e-06,4.185071785404522e-05,4.216171823723633e-05
197.7112930681309,153.6821760958801,12.5,0,5.870662435689285,5.702523180646797,0.888840617979609,1.422410124968827e-05,1.355154422951832e-05,7.110724943836872e-06,4.204522403361304e-05,4.165455183420053e-05
197.0301199141653,156.8504997483885,12.5,0,6.099279348077363,6.016202967817161,0.6763758319774151,1.470473153959383e-05,1.437242601855303e-05,5.411006655819321e-06,4.398426178581981e-05,4.463210883164219e-05
198.6741370341122,155.8073862103701,12.5,0,6.252161366175724,5.885678691658098,0.7505014787153155,1.529837341843584e-05,1.383244272036533e-05,6.004011829722523e-06,4.407562400433285e-05,4.43212127287267e-05
193.0721830735318,157.031811665732,12.5,0,6.202750179439223,5.619186528191309,0.9612839803425575,1.535345135165246e-05,1.301919674666081e-05,7.690271842740459e-06,4.296257849113717e-05,4.288515009816583e-05
194.7702151825247,155.8057599537323,12.5,0,6.344881138289765,5.509423975325937,1.013260143028237,1.589608046226649e-05,1.255425181041119e-05,8.106081144225894e-06,4.309449800013667e-05,4.249145604826271e-05
194.1825987339552,158.657225394267,12.5,0,6.504934909699394,5.803026609179847,0.8278593688002734,1.617337042369418e-05,1.336573722161599e-05,6.622874950402188e-06,4.470778215932528e-05,4.506287816989369e-05
195.8266158539022,157.6141118562485,12.5,0,6.639088719962707,5.6744008114131,0.8915491503803361,1.670556325475018e-05,1.284681162055175e-05,7.132393203042688e-06,4.474397916710538e-05,4.483083748765078e-05
294.4448219394753,224.4114409956788,12.5,0,15.00777079760023,-0.1079938687320094,0.1410407650266464,4.811126164730635e-05,-1.235179701802262e-05,1.128326120213171e-06,5.734769195469359e-05,5.740326739455886e-05
296.4254938177033,224.2895362829248,12.5,0,15.00479597484228,-0.1125279931833738,0.1289807434411399,4.810536951404198e-05,-1.236392635806062e-05,1.031845947529119e-06,5.732240162825607e-05,5.714748574827048e-05
295.0523492065431,226.3239952597303,12.5,0,14.97749704426577,-0.1144084449152114,0.1432306279188639,4.801951729758265e-05,-1.23481046591413e-05,1.145845023350911e-06,5.721203679183399e-05,5.733939045587187e-05
297.0594051278448,226.2089597528692,12.5,0,14.97468703951577,-0.1188616127538875,0.1313034346441672,4.801408781665356e-05,-1.236010679242505e-05,1.050427477153337e-06,5.718762533088898e-05,5.715292261024172e-05
293.3925538459496,221.0987998381685,12.5,0,15.05007445208237,-0.1270975847554556,0.03464130830429233,4.826191631446795e-05,-1.244677183288335e-05,2.771304664343386e-07,5.745160631641557e-05,5.756192044563907e-05
295.3275272210653,220.9649973118007,12.5,0,15.04782722568932,-0.1253609298951908,0.01919420917752225,4.825333586612197e-05,-1.243941675621607e-05,1.53553673420178e-07,5.744816303361896e-05,5.719079196236547e-05
294.0000811130172,223.0113541022201,12.5,0,15.00931558751872,-0.1380033988127387,0.04037547953470496,4.814021259911009e-05,-1.244906334621574e-05,3.230038362776397e-07,5.726211530748686e-05,5.746289412560683e-05
295.9614385312068,222.8844207817451,12.5,0,15.00727372785141,-0.1362399382496884,0.02508924589839177,4.813226787972425e-05,-1.244178678468013e-05,2.007139671871341e-07,5.725953094089715e-05,5.715763281058961e-05
290.0410816490164,221.3305526120146,12.5,0,15.20487765847902,-0.1022504274866343,0.06271636264829203,4.873740884912218e-05,-1.249110349474045e-05,5.017309011863362e-07,5.812160169054685e-05,5.824576408722581e-05
291.9760550241321,221.1967500856467,12.5,0,15.20187385107432,-0.09639426505883542,0.03705455902395161,4.872311173548488e-05,-1.246996072904773e-05,2.964364721916128e-07,5.812759708027787e-05,5.784459937452394e-05
290.6029104129718,223.2312090624522,12.5,0,15.13719855928157,-0.1210737306951142,0.07273809322292908,4.85358943742571e-05,-1.249719478564962e-05,5.819047457834327e-07,5.780479989504897e-05,5.802415285822637e-05
292.5642678311614,223.1042757419772,12.5,0,15.13452953561571,-0.1152056246003585,0.04734338581986828,4.852265901365057e-05,-1.247628162721372e-05,3.787470865589462e-07,5.78120807987195e-05,5.769507747258925e-05
291.0141976133234,224.6225861518469,12.5,0,15.11483266308171,-0.09388335754897437,0.1745640015500007,4.844257120790064e-05,-1.239229287462208e-05,1.396512012400005e-06,5.780226770015106e-05,5.787196766662435e-05
292.9948694915513,224.5006814390929,12.5,0,15.11230239454446,-0.08917649089363255,0.1506034507139356,4.843070885525718e-05,-1.237520668649519e-05,1.204827605711485e-06,5.780633251574785e-05,5.759739173950669e-05
291.5760263772789,226.5232426022845,12.5,0,15.05325016469593,-0.1107820388219354,0.1833798526886996,4.825902615808453e-05,-1.239710265598694e-05,1.467038821509597e-06,5.751479325105901e-05,5.767780121998979e-05
293.5830822985806,226.4082070954234,12.5,0,15.05101584273578,-0.1060581299807613,0.1596658970566892,4.824809720073908e-05,-1.238019869012705e-05,1.277327176453513e-06,5.75200188996607e-05,5.748003125547385e-05
303.1509305038907,176.7147733222898,12.5,0,10.57843522944853,0.1936344652614461,-2.751183534879949,3.369608516202614e-05,-7.843117894722196e-06,-2.200946827903959e-05,4.180994676506517e-05,4.227349805368402e-05
305.5091128334988,176.9382014460591,12.5,0,10.5108178967612,0.07055406071280057,-2.591597320761459,3.357817402106561e-05,-8.182881323128e-06,-2.073277856609167e-05,4.11187610434344e-05,4.163866170787137e-05
303.5942028796492,178.9957323842615,12.5,0,10.98965740812854,0.3166264903096145,-2.822309115423668,3.491360251376362e-05,-7.778521157512062e-06,-2.257847292338935e-05,4.37700974872964e-05,4.320613890860052e-05
305.9609533521493,179.2484101888872,12.5,0,10.91697191651731,0.1921566380982225,-2.662028022819589,3.478058482237682e-05,-8.118676291299538e-06,-2.129622418255671e-05,4.305445154707744e-05,4.257362812204471e-05
302.3831602274991,172.7640363370411,12.5,0,10.00947567877952,0.3114854156479892,-2.975608859942828,3.178113383957607e-05,-7.010827212950051e-06,-2.380487087954263e-05,4.011084932622183e-05,4.057352444858687e-05
304.7265020982916,172.9368025274628,12.5,0,9.94683891951219,0.1786782158514506,-2.812455786495609,3.168694196975785e-05,-7.385700844885108e-06,-2.249964629196487e-05,3.939946594502097e-05,3.993688950461159e-05
302.8264326032576,175.0449953990128,12.5,0,10.4347308655714,0.4402133072443792,-3.052298898565103,3.303896812403297e-05,-6.939102109275105e-06,-2.441839118852082e-05,4.214260255117578e-05,4.156809113516282e-05
305.1783426169422,175.2470112702909,12.5,0,10.36683284373411,0.3059536689760511,-2.888384003908143,3.29291021647683e-05,-7.314414534263921e-06,-2.310707203126514e-05,4.140595281888948e-05,4.093214972470019e-05
298.3243730478558,172.4647965174061,12.5,0,10.16054582914532,0.4879939077007496,-3.091839605974469,3.212335152710441e-05,-6.566856158673855e-06,-2.473471684779575e-05,4.127072794171911e-05,4.173625468166411e-05
300.6677149186484,172.6375627078277,12.5,0,10.09194456723551,0.3364644561769876,-2.921212408189935,3.202505105021205e-05,-6.99686939402205e-06,-2.336969926551948e-05,4.04733122374384e-05,4.105566289465177e-05
298.7528049647989,174.6950936460302,12.5,0,10.5951315388232,0.6214968431827184,-3.174426414005987,3.340722344968806e-05,-6.487315332873861e-06,-2.539541131204789e-05,4.335671894154094e-05,4.273388393021917e-05
301.1047149784836,174.8971095173083,12.5,0,10.52103985025579,0.4684449614906638,-3.002954200608443,3.329257155162599e-05,-6.917808003434507e-06,-2.402363360486754e-05,4.253277715015026e-05,4.205086436049214e-05
299.0664388955719,176.3277844600887,12.5,0,10.73907841484076,0.3568169102092318,-2.869760268691497,3.407959739932305e-05,-7.449448619203068e-06,-2.295808214953197e-05,4.296165276804121e-05,4.344029669641163e-05
301.4246212251799,176.5512125838579,12.5,0,10.66510092072821,0.215289254145838,-2.702153984056994,3.395609154301359e-05,-7.843155123315885e-06,-2.161723187245595e-05,4.218420367215111e-05,4.275624469390401e-05
299.4948708125149,178.5580815887128,12.5,0,11.16086834276944,0.4848784274619682,-2.946798919941686,3.532687595489263e-05,-7.377083706337252e-06,-2.357439135953349e-05,4.498128176260606e-05,4.437262301629172e-05
301.8616212850151,178.8107593933385,12.5,0,11.08158296172415,0.341888765658438,-2.778416705023345,3.518755446499052e-05,-7.771222319272316e-06,-2.222733364018676e-05,4.417805446077265e-05,4.368817813768671e-05
239.8963128689702,213.2350249793624,12.5,0.697510934343807,17.70655580777331,8.993476328061309,-3.71070373918004,0.0001635305309800801,4.831209211438926e-05,-9.813786111257587e-05,0.0003238536406329288,0.0003076482245542455
241.4522993143714,214.40949127569,12.5,0.6923558787000488,17.6054043567461,9.358903915203026,-3.62678480589437,0.0001587879222362792,5.156662502185547e-05,-9.431117462786233e-05,0.0003212294875287024,0.0003029821955336931
238.6754710888321,214.3923614504857,12.5,0.7291981497519745,16.27430976801795,8.347475516492588,-3.102687596656277,0.0001676495592732546,5.056270415368684e-05,-9.16592731937259e-05,0.0003332546794955379,0.0003398383183704384
240.3599546307058,215.354865267497,12.5,0.7232000270638197,16.33571622185053,8.786236475995114,-2.992737132882059,0.0001634584795987587,5.436194081266514e-05,-8.649530131484722e-05,0.000332248436045025,0.0003332351038958921
237.2012652896954,211.2007896823824,12.5,0.6977664902366595,17.7439450485973,9.309857058743921,-3.677550568960377,0.0001632272296581061,5.160376346525976e-05,-9.73432912012974e-05,0.0003281694853513499,0.0003078832987050506
238.7572517350965,212.37525597871,12.5,0.6989335947363254,17.45213927992463,9.622722443009561,-3.620977940359413,0.0001599270689108686,5.590461140607921e-05,-9.621738930820005e-05,0.0003293778502992571,0.0003089614711909915
235.7578600098458,212.7252559369731,12.5,0.730175137866325,16.27174798467328,8.724078889591132,-3.030413476232169,0.0001671096209694095,5.521972267911879e-05,-8.984830981900727e-05,0.0003391861249803606,0.0003409388861697039
237.4423435517195,213.6877597539844,12.5,0.7310253890796856,16.07401436191424,9.074952032137382,-2.946965380862368,0.0001642418374777513,6.015673731414692e-05,-8.765036583279384e-05,0.0003419743443244291,0.0003419025406093072
234.7012140091277,213.8412426897102,12.5,0.7490612945631306,17.23294342782318,9.355530122839589,-3.906427330551254,0.0001899308230979655,6.436369241129866e-05,-0.0001245380563751741,0.0003885241946945628,0.0003637190013969651
236.4797639542403,214.6485792025704,12.5,0.7502682808983772,17.02642268233997,9.802189935914638,-3.765265621326469,0.000186771631583475,7.10597344738318e-05,-0.0001206179378373406,0.0003933799149572232,0.0003652795267054553
233.2578087292781,215.3657089443009,12.5,0.7700332484041362,16.29889045092808,9.052293338475032,-3.284818236610963,0.000195309167349206,6.926317048809469e-05,-0.0001142710661890323,0.0004036048344124786,0.0003928998461381091
235.1648557708632,215.9610829778448,12.5,0.7722127478616199,16.10122477482244,9.499339363485872,-3.095559663018718,0.0001928310183133477,7.690029173649875e-05,-0.0001087175734009267,0.0004108731694006904,0.0003962055710323631
237.7817528778062,215.2395905487644,12.5,0.7485103241124033,17.14038415852963,8.994635865122925,-3.936252358917598,0.0001894849975332396,5.99250342519246e-05,-0.0001252139626018495,0.0003813803059653298,0.0003630111011432458
239.5603028229188,216.0469270616246,12.5,0.7423272447763848,17.20635023444035,9.444739964169537,-3.72708070377992,0.0001843599209301263,6.387205229946595e-05,-0.0001157151659451294,0.000379005652150022,0.0003552531219453475
236.560911097668,216.3969270198877,12.5,0.7708487586247388,16.15338639726533,8.499067491933829,-3.32839625024602,0.0001959037280718323,6.229207736649432e-05,-0.000116199108685443,0.0003943694062448467,0.0003941302272178113
238.4679581392532,216.9923010534316,12.5,0.7647789614233048,16.34994171046266,9.00360566589363,-3.072799723894995,0.0001918065204276145,6.688000723778845e-05,-0.0001045076492302993,0.0003944775487312489,0.0003851545575787866
237.1870474940235,89.07048421291819,12.5,0,-6.214140599049069,2.655453343566818,-1.428622205093099,-2.200961259181047e-05,1.346876317865307e-05,-1.142897764074479e-05,4.302326609042031e-06,4.265095329824291e-06
239.3573136439737,89.14362487317577,12.5,0,-6.302856768259623,2.351091353780851,-1.274964147157906,-2.205001474145547e-05,1.256577774670642e-05,-1.019971317726325e-05,3.84067810868719e-06,4.283611074036893e-06
238.0566167761797,91.27357751368763,12.5,0,-5.775046079923154,2.879143612081168,-1.604563167050747,-2.078346234541902e-05,1.383329642259826e-05,-1.283650533640598e-05,4.7375127040911e-06,4.468033329647654e-06
240.2078986312584,91.34411671507311,12.5,0,-5.864113225106475,2.572409106207047,-1.449764731972672,-2.082308960530636e-05,1.292299971994773e-05,-1.159811785578137e-05,4.199604340822945e-06,4.489004141520065e-06
235.6809093166549,85.25461468223943,12.5,0,-6.906885856609052,2.481270719699575,-1.292377810079826,-2.408705131690862e-05,1.346557498832588e-05,-1.03390224806386e-05,4.051941291155405e-06,4.005241614454491e-06
237.8840572298677,85.33226120143729,12.5,0,-6.995735140713343,2.179422543643813,-1.136495473105236,-2.412989048519775e-05,1.257074025223087e-05,-9.09196378484189e-06,3.656889341143267e-06,4.019396312522513e-06
236.550478598811,87.4577079830089,12.5,0,-6.469057424788427,2.70191933843946,-1.465477241114818,-2.286251923007453e-05,1.382138782283701e-05,-1.172381792891855e-05,4.383712648521782e-06,4.141090663478329e-06
238.7346422171524,87.53275304333459,12.5,0,-6.558254860636688,2.397751167189786,-1.30844989816814,-2.290461648778923e-05,1.291940762351666e-05,-1.046759918534512e-05,3.928790283102231e-06,4.157780035501581e-06
231.8649451944495,85.12012696596035,12.5,0,-6.990349334992786,2.508336236649799,-1.096959745910787,-2.437578686129675e-05,1.361895542527358e-05,-8.775677967286298e-06,4.027608372773632e-06,3.980609822624611e-06
234.0680931076623,85.19777348515818,12.5,0,-7.080692590206317,2.200352111341331,-0.9414503424696856,-2.441849797773328e-05,1.270568082845731e-05,-7.531602739757485e-06,3.636648500972336e-06,3.994848805809433e-06
232.7673962398683,87.32772612567001,12.5,0,-6.551158356054041,2.735906690096468,-1.274711563768521,-2.31524320914501e-05,1.399582809315193e-05,-1.019769251014817e-05,4.35346948571733e-06,4.111188034003781e-06
234.9515598582096,87.40277118599573,12.5,0,-6.641860444875499,2.425561267740311,-1.118066208246281,-2.319440243779385e-05,1.307528441266939e-05,-8.944529665970251e-06,3.902327734955798e-06,4.128606374303632e-06
233.4280362564304,88.94380087325516,12.5,0,-6.297687217661627,2.688784205284652,-1.233138769591663,-2.230362646074493e-05,1.364225923104019e-05,-9.865110156733305e-06,4.268144231835839e-06,4.231378654624057e-06
235.5983024063806,89.01694153351275,12.5,0,-6.387380875858709,2.380232967954454,-1.080256260741586,-2.234380517711143e-05,1.272665019814122e-05,-8.642050085932692e-06,3.813501023914755e-06,4.251099695224334e-06
234.3304873018491,91.15140003296483,12.5,0,-5.858437437430144,2.918472260287509,-1.412871305026941,-2.108177760800647e-05,1.402586118286414e-05,-1.130297044021553e-05,4.693985344353228e-06,4.429167325386677e-06
236.4817691569279,91.22193923435032,12.5,0,-5.948489638458518,2.607522294699344,-1.258860217871077,-2.112118467882673e-05,1.310286305380472e-05,-1.007088174296861e-05,4.163130072431086e-06,4.452000103087563e-06
196.2733257877624,134.2709271566237,12.5,0,1.588207625541343,4.686347163902352,0.7405922450056648,1.333186670610415e-06,1.372574482405445e-05,5.924737960045319e-06,2.318213437369278e-05,2.278030945372277e-05
197.951318937972,134.5520830647533,12.5,0,1.544182179432817,4.692940960368341,0.8484489246776062,1.187030205890341e-06,1.378206532963244e-05,6.78759139742085e-06,2.308403878422691e-05,2.343134216162387e-05
196.7413685668715,136.2866713944292,12.5,0,1.979982473685666,4.778763814727178,0.7158725382735759,2.512932864012389e-06,1.370805822817843e-05,5.726980306188607e-06,2.484680678180398e-05,2.465319184392961e-05
198.2518758652042,136.5596375328633,12.5,0,1.926548342619574,4.785059007855897,0.8362103904498435,2.336907490097919e-06,1.377095015104321e-05,6.689683123598748e-06,2.471389445033843e-05,2.528131186020571e-05
195.4626519142442,130.7795557217431,12.5,0,0.9172913208872009,4.43988718030263,0.7601664220273222,-6.165775174030613e-07,1.347380592025865e-05,6.081331376218578e-06,2.004112947005891e-05,1.967546165776489e-05
197.4307390694482,131.0748967270875,12.5,0,0.8748894058600971,4.458251319035161,0.8836880422640508,-7.669549564758175e-07,1.356649269622443e-05,7.069504338112406e-06,2.000643614616602e-05,2.035469051499437e-05
195.9306946933533,132.7952999595486,12.5,0,1.293312343894802,4.526280658141505,0.7403613788904044,5.17574973950164e-07,1.344944823093697e-05,5.922891031123236e-06,2.159530748960015e-05,2.144653067024142e-05
197.7312959966805,133.0824511951974,12.5,0,1.243345743930155,4.545565446887324,0.8757545969682249,3.422540230666376e-07,1.355113283489531e-05,7.006036775745799e-06,2.153634372636566e-05,2.211125795080164e-05
192.0538249677683,130.2680100949373,12.5,0,0.8155070204958389,4.160322116672301,0.9286795029736387,-7.186352277511566e-07,1.266062515695469e-05,7.429436023789109e-06,1.869778277842667e-05,1.852934633573814e-05
194.0219121229724,130.5633511002817,12.5,0,0.7591519445723911,4.13855184110066,1.064848468825393,-8.815552502488761e-07,1.26360443358642e-05,8.51878775060314e-06,1.848101092808275e-05,1.918636215903955e-05
192.8119617518719,132.2979394299575,12.5,0,1.229504506647695,4.267096552578459,0.8673118703575726,5.207371792098552e-07,1.267110536293291e-05,6.938494962860581e-06,2.043460474920389e-05,2.034346248283519e-05
194.6125630551991,132.5850906656064,12.5,0,1.163752121535814,4.242206764568121,1.017165610574537,3.30241377260108e-07,1.264405994938933e-05,8.137324884596297e-06,2.016891248058997e-05,2.097285130223116e-05
193.366956396899,133.7839508389036,12.5,0,1.510494743330184,4.433111949760479,0.9183104687908065,1.287093618848205e-06,1.297756244456939e-05,7.346483750326452e-06,2.200864422782496e-05,2.169905701677751e-05
195.0449495471086,134.0651067470334,12.5,0,1.459177269817868,4.414054276594153,1.029862977512665,1.138123842141855e-06,1.295763186924699e-05,8.238903820101319e-06,2.179787501211737e-05,2.231614504811521e-05
194.1250931810025,135.8138801739238,12.5,0,1.915891822819566,4.537636551909674,0.8582504534188929,2.500744591494872e-06,1.29877235078553e-05,6.866003627351144e-06,2.375256882314865e-05,2.358849401103099e-05
195.6356004793353,136.086846312358,12.5,0,1.853979336348189,4.515174844645583,0.9833672276116556,2.320594000597737e-06,1.296537603378731e-05,7.866937820893245e-06,2.349011546518048e-05,2.419960266832437e-05
236.6087352977857,162.577646613523,12.5,0,8.67939709230286,7.816654525578082,-3.325699336632386,2.152074707490668e-05,1.806977680800757e-05,-2.660559469305909e-05,6.045599152936714e-05,5.985719204333476e-05
238.6465885732363,162.6694422455002,12.5,0,8.503034462772517,7.220730139362534,-3.072609489992534,2.143312616938203e-05,1.630390887574209e-05,-2.458087591994027e-05,5.760484618428983e-05,5.942358878781813e-05
237.1819107391835,164.6118083653046,12.5,0,9.370246214702789,8.14508339330299,-3.615361728223599,2.346872117240653e-05,1.856806988680734e-05,-2.892289382578879e-05,6.423063201294915e-05,6.251228799473012e-05
239.2186436820396,164.7077903931479,12.5,0,9.192226146162424,7.547786254233118,-3.36137235702386,2.337689466433326e-05,1.679913509661604e-05,-2.689097885619088e-05,6.137107395012369e-05,6.198845430002298e-05
237.6015042839196,166.1009181183587,12.5,0,9.751681651055057,7.976394977168411,-3.502267771400574,2.482426530164145e-05,1.772311860609487e-05,-2.801814217120459e-05,6.497447802838168e-05,6.448608560062924e-05
239.6374170863952,166.1999648006765,12.5,0,9.560859193356963,7.34026315895747,-3.229442698767082,2.47225388915763e-05,1.584015475397833e-05,-2.583554159013666e-05,6.193294195585138e-05,6.388675649093999e-05
238.1746797253175,168.1350798701403,12.5,0,10.49467318830993,8.328344452819838,-3.812028612953054,2.69202786403359e-05,1.825496369837554e-05,-3.049622890362444e-05,6.903441280211067e-05,6.722350499263735e-05
240.2094721951985,168.2383129483242,12.5,0,10.30206334764189,7.690741482136211,-3.53823720690465,2.681400952674507e-05,1.636872206472236e-05,-2.83058976552372e-05,6.598330702625038e-05,6.650814901266025e-05
241.1278086975238,166.2724720044512,12.5,0,9.884145714935261,7.466352931289766,-3.748421263435951,2.565618394276102e-05,1.598501280817904e-05,-2.998737010748761e-05,6.37452109077325e-05,6.340475089892911e-05
243.1637214999994,166.371518686769,12.5,0,9.692191610996124,6.824326083685293,-3.478299828433697,2.555555228823936e-05,1.408409017899603e-05,-2.782639862746958e-05,6.068646827661531e-05,6.268721624165633e-05
241.6990436659466,168.3138848065734,12.5,0,10.6223444875922,7.818119339767799,-4.060235944887284,2.773700688848079e-05,1.65201062971832e-05,-3.248188755909827e-05,6.779449536974325e-05,6.594047664372146e-05
243.7338361358276,168.4171178847573,12.5,0,10.42861830868578,7.174620365284806,-3.789150459164849,2.763188229556665e-05,1.461589052196275e-05,-3.031320367331879e-05,6.472614625310277e-05,6.510492286963892e-05
240.1384007091734,162.7366413120176,12.5,0,8.831835173621611,7.370482331577652,-3.598212212598475,2.236548669032703e-05,1.65200753221512e-05,-2.87856977007878e-05,5.952430505843201e-05,5.906545174222218e-05
242.1762539846241,162.8284369439949,12.5,0,8.654114018206862,6.768900366948955,-3.345522658485233,2.227804456470279e-05,1.473718995967117e-05,-2.676418126788187e-05,5.665354100526321e-05,5.852060639305647e-05
240.7096356775962,164.7780541141398,12.5,0,9.523919354504994,7.700186474455107,-3.89042514701497,2.431639275485189e-05,1.702146123465234e-05,-3.112340117611976e-05,6.331594060378113e-05,6.156259352868584e-05
242.7463686204523,164.8740361419831,12.5,0,9.344542649131158,7.097227634363922,-3.636834439600158,2.422475436972857e-05,1.523549431065962e-05,-2.909467551680126e-05,6.043681559627899e-05,6.092295395910003e-05
247.3745395700904,97.03426484714494,12.5,0,-4.593537413650692,2.85863657862169,-2.09817712208869,-1.698622898657957e-05,1.282246698250996e-05,-1.678541697670952e-05,5.303747434653981e-06,5.290083235082741e-06
249.5535514247616,97.19449569392945,12.5,0,-4.699003129217055,2.553642436768263,-1.931049560823509,-1.707972396290918e-05,1.193085830103208e-05,-1.544839648658807e-05,4.6022117946077e-06,5.317799150868199e-06
248.0885011734637,99.21271257535663,12.5,0,-4.142421131462044,3.063332993427672,-2.262791428877132,-1.570641401542068e-05,1.311660248413818e-05,-1.810233143101705e-05,6.071764996039295e-06,5.716333161195432e-06
250.267343548424,99.38373058691039,12.5,0,-4.250353989401635,2.756772868164846,-2.094540216884475,-1.58065510606171e-05,1.222195636964882e-05,-1.67563217350758e-05,5.248269378445937e-06,5.7499971418198e-06
246.1379217984168,93.26108270031708,12.5,0,-5.292991600138412,2.708603156454367,-1.958272834110973,-1.910445564560641e-05,1.29019233807647e-05,-1.566618267288778e-05,4.752673136634889e-06,4.726584959120883e-06
248.3172272005579,93.40262962965204,12.5,0,-5.391935695315047,2.414791926405464,-1.794293141769488,-1.918602776613252e-05,1.204088272074952e-05,-1.435434513415591e-05,4.186995199488958e-06,4.745983144005537e-06
246.8518834017901,95.43953042852878,12.5,0,-4.848000328813661,2.90860324084385,-2.11837516823736,-1.784048364487879e-05,1.318593063375124e-05,-1.694700134589888e-05,5.321515630442925e-06,5.024881003634964e-06
249.0310193242204,95.59186452263295,12.5,0,-4.949361960008178,2.613273789569689,-1.953303419880868,-1.792857730368192e-05,1.232196569462955e-05,-1.562642735904694e-05,4.661105413605638e-06,5.048774410972697e-06
242.3632541167669,93.01591622705796,12.5,0,-5.413890027863054,2.776673490702514,-1.773019953731753,-1.954578688172378e-05,1.321646719253848e-05,-1.418415962985402e-05,4.71942706999361e-06,4.686565265113424e-06
244.542559518908,93.15746315639294,12.5,0,-5.511866706110255,2.48584385104767,-1.610478754773909,-1.962664854039095e-05,1.236419368824074e-05,-1.288383003819127e-05,4.172542794749758e-06,4.710663986456267e-06
243.0775092676101,95.17568003782009,12.5,0,-4.97635552952657,2.973947094024978,-1.930679349677834,-1.8303495369705e-05,1.349771512450118e-05,-1.544543479742267e-05,5.255154402891861e-06,4.976697646988038e-06
245.2566451900404,95.32801413192428,12.5,0,-5.076731404858336,2.681604933655497,-1.767051415168305,-1.839082444247107e-05,1.264252091158426e-05,-1.413641132134644e-05,4.617875928347961e-06,5.005568092932827e-06
243.6003803275729,96.75673687957932,12.5,0,-4.723143806509604,2.938109086591978,-1.910838746259092,-1.746454745010431e-05,1.318046412230201e-05,-1.528670997007274e-05,5.256072190601709e-06,5.235144544581686e-06
245.7793921822441,96.91696772636385,12.5,0,-4.827821559843196,2.635182638941123,-1.745240572965267,-1.755717510265112e-05,1.229484169248615e-05,-1.396192458372214e-05,4.575258754317666e-06,5.267936000078247e-06
244.3146354784162,98.91650069034144,12.5,0,-4.27973772825776,3.140303869673131,-2.073288924893564,-1.620740382616333e-05,1.347276256556023e-05,-1.658631139914851e-05,5.983078270538131e-06,5.651102218021488e-06
246.4934778533765,99.08751870189519,12.5,0,-4.386863688145502,2.835813984421032,-1.906570893082352,-1.630661498960243e-05,1.25840957006637e-05,-1.525256714465881e-05,5.184634723320611e-06,5.689834346228961e-06
247.3004802534315,177.1981472120519,12.5,0,13.23033030053284,6.853670952398836,-3.979379388525895,3.685412019978601e-05,1.134748280725e-05,-3.183503510820716e-05,7.401829666824257e-05,7.426273068833239e-05
249.3432967307004,177.4802884997141,12.5,0,12.97229784265217,6.208590053743556,-3.667066321986508,3.654448105349208e-05,9.489649897857647e-06,-2.933653057589206e-05,7.074377375933511e-05,7.285845801049447e-05
247.6863602507185,179.1833480938938,12.5,0,14.00036678066275,7.157962262383133,-4.263366150583766,3.90748038882143e-05,1.170518581509582e-05,-3.410692920467013e-05,7.802041932293406e-05,7.646661026071732e-05
249.6975740441072,179.4668115739418,12.5,0,13.73584741523974,6.501498502921535,-3.945134486461996,3.875351292642994e-05,9.816117277157118e-06,-3.156107589169597e-05,7.468153111547834e-05,7.490434898984912e-05
247.9688440143451,180.6366160025707,12.5,0,14.19053257087005,6.817207434813648,-3.820335713205527,3.995593827893322e-05,1.046263773470764e-05,-3.056268570564421e-05,7.741168311170904e-05,7.806016740381411e-05
249.956923037479,180.9210473946225,12.5,0,13.93591776786478,6.172205542022128,-3.526032670503448,3.965717242354958e-05,8.602323520178986e-06,-2.820826136402759e-05,7.417037416105924e-05,7.637338989253038e-05
248.3547240116321,182.6218168844126,12.5,0,14.93009200079944,7.117173718651793,-4.108815933840683,4.208255542763675e-05,1.083088229904619e-05,-3.287052747072547e-05,8.128625034406843e-05,8.0209966911319e-05
250.3112003508859,182.9075704688502,12.5,0,14.66895319797639,6.460474137238042,-3.808710140123411,4.1772270923734e-05,8.938354680780624e-06,-3.046968112098728e-05,7.797864138967532e-05,7.834099329786839e-05
251.4122978918131,181.1292656248631,12.5,0,14.14552051165496,6.048660547331169,-3.877096358581193,4.042673719943093e-05,8.039297342135772e-06,-3.101677086864954e-05,7.464846276178808e-05,7.516749415621715e-05
253.400376914947,181.4136970169149,12.5,0,13.90880955933803,5.454864327704643,-3.599733244051418,4.014429912771797e-05,6.328518201184435e-06,-2.879786595241134e-05,7.166618199571124e-05,7.355970324712239e-05
251.7434404349651,183.1167566110945,12.5,0,14.84057109716093,6.313228642997075,-4.137012994596153,4.243924459651732e-05,8.329874779861891e-06,-3.309610395676923e-05,7.822956333071164e-05,7.701885059907849e-05
253.699916774219,183.4025101955322,12.5,0,14.59780408553194,5.708755703262186,-3.854246557215474,4.214596851109245e-05,6.589774982013446e-06,-3.08339724577238e-05,7.518644108272969e-05,7.527566318442529e-05
250.8387421825365,177.686830257187,12.5,0,13.25008366914835,6.115835330205376,-4.039819344671868,3.750759947711041e-05,8.970606121338522e-06,-3.231855475737495e-05,7.159345758156715e-05,7.183623423422144e-05
252.8815586598054,177.9689715448492,12.5,0,13.01160503340127,5.524017071983007,-3.748245457975619,3.721792244929764e-05,7.267570603624609e-06,-2.998596366380495e-05,6.859299382647359e-05,7.04477396184578e-05
251.1698847256885,179.6743212434184,12.5,0,13.96676763947787,6.382930848388133,-4.294219205618456,3.958731176761866e-05,9.251964603259732e-06,-3.435375364494765e-05,7.526268022795889e-05,7.37788162866166e-05
253.1810985190773,179.9577847234665,12.5,0,13.72230965058989,5.780759076316025,-3.997179982489194,3.928678362083481e-05,7.520581323739372e-06,-3.197743985991356e-05,7.220337982726213e-05,7.226606502654248e-05
296.156848825401,194.7082356973646,12.5,0,13.41215573391941,0.01360447246227059,-1.751294439094909,4.290801477057227e-05,-1.068619027525626e-05,-1.401035551275927e-05,5.176825793369132e-05,5.223166180583359e-05
298.5032646834742,195.2432156636471,12.5,0,13.31929567127613,-0.04028080892884178,-1.609218088691086,4.265397079522668e-05,-1.078433512559319e-05,-1.287374470952869e-05,5.122099160768773e-05,5.153956884403662e-05
295.925789503791,196.8245271060046,12.5,0,13.75370089694396,0.0959039951408025,-1.748585651134126,4.393511967410802e-05,-1.06960679331046e-05,-1.398868520907301e-05,5.332453654055788e-05,5.298674752244927e-05
298.2355012670765,197.3657359737034,12.5,0,13.65712047776208,0.04064631276793218,-1.604381691155835,4.367026847862431e-05,-1.079562818135228e-05,-1.283505352924668e-05,5.275880581637223e-05,5.2299875896938e-05
292.0927373436058,193.7816232147487,12.5,0,13.61165577865472,0.185550283939079,-1.908071432016019,4.340885826454384e-05,-1.029556371431872e-05,-1.526457145612815e-05,5.308680684333781e-05,5.358010007632125e-05
294.4391532016791,194.3166031810311,12.5,0,13.50376758499768,0.09776420776747097,-1.751749551437659,4.313384490577858e-05,-1.049016860314223e-05,-1.401399641150127e-05,5.237367312944894e-05,5.277842050163773e-05
291.9252513790129,195.8871258496605,12.5,0,13.97930635572332,0.2730252347423896,-1.919383984054588,4.45153601505207e-05,-1.030976433340301e-05,-1.53550718724367e-05,5.476234223165863e-05,5.432537114765073e-05
294.2349631422984,196.4283347173592,12.5,0,13.86724460451735,0.1832967515965929,-1.760595176601482,4.422854533317824e-05,-1.050724607850478e-05,-1.408476141281185e-05,5.402685776305708e-05,5.352947733913393e-05
291.8026431433814,197.4284607538205,12.5,0,14.0109549621843,0.1096225912368838,-1.62350059299427,4.474735780600025e-05,-1.085797167778941e-05,-1.298800474395416e-05,5.43270990849874e-05,5.48340670173772e-05
294.0854856444375,197.9742294938312,12.5,0,13.91243050066933,0.03580407026209587,-1.484830321496212,4.449113434593218e-05,-1.101537137569676e-05,-1.18786425719697e-05,5.370097751327016e-05,5.404353696675531e-05
291.6351571787885,199.5339633887323,12.5,0,14.34701277525715,0.189945603826843,-1.6320089720913,4.57584843977614e-05,-1.086978428795982e-05,-1.30560717767304e-05,5.586026006199634e-05,5.547857890779996e-05
293.8812955850569,200.0859610301592,12.5,0,14.24457111397611,0.1144015900187867,-1.491101596437321,4.549110629270851e-05,-1.102957180312077e-05,-1.192881277149857e-05,5.521346436177841e-05,5.469691715010037e-05
295.7566423408172,198.3737599406847,12.5,0,13.79664085867727,-0.04135336900652309,-1.478763536466544,4.418233344297248e-05,-1.116964346776269e-05,-1.183010829173235e-05,5.302292482102114e-05,5.350501837103088e-05
298.0394848418734,198.9195286806954,12.5,0,13.71108572993641,-0.08239296646835648,-1.350906325102186,4.394138870897118e-05,-1.123252607664786e-05,-1.080725060081749e-05,5.254968581875174e-05,5.282428825725044e-05
295.5255830192073,200.4900513493248,12.5,0,14.11457998304785,0.03609741951634415,-1.473175760930974,4.513777801014003e-05,-1.117615224398598e-05,-1.178540608744779e-05,5.447488465425803e-05,5.416587494488221e-05
297.7717214254756,201.0420489907517,12.5,0,14.02548234938915,-0.00611842001712315,-1.343374387254275,4.488643825405897e-05,-1.123996482356611e-05,-1.07469950980342e-05,5.398447624576924e-05,5.349670241690069e-05
203.0935254253019,138.9354804796504,12.5,0,2.534304991990607,5.402494690887094,0.2595930236217847,3.787780221660265e-06,1.526053901724621e-05,2.076744188974277e-06,2.903330958679297e-05,2.868022488370011e-05
205.0981171672157,139.3227751581402,12.5,0,2.496682353267714,5.524245177087406,0.3903658425297268,3.56998738878676e-06,1.568023868406553e-05,3.122926740237815e-06,2.937173616423854e-05,2.95365924268293e-05
203.123096565885,140.9366519144035,12.5,0,2.905156612336494,5.493292177733289,0.309384110808305,4.901867417290149e-06,1.525440967887733e-05,2.47507288646644e-06,3.065698163092645e-05,3.061612639099486e-05
205.1477640378818,141.3276468924547,12.5,0,2.867939935837314,5.613843212390968,0.4388643668185293,4.68633322476663e-06,1.566994633098124e-05,3.510914934548234e-06,3.099003370114248e-05,3.151519978502079e-05
199.6214706799367,138.2646664190171,12.5,0,2.401745937590597,5.094244773709284,0.501649856276851,3.610191181322483e-06,1.438018652579723e-05,4.013198850214808e-06,2.744105994440604e-05,2.71781323074379e-05
201.6260624218505,138.6519610975069,12.5,0,2.372181412785033,5.243710640324352,0.6280984895393676,3.396012008652623e-06,1.48821289188099e-05,5.024787916314941e-06,2.791820065753668e-05,2.804827739934784e-05
199.6162696360174,140.2594287469266,12.5,0,2.765885005550918,5.185682445079959,0.5638163418060851,4.70228606169897e-06,1.438147581981513e-05,4.510530734448681e-06,2.904777452492637e-05,2.90369579503311e-05
201.6409371080142,140.6504237249779,12.5,0,2.736645880549126,5.333674268916293,0.6890165853073797,4.490327402624169e-06,1.487844095609284e-05,5.512132682459038e-06,2.951782297448802e-05,2.99520834927614e-05
199.6124622076162,141.7196961199186,12.5,0,3.104320218713388,5.330634679830397,0.5012657863080159,5.669316956018522e-06,1.457457480048656e-05,4.010126290464127e-06,3.075866668341926e-05,3.041699205076342e-05
201.6518261340323,142.113399905252,12.5,0,3.073794884566523,5.485451760536295,0.6321635889947709,5.44778222218384e-06,1.509440972606292e-05,5.057308711958167e-06,3.12455107109312e-05,3.136905850114496e-05
199.6072611636969,143.7144584478282,12.5,0,3.474896788183284,5.423689044115003,0.5645611655236529,6.780718486894505e-06,1.457588751062138e-05,4.516489324189223e-06,3.240966868129897e-05,3.232848968658923e-05
201.6667008201961,144.111862532723,12.5,0,3.444701286248201,5.577004944692808,0.6941883822491485,6.561440160239996e-06,1.509065479401842e-05,5.553507057993188e-06,3.288965432856009e-05,3.333650012385521e-05
203.1447441432286,142.4016110792359,12.5,0,3.246946701012038,5.655269958448833,0.2505861172628437,5.866013476479455e-06,1.549930650622663e-05,2.00468893810275e-06,3.244763048149048e-05,3.205911228967881e-05
205.1841080696446,142.7953148645692,12.5,0,3.210963530053203,5.793232879796413,0.3852582044252859,5.640496992333118e-06,1.596957439130596e-05,3.082065635402287e-06,3.284618235819902e-05,3.29923078496073e-05
203.1743152838116,144.402782513989,12.5,0,3.624720931322629,5.747603549179378,0.3056048411337255,7.00102414088891e-06,1.54925546123159e-05,2.444838729069804e-06,3.411704174135243e-05,3.406552157236166e-05
205.2337549403107,144.8001865988837,12.5,0,3.589121484000422,5.884229333635234,0.4389686302438696,6.777805281893163e-06,1.595823668043241e-05,3.511749041950956e-06,3.450993050049008e-05,3.504923477230743e-05
311.1091956655702,208.9983242470368,12.5,0,13.60582141483865,-0.2199315204110066,-0.6534555097304076,4.371457374381248e-05,-1.158843799718614e-05,-5.227644077843261e-06,5.164792624609558e-05,5.182735390817339e-05
313.1797419348117,208.5367101295418,12.5,0,13.60826548083533,-0.2484947874631551,-0.6388601939360086,4.374524536864357e-05,-1.168179570455036e-05,-5.110881551488068e-06,5.157039377144232e-05,5.125211863605907e-05
311.9154158416795,211.2321951598537,12.5,0,13.65871812136072,-0.1952628988030223,-0.6728856078017293,4.38641083073967e-05,-1.155181577325824e-05,-5.383084862413835e-06,5.192679116886675e-05,5.227693079639686e-05
313.9689369688186,210.7729404620985,12.5,0,13.6612136353895,-0.2240415807846992,-0.6581843151629105,4.389511689787415e-05,-1.164590396682263e-05,-5.265474521303284e-06,5.184870194608667e-05,5.174365949276477e-05
307.5229043278861,209.797863352015,12.5,0,13.86460482713092,-0.2173541661137262,-0.6019804774253745,4.454061877970993e-05,-1.178721719326866e-05,-4.815843819402997e-06,5.264577782302613e-05,5.285353391896463e-05
309.5934505971276,209.3362492345199,12.5,0,13.86611768758662,-0.236351201050196,-0.592472944366379,4.456065756111734e-05,-1.184921799342992e-05,-4.739783554931032e-06,5.259383936079546e-05,5.225645183996144e-05
308.3586129151224,212.0276476299663,12.5,0,13.89921120056646,-0.2008241420654331,-0.6149573302696547,4.4638135155465e-05,-1.176200621506255e-05,-4.919658642157237e-06,5.282933285999878e-05,5.321570288825281e-05
310.4121340422615,211.568392932211,12.5,0,13.90075699135335,-0.2199642238083066,-0.6053810263407806,4.465839375137736e-05,-1.182449110926926e-05,-4.843048210726245e-06,5.277704290127261e-05,5.267136363542917e-05
308.970394061275,213.6599630112756,12.5,0,14.04733585255702,-0.1958891267662275,-0.4049303082535063,4.510818602959543e-05,-1.186471388769754e-05,-3.239442466028051e-06,5.340060296217631e-05,5.348761003230183e-05
311.0114519193896,213.2024355286461,12.5,0,14.04642307601295,-0.2224946895859516,-0.397055306701103,4.512654959491021e-05,-1.194912146748541e-05,-3.176442453608824e-06,5.33167253818514e-05,5.298060251096237e-05
309.8061026485113,215.889747289227,12.5,0,14.08029490504462,-0.1767676104011562,-0.4207683809736478,4.519835778446371e-05,-1.18298922773194e-05,-3.366147047789182e-06,5.358553595562164e-05,5.386830519552809e-05
311.8301353645235,215.4345792263373,12.5,0,14.07939471624876,-0.2035787951671564,-0.4128387062199076,4.521692612812975e-05,-1.191496791753391e-05,-3.302709649759261e-06,5.350102348762149e-05,5.341054703516275e-05
312.5056099726536,212.8675021655165,12.5,0,13.81619481436806,-0.1947697405831317,-0.4688141261979036,4.43676391984443e-05,-1.167621902136047e-05,-3.750513009583229e-06,5.251923863725366e-05,5.261091071714358e-05
314.5466678307681,212.409974682887,12.5,0,13.8187160967759,-0.2202666005455534,-0.4552834725244336,4.439610479011933e-05,-1.175982599916649e-05,-3.642267780195468e-06,5.245152150167374e-05,5.210790147458586e-05
313.311830148763,215.1013730783334,12.5,0,13.86564557435777,-0.172008754525784,-0.4866561396840436,4.45076728415655e-05,-1.164294447396873e-05,-3.893249117472349e-06,5.277871576829517e-05,5.307378394114678e-05
315.335862864775,214.6462050154437,12.5,0,13.86821756683076,-0.1977001751641163,-0.4730257447863691,4.453645635398972e-05,-1.172721461398978e-05,-3.784205958290952e-06,5.271052051977143e-05,5.261148821850727e-05
169.5219784401881,131.9857707585979,12.5,0,1.088598343202495,2.521212045702666,1.78514586241428,1.46654506168585e-06,7.196999871686535e-06,1.428116689931424e-05,1.397131610170429e-05,1.389529990988372e-05
171.0319968316149,131.0778414462859,12.5,0,1.130991457464617,2.392861480065087,1.801276461644254,1.704883479834703e-06,6.752363570236585e-06,1.441021169315403e-05,1.36652943349648e-05,1.370976041886012e-05
170.7570642177798,133.4348950737571,12.5,0,1.244176404181377,2.672649361389102,1.692194765253909,1.843245004269125e-06,7.557136833100022e-06,1.353755812203127e-05,1.495511500111844e-05,1.517604448967712e-05
172.2828117254597,132.5182009157423,12.5,0,1.286094697272057,2.545541711857248,1.708192276407393,2.079069661784784e-06,7.116857720125547e-06,1.366553821125914e-05,1.464835466317631e-05,1.49845734853651e-05
166.9065498659206,133.5583504571752,12.5,0,1.358694106703094,2.340924265911684,1.814613752097346,2.475081728720555e-06,6.404002365554911e-06,1.451691001677876e-05,1.424188060045739e-05,1.418630695138187e-05
168.4165682573473,132.6504211448631,12.5,0,1.411633265565668,2.230237392303851,1.838436623980245,2.733036535967058e-06,6.007453042919787e-06,1.470749299184196e-05,1.404695297403428e-05,1.40229901684248e-05
168.114392015004,135.0226559304118,12.5,0,1.522193639905682,2.479956031725473,1.724536922505181,2.887054822317804e-06,6.718104389596968e-06,1.379629538004145e-05,1.521482454674002e-05,1.547224812775456e-05
169.6401395226839,134.105961772397,12.5,0,1.57454916749711,2.37033896474498,1.748148364474336,3.142286164194769e-06,6.325445353186246e-06,1.398518691579469e-05,1.501863486705695e-05,1.530671651627044e-05
168.9985938356186,136.0946019345766,12.5,0,1.832260135848582,2.543201020862866,1.768854556337572,3.828671618025169e-06,6.672435158082304e-06,1.415083645070058e-05,1.652417982213598e-05,1.643994726101339e-05
170.5358558555536,135.1714914641872,12.5,0,1.889156764201195,2.429758105626408,1.794981294320241,4.101495160942696e-06,6.263900526643548e-06,1.435985035456193e-05,1.633468981796861e-05,1.627387417876107e-05
170.2064359847021,137.5589074078132,12.5,0,2.001628368468565,2.684891274667198,1.676482972809172,4.25729775936565e-06,6.990349384160179e-06,1.341186378247337e-05,1.755252009712056e-05,1.779780928325659e-05
171.7594271208903,136.627032091721,12.5,0,2.057910430784324,2.572526276298365,1.702379830986601,4.527292357471144e-06,6.585755739527306e-06,1.361903864789281e-05,1.73621812863604e-05,1.76324717038817e-05
171.6612097586441,134.495727698892,12.5,0,1.556607859821596,2.736559994942079,1.738509007769164,2.791897155475443e-06,7.511705695957376e-06,1.390807206215331e-05,1.625973384804357e-05,1.6141835890289e-05
173.1984717785791,133.5726172285026,12.5,0,1.602004962099178,2.603128663369936,1.756193732467541,3.043912948021421e-06,7.048407753104452e-06,1.404954985974033e-05,1.594645657497062e-05,1.594717365987587e-05
172.8962955362358,135.9448520140513,12.5,0,1.717940778669322,2.892100698952285,1.642695116848293,3.183729932580003e-06,7.880369613711856e-06,1.314156093478635e-05,1.73051324409325e-05,1.749968248659257e-05
174.4492866724239,135.0129766979591,12.5,0,1.762839735375086,2.759939952609243,1.660234555235878,3.433135191112881e-06,7.421536060049508e-06,1.328187644188703e-05,1.699188044128958e-05,1.730223317762081e-05
144.4874065315856,79.0604742319158,12.5,0,-7.896139200344017,0.5462890077022737,1.917134602291734,-2.570467664726267e-05,8.065036184922488e-06,1.533707681833387e-05,2.647147700958659e-06,2.67101165738125e-06
146.7800621137126,79.2042290265412,12.5,0,-7.934420670068112,0.4909998202414743,2.074314911119785,-2.578294600041114e-05,7.918735960827207e-06,1.659451928895828e-05,2.681355587984307e-06,2.702095538522839e-06
144.8890974402401,80.88998208699391,12.5,0,-7.562115534838227,0.6378017060743577,1.875221469274104,-2.470901107634181e-05,8.090657887308526e-06,1.500177175419283e-05,2.632405108977833e-06,2.638017179492538e-06
147.2219193542026,81.06247126319289,12.5,0,-7.604554320270779,0.5820251587874994,2.030707151325153,-2.480019395189649e-05,7.94612396433662e-06,1.624565721060123e-05,2.666691867026409e-06,2.671659929216725e-06
145.1831555943012,82.22927478970051,12.5,0,-7.362382936184513,0.5937679797570241,1.929034458434737,-2.403463977959606e-05,7.789963884170087e-06,1.54322756674779e-05,2.587207615629967e-06,2.615749788039143e-06
147.5453813039197,82.42279899313452,12.5,0,-7.406485848357401,0.5474105864446699,2.088941150412782,-2.413868318389942e-05,7.676902555308864e-06,1.671152920330226e-05,2.633759350114429e-06,2.651445934443189e-06
145.5848465029557,84.0587826447786,12.5,0,-7.033058535094066,0.682104581301288,1.891110249187329,-2.305147097734204e-05,7.809181488239374e-06,1.512888199349863e-05,2.576932133588041e-06,2.587908621122569e-06
147.9872385444097,84.28104122978618,12.5,0,-7.081069321968811,0.6351888087169666,2.049270363938601,-2.316757287727377e-05,7.697459645469341e-06,1.639416291150881e-05,2.623834853080972e-06,2.626655883001725e-06
149.2746505422324,82.56446854253647,12.5,0,-7.333697399795152,0.7284046674642233,1.884676183349531,-2.405055541331586e-05,8.197852855721635e-06,1.507740946679625e-05,2.661383419642689e-06,2.679130069821481e-06
151.6368762518509,82.75799274597048,12.5,0,-7.381795787501643,0.6675453270255169,2.046831854665785,-2.415578278162567e-05,8.041581676482967e-06,1.637465483732628e-05,2.697108185132085e-06,2.719068387837755e-06
149.7459115783784,84.44374580642319,12.5,0,-6.99062806169908,0.8239104102401089,1.837125158207599,-2.302913812562914e-05,8.229015762127611e-06,1.469700126566079e-05,2.653259745742798e-06,2.656790325614591e-06
152.1483036198324,84.66600439143079,12.5,0,-7.042672760233076,0.7626102530803089,1.997673202994748,-2.314664103521009e-05,8.074491018043449e-06,1.598138562395799e-05,2.688687499423292e-06,2.700371892015053e-06
148.4584024840145,79.30946484003415,12.5,0,-7.882625044385489,0.6580437319076959,1.874874373402861,-2.575083512755972e-05,8.411839977613017e-06,1.499899498722288e-05,2.706690436204602e-06,2.725994955847035e-06
150.7510580661415,79.45321963465955,12.5,0,-7.922476628873724,0.5955119027366997,2.030691964268893,-2.582833473458528e-05,8.243619391856417e-06,1.624553571415114e-05,2.733640261887435e-06,2.760205497109217e-06
148.9296635201606,81.18874210392087,12.5,0,-7.542176836928776,0.7539568415022102,1.825901443430416,-2.473813135137385e-05,8.446403362350093e-06,1.460721154744333e-05,2.693463006969005e-06,2.697673394604181e-06
151.2624854341231,81.36123128011984,12.5,0,-7.586152752715091,0.6909914889019073,1.98018144925935,-2.482848199980982e-05,8.280094966658176e-06,1.58414515940748e-05,2.720069316438026e-06,2.73510075400248e-06
313.912800157926,216.6051627083436,12.5,0,13.99551043629027,-0.1430379200970275,-0.3155947218846825,4.490006373220648e-05,-1.16541296933427e-05,-2.52475777507746e-06,5.335682791529717e-05,5.338543631385007e-05
315.8526701534361,216.0711737526975,12.5,0,13.98726667406737,-0.1859692644862125,-0.3164779746963638,4.490802876860455e-05,-1.178491498560977e-05,-2.53182379757091e-06,5.319590787145103e-05,5.293649008577383e-05
314.7484605807451,218.4797214687845,12.5,0,14.00836983563278,-0.1236689837844418,-0.3315190919146965,4.492571866105246e-05,-1.160243661661644e-05,-2.652152735317572e-06,5.346522450452186e-05,5.377401320640784e-05
316.4754188898332,217.7280304096807,12.5,0,14.00165854039994,-0.1662826787087219,-0.3350236275835756,4.493833347224679e-05,-1.173343140418786e-05,-2.680189020668605e-06,5.331117492806188e-05,5.332082495581716e-05
310.5528467656844,217.5300587101869,12.5,0,14.20771318636403,-0.1452790774813773,-0.2319979495209241,4.558090545834999e-05,-1.183106359703163e-05,-1.855983596167393e-06,5.416279657848565e-05,5.414364375146513e-05
312.4927167611946,216.9960697545407,12.5,0,14.19321449688757,-0.1910835202097445,-0.2410707739631602,4.557115320620803e-05,-1.196603886218124e-05,-1.928566191705281e-06,5.396940400933661e-05,5.370889216370226e-05
311.757281046905,219.7816885747241,12.5,0,14.20143681372155,-0.1224011183829083,-0.2477122532963129,4.554251869861529e-05,-1.175283302980255e-05,-1.981698026370503e-06,5.420807953819314e-05,5.451518751237347e-05
313.4842393559931,219.0299975156203,12.5,0,14.18540843513999,-0.1676619874640051,-0.259226110621829,4.552743658241916e-05,-1.18848451079968e-05,-2.073808884974632e-06,5.401043820600616e-05,5.409404168889711e-05
312.6389881350987,221.4299960353346,12.5,0,14.38641406992261,-0.08394038620439614,-0.1131562214940781,4.610367733271588e-05,-1.177774049179216e-05,-9.052497719526246e-07,5.5032159768198e-05,5.481373742579782e-05
314.2100842722073,220.5189359755921,12.5,0,14.35809547237998,-0.1368917434549388,-0.1341989344166649,4.605541890637989e-05,-1.192452995695979e-05,-1.073591475333319e-06,5.476388646505647e-05,5.439089157374789e-05
313.8434224163192,223.6816258998718,12.5,0,14.35822815149326,-0.05835857768023534,-0.1301557447170232,4.599301694692263e-05,-1.167332996977136e-05,-1.041245957736185e-06,5.500135216885188e-05,5.525784719699475e-05
315.2016068670059,222.5528637366717,12.5,0,14.32443291388503,-0.1107402066458301,-0.1547232871050531,4.592677748974875e-05,-1.181391499237468e-05,-1.237786296840425e-06,5.471373193555915e-05,5.481675101622085e-05
315.3602064680971,219.8519937231422,12.5,0,14.1838262144425,-0.1038738371159256,-0.2110294669405133,4.547134295590873e-05,-1.167945725032496e-05,-1.688235735524107e-06,5.419532278924442e-05,5.406743701447389e-05
316.9313026052058,218.9409336633996,12.5,0,14.15760707240144,-0.1553130818038007,-0.2306557620949105,4.542859309712764e-05,-1.182308751969331e-05,-1.845246096759284e-06,5.393999211828131e-05,5.360658857660986e-05
316.1958668909162,221.726552483583,12.5,0,14.16296977881303,-0.08739543493347401,-0.2260401468040475,4.539141964014846e-05,-1.161004121483754e-05,-1.80832117443238e-06,5.416529049395129e-05,5.448050887373702e-05
317.5540513416028,220.5977903203829,12.5,0,14.131037028121,-0.1396268859622509,-0.249834207326498,4.533101999875701e-05,-1.1751635657576e-05,-1.998673658611984e-06,5.388569450061411e-05,5.400297443756021e-05
281.6639205580348,228.1536340291353,12.5,0,15.21428801661899,-0.02350863186712093,0.2933486583514224,4.870452855867448e-05,-1.224665803526998e-05,2.34678926681138e-06,5.840009747064247e-05,5.856381414386565e-05
283.61978902099,228.0982526324381,12.5,0,15.21966410763557,0.01627087323573306,0.2292428693900187,4.868990844584522e-05,-1.212366449175411e-05,1.83394295512015e-06,5.853935497855801e-05,5.831838200069347e-05
282.2449678928169,229.978804018174,12.5,0,15.04935726818464,-0.07624880490340491,0.3271309050307918,4.821894230211355e-05,-1.228348199023861e-05,2.617047240246334e-06,5.76080726156095e-05,5.792562273386475e-05
284.200801813125,229.9344594601874,12.5,0,15.0557271979958,-0.03608335555822961,0.2627087485691706,4.820719371803313e-05,-1.216004849618297e-05,2.101669988553365e-06,5.775186333490248e-05,5.778849877923932e-05
278.2762570073356,228.2495574220073,12.5,0,15.29165434821092,0.01481455091162331,0.2864634448231166,4.892144227354564e-05,-1.218591691565154e-05,2.291707558584933e-06,5.881315441287148e-05,5.910541850125953e-05
280.2321254702908,228.1941760253101,12.5,0,15.29990125218177,0.07103713195836647,0.2050194790304108,4.890285430141496e-05,-1.201260217947864e-05,1.640155832243286e-06,5.901309852484654e-05,5.877469993859958e-05
278.8573641717377,230.0556110456447,12.5,0,15.08367719825661,-0.05339834846366553,0.3311984238537984,4.831048571319208e-05,-1.223781647368902e-05,2.649587390830387e-06,5.78091260073038e-05,5.825764934690866e-05
280.8131980920457,230.011266487658,12.5,0,15.09319307344838,0.003337251284889042,0.2493373779059575,4.829554803400691e-05,-1.206387525464706e-05,1.99469902324766e-06,5.801472599241758e-05,5.805133124959645e-05
279.2827641407042,231.3777340592849,12.5,0,14.95417604978062,-0.007371344518125156,0.3195165314803702,4.785926043491249e-05,-1.19869291422825e-05,2.556132251842961e-06,5.745029856279352e-05,5.767868502287114e-05
281.2385727740395,231.341469027989,12.5,0,14.96394416359533,0.0466840756357656,0.2390947460103492,4.784727406299642e-05,-1.182176628884181e-05,1.912757968082794e-06,5.764909579252758e-05,5.75608791141045e-05
279.8638713051063,233.1837876829222,12.5,0,14.74950024685735,-0.073996917733687,0.3629304024837425,4.725759832413046e-05,-1.203639033423368e-05,2.90344321986994e-06,5.646405438230024e-05,5.694469422811447e-05
281.8196453957944,233.158559490337,12.5,0,14.7605241123736,-0.01944040049823359,0.2821000718846388,4.724922947999411e-05,-1.187062857149323e-05,2.256800575077111e-06,5.666843015714951e-05,5.694430765020598e-05
282.6703240634619,231.3149211825435,12.5,0,14.95229404714153,-0.02440606325042349,0.3106073532259011,4.786686580145324e-05,-1.203993464011458e-05,2.484858825807209e-06,5.739122334685197e-05,5.74957933690345e-05
284.6261326967972,231.2786561512476,12.5,0,14.95804703735735,0.009889564396968087,0.2499971333228142,4.785783886802593e-05,-1.193479102381558e-05,1.999977066582514e-06,5.751526180723937e-05,5.743578171541391e-05
283.251371398244,233.1400911715822,12.5,0,14.7970472291048,-0.07305572336168176,0.3411889480153308,4.740899571182471e-05,-1.207141609804122e-05,2.729511584122647e-06,5.664874343616149e-05,5.695966911568417e-05
285.2071454889322,233.114862978997,12.5,0,14.80373985854477,-0.03840728552390349,0.2802868134746265,4.74026933757624e-05,-1.196589520051231e-05,2.242294507797012e-06,5.677707231746999e-05,5.70020239977596e-05
225.8031121778227,141.6387919943759,12.5,0,3.456324006884698,6.448985836434373,-1.784399798472724,5.901048152883533e-06,1.787169547108223e-05,-1.42751983877818e-05,3.642476760277963e-05,3.506651960222771e-05
228.2575526185422,142.5971854674534,12.5,0,3.283333730562199,6.422938907464391,-1.616546098594099,5.368316811827525e-06,1.792673751943629e-05,-1.29323687887528e-05,3.568096918851237e-05,3.618851001250101e-05
225.8082848879234,144.0079802081975,12.5,0,3.912297703121698,6.562941605992795,-1.777874576036273,7.268999365195197e-06,1.787157497667958e-05,-1.422299660829018e-05,3.842304701536317e-05,3.761092391514064e-05
228.2952700173292,145.1031163356874,12.5,0,3.719019789192633,6.531612359568105,-1.612413103872871,6.675573437761942e-06,1.792594371926383e-05,-1.289930483098297e-05,3.758777092811127e-05,3.893592240759889e-05
225.7941527811157,137.5352376354174,12.5,0,2.547793860694694,6.048000765689351,-1.68059393566371,3.314539741671539e-06,1.731536736165017e-05,-1.344475148530968e-05,3.179447917065968e-05,3.080254205946471e-05
228.1922241675151,138.2567858834948,12.5,0,2.406696629589183,5.989437994567187,-1.509679330796032,2.909878819031634e-06,1.724084427894365e-05,-1.207743464636825e-05,3.104249807983301e-05,3.162613535570075e-05
225.7993254912163,139.9044258492389,12.5,0,3.008258503317711,6.163169151028898,-1.690538841770729,4.695891889793555e-06,1.73155344806383e-05,-1.352431073416583e-05,3.379340563873223e-05,3.324221918229341e-05
228.229941566302,140.7627167517288,12.5,0,2.845802710833472,6.099557776813486,-1.521279706842826,4.226922453216321e-06,1.724194271713638e-05,-1.217023765474261e-05,3.29480722913674e-05,3.422985847516238e-05
221.6405712997693,136.2854794096575,12.5,0,2.223105797146538,5.925132505681244,-1.289646667264598,2.373832546323927e-06,1.718193938046275e-05,-1.031717333811679e-05,3.011740289652544e-05,2.926531823953593e-05
224.0386426861687,137.0070276577349,12.5,0,2.104120597334179,5.937008061696758,-1.132529898925197,1.983579462111965e-06,1.731512931956228e-05,-9.060239191401574e-06,2.972138166457768e-05,3.016996301973046e-05
221.5893749555499,138.417822398479,12.5,0,2.624554689502409,6.026422079813729,-1.27058465491833,3.577437342556724e-06,1.718490690380201e-05,-1.016467723934664e-05,3.18502401659967e-05,3.141303361706483e-05
224.0199910306356,139.2761133009689,12.5,0,2.485117568410597,6.032558741082077,-1.116687109786448,3.126329226048249e-06,1.731609391673417e-05,-8.933496878291581e-06,3.136189728089116e-05,3.248745323636975e-05
221.5518966304211,139.9788058053933,12.5,0,3.008844358103076,6.254028508528332,-1.339456436856269,4.625079139107177e-06,1.76058157408082e-05,-1.071565149485016e-05,3.40320708915272e-05,3.301494548836625e-05
224.0063370711407,140.9371992784707,12.5,0,2.863299102523283,6.278470643590493,-1.193601332387002,4.139780613202112e-06,1.780046677747095e-05,-9.548810659096014e-06,3.358991500153272e-05,3.42161655508842e-05
221.5007002862018,142.1111487942148,12.5,0,3.384427749108462,6.349247145250187,-1.314040211948986,5.750771080946927e-06,1.761004866551383e-05,-1.051232169559189e-05,3.567350348053224e-05,3.524373473266665e-05
223.9876854156075,143.2062849217047,12.5,0,3.220657029187074,6.368241287318095,-1.171518765273068,5.211509463544161e-06,1.780184649606824e-05,-9.372150122184545e-06,3.514671552948791e-05,3.662160520936919e-05
194.5526982730217,127.2617656058581,12.5,0,0.2693989531277768,4.19595093097062,0.7994025041647133,-2.494684094767609e-06,1.321152381660376e-05,6.395220033317706e-06,1.706956682842372e-05,1.671638913352078e-05
196.6280055478787,127.5557222415495,12.5,0,0.2114890772906695,4.163522449677407,0.9410607524516363,-2.654052912411783e-06,1.315408057713516e-05,7.528486019613091e-06,1.681356789231217e-05,1.736195110161084e-05
195.0934188862549,129.296849660428,12.5,0,0.6464281324384937,4.294986850377467,0.7547692804367695,-1.367419456498793e-06,1.32268154152571e-05,6.038154243494156e-06,1.861807960632056e-05,1.840802405295513e-05
197.135113284684,129.5940141672179,12.5,0,0.5859509610436461,4.261582925760894,0.8990887930282205,-1.534223265269048e-06,1.316830459359994e-05,7.192710344225764e-06,1.834005514538463e-05,1.90821175801857e-05
193.616142698219,123.736896625733,12.5,0,-0.3785942548682659,3.971016047529324,0.8342056959085948,-4.38831445360191e-06,1.301012675598845e-05,6.673645567268759e-06,1.428876900395307e-05,1.395754693990272e-05
195.7496691828362,124.0252970656978,12.5,0,-0.4416393075809117,3.915041141078894,0.9815286594048908,-4.545278697122032e-06,1.288144309751719e-05,7.852229275239126e-06,1.395434430978661e-05,1.455506881231296e-05
194.1568633114521,125.7719806803029,12.5,0,0.001159649300730425,4.076360897061412,0.7809781622721034,-3.257377839886792e-06,1.304342715115593e-05,6.247825298176827e-06,1.578962799484106e-05,1.552388738518231e-05
196.2567769196417,126.0635889913663,12.5,0,-0.06447528946690473,4.019014315619049,0.9310146965782864,-3.421532378789334e-06,1.291242604155448e-05,7.448117572626291e-06,1.542583937634384e-05,1.614893204020079e-05
189.9207664276344,123.2373724107978,12.5,0,-0.459704164994734,3.728378138097372,1.023533776391082,-4.453755838461047e-06,1.229857337390738e-05,8.188270211128656e-06,1.321806922379582e-05,1.291943037325703e-05
192.0542929122517,123.5257728507626,12.5,0,-0.5237526408983708,3.669705927436148,1.171962856689127,-4.611773192823705e-06,1.216206108051437e-05,9.375702853513018e-06,1.289381433100059e-05,1.351927894106202e-05
190.5197062506279,125.266900269641,12.5,0,-0.07791618728301497,3.83605497348469,0.9650667458403696,-3.3181757780934e-06,1.233770886497742e-05,7.720533966722957e-06,1.470464188384506e-05,1.443626128232883e-05
192.6196198588174,125.5585085807043,12.5,0,-0.1445979747430268,3.775946013734532,1.116268358918238,-3.483470330165311e-06,1.219870562374492e-05,8.930146871345907e-06,1.434706604547833e-05,1.50649786387244e-05
190.9581606317169,126.7526177776276,12.5,0,0.1933047401391332,3.999444640488756,0.9890834362786179,-2.580980543945778e-06,1.264357905745271e-05,7.912667490228944e-06,1.61520458168635e-05,1.559878092481965e-05
193.0334679065737,127.0465744133191,12.5,0,0.1202738910920246,3.904259851088983,1.132478842816745,-2.738531429376707e-06,1.239741241061112e-05,9.059830742533964e-06,1.562895930950403e-05,1.624394910854565e-05
191.5571004547103,128.7821456364709,12.5,0,0.5698657720119804,4.116271533494514,0.9173301711062128,-1.469446756357273e-06,1.271617628957286e-05,7.338641368849702e-06,1.774267535964005e-05,1.72580127439646e-05
193.5987948531395,129.0793101432608,12.5,0,0.493984776813193,4.018925063166688,1.063549210088445,-1.634388764731133e-06,1.246537238068285e-05,8.508393680707561e-06,1.7186821375823e-05,1.791925663519519e-05
166.8936902481482,114.0239439960534,12.5,0,-2.110539740158461,1.994845721377363,1.822092820697898,-8.349603745608965e-06,8.071938100534331e-06,1.457674256558318e-05,4.807406868888836e-06,4.992449298379586e-06
168.7331150497521,113.4917538842979,12.5,0,-2.074933971664372,1.896558812393614,1.892885267508979,-8.157035759240882e-06,7.728935376991064e-06,1.514308214007183e-05,4.698268933265299e-06,5.06384190467329e-06
168.1465317318446,116.012312847897,12.5,0,-1.838632216033622,2.139380991632305,1.714067885822754,-7.595127884613433e-06,8.316924946050273e-06,1.371254308658203e-05,5.366580739709138e-06,5.688134138893e-06
169.8082206628925,115.4593089254459,12.5,0,-1.790659890625193,2.037738240461464,1.78714257064446,-7.360302242369787e-06,7.953290281976838e-06,1.429714056515568e-05,5.247261658035395e-06,5.731264034620566e-06
170.0796674611712,113.1021636832237,12.5,0,-2.304612240939547,2.147394908333361,1.731522271178631,-9.092675097673236e-06,8.715353499418391e-06,1.385217816942905e-05,4.873910857826742e-06,5.115362755340164e-06
171.9190922627751,112.5699735714683,12.5,0,-2.249299946979737,2.096493874299068,1.81809529353684,-8.874954929774412e-06,8.508220355340807e-06,1.454476234829472e-05,4.905171746854017e-06,5.184727730723518e-06
171.0246613867427,115.054481957444,12.5,0,-2.015310102907677,2.254691361923434,1.651803272399187,-8.252745418843311e-06,8.827260440481127e-06,1.32144261791935e-05,5.378666401223637e-06,5.763235544780516e-06
172.6863503177907,114.5014780349929,12.5,0,-1.944436873189722,2.203128675011037,1.743259575559452,-7.984700934215939e-06,8.605561258587095e-06,1.394607660447562e-05,5.434428785036546e-06,5.807453439208348e-06
168.4428899692666,109.7206492397898,12.5,0,-2.889538769115485,2.001211620249268,1.745499437047871,-1.084749335736897e-05,8.715508200090043e-06,1.396399549638297e-05,4.12156002865815e-06,4.26795969276699e-06
170.5901623289953,109.2245097056577,12.5,0,-2.842365622405047,1.933235094957237,1.849212309570327,-1.064215806766194e-05,8.460244801787196e-06,1.479369847656262e-05,4.12244840275281e-06,4.362564338279869e-06
169.3878838948382,111.67296751401,12.5,0,-2.598339376676388,2.110692608015416,1.664105543448238,-1.000324009177677e-05,8.832887846990439e-06,1.331284434758591e-05,4.461191503524103e-06,4.71470479834385e-06
171.357420384011,111.1560141691823,12.5,0,-2.538279621682688,2.040882298636139,1.773325204014472,-9.75520062829351e-06,8.561447052981793e-06,1.418660163211578e-05,4.469641889412583e-06,4.79757086298925e-06
164.723705144595,110.5799881205347,12.5,0,-2.716719744272043,1.816785948930602,1.832380839551148,-1.014693194081502e-05,7.987090831995561e-06,1.465904671640919e-05,3.950085286497342e-06,4.092785456924891e-06
166.8709775043237,110.0838485864026,12.5,0,-2.68249725493752,1.711305018959932,1.926738486321275,-9.953035230968009e-06,7.622173864621799e-06,1.54139078905702e-05,3.874387545342479e-06,4.195672659375201e-06
165.9765466282914,112.5683569723783,12.5,0,-2.428159180993747,1.958296446609691,1.724531399940211,-9.336746536467742e-06,8.209075973946009e-06,1.379625119952169e-05,4.32000989715546e-06,4.56497690741348e-06
167.9460831174642,112.0514036275505,12.5,0,-2.38275525809282,1.849266909977467,1.822625364922563,-9.104230353878997e-06,7.823858318402148e-06,1.45810029193805e-05,4.230966048793854e-06,4.652381435784902e-06
316.2841477045068,223.5669538984773,12.5,0,14.3942115861598,-0.1899157133455494,-0.1581673492904523,4.62134096463878e-05,-1.21230995516336e-05,-1.265338794323619e-06,5.474336329740513e-05,5.499009478026582e-05
318.2501816791549,224.3035719830241,12.5,0,14.37637923612671,-0.06016364166758637,-0.1246126171373311,4.605254446893954e-05,-1.169362704223764e-05,-9.969009370986489e-07,5.506556862096426e-05,5.503781930835911e-05
314.9672143008132,224.78324412267,12.5,0,14.5139414521831,-0.0643167052524416,-0.08456952653608779,4.649606601118787e-05,-1.181696661855429e-05,-6.765562122887023e-07,5.558117312761406e-05,5.544681829992143e-05
316.8330365452942,225.541291213489,12.5,0,14.49151263952673,0.06472323395857549,-0.05260793057150319,4.632106185931866e-05,-1.138609576295394e-05,-4.208634445720255e-07,5.588534314778281e-05,5.551898718310448e-05
319.6894184379427,224.8428138466634,12.5,0,14.37991456534943,-0.1737129756665117,-0.1445099279206801,4.61546969896514e-05,-1.205981317441238e-05,-1.156079423365441e-06,5.473696303463089e-05,5.508356905901026e-05
321.6554524125906,225.5794319312103,12.5,0,14.36844657165282,-0.03856177635126068,-0.1168794625879433,4.600987845037002e-05,-1.161815494164629e-05,-9.350357007035463e-07,5.510027013810306e-05,5.516083517413483e-05
318.1989132260885,226.0962201984747,12.5,0,14.49660716233967,-0.03358089629617567,-0.06834393687039833,4.641600763652387e-05,-1.170474459801949e-05,-5.467514949631866e-07,5.560732210511833e-05,5.558226202283226e-05
320.0647354705694,226.8542672892937,12.5,0,14.48106478983741,0.1005690473357488,-0.04245523009733555,4.625895208961112e-05,-1.126303088039553e-05,-3.396418407786844e-07,5.595391118832386e-05,5.568296321663361e-05
322.2710491937739,222.6718503628359,12.5,0,14.11539615918339,-0.2043806915079713,-0.2477342655897766,4.533277226259321e-05,-1.194633514017222e-05,-1.981874124718213e-06,5.363057317553375e-05,5.413742834973588e-05
324.4106549765825,223.3713523197641,12.5,0,14.10420993000812,-0.02745667361843607,-0.2034335885172202,4.515543711492071e-05,-1.137122929958549e-05,-1.627468708137762e-06,5.412004397283456e-05,5.415460524674549e-05
320.7805439819198,223.9252567146471,12.5,0,14.26274450468946,-0.03511749314441825,-0.1532296263243808,4.566887640952179e-05,-1.15225715818137e-05,-1.225837010595046e-06,5.470505313026787e-05,5.469642704311884e-05
322.8199380345612,224.6461876778475,12.5,0,14.24671866766215,0.1409914165786432,-0.1107460606913045,4.547670660325596e-05,-1.094620240107806e-05,-8.859684855304362e-07,5.517675629522798e-05,5.475131289037038e-05
318.5651432698479,221.4602774334641,12.5,0,14.16482673054018,-0.1959224482792181,-0.2556045822006041,4.548418349635194e-05,-1.195881321892564e-05,-2.044836657604833e-06,5.384618327076324e-05,5.414448599660299e-05
320.7047490526564,222.1597793903923,12.5,0,14.14819450264359,-0.05098496472815217,-0.2104197122811244,4.5315010380242e-05,-1.148170748924496e-05,-1.683357698248995e-06,5.421809775268424e-05,5.413471690483228e-05
317.2482098661542,222.6765676576568,12.5,0,14.29483869723064,-0.06604242469016297,-0.1773852150149108,4.579631777089019e-05,-1.164720671679303e-05,-1.419081720119286e-06,5.473537555038939e-05,5.464113589132554e-05
319.2876039187958,223.3974986208572,12.5,0,14.2735157914848,0.07847665301169249,-0.133564495746947,4.561246921034202e-05,-1.116768734355043e-05,-1.068515965975576e-06,5.509019377845476e-05,5.466690520520121e-05
295.6473694338089,217.9292213279445,12.5,0,14.95381034590972,-0.142405614080007,-0.1337116088712012,4.79661175981751e-05,-1.24187462417838e-05,-1.069692870969609e-06,5.703643931337717e-05,5.694879249114898e-05
297.2716143428652,217.1586883828573,12.5,0,14.91451506156874,-0.16341175375489,-0.1645385497195975,4.785717760002388e-05,-1.245452966127064e-05,-1.31630839775678e-06,5.682264216427117e-05,5.651012275448163e-05
296.2700335625407,219.4917209576252,12.5,0,14.87138825077108,-0.1581372227436155,-0.1260924682751482,4.771495218066236e-05,-1.240314971339643e-05,-1.008739746201186e-06,5.667219272797472e-05,5.692320007498566e-05
298.1007091832213,218.9874400314014,12.5,0,14.84667478054745,-0.1757979801495235,-0.1568329427473983,4.764999768187145e-05,-1.243989336091643e-05,-1.254663541979187e-06,5.652450964042889e-05,5.651679992619737e-05
298.4606441401789,216.5946191181717,12.5,0,14.78011793089676,-0.1587473963892649,-0.2054237736089526,4.742337529598103e-05,-1.233208601316305e-05,-1.643390188871621e-06,5.632108720816864e-05,5.618058169879979e-05
300.0848890492351,215.8240861730845,12.5,0,14.74476716481755,-0.182317446851739,-0.2330579639343481,4.732910888489755e-05,-1.23792295617796e-05,-1.864463711474785e-06,5.611493716717001e-05,5.57189285281262e-05
299.4408567496802,218.6182807721333,12.5,0,14.69166537844684,-0.171049183670573,-0.1969841985997845,4.715016855796634e-05,-1.23006896905033e-05,-1.575873588798276e-06,5.594395164205518e-05,5.621803784921321e-05
301.2715323703608,218.1139998459095,12.5,0,14.66839336146495,-0.1923289361877369,-0.2247561991571695,4.709272190563801e-05,-1.235016728497271e-05,-1.798049593257356e-06,5.579111785816328e-05,5.580820482427128e-05
296.7628660983336,213.0895343162444,12.5,0,14.83281458981089,-0.1355933889915106,-0.4060730107557757,4.757348139858807e-05,-1.230015051662155e-05,-3.248584086046205e-06,5.660014888042864e-05,5.619667467524847e-05
298.0295625266203,211.8578393468763,12.5,0,14.72300414001083,-0.1738026295735486,-0.4514996533519635,4.72526553516935e-05,-1.233457172664402e-05,-3.611997226815708e-06,5.606529191859504e-05,5.566191675480633e-05
297.7430787078349,215.113195970206,12.5,0,14.64012539859068,-0.1745204172336243,-0.3782597453925009,4.698801760927708e-05,-1.227056565402014e-05,-3.026077963140007e-06,5.574130082092512e-05,5.617485745358835e-05
299.2162058477459,214.1477530197012,12.5,0,14.55934671252624,-0.2063087502807583,-0.4257512212953174,4.675495648030856e-05,-1.230766537091942e-05,-3.406009770362539e-06,5.533742388862427e-05,5.567973075805197e-05
294.5688835268141,215.2228925825786,12.5,0,15.02522950218625,-0.1150151439371783,-0.2981195068313273,4.817274652214572e-05,-1.238823206234797e-05,-2.384956054650618e-06,5.739735948273527e-05,5.702543507816386e-05
295.835579955101,213.9911976132105,12.5,0,14.90679939773011,-0.1455944829592042,-0.3440708863715767,4.781823365910371e-05,-1.239134186365354e-05,-2.752567090972614e-06,5.685170824092228e-05,5.656202830884579e-05
295.1915476555461,216.7853922122593,12.5,0,14.85301572964271,-0.1575193326577842,-0.272913406154288,4.765566580098289e-05,-1.238647444821907e-05,-2.183307249234304e-06,5.660669164477143e-05,5.697618627768793e-05
296.6646747954571,215.8199492617546,12.5,0,14.76905001089945,-0.1795319542700566,-0.3210701458800568,4.740458559829427e-05,-1.238974226238374e-05,-2.568561167040455e-06,5.621934538586788e-05,5.652224166308687e-05
205.3664790355151,163.1946070663247,12.5,0,8.080456440579967,7.509084173227627,-0.003416007473159362,1.985019327127379e-05,1.756470420186443e-05,-2.73280597852749e-08,5.655687636691697e-05,5.60605021912632e-05
206.8547585696883,163.4409082874203,12.5,0,8.065165281922253,7.641370588067932,0.1044670366303821,1.969543243169686e-05,1.800025365627958e-05,8.35736293043057e-07,5.697975027693689e-05,5.71433126605049e-05
205.5102570220127,164.7666603112729,12.5,0,8.489887086289695,7.594915178824669,0.05467087025830871,2.109170653306729e-05,1.751181890320718e-05,4.373669620664697e-07,5.836021690787621e-05,5.813543480664997e-05
206.8422935834064,165.1595700104485,12.5,0,8.427011215117938,7.732977025838746,0.1685964851488603,2.07800542677064e-05,1.800391751058964e-05,1.348771881190883e-06,5.862983726613104e-05,5.937665428957655e-05
205.1174482578958,160.4717309739199,12.5,0,7.28766397324249,7.237428058963377,0.02732031405790268,1.753058226720527e-05,1.732963861008881e-05,2.185625124632214e-07,5.269082965407858e-05,5.255062805021523e-05
206.8763485592439,160.464098862165,12.5,0,7.333131205337011,7.412905838169476,0.1748958983773845,1.753569518654285e-05,1.785479371787271e-05,1.399167187019076e-06,5.349422605794874e-05,5.335495028871117e-05
205.2612262443934,162.043784218868,12.5,0,7.707896877688337,7.326262322886558,0.08371562681890413,1.880426015029343e-05,1.727772193108631e-05,6.69725014551233e-07,5.454005207957902e-05,5.45640577310392e-05
206.863883572962,162.1827605851932,12.5,0,7.718628059827916,7.510447304406195,0.2403194354258216,1.869125194792437e-05,1.785852892623749e-05,1.922555483406573e-06,5.52485968012829e-05,5.552980193646398e-05
202.0709435705674,160.484950179248,12.5,0,7.284993596387963,6.95277376594473,0.3025492998866685,1.774976049568569e-05,1.642088117391276e-05,2.420394399093348e-06,5.165608309680928e-05,5.112440263132163e-05
203.8298438719155,160.4773180674932,12.5,0,7.294980903304024,6.986526154517033,0.445416213159295,1.775471796695925e-05,1.652089897181128e-05,3.56332970527436e-06,5.182130627066663e-05,5.195295460675717e-05
202.4853423242399,161.8030700913458,12.5,0,7.640616444260422,7.03244008256683,0.2720881988791085,1.882402055557988e-05,1.639131510880552e-05,2.176705591032868e-06,5.323784077224836e-05,5.288947671709804e-05
204.0879996528084,161.942046457671,12.5,0,7.612267784013527,7.061240567422267,0.4348209468602179,1.871026445490547e-05,1.650615558854043e-05,3.478567574881743e-06,5.324559671989575e-05,5.38565847207766e-05
202.7887032665084,162.7680008374286,12.5,0,7.931791607106592,7.16603133293717,0.2322542251882986,1.964890807639136e-05,1.658586697971367e-05,1.858033801506388e-06,5.478047355003878e-05,5.420189570799029e-05
204.2769828006817,163.0143020585242,12.5,0,7.900715016090745,7.24079613935753,0.3470797888434216,1.948965114000436e-05,1.68499756330715e-05,2.776638310747373e-06,5.494065424981963e-05,5.527235189425823e-05
203.2031020201808,164.0861207495264,12.5,0,8.301087845875957,7.227823995087101,0.2266019583085921,2.078122191073338e-05,1.648816650757796e-05,1.812815666468737e-06,5.635208709016821e-05,5.602241698630222e-05
204.5351385815746,164.479030448702,12.5,0,8.214282511413872,7.304794152372432,0.3587687034100067,2.044186871462644e-05,1.680391527846068e-05,2.870149627280053e-06,5.63161979124282e-05,5.723666963004325e-05
292.6057432855709,218.15528301887,12.5,0,15.05373976957847,-0.1326169003616862,-0.1035728329288189,4.827806078294044e-05,-1.246736589682017e-05,-8.285826634305514e-07,5.744956611970564e-05,5.769063336547426e-05
294.3971530520581,218.196258055837,12.5,0,15.05442912367343,-0.1311349625034515,-0.1091611481742946,4.827908116575774e-05,-1.246317517894979e-05,-8.732891853943572e-07,5.74567486645643e-05,5.726510935601098e-05
293.0189421511208,219.7976195130373,12.5,0,15.04199682006262,-0.1358113021147478,-0.1020601842261805,4.824303886589217e-05,-1.246819362281729e-05,-8.164814738094439e-07,5.739479158319275e-05,5.762294299104452e-05
294.9083781902087,219.708807895447,12.5,0,15.04167856353605,-0.1346991494418051,-0.1071121621610193,4.824113072286881e-05,-1.246438012904262e-05,-8.568972972881547e-07,5.739697953987559e-05,5.721959021591552e-05
291.8900618568215,215.3106727678988,12.5,0,15.06503236867395,-0.1238411054683723,-0.2691645803408449,4.830717646413132e-05,-1.244831743243795e-05,-2.15331664272676e-06,5.75227860567952e-05,5.778735666471551e-05
293.5116851386907,215.5764448846993,12.5,0,15.06404739866012,-0.1184768448211662,-0.2638554154541764,4.829973315156931e-05,-1.243036382235583e-05,-2.110843323633411e-06,5.753502743778746e-05,5.735376082157189e-05
292.3032607223714,216.9530092620661,12.5,0,15.07754643531524,-0.1219091827059628,-0.2684729158774569,4.834567593917354e-05,-1.245214653291127e-05,-2.147783327019655e-06,5.757667896254579e-05,5.773468787655766e-05
294.0229102768413,217.0889947243093,12.5,0,15.07781414031508,-0.1168191992534826,-0.2635492327509887,4.834246060841105e-05,-1.243607274986321e-05,-2.10839386200791e-06,5.759291897818328e-05,5.730106026144349e-05
289.081327941938,214.8503419583737,12.5,0,15.21955418378768,-0.08450224754648872,-0.2977835063573014,4.877017518615774e-05,-1.24460505391789e-05,-2.382268050858411e-06,5.823613956826191e-05,5.864107058690374e-05
290.7029512238072,215.1161140751741,12.5,0,15.21154081401174,-0.09121156721553803,-0.2820111171835034,4.874989985860999e-05,-1.246110966629911e-05,-2.256088937468027e-06,5.818459855246241e-05,5.813229027673415e-05
289.3247403228699,216.7174755323744,12.5,0,15.26045529181273,-0.07367086897100883,-0.3016348405969439,4.889239362897754e-05,-1.244411101415741e-05,-2.413078724775551e-06,5.842613874111837e-05,5.857352410149322e-05
291.0443898773398,216.8534609946176,12.5,0,15.25631574069284,-0.0790195978171635,-0.2873230730333519,4.888342604847081e-05,-1.245791530556919e-05,-2.298584584266815e-06,5.839362566064625e-05,5.807564353488618e-05
289.5029305528958,218.0843121730025,12.5,0,15.23309116645848,-0.09587970699796244,-0.100086151701037,4.882259549826551e-05,-1.249328799556026e-05,-8.006892136082962e-07,5.824957838833575e-05,5.850190295804547e-05
291.2943403193829,218.1252872099695,12.5,0,15.2348757426068,-0.09104896734027967,-0.1102148351032905,4.882444155021397e-05,-1.247925728957433e-05,-8.817186808263242e-07,5.827113441356421e-05,5.802203121233306e-05
289.7463429338277,219.9514457470032,12.5,0,15.2084763548305,-0.1025534554447933,-0.09729393581363235,4.874916709981343e-05,-1.249495214128774e-05,-7.783514865090588e-07,5.813481428666755e-05,5.837377684065224e-05
291.6357789729155,219.862634129413,12.5,0,15.20838801333189,-0.09851211746839272,-0.1065671151473119,4.874565133663675e-05,-1.248194918656437e-05,-8.525369211784956e-07,5.814677467002604e-05,5.793220636504791e-05
111.2635080379621,70.6229019303386,12.5,0,-9.037849457536876,-0.0586853712083415,1.980537729236609,-2.887416996715132e-05,7.042486378162807e-06,1.584430183389287e-05,2.511110345680971e-06,2.480233382915397e-06
113.504903048496,70.74164446248679,12.5,0,-9.127777514946654,-0.3369583012755299,2.139683724661236,-2.893932140680887e-05,6.223955447875627e-06,1.711746979728989e-05,2.427842226117396e-06,2.500936692323734e-06
112.4562794880276,72.19919072414177,12.5,0,-8.711416972843756,0.1598157928513952,1.825904001538215,-2.800438694738113e-05,7.480544115399468e-06,1.460723201230572e-05,2.522191812587007e-06,2.443683353071712e-06
114.6490393632733,72.2994416546987,12.5,0,-8.799305212364745,-0.1206991354530906,1.986011583593186,-2.806121737120471e-05,6.653206936441905e-06,1.588809266874549e-05,2.428184039432424e-06,2.464188455137899e-06
113.3294487912561,73.3531142085581,12.5,0,-8.602681890356655,-0.05943273123682147,1.999042862181485,-2.748103586415183e-05,6.691960772327494e-06,1.599234289745188e-05,2.429055577086695e-06,2.416432910747944e-06
115.4866052764393,73.43982834723747,12.5,0,-8.673613594919711,-0.2872962067027198,2.141390854571282,-2.752572653838089e-05,6.019543014487065e-06,1.713112683657025e-05,2.366022345696041e-06,2.437654648608666e-06
114.5222202413216,74.92940300236125,12.5,0,-8.29914023012285,0.1333201652169813,1.859975120910413,-2.66639048685667e-05,7.065936712792619e-06,1.487980096728331e-05,2.433391750725299e-06,2.378533347631205e-06
116.6307415912166,74.99762553944936,12.5,0,-8.367903101653296,-0.09627942729394157,2.003200165525134,-2.670026638345539e-05,6.386228313982022e-06,1.602560132420107e-05,2.362161376499619e-06,2.40191117823535e-06
117.065753423403,73.50330750248264,12.5,0,-8.599985941003927,-0.004133681766256281,2.016059200892566,-2.751664806579956e-05,6.866760971151122e-06,1.612847360714053e-05,2.467695187333049e-06,2.454312755744166e-06
119.2229099085863,73.59002164116201,12.5,0,-8.662042641306295,-0.1979974029772,2.154164025827275,-2.756013852979838e-05,6.296042423517995e-06,1.72333122066182e-05,2.419285519061459e-06,2.478601812937492e-06
118.1742863481178,75.04756790281698,12.5,0,-8.315694483992889,0.1591361933340454,1.89477435079571,-2.673753130344448e-05,7.161791405863255e-06,1.515819480636568e-05,2.465454232135105e-06,2.419634230069555e-06
120.2828076980129,75.11579043990508,12.5,0,-8.375603991352499,-0.03624180828416845,2.03390149393366,-2.677293932570066e-05,6.584509406572659e-06,1.627121195146928e-05,2.410871432519263e-06,2.444676677543696e-06
115.1457180759685,70.82857002903495,12.5,0,-9.010367294307759,-0.008156531601839045,1.982939212301672,-2.882665011650335e-05,7.182192934320321e-06,1.586351369841338e-05,2.536193617346166e-06,2.517303680254859e-06
117.3871130865025,70.94731256118313,12.5,0,-9.082631605450841,-0.2196270107765503,2.133491106812468,-2.888871952882145e-05,6.563298849875712e-06,1.706792885449975e-05,2.482243773967779e-06,2.541315813443122e-06
116.2542510006833,72.3728304293693,12.5,0,-8.714083521330567,0.1621199783644225,1.856480223666995,-2.801476325094935e-05,7.490050747830605e-06,1.485184178933596e-05,2.534639099320106e-06,2.480483206045695e-06
118.4470108759291,72.47308135992623,12.5,0,-8.784303344319488,-0.05104021083004362,2.008177431843806,-2.806893853315832e-05,6.864114000799449e-06,1.606541945475045e-05,2.473892649440108e-06,2.504496191358179e-06
136.4766092281244,78.50124137403208,12.5,0,-7.927765406989773,0.3640896738451751,1.972037159378911,-2.566012104144341e-05,7.507299281896379e-06,1.577629727503128e-05,2.551339375058969e-06,2.565599206308884e-06
138.7914738825628,78.66476703208023,12.5,0,-7.969112109468459,0.3062171920787797,2.125577343901837,-2.574613250396209e-05,7.355184702226861e-06,1.70046187512147e-05,2.585223489698058e-06,2.595458790957372e-06
136.916623577261,80.2878390341869,12.5,0,-7.607244746788599,0.4533950119545644,1.92775905663658,-2.470589919928716e-05,7.536659835685484e-06,1.542207245309264e-05,2.533005198296811e-06,2.52894333448858e-06
139.2143726623288,80.4618204328613,12.5,0,-7.651084148591678,0.3944259288390248,2.08292589409353,-2.479901001856458e-05,7.38303029115822e-06,1.666340715274824e-05,2.567658182285306e-06,2.559967653367684e-06
137.2387364368747,81.59571929404829,12.5,0,-7.417582285691376,0.4016629854281342,1.98935960462734,-2.405759370255491e-05,7.219387381923129e-06,1.591487683701872e-05,2.489153347916723e-06,2.503253479381712e-06
139.5239560555632,81.77735482609155,12.5,0,-7.463507923432481,0.3395915246896344,2.143996311822512,-2.415489857473564e-05,7.057499217752813e-06,1.71519704945801e-05,2.525204062713769e-06,2.535189486291089e-06
137.6787507860114,83.38231695420312,12.5,0,-7.09090830571883,0.4932251533583885,1.943363958536782,-2.308548670098697e-05,7.251047135321907e-06,1.554691166829426e-05,2.473743034841659e-06,2.469723361807983e-06
139.9468548353292,83.57440822687262,12.5,0,-7.139446583788078,0.429988130449269,2.0996733972287,-2.319021957248126e-05,7.087519284468122e-06,1.67973871778296e-05,2.510611206272505e-06,2.502985412506213e-06
141.1968529228253,81.91032126400137,12.5,0,-7.3934785712853,0.4896470222299487,1.966912970647779,-2.405084904589692e-05,7.481653328164075e-06,1.573530376518224e-05,2.53561708572776e-06,2.558671905774034e-06
143.4820725415138,82.0919567960446,12.5,0,-7.435475623972477,0.4421388667969768,2.11966973377575,-2.41472330901495e-05,7.363224872928306e-06,1.6957357870206e-05,2.57905756182234e-06,2.590891061979434e-06
141.607222236212,83.71502879815127,12.5,0,-7.067514447809689,0.57788688288021,1.927399369854268,-2.307835573929517e-05,7.503249583464423e-06,1.541919495883415e-05,2.522843702030126e-06,2.527536613961754e-06
143.8753262855299,83.90712007082077,12.5,0,-7.11205496619537,0.5293756199155506,2.081749833378348,-2.318207638775762e-05,7.383645956686056e-06,1.665399866702678e-05,2.567607650526219e-06,2.561349693029772e-06
140.486072422185,78.78447612210753,12.5,0,-7.91693320778466,0.4542038950034328,1.947106052452719,-2.569754938091365e-05,7.786999030238713e-06,1.557684841962175e-05,2.599772952863966e-06,2.617640363328421e-06
142.8009370766235,78.94800178015569,12.5,0,-7.956908698540999,0.4040955357379219,2.103663071727329,-2.578538426392153e-05,7.658632673194148e-06,1.682930457381864e-05,2.638775637509181e-06,2.648381961391981e-06
140.8964417355718,80.58918365625745,12.5,0,-7.586955612000331,0.5439181229438126,1.906432393022874,-2.47133924567561e-05,7.810102483020464e-06,1.525145914418299e-05,2.583159464236482e-06,2.582815132651097e-06
143.1941908206396,80.76316505493185,12.5,0,-7.629445872148728,0.492789553056348,2.064599665783175,-2.480845843332101e-05,7.680483267499295e-06,1.65167973262654e-05,2.623251990055174e-06,2.614211288001812e-06
305.2484674887661,214.5035695011813,12.5,0,14.28727164244724,-0.1825734117993698,-0.3305211649446507,4.586532798527067e-05,-1.201405223171578e-05,-2.644169319557206e-06,5.435937400171365e-05,5.441669838215361e-05
307.4262070371444,214.0086008084502,12.5,0,14.2769403794604,-0.2154885001618054,-0.3369789751366924,4.585860001440271e-05,-1.211111550408609e-05,-2.69583180109354e-06,5.422090709578714e-05,5.387241076122922e-05
306.256132798894,216.7949721724623,12.5,0,14.28054096250734,-0.1700281160595409,-0.3417271209215809,4.58337535728711e-05,-1.19685227413964e-05,-2.733816967372647e-06,5.437171302446643e-05,5.468507534347204e-05
308.3125531624884,216.2542634805188,12.5,0,14.26952885844165,-0.2040477256883784,-0.3488297260175518,4.582573052756399e-05,-1.206857580895613e-05,-2.790637808140414e-06,5.422730448617764e-05,5.420981402645954e-05
303.5031399746313,210.5347436539948,12.5,0,14.16092900220165,-0.2018470076524452,-0.5401928797619583,4.547645041316724e-05,-1.197465362624914e-05,-4.321543038095666e-06,5.382653840105448e-05,5.400247530029844e-05
305.8910105149843,210.1189989638365,12.5,0,14.15409000865382,-0.2296546416371328,-0.5417509930915601,4.547681174100191e-05,-1.205816686016188e-05,-4.334007944732481e-06,5.371677086864081e-05,5.332137949511317e-05
304.5108052847592,212.8261463252758,12.5,0,14.16457563283267,-0.1897816168265041,-0.5504490594754633,4.547846731852573e-05,-1.193896168011094e-05,-4.403592475803707e-06,5.38774892358412e-05,5.423379625183749e-05
306.7773566403283,212.364661635905,12.5,0,14.15755410453016,-0.2184116368902269,-0.5523706641121602,4.547890244400868e-05,-1.202496052167285e-05,-4.418965312897281e-06,5.376454263052978e-05,5.363435544603444e-05
299.3672268769171,211.2548345803132,12.5,0,14.47459073827206,-0.1770735146351679,-0.4804847799145032,4.646034917417871e-05,-1.214630783745018e-05,-3.843878239316026e-06,5.510257596661218e-05,5.520954714201101e-05
301.7550974172702,210.8390898901548,12.5,0,14.45967179367874,-0.2078970489746141,-0.4989432368738688,4.643726737895164e-05,-1.223300799166175e-05,-3.99154589499095e-06,5.495354316447392e-05,5.450840829644354e-05
300.5850231790198,213.6254612541668,12.5,0,14.43391455949791,-0.173256736958963,-0.4828207495774051,4.632713197996047e-05,-1.210155320586701e-05,-3.86256599661924e-06,5.495792201079369e-05,5.527760498536767e-05
302.851574534589,213.163976564796,12.5,0,14.41727211753832,-0.2052124035429714,-0.502084937298124,4.629944069895701e-05,-1.219049738536817e-05,-4.016679498384992e-06,5.479890775033399e-05,5.467410363885094e-05
301.4765119453906,215.3608804251319,12.5,0,14.52700469403335,-0.1731934651793487,-0.2615949190242472,4.662496979305019e-05,-1.217582284380059e-05,-2.092759352193978e-06,5.530643950740809e-05,5.535256792062544e-05
303.6542514937689,214.8659117324009,12.5,0,14.51178795134502,-0.2037454998953301,-0.2773644990367453,4.660071784422031e-05,-1.226141596074107e-05,-2.218915992293962e-06,5.515649811442202e-05,5.481330529767263e-05
302.6943082474934,217.7315070989856,12.5,0,14.49182213256495,-0.1668363802268433,-0.2658378479894453,4.65072999283893e-05,-1.212733412277785e-05,-2.126702783915562e-06,5.519052053830637e-05,5.548931262508622e-05
304.7507286110877,217.1907984070421,12.5,0,14.47490343772115,-0.1985179777496051,-0.2824140043292405,4.647850538290737e-05,-1.221518027897566e-05,-2.259312034633924e-06,5.50306590177942e-05,5.502791595968013e-05
151.4955175714357,95.7225280070755,12.5,0,-5.187969264829254,0.9674557885921595,1.937829027089228,-1.737546627832734e-05,7.246233935358313e-06,1.550263221671382e-05,2.580823578358593e-06,2.616553079714699e-06
153.8142104194746,95.616925745568,12.5,0,-5.173381160678759,0.9649477756150271,2.07134722001836,-1.732677793466405e-05,7.226537810511093e-06,1.657077776014688e-05,2.664725041644863e-06,2.683864618975926e-06
152.0411804092795,97.59079033476897,12.5,0,-4.887966348588033,1.043967937786817,1.902945064847611,-1.647666666571116e-05,7.25107047978824e-06,1.522356051878089e-05,2.606931898753728e-06,2.643343824678707e-06
154.1186029517584,97.39719777510277,12.5,0,-4.853489981213538,1.045864555410391,2.048644230037743,-1.636785958421163e-05,7.22955856228408e-06,1.638915384030194e-05,2.707420126226475e-06,2.707369517328673e-06
150.550401812505,92.48660273370163,12.5,0,-5.706896389948947,0.9094303085887749,1.923843808043229,-1.898961269470765e-05,7.475694099443237e-06,1.539075046434583e-05,2.575709462065767e-06,2.593879637863728e-06
153.2869870881239,92.53340413917543,12.5,0,-5.72161169913182,0.8784960315463133,2.087325582356852,-1.901195426245887e-05,7.388476660253658e-06,1.669860465885481e-05,2.647556721171386e-06,2.662577071616612e-06
151.0960646503488,94.35486506139512,12.5,0,-5.397115260598206,0.99251119339709,1.882361114309699,-1.806477778863193e-05,7.493728027349253e-06,1.505888891447759e-05,2.589882297987039e-06,2.603299190803776e-06
153.5913796204077,94.3136761687102,12.5,0,-5.397201964098191,0.9630603670699784,2.058485402383631,-1.804149457877019e-05,7.399554745902482e-06,1.646788321906905e-05,2.67244125643736e-06,2.671862519320737e-06
145.8104970759733,92.40554032155687,12.5,0,-5.692303430572552,0.7381099020031157,1.989162147883405,-1.880585889943465e-05,6.915794430868011e-06,1.591329718306724e-05,2.467758230334663e-06,2.478319295085346e-06
148.5470823515922,92.45234172703067,12.5,0,-5.72090962058284,0.6514164781537288,2.151857750307642,-1.882804396838807e-05,6.661260426558203e-06,1.721486200246114e-05,2.498654056497505e-06,2.544507915444558e-06
146.7740523413971,94.42620631623163,12.5,0,-5.354413437459113,0.8515439539985028,1.905828030781788,-1.781535816306796e-05,7.008471402762499e-06,1.524662424625431e-05,2.474241572358763e-06,2.486724124887593e-06
149.2693673114561,94.38501742354671,12.5,0,-5.369412874752309,0.763020102587032,2.078085791026806,-1.779253728127701e-05,6.737194628080349e-06,1.662468632821444e-05,2.506877309613026e-06,2.553691507528964e-06
147.4794237515578,95.90543648939736,12.5,0,-5.125429952233474,0.8317102296456262,2.017336744600195,-1.706674403086361e-05,6.761816696652782e-06,1.613869395680156e-05,2.504345168154423e-06,2.501790138926121e-06
149.7981165995968,95.79983422788987,12.5,0,-5.131249464396273,0.7498519737525429,2.144495665028853,-1.701987986507011e-05,6.504525887525154e-06,1.715596532023082e-05,2.518747291119475e-06,2.567766369824556e-06
148.4429790169816,97.9261024840721,12.5,0,-4.805446402036599,0.9464387788390827,1.932638810602243,-1.613457950958838e-05,6.872961213914342e-06,1.546111048481794e-05,2.527955000702872e-06,2.534546424946425e-06
150.5204015594606,97.73250992440592,12.5,0,-4.794154956920943,0.8629829735321175,2.067445274716681,-1.603168224097271e-05,6.59686948083953e-06,1.653956219773345e-05,2.54335951683421e-06,2.597036016642875e-06
157.2201499838965,103.7465620452111,12.5,0,-3.835354695890342,1.284228774192088,1.912086295637456,-1.330051804620276e-05,7.177815834126956e-06,1.529669036509965e-05,2.87567064664759e-06,2.986294572108015e-06
158.869962856115,103.6087469759294,12.5,0,-3.814251484830701,1.279771604896196,2.018149225436349,-1.32294220353752e-05,7.146670323532388e-06,1.61451938034908e-05,2.964935522465557e-06,3.054873612398287e-06
157.5888592799422,105.0645563830058,12.5,0,-3.548700811584465,1.358636357174037,1.878167588109024,-1.244275168280952e-05,7.18659699222449e-06,1.502534070487219e-05,2.975025883465736e-06,3.070758910136884e-06
159.2367633858328,105.2005626858676,12.5,0,-3.577043572876668,1.340944847854481,1.994446685242622,-1.251929531148892e-05,7.152658371435672e-06,1.595557348194098e-05,3.054261728153082e-06,3.162797576679285e-06
157.8587732178592,106.0293952023185,12.5,0,-3.378126838145553,1.320808466544279,1.915909990041509,-1.186665265530119e-05,6.929088563458136e-06,1.532727992033207e-05,2.98806694592742e-06,3.145052704751593e-06
159.505280009818,106.3658526617791,12.5,0,-3.431447607924202,1.327917094663156,2.022091453796083,-1.204296602108797e-05,6.994492789261458e-06,1.617673163036866e-05,3.090056765844396e-06,3.259675603746562e-06
158.2274825139049,107.3473895401131,12.5,0,-3.083701728517098,1.388530205511167,1.893272291224931,-1.097866969566365e-05,6.910258040449414e-06,1.514617832979945e-05,3.130416384386322e-06,3.263562788305823e-06
159.8720805395358,107.9576683717173,12.5,0,-3.194852501617134,1.383174505560647,2.008312386199155,-1.133006760962335e-05,6.982040419087777e-06,1.606649908959324e-05,3.209867734402404e-06,3.416427331561651e-06
160.7106066364879,106.6121566166794,12.5,0,-3.289759914021093,1.504040188809922,1.87267807846739,-1.173046387591543e-05,7.444736535408623e-06,1.498142462773912e-05,3.227055375365685e-06,3.34815401221926e-06
162.3571134284467,106.94861407614,12.5,0,-3.339364616905617,1.53212159912655,1.980210491466045,-1.191166405339921e-05,7.574280810729452e-06,1.584168393172836e-05,3.361798740122944e-06,3.475258620554812e-06
161.0760098522739,108.4044234832163,12.5,0,-2.90536399583975,1.589325029851342,1.864285861085096,-1.056862481056827e-05,7.410131292196094e-06,1.491428688868077e-05,3.479665356824794e-06,3.538269800481376e-06
162.7206078779048,109.0147023148204,12.5,0,-3.011228549382723,1.606197687705884,1.976514689773029,-1.092088950818942e-05,7.548815440165007e-06,1.581211751818423e-05,3.585108577259433e-06,3.718285072848022e-06
160.0777097015088,103.5078593431709,12.5,0,-3.899999967448723,1.392688645276031,1.867540282733236,-1.359415081205674e-05,7.576603638842277e-06,1.494032226186589e-05,2.967952197199916e-06,3.105148740815589e-06
161.7275225737273,103.3700442738892,12.5,0,-3.872045673062719,1.41729311010383,1.972533044567772,-1.352438064188376e-05,7.632974490782431e-06,1.578026435654218e-05,3.092129575621115e-06,3.173923905724276e-06
160.4431129172948,105.3001262097079,12.5,0,-3.540984713483742,1.477795195831202,1.849115083344468,-1.251338723981294e-05,7.561732397446839e-06,1.479292066675574e-05,3.113070660818706e-06,3.232099574060513e-06
162.0910170231854,105.4361325125697,12.5,0,-3.560477918551947,1.491706399398705,1.959825126287282,-1.258689445888519e-05,7.621842812917412e-06,1.567860101029826e-05,3.23094925592199e-06,3.32939748543768e-06
276.1786123780632,212.2117152409059,12.5,0,16.23536283931553,0.6806876784189564,-0.8732237650213538,5.140861094307453e-05,-1.081008970051176e-05,-6.98579012017083e-06,6.450644657456393e-05,6.459532753979337e-05
278.2969603524015,213.2538903128278,12.5,0,16.04562637751091,0.4665629104305808,-0.7296791545455218,5.097275407969044e-05,-1.134349978863087e-05,-5.837433236364174e-06,6.310893875035521e-05,6.326392254474433e-05
275.0917910668591,213.5020458448303,12.5,0,16.40927225636489,0.6294781979624213,-0.8552850754569652,5.200608866199772e-05,-1.111308757161217e-05,-6.842280603655722e-06,6.501516372369226e-05,6.507661980363837e-05
276.968362124538,214.3441987014409,12.5,0,16.19723784547231,0.3767603808433884,-0.6867579703034519,5.152975280083667e-05,-1.1752157057679e-05,-5.494063762427615e-06,6.341349339270717e-05,6.384495024477477e-05
272.5095260584648,210.4066150659879,12.5,0,16.5366747071138,1.082243417141764,-1.166473023485163,5.205156432905073e-05,-9.766160830837391e-06,-9.331784187881307e-06,6.693328091475446e-05,6.725978452947243e-05
274.627874032803,211.4487901379098,12.5,0,16.32822507357251,0.8202975677449396,-1.008943833327264,5.159408218123607e-05,-1.04376278420742e-05,-8.07155066661811e-06,6.530581021756802e-05,6.566601553163417e-05
271.8414746510043,212.0433943094677,12.5,0,16.78035793175215,1.070478372960102,-1.197443565209718,5.284076268323879e-05,-9.998755551929393e-06,-9.579548521677743e-06,6.783510895134704e-05,6.755383833476548e-05
273.7180457086832,212.8855471660783,12.5,0,16.55212596362076,0.7679003835234592,-1.017366150549517,5.235248277676765e-05,-1.078441954362153e-05,-8.138929204396135e-06,6.600440445501798e-05,6.607041337213787e-05
271.3524270786962,213.241599876418,12.5,0,16.63857192425166,1.077167680161864,-0.9582489870168902,5.23816960134758e-05,-9.863920962883358e-06,-7.665991896135121e-06,6.728763722313076e-05,6.771353298085405e-05
273.0520051492907,213.9373263087845,12.5,0,16.50773270121653,0.8420284613758104,-0.8546948002362817,5.215112187479222e-05,-1.051169508457062e-05,-6.837558401890254e-06,6.604818988504654e-05,6.632903326009526e-05
270.6843756712358,214.8783791198977,12.5,0,16.81917616907729,1.032277983042676,-1.015174183364499,5.299554135461317e-05,-1.015205138952526e-05,-8.12139346691599e-06,6.784673534342759e-05,6.785577306239026e-05
272.142176825171,215.374083336953,12.5,0,16.67331299300138,0.7452109316533857,-0.8939257116185456,5.275843283228171e-05,-1.095397541311027e-05,-7.151405692948365e-06,6.638844851977196e-05,6.663119809336899e-05
274.2961826483428,214.4466334054238,12.5,0,16.412562856204,0.7749989828325172,-0.7362756538503191,5.190020195358679e-05,-1.065005353989915e-05,-5.890205230802553e-06,6.54667836938755e-05,6.540144281056266e-05
275.9957607189373,215.1423598377903,12.5,0,16.28828496691394,0.5760155437225389,-0.6359520545451685,5.166169945914657e-05,-1.118737823361903e-05,-5.087616436361348e-06,6.437031102482789e-05,6.425171829447501e-05
273.2093613371387,215.7369640093481,12.5,0,16.54893512477285,0.6858480230763639,-0.7413497910957858,5.240791398081202e-05,-1.104443442597391e-05,-5.930798328766286e-06,6.5716095472851e-05,6.580758350513985e-05
274.6671624910738,216.2326682264034,12.5,0,16.40581114080991,0.4331979351273327,-0.6177900375511242,5.215203730248984e-05,-1.173841552024046e-05,-4.942320300408993e-06,6.438281872983646e-05,6.478200157316856e-05
314.7685206073772,208.24495000509,12.5,0,13.35752584245284,-0.2231239796758375,-0.7150638578607945,4.292258187958974e-05,-1.140001740892495e-05,-5.720510862886356e-06,5.068989187793456e-05,5.083459865085778e-05
317.0385983937512,207.9094606389262,12.5,0,13.35922231858971,-0.2600063451779375,-0.6877212406846095,4.29575164956294e-05,-1.151939815944116e-05,-5.501769925476876e-06,5.058333289226969e-05,5.026914811017829e-05
315.5329691724859,210.5025270897967,12.5,0,13.44341332072645,-0.1884470038823647,-0.7411217267927201,4.316968022943053e-05,-1.135776106900473e-05,-5.928973814341761e-06,5.112626437859269e-05,5.136285404468515e-05
317.7524634906213,210.2229987153462,12.5,0,13.44338759775781,-0.2271301924795512,-0.7124368495927844,4.320054446680863e-05,-1.148152669414081e-05,-5.699494796742276e-06,5.100736691868381e-05,5.085574551632045e-05
316.0925843618947,212.155188217735,12.5,0,13.57237713898461,-0.1884983592886114,-0.5342124173588815,4.358240553218164e-05,-1.146109646091124e-05,-4.273699338871052e-06,5.160538397975575e-05,5.175380220089414e-05
318.2750490112581,211.9166261324588,12.5,0,13.57296490166184,-0.223078480669876,-0.5019446394540351,4.36119504698538e-05,-1.157222305947308e-05,-4.015557115632281e-06,5.150165895236008e-05,5.12893942367617e-05
316.8570329270033,214.4127653024418,12.5,0,13.67401820622167,-0.1502684169721111,-0.5618284326297301,4.387707299348701e-05,-1.142007349928809e-05,-4.494627461037841e-06,5.211272123075119e-05,5.22936370330005e-05
318.9889141081284,214.2301642088788,12.5,0,13.67241439751712,-0.1867519360860972,-0.5279597156134614,4.390112762092365e-05,-1.15355377134892e-05,-4.223677724907691e-06,5.199452868182434e-05,5.188754716755263e-05
319.8727240202473,211.7419865652845,12.5,0,13.36185984230471,-0.1916280837074651,-0.5966015093193422,4.291125396234103e-05,-1.130269774170765e-05,-4.772812074554738e-06,5.079162337083821e-05,5.095508194690144e-05
322.0551886696107,211.5034244800082,12.5,0,13.36399716992822,-0.2259727316430471,-0.5588853701569398,4.294556912908475e-05,-1.141431047720033e-05,-4.471082961255519e-06,5.069392963506572e-05,5.050613174950214e-05
320.5495594483455,214.0964909308787,12.5,0,13.48364761556119,-0.1498026881319965,-0.6252358917731033,4.326751452030141e-05,-1.126628669447134e-05,-5.001887134184826e-06,5.13874189201299e-05,5.159596630313069e-05
322.6814406294704,213.9138898373158,12.5,0,13.4832970910537,-0.1860499552124941,-0.5857927671780709,4.329539065554182e-05,-1.138199752952294e-05,-4.686342137424568e-06,5.127407367216062e-05,5.120544243242912e-05
318.7004106704396,207.6638653775057,12.5,0,13.10267905136479,-0.2356731904428888,-0.7829905177568935,4.211711151672163e-05,-1.123629745050907e-05,-6.263924142055149e-06,4.967993333195129e-05,4.986013038085095e-05
320.9704884568136,207.3283760113418,12.5,0,13.10994060280567,-0.2620868505772909,-0.7471325428922956,4.216147940943997e-05,-1.132663040409186e-05,-5.977060343138364e-06,4.962512220785675e-05,4.93081237037642e-05
319.3772460985379,210.0183697431,12.5,0,13.2139457811101,-0.1990248048832881,-0.8070202059017517,4.244384634345894e-05,-1.12080360005146e-05,-6.456161647214013e-06,5.021961651962708e-05,5.048996611334813e-05
321.5967404166733,209.7388413686494,12.5,0,13.21919708569499,-0.2269189931157083,-0.7696647546413804,4.248296586871654e-05,-1.130149844652626e-05,-6.157318037131043e-06,5.015232235815393e-05,4.999774672838775e-05
309.4202013976919,189.5920515241682,12.5,0,11.89619177375728,-0.1979485693652476,-1.865584721565827,3.822617253151548e-05,-1.015038884097461e-05,-1.492467777252661e-05,4.535844327685745e-05,4.588075942995063e-05
312.0575370616298,189.841051723224,12.5,0,11.85678776427458,-0.2308085505678514,-1.732577892487664,3.812636768613293e-05,-1.022401757323679e-05,-1.386062313990131e-05,4.507653073110048e-05,4.524801133941921e-05
309.6576846719695,192.3946226587511,12.5,0,12.23661380539352,-0.1109622079858479,-1.88526472294124,3.924593394364793e-05,-1.014437010986953e-05,-1.508211778352992e-05,4.692569077168289e-05,4.687540328708041e-05
312.4145312278102,192.523670149306,12.5,0,12.21518995471549,-0.1381008049641888,-1.759761734811236,3.919908849906091e-05,-1.021407453965779e-05,-1.407809387848988e-05,4.673181743840144e-05,4.618188130847796e-05
309.8315344946811,194.4462471210045,12.5,0,12.39783862342884,-0.225087006401135,-1.566335362114291,3.98531532000932e-05,-1.06385493192267e-05,-1.253068289691433e-05,4.712738782192291e-05,4.75811713505647e-05
312.6758690954489,194.4874831344351,12.5,0,12.38564319958334,-0.2563986330178905,-1.445668252295985,3.9839177145081e-05,-1.072899018532392e-05,-1.156534601836788e-05,4.696286403455463e-05,4.684084421188141e-05
310.0690177689588,197.2488182555873,12.5,0,12.68805237356183,-0.1503749325997004,-1.585728820756099,4.07220675414776e-05,-1.06316416831685e-05,-1.268583056604879e-05,4.846691652309373e-05,4.851472170131547e-05
313.0328632616292,197.1701015605172,12.5,0,12.68900139379994,-0.177019502909654,-1.471399088474304,4.074642006248754e-05,-1.071766352435085e-05,-1.177119270779443e-05,4.83680252451768e-05,4.77072943753005e-05
314.7580665368484,194.5176699913667,12.5,0,12.10522561985089,-0.2784819655958195,-1.524822258808982,3.895950755599949e-05,-1.057532278578733e-05,-1.219857807047186e-05,4.583850207721851e-05,4.6307044674954e-05
317.6024011376161,194.5589060047974,12.5,0,12.09418764613409,-0.3072889831292742,-1.418826918446632,3.894723165413251e-05,-1.065867486292095e-05,-1.135061534757306e-05,4.568894808267478e-05,4.558900435763285e-05
315.2025487479558,197.1124769403244,12.5,0,12.34005292906045,-0.2160785481611796,-1.54847538821033,3.966103221152237e-05,-1.056349369736413e-05,-1.238780310568264e-05,4.692939424649019e-05,4.712970741101075e-05
318.1663942406262,197.0337602452543,12.5,0,12.34057246703857,-0.2405400216985125,-1.44880948758241,3.968226391188223e-05,-1.06421860430661e-05,-1.159047590065928e-05,4.683826544330301e-05,4.635913780472957e-05
313.9882007641636,190.0233325200199,12.5,0,11.67704734182286,-0.2358166530876069,-1.797911622228819,3.755520481630323e-05,-1.009625116333863e-05,-1.438329297783056e-05,4.439025641207157e-05,4.479552542494132e-05
316.6255364281016,190.2723327190757,12.5,0,11.63250798256031,-0.2937271243830981,-1.668783129965009,3.745900724369945e-05,-1.024593318407416e-05,-1.335026503972007e-05,4.401552751694543e-05,4.419205900735731e-05
314.4326829752711,192.6181394689776,12.5,0,11.9796825274291,-0.1530627947468206,-1.833798130884213,3.845743432357059e-05,-1.007354696513311e-05,-1.46703850470737e-05,4.580408160681923e-05,4.568160249681889e-05
317.1895295311118,192.7471869595327,12.5,0,11.95305912398956,-0.203612043321006,-1.713462109310536,3.84126788314234e-05,-1.021400583781887e-05,-1.370769687448429e-05,4.552167207093361e-05,4.500833734396041e-05
242.9504397669641,173.4415557616055,12.5,0,12.12682198817635,7.557969188345036,-3.885249499930354,3.275945501148827e-05,1.448404381216304e-05,-3.108199599944283e-05,7.233700546701747e-05,7.243667135703244e-05
244.9844639254328,173.5160384246271,12.5,0,11.93860199933712,6.904423019200453,-3.605098426452552,3.267998798251842e-05,1.254327206197175e-05,-2.884078741162042e-05,6.92776121272625e-05,7.117330435956254e-05
243.4472327744996,175.5294027074265,12.5,0,12.90213881016501,7.898658365224009,-4.197816512310781,3.496791750034881e-05,1.495399572058482e-05,-3.358253209848625e-05,7.648923348592228e-05,7.51038852987358e-05
245.4810861854902,175.5894517944721,12.5,0,12.71965884500593,7.248563423469908,-3.92031193322223,3.490405756524304e-05,1.301967587909896e-05,-3.136249546577784e-05,7.346522474761532e-05,7.362322535814616e-05
242.0899690370832,169.8252987730809,12.5,0,10.98448714750797,7.527369715934899,-3.860243635891417,2.912846309927758e-05,1.52999933729853e-05,-3.088194908713133e-05,6.802311194137699e-05,6.783897537140801e-05
244.1242889388593,169.9247811230275,12.5,0,10.79314723795344,6.892993240891277,-3.580922238720425,2.902367656873797e-05,1.342306058048934e-05,-2.86473779097634e-05,6.50038723879853e-05,6.68957525086904e-05
242.5867620446187,171.9131457189019,12.5,0,11.74910657390728,7.860529696061423,-4.163810354773526,3.130871727965415e-05,1.575440976827073e-05,-3.331048283818821e-05,7.210426246843693e-05,7.049004460898069e-05
244.6209111989166,171.9981944928726,12.5,0,11.5634528208878,7.229530003106922,-3.88707832271615,3.121942502435542e-05,1.388373375323191e-05,-3.10966265817292e-05,6.912080089268552e-05,6.937068344250468e-05
238.5664236084218,169.6529902885199,12.5,0,10.88920380051754,8.103105012969735,-3.641420178872708,2.836296815128032e-05,1.721857300108912e-05,-2.913136143098166e-05,6.961824797306484e-05,6.931134282272454e-05
240.6007435101978,169.7524726384666,12.5,0,10.69870079333709,7.476024042700844,-3.354164322847425,2.825502330451802e-05,1.536431630197303e-05,-2.68333145827794e-05,6.661771418064151e-05,6.848623084527777e-05
239.0635123592646,171.765836921266,12.5,0,11.68433934101328,8.442276450353276,-3.946952645624447,3.063606473095986e-05,1.766781316831986e-05,-3.157562116499557e-05,7.382654517022699e-05,7.227800246072147e-05
241.0976615135626,171.8508856952366,12.5,0,11.49966464877143,7.818561629247904,-3.66228145530403,3.054407757267026e-05,1.581966549457615e-05,-2.929825164243224e-05,7.086252945443015e-05,7.126905839202728e-05
239.4274065807371,173.3125480049712,12.5,0,12.11339250040377,8.215620322178705,-3.695821293894137,3.219035974354911e-05,1.659927103064883e-05,-2.95665703511531e-05,7.451990825180282e-05,7.449387398810929e-05
241.4614307392058,173.3870306679929,12.5,0,11.92098159005334,7.551740270657799,-3.39797524961946,3.210574887164443e-05,1.462878359406229e-05,-2.718380199695568e-05,7.139482572114362e-05,7.332641530738516e-05
239.92449533158,175.4253946377172,12.5,0,12.94645437236696,8.573098511034853,-4.019496569625767,3.457017518274639e-05,1.707675173741796e-05,-3.215597255700614e-05,7.894114542575411e-05,7.758108794623851e-05
241.9583487425705,175.4854437247628,12.5,0,12.76012122842722,7.91276116317087,-3.724370647331221,3.450217900043042e-05,1.5112738739405e-05,-2.979496517864976e-05,7.585348916194648e-05,7.616439138293549e-05
246.3096514910678,159.7856874222751,12.5,0,8.240703821298533,6.344228623216289,-3.88963631721603,2.129486932958227e-05,1.37089685372533e-05,-3.111709053772824e-05,5.389187858854324e-05,5.338462122908042e-05
248.445296423845,160.0699227191431,12.5,0,7.995366247152189,5.706373860106898,-3.600853859906899,2.102007290280148e-05,1.186410335462032e-05,-2.880683087925519e-05,5.063679427945714e-05,5.29700485064038e-05
246.9221924700656,161.911452729075,12.5,0,8.973491158089978,6.693606022715318,-4.194715832273239,2.336028688771567e-05,1.424074634621703e-05,-3.355772665818591e-05,5.791295929386849e-05,5.564054101387622e-05
249.041095922152,162.1888685416851,12.5,0,8.728033102447959,6.051910404075894,-3.904527551023423,2.308817760457275e-05,1.238368681108449e-05,-3.123622040818739e-05,5.464669630577335e-05,5.513335266826605e-05
245.2486993937447,156.1037539059966,12.5,0,7.265379544147095,6.293602804599845,-3.728587511019952,1.821433229759082e-05,1.432722533940183e-05,-2.982870008815962e-05,5.011947891204266e-05,4.948474504839024e-05
247.4133414216717,156.3998008960803,12.5,0,7.02767394929058,5.681047983921533,-3.450992977160623,1.794371825059263e-05,1.255721438911644e-05,-2.760794381728498e-05,4.697255106994685e-05,4.921118664514355e-05
245.8612403727425,158.2295192127964,12.5,0,7.958227558928591,6.624107233699728,-4.017269254926663,2.016704240161171e-05,1.483056110069625e-05,-3.21381540394133e-05,5.391607703066031e-05,5.173518067140903e-05
248.0091409199787,158.5187467186224,12.5,0,7.720368292245981,6.007898498843085,-3.738329898714558,1.989885973611267e-05,1.304898056250108e-05,-2.990663918971646e-05,5.075895444792226e-05,5.138320890311449e-05
241.4994294212435,155.5909854777529,12.5,0,7.015244463788595,6.706390570709469,-3.482323345296954,1.708366982755593e-05,1.584825425523942e-05,-2.785858676237563e-05,5.057109028070435e-05,4.984195854519424e-05
243.6640714491705,155.8870324678366,12.5,0,6.779205178995428,6.094716549957946,-3.208983685274513,1.681768333281901e-05,1.407972881666908e-05,-2.56718694821961e-05,4.742755470657641e-05,4.965375986961181e-05
242.1409674953912,157.7285624777685,12.5,0,7.702452538530578,7.042789717525957,-3.774098437278736,1.901361634927708e-05,1.63749650652586e-05,-3.019278749822989e-05,5.436287793007773e-05,5.22272583369842e-05
244.2888680426274,158.0177899835945,12.5,0,7.466259501944085,6.427495341714824,-3.49945645372119,1.875003413284921e-05,1.459497749193217e-05,-2.799565162976952e-05,5.120917831929786e-05,5.196134303557933e-05
242.6106059606372,159.2933774468042,12.5,0,8.002414043665539,6.820306463818499,-3.6708675025762,2.015147976867492e-05,1.542304944928677e-05,-2.93669400206096e-05,5.460801906271056e-05,5.398520288567268e-05
244.7462508934144,159.5776127436721,12.5,0,7.754502232390323,6.170124675004878,-3.382988388416321,1.987830740364513e-05,1.354079717410335e-05,-2.706390710733057e-05,5.129124473372465e-05,5.365663102518997e-05
243.2521440347848,161.4309544468198,12.5,0,8.737959475296071,7.181763931163863,-3.984984910798651,2.221605917601633e-05,1.599127699948751e-05,-3.187987928638921e-05,5.867939273652236e-05,5.640269691799255e-05
245.3710474868712,161.70837025943,12.5,0,8.48991525833747,6.527694408326943,-3.695732420144673,2.194557330001835e-05,1.409668989997624e-05,-2.956585936115738e-05,5.535135159885258e-05,5.598066078049694e-05
192.6209903499524,120.1738673451321,12.5,0,-1.023165581119759,3.732834143882362,0.880580226569548,-6.260397174689118e-06,1.276360172531936e-05,7.044641812556385e-06,1.165662323375253e-05,1.14326855545092e-05
194.7562163149063,120.4700389849596,12.5,0,-1.093525573437053,3.654859705157306,1.030617395777706,-6.423169599124413e-06,1.257037151525302e-05,8.24493916622165e-06,1.126186029225581e-05,1.197094821363854e-05
193.2046067785211,122.2368866784828,12.5,0,-0.6440749780836765,3.843971341166505,0.8176884623209413,-5.136217002800968e-06,1.281596827419976e-05,6.54150769856753e-06,1.305458735037914e-05,1.286131271333525e-05
195.3475951806159,122.5265098587047,12.5,0,-0.7126483076193564,3.766789251145217,0.9667812614444851,-5.293905985298114e-06,1.262384424976018e-05,7.734250091555881e-06,1.263829597397972e-05,1.343558142003015e-05
191.6101370435576,116.600613042836,12.5,0,-1.662265390349294,3.497991421663292,0.9202415856269692,-8.117642386448374e-06,1.252338486160197e-05,7.361932685015754e-06,9.326653533421873e-06,9.245231661880292e-06
193.731918072993,116.9081269474116,12.5,0,-1.734424275085825,3.419333216686574,1.06863573623143,-8.285624253623897e-06,1.23294057134657e-05,8.54908588985144e-06,8.98457122707926e-06,9.710343311882207e-06
192.1937534721263,118.6636323761867,12.5,0,-1.285427158564211,3.6087318974721,0.8573582298682635,-7.000352425383155e-06,1.257628379876209e-05,6.858865838946107e-06,1.054115624587677e-05,1.046375955703652e-05
194.3232969387027,118.9645978211567,12.5,0,-1.355785005529424,3.53087421149766,1.00480807754095,-7.163211386892283e-06,1.238342548121605e-05,8.038464620327597e-06,1.016550213474069e-05,1.097277367097772e-05
187.9351044981057,116.0679833360867,12.5,0,-1.742883208691673,3.267908851549759,1.088915307293352,-8.191553349053159e-06,1.185161489191257e-05,8.711322458346813e-06,8.458527492878829e-06,8.460594028183995e-06
190.0568855275411,116.3754972406623,12.5,0,-1.810201924198366,3.209054411813415,1.236537249528407,-8.359889686885503e-06,1.171713565716162e-05,9.892297996227256e-06,8.229916870736494e-06,8.910362350582405e-06
188.505275991156,118.1423449341855,12.5,0,-1.364608044458633,3.373674600750384,1.03393803051107,-7.065685422867932e-06,1.188744515796814e-05,8.271504244088557e-06,9.595822011784326e-06,9.59688715194649e-06
190.6348194577323,118.4433103791555,12.5,0,-1.430154898592145,3.315503316712243,1.180656021414287,-7.228898328864657e-06,1.175373453235289e-05,9.445248171314298e-06,9.333877258817901e-06,1.009509187539671e-05
188.9226704930785,119.660883017199,12.5,0,-1.103020199085254,3.489501466387224,1.06069909099313,-6.32126581018259e-06,1.204882085170732e-05,8.485592727945038e-06,1.064773480210452e-05,1.050971544228115e-05
191.0578964580323,119.9570546570265,12.5,0,-1.167013026155506,3.434843430740081,1.207979261161279,-6.482316428289682e-06,1.192510939929266e-05,9.663834089290236e-06,1.038206317354883e-05,1.104114941348229e-05
189.4928419861287,121.7352446152978,12.5,0,-0.727468206035131,3.59362572583895,1.007374156693122,-5.202798839983578e-06,1.208157688751274e-05,8.058993253544974e-06,1.196939482649371e-05,1.186731558640521e-05
191.6358303882236,122.0248677955197,12.5,0,-0.7897293189300457,3.539619551646824,1.153765558438576,-5.358829461893605e-06,1.195856602041387e-05,9.230124467508611e-06,1.16813352829521e-05,1.24410971497112e-05
174.3888362837136,115.4770280468824,12.5,0,-1.84328513321914,2.436574942092254,1.588944036038715,-7.84777237997505e-06,9.271667921270524e-06,1.271155228830972e-05,6.05349999603054e-06,6.331161205148893e-06
176.1998054612705,115.4427300683565,12.5,0,-1.840394267284724,2.425916378576789,1.70619244656454,-7.829994758172545e-06,9.235247825273502e-06,1.364953957251632e-05,6.154601811409605e-06,6.560217859807754e-06
174.8451941596662,116.8932856461594,12.5,0,-1.53441885954094,2.51740040888868,1.547258381192192,-6.924060677641951e-06,9.283216396076526e-06,1.237806704953754e-05,6.75820626457313e-06,6.916249643774096e-06
176.6013585005178,117.0982868516218,12.5,0,-1.578510465818712,2.493692393430473,1.678627115230154,-7.046187405364258e-06,9.242624031632484e-06,1.342901692184123e-05,6.74725786440649e-06,7.257560804225489e-06
175.1792713112835,117.9300581653916,12.5,0,-1.344283503716535,2.525044743921974,1.584768670985333,-6.32174300703049e-06,9.155569983523544e-06,1.267814936788266e-05,7.175602201648553e-06,7.385683344926925e-06
176.8953157271679,118.3102385317358,12.5,0,-1.402364098420275,2.537505637062297,1.692867059192182,-6.517569624594718e-06,9.241909317335569e-06,1.354293647353746e-05,7.219360110255394e-06,7.819941592336313e-06
175.635629187236,119.3463157646686,12.5,0,-1.030970125714398,2.594054664151231,1.55817651582965,-5.374348133607059e-06,9.125751025855456e-06,1.24654121266372e-05,8.029323530616576e-06,8.083111628690885e-06
177.2968687664152,119.9657953150011,12.5,0,-1.147431353682029,2.595542772999057,1.678934969033422,-5.748214550181738e-06,9.223681956542604e-06,1.343147975226737e-05,7.905203599660319e-06,8.659051534303298e-06
178.1515474275869,118.588549875928,12.5,0,-1.238768378439375,2.760196274021697,1.493805260365896,-6.172215830223358e-06,9.823642779620929e-06,1.195044208292717e-05,8.076736703317184e-06,8.150824392289961e-06
179.8675918434714,118.9687302422722,12.5,0,-1.288406490752255,2.813743921718773,1.601752309893662,-6.373895907782235e-06,1.003470574210188e-05,1.28140184791493e-05,8.254352631937562e-06,8.620554765743018e-06
178.5129805418671,120.4192858200751,12.5,0,-0.8485144497775351,2.840819131874944,1.498901751293921,-4.987901544788067e-06,9.769432781821848e-06,1.199121401035137e-05,9.250882808147749e-06,9.103930620051155e-06
180.1742201210463,121.0387653704076,12.5,0,-0.9528366751342002,2.886738452422695,1.612379340555425,-5.358468122367596e-06,9.999832387859984e-06,1.28990347244434e-05,9.26400358546623e-06,9.743422979978352e-06
177.5255269101271,115.4176222054797,12.5,0,-1.880903135298636,2.599980209926677,1.489469955436402,-8.098874200896977e-06,9.824659180004275e-06,1.191575964349121e-05,6.37904247802934e-06,6.730733902346061e-06
179.336496087684,115.3833242269538,12.5,0,-1.863811809439136,2.646664684383101,1.604268296485018,-8.081529537711714e-06,9.960376437577229e-06,1.283414637188014e-05,6.660776849585232e-06,6.967535739427236e-06
177.8869600244072,117.2483581496268,12.5,0,-1.51425118653622,2.681512428854017,1.482650897818659,-6.990813739999116e-06,9.792240721561828e-06,1.186120718254927e-05,7.25362257819547e-06,7.514928248320481e-06
179.6431243652589,117.4533593550892,12.5,0,-1.540550458100716,2.720790792364743,1.604276288084879,-7.106394099814085e-06,9.93897090204775e-06,1.283421030467903e-05,7.450240879876736e-06,7.876758021380637e-06
270.6470821791923,154.4638835649961,12.5,0,7.375645249923899,3.127876897109323,-4.204642006701303,2.109976328206901e-05,4.108689870810714e-06,-3.363713605361042e-05,3.994081377809184e-05,3.968766127778857e-05
272.9446195349503,154.8870612383988,12.5,0,7.148595932599987,2.675273262181123,-3.928125226734683,2.073528837457506e-05,2.841997692899605e-06,-3.142500181387746e-05,3.744272425882808e-05,3.926784544858904e-05
271.0970717638855,156.6079087564194,12.5,0,8.008711136376309,3.36328861770098,-4.399875333389739,2.29372447422434e-05,4.355554667542089e-06,-3.519900266711791e-05,4.315110029954956e-05,4.125517501421942e-05
273.4096352421362,157.0365541651264,12.5,0,7.782254666561111,2.91320142924412,-4.124829129594128,2.257265378960026e-05,3.096440840332296e-06,-3.299863303675302e-05,4.066543913536512e-05,4.078307173052308e-05
271.4264870027438,158.1774441291822,12.5,0,8.198855335013237,3.00747017829407,-4.196365506711037,2.38303609294071e-05,3.064820302530434e-06,-3.35709240536883e-05,4.254549471938385e-05,4.238480608924373e-05
273.7500503660994,158.6100921979341,12.5,0,7.965730791045793,2.549307303794121,-3.911837551652447,2.345089268831124e-05,1.785198739304552e-06,-3.129470041321957e-05,4.00161059833863e-05,4.187336044135295e-05
271.8764765874371,160.3214693206055,12.5,0,8.843170075403943,3.245612728587803,-4.392330780824479,2.570165405842238e-05,3.311424671157814e-06,-3.513864624659583e-05,4.581231625201291e-05,4.390350184371916e-05
274.2150660732854,160.7595851246616,12.5,0,8.610655056371058,2.789970195354939,-4.109306171178279,2.532212002410343e-05,2.039380580038958e-06,-3.287444936942623e-05,4.329471607613592e-05,4.33368583124515e-05
275.451016802609,158.9268125660435,12.5,0,8.331902860624194,2.566691431625201,-4.126361927874329,2.460873600869726e-05,1.547890292701287e-06,-3.301089542299463e-05,4.155324157057223e-05,4.149268306383309e-05
277.7745801659646,159.3594606347954,12.5,0,8.109056646158139,2.139332086183216,-3.849473776217121,2.423751559875947e-05,3.58617358859779e-07,-3.079579020973697e-05,3.918093653685121e-05,4.096409877500334e-05
275.9270323948998,161.0803081528159,12.5,0,8.96501588628653,2.800735667017498,-4.314272857000774,2.644746230250289e-05,1.790341425426771e-06,-3.451418285600619e-05,4.475960039494545e-05,4.291794862568788e-05
278.265621880748,161.5184239568721,12.5,0,8.742728946418604,2.375706699242455,-4.038848016566898,2.607616726914557e-05,6.080782804409723e-07,-3.231078413253518e-05,4.239726541420566e-05,4.234010960888588e-05
274.6265336115811,155.1968487959453,12.5,0,7.533412167799184,2.706523815560139,-4.163395814061357,2.194169988450927e-05,2.634146475553097e-06,-3.330716651249086e-05,3.910592561447306e-05,3.895097889320486e-05
276.9240709673391,155.620026469348,12.5,0,7.314455408443985,2.279409997362268,-3.892343490935263,2.158272930913093e-05,1.442547664804068e-06,-3.11387479274821e-05,3.673814623880324e-05,3.850509919383869e-05
275.1025492038719,157.3503443827177,12.5,0,8.159799426531436,2.939890663232428,-4.352543979345186,2.375944563431465e-05,2.879810581118622e-06,-3.482035183476149e-05,4.228088179493806e-05,4.042973672764864e-05
277.4151126821225,157.7789897914247,12.5,0,7.941392493076441,2.51513168840938,-4.082932821276527,2.34003506271171e-05,1.695307408448865e-06,-3.266346257021222e-05,3.992381382397855e-05,3.993651083135847e-05
172.6333019768604,122.3532390260835,12.5,0,-0.6086647246534568,2.510029419805268,1.728274654130996,-3.955750654735276e-06,8.519025923099622e-06,1.382619723304797e-05,8.91213126458634e-06,8.982055932033036e-06
173.6563128939635,121.5499866746027,12.5,0,-0.6284680752505195,2.350932271492461,1.690035216136054,-3.891843657995631e-06,8.02575772897629e-06,1.352028172908844e-05,8.279973379119884e-06,8.771759202927984e-06
173.8735435021853,123.6093442713072,12.5,0,-0.5398682619994715,2.681854500775709,1.65542761053396,-3.873062039018876e-06,9.013829012081845e-06,1.324342088427168e-05,9.609599909569933e-06,9.89714569454e-06
175.0259695995566,122.6288735181465,12.5,0,-0.5546864671414584,2.551416944370254,1.620662985880227,-3.816130250348869e-06,8.608283395697977e-06,1.296530388704181e-05,9.081514316998539e-06,9.599148812932857e-06
174.7814633123412,124.5288771304257,12.5,0,-0.2445438592432395,2.72839592447995,1.680541255323029,-2.965257089162326e-06,8.92650204573043e-06,1.344433004258423e-05,1.058531935720397e-05,1.060133751331592e-05
176.0286278969355,123.4186735032046,12.5,0,-0.268580390350699,2.553883110716857,1.629345113461004,-2.902563737695722e-06,8.387290266574502e-06,1.303476090768803e-05,9.85213726685602e-06,1.023403619659262e-05
176.0217048376661,125.7849823756494,12.5,0,-0.185659227401151,2.887524204075132,1.614495047782621,-2.904128890943789e-06,9.388604834961343e-06,1.291596038226097e-05,1.12619048023177e-05,1.161013557806089e-05
177.3982846025285,124.4975603467484,12.5,0,-0.2054646471845339,2.737340451321272,1.56775226931373,-2.847359232047526e-06,8.923861161975696e-06,1.254201815450984e-05,1.062535992333838e-05,1.114119117590442e-05
178.1887803228145,121.495744414145,12.5,0,-0.682519790152557,2.564621781123004,1.54131719414018,-4.235760753386585e-06,8.752805531715658e-06,1.233053755312144e-05,8.729778920208202e-06,9.589477241753453e-06
179.7825906958987,122.2676799819485,12.5,0,-0.6402605638984331,2.83790322331622,1.511943521667195,-4.319156383127961e-06,9.593498765730649e-06,1.209554817333756e-05,9.772317973924508e-06,1.032667731296846e-05
176.9416157382202,122.6059480413661,12.5,0,-0.5774273643880712,2.818789930461902,1.641134943205868,-4.102799510411349e-06,9.482069668988543e-06,1.312907954564694e-05,9.981635780183164e-06,9.962909053982754e-06
178.4060109310362,123.5551020108495,12.5,0,-0.5487810657660197,3.055002829036863,1.600515947989788,-4.200101673680753e-06,1.021503390553078e-05,1.280412758391831e-05,1.086263567461398e-05,1.079728957026456e-05
174.4052088619489,120.9619651420446,12.5,0,-0.8449510691877722,2.618116361060456,1.679203899813688,-4.798336510249235e-06,9.053933210743676e-06,1.343363119850951e-05,8.659294628435743e-06,8.619469675903208e-06
175.4282197790521,120.1587127905637,12.5,0,-0.9248258136175085,2.408397412337342,1.605626880748326,-4.8861605334459e-06,8.4467323703735e-06,1.284501504598661e-05,7.690741610281824e-06,8.413703679698248e-06
175.8696040547649,121.911119111528,12.5,0,-0.8139877892211604,2.848116391884241,1.637957396649949,-4.883254039015106e-06,9.7651626854065e-06,1.310365917319959e-05,9.487138881143689e-06,9.379363972046358e-06
177.0220301521362,120.9306483583673,12.5,0,-0.880432140262377,2.678350240590719,1.574551401796661,-4.960063041312181e-06,9.275066482100202e-06,1.259641121437329e-05,8.678208595147415e-06,9.076897501592619e-06
270.2287545839386,222.0750170626861,12.5,0,16.32578041499884,0.5005782882460688,-0.225715511027467,5.184203469739944e-05,-1.145877380961165e-05,-1.805724088219736e-06,6.426554509359467e-05,6.549331763523774e-05
272.0793276629673,222.0752340844205,12.5,0,16.32408964625743,0.4937296665650357,-0.2986620270939552,5.184210313477174e-05,-1.147933678399783e-05,-2.389296216751642e-06,6.423993052924406e-05,6.42816984777887e-05
270.581706322479,223.9142909775764,12.5,0,16.13798152661922,0.4548210639159231,-0.2146640380620672,5.127768403404877e-05,-1.145495781676442e-05,-1.717312304496538e-06,6.340353024443117e-05,6.428931034544591e-05
272.4627242992605,223.8974572277318,12.5,0,16.13459536241828,0.4476755956528713,-0.2861916805865544,5.12725646832162e-05,-1.147511438384543e-05,-2.289533444692435e-06,6.337041764428821e-05,6.318836990150479e-05
270.8400849276993,225.260732932255,12.5,0,15.95738888201759,0.3117629614483324,0.02039743421255069,5.081423405329762e-05,-1.176826962897941e-05,1.631794737004056e-07,6.226992688366674e-05,6.336582971429599e-05
272.7433901164662,225.2314171513067,12.5,0,15.9601788353887,0.3383920395452322,-0.07987584603909705,5.080185864160763e-05,-1.168528854176621e-05,-6.390067683127764e-07,6.23622509203969e-05,6.235938022607844e-05
271.1930366662395,227.1000068471452,12.5,0,15.70410676667485,0.2437595776098984,0.04829529935484415,5.00581339912716e-05,-1.17832547649882e-05,3.863623948387532e-07,6.108936315035986e-05,6.204684099987321e-05
273.1267867527594,227.053640294618,12.5,0,15.70459072632299,0.2693163421728775,-0.04997349940051619,5.003923725049528e-05,-1.170186028610519e-05,-3.997879952041296e-07,6.116912941312091e-05,6.118786689005122e-05
274.1367062168939,225.20995651019,12.5,0,15.76662315367189,0.1735784575181816,0.1201257556608139,5.031433132573549e-05,-1.205784745887933e-05,9.61006045286511e-07,6.111657945529145e-05,6.173241980193804e-05
276.0400114056608,225.1806407292417,12.5,0,15.77251999136547,0.2106600104453489,0.03273503351777773,5.030353596401321e-05,-1.194390395966726e-05,2.618802681422219e-07,6.125138322901952e-05,6.102598155699629e-05
274.5423900651725,227.0196976223976,12.5,0,15.54841902732665,0.1116396785852158,0.1514855315127195,4.96656291445771e-05,-1.208148825038863e-05,1.211884252101756e-06,6.009029661998541e-05,6.066324768089047e-05
276.4761401516923,226.9733310698705,12.5,0,15.55223596300256,0.1475010985249083,0.06593292956611277,4.964915420278826e-05,-1.196978525512234e-05,5.274634365289022e-07,6.021293301342834e-05,6.008893545659773e-05
273.4340411798779,222.0753929553564,12.5,0,16.09509001506081,0.3075307331967756,-0.0917381821638019,5.125826346163715e-05,-1.189197366581896e-05,-7.339054573104152e-07,6.278654709168613e-05,6.350639088084027e-05
275.2846142589066,222.0756099770907,12.5,0,16.09919771331015,0.3238800395514936,-0.1612236409487917,5.125832865095128e-05,-1.184294204408334e-05,-1.289789127590334e-06,6.285311223669238e-05,6.259983029184197e-05
273.8397250281565,223.8851340675641,12.5,0,15.91798565719568,0.2599878094268786,-0.0710942784286849,5.072956385548466e-05,-1.190242753559053e-05,-5.687542274294792e-07,6.19608308643759e-05,6.249423772630692e-05
275.7207430049381,223.8683003177194,12.5,0,15.92036400622253,0.2755930941120823,-0.1391118419135176,5.072469034462243e-05,-1.185439330381936e-05,-1.11289473530814e-06,6.201827026339107e-05,6.169877380035852e-05
225.7575992716294,197.9711810763322,12.5,0.510881582513325,16.23128549380676,10.52309739328486,-2.946278852858326,8.897975236587651e-05,4.229831166402518e-05,-4.818921140606759e-05,0.0001995908168603378,0.0001976487374238898
227.368181227384,196.790616025147,12.5,0.489136655458931,17.66703702498119,10.4463501267027,-2.825276450616128,9.430592132590282e-05,3.776879079628813e-05,-4.424316570458503e-05,0.0002009548934149344,0.0001897540028404749
226.1308482336356,199.6160627080386,12.5,0.5447052161185615,16.18642342378415,10.20281024755821,-3.074390904233974,9.583748442289496e-05,4.32683499802381e-05,-5.402022624594028e-05,0.0002116442887447184,0.0002113282776903948
227.9929890220582,198.3592462662155,12.5,0.5226536589484766,17.50497074024576,10.22876545742322,-2.999585543971306,0.0001002058461315092,3.923372038487302e-05,-5.027101349286411e-05,0.0002122816771747815,0.0002022037712604162
228.5472090487,195.9263824260761,12.5,0.4688142841313082,16.50912949756277,10.14517592765113,-2.691593140911095,8.417597144335287e-05,3.625334566638417e-05,-4.053713133470558e-05,0.0001831393192468023,0.0001829264143557922
230.1577910044547,194.7458173748908,12.5,0.4335137901536283,17.90249262067141,10.099539295896,-2.843381743416945,8.686591852390683e-05,3.176870211052559e-05,-4.015464728347836e-05,0.0001806447065820278,0.0001721678303050888
229.356170689972,197.4391927750521,12.5,0.501372810515176,16.11712953651936,10.00476547448675,-2.877660841645544,8.738192191703307e-05,3.834838190211465e-05,-4.616933696886783e-05,0.0001912655394142646,0.0001941169240955851
231.2183114783946,196.182376333229,12.5,0.4632680625604806,17.56949415055067,10.14002435179916,-3.058318700077652,8.963573516760227e-05,3.426753901222671e-05,-4.558429989714964e-05,0.000188687251339055,0.0001811477531972615
227.1460463846677,193.3061180394805,12.5,0.4053821136269625,16.61683194807683,10.29884155192913,-2.638482607145939,7.556918488676675e-05,3.306800528259947e-05,-3.549819361458857e-05,0.0001651633662769041,0.0001644609712562543
228.3209156611566,192.2576242710256,12.5,0.3742157977930617,17.83498963499838,10.35540633378527,-2.770496406435303,7.796240555915021e-05,3.01530599423383e-05,-3.541791431186225e-05,0.0001645273345643449,0.000156691400553527
227.9550080259397,194.8189283884566,12.5,0.4431611448304088,16.2310017172103,10.13072511216963,-2.8265658189222,7.87204861844401e-05,3.489971794309486e-05,-4.060874405844168e-05,0.0001728031222345743,0.0001749801257419653
229.3814361350966,193.6941832293638,12.5,0.409760641878434,17.4492342342339,10.31708603111245,-2.970737753130349,8.061793926466372e-05,3.228400080404004e-05,-4.026485475431131e-05,0.0001718402144577356,0.0001656147703645933
225.1111131055737,195.1221625178311,12.5,0.4469165078369327,16.35944960580148,10.49082313932419,-2.780295198159886,7.947729565239894e-05,3.703432601303734e-05,-4.021519698281159e-05,0.0001771035531899444,0.0001760998956570849
226.2859823820627,194.0736687493762,12.5,0.4246458962166317,17.66973739715726,10.52636697388014,-2.753115438371544,8.363904207054718e-05,3.397661417576517e-05,-3.828064032591858e-05,0.0001789104650891898,0.0001696614618453942
225.48436206758,196.7670441495375,12.5,0.4846682083690489,16.29331729271659,10.17865827843177,-2.925746271122454,8.537351940719133e-05,3.791159981606494e-05,-4.541922417575499e-05,0.0001875333327450148,0.0001882093209077031
226.9107901767369,195.6422989904447,12.5,0.4629106428845097,17.43311267948229,10.27663836734859,-2.918232954636392,8.856003056161217e-05,3.526182818747842e-05,-4.346737340407041e-05,0.0001884525289810402,0.0001810343173131473
270.403896374714,216.1034593519194,12.5,0,16.64382093333339,0.916289097299416,-0.7253894600354333,5.252719570882731e-05,-1.038293163530858e-05,-5.803115680283466e-06,6.679056847103666e-05,6.773441633121959e-05
271.8228755664834,216.4819913014076,12.5,0,16.58982908519893,0.7593704242042829,-0.6879504654526013,5.247995673327314e-05,-1.084187791070544e-05,-5.50360372362081e-06,6.60959948076184e-05,6.655088141073657e-05
270.3056640935729,217.8136615458134,12.5,0,16.70103409022537,0.9222989756859943,-0.7818640500297045,5.270546990817238e-05,-1.040947054998511e-05,-6.254912400237636e-06,6.703285909952483e-05,6.726062349427055e-05
271.8603566289109,218.0720951223681,12.5,0,16.65702570240713,0.7799601989996074,-0.7528611071378746,5.267851408850312e-05,-1.082974792512696e-05,-6.022888857102997e-06,6.642199755635128e-05,6.602928731980638e-05
270.2337530728373,219.0656164429064,12.5,0,16.5370759809667,0.7512428741676165,-0.4678182470893957,5.231764883975934e-05,-1.082568358743699e-05,-3.742545976715165e-06,6.585614414994556e-05,6.684350589848383e-05
271.8877946709283,219.2361319085711,12.5,0,16.51147803911749,0.6208955440831763,-0.489824701775676,5.234001328990943e-05,-1.122231669022783e-05,-3.918597614205408e-06,6.53575144110648e-05,6.559397635827732e-05
270.1355207916963,220.7758186368004,12.5,0,16.47140891292988,0.7285264211231341,-0.513066959822615,5.212568738447712e-05,-1.084584258274988e-05,-4.10453567858092e-06,6.553602396924441e-05,6.617771227096411e-05
271.9252757333558,220.8262357295315,12.5,0,16.44267278933831,0.6065043964702661,-0.5368974777540431,5.213134940870636e-05,-1.121332416276579e-05,-4.295179822032345e-06,6.505132253943673e-05,6.492627878516793e-05
273.0986371585118,219.3609578929085,12.5,0,16.28428677631597,0.4704251188813329,-0.3111566970286615,5.173337758910602e-05,-1.152206904063251e-05,-2.489253576229292e-06,6.40159647474682e-05,6.477287077748717e-05
274.7526787566027,219.5314733585732,12.5,0,16.28058861785474,0.4210075780841169,-0.342744040000907,5.176107751466786e-05,-1.167724664441461e-05,-2.741952320007256e-06,6.385147203003353e-05,6.377909815250124e-05
273.2354672836923,220.8631436029791,12.5,0,16.21724761980076,0.4570155633717032,-0.3235484518158537,5.152957993266507e-05,-1.151134829305116e-05,-2.58838761452683e-06,6.371770866919754e-05,6.411694876673187e-05
275.0252222253517,220.9135606957101,12.5,0,16.20783618588746,0.4108147055592957,-0.3534241793673324,5.153642403039243e-05,-1.165166189092022e-05,-2.827393434938659e-06,6.354113289510289e-05,6.315725152197606e-05
272.8616404296975,216.7590959207093,12.5,0,16.43621278847191,0.6137383415384825,-0.5365588226599496,5.210489024987932e-05,-1.118500753785438e-05,-4.292470581279597e-06,6.504872350704611e-05,6.575690144100418e-05
274.2806196214668,217.1376278701974,12.5,0,16.411875655399,0.5154620505349987,-0.5270692183005286,5.210563245684882e-05,-1.148002196260721e-05,-4.216553746404228e-06,6.465303450707717e-05,6.477124274389413e-05
272.9984705548779,218.2612816307797,12.5,0,16.43733469076932,0.6212000582579211,-0.5680673544869496,5.210251096385548e-05,-1.116202756619011e-05,-4.544538835895597e-06,6.507765744386237e-05,6.521229477217001e-05
274.5531630902159,218.5197152073343,12.5,0,16.41569703593247,0.5341374116756672,-0.5629461568816422,5.210292058564336e-05,-1.142331791138384e-05,-4.503569255053137e-06,6.472689797066582e-05,6.421156579699164e-05
214.8296452846429,175.0031137133839,12.5,0,12.52599493390433,9.394653582483381,-1.200222108068213,3.256746092250714e-05,2.004209551682336e-05,-9.601776864545707e-06,7.968020655138602e-05,7.977055882378173e-05
216.0706634057985,176.2701154422186,12.5,0,12.84153118911805,9.936405264770757,-1.459807595375408,3.314377559336115e-05,2.152327189597198e-05,-1.167846076300326e-05,8.279794080235915e-05,8.319449748582064e-05
213.6772161241887,176.1801271920152,12.5,0,12.46848444082645,9.767484063373903,-1.101062826804402,3.208516295994551e-05,2.128116145013533e-05,-8.808502614435221e-06,8.078679694299716e-05,8.124082645075674e-05
215.0277434769883,177.2758562717866,12.5,0,12.78458296384859,10.37643901199964,-1.353828413544006,3.260951427471576e-05,2.297693846731999e-05,-1.083062730835205e-05,8.414721428087879e-05,8.454869135436027e-05
215.6732819821835,174.141480045869,12.5,0,11.73323549545507,9.731369004483462,-1.260224404349376,2.976125838186945e-05,2.175379241798302e-05,-1.008179523479501e-05,7.797417776697655e-05,7.86589295717212e-05
216.8257111426377,172.9644665672377,12.5,0,11.85669505561286,9.378136821801451,-1.334202986543867,3.043891472051999e-05,2.052468178527435e-05,-1.067362389235093e-05,7.717292057589492e-05,7.709216960275796e-05
216.8341337818812,175.5338620557596,12.5,0,12.16298106940537,10.28770906103938,-1.572530540906798,3.069137217326568e-05,2.319028413980172e-05,-1.258024432725438e-05,8.157731708900084e-05,8.215959596279163e-05
217.8770537106914,174.5281212261916,12.5,0,12.29162636169209,9.874140792367026,-1.648220421384794,3.143389172352107e-05,2.176394944622081e-05,-1.318576337107835e-05,8.05793230579139e-05,8.068638628946541e-05
215.0047323986417,170.2561372524863,12.5,0,10.77308461179155,8.843544139688319,-0.9271253365950928,2.73990354459823e-05,1.968087355756938e-05,-7.417002692760742e-06,7.124376898612728e-05,7.129811298054939e-05
216.0560749666953,171.8197919114403,12.5,0,11.11120248603642,9.262663088974932,-1.188933515265431,2.814571748413659e-05,2.075155989589065e-05,-9.511468122123446e-06,7.400893453714984e-05,7.457658935138955e-05
213.6626276850855,171.7298036612369,12.5,0,10.66194859752232,9.209136976583581,-0.828131259324183,2.675092593080455e-05,2.09396794470496e-05,-6.625050074593464e-06,7.213934082921883e-05,7.30902425120059e-05
214.8234794847832,173.1221856711276,12.5,0,10.99514538154582,9.676933257470203,-1.084720759301111,2.744291861497047e-05,2.217007011866799e-05,-8.67776607440889e-06,7.506035406414252e-05,7.622880363878638e-05
212.6801388457265,172.808602345804,12.5,0,11.59043883719506,8.968557899776005,-0.820826837318484,2.991455795920339e-05,1.942703420952717e-05,-6.566614698547872e-06,7.468510660703878e-05,7.434076202724691e-05
213.9211569668821,174.0756040746388,12.5,0,11.85135674014815,9.420736619332674,-1.036783467246789,3.038775227300793e-05,2.066527178974604e-05,-8.294267737974314e-06,7.727519213192053e-05,7.739820755773194e-05
211.3380341321704,174.2822687545547,12.5,0,11.52444380529828,9.336330238840668,-0.709586184495254,2.940915598588197e-05,2.065670172005151e-05,-5.676689475962032e-06,7.574812049870244e-05,7.596511534743052e-05
212.68856148497,175.377997834326,12.5,0,11.7836524508636,9.840017582065371,-0.9177316190950237,2.983567377711123e-05,2.206113430191831e-05,-7.34185295276019e-06,7.851658956131844e-05,7.894086419160033e-05
229.9347415601208,138.7099300728519,12.5,0,2.853492333396725,6.080207287239205,-2.071164065690966,4.267009637078155e-06,1.717386945244807e-05,-1.656931252552772e-05,3.309666434385428e-05,3.212785607606282e-05
232.297316223595,139.2263947733057,12.5,0,2.711828347261736,5.909676544902021,-1.878141495528332,3.950109475315939e-06,1.674150226587708e-05,-1.502513196422665e-05,3.190600546732341e-05,3.267498927912428e-05
230.0160095919495,141.2262722192497,12.5,0,3.325061376380229,6.202347772020681,-2.129477477864694,5.678318186800186e-06,1.718746376936199e-05,-1.703581982291755e-05,3.518240898501474e-05,3.47473848406001e-05
232.4650221089143,141.634438406207,12.5,0,3.213209102606245,6.044734855802637,-1.946955408633621,5.446481243697875e-06,1.677258425648344e-05,-1.557564326906897e-05,3.414533954098083e-05,3.517365387242354e-05
230.0755019202767,143.0683625195614,12.5,0,3.765268845614799,6.50743763140831,-2.236358524784321,6.84291020084071e-06,1.781158534401475e-05,-1.789086819827456e-05,3.786618306257639e-05,3.671735470142743e-05
232.5877913376912,143.3972486922586,12.5,0,3.627048284626535,6.244014749606372,-2.003262343214184,6.611342711119813e-06,1.707920857103916e-05,-1.602609874571347e-05,3.632934468954431e-05,3.70401948506755e-05
230.1567699521053,145.5847046659592,12.5,0,4.30995699270332,6.650415054622873,-2.327220698731798,8.471530332952325e-06,1.783336258063054e-05,-1.861776558985439e-05,4.031632700751066e-05,3.947988368627863e-05
232.7554972230105,145.8052923251599,12.5,0,4.203076532961451,6.403481917516829,-2.106993521072741,8.32705937146318e-06,1.712868090968469e-05,-1.685594816858193e-05,3.895584476213694e-05,3.964101504458672e-05
234.426914834478,143.6380100805695,12.5,0,4.006499981236157,6.30988960479264,-2.589587939866387,7.772888256121589e-06,1.698644675034752e-05,-2.07167035189311e-05,3.812056314573224e-05,3.722798357415775e-05
236.9392042518925,143.9668962532666,12.5,0,3.856178899956132,5.991671141325416,-2.358664685829536,7.546435566799288e-06,1.608840453227642e-05,-1.886931748663629e-05,3.633415419627629e-05,3.741819175857348e-05
234.657897620247,145.9667736992106,12.5,0,4.500339868328794,6.456886611297314,-2.702642853439903,9.23557828961429e-06,1.706176526148837e-05,-2.162114282751922e-05,4.042424159093369e-05,3.971528571949473e-05
237.2566248911521,146.1873613584113,12.5,0,4.382020337575812,6.159050865976238,-2.48684731571892,9.095224387461608e-06,1.620334650106331e-05,-1.989477852575136e-05,3.883262583159499e-05,3.975706561855636e-05
234.0268409138595,139.6044731743376,12.5,0,3.168167592286867,6.028025437445007,-2.437729725686294,5.315715945361968e-06,1.675514732599453e-05,-1.950183780549035e-05,3.413404744055514e-05,3.303164942456522e-05
236.3894155773336,140.1209378747913,12.5,0,2.980379904423411,5.718905680891859,-2.212597403649741,4.962091149441426e-06,1.591619425531522e-05,-1.770077922919793e-05,3.225183163168387e-05,3.345892985992473e-05
234.2578236996285,141.9332367929787,12.5,0,3.655943047049591,6.173193782441476,-2.549301709502832,6.760462724605509e-06,1.682946566617305e-05,-2.039441367602266e-05,3.639078129456152e-05,3.543710862648378e-05
236.7068362165933,142.341402979936,12.5,0,3.503773923568268,5.885470410611278,-2.340083324248144,6.503700226929434e-06,1.603048617510147e-05,-1.872066659398515e-05,3.47171500097124e-05,3.573061136827909e-05
205.2854606149212,165.7911844660666,12.5,0,8.842398661037098,7.383545236177076,0.004199493734013829,2.238883952637705e-05,1.655342582693696e-05,3.359594987211063e-08,5.889058725282456e-05,5.93235320003483e-05
206.5785627804369,166.3084514298776,12.5,0,8.892034430892309,7.797208813899669,-0.006227075969098125,2.221674312773565e-05,1.783744065976509e-05,-4.9816607752785e-08,6.055771888105172e-05,6.074707216053369e-05
204.5275274228646,167.0181832657153,12.5,0,9.042680160548548,7.670566582120418,0.1893939741064795,2.280012324805901e-05,1.73116689343465e-05,1.515151792851836e-06,6.065604812464969e-05,6.049454128261334e-05
205.8705018134548,167.7285921167347,12.5,0,9.069431135162095,8.021933544796436,0.1626573725671911,2.260463279668155e-05,1.841464243521892e-05,1.301258980537529e-06,6.201611338541501e-05,6.22577817826765e-05
203.0457419649108,164.8952518036853,12.5,0,8.522272923293912,7.026013264007055,0.2320855458740891,2.165046274333487e-05,1.566542410618744e-05,1.856684366992713e-06,5.643841343628518e-05,5.690948951728155e-05
204.3388441304265,165.4125187674962,12.5,0,8.599744273732941,7.454920951401051,0.1963099339032451,2.155524491482457e-05,1.697595162549701e-05,1.570479471225961e-06,5.826016605838289e-05,5.82952548302332e-05
202.2014275451404,165.7877190416252,12.5,0,8.649489786081851,7.327655814546375,0.3657810461564622,2.181624266382482e-05,1.652890677768292e-05,2.926248369251698e-06,5.799071643969113e-05,5.751249546370694e-05
203.5444019357305,166.4981278926446,12.5,0,8.704920906002583,7.679133886232362,0.3188720049816156,2.171243979022237e-05,1.760929171114149e-05,2.550976039852925e-06,5.945455014009833e-05,5.922304564563056e-05
200.7390320725615,167.3335176418,12.5,0,9.036578900245278,7.179835912931619,0.4255946369730403,2.317318375043959e-05,1.574621180118496e-05,3.404757095784323e-06,5.888472750137879e-05,5.847432863946569e-05
201.5833464923318,166.4410504038601,12.5,0,8.972998786102469,6.914147294377859,0.3210542037725652,2.318227828002561e-05,1.494687231312717e-05,2.568433630180521e-06,5.769835640312628e-05,5.793179284276775e-05
202.1683876908654,168.3784580545282,12.5,0,9.131822462434691,7.549911325707163,0.3228481649287822,2.318190281922528e-05,1.685425827231517e-05,2.582785319430257e-06,6.05539787712575e-05,6.073102091240523e-05
202.9628298855613,167.2928489293798,12.5,0,9.083884235128233,7.34692066795172,0.2192662299976345,2.319089301804897e-05,1.624303874934291e-05,1.754129839981076e-06,5.964834370684162e-05,5.987570720027935e-05
203.97268181756,167.916408727846,12.5,0,9.512994149260459,7.436005591345491,0.08729582116960392,2.449277680455708e-05,1.61848225728972e-05,6.983665693568314e-07,6.154201431377175e-05,6.132604029831606e-05
205.3521652107895,168.7682072533657,12.5,0,9.594489076758279,7.818815683984436,0.006981104076384751,2.444731249843894e-05,1.734461892734357e-05,5.584883261107801e-08,6.320918620489292e-05,6.334450965270796e-05
203.2147486255034,169.1434075274947,12.5,0,9.588408710069487,7.655274307375357,0.2221638809024183,2.455868842632207e-05,1.682615081554555e-05,1.777311047219347e-06,6.260459113016741e-05,6.242672857349097e-05
204.6441042438073,170.1883479402228,12.5,0,9.657698163077615,7.991665081951227,0.1369633770382725,2.451130205628738e-05,1.784716973178183e-05,1.09570701630618e-06,6.406104995640854e-05,6.480279578561843e-05
190.3614835579733,158.7808870239704,12.5,0,6.612918489065519,5.314003648552048,1.034008322748385,1.691013624616802e-05,1.171447688411414e-05,8.27206658198708e-06,4.337941516238494e-05,4.319327171671345e-05
191.8908669951245,157.8289945615574,12.5,0,6.716341480132774,5.183961232231676,1.08255627996246,1.734512375063953e-05,1.121560275903514e-05,8.660450239699678e-06,4.330352628489387e-05,4.307320103975686e-05
191.5146619467921,160.3314817571026,12.5,0,6.882443522042446,5.499807119077883,0.9039546785866536,1.762397357527352e-05,1.209342796341527e-05,7.231637428693229e-06,4.501262473089689e-05,4.530268037908996e-05
193.0272141667808,159.3853424647149,12.5,0,6.987421402504446,5.368914751723008,0.9526921180965862,1.806461668663582e-05,1.159059008351007e-05,7.621536944772689e-06,4.493846535731645e-05,4.518930809160526e-05
187.7125137406206,160.4296131321818,12.5,0,6.926308217969168,5.014669367738183,1.08434242281072,1.815245080331079e-05,1.050589540238685e-05,8.674739382485757e-06,4.347568858033173e-05,4.32956715737505e-05
189.2418971777719,159.4777206697689,12.5,0,7.039559175608801,4.904426394988708,1.140342991445466,1.860304824595719e-05,1.006251712347682e-05,9.122743931563729e-06,4.351312738911934e-05,4.325288251663491e-05
188.8948446527178,161.970243082526,12.5,0,7.199977404886687,5.190993149393032,0.9576221605899922,1.888713317612297e-05,1.085119615414835e-05,7.660977284719938e-06,4.509038931828047e-05,4.538949136642806e-05
190.4073968727064,161.0241037901382,12.5,0,7.314879767114394,5.080071726315579,1.013889397170304,1.93435578737136e-05,1.040432571051833e-05,8.11111517736243e-06,4.513040075640888e-05,4.535631932591529e-05
189.7603709516953,163.0980624817923,12.5,0,7.574538323519697,5.373373468212698,0.9623341472460143,1.993982386069287e-05,1.113516443946487e-05,7.698673177968115e-06,4.711948282383122e-05,4.696387248778493e-05
191.2606018655683,162.1561348021674,12.5,0,7.695883417849498,5.259729864589644,1.021582738248221,2.041904304544668e-05,1.067442883240726e-05,8.172661905985767e-06,4.717459434396337e-05,4.693875185995117e-05
190.9427018637924,164.6386924321365,12.5,0,7.868261975255296,5.56112813372853,0.8269901481712871,2.072953581383412e-05,1.150100044772706e-05,6.615921185370297e-06,4.885244193277607e-05,4.917134190931447e-05
192.4261015605028,163.7025179225367,12.5,0,7.991407193657012,5.446786223134239,0.8865228808836696,2.121507404119504e-05,1.103659015910395e-05,7.092183047069356e-06,4.891059892768605e-05,4.91586011333906e-05
192.3588471175621,161.4665958836559,12.5,0,7.259740133265343,5.684217867022078,0.9097818805893203,1.868379413283143e-05,1.238170506785837e-05,7.278255044714562e-06,4.705689248318552e-05,4.689035966520386e-05
193.859078031435,160.524668204031,12.5,0,7.366700802710969,5.544932451886067,0.9584137329540923,1.913749660716625e-05,1.185042320386663e-05,7.667309863632738e-06,4.696097461857457e-05,4.678327035829257e-05
193.512025506381,163.0171906167881,12.5,0,7.544868343530371,5.884081610969673,0.7706679786616494,1.943631341052145e-05,1.279316648027866e-05,6.165343829293195e-06,4.88014221360644e-05,4.911857147879958e-05
194.9954252030913,162.0810161071884,12.5,0,7.653477793909525,5.743872357833823,0.8194739091160177,1.989603105424342e-05,1.225760930994061e-05,6.555791272928142e-06,4.870731643457976e-05,4.902194920456672e-05
205.972241970899,132.6686177893096,12.5,0,1.310233278241397,5.17276816021559,0.05383201045487034,5.453196219999779e-08,1.550467149009677e-05,4.306560836389627e-07,2.403145447242172e-05,2.351023878493794e-05
208.1682825786444,133.1109861459368,12.5,0,1.244688503937267,5.207123232310813,0.1969513808078706,-1.826953732493953e-07,1.566704354024478e-05,1.575611046462965e-06,2.395197799832704e-05,2.431873755326671e-05
206.1685305711142,134.6805267978237,12.5,0,1.676611896917758,5.259726837263871,0.05938940105359156,1.157376600325729e-06,1.548983636171018e-05,4.751152084287325e-07,2.557768010624661e-05,2.537748232845786e-05
208.3342048446292,135.1313098531296,12.5,0,1.607392121299971,5.293937883625545,0.2045556687344278,9.085044812594728e-07,1.565468753056176e-05,1.636445349875422e-06,2.548163715071625e-05,2.62182754478869e-05
206.3122237994121,136.1533464121988,12.5,0,1.994420788548701,5.448037895438542,0.0243727990520572,2.023716207005009e-06,1.583818463456437e-05,1.949823924164576e-07,2.735869271217161e-05,2.677779313173583e-05
208.4556683734318,136.6102894544678,12.5,0,1.926663003650673,5.48882933049783,0.1657207688361993,1.774258147283891e-06,1.602292345467252e-05,1.325766150689594e-06,2.728814743938733e-05,2.764249719461156e-05
206.5085123996271,138.1652554207127,12.5,0,2.367428996974979,5.535882872455115,0.03284153707452464,3.14706649235584e-06,1.582088199427638e-05,2.627322965961972e-07,2.895667212142829e-05,2.873626984932157e-05
208.6215906394166,138.6306131616606,12.5,0,2.29581733713278,5.576616142781797,0.1762407935495484,2.885322564599458e-06,1.600851778719553e-05,1.409926348396387e-06,2.886971890899028e-05,2.963400547345307e-05
210.0247787047554,136.9447949775596,12.5,0,2.166497160647622,5.69168528303164,-0.273412707039444,2.379442687647077e-06,1.648019517718315e-05,-2.187301656315552e-06,2.887067669699397e-05,2.826516617185876e-05
212.1682232787752,137.4017380198287,12.5,0,2.097813289453114,5.727648801295536,-0.1321998393578012,2.130883485213537e-06,1.665022553258322e-05,-1.05759871486241e-06,2.876822224698564e-05,2.910162539119165e-05
210.1684712712449,138.9712786717155,12.5,0,2.541219999678226,5.78172396542736,-0.262857229163337,3.506524826628435e-06,1.646854068962497e-05,-2.102857833306696e-06,3.048444802479036e-05,3.027976585601835e-05
212.2815495110343,139.4366364126634,12.5,0,2.468705843674357,5.817542267103068,-0.1196374458428857,3.245824886075489e-06,1.664117057979033e-05,-9.570995667430859e-07,3.036594885504795e-05,3.114628040664531e-05
209.7758958789301,133.4348222586348,12.5,0,1.468738189748586,5.401348458991622,-0.2388563907431308,3.788834400021785e-07,1.610932451697432e-05,-1.910851125945046e-06,2.543213439964559e-05,2.490181569675802e-05
211.9719364866754,133.877190615262,12.5,0,1.40220083354875,5.432662427530176,-0.09505068317778638,1.4091272533186e-07,1.626275910125756e-05,-7.60405465422291e-07,2.532568493786451e-05,2.568631604129818e-05
209.9195884454196,135.4613059527907,12.5,0,1.839218499162695,5.490762473089626,-0.2306443570902165,1.492889218848923e-06,1.609906511455665e-05,-1.845154856721732e-06,2.700492256599283e-05,2.682414876979498e-05
212.0852627189346,135.9120890080967,12.5,0,1.769008427241321,5.521872447839961,-0.08482728824652842,1.243329008900258e-06,1.625478509129481e-05,-6.786183059722273e-07,2.688239990921485e-05,2.763863234883972e-05
317.3386910413452,215.8494008569303,12.5,0,13.7841522429342,-0.1547740039427832,-0.400041140209169,4.423310638054366e-05,-1.152259860696427e-05,-3.200329121673352e-06,5.251295437527886e-05,5.264465636930412e-05
319.4587056128839,215.7774949935733,12.5,0,13.77898483978926,-0.1924128141498578,-0.3505036454486783,4.424668173864553e-05,-1.163890887711095e-05,-2.804029163589426e-06,5.237758973148058e-05,5.229629805658958e-05
317.8901569165522,217.516785099213,12.5,0,13.91110141523167,-0.1118664181237103,-0.4289263210599135,4.460501766324031e-05,-1.148685367018121e-05,-3.431410568479308e-06,5.313144005971716e-05,5.306382419845911e-05
320.0283347760247,217.6913432372338,12.5,0,13.88914255191085,-0.1561301451598749,-0.3742887489931743,4.457016028224263e-05,-1.161093050604028e-05,-2.994309991945394e-06,5.291107448297796e-05,5.281487332233405e-05
318.2938579558271,218.7373950802518,12.5,0,13.95557903074706,-0.1369867613424409,-0.2942553050882353,4.476744230746455e-05,-1.160282086089346e-05,-2.354042440705882e-06,5.322086642726892e-05,5.337478223394236e-05
320.445332264899,219.0923773895102,12.5,0,13.92276629729184,-0.1592013858876671,-0.2272459280696802,4.468021326004402e-05,-1.164765747267401e-05,-1.817967424557441e-06,5.302579599029972e-05,5.320232396609513e-05
318.8453238310341,220.4047793225345,12.5,0,14.11945618589094,-0.0917381005871114,-0.319614424510329,4.525565027532069e-05,-1.158912687059151e-05,-2.556915396082632e-06,5.398793612719367e-05,5.380516755678553e-05
321.0149614280397,221.0062256331707,12.5,0,14.06320176883395,-0.1207900167628111,-0.2472604180868204,4.509887767367889e-05,-1.163708946870816e-05,-1.978083344694563e-06,5.368174652821895e-05,5.374228354457625e-05
322.0203207702517,219.3522424756645,12.5,0,13.8573679347399,-0.07721595856073238,-0.3139591280265077,4.440535015801626e-05,-1.133298541518626e-05,-2.511673024212062e-06,5.302451072689942e-05,5.308461581237968e-05
324.1717950793236,219.7072247849229,12.5,0,13.8237296616693,-0.0911542592097585,-0.2404921139884597,4.430885832470955e-05,-1.135067735880666e-05,-1.923936911907677e-06,5.285076815332607e-05,5.293548942379749e-05
322.603246382992,221.4465148905626,12.5,0,14.0760678132027,-0.02081816047551976,-0.3392145862565581,4.506007153062905e-05,-1.132747236408382e-05,-2.713716690052465e-06,5.403625525965483e-05,5.370554483212135e-05
324.7728839799976,222.0479612011989,12.5,0,14.0173902169302,-0.04133141577658073,-0.2612978283515972,4.488871382679789e-05,-1.134617270402921e-05,-2.090382626812777e-06,5.374603622496205e-05,5.366805681529494e-05
321.0106639919706,215.7248562482361,12.5,0,13.61846332858586,-0.1456894453845514,-0.4416655048979123,4.369563420778238e-05,-1.136097688809925e-05,-3.533324039183298e-06,5.190583796749371e-05,5.20475333112666e-05
323.1306785635093,215.6529503848791,12.5,0,13.61764740504769,-0.1665933196187259,-0.3899374549627233,4.370974635184758e-05,-1.142721654681807e-05,-3.119499639701786e-06,5.183715853982092e-05,5.171625370059793e-05
321.5935896047108,217.8191286631343,12.5,0,13.77691198839163,-0.09956691157559483,-0.4673788349105791,4.416577189211368e-05,-1.134014370775521e-05,-3.739030679284633e-06,5.265502855695263e-05,5.264035296433898e-05
323.7317674641832,217.993686801155,12.5,0,13.75914015746179,-0.1258519648819423,-0.411786878636868,4.412993007578327e-05,-1.141003841359164e-05,-3.294295029094944e-06,5.250457093347633e-05,5.241250535544616e-05
131.6461718512462,74.96636913585226,12.5,0,-8.4731685696133,0.2487920820264127,1.981257989711459,-2.731317308838369e-05,7.574669518175159e-06,1.585006391769167e-05,2.585715163343262e-06,2.592549562437093e-06
133.8686517477879,75.16065288671962,12.5,0,-8.528811971216514,0.1564094239968763,2.13293190232647,-2.741732584709034e-05,7.323559733763216e-06,1.706345521861176e-05,2.597460497567076e-06,2.616202616389555e-06
132.2438770570133,76.79350601740306,12.5,0,-8.130135675391054,0.3563470979156707,1.913237899156754,-2.63015118395839e-05,7.644419253642989e-06,1.530590319325404e-05,2.56198016442577e-06,2.55061642840272e-06
134.4488567270019,77.0205687600009,12.5,0,-8.193091607635536,0.2606981279784693,2.06818894077002,-2.642645164681648e-05,7.388707295639528e-06,1.654551152616016e-05,2.573294036379799e-06,2.574625509770298e-06
130.6109160669278,71.80167522468021,12.5,0,-8.999913670782618,0.2142243146346945,1.948077002369862,-2.897110319821213e-05,7.885448743457117e-06,1.55846160189589e-05,2.657631608174587e-06,2.672641611750154e-06
132.8637072450029,71.93918409645046,12.5,0,-9.040874861543639,0.1423406670741465,2.100240850753294,-2.904467209059896e-05,7.688190023872178e-06,1.680192680602635e-05,2.676342833991471e-06,2.695337094657129e-06
131.2086212726949,73.628812106231,12.5,0,-8.659107342815897,0.3163058920186259,1.886181310307068,-2.796218821062577e-05,7.93946472871232e-06,1.508945048245654e-05,2.631275308503522e-06,2.62524611177028e-06
133.4439122242169,73.79909996973176,12.5,0,-8.706991762779317,0.2415910954616671,2.041441333574052,-2.805564651726315e-05,7.738684915700787e-06,1.633153066859242e-05,2.650199460503656e-06,2.648547188076056e-06
126.7089672877289,71.56350287228693,12.5,0,-8.983989400623287,0.1412716235218561,1.965518822577113,-2.8861783380812e-05,7.639260715768567e-06,1.572415058061691e-05,2.615163350962674e-06,2.634628960334883e-06
128.961758465804,71.70101174405718,12.5,0,-9.033346484963817,0.03337452569718069,2.114529881476023,-2.893340837244196e-05,7.333475670202031e-06,1.691623905180819e-05,2.613548107527427e-06,2.656374916185014e-06
127.3369837750294,73.33386487474064,12.5,0,-8.659066551275531,0.2500255639568008,1.892236720382711,-2.790903341524714e-05,7.727335045682186e-06,1.513789376306169e-05,2.591025228563507e-06,2.586449103791057e-06
129.5722747265514,73.50415273824139,12.5,0,-8.715381546483604,0.1385995587520972,2.044627802038812,-2.800010059574921e-05,7.415823825193592e-06,1.63570224163105e-05,2.588371662204854e-06,2.608606980235113e-06
127.7967237517048,74.62985980827104,12.5,0,-8.491808299044138,0.1654656658444629,1.993283585406849,-2.73061590896168e-05,7.32293676993759e-06,1.594626868325479e-05,2.541332360628255e-06,2.553313916788159e-06
130.0192036482465,74.82414355913836,12.5,0,-8.5476065754111,0.06964674145790317,2.141854101334644,-2.740805843448184e-05,7.060954832994169e-06,1.713483281067715e-05,2.550863508327682e-06,2.57569858616638e-06
128.4247402390053,76.40022181072473,12.5,0,-8.165400038003728,0.2709881524794344,1.923738564593688,-2.634607064359547e-05,7.399482118337171e-06,1.53899085167495e-05,2.517331834235555e-06,2.510966758917921e-06
130.6297199089939,76.62728455332257,12.5,0,-8.228434257442785,0.1717847070103535,2.075687597667717,-2.646841738942519e-05,7.132458468387358e-06,1.660550078134174e-05,2.526341649479679e-06,2.533559117521182e-06
206.6965126582855,143.0971158665561,12.5,0,3.40440072647002,5.97647319988511,-0.02769824749468658,6.112903764795977e-06,1.640119365845633e-05,-2.215859799574926e-07,3.418985846787257e-05,3.367987904586783e-05
208.7891149098123,143.5279477524612,12.5,0,3.35518660562104,6.088086296120002,0.1119241885553417,5.866128101091327e-06,1.679772686308717e-05,8.953935084427336e-07,3.44366892079254e-05,3.462516292802387e-05
206.75187463412,145.096781377297,12.5,0,3.782785010071061,6.067812759792835,0.01541416833560592,7.250661824393127e-06,1.639077282328022e-05,1.233133466848474e-07,3.58541693806624e-05,3.576217450722768e-05
208.8400151132552,145.5096892963215,12.5,0,3.736746572016739,6.180430297487677,0.1556781534030631,7.013244792463422e-06,1.678797969434717e-05,1.245425227224504e-06,3.611420273761302e-05,3.67262488859015e-05
210.3210060778978,143.843338582451,12.5,0,3.579070379862737,6.260150183932879,-0.3384343277556547,6.444905068414455e-06,1.716922428469502e-05,-2.707474622045238e-06,3.586874535801577e-05,3.530047942405645e-05
212.4136083294245,144.2741704683561,12.5,0,3.522739339301137,6.345113560760827,-0.1958807194384464,6.196675037154978e-06,1.748617192299373e-05,-1.567045755507571e-06,3.598292260020254e-05,3.620019452032925e-05
210.3686400372584,145.8119588718822,12.5,0,3.954000413394296,6.351643343536389,-0.3048225631357852,7.571486648032635e-06,1.7162058368601e-05,-2.438580505086281e-06,3.751932965119127e-05,3.74128449509786e-05
212.4567805163936,146.2248667909067,12.5,0,3.900849094432822,6.437575666829191,-0.1616952886917341,7.332656568721676e-06,1.747956285830715e-05,-1.293562309533872e-06,3.764699726559851e-05,3.832458590645204e-05
210.2385016401209,140.4335882204066,12.5,0,2.872819003896404,5.965608434394396,-0.3099667289425029,4.420534064952976e-06,1.679169178694494e-05,-2.479733831540023e-06,3.231663616649117e-05,3.175894026783113e-05
212.3388319081215,140.8954653276214,12.5,0,2.811282708979303,6.041677472172698,-0.1714881795553152,4.16276269099561e-06,1.708434174376919e-05,-1.371905436442522e-06,3.238423553094977e-05,3.264021694265785e-05
210.2861355994816,142.4022085098377,12.5,0,3.236028052689597,6.05435058060749,-0.279211116771148,5.511809304120717e-06,1.678509941579229e-05,-2.233688934169184e-06,3.390285314948908e-05,3.378552023017169e-05
212.3820040950907,142.846161650172,12.5,0,3.177548103509352,6.131343904351003,-0.1401937556638657,5.263078807749125e-06,1.707826201111573e-05,-1.121550045310926e-06,3.398289365354754e-05,3.467707244704746e-05
206.6006229033343,139.6335936038719,12.5,0,2.693518155382484,5.697866269734001,-0.008986406373876387,4.060965081436748e-06,1.607835753884282e-05,-7.18912509910111e-08,3.06836239309002e-05,3.018527481294374e-05
208.700953171335,140.0954707110868,12.5,0,2.638713760060692,5.798396398526319,0.1263669027140401,3.80516691337316e-06,1.644389746723566e-05,1.010935221712321e-06,3.087533994820541e-05,3.110114050672957e-05
206.6559848791689,141.6332591146128,12.5,0,3.059423811242935,5.786351683056018,0.03042022282884931,5.161074849532578e-06,1.606878633678491e-05,2.433617826307945e-07,3.227927339710879e-05,3.218555327656158e-05
208.751853374778,142.0772122549471,12.5,0,3.007666311322047,5.887837051361565,0.1663728291539273,4.914262555141298e-06,1.643494551529937e-05,1.330982633231418e-06,3.248307294433049e-05,3.311791968053412e-05
295.973718557715,183.4379246024813,12.5,0,11.9935863034575,0.2979648186994037,-2.53175549610809,3.814110431610447e-05,-8.641381622927907e-06,-2.025404396886472e-05,4.742244875790706e-05,4.791186751346358e-05
298.3985071231268,183.8269263628083,12.5,0,11.89283406473073,0.170143737430001,-2.353634902035076,3.792095401719433e-05,-8.96980729200858e-06,-1.882907921628061e-05,4.659319007983594e-05,4.716919071514401e-05
296.2079498329617,185.6213948351046,12.5,0,12.41553846834847,0.4135442036601606,-2.586249571595437,3.939888773578696e-05,-8.609089322966258e-06,-2.06899965727635e-05,4.939922797738817e-05,4.877140179996289e-05
298.6363521846235,186.048847807272,12.5,0,12.3074458371586,0.2836913474405511,-2.407146182386948,3.915687360095507e-05,-8.938144357917115e-06,-1.925716945909558e-05,4.85349574540862e-05,4.803271725645498e-05
295.5680180882735,179.6560432228314,12.5,0,11.45722352643653,0.4208993540591965,-2.783488402919768,3.632639580134953e-05,-7.818900888159792e-06,-2.226790722335815e-05,4.584625985862136e-05,4.632403901476349e-05
297.9865473922923,179.9784455306396,12.5,0,11.36334607346019,0.2805368544579516,-2.600857594973777,3.613827795150622e-05,-8.192958924502702e-06,-2.080686075979022e-05,4.499529009810321e-05,4.557879530434762e-05
295.8022493635201,181.8395134554548,12.5,0,11.89255723976948,0.5412559157042351,-2.843844206909443,3.762317843469896e-05,-7.782026861562034e-06,-2.275075365527554e-05,4.788966796534193e-05,4.725609863160383e-05
298.2243924537892,182.2003669751032,12.5,0,11.791111490946,0.3987769057606045,-2.660128372111909,3.741253524641871e-05,-8.156803094322863e-06,-2.128102697689527e-05,4.700262661484004e-05,4.65116643098083e-05
291.379002454194,179.0976260452403,12.5,0,11.62052254418925,0.656698040314752,-2.943602891386949,3.666031370915381e-05,-7.194984306344195e-06,-2.354882313109559e-05,4.72484245734754e-05,4.77017706018994e-05
293.7975317582128,179.4200283530484,12.5,0,11.51553580710999,0.4851297123076512,-2.749530635132484,3.646161081290584e-05,-7.660013566303508e-06,-2.199624508105987e-05,4.625085828455583e-05,4.689288853127601e-05
291.6069744680477,181.2144968253447,12.5,0,12.06714439519669,0.7823039688407736,-3.013305127375575,3.798901888955679e-05,-7.150342815866878e-06,-2.41064410190046e-05,4.935595379080639e-05,4.864035004463327e-05
294.0291175583167,181.5753503449932,12.5,0,11.95415081960881,0.6084529779617047,-2.817944681764086,3.776652024037883e-05,-7.616271126209594e-06,-2.254355745411269e-05,4.831982191286662e-05,4.782647825517208e-05
291.7738615648853,182.7641537893732,12.5,0,12.16859691398801,0.5189286641673547,-2.699355095520068,3.852436719342775e-05,-8.074305805854873e-06,-2.159484076416055e-05,4.881900293956857e-05,4.929906775872825e-05
294.198650130297,183.1531555497003,12.5,0,12.05480223180192,0.3568958546410164,-2.508054443584403,3.828985045805332e-05,-8.501775050590282e-06,-2.006443554867523e-05,4.782695470593144e-05,4.84825663472518e-05
292.001833578739,184.8810245694776,12.5,0,12.60524582302581,0.6408815760664455,-2.764359332122586,3.982408137282942e-05,-8.033375615008019e-06,-2.211487465698068e-05,5.087630423814834e-05,5.016013857882399e-05
294.430235930401,185.3084775416451,12.5,0,12.48361772292033,0.476632644357271,-2.571854623627874,3.956627059785922e-05,-8.461669716392992e-06,-2.057483698902299e-05,4.984641728746964e-05,4.934144262523468e-05
188.8913672239577,151.7876587819884,12.5,0,5.091867455376723,4.863931514547531,1.171172387976357,1.240283064556749e-05,1.149108688225072e-05,9.369379103810855e-06,3.624172242779598e-05,3.59697890578271e-05
190.1282906559211,150.9721209754265,12.5,0,5.133757946775791,4.678548894300136,1.173050263856612,1.268518631424242e-05,1.08643501043398e-05,9.384402110852892e-06,3.572701817253485e-05,3.576139038182258e-05
190.1096637575748,153.2883352826172,12.5,0,5.283203100187743,5.076079222751181,1.045302730873377,1.284538654239983e-05,1.201689103265359e-05,8.362421846987015e-06,3.767587677092006e-05,3.790237426731844e-05
191.5018059454389,152.3186779864535,12.5,0,5.323419254715223,4.919257040844911,1.044420029311827,1.309953598241278e-05,1.148288712693154e-05,8.355360234494616e-06,3.725648140398435e-05,3.761943474243431e-05
191.0015187188296,154.3869067267555,12.5,0,5.644370688606283,5.246812216601167,1.066299156872946,1.386453643025917e-05,1.227430254223871e-05,8.530393254983564e-06,3.960676620234861e-05,3.934480014197778e-05
192.5072889222958,153.3044261337715,12.5,0,5.701485668332079,5.031972753059997,1.062079566277907,1.421917593621465e-05,1.154112427512633e-05,8.49663653022326e-06,3.904141988266518e-05,3.900443341091613e-05
192.2198152524467,155.8875832273843,12.5,0,5.831830527423612,5.456583610992009,0.9421886095336534,1.429659079896195e-05,1.279560313323554e-05,7.537508876269227e-06,4.102390418170975e-05,4.13529957083753e-05
193.8808042118136,154.6509831447985,12.5,0,5.885890499032215,5.268126531747363,0.9364001227201189,1.462034837150519e-05,1.214929250236579e-05,7.491200981760951e-06,4.054128133143387e-05,4.093027578117284e-05
193.6095892157096,152.5119953415336,12.5,0,5.293945579410329,5.491750588790568,1.014138245146749,1.254722538308059e-05,1.333844542060155e-05,8.113105961173993e-06,3.92134280542316e-05,3.871414136786438e-05
195.1153594191758,151.4295147485495,12.5,0,5.25194159169835,5.138068807631225,0.9412815817986854,1.269575804732974e-05,1.224026691106124e-05,7.530252654389483e-06,3.776835087103848e-05,3.826141548824195e-05
195.0967325208294,153.7457290557404,12.5,0,5.422454346978442,5.820558271066526,0.8933605012319878,1.269540729347779e-05,1.428782298983013e-05,7.146884009855903e-06,4.085261897662304e-05,4.057600363453275e-05
196.7577214801964,152.5091289731545,12.5,0,5.387223473940298,5.511291818088775,0.8264959979153761,1.283008166213793e-05,1.332635503873184e-05,6.611967983323008e-06,3.959249283301932e-05,4.003083405736684e-05
191.0337814531523,150.3751058655552,12.5,0,4.840076961549219,5.104990080670199,1.113537685242509,1.140425421242134e-05,1.246390668890526e-05,8.90830148194007e-06,3.61913468368845e-05,3.559201365407546e-05
192.2707048851157,149.5595680589932,12.5,0,4.807459507527732,4.831070795309109,1.065204154284518,1.151901378784146e-05,1.161345893896696e-05,8.52163323427614e-06,3.507145934577189e-05,3.533766650423539e-05
192.5209247582722,151.6088395797619,12.5,0,4.961202085887281,5.405776071850098,1.001628472500745,1.155122581735922e-05,1.332952176121048e-05,8.013027780005963e-06,3.769928349776192e-05,3.73786852775576e-05
193.9130669461363,150.6391822835982,12.5,0,4.935523653505903,5.175307328922113,0.9575482912768262,1.16534298280812e-05,1.261256452974604e-05,7.660386330214609e-06,3.676152383011806e-05,3.700388503247557e-05
239.504724719941,85.41048471036925,12.5,0,-6.806809287392605,2.45141432903591,-1.488386206010352,-2.374292118288506e-05,1.328997328282899e-05,-1.190708964808281e-05,4.083874596853163e-06,4.030198701055598e-06
241.7293227319721,85.54654879192896,12.5,0,-6.907200632744313,2.145901682050058,-1.324483040746416,-2.381976337042184e-05,1.239264588875563e-05,-1.059586432597133e-05,3.671585992854581e-06,4.045556677304318e-06
240.343017160058,87.61020564394011,12.5,0,-6.361214981054382,2.669274147101769,-1.659752286852487,-2.249130725705544e-05,1.363064925556916e-05,-1.32780182948199e-05,4.430018151745061e-06,4.17030536567366e-06
242.5530156035422,87.74676502365597,12.5,0,-6.462583567061133,2.361527558882055,-1.494615217830181,-2.256948946170127e-05,1.272695504207148e-05,-1.195692174264145e-05,3.954263186745751e-06,4.187835832063556e-06
240.9566898177984,89.22051312971836,12.5,0,-6.111484498107357,2.616820701663145,-1.625119562716511,-2.165020695527406e-05,1.326301384380795e-05,-1.300095650173208e-05,4.343531743518489e-06,4.297407411861858e-06
243.1560006353382,89.3574350928494,12.5,0,-6.214179843771332,2.303270988072625,-1.461772179919417,-2.172799229052636e-05,1.234181103684946e-05,-1.169417743935534e-05,3.853708270307247e-06,4.316583963547051e-06
241.7949822579153,91.42023406328921,12.5,0,-5.662284907346369,2.839681008801701,-1.801147223403883,-2.039105651054974e-05,1.361680715404254e-05,-1.440917778723107e-05,4.80165191221665e-06,4.504549995190682e-06
243.9796935069082,91.55765132457643,12.5,0,-5.765987565242154,2.52381154452034,-1.636551909440034,-2.047020944439116e-05,1.268898699465881e-05,-1.309241527552027e-05,4.229102557143694e-06,4.526051245395234e-06
244.7660078953447,89.45766892652914,12.5,0,-5.996605776529481,2.561257871750913,-1.811614330718579,-2.123814478229507e-05,1.29933098108265e-05,-1.449291464574864e-05,4.370456402975308e-06,4.329057562719783e-06
246.9653187128844,89.59459088966017,12.5,0,-6.098931455431458,2.25032570363755,-1.64650050549373,-2.13168412202907e-05,1.208018741598533e-05,-1.317200404394984e-05,3.870664137174938e-06,4.343959517729193e-06
245.5790131409703,91.65824774167133,12.5,0,-5.543468472341972,2.780826089887547,-1.985539475502982,-1.996375998340435e-05,1.333341826551373e-05,-1.588431580402385e-05,4.844484715057174e-06,4.540139630058818e-06
247.7637243899632,91.79566500295853,12.5,0,-5.646800345650515,2.46759709616157,-1.819168292817308,-2.00438387830109e-05,1.241375098423743e-05,-1.455334634253846e-05,4.260410209242981e-06,4.55712856255339e-06
243.3578415031263,85.6461546127116,12.5,0,-6.695746984151612,2.409429267878669,-1.674504572176858,-2.335393376358809e-05,1.306677124453303e-05,-1.339603657741486e-05,4.108260020425017e-06,4.055560201638707e-06
245.5824395151573,85.78221869427129,12.5,0,-6.795563830897396,2.107031371533205,-1.509338730067191,-2.343142935609823e-05,1.217895145362417e-05,-1.207470984053753e-05,3.687558884840402e-06,4.067532362127454e-06
244.170846748752,87.84673342785381,12.5,0,-6.247592871824827,2.623622784474067,-1.843421551380733,-2.20911954174187e-05,1.339366720777687e-05,-1.474737241104586e-05,4.466611660566298e-06,4.19921489620992e-06
246.3808451922362,87.98329280756965,12.5,0,-6.348383592394147,2.31901714811376,-1.677016146358289,-2.217004121415228e-05,1.249956174787935e-05,-1.341612917086631e-05,3.981282442568343e-06,4.2127726112118e-06
243.6945959205732,162.9639907615739,12.5,0,9.033255580311506,6.896653829332266,-3.842935149360463,2.338909479353101e-05,1.484268778961404e-05,-3.07434811948837e-05,5.868378769417943e-05,5.814239762950148e-05
245.8049299575745,163.242535046398,12.5,0,8.778715025704095,6.233929508378571,-3.542015206736316,2.310474447555025e-05,1.292560240624815e-05,-2.833612165389053e-05,5.530675312353524e-05,5.765395742072324e-05
244.2618588783556,165.0147468634923,12.5,0,9.781538430694898,7.2463928118179,-4.151284301133506,2.550380872876935e-05,1.536322625326136e-05,-3.321027440906805e-05,6.276312235599843e-05,6.04778543311898e-05
246.365522318643,165.303193675998,12.5,0,9.521740656144473,6.578696991785463,-3.847291539600965,2.520661250623394e-05,1.34344378487979e-05,-3.077833231680772e-05,5.935126505826845e-05,5.990145910284319e-05
244.6771241846864,166.5160045239647,12.5,0,10.06535423277168,6.927986130869536,-3.965020889180746,2.666674464017375e-05,1.411727223256517e-05,-3.172016711344597e-05,6.260537976545641e-05,6.21874383916577e-05
246.7759044092627,166.8117004898564,12.5,0,9.791023764194071,6.231664654511571,-3.645023554520147,2.634594432181177e-05,1.210850788308177e-05,-2.916018843616118e-05,5.904534469639755e-05,6.153955457017867e-05
245.2443871424688,168.5667606258832,12.5,0,10.8602571751216,7.298111538719434,-4.290590618979397,2.891433372941357e-05,1.466575118380491e-05,-3.432472495183518e-05,6.69374332907935e-05,6.452265220317617e-05
247.3364967703313,168.8723591194565,12.5,0,10.58027853225003,6.596509756572374,-3.967312071847596,2.85796834979422e-05,1.264460839523157e-05,-3.173849657478077e-05,6.333938160663221e-05,6.376741293265781e-05
248.3123181675081,167.0281649604731,12.5,0,10.25850327432782,6.332197458273978,-4.110932051929641,2.776145251122983e-05,1.205622924701447e-05,-3.288745641543713e-05,6.130398953684032e-05,6.103542433467876e-05
250.4110983920844,167.3238609263649,12.5,0,9.992820867650645,5.663071011139432,-3.797595843300282,2.744656996757052e-05,1.012757054152567e-05,-3.038076674640225e-05,5.788502670023063e-05,6.030599873908184e-05
248.8680273128655,169.0960727434592,12.5,0,11.04294452109302,6.689505103781924,-4.42559066587202,2.998581838447212e-05,1.257206071522774e-05,-3.540472532697616e-05,6.55533554734491e-05,6.318682130623727e-05
250.9601369407279,169.4016712370326,12.5,0,10.77176410277766,6.015343511473121,-4.109094357345909,2.965737031971e-05,1.063168795449186e-05,-3.287275485876727e-05,6.209737215201697e-05,6.235585475485825e-05
247.3498016935357,163.4464436150386,12.5,0,9.249712208326116,6.35713453935614,-4.024797579478117,2.451337143515866e-05,1.294306075927875e-05,-3.219838063582493e-05,5.766436975586523e-05,5.726543081810851e-05
249.460135730537,163.7249878998628,12.5,0,9.000550719349096,5.713202091731167,-3.726862856573042,2.423120062853217e-05,1.108180611806046e-05,-2.981490285258433e-05,5.438450819617514e-05,5.669239660840605e-05
247.9055108388931,165.5143513980246,12.5,0,9.996250872839212,6.698468853063258,-4.326139528885325,2.662922771063487e-05,1.343809963153106e-05,-3.46091162310826e-05,6.171044166427722e-05,5.944879253536471e-05
250.0091742791806,165.8027982105303,12.5,0,9.741915412979845,6.049742901323608,-4.025212262533779,2.633433500047661e-05,1.156564495385167e-05,-3.220169810027023e-05,5.839640525330513e-05,5.878847970241974e-05
217.616821692971,138.8160610356389,12.5,0,2.626779556260444,6.095974485103409,-0.9486190310052396,3.528914991950694e-06,1.740569470732255e-05,-7.588952248041916e-06,3.204592254434981e-05,3.134824449008937e-05
219.8398311448676,139.4104485262094,12.5,0,2.538159509326932,6.138188186420646,-0.8071398542743008,3.211559880709665e-06,1.761167458908452e-05,-6.457118834194407e-06,3.187792429885548e-05,3.224648835619399e-05
217.6189050168921,140.8808783334584,12.5,0,3.006960443144761,6.190957295500346,-0.9240201186878775,4.669507581662959e-06,1.74054949910853e-05,-7.39216094950302e-06,3.369871516053743e-05,3.34727047566021e-05
219.7941907216479,141.4880579768396,12.5,0,2.911670076960051,6.232899515136921,-0.779781397658452,4.331024634162626e-06,1.76159423868701e-05,-6.238251181267616e-06,3.350488685421138e-05,3.439998939932797e-05
217.6132132700912,135.2396925675325,12.5,0,1.922225962694898,5.784531707199003,-0.9150758242255067,1.523497714864472e-06,1.697272069288089e-05,-7.320606593804054e-06,2.848718666796829e-05,2.778867548058969e-05
219.9188826767617,135.8119233994973,12.5,0,1.845985303552545,5.836403064744695,-0.7783396025523291,1.238030519572388e-06,1.719970156434099e-05,-6.226716820418633e-06,2.840268882666009e-05,2.862725416649672e-05
217.6152965940122,137.3045098653521,12.5,0,2.277010314374031,5.873161567401167,-0.8889543065143408,2.587903752075964e-06,1.697250876418451e-05,-7.111634452114726e-06,3.000887908933454e-05,2.982521343587439e-05
219.873242253542,137.8895328501275,12.5,0,2.19490512997822,5.925049530966237,-0.7496758248514876,2.283656791157314e-06,1.720423439510938e-05,-5.997406598811901e-06,2.990274140024868e-05,3.06996886124863e-05
213.6196767123524,134.2485596929299,12.5,0,1.680691799782119,5.610619976076577,-0.5614067093352606,8.897177784415194e-07,1.660943048361935e-05,-4.491253674682085e-06,2.696221524475481e-05,2.629219832228331e-05
215.9253461190229,134.8207905248947,12.5,0,1.595846728977137,5.643019589277467,-0.4169289040669851,5.922938613048648e-07,1.678098530250618e-05,-3.335431232535881e-06,2.678674756659268e-05,2.716299915287061e-05
213.7044199910474,136.2912203321438,12.5,0,2.046098955515011,5.699934235489966,-0.5474548629475666,1.987569269256063e-06,1.660291038915588e-05,-4.379638903580533e-06,2.852120105843637e-05,2.826819156923502e-05
215.9623656505772,136.8762433169192,12.5,0,1.954950233524793,5.731926913860698,-0.4000658199073683,1.670299216190781e-06,1.677820593753439e-05,-3.200526559258947e-06,2.832001806077119e-05,2.917369576675682e-05
213.7664563766494,137.7865517026058,12.5,0,2.385433598911079,5.912881072323284,-0.600326527980545,2.903082658656825e-06,1.701287255230564e-05,-4.80261222384436e-06,3.047947887039047e-05,2.974837744275013e-05
215.9894658285461,138.3809391931764,12.5,0,2.297965502499133,5.953391047042761,-0.4609948456875046,2.590776770363018e-06,1.721247894853752e-05,-3.687958765500037e-06,3.032005846272204e-05,3.067887768824955e-05
213.8511996553444,139.8292123418196,12.5,0,2.755188013550476,6.002857683268537,-0.5823515534404136,4.014315496746694e-06,1.700499417561893e-05,-4.658812427523308e-06,3.207733876641539e-05,3.181632720705938e-05
216.0264853601003,140.4363919852008,12.5,0,2.66106073262069,6.043116345565566,-0.4401623005508904,3.680901267933757e-06,1.720912371971326e-05,-3.521298404407123e-06,3.189173772638754e-05,3.278041455869045e-05
177.4754265754626,146.7837925415618,12.5,0,3.919820069600973,3.494111460415108,1.531901664260179,9.748135054391026e-06,8.045300617647564e-06,1.225521331408143e-05,2.718564219109902e-05,2.705198013709381e-05
179.0921634078009,145.8022984751905,12.5,0,4.005304912322448,3.389941185303399,1.574900085398098,1.010502277118911e-05,7.643567863112918e-06,1.259920068318478e-05,2.714064593029645e-05,2.690986553181137e-05
178.6858472212887,148.374106273643,12.5,0,4.13787997927972,3.642720924676481,1.427374179856199,1.032703919395392e-05,8.346402975540962e-06,1.141899343884959e-05,2.846854708527443e-05,2.876724368786533e-05
180.3006195943606,147.3936576158436,12.5,0,4.22347858466035,3.538438280195149,1.470416246712795,1.0684380846757e-05,7.944219628896196e-06,1.176332997370236e-05,2.842220867732192e-05,2.863432452176262e-05
180.2756969114902,145.0837949513098,12.5,0,3.612165692620198,3.738180539826435,1.487514369118988,8.568385784523484e-06,9.072445173348431e-06,1.190011495295191e-05,2.693613847687484e-05,2.6788504011012e-05
181.8924337438284,144.1023008849385,12.5,0,3.689835353877363,3.616815922719996,1.524494834076268,8.914020394231564e-06,8.621942669602097e-06,1.219595867261014e-05,2.679252165854625e-05,2.659905277537265e-05
181.4827150140574,146.6759193841522,12.5,0,3.827320908621981,3.897190158027301,1.378807104349181,9.129674781168496e-06,9.409151778789777e-06,1.103045683479344e-05,2.824401373166345e-05,2.851873655282204e-05
183.0974873871293,145.6954707263528,12.5,0,3.905095022992633,3.775693713903498,1.415823918370093,9.475749102453624e-06,8.958143866097086e-06,1.132659134696074e-05,2.809908760625755e-05,2.833586351502197e-05
178.1850802322258,142.3261545417046,12.5,0,3.059968173216641,3.471529465432483,1.555178939317846,7.014674581947266e-06,8.66091975081063e-06,1.244143151454276e-05,2.40322459015338e-05,2.388908701405024e-05
179.8052196078228,141.3428497745721,12.5,0,3.135606403502256,3.356625858607699,1.591475171192777,7.34863980432106e-06,8.232717624742831e-06,1.273180136954221e-05,2.390327553830851e-05,2.368821238527149e-05
179.3920983347931,143.918278974547,12.5,0,3.267028289295777,3.623096496675255,1.451221341394489,7.556013328406284e-06,8.980286157924192e-06,1.160977073115592e-05,2.527422720756057e-05,2.554799315589758e-05
181.0102732511237,142.9360196159864,12.5,0,3.342767879055553,3.50806839775748,1.487553350893692,7.890402494771786e-06,8.551604569579491e-06,1.190042680714954e-05,2.51439342464274e-05,2.535371840849318e-05
175.3789165183992,144.0292883576722,12.5,0,3.364255460550147,3.23541620511273,1.596288230711335,8.177284509670285e-06,7.66192748792062e-06,1.277030584569068e-05,2.428842377272079e-05,2.41763025915503e-05
176.9990558939963,143.0459835905397,12.5,0,3.447304058874741,3.134153730981525,1.638082662986928,8.524050003613949e-06,7.271448692041087e-06,1.310466130389542e-05,2.424421524800614e-05,2.401987039065212e-05
176.5893371642253,145.6196020897534,12.5,0,3.575742450554741,3.379554238473611,1.494907865602211,8.738732450996281e-06,7.953979602671763e-06,1.195926292481769e-05,2.552175255377212e-05,2.582184117787563e-05
178.2075120805559,144.6373427311928,12.5,0,3.658901323381913,3.278182731950044,1.536744649681469,9.085938049262086e-06,7.56306368353461e-06,1.229395719745175e-05,2.547613580811461e-05,2.567342627390833e-05
163.7100327725168,106.9169723235483,12.5,0,-3.367662955022482,1.650252092563063,1.786341840985782,-1.209672313012239e-05,7.974937060219785e-06,1.429073472788626e-05,3.348474289252963e-06,3.553962481717447e-06
165.7597703672572,106.4940679883631,12.5,0,-3.294288108966732,1.656351627099989,1.924628637261431,-1.186680325037353e-05,7.935755693893351e-06,1.539702909809145e-05,3.511767151316113e-06,3.641880820839205e-06
164.1163945873251,109.0657041678101,12.5,0,-3.003616368477283,1.743529345752299,1.755774940159026,-1.100639585572915e-05,7.982187001189184e-06,1.404619952127221e-05,3.593486702560727e-06,3.821884958031855e-06
166.2851567685221,108.5947649898599,12.5,0,-2.930799271178865,1.750213835217398,1.885830506912116,-1.077872873594629e-05,7.945323689638765e-06,1.508664405529693e-05,3.771546866220727e-06,3.924909835657776e-06
167.2602824287275,106.1844805282796,12.5,0,-3.498385408825425,1.810384403186711,1.725305503124728,-1.264314083079073e-05,8.591938417257814e-06,1.380244402499782e-05,3.513332123581788e-06,3.705758338893637e-06
169.3100200234679,105.7615761930944,12.5,0,-3.437514504160727,1.784672703479766,1.852401556153148,-1.242778457609814e-05,8.460964254463829e-06,1.481921244922519e-05,3.604305648317502e-06,3.792356624565405e-06
167.8728008746247,108.2500135843403,12.5,0,-3.168513518620646,1.904253673192601,1.673581735573364,-1.166264619814015e-05,8.628422569112839e-06,1.338865388458691e-05,3.734252269502145e-06,3.997613303759478e-06
170.0415630558217,107.7790744063901,12.5,0,-3.107829406829671,1.880998537865975,1.79273814505315,-1.144985293214773e-05,8.505458846634856e-06,1.43419051604252e-05,3.831630257841775e-06,4.093217994882316e-06
166.1993693598794,102.6068723305336,12.5,0,-4.111496080851211,1.688592566938965,1.739402672412602,-1.450766151227505e-05,8.692693078885655e-06,1.391522137930081e-05,3.236596607240737e-06,3.345587733219615e-06
168.0429503235309,102.2671667835495,12.5,0,-4.063253589119323,1.658425092068917,1.857386846999278,-1.432915155883696e-05,8.557563165915993e-06,1.485909477599422e-05,3.293458138549251e-06,3.417087614237896e-06
166.8118878057766,104.6724053865944,12.5,0,-3.773500296344204,1.786064236237251,1.684702436156177,-1.350405233729125e-05,8.734205793034565e-06,1.347761948924941e-05,3.380416256649942e-06,3.531048613828476e-06
168.7744933558847,104.2846649968453,12.5,0,-3.724554202392377,1.758959272899546,1.794412198278701,-1.332574086597524e-05,8.608313035192449e-06,1.435529758622961e-05,3.440114785061314e-06,3.611188035099223e-06
163.0061934630253,103.1952595975125,12.5,0,-3.998405169678816,1.510454636355072,1.789987620147435,-1.400326025205627e-05,8.032178972079283e-06,1.431990096117948e-05,3.047933175482418e-06,3.22452388590644e-06
164.849774426677,102.8555540505284,12.5,0,-3.933532162597145,1.543104511845741,1.914305889542366,-1.382178652978746e-05,8.084760167984087e-06,1.531444711633893e-05,3.200255767702392e-06,3.293990437723281e-06
163.4125552778338,105.3439914417743,12.5,0,-3.644960867376255,1.595461598772774,1.771952568869304,-1.294024405462224e-05,8.021445809973881e-06,1.417562055095443e-05,3.194275491401234e-06,3.393900064856634e-06
165.3751608279419,104.9562510520253,12.5,0,-3.58028407967826,1.626979671552862,1.888160648464739,-1.275849279221272e-05,8.070562212711765e-06,1.510528518771791e-05,3.356014946834008e-06,3.472826477678789e-06
268.9326212338799,94.54511583677643,12.5,0,-4.529060058529752,2.055502077622088,-2.871271031324601,-1.613739384939288e-05,1.020085469521448e-05,-2.297016825059681e-05,4.715327481184495e-06,4.742333064301092e-06
271.0677808291553,94.64792916257353,12.5,0,-4.615525957511743,1.785818104392505,-2.70828816581951,-1.619833754755158e-05,9.40703870006541e-06,-2.166630532655608e-05,4.144586595343102e-06,4.73058520232587e-06
269.6169319777282,96.91021018076948,12.5,0,-4.035178828723096,2.259350785320991,-3.033652857330259,-1.47200528801707e-05,1.045806557600564e-05,-2.426922285864207e-05,5.419067429518139e-06,5.079713873509693e-06
271.7427216363119,97.02411394112401,12.5,0,-4.124608544551004,1.987044057369224,-2.868890806556016,-1.478838258845859e-05,9.658227819222317e-06,-2.295112645244813e-05,4.744448243865176e-06,5.06889065130504e-06
265.2344163326613,94.36703793280392,12.5,0,-4.654724902257727,2.181055459908,-2.745323481196448,-1.663996405515113e-05,1.070315739351178e-05,-2.196258784957158e-05,4.739820892538962e-06,4.760606026886997e-06
267.3695759279366,94.46985125860101,12.5,0,-4.742745022411123,1.90496703884887,-2.58261426233911,-1.670075770279468e-05,9.89009054224528e-06,-2.066091409871288e-05,4.163308215433181e-06,4.750377119998112e-06
265.9349562829228,96.71292308066586,12.5,0,-4.164747849665337,2.387837844804963,-2.91057782946159,-1.523746339477305e-05,1.097287938310815e-05,-2.328462263569272e-05,5.436652515413838e-06,5.095164732202941e-06
268.0607459415065,96.82682684102038,12.5,0,-4.255747305064052,2.109050675900048,-2.746061323790803,-1.5305631916925e-05,1.015356000693139e-05,-2.196849059032642e-05,4.754952509329136e-06,5.086753992267937e-06
266.4477871192242,98.43023019754901,12.5,0,-3.889185929403974,2.275095266071721,-2.889024319151489,-1.426547118695009e-05,1.039165359495269e-05,-2.311219455321191e-05,5.352298868465413e-06,5.391843690990209e-06
268.5667175080863,98.55225271947724,12.5,0,-3.983203402174644,1.990448039701343,-2.724252807810435,-1.433860931871993e-05,9.555996448784012e-06,-2.179402246248348e-05,4.643437062401878e-06,5.384364365359786e-06
267.1483270694857,100.7761153454109,12.5,0,-3.39196053214689,2.486705271290112,-3.059039542707676,-1.284363791990214e-05,1.067102529384587e-05,-2.447231634166141e-05,6.29069858198285e-06,5.867826974652174e-06
269.2578875216561,100.9092283018966,12.5,0,-3.489061960377713,2.199254248442677,-2.892405049120762,-1.292440167196282e-05,9.828863163318735e-06,-2.31392403929661e-05,5.450584207574547e-06,5.861074153270992e-06
270.1178822103691,98.64157940519257,12.5,0,-3.757772197014388,2.138178831351586,-3.011576352780038,-1.373541409552731e-05,9.848390017936585e-06,-2.409261082224031e-05,5.328643494591323e-06,5.377709284336176e-06
272.2368125992311,98.7636019271208,12.5,0,-3.849894860297965,1.861486785357639,-2.846324348443157,-1.38088529812396e-05,9.036673601382815e-06,-2.277059478754525e-05,4.630278269752079e-06,5.367006590480838e-06
270.8021929542173,101.0066737491856,12.5,0,-3.255940358149245,2.346466694069028,-3.178139025647713,-1.22961825013328e-05,1.011344570754028e-05,-2.54251122051817e-05,6.27417345130668e-06,5.854467077962502e-06
272.9117534063878,101.1397867056713,12.5,0,-3.351131846140828,2.067059867045359,-3.01105457117866,-1.237726980128694e-05,9.295497051457812e-06,-2.408843656942928e-05,5.447089555150456e-06,5.843169033910687e-06
239.7342727182813,208.6984328235242,12.5,0.6250537722188199,17.89696109314653,9.076865863929065,-3.557997055130456,0.0001333758792637085,3.928137103075837e-05,-7.591482279868493e-05,0.0002638330605031353,0.0002529426187630447
241.4116347332067,209.9968109762907,12.5,0.6187769945411952,17.89401561070077,9.537252939332786,-3.540287228906399,0.0001301890150701815,4.250529659877862e-05,-7.4293254671672e-05,0.000263615136297896,0.0002491085044991851
238.2667418636604,210.1218056811043,12.5,0.6700180010796192,16.24986037797124,8.42748132923488,-2.848788014725052,0.0001371516273438902,4.232973918842428e-05,-6.906529505356241e-05,0.0002738810176964429,0.0002843047699172169
239.8208201016669,211.3862692344531,12.5,0.669753405806969,15.97428509144877,8.704989092026047,-2.787512519168697,0.0001336992471547098,4.565236186057989e-05,-6.75256022180657e-05,0.0002734152896408584,0.0002840973841536337
242.6395489507659,210.9472897515128,12.5,0.610784350042499,18.0794646013865,8.697893087488072,-3.748381491526245,0.0001307654824773971,3.435033046670266e-05,-7.704482575529603e-05,0.0002526864626358412,0.0002443918731344908
244.3169109656911,212.2456679042793,12.5,0.5945447263166267,18.31126681107517,9.316854836432697,-3.721399226342494,0.0001261361566756497,3.740220688205186e-05,-7.342657931239235e-05,0.0002499297373142782,0.0002353399108688848
240.9584843307764,212.311920799784,12.5,0.6671506004191027,16.13417870191685,7.949258660818638,-2.825581405158888,0.0001360073503947432,3.764550805518501e-05,-6.791254924819884e-05,0.0002652582647583167,0.0002820734266336479
242.512562568783,213.5763843531327,12.5,0.6601238213904252,15.99777387528196,8.330449665287277,-2.73275592819162,0.0001310139382254959,4.077726154681229e-05,-6.432356487874515e-05,0.00026208223954413,0.000276751257620034
245.5512382833417,208.5836794423636,12.5,0.4825890290913893,18.19994708484187,8.257312485547477,-3.61071870301157,9.979297615661888e-05,2.292847069911442e-05,-5.582747805553314e-05,0.0001879737694319222,0.0001874991347239137
247.4421340636355,209.9407994044392,12.5,0.4413475867896387,18.7237274108391,8.849066020005438,-3.438651166777776,9.457880007185263e-05,2.387536332063362e-05,-4.924208449425167e-05,0.0001811602621857147,0.0001744444534197933
243.8701736633523,209.9483104906348,12.5,0.5619296272054269,16.26188532240923,7.327715411223952,-2.638245997521587,0.0001054074038565121,2.382991799101777e-05,-4.817940059614586e-05,0.0001976877012964527,0.000219050767993321
245.6377856667273,211.2715158532925,12.5,0.5367117431244526,16.37318649138403,7.684097157633319,-2.40026980004448,9.982320587665033e-05,2.480218641588857e-05,-4.14475396589085e-05,0.0001903644425169289,0.0002079268853040745
242.2761107201139,206.2330787161251,12.5,0.5257804506850166,18.01409632450423,8.828257935551612,-3.458542845298107,0.0001066647335881436,2.918299836890447e-05,-5.834500665852379e-05,0.0002076737567916212,0.000203449227163427
244.1670065004078,207.5901986782006,12.5,0.5045177077108003,18.16595224891929,9.367677261068064,-3.316379470986162,0.0001021972049772707,3.116923788523249e-05,-5.354588081303991e-05,0.0002035905522319259,0.0001952709404249259
240.808579865493,207.6564515737053,12.5,0.5868418681661201,16.44439622621591,8.09266504617041,-2.662431844135305,0.0001116955769020407,3.083809850291269e-05,-5.155279083710832e-05,0.0002176220514201674,0.0002312774413792609
242.5761918688682,208.979656936363,12.5,0.575016734463681,16.30729505557064,8.444189221242514,-2.479262767510092,0.0001068936037834406,3.288498770859293e-05,-4.667031327704294e-05,0.0002131302149377907,0.0002253075306362901
289.5228811954872,211.571533686971,12.5,0,15.09932199788366,-0.06073827203339199,-0.5388537138545065,4.836642101085442e-05,-1.227382006881378e-05,-4.310829710836052e-06,5.785684287216126e-05,5.834155361502845e-05
291.4625458699645,212.136495374905,12.5,0,15.05300570409012,-0.08159103705965531,-0.4813260825439801,4.823489108273611e-05,-1.230349588186299e-05,-3.850608660351841e-06,5.761273489653707e-05,5.769880617462958e-05
289.1344196287417,213.4714909966432,12.5,0,15.26179018393965,-0.02217463457920665,-0.5303722791775338,4.885546829627024e-05,-1.228039097780518e-05,-4.242978233420271e-06,5.859710595943265e-05,5.857891428238959e-05
290.8149957843377,213.8522069466861,12.5,0,15.21808299208894,-0.04418413399328802,-0.4619097373728849,4.873321288187925e-05,-1.231585562244967e-05,-3.695277898983079e-06,5.83589937369939e-05,5.803131701037866e-05
292.882478961268,212.550076034785,12.5,0,14.92218035146088,-0.1350257034614524,-0.4698707656087186,4.785899768744396e-05,-1.236982653224535e-05,-3.758966124869749e-06,5.694829289732232e-05,5.727610904905157e-05
294.8221436357452,213.1150377227191,12.5,0,14.87489024224422,-0.1416022385071622,-0.4077960209103047,4.771293056598722e-05,-1.235303935701829e-05,-3.262368167282438e-06,5.674377645352309e-05,5.67640264661089e-05
292.0452629161704,214.1309103653574,12.5,0,15.07524900016156,-0.09422571372545008,-0.43769224936205,4.831617737149733e-05,-1.236172148405068e-05,-3.5015379948964e-06,5.765787409154777e-05,5.766448083822307e-05
293.7258390717664,214.5116263154003,12.5,0,15.02999687178265,-0.09902947648278282,-0.3605008726815769,4.81752135708907e-05,-1.234089182217102e-05,-2.884006981452615e-06,5.746615308242699e-05,5.720986304980825e-05
294.3325796882627,209.8119906559338,12.5,0,14.69812482092759,-0.1418758861368739,-0.6566156872528373,4.71475001358778e-05,-1.221250269238007e-05,-5.252925498022698e-06,5.607856366805875e-05,5.648925994776562e-05
296.720998841092,210.6960753229677,12.5,0,14.60002994206278,-0.1553711531574984,-0.555890240149377,4.684439273712688e-05,-1.217721164375421e-05,-4.447121921195016e-06,5.565424623109286e-05,5.587882944743276e-05
293.4953636431652,211.3928249865061,12.5,0,14.89603931539067,-0.08818631044755065,-0.6143521381027665,4.773787485760819e-05,-1.21990276457447e-05,-4.914817104822132e-06,5.699776424523377e-05,5.696120956053512e-05
295.6246942771132,212.0926639156489,12.5,0,14.79432275028709,-0.100687343852103,-0.4960621468716366,4.742238267600035e-05,-1.21576577005564e-05,-3.968497174973093e-06,5.656203095839514e-05,5.640737708726481e-05
290.1957163658661,208.2807110944659,12.5,0,14.92994233218878,-0.03472096053596596,-0.7939031313223491,4.780359223143286e-05,-1.205506093946611e-05,-6.351225050578793e-06,5.730333347758699e-05,5.777429864212381e-05
292.5841355186955,209.1647957614998,12.5,0,14.82825816946361,-0.07405122001976139,-0.6925861920252855,4.750966711829935e-05,-1.209957043963412e-05,-5.540689536202284e-06,5.678569838047999e-05,5.699714938774535e-05
289.8072547991206,210.1806684041381,12.5,0,15.15705143202644,0.01960919334725286,-0.7812277685496178,4.848687722780682e-05,-1.206289172690994e-05,-6.249822148396943e-06,5.83388457895491e-05,5.812595750400849e-05
291.9365854330687,210.8805073332808,12.5,0,15.05307515975408,-0.02232959198013074,-0.6653485475104147,4.818770418479716e-05,-1.211391482213968e-05,-5.322788380083317e-06,5.780352988422821e-05,5.742170179531519e-05
305.1360507574196,193.3342521626237,12.5,0,12.61356229489909,-0.1692940598908628,-1.671101137174934,4.049883459158977e-05,-1.063259082757003e-05,-1.336880909739947e-05,4.814282760603942e-05,4.859945439550487e-05
307.8112462599917,194.1372398134307,12.5,0,12.47550659309541,-0.2187864356854621,-1.501815480591255,4.009665024645368e-05,-1.068052186866981e-05,-1.201452384473004e-05,4.743069487794234e-05,4.805238952905308e-05
305.2365764248101,195.9276817415241,12.5,0,13.06413046954191,-0.05606651364840864,-1.683690236264999,4.185007071345285e-05,-1.063071721930844e-05,-1.346952189011999e-05,5.021117286838692e-05,4.948576459209922e-05
307.9800090071367,196.9159128684381,12.5,0,12.9023719588094,-0.1112011127225894,-1.517255431479766,4.137655115836816e-05,-1.067774112775981e-05,-1.213804345183813e-05,4.939214443468219e-05,4.899126135965465e-05
304.9619351940377,188.8423003661971,12.5,0,12.11492129100958,-0.1151173672475796,-1.978288335159134,3.885984202502872e-05,-1.006031260799992e-05,-1.582630668127308e-05,4.647203710644278e-05,4.696533352410364e-05
307.518940607517,189.3244369046217,12.5,0,12.02484918877082,-0.1723500249840559,-1.814944827852912,3.861739742405386e-05,-1.017139943096563e-05,-1.451955862282329e-05,4.591430046070736e-05,4.634091452246656e-05
305.0624608614281,191.4357299450974,12.5,0,12.56821828135102,-0.0003711785745301732,-1.999545461045288,4.021859544318289e-05,-1.005576239651931e-05,-1.59963636883623e-05,4.855521886037529e-05,4.792410692627816e-05
307.6877033546619,192.1031099596291,12.5,0,12.45231283580054,-0.06338406778285588,-1.838498698742829,3.989810832878801e-05,-1.016467928554557e-05,-1.470798958994263e-05,4.788220415409677e-05,4.734223123438825e-05
300.5330719027422,188.0072153854755,12.5,0,12.31555963686215,0.01494478963437995,-2.128785110479318,3.939783500625136e-05,-9.8046243826597e-06,-1.703028088383455e-05,4.767063529759307e-05,4.8146209681786e-05
303.0900773162216,188.4893519239,12.5,0,12.21224717866357,-0.06907313597119469,-1.949788563552053,3.913444948050037e-05,-9.990831778038676e-06,-1.559830850841643e-05,4.697486142027387e-05,4.744906090412804e-05
300.51540748104,190.2797938519934,12.5,0,12.74882621115884,0.1228404517867663,-2.149186075462448,4.069797151427888e-05,-9.80597152320942e-06,-1.719348860369958e-05,4.965701223277054e-05,4.904028545740288e-05
303.1406499742738,190.947173866525,12.5,0,12.61830991233133,0.03348600668389468,-1.97320439973656,4.035180291411312e-05,-9.987492708476596e-06,-1.578563519789248e-05,4.884214427731575e-05,4.837909918402502e-05
300.5024762268682,191.9434367536007,12.5,0,12.8032998319364,-0.06184739292521879,-1.851673222919232,4.102003737653666e-05,-1.044055152290982e-05,-1.481338578335385e-05,4.923267476839219e-05,4.966836163636979e-05
303.1776717294402,192.7464244044076,12.5,0,12.64050754528817,-0.1511240736309278,-1.658643249726328,4.057052340382687e-05,-1.05960030718495e-05,-1.326914599781063e-05,4.829784933251898e-05,4.903245281663812e-05
300.4848118051659,194.2160152201187,12.5,0,13.24643093770938,0.04860012728701824,-1.867633984627831,4.23496988988404e-05,-1.044162434284904e-05,-1.494107187702265e-05,5.126513273444746e-05,5.049022189278718e-05
303.2282443874925,195.2042463470327,12.5,0,13.05830716489057,-0.0458380305725119,-1.678119768579514,4.182325335210782e-05,-1.059332742974449e-05,-1.342495814863611e-05,5.021853554756254e-05,4.988740985642571e-05
189.1689185982286,139.1473108509966,12.5,0,2.485299422781821,4.385427402414389,1.272307215420554,4.444616230970318e-06,1.204512814950058e-05,1.017845772336443e-05,2.525434565067902e-05,2.496222679720953e-05
190.3257170221228,137.3829029268343,12.5,0,2.495501441703051,4.24920425218238,1.199248049213834,4.586241211703857e-06,1.160105245362117e-05,9.593984393710675e-06,2.476176572551626e-05,2.383769394395046e-05
190.7296311430266,140.983893719672,12.5,0,2.588692048338894,4.606679138942075,1.16398694441707,4.598471243530801e-06,1.267041960594352e-05,9.31189555533656e-06,2.639908154961856e-05,2.703291960898644e-05
191.6471611843579,139.2828619414507,12.5,0,2.609307550586215,4.471420383313429,1.0716049307001,4.772647855225143e-06,1.2221099186134e-05,8.572839445600798e-06,2.594281166353396e-05,2.58369616353047e-05
191.1725522424929,136.0912666811253,12.5,0,1.80640984851291,4.368082073601324,1.121600441539877,2.286045856360252e-06,1.253273475671391e-05,8.972803532319019e-06,2.281866579301705e-05,2.301339018508251e-05
192.329350666387,134.326858756963,12.5,0,1.892580880853709,4.294827189464575,1.091165690448678,2.620397067160208e-06,1.222938230160367e-05,8.729325523589425e-06,2.282692481260628e-05,2.188588328814861e-05
192.3188397920547,138.0376202545565,12.5,0,1.96190965447627,4.505658255189418,1.026034373920705,2.673584290172529e-06,1.284857869302512e-05,8.208274991365643e-06,2.38322656043682e-05,2.496929176909631e-05
193.236369833386,136.3365884763354,12.5,0,2.077794583644338,4.434929996135229,0.9809184370889757,3.100998670753699e-06,1.252954032071726e-05,7.847347496711806e-06,2.395015037985114e-05,2.379473158399945e-05
189.187123966604,132.7200834025096,12.5,0,1.124116195831422,4.045266496757336,1.219657402945574,3.609586292546818e-07,1.204555983295834e-05,9.757259223564592e-06,1.937081185254894e-05,1.976667216891397e-05
190.7583473857341,130.8459047735913,12.5,0,1.227130374248772,3.929820147432118,1.196510652320838,7.829610796503771e-07,1.159372017238376e-05,9.5720852185667e-06,1.926668677695782e-05,1.868483993423885e-05
190.3334115161658,134.6664369759409,12.5,0,1.304715919791862,4.197610535011817,1.11327989039318,8.170025153245046e-07,1.238858097620432e-05,8.906239123145437e-06,2.049786237532217e-05,2.161935246473071e-05
191.6653665527332,132.8556344929638,12.5,0,1.4351559075026,4.080079459423768,1.078656473590486,1.328435336469305e-06,1.190812954415398e-05,8.629251788723892e-06,2.047747774110494e-05,2.051669194722733e-05
188.0369085938074,134.0920773812792,12.5,0,1.866100256347191,3.879902239409815,1.312530759916706,2.867599028783159e-06,1.092280696103365e-05,1.050024607933365e-05,2.126971228760917e-05,2.053899374277317e-05
189.3583527560426,135.9920363958956,12.5,0,1.991710255950034,4.05905384417771,1.205072800624273,3.12622974369794e-06,1.139560409660864e-05,9.640582404994182e-06,2.232315512979623e-05,2.24181077256648e-05
186.4656851746772,135.9662560101975,12.5,0,1.833738382227695,4.020665529280786,1.360899544989522,2.651430399703994e-06,1.139913898791636e-05,1.088719635991618e-05,2.170190721731271e-05,2.156718328775262e-05
188.0263977194751,137.8028388788728,12.5,0,1.947732875347434,4.202336291388354,1.265490460582503,2.870876168001105e-06,1.188928983216479e-05,1.012392368466002e-05,2.272792657422667e-05,2.349768716393905e-05
244.2446144410507,152.3759387648138,12.5,0,6.320006026293414,6.198086626362408,-3.55787997420904,1.5265549983049e-05,1.477787238332497e-05,-2.846303979367232e-05,4.631480201106112e-05,4.555499043574459e-05
246.4448492826735,152.7031907779241,12.5,0,6.091544219031157,5.635372274965974,-3.291720403709837,1.498464368092692e-05,1.315995590466619e-05,-2.63337632296787e-05,4.337076299587542e-05,4.542158291603632e-05
244.8155257808981,154.5352917521778,12.5,0,6.9721747833432,6.492186996303503,-3.817355100017026,1.711720970965544e-05,1.519725856149665e-05,-3.05388408001362e-05,4.981459066838171e-05,4.782876806572478e-05
246.9941907407421,154.8415273782807,12.5,0,6.747644292419348,5.927705729935084,-3.551410073718384,1.685029715179384e-05,1.357054290185679e-05,-2.841128058974707e-05,4.688265840638209e-05,4.761377377637928e-05
243.2557669938354,148.6358296792908,12.5,0,5.408686302464154,6.071607025098752,-3.373089116940088,1.245051054780629e-05,1.510219343834468e-05,-2.69847129355207e-05,4.253905265878681e-05,4.165417812743476e-05
245.4933619666119,148.999483142489,12.5,0,5.180565961881384,5.531037370282742,-3.11281434240203,1.215298118179423e-05,1.355486681539966e-05,-2.490251473921624e-05,3.966783842827793e-05,4.164882839154922e-05
243.8266783336829,150.7951826666548,12.5,0,6.029865969878477,6.350150929472861,-3.61788360065822,1.421545036003283e-05,1.549659019841037e-05,-2.894306880526576e-05,4.585563884423856e-05,4.390051404823794e-05
246.0427034246804,151.1378197428456,12.5,0,5.805360957592179,5.80787194105984,-3.357738853940922,1.39308575114471e-05,1.394090144531774e-05,-2.686191083152737e-05,4.299540487561633e-05,4.38232806173251e-05
239.3801388142956,148.0059634046944,12.5,0,5.126015044048202,6.379767450698793,-3.088851138144063,1.129943418039521e-05,1.631444380699757e-05,-2.471080910515251e-05,4.251116407758003e-05,4.152309286667801e-05
241.617733787072,148.3696168678926,12.5,0,4.901965903361191,5.847375648770993,-2.83403010652542,1.100839037173902e-05,1.479002935337822e-05,-2.267224085220336e-05,3.968226103448543e-05,4.162048739508666e-05
239.9884102852967,150.2017178421463,12.5,0,5.745713292079806,6.664063792447149,-3.336447310152782,1.305503150069766e-05,1.672843350216703e-05,-2.669157848122225e-05,4.583606839653381e-05,4.389709207705052e-05
242.2044353762942,150.544354918337,12.5,0,5.525244265994859,6.130097811168685,-3.081818999847751,1.27767034022486e-05,1.519611758294391e-05,-2.465455199878201e-05,4.301805734668601e-05,4.392029176926291e-05
240.4336959068452,151.8091216512376,12.5,0,6.05111975116288,6.554401204152517,-3.293373377331586,1.41200622403992e-05,1.613318805235775e-05,-2.634698701865269e-05,4.65035692179764e-05,4.565420114382906e-05
242.633930748468,152.136373664348,12.5,0,5.825023775542356,5.997189121701372,-3.030169134450372,1.384232478437444e-05,1.453098616901051e-05,-2.424135307560298e-05,4.358347244068272e-05,4.561732030202447e-05
241.0419673778463,154.0048760886895,12.5,0,6.708548472348539,6.857038767821326,-3.557505725842504,1.598172409725826e-05,1.657568527914941e-05,-2.846004580674003e-05,5.004712336159145e-05,4.808071317853955e-05
243.2206323376902,154.3111117147923,12.5,0,6.486388442558295,6.298201198314254,-3.294575283351866,1.571788205753514e-05,1.496513308055897e-05,-2.635660226681493e-05,4.713941271112408e-05,4.795388410144401e-05
250.4915106355232,111.4377529693452,12.5,0,-1.87965221505087,3.451870855226293,-2.630752421711843,-8.776383772343818e-06,1.254970850876483e-05,-2.104601937369475e-05,1.024710684352263e-05,1.003735894781182e-05
252.6126591642185,111.8214259976374,12.5,0,-1.996886208129833,3.256055957003767,-2.467709506938826,-8.994880631618479e-06,1.201688802891592e-05,-1.97416760555106e-05,9.237092399316034e-06,1.01959336388879e-05
250.6775506243827,113.4259226724816,12.5,0,-1.488505249776164,3.564638281382943,-2.708375767195438,-7.614927424390077e-06,1.259764670024635e-05,-2.16670061375635e-05,1.149116179923505e-05,1.110670177236724e-05
252.803518850878,113.8609232317555,12.5,0,-1.615581567349404,3.365987119688797,-2.543380735204193,-7.862650711269129e-06,1.206362403688367e-05,-2.034704588163355e-05,1.039479463699767e-05,1.130055107301907e-05
250.1692799225847,107.994142029506,12.5,0,-2.534933680253184,3.283124314144035,-2.519397542196489,-1.073828722812542e-05,1.253394474946346e-05,-2.015518033757191e-05,8.504685372799436e-06,8.442537790399588e-06
252.2820804898136,108.2889131663121,12.5,0,-2.630475786591344,3.106814702058728,-2.36333996415396,-1.090297427873928e-05,1.2046187675861e-05,-1.890671971323168e-05,7.698941176259742e-06,8.545344930066138e-06
250.3553199114443,109.9823117326422,12.5,0,-2.151447032129201,3.392763855865624,-2.591579039296684,-9.598841587505941e-06,1.257800196447336e-05,-2.073263231437347e-05,9.524755567006758e-06,9.323498360361725e-06
252.4729401764731,110.3284104004302,12.5,0,-2.256638992111028,3.213696503056766,-2.433706209033942,-9.792201977200702e-06,1.208914000347047e-05,-1.946964967227153e-05,8.632109420141726e-06,9.457678377925373e-06
246.5098019939496,107.483583443962,12.5,0,-2.720130043540598,3.379450775146782,-2.325029039248479,-1.140797675944734e-05,1.299034651530218e-05,-1.860023231398784e-05,8.291393790057233e-06,8.262688608795954e-06
248.6226025611786,107.7783545807682,12.5,0,-2.812124793429139,3.215747865848392,-2.170759940264879,-1.157139763165196e-05,1.254009300545816e-05,-1.736607952211903e-05,7.547899380495984e-06,8.366800257382048e-06
246.6874940213428,109.3828512556123,12.5,0,-2.356423193398888,3.482530762671914,-2.389636032965222,-1.032657882901397e-05,1.302923699526923e-05,-1.911708826372177e-05,9.215984018205587e-06,9.087027899328546e-06
248.8051142863716,109.7289499234003,12.5,0,-2.45798715877459,3.31611692417213,-2.233668241026022,-1.051845244741639e-05,1.257796388437048e-05,-1.786934592820817e-05,8.391119182333644e-06,9.224182863950587e-06
246.8175736134889,110.7732117908614,12.5,0,-2.099464180993438,3.541933336028929,-2.423207028060589,-9.551832048002143e-06,1.301375802008732e-05,-1.938565622448471e-05,9.879590230369079e-06,9.75526615072468e-06
248.9387221421842,111.1568848191535,12.5,0,-2.20827761429814,3.373095483259307,-2.265670631518206,-9.764964752361491e-06,1.256052763786829e-05,-1.812536505214565e-05,8.996143831931029e-06,9.919282450231512e-06
246.995265640882,112.6724796025118,12.5,0,-1.735029168071708,3.645227565033668,-2.487976939316409,-8.468275389856401e-06,1.30527515425651e-05,-1.990381551453127e-05,1.098445628363299e-05,1.075658771464493e-05
249.1212338673773,113.1074801617857,12.5,0,-1.853430702007526,3.473673226682982,-2.328737614135741,-8.709916827770469e-06,1.259849888699156e-05,-1.862990091308593e-05,1.00223178932166e-05,1.096094722978331e-05
139.5008021796594,75.53854031818142,12.5,0,-8.449442253011918,0.4234584681211504,1.936687443391925,-2.737698198413506e-05,8.114620900397215e-06,1.54934995471354e-05,2.678094298554751e-06,2.6805242322404e-06
141.7975091841064,75.68475742957692,12.5,0,-8.496716173996315,0.3327193452748256,2.093190883333318,-2.745566723300806e-05,7.862074844076493e-06,1.674552706666655e-05,2.688278112165772e-06,2.709790634222145e-06
140.112111930265,77.43116031845454,12.5,0,-8.104966814958079,0.5305454733341683,1.869673543742988,-2.636033018653318e-05,8.181718966635801e-06,1.49573883499439e-05,2.657705152382075e-06,2.643821437655732e-06
142.4266973600427,77.58724655814814,12.5,0,-8.153539876175751,0.4398935832605546,2.025478390387222,-2.644324247037084e-05,7.930491367374374e-06,1.620382712309778e-05,2.666758067192686e-06,2.673992370024017e-06
138.4419826324672,72.26042631834625,12.5,0,-8.976015450775419,0.3725629606176013,1.910990130503977,-2.902129981097542e-05,8.373013834596659e-06,1.528792104403182e-05,2.740918970239912e-06,2.747542467941214e-06
140.7077232958828,72.38954959810336,12.5,0,-9.018331940985361,0.2870817323082036,2.059715591292058,-2.908832759699972e-05,8.133327096174539e-06,1.647772473033646e-05,2.747907183368952e-06,2.773554973069118e-06
139.0532923830729,74.15304631861937,12.5,0,-8.643749550547707,0.4758014789325089,1.846415277416271,-2.804063974489867e-05,8.437564373022194e-06,1.477132221933017e-05,2.718927467914874e-06,2.708316198542655e-06
141.336911471819,74.29203872667456,12.5,0,-8.687354744331582,0.3903922575341587,1.994473552913193,-2.811184898788839e-05,8.199139019574573e-06,1.595578842330554e-05,2.724910346888963e-06,2.73646835330359e-06
134.5176046867271,72.03677823737102,12.5,0,-8.990623690960305,0.2923496234595246,1.951386677518122,-2.900387550984059e-05,8.128017747838722e-06,1.561109342014498e-05,2.706369008485627e-06,2.710908935448371e-06
136.7833453501427,72.16590151712813,12.5,0,-9.041150514136996,0.1778064552359577,2.107359578917379,-2.907392680942715e-05,7.801901068064661e-06,1.685887663133903e-05,2.701137827068728e-06,2.730756512752248e-06
135.0979480963013,73.91230440600576,12.5,0,-8.645134292275504,0.4047772715899733,1.878421947919358,-2.798825155255358e-05,8.211394702908317e-06,1.502737558335487e-05,2.683368416016398e-06,2.665726730757653e-06
137.3815671850475,74.05129681406096,12.5,0,-8.696969154449089,0.2904544330274077,2.033714296375967,-2.806266484065901e-05,7.887029509246976e-06,1.626971437100773e-05,2.676556205626908e-06,2.689361037910793e-06
135.5227889579293,75.28528485231303,12.5,0,-8.452944030723117,0.3296372298603578,1.960864897286665,-2.731313068220226e-05,7.817194360131637e-06,1.568691917829332e-05,2.626111902706592e-06,2.634359657663258e-06
137.8194959623764,75.43150196370851,12.5,0,-8.50096379630042,0.2357112954740277,2.117125199829482,-2.739165318454056e-05,7.555047182557223e-06,1.693700159863586e-05,2.635952233446995e-06,2.660312562987785e-06
136.1031323675035,77.16081102094775,12.5,0,-8.112310407411966,0.4354580908286079,1.895268076049865,-2.630775977638118e-05,7.883314216581118e-06,1.516214460839892e-05,2.604236302701925e-06,2.593845424971717e-06
138.4177177972812,77.31689726064133,12.5,0,-8.161616983724501,0.3416467920966815,2.050819032793283,-2.639049178159575e-05,7.622563321688981e-06,1.640655226234626e-05,2.613038347118778e-06,2.622346128453815e-06
236.4992773266821,151.5734163665905,12.5,0,5.791139304328679,6.892403565712974,-2.935111591911897,1.301772292128139e-05,1.742277996681857e-05,-2.348089273529518e-05,4.664299217086685e-05,4.594230906977878e-05
238.789920476684,151.6582776979349,12.5,0,5.630673179555886,6.329296430298512,-2.714773500138142,1.295471703034002e-05,1.574921003331053e-05,-2.171818800110513e-05,4.394959130105128e-05,4.574128162169531e-05
237.3366321041408,153.8394236726949,12.5,0,6.433240339769523,7.253583704796753,-3.233875708278516,1.478350212342507e-05,1.806487558353399e-05,-2.587100566622813e-05,5.034815690610409e-05,4.853574738522759e-05
239.4653542670513,153.8784876587339,12.5,0,6.274011115058507,6.658115627877018,-3.003929002661865,1.47503430658856e-05,1.628676111715965e-05,-2.403143202129492e-05,4.754268393348492e-05,4.823662297552984e-05
235.0489363081889,147.648576582166,12.5,0,4.868532017977541,6.688717307979162,-2.712190860454323,1.02283286111448e-05,1.750906977115128e-05,-2.169752688363459e-05,4.25609207279371e-05,4.154862972058028e-05
237.6200348346401,147.8127612424297,12.5,0,4.690566232340419,6.118603934438337,-2.476787572049794,1.011492879593867e-05,1.582707960433034e-05,-1.981430057639835e-05,3.976382984008405e-05,4.150383866082464e-05
235.8862910856477,149.9145838882704,12.5,0,5.461008129983131,7.015602617001656,-2.981193605829845,1.186274392234469e-05,1.808112187041879e-05,-2.384954884663876e-05,4.594328252765722e-05,4.407011653417356e-05
238.2954686250073,150.0329712032287,12.5,0,5.282195755830934,6.415593301305654,-2.73576512860199,1.177055177761446e-05,1.630414195951334e-05,-2.188612102881592e-05,4.303461587417865e-05,4.393723750181326e-05
230.5956630291901,147.3642004087711,12.5,0,4.686106393313397,6.846130467401125,-2.315435705292775,9.518636084681969e-06,1.815873238103288e-05,-1.85234856423422e-05,4.234399591524071e-05,4.148272001025656e-05
233.1667615556412,147.5283850690348,12.5,0,4.502322235468096,6.249900356735414,-2.083854938157338,9.407510868109575e-06,1.639782335317885e-05,-1.66708395052587e-05,3.943280695298958e-05,4.15429709952155e-05
231.7134731830981,149.7095310437947,12.5,0,5.304544309548454,7.250274226692593,-2.623499370172429,1.117432240920098e-05,1.895724207777753e-05,-2.098799496137943e-05,4.610527038615293e-05,4.419204162199016e-05
234.1226507224577,149.827918358753,12.5,0,5.120022053508439,6.624734666660674,-2.383072726336517,1.108428283789847e-05,1.71031332905074e-05,-1.906458181069213e-05,4.308445629141653e-05,4.413839109240095e-05
232.5317670089404,151.4264322291068,12.5,0,5.632116590126126,7.138454058045236,-2.552718434364339,1.231200984196741e-05,1.833735971364385e-05,-2.042174747491471e-05,4.682658672544217e-05,4.619618563871978e-05
234.8224101589423,151.5112935604511,12.5,0,5.456970722497937,6.513326890850158,-2.340426144689701,1.225164479931327e-05,1.647706947272216e-05,-1.87234091575176e-05,4.385731397156962e-05,4.606420023377036e-05
233.6495771628485,153.7717628641303,12.5,0,6.294179696942264,7.601266758442965,-2.906387999475758,1.406036162346087e-05,1.928870986946368e-05,-2.325110399580606e-05,5.09825516991934e-05,4.896228730660948e-05
235.7782993257588,153.8108268501694,12.5,0,6.119612245918076,6.942542986915981,-2.686374031916233,1.402872479740506e-05,1.732044776139668e-05,-2.149099225532986e-05,4.789405517324805e-05,4.873018855671041e-05
267.3931549331284,225.2354715236081,12.5,0,16.1876237519983,0.4604126895496758,-0.1583828263184914,5.143206585475483e-05,-1.147677839503968e-05,-1.267062610547931e-06,6.361035409740184e-05,6.617209069622976e-05
269.4064937310519,225.2618192980389,12.5,0,16.20384854438895,0.5107110112116113,-0.2701958044006839,5.144374653307535e-05,-1.1328803599634e-05,-2.161566435205471e-06,6.382922926909807e-05,6.438744240571493e-05
267.870780999362,227.1685076237887,12.5,0,15.89630905874573,0.3765100405264441,-0.1137367100779692,5.056698095556519e-05,-1.151221511731196e-05,-9.098936806237537e-07,6.22336391713781e-05,6.434753836683637e-05
269.7846941692472,227.1307854552323,12.5,0,15.90301278452868,0.4261190901829406,-0.2290096889392404,5.054874563834542e-05,-1.135882913903753e-05,-1.832077511513923e-06,6.2413157001366e-05,6.289347242039909e-05
266.5658823194074,221.8873547852911,12.5,0,16.59073165062185,0.7720309685451778,-0.4674642081879557,5.247271650715376e-05,-1.080208622115291e-05,-3.739713665503646e-06,6.612633298595493e-05,6.909492713496342e-05
268.7514313566646,222.0246749562114,12.5,0,16.59421558274995,0.7423994744934879,-0.5360379684085512,5.250757028520505e-05,-1.08996941478208e-05,-4.28830374726841e-06,6.605162756075538e-05,6.678301836687389e-05
267.043508385641,223.8203908854714,12.5,0,16.42754028461312,0.7379578095583406,-0.463063576233388,5.197776266311531e-05,-1.078056723710381e-05,-3.704508609867103e-06,6.539424302654299e-05,6.744414968276639e-05
269.1296317948599,223.8936411134048,12.5,0,16.4258422684016,0.7059771162088415,-0.5343560946770255,5.199791356591803e-05,-1.088154704285299e-05,-4.274848757416204e-06,6.529260236555977e-05,6.542964310096418e-05
262.7804003445125,221.6495092723571,12.5,0,16.92147970510015,1.258184531550958,-0.8537864689702845,5.314218743107972e-05,-9.510993263117055e-06,-6.830291751762276e-06,6.892769662406721e-05,7.587864161382963e-05
264.9659493817698,221.7868294432775,12.5,0,16.91660714865625,1.197984799405463,-0.9170962206307248,5.317475503617563e-05,-9.699734360827522e-06,-7.336769765045798e-06,6.872667227688053e-05,7.153209203856711e-05
263.4302366500798,223.6935177690272,12.5,0,16.76325628529851,1.236312338322179,-0.8566097421911248,5.265337024229749e-05,-9.454405545607832e-06,-6.852877937528999e-06,6.825254892429589e-05,7.352768367371217e-05
265.5163600592988,223.7667679969605,12.5,0,16.75330245037892,1.173058414983067,-0.9225079847500648,5.267212110922608e-05,-9.648855032357321e-06,-7.380063878000519e-06,6.802285540332835e-05,6.961401311444115e-05
263.9059498423377,225.1898358396286,12.5,0,16.43778516326547,0.6533232081274529,-0.4651138679867388,5.207825395594752e-05,-1.105959386460452e-05,-3.72091094389391e-06,6.517302528740366e-05,7.163442329168087e-05
265.9192886402613,225.2161836140593,12.5,0,16.47413078340493,0.7840929644300028,-0.5774125059323848,5.208994413535178e-05,-1.067020714054794e-05,-4.619300047459078e-06,6.57212246089814e-05,6.811391337212768e-05
264.555786147905,227.2338443362988,12.5,0,16.12221329751564,0.5348036934687146,-0.3788940463327777,5.116323959727508e-05,-1.118639881891263e-05,-3.031152370662222e-06,6.35929998359387e-05,6.881289767591165e-05
266.4696993177903,227.1961221677424,12.5,0,16.14963359755066,0.6671884441316678,-0.4930956133498217,5.114507675685678e-05,-1.078470385681919e-05,-3.944764906798574e-06,6.411016413530773e-05,6.593364358365799e-05
176.481529335184,135.3193458311131,12.5,0,1.725096142810382,3.142706975019366,1.642812038320255,3.006142076977731e-06,8.676585405813664e-06,1.314249630656204e-05,1.823906448518927e-05,1.811617968655752e-05
177.9309619438547,134.14947460652,12.5,0,1.761650429197104,2.995931216646768,1.628776059075468,3.240536400113319e-06,8.177659549911973e-06,1.303020847260375e-05,1.782173454433595e-05,1.769661540252228e-05
177.7852577294927,136.8087269550795,12.5,0,1.858290895479037,3.312482976795388,1.548671854527114,3.296544484096609e-06,9.11331280936201e-06,1.238937483621691e-05,1.926019144450965e-05,1.959483976115956e-05
179.2634699824877,135.6054423635258,12.5,0,1.894527518849226,3.169752211179417,1.534588846679143,3.52668629137399e-06,8.627585060694753e-06,1.227671077343314e-05,1.885561517040033e-05,1.915326236195589e-05
178.7396531533563,137.8990296096107,12.5,0,2.217225130854159,3.410093492609258,1.578889098335249,4.367045624645901e-06,9.138519071666298e-06,1.263111278668199e-05,2.086520370502314e-05,2.070452542661945e-05
180.2389335682196,136.6712847357907,12.5,0,2.255030145373426,3.251006612756771,1.561577091589764,4.615291174989545e-06,8.599197044522927e-06,1.249261673271811e-05,2.040905929891324e-05,2.024705821431719e-05
180.043381547665,139.3884107335771,12.5,0,2.353089162497179,3.58683210610806,1.481547065649806,4.660419635104524e-06,9.595391409548048e-06,1.185237652519845e-05,2.193593393824836e-05,2.225758297061359e-05
181.5714416068527,138.1272524927965,12.5,0,2.390571101054211,3.43193393863919,1.464250229650204,4.904280372462124e-06,9.069731722802037e-06,1.171400183720163e-05,2.149330971426291e-05,2.177871709676981e-05
181.3364830066459,135.7725131094606,12.5,0,1.822507237941995,3.575289752244045,1.513089650648474,2.971791359619147e-06,9.982921416827346e-06,1.210471720518779e-05,2.008457966689594e-05,1.989716761583338e-05
182.8357634215092,134.5447682356407,12.5,0,1.843317768927058,3.39130686730402,1.483753454976255,3.185571366723369e-06,9.377527760231217e-06,1.187002763981004e-05,1.946501962267592e-05,1.939871593594654e-05
182.6900592071472,137.2040205842002,12.5,0,1.947798377906948,3.772974725099576,1.414017681684371,3.214575029222572e-06,1.051528041799308e-05,1.131214145347497e-05,2.119463788546742e-05,2.141050114159362e-05
184.2181192663348,135.9428623434196,12.5,0,1.968622047382389,3.593842443433418,1.384958027536329,3.424516596876909e-06,9.925398181081027e-06,1.107966422029063e-05,2.059250624066772e-05,2.088338231769575e-05
178.9920202555037,133.2930694318414,12.5,0,1.350639939484996,3.300313624681363,1.58410049924928,1.681796906606896e-06,9.480491647392364e-06,1.267280399399424e-05,1.752492094078841e-05,1.737689680947485e-05
180.4414528641744,132.1231982072483,12.5,0,1.364586452920054,3.123436066511136,1.554696293629819,1.867927796135264e-06,8.90332625049959e-06,1.243757034903855e-05,1.690512918197858e-05,1.692297365314294e-05
180.345596456005,134.7245769065811,12.5,0,1.468210534953456,3.493591023755283,1.48857989275808,1.903400892846834e-06,1.000492284805414e-05,1.190863914206464e-05,1.857664881503512e-05,1.881636659248911e-05
181.823808709,133.5212923150273,12.5,0,1.482299199932926,3.321576657897756,1.459478957389484,2.086096113467157e-06,9.443205945326477e-06,1.167583165911587e-05,1.7974216448075e-05,1.833752763261542e-05
242.5722798993835,144.9320750109828,12.5,0,4.55923506403056,5.884347042107461,-3.215340240302216,9.88207457121182e-06,1.518252248351943e-05,-2.572272192241773e-05,3.880378455545066e-05,3.786541952730095e-05
244.8188684044609,145.3347286700863,12.5,0,4.362952335640642,5.471715141065385,-2.981441767516575,9.584075361197746e-06,1.401912658289671e-05,-2.38515341401326e-05,3.650936437809366e-05,3.796618130005002e-05
242.9196519463885,147.0648147178656,12.5,0,5.093694114875111,6.073483471029315,-3.383433118933328,1.14410343907769e-05,1.536019181539372e-05,-2.706746495146663e-05,4.144281951084481e-05,4.003707942435453e-05
245.1654363612853,147.4445495759873,12.5,0,4.903613760367683,5.66351182093634,-3.15171880890271,1.116075457642751e-05,1.420034681870214e-05,-2.521375047122168e-05,3.91839335676011e-05,4.007942335954533e-05
241.9706138648525,141.2380614794085,12.5,0,3.739905280908514,5.68257262832271,-3.050970308375307,7.421638796249074e-06,1.519230818590586e-05,-2.440776246700246e-05,3.514586357567986e-05,3.417139450801529e-05
244.2185950949764,141.6804116662605,12.5,0,3.545677191428728,5.298037845862779,-2.825122757741405,7.107736735881704e-06,1.411717935361791e-05,-2.260098206193124e-05,3.295950253832439e-05,3.436277334436246e-05
242.3179859118575,143.3708011862913,12.5,0,4.251826835748706,5.86182896558487,-3.20732891025084,8.916382701927962e-06,1.535639122127262e-05,-2.565863128200672e-05,3.764900579747892e-05,3.629371399096135e-05
244.5651630518008,143.7902325721615,12.5,0,4.063562016323279,5.479812511804381,-2.983529082608097,8.619548442790985e-06,1.42845504247154e-05,-2.386823266086477e-05,3.549574627469953e-05,3.643440954511808e-05
238.0769961598868,140.471888481057,12.5,0,3.450873361075185,5.890963617233002,-2.750464594113736,6.330023861654191e-06,1.609038488628546e-05,-2.200371675290989e-05,3.47501996409141e-05,3.371803338845977e-05
240.3249773900106,140.914238667909,12.5,0,3.268012534841344,5.537773178270154,-2.534038538010388,6.027421568876177e-06,1.510646414259141e-05,-2.027230830408311e-05,3.272310728052224e-05,3.399863695750847e-05
238.4257609319383,142.6443247156883,12.5,0,3.952806777814849,6.063572117565196,-2.897341809125623,7.798123994955358e-06,1.624118535395675e-05,-2.317873447300499e-05,3.718124643457793e-05,3.592345305872538e-05
240.6729380718816,143.0637561015585,12.5,0,3.775672153485889,5.712737957517226,-2.682808613004841,7.511960525141063e-06,1.526022374126641e-05,-2.146246890403873e-05,3.5184900727712e-05,3.615680361306925e-05
238.6810744649594,144.2346584155744,12.5,0,4.273580918388594,6.143791690678021,-2.917238006444969,8.760425586301082e-06,1.624126867545879e-05,-2.333790405155975e-05,3.859427921926666e-05,3.755981652959259e-05
240.9276629700366,144.637312074678,12.5,0,4.087896683229493,5.757605182619608,-2.693943930338172,8.475185240238692e-06,1.515401923779915e-05,-2.155155144270538e-05,3.64375097892696e-05,3.775653441522781e-05
239.0298392370108,146.4070946502057,12.5,0,4.794256821630157,6.326068507829499,-3.07757835113395,1.02807670229529e-05,1.640801376775027e-05,-2.46206268090716e-05,4.11484863685015e-05,3.9825025001576e-05
241.2756236519076,146.7868295083274,12.5,0,4.614493592759157,5.942382105317467,-2.85632862252321,1.001247381257533e-05,1.532402786280857e-05,-2.285062898018568e-05,3.902486781576974e-05,3.996891358978297e-05
163.3392268367579,76.92072870530887,12.5,0,-8.417958509447011,1.078571450777965,1.628010934112663,-2.78003243908528e-05,1.01857954500471e-05,1.302408747290131e-05,3.034204096812996e-06,3.013308305781188e-06
165.6105355612182,77.05589526877657,12.5,0,-8.478833131511227,0.9260307765862041,1.784123249136776,-2.787309064210489e-05,9.746364990284833e-06,1.427298599309421e-05,2.983565591114564e-06,3.04695919148723e-06
164.1222004123439,78.85044962718868,12.5,0,-8.058870861820019,1.215705091342132,1.528604736636421,-2.676095083089776e-05,1.033735298175084e-05,1.222883789309137e-05,3.040670643725203e-06,2.99817314717621e-06
166.3992820533598,78.99021832823779,12.5,0,-8.120447450181207,1.063123253620946,1.68466697014069,-2.683593044347662e-05,9.898352371731992e-06,1.347733576112552e-05,2.98420366409837e-06,3.033897086942768e-06
161.9830768228834,73.57835402424448,12.5,0,-8.977084494743886,0.9746273718688641,1.617952000084513,-2.950637228067552e-05,1.030047518577547e-05,1.29436160006761e-05,3.064076825501564e-06,3.053345707085926e-06
164.2443865625617,73.70554945159788,12.5,0,-9.033727120078554,0.8329266980154206,1.77170512039465,-2.957426814266371e-05,9.892347129712188e-06,1.41736409631572e-05,3.020996568239431e-06,3.084480029341994e-06
162.7660503984694,75.50807494612428,12.5,0,-8.621774479018839,1.107637409322347,1.522125775614984,-2.847578826031816e-05,1.044185929304658e-05,1.217700620491987e-05,3.063468511617463e-06,3.028091748652894e-06
165.0331330547034,75.63987251105908,12.5,0,-8.679120126323683,0.9658856801069517,1.675824726734293,-2.854589294832134e-05,1.003413027740119e-05,1.340659781387434e-05,3.015696644564505e-06,3.060512850053471e-06
158.0663734621804,73.35804508158193,12.5,0,-8.963842391762157,0.8647554681235623,1.697808096178559,-2.937610002813775e-05,9.938291411405124e-06,1.358246476942848e-05,3.005681538326452e-06,2.998548217078226e-06
160.3276832018589,73.48524050893532,12.5,0,-9.022367043231657,0.713480493254345,1.848128271194264,-2.944235893294477e-05,9.501031212999229e-06,1.478502616955411e-05,2.95937603417645e-06,3.030320347386424e-06
158.8393480529846,75.27979486734743,12.5,0,-8.617519103216258,0.9980681516343486,1.600976964465231,-2.83745156515995e-05,1.008783336780292e-05,1.280781571572184e-05,3.003278773057669e-06,2.971074700892679e-06
161.1064307092185,75.41159243228225,12.5,0,-8.676725829336812,0.8467581550657486,1.751251103791857,-2.844292917793039e-05,9.651006759679845e-06,1.401000883033486e-05,2.952299066055203e-06,3.004126868813471e-06
159.405204726389,76.68661334990257,12.5,0,-8.419351910925773,0.9641280273816286,1.70178222609975,-2.771322853686777e-05,9.820691216361828e-06,1.3614257808798e-05,2.971674172768236e-06,2.954148141117775e-06
161.6765134508492,76.82177991337026,12.5,0,-8.478287778832062,0.8181710443658612,1.855781090293039,-2.778505772775528e-05,9.400777565036404e-06,1.484624872234432e-05,2.929536712050795e-06,2.988439659786782e-06
160.1781793171931,78.60836313566807,12.5,0,-8.066852901115118,1.096933106912936,1.605977256060982,-2.669147576909872e-05,9.963668263013488e-06,1.284781804848786e-05,2.972955341974635e-06,2.935377435998968e-06
162.4552609582089,78.74813183671718,12.5,0,-8.126482002226359,0.9509329870592063,1.759921423178745,-2.676548879677171e-05,9.544171160370547e-06,1.407937138542996e-05,2.925820565557814e-06,2.971774886268044e-06
310.613753733962,199.2408066042186,12.5,0,12.83775791622361,-0.2401935967472917,-1.213216133053569,4.127298020931337e-05,-1.103882584257022e-05,-9.705729064428555e-06,4.870422268455627e-05,4.904228122621128e-05
313.5453722881326,199.0935278337672,12.5,0,12.82851983346054,-0.3016629118751877,-1.165603328654878,4.129259379657388e-05,-1.122813718476903e-05,-9.324826629239025e-06,4.847744051538396e-05,4.823836213668287e-05
311.8645167928464,201.8804488464129,12.5,0,12.96557845588394,-0.1822010369787592,-1.256674739229756,4.163561188841162e-05,-1.095550608303918e-05,-1.005339791383805e-05,4.937528515578607e-05,4.955005030155406e-05
314.5885788217566,201.6658077110404,12.5,0,12.9597792551403,-0.245782555880059,-1.207379784890254,4.166791966115301e-05,-1.115432758292843e-05,-9.659038279122029e-06,4.915456052450296e-05,4.882281607968394e-05
312.7801389001411,203.812801081422,12.5,0,13.10301333380602,-0.2417919405466238,-0.9337069272922029,4.212307622061655e-05,-1.125614487679401e-05,-7.469655418337624e-06,4.967911393847615e-05,4.992722691782216e-05
315.3522590071247,203.5488472724113,12.5,0,13.0974188087007,-0.2949785764771331,-0.9058111074883768,4.214772304902395e-05,-1.142186649168739e-05,-7.246488859907014e-06,4.9494991412965e-05,4.925180585473812e-05
314.0309019590254,206.4524433236163,12.5,0,13.19503370941459,-0.1927122311303249,-0.9708338608672225,4.237827765503095e-05,-1.117270610714871e-05,-7.76667088693778e-06,5.018410552526098e-05,5.04499235215946e-05
316.3954655407487,206.1211271496844,12.5,0,13.19230035395772,-0.2479937526837523,-0.94224321600092,4.241375613481171e-05,-1.134742029175418e-05,-7.53794572800736e-06,5.000423283148484e-05,4.983937377316243e-05
317.2351816085262,203.3556196733723,12.5,0,12.80493196359955,-0.2518123987671226,-0.992656094820786,4.117723220253226e-05,-1.104974524693443e-05,-7.941248758566288e-06,4.851223591646684e-05,4.876490183261992e-05
319.8073017155098,203.0916658643616,12.5,0,12.80537637654498,-0.2940172322009937,-0.9515339952160585,4.121241819070472e-05,-1.118515624427916e-05,-7.612271961728468e-06,4.838235596827389e-05,4.811007636881088e-05
318.1264462202235,205.8785868770073,12.5,0,12.92531407376859,-0.2065022950910729,-1.025293565308874,4.152620687213233e-05,-1.10010586033063e-05,-8.202348522470988e-06,4.911436708997302e-05,4.939790079995243e-05
320.4910098019467,205.5472707030754,12.5,0,12.93034315539018,-0.2502377356636178,-0.982245031294366,4.157728828577947e-05,-1.114503527843572e-05,-7.857960250354928e-06,4.899693453721286e-05,4.880232395535515e-05
315.6914660181059,198.9857122909251,12.5,0,12.48711134142276,-0.2620507637835132,-1.241860389829461,4.016839690357965e-05,-1.082825151724545e-05,-9.934883118635691e-06,4.729864473906518e-05,4.766378428759228e-05
318.6230845722765,198.8384335204737,12.5,0,12.48431755345411,-0.3067911234722316,-1.175933086237699,4.019524906983093e-05,-1.096918563787443e-05,-9.407464689901589e-06,4.714354686366129e-05,4.689792750043487e-05
316.5827306298033,201.5086794945601,12.5,0,12.64924507970327,-0.2076812834944155,-1.278516586156458,4.0643729281846e-05,-1.078397617094475e-05,-1.022813268925166e-05,4.808931613085472e-05,4.830024671356601e-05
319.3067926587136,201.2940383591875,12.5,0,12.65167062994252,-0.2536421900756478,-1.209340902807402,4.068825976787658e-05,-1.093299151219609e-05,-9.674727222459215e-06,4.794964537845776e-05,4.759979487666217e-05
289.7707229410163,104.9414549942646,12.5,0,-2.120792586908273,1.484096994316913,-3.594166432133069,-7.973813873560004e-06,6.445744451340739e-06,-2.875333145706455e-05,6.286569955490582e-06,6.31214100591759e-06
291.9551474992974,105.3325014775623,12.5,0,-2.266556472801332,1.214531324642357,-3.402354669268081,-8.224605772678148e-06,5.699745417096606e-06,-2.721883735414465e-05,5.343895267398682e-06,6.329761520393444e-06
290.3745944467663,107.4587631088375,12.5,0,-1.574012918547588,1.684245418430756,-3.747636733310734,-6.384237674096887e-06,6.648795673816488e-06,-2.998109386648587e-05,7.661919026258601e-06,6.991397162460118e-06
292.5602667534758,107.8219343538299,12.5,0,-1.712791517586477,1.418063810751335,-3.558362862058945,-6.615383904877794e-06,5.908037408473453e-06,-2.846690289647156e-05,6.587464816415439e-06,7.001002168483776e-06
290.8166590701996,109.301560546932,12.5,0,-1.320765512327982,1.492319223472732,-3.687728170431498,-5.420305018227729e-06,5.832033924975128e-06,-2.950182536345198e-05,7.521589633676421e-06,7.556076906386761e-06
293.0032447921537,109.6443257012126,12.5,0,-1.455880534325527,1.225426738457392,-3.498595476875599,-5.639159100607598e-06,5.086069990524076e-06,-2.798876381500479e-05,6.438612957560488e-06,7.557137813215332e-06
291.4205305759496,111.8188686615049,12.5,0,-0.7762939404064509,1.691831375725089,-3.840893468884995,-3.837605709880714e-06,6.034895554645446e-06,-3.072714775107996e-05,9.20119823766791e-06,8.419554500322396e-06
293.6083640463321,112.1337585774802,12.5,0,-0.9045370778467995,1.428283088445467,-3.654268218669892,-4.037145119866132e-06,5.294135545302935e-06,-2.923414574935914e-05,8.01125633060061e-06,8.405288002496283e-06
294.6039366356608,109.8952472091996,12.5,0,-1.144590210592202,1.339579390070589,-3.733950245453002,-4.734352185951517e-06,5.202326216699645e-06,-2.987160196362402e-05,7.544352425677277e-06,7.546959573075824e-06
296.790522357615,110.2380123634802,12.5,0,-1.280140464068262,1.069152443186736,-3.545746894215808,-4.951771439567825e-06,4.445400189452163e-06,-2.836597515372646e-05,6.45074910019357e-06,7.518091197053303e-06
295.2099693050837,112.3642739947555,12.5,0,-0.6134882592295633,1.536890477685556,-3.886420948380682,-3.192674811683047e-06,5.408840135977429e-06,-3.109136758704546e-05,9.215226502225688e-06,8.384263102596323e-06
297.3978027754663,112.6791639107308,12.5,0,-0.7421824274822917,1.269864242786426,-3.700764922156467,-3.390875162172474e-06,4.657311518902396e-06,-2.960611937725174e-05,8.017798849049666e-06,8.341088505669246e-06
293.5542572611924,105.6187673714452,12.5,0,-1.925667231967311,1.347005709674179,-3.649906655649855,-7.239739710034737e-06,5.85095205653122e-06,-2.919925324519883e-05,6.337447718479619e-06,6.333534562907892e-06
295.7386818194736,106.0098138547428,12.5,0,-2.069891752758647,1.085322217055212,-3.457668305495692,-7.491911382471837e-06,5.128944496783595e-06,-2.766134644396553e-05,5.396165083154533e-06,6.326222192281059e-06
294.1602899306154,108.0877941570011,12.5,0,-1.386849634498132,1.543322927831394,-3.798396228447249,-5.672577172659136e-06,6.048113076658965e-06,-3.038716982757799e-05,7.720056142852002e-06,6.997468516987956e-06
296.345962237325,108.4509654019934,12.5,0,-1.524045238702179,1.285017079041201,-3.608690416164882,-5.904958427079931e-06,5.331290843893586e-06,-2.886952332931906e-05,6.653233154746467e-06,6.978209395541068e-06
323.7521938412373,225.6641555611473,12.5,0,14.28418745518387,0.00769514972588814,-0.1363491329250174,4.570324373680767e-05,-1.140272548502425e-05,-1.090793063400139e-06,5.491671332701267e-05,5.500715606410262e-05
325.4064288675227,224.4808159886196,12.5,0,14.30946823388512,-0.01916451781564055,-0.1279518827500519,4.580562996268488e-05,-1.150890104411814e-05,-1.023615062000416e-06,5.493244606323279e-05,5.44330308937964e-05
324.2597700181942,227.7243645757134,12.5,0,14.35439143076792,0.03674924636144805,-0.1612278695017379,4.590465318136819e-05,-1.13659155562577e-05,-1.289822956013903e-06,5.527491823888732e-05,5.565124676628691e-05
325.987327947729,226.8124251442854,12.5,0,14.37134649380754,0.006552905246024032,-0.1499308334285262,4.598306645598729e-05,-1.147610789825875e-05,-1.19944666742821e-06,5.524841058689436e-05,5.517652701069247e-05
320.8869747281025,227.7137598233354,12.5,0,14.51604612709145,0.03593095094241061,-0.05118477989715653,4.642260284593871e-05,-1.149785785865744e-05,-4.094782391772522e-07,5.589232868718599e-05,5.589387412399869e-05
322.5412097543879,226.5304202508076,12.5,0,14.53732529107942,0.01611417262785286,-0.04370821115023266,4.650654959335187e-05,-1.157829488045441e-05,-3.496656892018613e-07,5.591402975698903e-05,5.539858782789161e-05
321.2675519112753,229.3038900043439,12.5,0,14.56179899785142,0.05412856799750365,-0.06642625495533253,4.655445393872653e-05,-1.147622778068912e-05,-5.314100396426602e-07,5.61234086643092e-05,5.636939224501368e-05
322.99510984081,228.3919505729159,12.5,0,14.57624751747665,0.03169864308560388,-0.05672760558224441,4.66186331414568e-05,-1.155956235610739e-05,-4.538208446579553e-07,5.611088365814719e-05,5.597087404249249e-05
321.5461537455473,230.4679460874415,12.5,0,14.70701703250878,0.05022152678040959,-0.003844051591904603,4.702227728260375e-05,-1.160490474030971e-05,-3.075241273523682e-08,5.666937161707932e-05,5.672495982534082e-05
323.3273877656168,229.7546853484712,12.5,0,14.74955968077587,0.0593512944928607,0.03613165130530636,4.71511099428885e-05,-1.160972360224354e-05,2.890532104424508e-07,5.686060879804879e-05,5.640216154121054e-05
321.92673092872,232.0580762684501,12.5,0,14.81890172136128,0.07856837098406633,-0.01450472431410461,4.735763081156882e-05,-1.160370258994001e-05,-1.160377945128369e-07,5.718530729039985e-05,5.722087039934522e-05
323.7812878520389,231.6162156705796,12.5,0,14.8448805701958,0.08350757797506336,0.02688886118200774,4.743681176224649e-05,-1.160868020663643e-05,2.151108894560619e-07,5.730015450156432e-05,5.700817468582677e-05
324.6313415684224,229.2325422485231,12.5,0,14.55427816056659,0.08380063004593596,-0.0679840560912227,4.650664960977632e-05,-1.137526051230627e-05,-5.438724487297816e-07,5.618451951535453e-05,5.613667900236207e-05
326.412575588492,228.519281509553,12.5,0,14.57285333333873,0.05075054012745372,-0.04721274030227069,4.659253023458197e-05,-1.149588093826313e-05,-3.777019224181655e-07,5.615552566986807e-05,5.57341655018051e-05
325.1389177453793,231.2927512630893,12.5,0,14.65087840669463,0.1200790779159919,-0.09630130726201186,4.678674763909001e-05,-1.133644967602453e-05,-7.704104580960949e-07,5.666613922918486e-05,5.681881383282326e-05
326.9934746686983,230.8508906652188,12.5,0,14.65810215800483,0.08288218547454562,-0.07227859490338118,4.68396211572358e-05,-1.146125873288531e-05,-5.782287592270494e-07,5.65807446678852e-05,5.651416607494954e-05
209.1812057208745,129.7885824066657,12.5,0,0.7677320926541977,5.144383051155055,-0.1674158394710662,-1.658763744430611e-06,1.584784008957282e-05,-1.33932671576853e-06,2.216567453134313e-05,2.152873183918975e-05
211.3895522427832,130.1837498410403,12.5,0,0.6802528348512464,5.067191697626688,-0.0110465628004941,-1.876944286577361e-06,1.56708111645244e-05,-8.837250240395283e-08,2.158679115833069e-05,2.222666979921505e-05
209.5780468241893,131.9148205656129,12.5,0,1.169216285722813,5.254885146594247,-0.2170391210690973,-4.624160029623965e-07,1.588025944052334e-05,-1.736312968552778e-06,2.388841665901316e-05,2.348291300666041e-05
211.7855214264306,132.3422867615254,12.5,0,1.075196414979425,5.175724030060628,-0.05939674440374912,-6.99950696114343e-07,1.570215976421047e-05,-4.751739552299929e-07,2.327376242799059e-05,2.423618504670391e-05
208.493856767414,126.1058298864435,12.5,0,0.0704015168374692,4.845069728721232,-0.1001556320287376,-3.650770929097084e-06,1.544790191843797e-05,-8.012450562299009e-07,1.883444393140766e-05,1.83153109714107e-05
210.7037134984866,126.445054224814,12.5,0,-0.006789797065297032,4.7645850605389,0.05231339330811596,-3.83339539904007e-06,1.525210403137672e-05,4.185071464649277e-07,1.828963020242877e-05,1.892318608049979e-05
208.8906978707288,128.2320680453907,12.5,0,0.4621886237104743,4.954212837627957,-0.151363411744998,-2.484366674228847e-06,1.548373018144108e-05,-1.210907293959984e-06,2.046767054999203e-05,2.014407704708225e-05
211.0996826821341,128.6035911452992,12.5,0,0.3786757264405388,4.871779859898553,0.002383904954380211,-2.685661563309118e-06,1.528675497052294e-05,1.907123963504169e-08,1.988625125486062e-05,2.080305601687758e-05
204.6662726318171,125.5182760972323,12.5,0,-0.05160537381737607,4.646225040551169,0.1634038942349296,-3.882117228656539e-06,1.490920442881764e-05,1.307231153879437e-06,1.770374952989713e-05,1.723781484038859e-05
206.8761293628896,125.8575004356028,12.5,0,-0.12274023347375,4.591492936663848,0.3153792194213875,-4.065963096447078e-06,1.479096958410331e-05,2.5230337553711e-06,1.729311572795025e-05,1.786371710869032e-05
205.0646239442957,127.5885711601755,12.5,0,0.3315081261070799,4.748793727349343,0.1217749358634252,-2.738208978336819e-06,1.493093342663223e-05,9.741994869074018e-07,1.926944059488492e-05,1.897424241728232e-05
207.273608755701,127.9600942600838,12.5,0,0.2540351727309038,4.692248331425434,0.274909563168982,-2.940886112401454e-06,1.481196652237666e-05,2.199276505351856e-06,1.882209838781449e-05,1.96540479199789e-05
205.3562373442795,129.1041323328444,12.5,0,0.6272958743177598,4.922510171513664,0.1117575459141679,-1.930661339394099e-06,1.525019584938951e-05,8.940603673133433e-07,2.08657253036209e-05,2.028964291286379e-05
207.5645838661881,129.4992997672191,12.5,0,0.5464303933567862,4.871121377741279,0.2660336311252967,-2.148319843451307e-06,1.515044409408666e-05,2.128269049002374e-06,2.042166408175383e-05,2.100970704929071e-05
205.7545886567581,131.1744273957876,12.5,0,1.016390675399659,5.025517237923233,0.0718739167661082,-7.679636290596762e-07,1.526854262103462e-05,5.749913341288656e-07,2.250888333022515e-05,2.21469563223527e-05
207.9620632589995,131.6018935917001,12.5,0,0.9290232834789518,4.972308790304361,0.2272954664616776,-1.004972525110843e-06,1.516816950219079e-05,1.818363731693421e-06,2.202913781705372e-05,2.292310585718403e-05
239.1270418228949,199.6597512137468,12.5,0.4447965304230578,18.03317458612767,9.309805818318267,-3.113816497788447,9.052233419803751e-05,2.767424879643516e-05,-4.486739249178156e-05,0.0001803615902540676,0.0001754660047934027
240.6044184611617,200.7801686827315,12.5,0.440337182011253,17.84506266720277,9.706640397950157,-3.043696128140508,8.815823855155727e-05,2.999162817354749e-05,-4.350756963385346e-05,0.0001800963740008226,0.0001741474319222881
237.8064015696845,200.9578663963918,12.5,0.500764628699228,16.7412143547706,8.816379142799727,-2.507896510960721,9.318006154055173e-05,2.968427844872082e-05,-4.018780166840062e-05,0.0001872665252748995,0.0001938953280160501
239.3321217679429,202.1507441903281,12.5,0.5006641037026884,16.45285641684537,9.086358347491201,-2.431532493672576,9.088081628502091e-05,3.187045372964753e-05,-3.895626189429503e-05,0.0001869195827455224,0.0001938587497192101
241.6859332222423,201.6003711956811,12.5,0.4339349758416892,18.08698670553853,9.08971935686673,-3.197586836158676,8.940065153729905e-05,2.582302730905813e-05,-4.519038201893089e-05,0.0001759466262009285,0.0001722887182261038
243.1633098605091,202.7207886646657,12.5,0.4205531183108984,17.9892511107008,9.442593205683,-3.059611105539392,8.630908297221538e-05,2.731035038707086e-05,-4.224181649397165e-05,0.0001733047513969019,0.000168529190842303
240.4490264711545,203.023991342673,12.5,0.497606552275536,16.74196305019828,8.429494440048176,-2.54238930801957,9.321516118633794e-05,2.70322231102104e-05,-4.048443417461025e-05,0.0001834484254026758,0.0001927527602797653
241.9747466694128,204.2168691366092,12.5,0.4891760076586564,16.56961477384119,8.682124933100388,-2.409134188072787,9.020145494462563e-05,2.843857803206111e-05,-3.772938192711907e-05,0.0001808202953775595,0.0001897677192352789
243.828318559313,199.1345887704569,12.5,0.3045715286642702,18.03181184606985,8.823422899595663,-3.108468106571717,7.282281596908934e-05,1.985754735541086e-05,-3.57588822971391e-05,0.0001415763253686067,0.0001417320373580473
245.2219616954573,200.1295012750946,12.5,0.2825465393628888,18.00881158856299,9.149887263913143,-2.923296295659972,7.012062807195383e-05,2.072969299007151e-05,-3.259635871644172e-05,0.0001386249331966969,0.0001375788452520337
242.5914118082251,200.5582089174487,12.5,0.3822281294910901,16.82814995020415,8.185369049838009,-2.443407402359375,7.656836910009592e-05,2.060738212122059e-05,-3.164154949750675e-05,0.0001483202383593083,0.0001586177567224028
244.0333985043609,201.6255817470381,12.5,0.3650535952548126,16.78168441577122,8.447104832782351,-2.276985268627313,7.393333659882866e-05,2.142761630053889e-05,-2.868884997676109e-05,0.0001454094518447826,0.000154545224205038
241.4144578399349,197.4113497633695,12.5,0.3297092174569991,18.00321898344406,9.087411475286784,-3.041991857009105,7.51022882573536e-05,2.189667815284463e-05,-3.630653365655021e-05,0.0001480612011349972,0.0001467899229828505
242.8081009760792,198.4062622680074,12.5,0.317058554532004,17.91423152240054,9.49573953756175,-2.924223653352209,7.281583153524208e-05,2.350857662661731e-05,-3.425445824390804e-05,0.0001468617988029385,0.0001442001381973632
240.0938175867245,198.7094649460145,12.5,0.3991419160031482,16.7906448445766,8.58674237350319,-2.397125626940216,7.798957998888818e-05,2.337500333876263e-05,-3.191603063398612e-05,0.0001545495680955821,0.0001628441495560088
241.5358042828602,199.7768377756039,12.5,0.391238183722232,16.63699269315582,8.893675670945591,-2.28522395553007,7.576598079584015e-05,2.488685654618728e-05,-3.003110766050228e-05,0.0001533123221588617,0.0001608414470681724
285.8519046825317,217.9998832243818,12.5,0,15.44234304078721,-0.03913194830251765,-0.1080888110509542,4.944680328916107e-05,-1.247909666719782e-05,-8.647104884076332e-07,5.922523320626851e-05,5.958856847213024e-05
288.0446343191885,218.0507102763377,12.5,0,15.4438167487316,-0.03748563692882367,-0.1264291996004802,4.945020210548419e-05,-1.247500743715752e-05,-1.011433596803842e-06,5.923610200258506e-05,5.892165535170833e-05
286.2896687426411,220.0297583576077,12.5,0,15.3956137686523,-0.05107735506131039,-0.1038273933962508,4.930682594373641e-05,-1.247993855111804e-05,-8.306191471700065e-07,5.900949961061405e-05,5.926066391767396e-05
288.3138570150224,219.9962265489823,12.5,0,15.39511293793861,-0.04983763146456344,-0.1233953920612538,4.930423150657521e-05,-1.247557077103749e-05,-9.871631364900303e-07,5.901155840892047e-05,5.872973596904634e-05
285.0936750887084,214.4840363606773,12.5,0,15.46634788854643,0.005955771351817241,-0.3471437139608861,4.948754862626711e-05,-1.235401984251133e-05,-2.777149711687089e-06,5.945963573444951e-05,6.006413458333191e-05
287.5783269314618,214.6809772452258,12.5,0,15.46055151180649,-0.01072199508861971,-0.338450569780307,4.948234243385167e-05,-1.240275159372878e-05,-2.707604558242456e-06,5.938657223773702e-05,5.915870670874317e-05
285.5314391488177,216.5139114939031,12.5,0,15.48546511409407,0.01349244889602996,-0.3537445896263126,4.954269440598418e-05,-1.234519625480796e-05,-2.829956717010501e-06,5.955615461661514e-05,5.980385778812868e-05
287.8475496272958,216.6264935178704,12.5,0,15.48002699826951,-0.004025477567492608,-0.3447188531479554,4.953930677651644e-05,-1.239690312683159e-05,-2.757750825183643e-06,5.948189697244567e-05,5.903659771498309e-05
280.790131858017,214.1429247425578,12.5,0,15.80709446371072,0.1692409894399782,-0.4280819987877409,5.04473094923223e-05,-1.210410440476064e-05,-3.424655990301928e-06,6.126756645385493e-05,6.190895268664073e-05
283.2747837007705,214.3398656271063,12.5,0,15.80349702324206,0.1444668679457424,-0.4404261937547289,5.0455616980018e-05,-1.218050364116727e-05,-3.523409550037831e-06,6.117899334751514e-05,6.080106077207356e-05
281.5198181242231,216.3189137083762,12.5,0,15.7776216755366,0.1690663995598465,-0.4327153340366596,5.035313624206922e-05,-1.208108486183777e-05,-3.461722672293277e-06,6.115399981300616e-05,6.133455418691913e-05
283.8359286027011,216.4314957323436,12.5,0,15.77270718289989,0.1427045037986092,-0.4460184106379523,5.035849938224077e-05,-1.216151133416436e-05,-3.568147285103618e-06,6.105559292171024e-05,6.041959336900665e-05
282.0539855446484,217.9118481879969,12.5,0,15.68153893984627,0.0427237842861059,-0.1477235917714183,5.014674558007917e-05,-1.240851504216147e-05,-1.181788734171347e-06,6.039273899981168e-05,6.090041298459299e-05
284.2467151813051,217.9626752399528,12.5,0,15.68726701913429,0.05818527322192235,-0.1799972868357408,5.015270624265217e-05,-1.236362074099728e-05,-1.439978294685926e-06,6.046216607539365e-05,6.011877498186211e-05
282.7836718108545,220.0878371538154,12.5,0,15.59272262946354,0.01571530091462048,-0.1309851134550979,4.988414017355162e-05,-1.242388914064405e-05,-1.047880907640783e-06,5.996937174747759e-05,6.028871566185012e-05
284.8078600832359,220.05430534519,12.5,0,15.5951774904571,0.031165999470951,-0.1648805511550292,4.987963516988594e-05,-1.237641079405863e-05,-1.319044409240234e-06,6.002612872624436e-05,5.967839126736426e-05
250.0684147071946,174.1570460399857,12.5,0,12.27499571085016,6.194835991517541,-4.118774682867934,3.432411748150648e-05,1.0003478604176e-05,-3.295019746294347e-05,6.827062316196378e-05,6.83597533636427e-05
252.1367124384673,174.4495735779488,12.5,0,12.01154282975268,5.537009872534371,-3.805306206454746,3.400732915718107e-05,8.109197328307841e-06,-3.044244965163796e-05,6.493046653413786e-05,6.721175345884232e-05
250.5436041806032,176.208480822053,12.5,0,13.05247758620364,6.525330346173314,-4.418220329753856,3.654766399891298e-05,1.043907503879169e-05,-3.534576263803085e-05,7.239868098333986e-05,7.038420070032232e-05
252.6017162529283,176.4930508167136,12.5,0,12.79049055580799,5.865834059597077,-4.104425726732784,3.62369025309079e-05,8.538276546064252e-06,-3.283540581386227e-05,6.905855568604044e-05,6.909344091563941e-05
249.245362396044,170.6038567690952,12.5,0,11.27798834552999,6.277733528655586,-4.15394303114765,3.106737588277149e-05,1.106635661527388e-05,-3.32315442491812e-05,6.488322387670288e-05,6.474445374085914e-05
251.331302206122,170.9101671763613,12.5,0,11.01194602856459,5.627158117178798,-3.837983349729278,3.073650079766366e-05,9.197349152120478e-06,-3.070386679783423e-05,6.154114824409472e-05,6.382822032480246e-05
249.7205518694525,172.6552915511624,12.5,0,12.05280294463008,6.604608101814787,-4.448126109684647,3.328528294136443e-05,1.149250357010325e-05,-3.558500887747718e-05,6.898588304907176e-05,6.684858772038567e-05
251.796306020583,172.953644415126,12.5,0,11.78819632537932,5.952392940330524,-4.131814978571328,3.29603138889494e-05,9.617100348754222e-06,-3.305451982857062e-05,6.564479404799119e-05,6.580094185359975e-05
245.6324086635233,170.0733115808328,12.5,0,11.12326628136449,6.925541893391313,-4.044245370185314,3.005401858565331e-05,1.326312103376061e-05,-3.235396296148252e-05,6.650610387963951e-05,6.623971550067291e-05
247.7183484736013,170.3796219880988,12.5,0,10.84565422493888,6.243055823011845,-3.716796561325475,2.971164886139493e-05,1.13012552536868e-05,-2.97343724906038e-05,6.299417496910103e-05,6.539061192576506e-05
246.1252402157371,172.1385292322031,12.5,0,11.93204828704412,7.272713757656684,-4.35617208638145,3.236438351241584e-05,1.372704539486609e-05,-3.484937669105161e-05,7.080687551864226e-05,6.859560585792675e-05
248.2009943668676,172.4368820961666,12.5,0,11.65592677677541,6.588531169156989,-4.028384126235427,3.202814075035573e-05,1.175855831988203e-05,-3.222707300988342e-05,6.729645720609979e-05,6.759741568343812e-05
246.4860179515153,173.6503734816299,12.5,0,12.1852295077127,6.892230507399939,-4.039978700308465,3.347895001876069e-05,1.230695401750964e-05,-3.231982960246772e-05,7.030251285241981e-05,7.03028265376896e-05
248.5543156827879,173.9429010195929,12.5,0,11.90814701673148,6.198299393894263,-3.711641292357466,3.314743093842532e-05,1.030804044707646e-05,-2.969313033885973e-05,6.676889685762589e-05,6.918800389883963e-05
246.9788495037291,175.7155911330001,12.5,0,13.00581090964383,7.246350856151746,-4.359568433193802,3.582151422593886e-05,1.278367401197052e-05,-3.487654746555041e-05,7.4675584629335e-05,7.261114981747842e-05
249.0369615760543,176.0001611276607,12.5,0,12.73027078418217,6.550685999944664,-4.030910920667429,3.549631770942722e-05,1.077797857247718e-05,-3.224728736533943e-05,7.114261562816962e-05,7.132676795974853e-05
254.2728074927886,119.1251524125996,12.5,0,-0.3101516503865414,3.621129424094213,-3.045556800674898,-3.889388820512303e-06,1.183573547741072e-05,-2.436445440539919e-05,1.492706461515119e-05,1.450150550379227e-05
256.5367596179444,119.6223394813332,12.5,0,-0.4301421406791943,3.483768985623935,-2.880121263087285,-4.16347003867257e-06,1.149217446653995e-05,-2.304097010469828e-05,1.395587403719212e-05,1.470880530805647e-05
254.1744977798172,121.1194272268227,12.5,0,0.05786900021997576,3.708436641516256,-3.076850734175132,-2.781568512509082e-06,1.182070205267604e-05,-2.461480587340106e-05,1.626832719227166e-05,1.588158354236021e-05
256.4407647301554,121.6354958864219,12.5,0,-0.0652723837815391,3.570481532211479,-2.911365130081416,-3.065256853870108e-06,1.147775881010196e-05,-2.329092104065133e-05,1.527075376202471e-05,1.61018900120058e-05
258.1940875993915,119.986305676497,12.5,0,-0.03385240949592527,3.442072480264889,-3.234420547065884,-2.861985694598872e-06,1.104171386444438e-05,-2.587536437652707e-05,1.528562420607732e-05,1.484990749231282e-05
260.4580397245473,120.4834927452306,12.5,0,-0.1593808469640012,3.28996238703545,-3.064440380601095,-3.141988619913163e-06,1.065538431608464e-05,-2.451552304480876e-05,1.42345681091495e-05,1.502810602451232e-05
258.0997872812466,122.0132843654265,12.5,0,0.3481894222933388,3.532516213281017,-3.271295441188878,-1.711806819286129e-06,1.102550034466458e-05,-2.617036352951102e-05,1.670234508614263e-05,1.62511454094876e-05
260.3660542315847,122.5293530250257,12.5,0,0.2194416934315735,3.379813124380455,-3.101222696236705,-2.001637080523329e-06,1.06398486432722e-05,-2.480978156989364e-05,1.562473499777616e-05,1.643861226908351e-05
258.3574205415854,116.4754756014748,12.5,0,-0.705423334748293,3.288079442821374,-3.141144052499762,-4.887818225451636e-06,1.108619288482703e-05,-2.51291524199981e-05,1.292270938357881e-05,1.260705279781409e-05
260.6173632719148,116.939958795502,12.5,0,-0.8202680794624556,3.149970975458407,-2.975836188058212,-5.144834634646583e-06,1.073612158503687e-05,-2.38066895044657e-05,1.19897837551666e-05,1.276606830575932e-05
258.2631202234405,118.5024542904043,12.5,0,-0.3299459370388527,3.377349366548406,-3.174117817965013,-3.757706491763053e-06,1.107147472258598e-05,-2.539294254372011e-05,1.420625595036429e-05,1.387347581990107e-05
260.5253777789523,118.9858190752971,12.5,0,-0.4479740600671244,3.238637534911373,-3.008745408306513,-4.024427020143896e-06,1.072201935977009e-05,-2.406996326645211e-05,1.323980444421317e-05,1.404405083540244e-05
254.4430849105294,115.6709671101723,12.5,0,-0.9666133509003738,3.452141241724108,-2.953836554377593,-5.854875716260481e-06,1.182014265423744e-05,-2.363069243502074e-05,1.259733483386991e-05,1.229985618648372e-05
256.7030276408587,116.1354503041995,12.5,0,-1.07658499882111,3.327160148361862,-2.792604651689134,-6.106800114917042e-06,1.150818047381485e-05,-2.234083721351307e-05,1.173699750396604e-05,1.248213163695648e-05
254.3447751975581,117.6652419243954,12.5,0,-0.6044265258214491,3.538414445377333,-2.981796389316409,-4.764896438930503e-06,1.180646744586462e-05,-2.385437111453127e-05,1.380711940343636e-05,1.354178455130658e-05
256.6070327530698,118.1486067092882,12.5,0,-0.7175180955821924,3.41282916455744,-2.820538528659441,-5.026321237508967e-06,1.149506780304956e-05,-2.256430822927553e-05,1.291375780120523e-05,1.37388939746964e-05
262.641432220461,98.19376616269795,12.5,0,-4.020725328557738,2.415606868194199,-2.760238694690336,-1.479880654594012e-05,1.094652224106762e-05,-2.208190955752269e-05,5.388711872313142e-06,5.401105198072617e-06
264.8601117115304,98.33417401416557,12.5,0,-4.123021828052035,2.112028233716231,-2.58632400997371,-1.48832924367395e-05,1.005690781033357e-05,-2.069059207978968e-05,4.638611267139072e-06,5.396329383596098e-06
263.3376473505919,100.5045329748695,12.5,0,-3.528915240285255,2.626705154398273,-2.930173592751231,-1.339389289243143e-05,1.122858868630268e-05,-2.344138874200985e-05,6.307938084180172e-06,5.871497545625504e-06
265.5620034967001,100.6676775593567,12.5,0,-3.636076773708452,2.320899567584947,-2.75450385532909,-1.3492165329935e-05,1.033574003523859e-05,-2.203603084263272e-05,5.419842647516034e-06,5.870619914215871e-06
261.4355522420978,94.19140063964481,12.5,0,-4.777825778903779,2.309106909117363,-2.614121592372102,-1.713632801978598e-05,1.121140273229859e-05,-2.091297273897682e-05,4.775254639581293e-06,4.778651556007596e-06
263.6443994782231,94.29242731432498,12.5,0,-4.869098275880509,2.018779796052638,-2.445765987367333,-1.719613831965974e-05,1.035537396807285e-05,-1.956612789893867e-05,4.175911232880477e-06,4.768182139181947e-06
262.1317673722287,96.50216745181633,12.5,0,-4.294350840261241,2.51517036632702,-2.779285809128759,-1.575405898189758e-05,1.148402584445546e-05,-2.223428647303008e-05,5.455572280820617e-06,5.108277997712021e-06
264.3462912633927,96.62593085951616,12.5,0,-4.390396537586083,2.222674633949284,-2.609226360452993,-1.582740862743489e-05,1.062487605870657e-05,-2.087381088362395e-05,4.748688053643225e-06,5.100932072079387e-06
257.6097166030395,94.01641730618218,12.5,0,-4.903711717556837,2.42794487316227,-2.467185878442211,-1.763423339471169e-05,1.169239296816473e-05,-1.973748702753769e-05,4.793329807812626e-06,4.788742544107887e-06
259.8185638391648,94.11744398086233,12.5,0,-4.994746259342155,2.138117529813947,-2.299826692762436,-1.769368205374605e-05,1.083777310287835e-05,-1.839861354209949e-05,4.200700616972914e-06,4.784160699903387e-06
258.2960994782262,96.28780294156624,12.5,0,-4.431100740242988,2.629965964617634,-2.629223012701545,-1.628349514047167e-05,1.196077167897082e-05,-2.103378410161236e-05,5.442850390066941e-06,5.112194410332431e-06
260.5106233693903,96.41156634926605,12.5,0,-4.526882543186169,2.337973118282656,-2.460162273282458,-1.635640263282186e-05,1.110302001305343e-05,-1.968129818625966e-05,4.746160930886627e-06,5.111295732151717e-06
258.7985666162868,97.95057263017881,12.5,0,-4.16052517339054,2.544483099386373,-2.612508098329667,-1.534926703435882e-05,1.147076605674882e-05,-2.090006478663734e-05,5.394023932954086e-06,5.399545563450624e-06
261.0172461073562,98.09098048164643,12.5,0,-4.262657273423923,2.240974236290901,-2.439523003772636,-1.543328266398927e-05,1.058124337487002e-05,-1.951618403018109e-05,4.651746146709527e-06,5.401966970867325e-06
259.4849494914736,100.2219582655629,12.5,0,-3.679506421617996,2.751645349160153,-2.779429121971689,-1.397573682850571e-05,1.174887025460689e-05,-2.223543297577351e-05,6.272970209827375e-06,5.861151647191864e-06
261.7093056375817,100.3851028500502,12.5,0,-3.78647993710653,2.445910356089972,-2.604689221619139,-1.407346408361287e-05,1.085609708917313e-05,-2.083751377295311e-05,5.396356202143929e-06,5.868960531122777e-06
178.8763367730492,77.94075943229836,12.5,0,-8.356746355822704,1.520819680143931,1.228189494852416,-2.795824408274779e-05,1.155202006111874e-05,9.825515958819325e-06,3.264917597153294e-06,3.237056990929527e-06
181.1009609078745,78.09483825230149,12.5,0,-8.418980323390528,1.373689748011015,1.37882425072262,-2.803968883325849e-05,1.113099145234767e-05,1.103059400578096e-05,3.194125354332268e-06,3.271427589116746e-06
179.6044677379941,79.94219629508979,12.5,0,-7.986198718894215,1.65727943879462,1.131048348177214,-2.688165945149718e-05,1.169225317925815e-05,9.048386785417712e-06,3.289449946644923e-06,3.241676088450948e-06
181.8126136483613,80.10989134683999,12.5,0,-8.051858529740404,1.507657460520418,1.283911769162904,-2.697207326358563e-05,1.126599069745766e-05,1.027129415330323e-05,3.210094834556372e-06,3.278261412780423e-06
177.6151769472232,74.47416909786463,12.5,0,-8.946874032701468,1.382061995859455,1.240114612481339,-2.973564650133226e-05,1.158009761291143e-05,9.920916899850709e-06,3.270284717298309e-06,3.244495217910054e-06
179.8683422040278,74.60466391267462,12.5,0,-9.00509325920245,1.235124865878562,1.391567815052444,-2.980439832215068e-05,1.115647417817336e-05,1.113254252041955e-05,3.20372153411308e-06,3.275416943192455e-06
178.3433079121681,76.47560596065605,12.5,0,-8.577691015041855,1.517879340655879,1.143479908306534,-2.866291472065864e-05,1.17193667021323e-05,9.147839266452273e-06,3.28489251634147e-06,3.23781237439143e-06
180.5799949445146,76.61971700721313,12.5,0,-8.639229026810558,1.368498866782121,1.297128378366976,-2.874033197921948e-05,1.129057959515123e-05,1.037702702693581e-05,3.211015583328858e-06,3.270665415787779e-06
173.7125802446589,74.24814544849352,12.5,0,-8.956913781942074,1.272416615214122,1.353562659975014,-2.968005739438593e-05,1.123726419423885e-05,1.082850127980011e-05,3.213116526631641e-06,3.193040565848929e-06
175.9657455014634,74.3786402633035,12.5,0,-9.016728397421492,1.119569771694358,1.5059582281165,-2.974918668910426e-05,1.079600598735914e-05,1.2047665824932e-05,3.148306242174995e-06,3.222422534126141e-06
174.469252331583,76.22599830609182,12.5,0,-8.58896465420114,1.411524759410359,1.253310287570495,-2.861390670097193e-05,1.138805095347406e-05,1.002648230056396e-05,3.224970826193485e-06,3.182435888968038e-06
176.7059393639296,76.37010935264885,12.5,0,-8.652147884805853,1.256119459141977,1.407966450840887,-2.869176879869231e-05,1.094130057709901e-05,1.126373160672709e-05,3.15293905144821e-06,3.214171343932236e-06
175.0231747438571,77.67388708768752,12.5,0,-8.372959249810117,1.408278639899598,1.344422827714362,-2.792009251131205e-05,1.120485904752681e-05,1.07553826217149e-05,3.204141749233829e-06,3.178591412923062e-06
177.2477988786824,77.82796590769061,12.5,0,-8.436516623512478,1.256047913079531,1.495468143259765,-2.800169152570355e-05,1.076856662066448e-05,1.196374514607812e-05,3.136013927216339e-06,3.21218161249081e-06
175.7798468307813,79.65173994528581,12.5,0,-8.004984800833029,1.547474830792207,1.244084509996647,-2.685393122729945e-05,1.135590729920148e-05,9.952676079973176e-06,3.224956307025005e-06,3.178692785920149e-06
177.9879927411486,79.81943499703598,12.5,0,-8.072007119294991,1.392646674232671,1.397416829874585,-2.69445401211301e-05,1.091407505298054e-05,1.117933463899668e-05,3.14850367760936e-06,3.214996755293092e-06
300.153260051065,148.6116123247252,12.5,0,5.888707326526362,0.9153371967884114,-3.803594207209279,1.811159368745363e-05,-1.781886831498172e-06,-3.042875365767423e-05,2.719593891594092e-05,2.757812576630962e-05
302.3840936288855,148.4975407715928,12.5,0,5.862896837191684,0.7327723693689775,-3.652069037825382,1.817505198351821e-05,-2.345445887772619e-06,-2.921655230260305e-05,2.642179566408427e-05,2.70105340225677e-05
300.7847693830362,150.9815143970362,12.5,0,6.347726031861845,1.080635787999316,-3.923987133407699,1.944821467155845e-05,-1.620146303891665e-06,-3.139189706726159e-05,2.945669158908913e-05,2.884786714973933e-05
303.0079297453267,150.8871474687807,12.5,0,6.318086674909458,0.895704117253315,-3.770632293369355,1.950131406590761e-05,-2.188216164716959e-06,-3.016505834695484e-05,2.865977863322791e-05,2.827563518647891e-05
301.2470662994733,152.7164031228569,12.5,0,6.612044285781231,0.7921006731231061,-3.704706005656067,2.052486117600145e-05,-2.754913274631045e-06,-2.963764804524854e-05,2.936117317023112e-05,2.976573725162037e-05
303.4646094781388,152.6364609811547,12.5,0,6.582589016884145,0.6186796163719703,-3.552869799561623,2.056934116093168e-05,-3.28629644111701e-06,-2.842295839649298e-05,2.86123217379696e-05,2.919053856039223e-05
301.8785756314444,155.0863051951679,12.5,0,7.070512348847022,0.9546680536130304,-3.821219831552473,2.186190507342005e-05,-2.60147210751592e-06,-3.056975865241979e-05,3.161944706713362e-05,3.100366362138469e-05
304.08844559458,155.0260676783425,12.5,0,7.037173489526017,0.7789313288346618,-3.667565336367405,2.189581010341552e-05,-3.137158539349896e-06,-2.934052269093924e-05,3.084757744506103e-05,3.042499989813466e-05
305.0879637528307,152.5779392717653,12.5,0,6.498118043694928,0.6219912549950239,-3.645752000277515,2.029638473582775e-05,-3.208122418971865e-06,-2.916601600222012e-05,2.838553198910241e-05,2.877149859266711e-05
307.3055069314962,152.4979971300631,12.5,0,6.474102004861139,0.471005082205741,-3.495492520053854,2.034032234979105e-05,-3.67206534083054e-06,-2.796394016043083e-05,2.772824368563757e-05,2.820185880161951e-05
305.7061826856469,154.9819707555065,12.5,0,6.955546010461025,0.7773240728523849,-3.75254631720457,2.163588797519337e-05,-3.076999775241188e-06,-3.002037053763656e-05,3.060661533293173e-05,2.999939294291139e-05
307.9160526487825,154.9217332386812,12.5,0,6.927739318297913,0.6242394845298582,-3.60058030838455,2.166937423092943e-05,-3.544625104142784e-06,-2.88046424670764e-05,2.992801944971245e-05,2.941527684038729e-05
304.0171771510113,148.4140345990052,12.5,0,5.788115511840189,0.7323681768559565,-3.754639769796824,1.793607509640384e-05,-2.286914243533091e-06,-3.003711815837459e-05,2.623852343431662e-05,2.660112919155941e-05
306.2480107288319,148.2999630458728,12.5,0,5.764630055651233,0.5624698578659022,-3.609450846305722,1.799684029179122e-05,-2.811800499350099e-06,-2.887560677044577e-05,2.551985420225606e-05,2.605020613607499e-05
304.6353960838275,150.8180660827464,12.5,0,6.233096994521738,0.8896896058639968,-3.868035845100513,1.923415869777836e-05,-2.1394708568526e-06,-3.09442867608041e-05,2.841326267577526e-05,2.786093656485272e-05
306.8585564461181,150.7236991544908,12.5,0,6.205959257056215,0.7175912177134263,-3.721133307883111,1.928499664840915e-05,-2.668475508962008e-06,-2.976906646306489e-05,2.767302132929588e-05,2.730019082395346e-05
257.3034527207651,175.545479936088,12.5,0,12.50653229371864,4.822513338230858,-4.128783869332208,3.616289266931494e-05,5.426816847363836e-06,-3.303027095465766e-05,6.449416565581725e-05,6.458927156412934e-05
259.4052308860816,176.0167849547588,12.5,0,12.19133475060942,4.201889902011718,-3.794702719658028,3.565075928034078e-05,3.69297988594996e-06,-3.035762175726423e-05,6.111124160738772e-05,6.353128123260242e-05
257.7422110262129,177.5886859387728,12.5,0,13.28248247739935,5.130449659984505,-4.401076577772946,3.83995841996903e-05,5.791452930030937e-06,-3.520861262218357e-05,6.853150075072326e-05,6.617995266175821e-05
259.8332568363543,178.0612499331215,12.5,0,12.96407730196406,4.505818036943548,-4.064636305329682,3.788039293673015e-05,4.047355876648107e-06,-3.251709044263746e-05,6.512146017511483e-05,6.502362125881641e-05
256.5435010435001,172.0065433291716,12.5,0,11.62109282572898,4.977496277711511,-4.221989853784495,3.320550002016353e-05,6.63111382809365e-06,-3.377591883027596e-05,6.175869967847182e-05,6.168532405410582e-05
258.6638681932645,172.4756677380029,12.5,0,11.30674373310682,4.356859122715638,-3.886214175733541,3.269609264776931e-05,4.896554206204585e-06,-3.108971340586833e-05,5.83616478777237e-05,6.079386038659813e-05
256.982259348948,174.0497493318565,12.5,0,12.39621355021548,5.284265435794279,-4.492448545304235,3.544047101205409e-05,6.992678554369313e-06,-3.593958836243388e-05,6.578817173661022e-05,6.338493945846854e-05
259.0918941435373,174.5201327163657,12.5,0,12.07869339439204,4.65966016318395,-4.154330256897162,3.492409073150736e-05,5.247957806675009e-06,-3.32346420551773e-05,6.236525379836479e-05,6.239792022275003e-05
252.8709174094741,171.1939960180197,12.5,0,11.45323446021245,5.636357917819215,-4.222700058964263,3.214126393842446e-05,8.873757768851527e-06,-3.378160047171411e-05,6.336641747688516e-05,6.317983420879027e-05
254.9912845592385,171.663120426851,12.5,0,11.12067167587367,4.96799969673132,-3.871744070079195,3.16117496054107e-05,7.001061688841287e-06,-3.097395256063356e-05,5.971767192568781e-05,6.232464381290409e-05
253.3282646993699,173.235021410865,12.5,0,12.26073138497231,5.965390605774082,-4.514694276441192,3.446202794729213e-05,9.280664830499212e-06,-3.611755421152954e-05,6.759909345114727e-05,6.506429736462435e-05
255.4378994939592,173.7054047953742,12.5,0,11.92482644364543,5.292747732317925,-4.161264298411637,3.392524643381105e-05,7.396931588501011e-06,-3.32901143872931e-05,6.392339556292197e-05,6.409939306032833e-05
253.6630661522633,174.7291556979025,12.5,0,12.39016136104031,5.511864468726394,-4.159506596042648,3.523902478034786e-05,7.725837211092212e-06,-3.327605276834118e-05,6.639249395117822e-05,6.640799463534513e-05
255.7648443175799,175.2004607165734,12.5,0,12.05507748097501,4.840594047560719,-3.808441341113396,3.470377270107145e-05,5.845838967414294e-06,-3.046753072890717e-05,6.274131590096272e-05,6.536008459722605e-05
254.120413442159,176.7701810907479,12.5,0,13.20291330322615,5.843844829405115,-4.454822480688463,3.757424670679959e-05,8.137972811515445e-06,-3.563857984550771e-05,7.065674236019233e-05,6.819458069326793e-05
256.2114592523005,177.2427450850966,12.5,0,12.86443127369456,5.168226936212609,-4.101252597185742,3.703159852685252e-05,6.246781176924695e-06,-3.281002077748594e-05,6.697716683118159e-05,6.702960868142491e-05
295.6610810614511,131.6421315379587,12.5,0,2.789477927981464,1.330111365261507,-3.953748965873527,7.862240277331479e-06,2.02477402645165e-06,-3.162999172698821e-05,1.793027538034367e-05,1.813828947365582e-05
297.9828267584753,131.5691743780565,12.5,0,2.747877125876844,1.109528302267251,-3.78397205161879,7.9055841609921e-06,1.352188866553727e-06,-3.027177641295033e-05,1.692647397840033e-05,1.774747788178097e-05
296.309357083304,134.1611077699664,12.5,0,3.299386995375896,1.515753011217898,-4.091865462559161,9.345435976228548e-06,2.210900039596557e-06,-3.273492370047329e-05,2.03249806092205e-05,1.955571835940421e-05
298.618017596616,134.0597369352192,12.5,0,3.263551372911841,1.296755070170381,-3.923253705443287,9.405960337181585e-06,1.538775126215747e-06,-3.13860296435463e-05,1.934364852408138e-05,1.91177858838122e-05
296.7839280686088,136.0051263547761,12.5,0,3.597203678536491,1.240051712820764,-3.95008304307368,1.051901040106016e-05,1.090402538197251e-06,-3.160066434458944e-05,2.03171381923422e-05,2.05968561827252e-05
299.0830095626175,135.8829552664135,12.5,0,3.567342468483429,1.031366116121468,-3.786422034893436,1.05904030062498e-05,4.464975968019539e-07,-3.029137627914749e-05,1.940352154183904e-05,2.012571918772259e-05
297.4322040904616,138.5241025867838,12.5,0,4.098477346376551,1.421601034434887,-4.08441078155944,1.197784668085705e-05,1.270341433090398e-06,-3.267528625247552e-05,2.271714144987766e-05,2.202386872809235e-05
299.7182004007583,138.3735178235763,12.5,0,4.07433605794702,1.214490031940356,-3.921891562486211,1.206628335987818e-05,6.268992558515225e-07,-3.137513249988969e-05,2.182891943710014e-05,2.150913618273239e-05
300.7660540269018,135.7935198225199,12.5,0,3.551113590975259,1.048403132926643,-3.915005040703768,1.052484098477951e-05,5.139991525850499e-07,-3.132004032563014e-05,1.954725029557707e-05,1.976200654394415e-05
303.0651355209105,135.6713487341573,12.5,0,3.527279617816427,0.8648300736087453,-3.752730887271956,1.059543071812557e-05,-5.43674587051568e-08,-3.002184709817565e-05,1.873546176279797e-05,1.923946211674664e-05
301.3916658457392,138.2632821260673,12.5,0,4.035214830464596,1.217318757445292,-4.035400745587049,1.193883245153047e-05,6.672481594532584e-07,-3.228320596469639e-05,2.182576813783411e-05,2.111712718962336e-05
303.6776621560359,138.1126973628597,12.5,0,4.017030522711821,1.035267798298756,-3.874130914605339,1.202628343403882e-05,9.923253638656308e-08,-3.099304731684271e-05,2.103964259289228e-05,2.056087124874001e-05
299.6824625708791,131.5157660302344,12.5,0,2.778771870764134,1.140772494524451,-3.932974332055875,7.979451990825667e-06,1.427454485866935e-06,-3.1463794656447e-05,1.730745343833046e-05,1.743908758200542e-05
302.0042082679033,131.4428088703321,12.5,0,2.740922393035263,0.9366265958796406,-3.767559289797302,8.021650381009129e-06,8.044671923866393e-07,-3.014047431837842e-05,1.637662195828184e-05,1.698736120629627e-05
300.3080743897166,133.9855283337818,12.5,0,3.264477205113914,1.314181130527753,-4.05988042386597,9.39498215194232e-06,1.59379785359768e-06,-3.247904339092776e-05,1.956114442274628e-05,1.877647880138391e-05
302.6167349030287,133.8841574990345,12.5,0,3.232235495180037,1.111550873490104,-3.895533710969749,9.453912885784034e-06,9.711743990243032e-07,-3.116426968775799e-05,1.865176837138606e-05,1.828194298675913e-05
287.6104783946861,96.4211192300197,12.5,0,-3.696661630933463,1.436070281102051,-3.383997485650045,-1.297817344386872e-05,7.552754204273333e-06,-2.707197988520036e-05,4.716968525772884e-06,4.712949559841466e-06
289.8126498980665,96.84421241775402,12.5,0,-3.849531529790447,1.15984961870374,-3.191206884750017,-1.324638059029242e-05,6.791144003684326e-06,-2.552965507800014e-05,4.047942093153719e-06,4.724328055432309e-06
288.2364191728814,98.87391139099523,12.5,0,-3.16064884044776,1.637682881054807,-3.539540429360762,-1.142422259427667e-05,7.769104291733588e-06,-2.83163234348861e-05,5.546916874439842e-06,5.072201116333372e-06
290.432714883841,99.2899538615777,12.5,0,-3.312450691256124,1.361436276067373,-3.34676953059939,-1.168899123287349e-05,7.00655663642049e-06,-2.677415624479512e-05,4.749807367864382e-06,5.087353618659533e-06
288.69463962503,100.6694798731596,12.5,0,-2.91241607370548,1.466592838685914,-3.491269981211863,-1.049300570680627e-05,7.023029942759308e-06,-2.793015984969491e-05,5.37198113628104e-06,5.385397591470066e-06
290.886633957403,101.0803608605574,12.5,0,-3.064220706125555,1.188940196690068,-3.297478598630676,-1.075665841695383e-05,6.255985194308662e-06,-2.637982878904541e-05,4.565851784374445e-06,5.402781109770234e-06
289.3205804032253,103.1222720341352,12.5,0,-2.369853250119832,1.670641385438831,-3.648670870121909,-8.920043508734527e-06,7.241935033500124e-06,-2.918936696097527e-05,6.462431668768698e-06,5.881814717839468e-06
291.5066989431775,103.5261023043811,12.5,0,-2.520567354091926,1.392966136538166,-3.45490204742456,-9.180188442324696e-06,6.473945520195671e-06,-2.763921637939648e-05,5.50677103149165e-06,5.901519478398066e-06
292.4912851785348,101.3811466191838,12.5,0,-2.712695856847803,1.341669128786644,-3.562441966949425,-9.753962044942285e-06,6.463497897595503e-06,-2.84995357355954e-05,5.42393457773127e-06,5.409118220530085e-06
294.6832795109078,101.7920276065815,12.5,0,-2.859927384050109,1.084527372988275,-3.368919217087984,-1.001938952735097e-05,5.758429500802567e-06,-2.695135373670388e-05,4.635365363438264e-06,5.409048010799755e-06
293.1070487857227,103.8217265798228,12.5,0,-2.17097969881659,1.538956193937373,-3.710204585480261,-8.178299991362984e-06,6.661443579652863e-06,-2.968163668384208e-05,6.523278983596482e-06,5.907937383687517e-06
295.2931673256748,104.2255568500686,12.5,0,-2.317109006593391,1.281814772564489,-3.51668025214461,-8.440200639150443e-06,5.955494477481076e-06,-2.813344201715688e-05,5.592833657910123e-06,5.905766666458608e-06
291.4247513254528,97.15393812749863,12.5,0,-3.483138314134992,1.314864182512745,-3.465049029952076,-1.219793395124217e-05,6.994076035348774e-06,-2.772039223961661e-05,4.752110997360821e-06,4.72728114909739e-06
293.6269228288332,97.57703131523297,12.5,0,-3.634365209797128,1.040894536806038,-3.274648903133344,-1.246268430079564e-05,6.238354685617021e-06,-2.619719122506675e-05,4.07389445837582e-06,4.723970655439404e-06
292.0405149326406,99.59451808813759,12.5,0,-2.956778977181654,1.512449720947466,-3.617814172263709,-1.067165250373927e-05,7.205262288777214e-06,-2.894251337810967e-05,5.600305916600249e-06,5.092762335942737e-06
294.2368106436002,100.0105605587201,12.5,0,-3.106954587091744,1.238448123036088,-3.427431414419453,-1.093301317712245e-05,6.448597663388875e-06,-2.741945131535563e-05,4.794782279974041e-06,5.092386724038692e-06
216.0399842396271,178.1000697332617,12.5,0,13.54811538465967,10.20794590041597,-1.649701759523061,3.518761251057817e-05,2.182693457360337e-05,-1.319761407618449e-05,8.63877379595424e-05,8.720441706029946e-05
217.137990623199,177.0645143241845,12.5,0,13.49085258318025,9.557298524700284,-1.845055326353538,3.552488944641657e-05,1.979067321249671e-05,-1.476044261082831e-05,8.389548910974881e-05,8.561315654675891e-05
217.4549500799665,179.2561337066184,12.5,0,13.82469105775881,10.93603903715129,-1.911344236862203,3.549018015510716e-05,2.393557207267709e-05,-1.529075389489762e-05,9.003209931119578e-05,9.1152129716597e-05
218.8129646884068,177.9678507024489,12.5,0,13.77923756684171,10.41369389935744,-2.069345416289352,3.576260509440752e-05,2.230043042447043e-05,-1.655476333031481e-05,8.802883228016599e-05,8.879711732567115e-05
220.039130805447,178.6291388276356,12.5,0,14.72387981634553,9.817426504051252,-2.29403355643602,3.926247420906468e-05,1.963666095988758e-05,-1.835226845148816e-05,8.944249371107979e-05,9.116209587775038e-05
221.7141048706549,179.5324752058999,12.5,0,14.96843341641381,10.55703139427558,-2.484639232507041,3.945336181710373e-05,2.18077537285508e-05,-1.987711386005632e-05,9.298806046777018e-05,9.443937666220394e-05
218.4907769660254,180.1024312718795,12.5,0,14.7979982792559,10.56833791894978,-2.063041682698942,3.889892415845906e-05,2.198028271723457e-05,-1.650433346159154e-05,9.233083774950673e-05,9.428459851508013e-05
219.9057428063648,181.2584952452362,12.5,0,15.03134482282367,11.1975623430384,-2.286841676746228,3.914225355860503e-05,2.380712363946394e-05,-1.829473341396983e-05,9.545571419396402e-05,9.889494976972654e-05
222.7209583233716,176.0773214598435,12.5,0,13.21766869726446,9.250688789069468,-2.436965151076628,3.489598879999068e-05,1.902806916721073e-05,-1.949572120861303e-05,8.190426929737785e-05,8.556102242392937e-05
224.8462798444293,176.5429208029411,12.5,0,13.39633184528699,10.32948064419157,-2.361365888963285,3.46046773895651e-05,2.233727258518342e-05,-1.889092711170628e-05,8.637062200560314e-05,8.688462214410711e-05
221.1726044839499,177.5506139040875,12.5,0,13.81139378164176,10.27935125234348,-1.960458872479417,3.597297909937883e-05,2.184480898218574e-05,-1.568367097983534e-05,8.765356381097624e-05,8.882462070908784e-05
223.0379177801391,178.2689408422774,12.5,0,13.90324725955132,11.20633701625234,-1.954406820813285,3.552532161756234e-05,2.473768064436643e-05,-1.563525456650628e-05,9.129101261218692e-05,9.122121907418617e-05
219.0397934665464,175.2708797416421,12.5,0,12.65089811607918,9.5176051627619,-2.032608947748777,3.286878984124387e-05,2.033561802797473e-05,-1.626087158199021e-05,8.068775856261063e-05,8.265169830556771e-05
221.165114987604,175.7364790847398,12.5,0,12.83876989605304,10.53561306912767,-1.996041425219198,3.265557321206758e-05,2.34429459043661e-05,-1.596833140175358e-05,8.499882344264532e-05,8.442681389980561e-05
217.9417870829744,176.3064351507194,12.5,0,13.0124794736325,10.22952731261089,-1.720269104901534,3.345631246553528e-05,2.232450382144886e-05,-1.376215283921227e-05,8.450359246181421e-05,8.439325923310047e-05
219.8071003791636,177.0247620889094,12.5,0,13.12945192862457,11.10635927143953,-1.744638817473965,3.312915875444699e-05,2.503678812570682e-05,-1.395711053979172e-05,8.806979953701529e-05,8.699507438377372e-05
224.9131684566127,186.8420885108033,12.5,0.2091230563966572,16.51977547670146,10.34806722909092,-2.421848818190846,5.637391265831749e-05,2.51594067985745e-05,-2.449785734965617e-05,0.000123893424813824,0.0001253367706006941
226.0058384590382,185.6286734921002,12.5,0.1661167609889428,17.40349925812592,10.35768525287689,-2.753056663310969,5.684854570277893e-05,2.305094107120007e-05,-2.641191509330206e-05,0.0001215494449200504,0.0001191286748429434
226.1880704397907,188.082762567192,12.5,0.2510736847130705,15.87832447226174,10.35005421043216,-2.524879703111399,5.678875755166577e-05,2.726238012847916e-05,-2.697066081481261e-05,0.0001276895536922693,0.0001320499400407719
227.3988200264704,186.6680065481582,12.5,0.2005271882945426,16.94369888396996,10.59851496643851,-2.868556281400667,5.721398374758618e-05,2.546714345669134e-05,-2.870447864543519e-05,0.0001257245555697837,0.0001240446783980967
228.4185533077944,187.4288511511462,12.5,0.2229427391535208,17.74659353764054,10.29671183503739,-2.864830663266332,6.248153424308843e-05,2.413233102227204e-05,-2.949415244014896e-05,0.0001318334304301817,0.0001274715240065561
229.8115348752266,188.4681842072042,12.5,0.2502893931688042,17.24819150464294,10.56037583512153,-2.925159096202663,6.235194183038342e-05,2.666982337783108e-05,-3.121374108408514e-05,0.0001354131486722327,0.0001319178367638064
227.1213634661077,188.9909990120625,12.5,0.2792187759202395,16.66719225268668,10.18296940616649,-2.361829275975583,6.26939745015662e-05,2.670955853790809e-05,-2.621410433093331e-05,0.0001358862110349887,0.0001369724337202266
228.3962654492856,190.2316730684512,12.5,0.3146017574177387,15.9424100504867,10.18394276258772,-2.418686536871587,6.254547398601212e-05,2.893892567504036e-05,-2.823102116817928e-05,0.0001389938490215402,0.0001437077671129274
230.6653520206176,184.7231316871527,12.5,0.1096090202095545,17.18730878611627,9.962262101879469,-2.94334259668362,5.281901939880045e-05,2.036115830978888e-05,-2.644539456027589e-05,0.0001114240522007024,0.0001118500180792042
232.2628534273112,185.4137319009974,12.5,0.1174328662740994,16.9524737228123,10.48608067813583,-2.807850545478203,5.196097794497428e-05,2.265377717769649e-05,-2.545166651401944e-05,0.0001134656040425546,0.0001128042519672883
229.3681621789309,186.285279548069,12.5,0.1777044311399941,16.59451048402706,9.904192009158914,-2.284856404322822,5.494262848113572e-05,2.239803635038494e-05,-2.222905233445873e-05,0.0001175822244587772,0.0001207399930238347
230.8475840013702,187.1772207622444,12.5,0.1977795083034096,16.04138581901302,10.13557140468901,-2.17543581756949,5.388042058820691e-05,2.443308297740124e-05,-2.169414359355225e-05,0.0001189511432635006,0.0001236372648375071
227.8983984191113,183.526977029077,12.5,0.08499367048132977,17.03600724900441,10.19210407460134,-2.818383720224743,5.066799916184301e-05,2.074950372147493e-05,-2.464143583974835e-05,0.0001086612690247509,0.0001089504508605337
229.4958998258049,184.2175772429218,12.5,0.1009905461864097,16.74834872193313,10.68727069543417,-2.738764316082368,5.010503411589121e-05,2.313722860155355e-05,-2.437139502339651e-05,0.0001113182114935071,0.0001108173951848912
226.8057284166859,184.7403920477801,12.5,0.1328882597988132,16.59580733525929,10.26620219406429,-2.343185517198779,5.177374453165873e-05,2.257517716027749e-05,-2.161830277288244e-05,0.0001129812753152142,0.0001147379737017858
228.2851502391252,185.6323332619556,12.5,0.1604439400007368,16.02213768338584,10.47882076435189,-2.28138274986103,5.1083883517428e-05,2.467317822616344e-05,-2.173894379239459e-05,0.0001150315751903403,0.0001183554351508829
142.3646907520699,72.48305100458198,12.5,0,-8.983475633812498,0.4733769801091734,1.886756747158994,-2.912582361228733e-05,8.701586843399352e-06,1.509405397727195e-05,2.800386912224207e-06,2.793993351679995e-06
144.6258693656383,72.60937831791446,12.5,0,-9.026145489661832,0.3836838261590976,2.033483021805291,-2.919061262784514e-05,8.448704635438578e-06,1.626786417444233e-05,2.802311802777829e-06,2.823819535343713e-06
143.0024047938597,74.38996887006886,12.5,0,-8.651890083104634,0.5785368854900068,1.819288502150328,-2.814887777432683e-05,8.772830100051729e-06,1.455430801720263e-05,2.780734925677427e-06,2.757468016742603e-06
145.2689980807887,74.51852658937077,12.5,0,-8.694810988442981,0.4889238594942906,1.96577631181881,-2.821453425061297e-05,8.520405141136114e-06,1.572621049455048e-05,2.781325706897196e-06,2.786688009441335e-06
143.4692438731301,75.78592963340671,12.5,0,-8.456285673405569,0.5147498476494743,1.920891654249752,-2.74719140330174e-05,8.412228051202773e-06,1.536713323399802e-05,2.735016016780946e-06,2.731205814005089e-06
145.7398009760653,75.91612012319965,12.5,0,-8.508310828211854,0.3973988037205349,2.081554542008456,-2.754451369325436e-05,8.078324834475195e-06,1.665243633606765e-05,2.728510984450734e-06,2.760446771246057e-06
144.1069579149199,77.69284749889358,12.5,0,-8.094398351580702,0.6344969031451488,1.841471136685625,-2.640967224757436e-05,8.505908771329037e-06,1.4731769093485e-05,2.717459654231684e-06,2.69598147674187e-06
146.3829296912157,77.82526839465594,12.5,0,-8.146685103749899,0.517268572060849,2.001879527494065,-2.648320718964836e-05,8.172607513594636e-06,1.601503621995252e-05,2.708679697109077e-06,2.725885901142368e-06
147.4019641368296,76.01142617638632,12.5,0,-8.429272175523387,0.6050345590984016,1.878188865421201,-2.745769860895356e-05,8.679528329533595e-06,1.502551092336961e-05,2.775949763933278e-06,2.781733238690334e-06
149.6725212397648,76.14161666617925,12.5,0,-8.479778911740052,0.4894475048517259,2.031303795912216,-2.752685052144954e-05,8.350055144917563e-06,1.625043036729772e-05,2.764924838506687e-06,2.810647992023266e-06
148.0490566679862,77.92220721833365,12.5,0,-8.083506469242353,0.7207876813055409,1.800649521810837,-2.644385084661996e-05,8.773325755571612e-06,1.44051961744867e-05,2.761628628448354e-06,2.748518723185105e-06
150.3250284442821,78.054628114096,12.5,0,-8.134261039405557,0.6053235225710134,1.953524230560721,-2.651389414415459e-05,8.444444103751687e-06,1.562819384448577e-05,2.748199617081062e-06,2.780448318526659e-06
146.2811669956881,72.70185632965358,12.5,0,-9.057519698309241,0.5316302398925266,1.879239898094347,-2.940936722650359e-05,8.947232526303477e-06,1.503391918475478e-05,2.851924003900815e-06,2.845528525612354e-06
148.5423456092564,72.82818364298606,12.5,0,-9.122987499611424,0.369940850893645,2.061806525553953,-2.948951267947147e-05,8.482200722548803e-06,1.649445220443162e-05,2.823111084070846e-06,2.875012406346105e-06
146.9282595268448,74.61263737160093,12.5,0,-8.642790088188798,0.676855790296647,1.778909541334605,-2.819841291444147e-05,9.080170599500307e-06,1.423127633067684e-05,2.83316583429677e-06,2.80772693690781e-06
149.1948528137737,74.74119509090282,12.5,0,-8.708545999630951,0.5153560546272469,1.961196776454577,-2.827963204252084e-05,8.61597617451195e-06,1.568957421163662e-05,2.800213375165342e-06,2.835986362986684e-06
233.923777127706,135.8559316201447,12.5,0,2.389517453715617,5.695730420970568,-2.315653600087065,3.089871515113518e-06,1.631472338413332e-05,-1.852522880069652e-05,3.021625443184459e-05,2.929803609725517e-05
236.2103355905551,136.4233861856156,12.5,0,2.248083224996622,5.545159843289754,-2.136925449417316,2.757738445357387e-06,1.594604491852991e-05,-1.709540359533853e-05,2.909881499385523e-05,2.979520535000125e-05
233.9373334046812,137.9760641611699,12.5,0,2.794368800359854,5.797611505406993,-2.358428132607268,4.303890956825938e-06,1.631686177701449e-05,-1.886742506085814e-05,3.197686371414214e-05,3.138668989813352e-05
236.2563786355493,138.5352100540087,12.5,0,2.658048259883919,5.649956029472157,-2.182559665792159,3.985789608050816e-06,1.595342068640376e-05,-1.746047732633727e-05,3.08878629267631e-05,3.186854261062585e-05
233.9002969672237,132.183754340375,12.5,0,1.657704363198436,5.403562968354896,-2.205544573715302,9.81803587551078e-07,1.596523800817692e-05,-1.764435658972241e-05,2.665464556673726e-05,2.580380201953161e-05
236.1305866972914,132.7655999489877,12.5,0,1.522841264447657,5.274008026498181,-2.038424420435953,6.538856250339563e-07,1.565855267323605e-05,-1.630739536348763e-05,2.56460914978027e-05,2.631572271034664e-05
233.913853244199,134.3038868814002,12.5,0,2.047296340989632,5.501530554473955,-2.242110856268999,2.15012384758766e-06,1.596706070152495e-05,-1.793688685015199e-05,2.831980720756235e-05,2.780210579879684e-05
236.1766297422856,134.8774238173809,12.5,0,1.917459919177784,5.374628096388924,-2.077704873280065,1.836169264257769e-06,1.566484197310233e-05,-1.662163898624052e-05,2.733676688562464e-05,2.830733174205228e-05
230.0373218392169,131.175968184115,12.5,0,1.361534818072861,5.420317645795351,-1.888069354875582,2.065730119687299e-08,1.625578861208683e-05,-1.510455483900465e-05,2.559499265577215e-05,2.480582256706088e-05
232.2676115692846,131.7578137927277,12.5,0,1.243800627467143,5.349087421653592,-1.730495027403399,-2.991079294280156e-07,1.612203924731778e-05,-1.384396021922719e-05,2.48750334639156e-05,2.539922549549915e-05
229.9946093834106,133.3104917682822,12.5,0,1.743777590682777,5.515095435423647,-1.900849502421416,1.16801194184597e-06,1.625328332080945e-05,-1.520679601937133e-05,2.720405576844154e-05,2.679907999756527e-05
232.2573858814973,133.8840287042628,12.5,0,1.630699989538871,5.445621883361818,-1.745631256441018,8.617424598349328e-07,1.612143003512672e-05,-1.396505005152814e-05,2.650451186880066e-05,2.739797096189129e-05
229.9633416956458,134.87307148178,12.5,0,2.081779918230643,5.711512988146803,-1.966444634896882,2.092485347820615e-06,1.661141762748525e-05,-1.573155707917506e-05,2.908532874000973e-05,2.829796548703946e-05
232.249900158495,135.4405260472508,12.5,0,1.96939273786108,5.645290896280115,-1.808198532181343,1.785824044131363e-06,1.64894166778075e-05,-1.446558825745074e-05,2.839736646675986e-05,2.889685188511135e-05
229.9206292398396,137.0075950659471,12.5,0,2.457877084411427,5.804840344338808,-1.977552591786794,3.22133439464552e-06,1.660918743435504e-05,-1.582042073429435e-05,3.069696263470676e-05,3.039973936868038e-05
232.2396744707077,137.5667409587859,12.5,0,2.349912449562414,5.740251414463968,-1.821602247811051,2.92751870702855e-06,1.648887456663476e-05,-1.457281798248841e-05,3.002984727354804e-05,3.099312525562626e-05
225.7847542928744,133.5094363768829,12.5,0,1.76151231694768,5.697596261289147,-1.608396519603639,1.07876240520126e-06,1.682309818256712e-05,-1.286717215682911e-05,2.782660041462319e-05,2.682749107203172e-05
228.2310110820573,134.355637564109,12.5,0,1.611406923850695,5.652097649476505,-1.446872464801264,6.348240367410181e-07,1.679758693924426e-05,-1.157497971841011e-05,2.710276895326085e-05,2.774348192834341e-05
225.7902484402873,135.8217053707474,12.5,0,2.153155470531058,5.795524391684477,-1.611664906230276,2.253677992351802e-06,1.682315367696548e-05,-1.289331924984221e-05,2.949776459635263e-05,2.908372084270836e-05
228.192510743398,136.5400141893832,12.5,0,2.020639135163714,5.754271272153457,-1.447218251024229,1.862628214801119e-06,1.679715676276009e-05,-1.157774600819383e-05,2.884403987313571e-05,2.988811599823053e-05
225.7752381504112,129.5044689988155,12.5,0,1.046481077132531,5.383463408224957,-1.534556928281652,-9.580312797558656e-07,1.638989804461383e-05,-1.227645542625322e-05,2.42866443011885e-05,2.311950681925781e-05
228.2976956247226,130.5721862663362,12.5,0,0.881345755440916,5.351427015644891,-1.387639812352085,-1.460835195104982e-06,1.641948984571092e-05,-1.110111849881668e-05,2.358105215466505e-05,2.419497378881087e-05
225.7807322978241,131.8167379926799,12.5,0,1.398368022257991,5.471415616946752,-1.531583124895195,9.764517766816966e-08,1.638983555642321e-05,-1.225266499916156e-05,2.575485429589744e-05,2.52293847410115e-05
228.2591952860633,132.7565628916104,12.5,0,1.24796783830689,5.443233434685931,-1.381792310885688,-3.610896651666968e-07,1.641997272034947e-05,-1.105433848708551e-05,2.510443199147928e-05,2.621800907098135e-05
221.4062136450504,127.6551284433844,12.5,0,0.5999075588493953,5.201766377220476,-1.151489881331643,-2.241708913458316e-06,1.616572636002601e-05,-9.211919050653144e-06,2.203999623201466e-05,2.11406320126261e-05
223.9286711193619,128.722845710905,12.5,0,0.4347465760290404,5.198113375453879,-1.002649791584324,-2.767301657070173e-06,1.628616554062918e-05,-8.021198332674594e-06,2.14632156319537e-05,2.230109840694593e-05
221.4879084775918,130.1889135175434,12.5,0,1.003647844830285,5.301516802420657,-1.141678418642818,-1.029540338479614e-06,1.616193549188187e-05,-9.133427349142546e-06,2.369919749139906e-05,2.342628409244639e-05
223.9663714658311,131.1287384164738,12.5,0,0.8544459754916348,5.302439958924505,-0.9898453539210466,-1.507724845566372e-06,1.628425108816511e-05,-7.918762831368373e-06,2.318047605152486e-05,2.448134428754655e-05
221.5477132457254,132.0437729272087,12.5,0,1.414398508107907,5.593226251576585,-1.225448627928849,5.14942246840355e-08,1.676680519855874e-05,-9.803589023430793e-06,2.61627038369573e-05,2.5153901756818e-05
223.9939700349084,132.8899741144347,12.5,0,1.268925076957467,5.560671557991812,-1.067169593925324,-3.879770001295562e-07,1.677900892400782e-05,-8.537356751402592e-06,2.551955548465555e-05,2.613361515635743e-05
221.6294080782669,134.5775580013677,12.5,0,1.840297473069922,5.699577321247346,-1.229064216745661,1.329290056825875e-06,1.676640944953556e-05,-9.832513733965291e-06,2.797056809081427e-05,2.758818891231508e-05
224.0316703813776,135.2958668200035,12.5,0,1.712676074008492,5.671546684867553,-1.068178755373714,9.433260889331327e-07,1.677880853236937e-05,-8.54543004298971e-06,2.739774889111928e-05,2.846745723740603e-05
203.178132746702,149.6923249706278,12.5,0,4.778708252928316,6.158077159212636,0.2000344634340103,1.03654046820005e-05,1.588288030713778e-05,1.600275707472083e-06,3.971687465336654e-05,3.954397890101426e-05
205.4901978755158,149.9154862147472,12.5,0,4.783274749529594,6.360702411735817,0.3832612288688311,1.021791726910605e-05,1.652762791793093e-05,3.066089830950649e-06,4.048835352757055e-05,4.054591744510642e-05
203.174793341897,151.8643446759485,12.5,0,5.21435787003235,6.267254472654754,0.2692066121234133,1.167214160597972e-05,1.588372801646933e-05,2.153652896987306e-06,4.167806839748354e-05,4.187360308892817e-05
205.6037642550589,152.0038115130344,12.5,0,5.237614347126624,6.464457266641782,0.4462466391797577,1.158880009749177e-05,1.64961717755524e-05,3.569973113438062e-06,4.249484463501308e-05,4.288307361929183e-05
203.1839167654912,145.9302764860392,12.5,0,3.998128967235349,5.901850904585303,0.231955511596039,8.072531971484875e-06,1.568741972088469e-05,1.855644092768312e-06,3.600104317704532e-05,3.562225924161504e-05
205.293495136119,146.2984006954473,12.5,0,3.963958139277792,6.055655816865642,0.387091199589928,7.840141392196419e-06,1.620693210254782e-05,3.096729596719424e-06,3.645966604091692e-05,3.662382449532469e-05
203.1805773606862,148.1022961913599,12.5,0,4.410526376821501,6.005182105058616,0.2925128058456285,9.309538721781908e-06,1.568816163473037e-05,2.340102446765028e-06,3.78467293424825e-05,3.786893636556957e-05
205.4070615156621,148.3867259937346,12.5,0,4.397845905423749,6.155452431477892,0.4420065153579893,9.14874495217368e-06,1.617917105639025e-05,3.536052122863915e-06,3.836623638498849e-05,3.886875669716641e-05
199.5300198450813,145.2926666518595,12.5,0,3.84856258019587,5.486326835205914,0.480194130204271,7.926338788462052e-06,1.447739580850223e-05,3.841553041634168e-06,3.39507476841772e-05,3.38413610160037e-05
201.639598215709,145.6607908612677,12.5,0,3.840535853228479,5.735355143895326,0.6237795436962271,7.701430615214872e-06,1.528070777788226e-05,4.990236349569817e-06,3.485929768856034e-05,3.487670039938509e-05
199.3241936820902,147.609649322469,12.5,0,4.283560230965008,5.617347439923789,0.5947698249525923,9.213514787148993e-06,1.454866362298412e-05,4.758158599620739e-06,3.598960533186458e-05,3.606310471762824e-05
201.5506778370661,147.8940791248437,12.5,0,4.295054502141531,5.859494042583653,0.736102393726867,9.056579172785973e-06,1.531433733455446e-05,5.888819149814936e-06,3.693963019179685e-05,3.711716418343294e-05
199.1735184732602,149.3057983575397,12.5,0,4.674722573754239,5.720383970802917,0.4700320485955759,1.038280505937123e-05,1.456545064756594e-05,3.760256388764607e-06,3.775225867145146e-05,3.771939589526076e-05
201.485583602074,149.5289596016591,12.5,0,4.697659891127255,5.994758579806851,0.6488695846593843,1.023670478776174e-05,1.542509954248012e-05,5.190956677275074e-06,3.885911699520786e-05,3.878661473436753e-05
198.9676923102692,151.6227810281491,12.5,0,5.143895706651994,5.859591556301904,0.5841423878095032,1.177279301624486e-05,1.46355764148445e-05,4.673139102476026e-06,3.99547423324092e-05,4.002272384324875e-05
201.3966632234311,151.7622478652351,12.5,0,5.184712492984897,6.126788747030448,0.7592457655080667,1.168964897992731e-05,1.545795399610951e-05,6.073966124064533e-06,4.109749148588659e-05,4.110717467639073e-05
281.2891377265403,210.2233518502587,12.5,0,15.71152441985382,0.304694823148135,-0.7861761493677046,5.003312228501371e-05,-1.159419610180902e-05,-6.289409194941637e-06,6.13352725891194e-05,6.181624654227061e-05
283.7176696315453,210.5917712915257,12.5,0,15.65305327411008,0.1860542906332694,-0.7038977656127831,4.994092704464564e-05,-1.19270688892616e-05,-5.631182124902264e-06,6.074299161856119e-05,6.066115666271238e-05
280.7283212317502,212.509623865312,12.5,0,15.88266752776481,0.3251741545559601,-0.8062606587937626,5.056439676520263e-05,-1.166557672763278e-05,-6.450085270350101e-06,6.205668532743535e-05,6.20380217642534e-05
283.2430963049526,212.7751161792176,12.5,0,15.83423285244329,0.2105065522503584,-0.7270325833412528,5.050113988601824e-05,-1.199376531475348e-05,-5.816260666730022e-06,6.15150150598634e-05,6.0865787461541e-05
285.4954783737355,210.8614730410179,12.5,0,15.37657037422727,0.07509859134805463,-0.6400956748314138,4.91449463244488e-05,-1.206094080706804e-05,-5.120765398651311e-06,5.933947941262037e-05,5.988723782197301e-05
287.9240102787405,211.2298924822849,12.5,0,15.33912369120235,0.01952478961297999,-0.5751885513997543,4.906957598015712e-05,-1.220881962620034e-05,-4.601508411198035e-06,5.902304100378912e-05,5.892794210760658e-05
285.0840394280662,212.9694700420072,12.5,0,15.50720408836401,0.1005373055777632,-0.6451893594166201,4.954262323830262e-05,-1.208404389284237e-05,-5.161514875332961e-06,5.991881711043716e-05,6.008647619606468e-05
287.5988145012686,213.2349623559128,12.5,0,15.47795181888371,0.04787204912917797,-0.5823269327734446,4.949114818112452e-05,-1.22291708978936e-05,-4.658615462187557e-06,5.964268625849901e-05,5.912959252649442e-05
286.2081115318343,207.210315133167,12.5,0,15.19428669504916,0.1201657304723067,-0.9355504164051118,4.852558483977947e-05,-1.177089901852795e-05,-7.484403331240895e-06,5.880085447775012e-05,5.931028212042966e-05
288.4872658877184,207.7570095884981,12.5,0,15.11959786704303,0.04816721649913447,-0.8358996288068894,4.834417940133837e-05,-1.194154320083719e-05,-6.687197030455115e-06,5.828624566297705e-05,5.839410068981328e-05
285.7966725861651,209.3183121341564,12.5,0,15.40608966630086,0.1642743014471684,-0.9379964996983586,4.916806749100501e-05,-1.179919396840975e-05,-7.503971997586869e-06,5.97483463401948e-05,5.967925724624326e-05
288.1620701102466,209.7620794621259,12.5,0,15.34574225659144,0.09687305382940226,-0.8413302357218665,4.902887677802909e-05,-1.196660003301907e-05,-6.730641885774932e-06,5.930288070359461e-05,5.873086766393431e-05
282.260500389222,206.2634125603344,12.5,0,15.47522805474638,0.3532553145350947,-1.10865620049164,4.923812552356036e-05,-1.12497654372848e-05,-8.869249603933116e-06,6.060773148839902e-05,6.112616523521934e-05
284.5396547451062,206.8101070156655,12.5,0,15.38125319504604,0.2300000512447324,-0.9937577182476791,4.903601018315155e-05,-1.156900239205369e-05,-7.950061745981432e-06,5.985855387954282e-05,6.004233660901813e-05
281.6996838944319,208.5496845753879,12.5,0,15.72993963473318,0.3942132803488811,-1.121717652034456,5.002043620686708e-05,-1.132246921067013e-05,-8.973741216275651e-06,6.17120666754853e-05,6.157191532171049e-05
284.0650814185134,208.9934519033574,12.5,0,15.65175361910585,0.2763025933853438,-1.010484736591163,4.986456950643045e-05,-1.163723459645158e-05,-8.083877892729307e-06,6.103988617756862e-05,6.044051367177903e-05
195.7004660002486,148.0621518843567,12.5,0,4.544945350079195,5.374528998709619,0.7586660880770375,1.024420192128573e-05,1.356253651580742e-05,6.0693287046163e-06,3.605216160037113e-05,3.523184484624975e-05
197.6234008837802,148.912768414249,12.5,0,4.48357073819982,5.614461092784603,0.8232354699467116,9.855857488011741e-06,1.437941890635087e-05,6.585883759573693e-06,3.672114788303652e-05,3.676689817449077e-05
195.6756081650486,150.2371827877912,12.5,0,4.940212167130155,5.47727593437568,0.8979118423515727,1.142685818731595e-05,1.357511325629805e-05,7.183294738812582e-06,3.786687330210506e-05,3.732833694749865e-05
197.4347402275693,151.2141410722558,12.5,0,4.838018457959389,5.727945876360272,0.9552922106641334,1.089930236438183e-05,1.445901203798536e-05,7.642337685313067e-06,3.842436154167499e-05,3.901018732549537e-05
195.7435210337804,144.2948878516434,12.5,0,3.675272340908979,5.158210922089879,0.7253382437940481,7.63430275323683e-06,1.356605707796043e-05,5.802705950352384e-06,3.215474689995238e-05,3.167610283374872e-05
197.9501707257211,144.9266740435029,12.5,0,3.639303759551962,5.386193533268938,0.8280779974333271,7.336817203951128e-06,1.432437629881903e-05,6.624623979466617e-06,3.288632489566159e-05,3.298376348302111e-05
195.7186631985804,146.4699187550779,12.5,0,4.073747381310576,5.260939167596051,0.8358729678202115,8.827240286117001e-06,1.35760074312589e-05,6.686983742561691e-06,3.396457578046941e-05,3.371733328008595e-05
197.7615100695101,147.2280467015097,12.5,0,4.003712327503303,5.497434278279436,0.9373795014592644,8.413932025387019e-06,1.438881982849155e-05,7.499036011674115e-06,3.460338243136669e-05,3.515212277270238e-05
191.9214916529016,143.200602067842,12.5,0,3.438082292894463,4.724819556677243,0.9230935541700713,7.222007691920485e-06,1.236895674705161e-05,7.384748433360571e-06,2.975224981008278e-05,2.939687934591453e-05
194.1281413448422,143.8323882597014,12.5,0,3.377406898490719,4.906618061174573,1.04880187324066,6.882407626230641e-06,1.299925227696606e-05,8.390414985925282e-06,3.023518661816666e-05,3.071500012589692e-05
192.1803486261106,145.1568026332437,12.5,0,3.849062925146319,4.799987221928616,0.9856968164110279,8.477011582925327e-06,1.228070877005451e-05,7.885574531288223e-06,3.150079065300852e-05,3.127551997536405e-05
194.2231954970403,145.9149305796755,12.5,0,3.7456984553995,4.990265465638599,1.116297257727664,7.994022684767522e-06,1.297229072572391e-05,8.930378061821308e-06,3.185990239221824e-05,3.267860069119525e-05
192.369845082385,146.5888408368518,12.5,0,4.232971849204402,4.944416153927529,0.9495782944901013,9.589976994312064e-06,1.243575421320457e-05,7.596626355920811e-06,3.339345666493672e-05,3.265659555984857e-05
194.2927799659167,147.4394573667441,12.5,0,4.148290936754589,5.100233276817049,1.030059619704629,9.194344376161045e-06,1.300211373641088e-05,8.24047695763703e-06,3.367613026396515e-05,3.413049258004312e-05
192.6287020555941,148.5450414022534,12.5,0,4.598392995893631,5.006450673786936,1.019688877852384,1.070969704783007e-05,1.234192775940329e-05,8.157511022819069e-06,3.494459127614936e-05,3.455112359646407e-05
194.3878341181148,149.5219996867181,12.5,0,4.466213896064325,5.171036622868136,1.100623606493836,1.015505516911133e-05,1.297434607632657e-05,8.804988851950687e-06,3.508570456834389e-05,3.613353442234298e-05
202.7822267749372,135.4611907645361,12.5,0,1.842565945697538,5.181002487378567,0.2914232589215377,1.751409036329266e-06,1.510515520305338e-05,2.331386071372302e-06,2.584601189899505e-05,2.536711485650477e-05
204.7920297048376,135.8454463462175,12.5,0,1.787040553495184,5.225642501816521,0.4264637629004567,1.538015769731371e-06,1.529242356301672e-05,3.411710103203654e-06,2.584074451012313e-05,2.616810627178705e-05
203.0021896400962,137.4683350864011,12.5,0,2.214735991381431,5.267599821668624,0.2995825380063227,2.873075315085682e-06,1.508453063623445e-05,2.396660304050582e-06,2.743448490374735e-05,2.727375648201561e-05
205.0027984399595,137.8538239490762,12.5,0,2.158378171218658,5.312319930568871,0.4352529084480548,2.656954203444608e-06,1.527272124084546e-05,3.482023267584438e-06,2.742333970677079e-05,2.810384303814921e-05
202.4012399167103,131.9847148210049,12.5,0,1.165652590047753,4.920811430298612,0.3181628797082757,-2.06560856086079e-07,1.481407450491736e-05,2.545303037666206e-06,2.260977675505415e-05,2.218854295938022e-05
204.426967546966,132.3668342973452,12.5,0,1.109958533212335,4.958187429338595,0.4522065030643653,-4.146826371914041e-07,1.497823294731364e-05,3.617652024514922e-06,2.258496488316208e-05,2.293945486380267e-05
202.6212027818693,133.99185914287,12.5,0,1.530830120648234,5.006500706448672,0.3235524990627392,8.934558209154091e-07,1.479613816411716e-05,2.588419992501914e-06,2.414283832882724e-05,2.40045359998172e-05
204.637736282088,134.375211900204,12.5,0,1.474320232736291,5.043923251515714,0.4582203339470253,6.826861435435576e-07,1.496109821866125e-05,3.665762671576202e-06,2.411131324227014e-05,2.478431263111312e-05
198.8925767388743,131.3228644734336,12.5,0,1.039363592683745,4.66106024253582,0.5400836539981352,-4.02884697440673e-07,1.408390190196763e-05,4.320669231985081e-06,2.123508443744319e-05,2.088022237980115e-05
200.91830436913,131.704983949774,12.5,0,0.9858669474215009,4.709915558278055,0.6747284490740179,-6.131582148736405e-07,1.428303622855257e-05,5.397827592592142e-06,2.127197510611378e-05,2.163677327828125e-05
199.1284643043886,133.3278726899577,12.5,0,1.407494105568875,4.74580115799515,0.5485479003616183,7.073402114242808e-07,1.406056842112938e-05,4.388383202892946e-06,2.27700583139614e-05,2.264292898451783e-05
201.1449978046073,133.7112254472918,12.5,0,1.353185393131555,4.794758880463004,0.6838167233948266,4.943861536505721e-07,1.426068010297637e-05,5.470533787158612e-06,2.279966551508732e-05,2.343075398104463e-05
199.3011459872115,134.7956405739839,12.5,0,1.713572236554792,4.892032442586376,0.5224735499402881,1.569805202906234e-06,1.428364602703257e-05,4.179788399522304e-06,2.43426577684934e-05,2.396639911880028e-05
201.3109489171119,135.1798961556653,12.5,0,1.663305414456896,4.95887068916874,0.6565257459189834,1.355480774927075e-06,1.453774187377445e-05,5.252205967351867e-06,2.44481746666178e-05,2.47771692029105e-05
199.5370335527259,136.800648790508,12.5,0,2.086198158449454,4.975810476443733,0.5378096830128823,2.695185725883268e-06,1.425363499786038e-05,4.302477464103059e-06,2.592126415866773e-05,2.581948016339701e-05
201.5376423525891,137.186137653183,12.5,0,2.035121081813434,5.042839213361454,0.6724777140022363,2.478116091113826e-06,1.45089886173059e-05,5.379821712017891e-06,2.602083668969549e-05,2.666166329452517e-05
171.6345665915587,116.2810642569293,12.5,0,-1.744956748664632,2.299143819062741,1.707296378722775,-7.423176650977015e-06,8.753225619932475e-06,1.36583710297822e-05,5.934250185750969e-06,6.22557910979077e-06
173.1655842153572,115.7016590156909,12.5,0,-1.692623092999534,2.247933231580297,1.766410034594426,-7.214740482862746e-06,8.547484815456577e-06,1.413128027675541e-05,5.936238182165081e-06,6.241495022328472e-06
172.3558646734157,117.6798311447098,12.5,0,-1.566801643775604,2.374377214059659,1.650618787624303,-6.913267031329658e-06,8.85144840001139e-06,1.320495030099442e-05,6.373426251167468e-06,6.840852430564661e-06
173.7076175172583,117.0491099698504,12.5,0,-1.494273376205883,2.324451472201037,1.710793258138452,-6.641235981619655e-06,8.633663412008024e-06,1.368634606510762e-05,6.414722062744052e-06,6.804592971575866e-06
168.9827662799038,117.2846235729078,12.5,0,-1.538255523537841,2.182486541898626,1.796524439202261,-6.668406908839991e-06,8.214561352905877e-06,1.437219551361809e-05,6.025962073542345e-06,6.201522538235972e-06
170.5137839037024,116.7052183316694,12.5,0,-1.50696104498468,2.084428442751873,1.839484073230756,-6.489818098152473e-06,7.875739852793737e-06,1.471587258584605e-05,5.849988667826115e-06,6.214868514959052e-06
170.0145600686468,118.7722722649562,12.5,0,-1.364360899773057,2.298155912607005,1.714666528099902,-6.204479609359386e-06,8.445587640160861e-06,1.371733222479922e-05,6.568692274219752e-06,6.908440888803648e-06
171.3663129124893,118.1415510900968,12.5,0,-1.317572866515005,2.200155635338124,1.755306311985528,-5.976357681118514e-06,8.094556326294e-06,1.404245049588422e-05,6.40364761149409e-06,6.868678396120634e-06
170.7698855449086,119.8613066913027,12.5,0,-1.087859328257776,2.332902203050882,1.772262163438622,-5.34747161286559e-06,8.335574512369041e-06,1.417809730750897e-05,7.28078499209267e-06,7.479934619238009e-06
171.9904074618212,119.1930196457965,12.5,0,-1.049330226075263,2.262013399692923,1.795720381407842,-5.167467443195181e-06,8.077907059877564e-06,1.436576305126273e-05,7.162605678204693e-06,7.395586537847191e-06
171.8016793336516,121.348955383351,12.5,0,-0.9340678916595766,2.44035011324699,1.697254262753993,-4.941297343908236e-06,8.556374675718027e-06,1.357803410203195e-05,7.875549316815266e-06,8.334366176490461e-06
172.8429364706082,120.6293524042238,12.5,0,-0.8783314270813729,2.371571495914252,1.716601659148699,-4.707917763391794e-06,8.291693928590702e-06,1.373281327318959e-05,7.79386097093944e-06,8.181316470865468e-06
172.8838915167146,118.7037995744666,12.5,0,-1.323295191723266,2.419281768039848,1.692842835179971,-6.169970027946329e-06,8.800337811106125e-06,1.354274268143977e-05,6.996412506808617e-06,7.335554560856173e-06
174.1044134336273,118.0355125289604,12.5,0,-1.26893447027617,2.360173250765868,1.727428392893881,-5.948728905496438e-06,8.567701978671712e-06,1.381942714315105e-05,6.954169264839336e-06,7.255892231021753e-06
173.6051895985717,120.1025664622472,12.5,0,-1.154853764719341,2.505036014579823,1.628666704768072,-5.699560858765749e-06,8.939998258430904e-06,1.302933363814458e-05,7.538471898537478e-06,8.071832594708712e-06
174.6464467355284,119.3829634831199,12.5,0,-1.076875724519224,2.447606594000415,1.660845440844971,-5.404087593661848e-06,8.693841680416708e-06,1.328676352675977e-05,7.548853969491615e-06,7.925766788051151e-06
291.8415826612517,113.6941453791329,12.5,0,-0.5168747121062339,1.486319894326746,-3.772320624604453,-2.843054994201345e-06,5.169723431530573e-06,-3.017856499683562e-05,9.087894889402184e-06,9.132988296303351e-06
294.0371119940164,113.9781455115116,12.5,0,-0.6362953588444997,1.234828008968099,-3.585990797747571,-3.024007555476878e-06,4.460485915773514e-06,-2.868792638198057e-05,7.931475159827973e-06,9.099705052428916e-06
292.3880468452288,116.3001885355887,12.5,0,0.02998474527203854,1.676128252939137,-3.915488565333107,-1.244951417480786e-06,5.339622613187607e-06,-3.132390852266485e-05,1.101356171459836e-05,1.021864808090728e-05
294.603353916602,116.5276714480481,12.5,0,-0.0748010596134534,1.432852831487817,-3.73530597446624,-1.385645655953304e-06,4.644969908451776e-06,-2.988244779572992e-05,9.831164884574174e-06,1.014873752528667e-05
292.7880863923997,118.2079445327504,12.5,0,0.3082669612255934,1.475004391959511,-3.844522780726314,-1.935492376457099e-07,4.47340048528996e-06,-3.075618224581051e-05,1.102167718324607e-05,1.107534625591594e-05
295.0178717732926,118.3940539687281,12.5,0,0.2091681560482829,1.227578228737352,-3.658608836664215,-3.127244836353759e-07,3.760915807120898e-06,-2.926887069331372e-05,9.823359047504446e-06,1.097405833531724e-05
293.334550576377,120.813987689206,12.5,0,0.8581712967168758,1.665048157159061,-3.986938155157711,1.414109623766753e-06,4.641617065535494e-06,-3.189550524126169e-05,1.31900969891896e-05,1.233022941228674e-05
295.5841136958783,120.9435799052646,12.5,0,0.7731122206888243,1.425577482688738,-3.80699314978108,1.333497120053248e-06,3.943358168052901e-06,-3.045594519824864e-05,1.200824132236041e-05,1.217984424810278e-05
296.650187962011,118.530295531626,12.5,0,0.4123107241853275,1.301104743628431,-3.866129498728601,2.785105224903031e-07,3.833686600262717e-06,-3.092903598982881e-05,1.084864654101958e-05,1.08857079386439e-05
298.8799733429039,118.7164049676037,12.5,0,0.3143348996337023,1.058789607113747,-3.679635067307149,1.588399931368498e-07,3.136658823057028e-06,-2.943708053845719e-05,9.675238751786107e-06,1.074561808665191e-05
297.2309081941164,121.0384479916808,12.5,0,0.943967663964685,1.488586196681402,-4.005298292463713,1.82982756734187e-06,4.00830169820874e-06,-3.204238633970971e-05,1.295100423890404e-05,1.20518356850541e-05
299.4804713136178,121.1680402077392,12.5,0,0.8601593427805494,1.254416640971952,-3.824950771686027,1.748976584120196e-06,3.326005776885807e-06,-3.059960617348822e-05,1.179573007766896e-05,1.185249495117033e-05
295.6443510150395,114.1860480377602,12.5,0,-0.3706802785669199,1.325604579878105,-3.809988977035347,-2.246660555316627e-06,4.538478878463471e-06,-3.047991181628277e-05,9.05579949447523e-06,9.064389009863684e-06
297.8398803478043,114.4700481701389,12.5,0,-0.4922735736245099,1.064849903282387,-3.623650334193279,-2.427155358224341e-06,3.801338549403246e-06,-2.898920267354623e-05,7.877926258416151e-06,9.001187031123535e-06
296.2250712471449,116.694200497815,12.5,0,0.1555001878579846,1.515696429552077,-3.955465207325609,-7.149565424961106e-07,4.725828424280258e-06,-3.164372165860487e-05,1.094684648355621e-05,1.00852240146205e-05
298.4403783185181,116.9216834102744,12.5,0,0.04868994466210874,1.263657997682211,-3.77559131677942,-8.551185752270207e-07,4.004753636853388e-06,-3.020473053423536e-05,9.744625562081499e-06,9.981612432126681e-06
226.4331252442553,81.15452208197574,12.5,0,-7.771863209759212,2.333428683600329,-0.7649837548361321,-2.673670521810974e-05,1.368446235532842e-05,-6.119870038689057e-06,3.842933176296124e-06,3.796932665703444e-06
228.6129392723064,81.20438592820696,12.5,0,-7.856560888602488,2.028635345473734,-0.6137679856469487,-2.676390311990694e-05,1.277688181639794e-05,-4.91014388517559e-06,3.514357003692305e-06,3.808568292412142e-06
227.4473596066081,83.4443502788106,12.5,0,-7.322808347549957,2.576937210506533,-0.9522821438997695,-2.549453648056509e-05,1.410444575166087e-05,-7.618257151198156e-06,4.103462940094009e-06,3.879962258982431e-06
229.5893376985352,83.45815867507861,12.5,0,-7.401231651277405,2.272853920019,-0.8024780670942634,-2.550222442010289e-05,1.319411786508272e-05,-6.419824536754107e-06,3.72963138993875e-06,3.892552450689957e-06
224.6764197979095,77.18842330452523,12.5,0,-8.485139529451567,2.158384846808011,-0.6534939147020746,-2.887915437169142e-05,1.369494313334689e-05,-5.227951317616597e-06,3.761795051904619e-06,3.697398573280075e-06
226.921767589678,77.30073702198133,12.5,0,-8.579931694126296,1.857488966699547,-0.4914666858876944,-2.894177259456378e-05,1.280791004873959e-05,-3.931733487101555e-06,3.472905712939113e-06,3.707684423936453e-06
225.6906541602623,79.47825150136008,12.5,0,-8.028656908651701,2.397046988916459,-0.8362693414990723,-2.760933969881861e-05,1.409347589145403e-05,-6.690154731992578e-06,3.964149717510736e-06,3.748014873553771e-06
227.8981660159069,79.55450976885298,12.5,0,-8.117272598086586,2.096812554129349,-0.6754475741458256,-2.765272235718055e-05,1.320361825168318e-05,-5.403580593166604e-06,3.638065740026749e-06,3.759033053938747e-06
220.7873633419738,76.99389023950781,12.5,0,-8.545165228552172,2.144991619124707,-0.4630887260559607,-2.906052202666671e-05,1.37001053640408e-05,-3.704709808447686e-06,3.736238151403027e-06,3.674337649217276e-06
223.0327111337423,77.10620395696392,12.5,0,-8.644147467542201,1.825483777673849,-0.3044118640149279,-2.912165891827412e-05,1.275686606259008e-05,-2.435294912119424e-06,3.440873763341182e-06,3.688463331924167e-06
221.8671314680441,79.34616830756755,12.5,0,-8.082974152742164,2.401549106998336,-0.6590519622755959,-2.778675657437359e-05,1.41513364645884e-05,-5.272415698204767e-06,3.946065264990063e-06,3.724545800378317e-06
224.0746433236886,79.42242657506046,12.5,0,-8.175897630004313,2.082772827779946,-0.5017830387105061,-2.782909067823775e-05,1.320559115289928e-05,-4.014264309684049e-06,3.611185287845146e-06,3.738774041813373e-06
222.6575765966873,81.06815536684404,12.5,0,-7.826202362318818,2.330601447472835,-0.5827649267722347,-2.690832871739848e-05,1.371888652176812e-05,-4.662119414177877e-06,3.818258712321316e-06,3.7731569474691e-06
224.8373906247384,81.11801921307524,12.5,0,-7.91060398730492,2.026609373192032,-0.4332298971285701,-2.693522025792937e-05,1.281363318405844e-05,-3.465839177028561e-06,3.499655800962126e-06,3.787444224423351e-06
223.7373447227575,83.42043343490379,12.5,0,-7.368414090678669,2.584435487512797,-0.7766307050395126,-2.564647348018197e-05,1.416492483258388e-05,-6.213045640316101e-06,4.077467485163021e-06,3.855756919979929e-06
225.8793228146846,83.4342418311718,12.5,0,-7.446571436192529,2.28130260957185,-0.6285882995035079,-2.565407068347357e-05,1.325742549958394e-05,-5.028706396028064e-06,3.713609775498371e-06,3.870102926243912e-06
297.9075071046159,140.32290467156,12.5,0,4.396866784013185,1.138231919040582,-3.92359614263017,1.315938817360972e-05,1.248487137193131e-07,-3.138876914104136e-05,2.271046836082113e-05,2.30323567314288e-05
300.1836881106377,140.1661146798267,12.5,0,4.374590201532517,0.9387961762397589,-3.768768301758472,1.324765170391225e-05,-4.955243972587856e-07,-3.015014641406777e-05,2.18717445408342e-05,2.249811875199399e-05
298.5577830664784,142.7183471281304,12.5,0,4.866545802361442,1.311682519512019,-4.052448981699687,1.452360055194699e-05,3.041474205493083e-07,-3.241959185359749e-05,2.500468868105431e-05,2.436058465011767e-05
300.8202333462406,142.5730178116364,12.5,0,4.8420771150892,1.110044304194928,-3.895936371053465,1.46066113249295e-05,-3.215199186475896e-07,-3.116749096842772e-05,2.414997625284511e-05,2.381665238412178e-05
299.0338181094822,144.471932712873,12.5,0,5.150100476494212,1.031721571425659,-3.876202441867836,1.565494426764095e-05,-8.1857135263326e-07,-3.100961953494269e-05,2.497847982015721e-05,2.532574262879931e-05
301.286216799998,144.3349931929428,12.5,0,5.125534750008546,0.8384890430134839,-3.724545040963094,1.573091996561656e-05,-1.417262862363688e-06,-2.979636032770475e-05,2.416503572992284e-05,2.477437094960441e-05
299.6840940713446,146.8673751694435,12.5,0,5.61291144366143,1.202075936608923,-4.002361287071731,1.699965587042944e-05,-6.436861577805916e-07,-3.201889029657385e-05,2.725807271341036e-05,2.663437534531127e-05
301.9227620356008,146.7418963247526,12.5,0,5.586138771240762,1.006672109469824,-3.849032769578388,1.707030638039458e-05,-1.247560266689172e-06,-3.079226215662711e-05,2.642844556583082e-05,2.607237309783841e-05
302.9350870802871,144.2347465067941,12.5,0,5.073177249480793,0.8370101962505597,-3.832299325647479,1.556455904133809e-05,-1.380109171582843e-06,-3.065839460517983e-05,2.407623579798427e-05,2.436842862322111e-05
305.1874857708029,144.0978069868639,12.5,0,5.049096431153381,0.6500006305484272,-3.687538813324843,1.563710807525208e-05,-1.959275127167738e-06,-2.950031050659874e-05,2.329432186775211e-05,2.381074524174696e-05
303.5615807266435,146.6500394351677,12.5,0,5.518288506254588,0.9992191819592031,-3.952815201690974,1.685914787444732e-05,-1.21712942273422e-06,-3.162252161352779e-05,2.625658219475486e-05,2.566531450906906e-05
305.8002486908998,146.5245605904767,12.5,0,5.492097785760744,0.8101356056377268,-3.806471161776448,1.69266044299242e-05,-1.801244290567869e-06,-3.045176929421158e-05,2.545868936126745e-05,2.511521201031951e-05
301.8499682541981,140.0513364397645,12.5,0,4.327933165779288,0.942098300247777,-3.879885061283493,1.30957074902955e-05,-4.476319718305435e-07,-3.103908049026795e-05,2.1834930495811e-05,2.209508318985099e-05
304.1261492602198,139.8945464480311,12.5,0,4.309390750711363,0.7586165615261756,-3.726120262871111,1.318315715305542e-05,-1.019939603685328e-06,-2.980896210296889e-05,2.106284608469994e-05,2.152820753620722e-05
302.4764619005546,142.466629368138,12.5,0,4.795450697818515,1.108772642235148,-4.000857707811664,1.445842411923113e-05,-2.882881031023368e-07,-3.200686166249331e-05,2.408549904069694e-05,2.34117880244741e-05
304.7389121803167,142.321300051644,12.5,0,4.774768737738628,0.923249222137719,-3.845462146756561,1.454066058305343e-05,-8.654174793502022e-07,-3.076369717405249e-05,2.329849620030581e-05,2.284961028969166e-05
217.3184107372337,131.1797409440179,12.5,0,1.105086561299942,5.477828846212407,-0.8409456351810664,-8.459860808101111e-07,1.664498305883975e-05,-6.727565081448531e-06,2.461755582380271e-05,2.391156934434146e-05
219.7590025229431,131.5855173303408,12.5,0,1.030225702279783,5.440882944802111,-0.681850852863076,-1.055984108546384e-06,1.658664486154293e-05,-5.454806822904608e-06,2.420286782045026e-05,2.455850637596189e-05
217.5336629445256,133.5985656812848,12.5,0,1.564484276726943,5.594446700263173,-0.86420947952037,5.307923253156782e-07,1.66506420194606e-05,-6.913675836162959e-06,2.65681627562074e-05,2.620411932198768e-05
219.8882722332051,134.1227675319498,12.5,0,1.461470432910493,5.54964495674382,-0.69755026205971,2.369894199185228e-07,1.658968751525183e-05,-5.58040209647768e-06,2.602634559356161e-05,2.698172934569886e-05
216.9455829777694,126.9902136045422,12.5,0,0.2293912960374778,5.125934091186211,-0.750947056708634,-3.366695125629039e-06,1.621947605496589e-05,-6.007576453669072e-06,2.048622614276981e-05,2.015107383326989e-05
219.5351008168936,127.1908710697186,12.5,0,0.1734578041790793,5.041152665943475,-0.569432088716187,-3.477857159381726e-06,1.599292228767586e-05,-4.555456709729496e-06,1.995267151447692e-05,2.056453466442046e-05
217.1608351850613,129.4090383418092,12.5,0,0.7193591396567933,5.254859000759357,-0.7961559687843395,-1.901937953705746e-06,1.62400614907045e-05,-6.369247750274715e-06,2.252067580966644e-05,2.228966069394115e-05
219.6643705271556,129.7281212713276,12.5,0,0.6362077479647265,5.160323762739845,-0.6056054636680648,-2.092394216704751e-06,1.600406984239572e-05,-4.844843709344519e-06,2.185751754913111e-05,2.283902424349356e-05
212.460406513381,126.6426646799448,12.5,0,0.1568259083491044,5.034275866941832,-0.4245525271628721,-3.525577786836331e-06,1.598422204753458e-05,-3.396420217302977e-06,1.985256898335768e-05,1.932616641692035e-05
215.0499243525051,126.8433221451213,12.5,0,0.1106086849298773,4.97851117260229,-0.256571102501362,-3.628861146306224e-06,1.584274880438342e-05,-2.052568820010896e-06,1.94788362831496e-05,1.981925406143022e-05
212.8245847740877,128.8563704960653,12.5,0,0.5774880634810465,5.146297669176426,-0.467061698948692,-2.269076332201791e-06,1.600616209057972e-05,-3.736493591589536e-06,2.159646295411936e-05,2.126494997451703e-05
215.328120116182,129.1754534255838,12.5,0,0.5056960214851985,5.081957879146827,-0.2898647005806121,-2.447339034564825e-06,1.585770839608168e-05,-2.318917604644897e-06,2.110373172672367e-05,2.186788876475541e-05
213.0911817639257,130.4769156264074,12.5,0,0.9134050334355491,5.347315556460612,-0.482976209746435,-1.354956338174732e-06,1.638068575392552e-05,-3.863809677971479e-06,2.343800320948698e-05,2.273416754980209e-05
215.5317735496351,130.8826920127304,12.5,0,0.8257756256857594,5.269528301963183,-0.3152229137063463,-1.573140639376116e-06,1.620187006573357e-05,-2.52178330965077e-06,2.284072066963235e-05,2.342273922916641e-05
213.4553600246324,132.6906214425279,12.5,0,1.356683210814281,5.467398885165948,-0.5326947656846004,-3.253283352706042e-08,1.641032986387961e-05,-4.261558125476803e-06,2.534340640461732e-05,2.480936105542797e-05
215.8099693133119,133.2148232931928,12.5,0,1.238365070832371,5.378937466654071,-0.3546018387398046,-3.403817466596708e-07,1.622190783662713e-05,-2.836814709918437e-06,2.45981646362405e-05,2.562203499296473e-05
266.7607605977443,204.8486026940087,12.5,0,16.83199131848603,2.264518654276008,-1.934446344400146,5.205075729573447e-05,-6.219133361105595e-06,-1.547557075520117e-05,7.188822563456237e-05,7.240669475942317e-05
268.7184125936309,205.5086751392986,12.5,0,16.62170606869605,1.882626583410679,-1.753826094525016,5.168335815309883e-05,-7.27295978804267e-06,-1.403060875620013e-05,6.984461631484716e-05,7.053801760354775e-05
266.1987488309704,206.6602595392532,12.5,0,17.14895993551776,2.247376752876038,-2.018861015088173,5.307877039135598e-05,-6.527562339210882e-06,-1.615088812070538e-05,7.306053239798336e-05,7.311830563597566e-05
268.1300059125562,207.3276393465946,12.5,0,16.93374618322517,1.861349755821597,-1.835533480324693,5.269890798166327e-05,-7.59067772795103e-06,-1.468426784259754e-05,7.098518437961898e-05,7.114676284190737e-05
270.1515133180976,205.9918817059065,12.5,0,16.59406056657041,1.623182776024643,-1.653293261249383,5.180244759220558e-05,-8.081063569977467e-06,-1.322634608999507e-05,6.890647399380736e-05,6.927264099953585e-05
272.1091653139842,206.6519541511963,12.5,0,16.40627967557548,1.308618442203982,-1.48772406892642,5.145320020807833e-05,-8.937444725407636e-06,-1.190179255141136e-05,6.71781737239168e-05,6.76842449823948e-05
269.543784218694,207.8161952734932,12.5,0,16.89940980881429,1.614845753994659,-1.713999402688836,5.278623478500999e-05,-8.352021434268522e-06,-1.371199522151069e-05,7.005920761860631e-05,6.982320855750697e-05
271.4750413002798,208.4835750808346,12.5,0,16.707110260044,1.296876416548769,-1.546116535229277,5.242525169890178e-05,-9.215683675079141e-06,-1.236893228183421e-05,6.830293706336352e-05,6.817873379986414e-05
271.2041309954838,202.8320779179658,12.5,0,16.30626579137593,1.616742634862136,-1.892698734480027,5.088665642451326e-05,-7.871436201541907e-06,-1.514158987584021e-05,6.782380484925542e-05,6.812152340854085e-05
273.2075003240001,203.4794936409133,12.5,0,16.11851175934407,1.326899521620825,-1.718593766047207,5.051771801260437e-05,-8.648730938288617e-06,-1.374875012837766e-05,6.616777288766464e-05,6.66218555669674e-05
270.5964018960802,204.6563914855525,12.5,0,16.63931070112785,1.624929758346251,-1.938737473851349,5.19458504369321e-05,-8.111673334194273e-06,-1.550989979081079e-05,6.913243987895096e-05,6.881667583811254e-05
272.5733763102957,205.3111145705516,12.5,0,16.44690535388224,1.331883345693607,-1.762385085428647,5.156459045586826e-05,-8.895497576886244e-06,-1.409908068342918e-05,6.744849461764085e-05,6.72670807171895e-05
267.7341935322308,201.7107209922218,12.5,0,16.53142942116049,2.233116072465581,-2.161318488995764,5.11140812897411e-05,-6.079172105038534e-06,-1.729054791196612e-05,7.068122460821675e-05,7.10191245053676e-05
269.7375628607471,202.3581367151693,12.5,0,16.32012721879913,1.879849129076654,-1.970254863724319,5.07205277968959e-05,-7.040584561994012e-06,-1.576203890979455e-05,6.871893669387409e-05,6.929976806945098e-05
267.1721817654569,203.5223778374662,12.5,0,16.88262841702531,2.235022129504563,-2.228550124976341,5.223639323087732e-05,-6.354031919205642e-06,-1.782840099981073e-05,7.204245953466385e-05,7.184422087072759e-05
269.1491561796723,204.1771009224653,12.5,0,16.666207480571,1.877861378235703,-2.034852973233753,5.182957483523863e-05,-7.323809574102551e-06,-1.627882378587003e-05,7.004834945787008e-05,7.004311684585896e-05
179.1150411873659,129.018719091243,12.5,0,0.5639332137337244,3.151368031370223,1.585123020515086,-7.1650814114826e-07,9.633231129397733e-06,1.268098416412069e-05,1.44372576759606e-05,1.440093912870457e-05
180.2910308038778,127.884928110255,12.5,0,0.5793992496525876,3.033928914253716,1.55693959472707,-5.730655325146921e-07,9.24505312588982e-06,1.245551675781656e-05,1.403449026822079e-05,1.392416576678466e-05
180.3730395529153,130.3408685303746,12.5,0,0.663544145938837,3.319318305298554,1.503055161008623,-5.321133772345647e-07,1.00909832602043e-05,1.202444128806899e-05,1.531724310725943e-05,1.563062580076495e-05
181.4308450011754,129.3112193740571,12.5,0,0.6810945677103546,3.190023692325946,1.471500759097545,-3.725163371876217e-07,9.66320016127474e-06,1.177200607278036e-05,1.487466766575817e-05,1.517951620669082e-05
181.1519149523013,127.0549355070437,12.5,0,0.1740273474736439,3.228820375022392,1.486507476368673,-2.026168788102253e-06,1.019300332209274e-05,1.189205981094938e-05,1.346115913277348e-05,1.358016307747852e-05
182.327904568813,125.9211445260557,12.5,0,0.2221731472379506,3.127227291011177,1.473199158213954,-1.7908277616475e-06,9.829388813445406e-06,1.178559326571163e-05,1.322176627361127e-05,1.311710361423378e-05
182.205212333792,128.5574638776942,12.5,0,0.3186465261708888,3.37724487692747,1.392299020601909,-1.682127017795131e-06,1.055226638523119e-05,1.113839216481527e-05,1.439086930026061e-05,1.484993133070879e-05
183.263017782052,127.5278147213767,12.5,0,0.3726132997543998,3.265332626767291,1.377146890459225,-1.419903542199753e-06,1.015097376585181e-05,1.10171751236738e-05,1.413110003717537e-05,1.440059829815542e-05
179.3275503721127,124.4524800293101,12.5,0,-0.3271567276008376,2.991378580201672,1.563269352097008,-3.440004392484017e-06,9.83413683872602e-06,1.250615481677606e-05,1.12011432173675e-05,1.152802793124484e-05
180.7082409726833,123.1383101168032,12.5,0,-0.2713458322198938,2.877845764132386,1.550114336510531,-3.170583274409569e-06,9.426183110999549e-06,1.240091469208424e-05,1.093394216979025e-05,1.102989644596749e-05
180.3808477536035,125.9550083999606,12.5,0,-0.1873606397647467,3.132039240253096,1.473611098264288,-3.105185439449666e-06,1.01724140806217e-05,1.17888887861143e-05,1.203705005760489e-05,1.269006174428566e-05
181.6433541859222,124.7449803121242,12.5,0,-0.1259661021658129,3.008698354574801,1.458933129679766,-2.810050210590441e-06,9.728607616372011e-06,1.167146503743813e-05,1.174936021298345e-05,1.221392677504204e-05
176.9361241024349,126.7286890875096,12.5,0,0.1372289516702198,2.941722761631155,1.6472059715395,-1.914245563960221e-06,9.303729675883519e-06,1.3177647772316e-05,1.241683178054078e-05,1.23960000847709e-05
178.3168147030053,125.4145191750026,12.5,0,0.1526524583376648,2.814241065834952,1.617077185197567,-1.762904985987434e-06,8.883449444001712e-06,1.293661748158054e-05,1.197517822149136e-05,1.189407429802804e-05
178.1941224679843,128.0508385266411,12.5,0,0.2270354084034181,3.094180126721828,1.572878237111113,-1.748830794486524e-06,9.719748078787114e-06,1.258302589688891e-05,1.318504768473627e-05,1.353422378031399e-05
179.4566289003031,126.8408104388047,12.5,0,0.244177775217963,2.955734582342521,1.539758248410525,-1.583218785176535e-06,9.263008443321694e-06,1.23180659872842e-05,1.270461117347358e-05,1.30438342606065e-05
171.1460805711376,77.41554190990368,12.5,0,-8.388948850562809,1.297831686066693,1.454236480694534,-2.788290167065433e-05,1.086422047586366e-05,1.163389184555627e-05,3.148034877774033e-06,3.124115338515111e-06
173.3882242509592,77.56337841054471,12.5,0,-8.454452863820674,1.134341431148714,1.607544403470285,-2.796172230914513e-05,1.039345487073242e-05,1.286035522776228e-05,3.078220347014303e-06,3.15499412593159e-06
171.9198870716488,79.37387504118541,12.5,0,-8.023189678617989,1.440630986430627,1.350077422209695,-2.682671176072206e-05,1.102857089947239e-05,1.080061937767756e-05,3.165901521429107e-06,3.118219769456576e-06
174.1539028171027,79.53235251493972,12.5,0,-8.091206447346019,1.275380990713433,1.504861208926565,-2.6912165424078e-05,1.05541843281598e-05,1.203888967141252e-05,3.087993772195705e-06,3.152761470720144e-06
169.8058083970494,74.02360942843922,12.5,0,-8.963101401815997,1.176623918740135,1.471547146445081,-2.96232236208033e-05,1.093567766142123e-05,1.177237717156065e-05,3.171514620329756e-06,3.148684235890026e-06
172.0620300721559,74.15301522300643,12.5,0,-9.029668438697797,0.9964161195444095,1.625348006309153,-2.969207189946847e-05,1.041226633350035e-05,1.300278405047322e-05,3.093378748022351e-06,3.173282448385932e-06
170.5796148975605,75.98194255972093,12.5,0,-8.59669060788864,1.324967032616431,1.362056996758352,-2.856938357133679e-05,1.111724699068349e-05,1.089645597406681e-05,3.184492326150996e-06,3.132278267693545e-06
172.8277086382995,76.12198932740144,12.5,0,-8.665755789121171,1.142890892448139,1.517353114416023,-2.864473123914625e-05,1.058985548713098e-05,1.213882491532818e-05,3.098319897644076e-06,3.160492705324863e-06
165.897917822697,73.79947201745897,12.5,0,-8.984399447891443,1.083942989995333,1.553759545241938,-2.961723262524888e-05,1.065613712629822e-05,1.243007636193551e-05,3.128465804976186e-06,3.105133000958322e-06
168.1541394978035,73.9288778120262,12.5,0,-9.046748311433399,0.9230270323070524,1.711359848321111,-2.968801622243251e-05,1.019108515252929e-05,1.369087878656889e-05,3.069572402507158e-06,3.13042364648774e-06
166.6858023184931,75.73937444266689,12.5,0,-8.612912678328261,1.228151779712578,1.44870513767712,-2.854384199442049e-05,1.082041583774286e-05,1.158964110141696e-05,3.134478248835222e-06,3.082855438741152e-06
168.933896059232,75.87942121034737,12.5,0,-8.677790970186027,1.065481712923239,1.607811340582582,-2.862131647493387e-05,1.035177425750319e-05,1.286249072466065e-05,3.068976188193673e-06,3.111475424810527e-06
167.2625737998871,77.15948157958479,12.5,0,-8.407090853496014,1.190367535420598,1.551185708138923,-2.785498475952372e-05,1.053484879614272e-05,1.240948566511138e-05,3.095031183552665e-06,3.070589895314004e-06
169.5047174797086,77.30731808022584,12.5,0,-8.472556087768748,1.027854352655313,1.705714726716276,-2.793446296298424e-05,1.0067178798712e-05,1.36457178137302e-05,3.032081876346354e-06,3.101499293084062e-06
168.0504582956831,79.09938400479273,12.5,0,-8.041535039042884,1.333712649646037,1.44645006262859,-2.679988224465405e-05,1.070110851010162e-05,1.157160050102872e-05,3.108267934992858e-06,3.059357369704338e-06
170.2844740411371,79.25786147854703,12.5,0,-8.109537364038625,1.169424028484356,1.602480453363362,-2.688605878771108e-05,1.022978678238084e-05,1.28198436269069e-05,3.037813434540813e-06,3.093192216020415e-06
241.8366698035387,81.83550586822561,12.5,0,-7.394480342057703,2.255868125958153,-1.530714822369218,-2.546703159535116e-05,1.313436227671225e-05,-1.224571857895375e-05,3.926707857413385e-06,3.868045005929786e-06
244.0781479269744,81.96729864334087,12.5,0,-7.498561489136968,1.933835341316636,-1.363385253217247,-2.55424650382916e-05,1.218712228352281e-05,-1.090708202573798e-05,3.539507163478621e-06,3.877331304273055e-06
242.7324006756845,84.03545104263965,12.5,0,-6.940473749321152,2.488379146681985,-1.712105729417801,-2.420021931517327e-05,1.351519226883927e-05,-1.369684583534241e-05,4.236143649631469e-06,3.966823496983404e-06
244.9654336425363,84.17023791634601,12.5,0,-7.045756047214177,2.164540833986059,-1.543739249429313,-2.427805201827421e-05,1.256313550652673e-05,-1.23499139954345e-05,3.792184523878487e-06,3.977651134827974e-06
240.2852184231019,78.02508905234299,12.5,0,-8.093291279298457,2.099757550426071,-1.392756505029806,-2.757833813409592e-05,1.319385718480219e-05,-1.114205204023845e-05,3.807170017432305e-06,3.742153023003167e-06
242.5413239868186,78.15169589657567,12.5,0,-8.194694177827703,1.784454231895469,-1.225320626071296,-2.765058475456502e-05,1.226600888432766e-05,-9.802565008570365e-06,3.469437248673141e-06,3.748075214734538e-06
241.1809492952478,80.22503422675703,12.5,0,-7.64143044052755,2.328534669419623,-1.570808744344389,-2.631540514522386e-05,1.356445529456483e-05,-1.256646995475511e-05,4.050632488537591e-06,3.807844733865537e-06
243.4286097023806,80.35463516958082,12.5,0,-7.74401009962189,2.011475192920066,-1.402348783384618,-2.63900124731261e-05,1.263192869704172e-05,-1.121879026707694e-05,3.667960414916523e-06,3.815816621884302e-06
236.377528959576,77.80579956554996,12.5,0,-8.204259425404057,2.118660168507922,-1.211679706790173,-2.794855829609932e-05,1.33431200795486e-05,-9.693437654321384e-06,3.790146880554607e-06,3.729831768362153e-06
238.6336345232927,77.93240640978264,12.5,0,-8.306153522334908,1.802050766503508,-1.043043460011492,-2.802133188467451e-05,1.241148527067915e-05,-8.344347680091938e-06,3.460571473747328e-06,3.737264706280678e-06
237.2878872720028,80.00055880908143,12.5,0,-7.749687498639942,2.35048862094645,-1.391456140024895,-2.667939089240497e-05,1.372131358594059e-05,-1.113164912019916e-05,4.023035490566962e-06,3.791543123977919e-06
239.5355476791356,80.13015975190521,12.5,0,-7.852768226266994,2.032107418561939,-1.221784844943356,-2.675454425890393e-05,1.27849583204118e-05,-9.77427875954685e-06,3.649442340183051e-06,3.801340669704246e-06
237.9543158097636,81.60723408565958,12.5,0,-7.501924489569931,2.286700411019997,-1.346205859840551,-2.583551869543978e-05,1.331898090691994e-05,-1.076964687872441e-05,3.906672601452591e-06,3.848954227345847e-06
240.1957939331993,81.73902686077484,12.5,0,-7.606322798012394,1.962832194061932,-1.17979895628798,-2.591049870888921e-05,1.23661212594081e-05,-9.438391650303836e-06,3.528327581559749e-06,3.860441391083821e-06
238.8646741221905,83.80199332919105,12.5,0,-7.050728272138902,2.521171935595891,-1.528675267850632,-2.45792680193212e-05,1.370833281161797e-05,-1.222940214280505e-05,4.202672730270641e-06,3.944092923056518e-06
241.0977070890422,83.93678020289741,12.5,0,-7.156327947028102,2.19548171981903,-1.361230852974773,-2.465663480634515e-05,1.275060386104337e-05,-1.088984682379819e-05,3.769091724629779e-06,3.957831601240089e-06
273.626057640734,207.2311429413828,12.5,0,16.33650737497086,1.079360191929256,-1.364940879644604,5.141333544636333e-05,-9.615253285803066e-06,-1.091952703715683e-05,6.618043495030623e-05,6.654551215002289e-05
275.8126325513151,208.1534436981239,12.5,0,16.10221022216428,0.7909699245353434,-1.172350176919113,5.089429677129743e-05,-1.035066441921833e-05,-9.378801415352907e-06,6.436523534749649e-05,6.502283221274479e-05
272.9877036293742,209.1171761981742,12.5,0,16.68473286092042,1.096862949171593,-1.400587767095228,5.251365479560805e-05,-9.837824851387234e-06,-1.120470213676183e-05,6.757489018867307e-05,6.698960434257192e-05
275.1891168857456,210.1808268352104,12.5,0,16.43577345004712,0.814114656201661,-1.210384327958425,5.194318331518946e-05,-1.054345186019238e-05,-9.683074623667402e-06,6.572103615465288e-05,6.538531700597747e-05
277.4133164803478,208.8286147118889,12.5,0,16.01732261221849,0.6227185429361421,-1.043902867828782,5.075725752475024e-05,-1.082115875237913e-05,-8.35122294263026e-06,6.350717764311045e-05,6.399498760483153e-05
279.5998913909289,209.75091546863,12.5,0,15.83035368155278,0.4099066838672338,-0.8890314667671644,5.032920643387509e-05,-1.135258155686707e-05,-7.112251734137315e-06,6.212177884630385e-05,6.270954385088552e-05
276.8006632377965,210.9594731429908,12.5,0,16.34508737316231,0.6565858698554075,-1.074063663551966,5.177901089823507e-05,-1.097499511499254e-05,-8.592509308415729e-06,6.487260284351983e-05,6.430550506562459e-05
279.0020764941679,212.023123780027,12.5,0,16.14486634687135,0.446461873282292,-0.9208594180581606,5.130640281136249e-05,-1.148721508299375e-05,-7.366875344465285e-06,6.344420814757628e-05,6.295969131843004e-05
278.4744630238493,205.1378596455503,12.5,0,15.77450095532469,0.6671852472009379,-1.340193155059639,4.994465485927825e-05,-1.048460797321675e-05,-1.072154524047711e-05,6.274741585591698e-05,6.31811986221098e-05
280.6353371656219,205.8153352279809,12.5,0,15.62196377549734,0.4792745755019809,-1.18673312122738,4.96068644211899e-05,-1.096389237879153e-05,-9.493864969819035e-06,6.156558382276639e-05,6.19672207767538e-05
277.861809781298,207.2687180766522,12.5,0,16.12914874852124,0.7119181045847895,-1.361808299533279,5.104374151160013e-05,-1.062518106414567e-05,-1.089446639626623e-05,6.424849494273714e-05,6.369373060125601e-05
280.0375222688609,208.0875435393779,12.5,0,15.96064931495594,0.5256640548837792,-1.21051214472753,5.065354656395198e-05,-1.108639447633666e-05,-9.684097157820239e-06,6.301041624629716e-05,6.244361217073997e-05
274.7317192216045,203.9644375159143,12.5,0,16.06357027979562,1.100417754863155,-1.617198392077758,5.052309069145545e-05,-9.329519408274398e-06,-1.293758713662206e-05,6.523570571780044e-05,6.555574389833186e-05
276.8925933633772,204.6419130983449,12.5,0,15.88127827341674,0.8412961722684469,-1.440491881644072,5.014705353711881e-05,-1.001287486747436e-05,-1.152393505315257e-05,6.370765724948534e-05,6.414274049452713e-05
274.0933652102448,205.8504707727056,12.5,0,16.4084187611245,1.121128480941901,-1.648622100160592,5.161003725084488e-05,-9.539123869885518e-06,-1.318897680128474e-05,6.662660447343492e-05,6.616131040194179e-05
276.2690776978077,206.6692962354314,12.5,0,16.20980799260753,0.8669880231928797,-1.474274102595716,5.117779515778978e-05,-1.019348471986881e-05,-1.179419282076573e-05,6.505172723675536e-05,6.468988483997815e-05
245.8114535975234,217.3009963506269,12.5,0.64374219247588,16.22755084209985,6.724387092746396,-3.007181241889003,0.0001306600221452575,2.396017109752933e-05,-6.752820408990824e-05,0.0002371816797262821,0.0002650935412002191
247.1105870301225,216.054475717703,12.5,0.5795387137985579,18.55857267692215,7.809812988524667,-3.774925531069128,0.0001263840070875683,2.412717592477939e-05,-7.182445861159393e-05,0.0002309903431555207,0.0002275535851446694
247.1126736864188,218.8556520858432,12.5,0.6288443503971366,16.20577870319386,6.810058223111355,-2.905055104357635,0.0001250430791539626,2.378399294432603e-05,-6.261642752771878e-05,0.0002281616347244168,0.0002553159654665482
248.1495001753673,217.6433448006504,12.5,0.5687718536388648,18.04628682491163,7.74037373636698,-3.617131279172347,0.0001195557833728409,2.395986111674697e-05,-6.710380683070077e-05,0.000220125630892062,0.0002222778327902613
248.061618708556,215.1419592817585,12.5,0.5257196958855461,16.40606420600626,6.415198785314871,-2.733664114079895,9.987183954309311e-05,1.561056759889377e-05,-4.611052308712703e-05,0.0001772411040461907,0.0002034248809782346
249.3607521411552,213.8954386488346,12.5,0.4433766246005928,18.8500396428799,7.298443491070644,-3.402512802305103,9.78783401348638e-05,1.486640307045027e-05,-4.890219063996177e-05,0.0001731830322226884,0.0001750439913274827
248.9085098438786,216.755874273541,12.5,0.5199637488683634,16.18682571555069,6.465817149049021,-2.739421237789025,9.712847406963298e-05,1.612618689998376e-05,-4.565357272632838e-05,0.0001737551564868465,0.0002011444984824232
249.9453363328272,215.5435669883482,12.5,0.4480652120352627,18.07901968190754,7.159218765644965,-3.374678167131331,9.444138892168979e-05,1.530304754966357e-05,-4.891415784209546e-05,0.0001685322586450003,0.0001764452880939035
246.594760233724,212.3465765169443,12.5,0.5270037888415615,16.07188805320013,6.891915248036535,-2.629738311315206,9.707585069097021e-05,1.944332350703806e-05,-4.447795985299051e-05,0.0001784363365425639,0.0002039406997133609
248.3482226198961,211.0407966274541,12.5,0.4283314645500297,19.12525051675491,7.811536316427403,-3.401618723635601,9.612488565112373e-05,1.696212962207428e-05,-4.760267200584168e-05,0.0001734723191118691,0.0001706941981229241
247.4416513690466,213.9604915087268,12.5,0.5275827362729002,15.90758298389207,7.032860788144245,-2.729755316756728,9.584318862677053e-05,2.070010748082439e-05,-4.62261737891716e-05,0.0001784088907585298,0.0002041741208399159
248.932806811568,212.6889249669677,12.5,0.4381330144386163,18.56855318290123,7.798993377396865,-3.507927323736513,9.464904835124275e-05,1.797923088728151e-05,-4.994672993974335e-05,0.0001727418663154413,0.0001735029914142081
243.5576742917678,214.6082536290024,12.5,0.6557065850173753,16.04937015894695,7.458032013053884,-2.810911106434641,0.0001318397533118021,3.202560907292207e-05,-6.531431585065891e-05,0.0002506152769459641,0.0002735076125254298
245.3111366779398,213.3024737395122,12.5,0.5872506056878635,18.73453593924414,8.418225015806277,-3.689393859269058,0.0001289303769460951,2.895386756194055e-05,-7.15086473314895e-05,0.0002418691504960521,0.0002314894710727412
244.8588943806631,216.1629093642186,12.5,0.6507646430157226,15.92844454394464,7.736667148827264,-2.843258489108147,0.0001282278209407563,3.440252826872976e-05,-6.513105691612205e-05,0.00024852702283238,0.0002699679783384867
246.3500498231845,214.8913428224596,12.5,0.584405901306001,18.35116508174321,8.63155557124918,-3.744014055724471,0.0001246853214889674,3.113625964196024e-05,-7.2070591329184e-05,0.000238544375666338,0.0002300218361833507
197.304763157208,124.2643372768495,12.5,0,-0.2790670313725312,4.200156865127992,0.6322577649425998,-4.253139992494493e-06,1.36637555935076e-05,5.058062119540799e-06,1.538889881297478e-05,1.50100240471144e-05
199.4198324212992,124.6290068388311,12.5,0,-0.3521083569137662,4.154931627459886,0.7773417022836654,-4.450692044091961e-06,1.357746789340265e-05,6.218733618269323e-06,1.504529512925248e-05,1.565546299140396e-05
197.7894099631114,126.3058116703744,12.5,0,0.09857409302583764,4.300868552363635,0.5881704572005617,-3.125257744208227e-06,1.368392009314296e-05,4.705363657604494e-06,1.689203279195242e-05,1.662608879520215e-05
199.876727699218,126.6759680251349,12.5,0,0.02247769492369556,4.254456430168456,0.7355848705928466,-3.331636520378939e-06,1.35962784206001e-05,5.884678964742773e-06,1.652028972150799e-05,1.73046606380775e-05
198.1441960487435,127.8002746487219,12.5,0,0.3770865384790568,4.455572475479498,0.5930250326791081,-2.357781057250616e-06,1.395616269075114e-05,4.744200261432865e-06,1.834443024925598e-05,1.785526488064453e-05
200.2111982563787,128.1744476145672,12.5,0,0.302355348494545,4.411877177013952,0.7358297384071246,-2.561964626428617e-06,1.387612268764901e-05,5.886637907256997e-06,1.797806598963334e-05,1.855746122100559e-05
198.6288428546468,129.8417490422468,12.5,0,0.7575844593445891,4.556681037934671,0.5492105294426181,-1.221074560445052e-06,1.397531175391527e-05,4.393684235540945e-06,1.992712158109639e-05,1.959737164957675e-05
200.6680935342974,130.2214088008711,12.5,0,0.6796791822766994,4.511788904606129,0.6943702819607773,-1.434457740399465e-06,1.389398114891825e-05,5.554962255686219e-06,1.953592961839009e-05,2.033097841878899e-05
201.7243488916603,128.448361236373,12.5,0,0.4944096578361046,4.69124481632551,0.3695053929064622,-2.170884947984873e-06,1.461645568597274e-05,2.956043143251697e-06,1.957864447774174e-05,1.907052375216161e-05
203.7913510992954,128.8225342022183,12.5,0,0.4202370313373079,4.65042585001502,0.5124666341979885,-2.37558217973263e-06,1.454517309497821e-05,4.099733073583908e-06,1.921007236729984e-05,1.97700403144383e-05
202.1609286411075,130.4993390337616,12.5,0,0.8772419262047081,4.79175276974719,0.3300287119525663,-1.026228051942686e-06,1.463181532222724e-05,2.640229695620531e-06,2.118016160676387e-05,2.086647836221678e-05
204.2001793207581,130.8789987923859,12.5,0,0.799920433765358,4.749793596592673,0.4753020197627398,-1.240089489224992e-06,1.455940316208426e-05,3.802416158101918e-06,2.07887524185337e-05,2.159588464596173e-05
200.9681705840755,124.895963486164,12.5,0,-0.1675872179094007,4.430231965367014,0.4127503234177185,-4.080464669603693e-06,1.431081206350196e-05,3.302002587341748e-06,1.655380340219459e-05,1.612776174807862e-05
203.0832398481668,125.2606330481455,12.5,0,-0.2401156000658378,4.385460255906379,0.5568848505812336,-4.276738124935784e-06,1.422556529895308e-05,4.455078804649869e-06,1.619420461314116e-05,1.677266700343068e-05
201.4047503335228,126.9469412835526,12.5,0,0.2091075303318359,4.530012612733731,0.3722641452505698,-2.954865993125109e-06,1.432875433648247e-05,2.978113162004558e-06,1.807161776567898e-05,1.780078846228286e-05
203.4920680696294,127.3170976383132,12.5,0,0.1335641473326068,4.484076183607773,0.5186754822203129,-3.159855675421877e-06,1.424219246967879e-05,4.149403857762503e-06,1.768655135872538e-05,1.847766304224278e-05
227.975167687345,148.6728116851424,12.5,0,4.71631133883162,6.850374947577932,-1.884982465746396,9.611896326198837e-06,1.814815076118408e-05,-1.507985972597117e-05,4.232566198408823e-05,4.299762164346149e-05
229.2045796447931,147.6708485963443,12.5,0,4.78827986669824,6.53338957297963,-1.919967843435658,1.009578391505066e-05,1.707622274017622e-05,-1.535974274748526e-05,4.142532328662961e-05,4.187249247671134e-05
228.8808131160957,150.6568271919639,12.5,0,5.145181731862001,7.232336485434027,-2.186608592120352,1.067871235361118e-05,1.902733136789929e-05,-1.749286873696282e-05,4.532873796481905e-05,4.535057545369386e-05
230.308927029662,149.9316364962457,12.5,0,5.15718096689124,6.87551890123066,-2.179974247591883,1.100256397306744e-05,1.787591571042512e-05,-1.743979398073506e-05,4.40616851465693e-05,4.451684544266612e-05
225.8457637136505,150.4082626622184,12.5,0,5.013113918316821,7.21629895203987,-1.72558007674223,1.026892537698193e-05,1.908166551187413e-05,-1.380464061393784e-05,4.467339758467457e-05,4.495863007214653e-05
227.0751756710986,149.4062995734202,12.5,0,5.113068458866374,6.948111338849229,-1.739190278211242,1.080332999729301e-05,1.814350151722443e-05,-1.391352222568994e-05,4.404318556150547e-05,4.382454971986393e-05
226.4072472588471,151.9128943221015,12.5,0,5.363273275755993,7.458468736692843,-1.93455803731014,1.11956994930649e-05,1.95764813368123e-05,-1.547646429848112e-05,4.685348569063408e-05,4.679490449101714e-05
227.8353611724135,151.1877036263833,12.5,0,5.397576538896931,7.160522460423913,-1.911122649004508,1.154382695613105e-05,1.859561064223897e-05,-1.528898119203606e-05,4.587478231063629e-05,4.596097953599093e-05
226.8182817415275,153.0143611437659,12.5,0,5.748040754256562,7.491352653209373,-1.994659943392575,1.24006482910535e-05,1.937389588686474e-05,-1.59572795471406e-05,4.835101099024227e-05,4.816979365967469e-05
228.3918555825296,152.4917819019059,12.5,0,5.76398633929107,7.106886603238439,-1.911286392507714,1.275924700314067e-05,1.813084805893015e-05,-1.529029114006171e-05,4.697895670958559e-05,4.756206435965044e-05
227.3797652867242,154.518992803649,12.5,0,6.182951227938462,7.758248369378101,-2.219158374960228,1.35788452339006e-05,1.988003379965915e-05,-1.775326699968182e-05,5.093281929427563e-05,5.008978630451235e-05
229.1520410838446,154.2731859548691,12.5,0,6.128064737637752,7.347240779792703,-2.103154610919109,1.373201453660664e-05,1.860871870522644e-05,-1.682523688735288e-05,4.92049631053368e-05,4.979987962917467e-05
229.5437915835555,152.1092273458999,12.5,0,5.648692832102435,7.266804315037178,-2.249830361227283,1.226237361069805e-05,1.873481954243702e-05,-1.799864288981827e-05,4.725206674551038e-05,4.71081929919229e-05
231.1173654245576,151.58664810404,12.5,0,5.649522317062988,6.862035778040677,-2.180745194010214,1.258884279216902e-05,1.743889663607977e-05,-1.744596155208171e-05,4.575694305692365e-05,4.647592265516199e-05
230.4494370123062,154.0932428527214,12.5,0,6.174318390057369,7.655961483571393,-2.553903494184389,1.363304966132647e-05,1.955962203538256e-05,-2.043122795347511e-05,5.063231880306121e-05,4.955713959661054e-05
232.2217128094266,153.8474360039414,12.5,0,6.108853544028827,7.215714701343974,-2.448801716708701,1.377575957981706e-05,1.820320420907766e-05,-1.959041373366961e-05,4.87633952417942e-05,4.91838681699239e-05
199.9973091327997,121.3162809304994,12.5,0,-0.8220238809804858,4.185318610926862,0.4772244308794821,-5.978731307879043e-06,1.405063865975035e-05,3.817795447035857e-06,1.376334953488743e-05,1.337072990916548e-05
202.1228495911972,121.6679533804851,12.5,0,-0.9098583485915275,4.076618426250776,0.629617453815755,-6.172841456493508e-06,1.37730656428757e-05,5.03693963052604e-06,1.315249154280448e-05,1.394561350188055e-05
200.5910478509592,123.3872325917564,12.5,0,-0.4324575854138946,4.307069956057242,0.4020531904696211,-4.829520238170255e-06,1.412858992771429e-05,3.216425523756969e-06,1.530499315173085e-05,1.494073113638517e-05
202.7163588626205,123.7469494063807,12.5,0,-0.5219932912566996,4.197736614701674,0.5549436359260395,-5.028567823782778e-06,1.385035180005072e-05,4.439549087408316e-06,1.466102286337683e-05,1.555830798907058e-05
198.9689235065452,117.7292874332475,12.5,0,-1.472527203234498,3.928091359088785,0.5328645891378061,-7.854560137621422e-06,1.374791411167171e-05,4.262916713102449e-06,1.115735715474871e-05,1.091045426340155e-05
201.0948613783473,118.0670266349649,12.5,0,-1.557836307122827,3.818160710658092,0.684093063305816,-8.03960475131952e-06,1.346438331980415e-05,5.472744506446528e-06,1.060378772778296e-05,1.140573476628037e-05
199.5626622247046,119.8002390945045,12.5,0,-1.085652443838565,4.04968773502786,0.4572749778641947,-6.713838008305694e-06,1.382752270716e-05,3.658199822913558e-06,1.254755923728299e-05,1.22908204758093e-05
201.6883706497706,120.1460226608605,12.5,0,-1.172644994671509,3.939124394927044,0.6090000552489577,-6.903763498890465e-06,1.354331405950375e-05,4.872000441991662e-06,1.194916787495609e-05,1.283293486035744e-05
195.2866910989152,117.1443059761757,12.5,0,-1.570942493781908,3.720308598679813,0.7343910695120159,-8.003262859045956e-06,1.316174151080093e-05,5.875128556096128e-06,1.023746438144399e-05,1.005991268511871e-05
197.4126289707173,117.4820451778931,12.5,0,-1.652907011325375,3.623599158940058,0.8847336061942995,-8.188181763393247e-06,1.291784291766848e-05,7.077868849554396e-06,9.774762911856559e-06,1.054984232360954e-05
195.8808272304794,119.2013243891644,12.5,0,-1.18779150022279,3.837511743926362,0.6638517719760345,-6.870942195854018e-06,1.323027078074259e-05,5.310814175808276e-06,1.154917992972631e-05,1.135631675887345e-05
198.0065356555453,119.5471079555204,12.5,0,-1.27143195008905,3.740199743023398,0.8146725968312266,-7.060742034703678e-06,1.298578473774611e-05,6.517380774649813e-06,1.103920102997661e-05,1.18951618479998e-05
196.3157650653783,120.7071663795128,12.5,0,-0.927112004948565,3.965416011098272,0.6864754246268179,-6.139091224714025e-06,1.343102083947332e-05,5.491803397014543e-06,1.270433795863316e-05,1.237767253695486e-05
198.4413055237757,121.0588388294986,12.5,0,-1.01166027936381,3.870375173264792,0.8383298510212064,-6.333613032576025e-06,1.319452877793838e-05,6.706638808169651e-06,1.218131402054325e-05,1.295060139384704e-05
196.9099011969425,122.7641847925016,12.5,0,-0.5402590044229805,4.082898456889366,0.6164113998036235,-4.99514757966503e-06,1.349748226558436e-05,4.931291198428988e-06,1.418674523542031e-05,1.387166434164121e-05
199.0352122086037,123.1239016071258,12.5,0,-0.6265053439422648,3.98725469470809,0.7687451023558761,-5.194620856381718e-06,1.32604192982197e-05,6.149960818847009e-06,1.362781392202766e-05,1.448879633315146e-05
219.0831522927695,81.26228362274664,12.5,0,-7.848381484788481,2.308641287268172,-0.3793984102522693,-2.696173378113767e-05,1.366635730708893e-05,-3.035187282018155e-06,3.774440969734287e-06,3.749382571431304e-06
221.1157330826281,81.10681089891084,12.5,0,-7.893239535183547,2.037086878397509,-0.266927351731356,-2.688803601530535e-05,1.283326963901887e-05,-2.135418813850847e-06,3.493099566149061e-06,3.762958358287605e-06
220.324315497111,83.81070306929053,12.5,0,-7.418535062037243,2.569640060416623,-0.5765267291463997,-2.579502424685247e-05,1.415767624296299e-05,-4.612213833171197e-06,4.030294497163174e-06,3.841103648315577e-06
222.248884998111,83.52130591963618,12.5,0,-7.439404858104199,2.307296233260546,-0.4730425104126912,-2.565193253254187e-05,1.33348718329171e-05,-3.784340083301529e-06,3.719149701760876e-06,3.847986586878187e-06
216.9333945624035,76.84829166241542,12.5,0,-8.605508235013573,2.107396123988111,-0.2690707148741219,-2.922354325123392e-05,1.362807418477281e-05,-2.152565718992975e-06,3.695401662590491e-06,3.645307012490508e-06
219.1530563923527,76.92478284846763,12.5,0,-8.691793450770074,1.811549327007123,-0.122245883613766,-2.926297850406993e-05,1.275039260703885e-05,-9.779670689101278e-07,3.429864574446531e-06,3.662773948277087e-06
218.1745577667451,79.39671110895928,12.5,0,-8.142466963581166,2.371460477898921,-0.4682185459635489,-2.795306266577887e-05,1.410264710014148e-05,-3.745748367708392e-06,3.898108187616869e-06,3.696919020982878e-06
220.2862083078358,79.33927786919297,12.5,0,-8.204658166002051,2.084146011979379,-0.3294394825499103,-2.792222294079006e-05,1.323299377113565e-05,-2.635515860399283e-06,3.601470096485927e-06,3.713330781347948e-06
213.0888274973793,76.71580504184416,12.5,0,-8.647955109090098,2.041049329767176,-0.09760011374300334,-2.930629581290205e-05,1.344972194252704e-05,-7.808009099440267e-07,3.633029891266021e-06,3.618276421813266e-06
215.3084893273285,76.79229622789637,12.5,0,-8.730586849630214,1.759607438407597,0.04843227269810889,-2.934556386954276e-05,1.261521328260848e-05,3.874581815848711e-07,3.390175504972371e-06,3.633383936209715e-06
214.5170717418115,79.49618839827605,12.5,0,-8.14315818117319,2.329977600485994,-0.3131959061740094,-2.7922088260143e-05,1.397045486649373e-05,-2.505567249392075e-06,3.840192578935546e-06,3.668993952939458e-06
216.6287222829021,79.43875515850972,12.5,0,-8.201624374949475,2.057859924691972,-0.1753527260545454,-2.789148593959189e-05,1.314645125897389e-05,-1.402821808436363e-06,3.566152049154115e-06,3.685039003616236e-06
215.5626190943092,81.53157027961655,12.5,0,-7.817656960883903,2.28742454315143,-0.199175912998499,-2.684644190934963e-05,1.35738841067917e-05,-1.593407303987992e-06,3.734103422813248e-06,3.725475551332134e-06
217.5951998841678,81.37609755578073,12.5,0,-7.862249783204502,2.019595179546955,-0.09007587945252275,-2.677487544989197e-05,1.275250440111386e-05,-7.20607035620182e-07,3.462482332122896e-06,3.739339083577846e-06
216.9908633387414,84.31195363604844,12.5,0,-7.357763474152325,2.577130299029433,-0.4148520911495242,-2.560654735651099e-05,1.413302773621604e-05,-3.318816729196193e-06,4.010722992357666e-06,3.829068616713997e-06
218.9154328397415,84.02255648639409,12.5,0,-7.378969857981521,2.319258877731781,-0.3149634363152211,-2.546811064772629e-05,1.332480429512692e-05,-2.519707490521769e-06,3.707249224997912e-06,3.836034593487804e-06
207.4781332539055,122.3971407811895,12.5,0,-0.62422022847203,4.579754746265958,0.0008662494140510187,-5.661308528123262e-06,1.515459137082869e-05,6.929995312408149e-09,1.577019206745716e-05,1.526019237501122e-05
209.6597898751135,122.6833393220089,12.5,0,-0.7158173192087636,4.414198574347544,0.1614439063935032,-5.821974280946078e-06,1.469808929327915e-05,1.291551251148026e-06,1.488524238795208e-05,1.577177749666662e-05
208.1153612190912,124.5423658381551,12.5,0,-0.208555957943044,4.725654309413547,-0.1007231441435541,-4.447902512948578e-06,1.528893855647778e-05,-8.05785153148433e-07,1.753676669089215e-05,1.700667801764325e-05
210.3178953836701,124.8587275298239,12.5,0,-0.3050683426773337,4.559117025725667,0.06028495338168748,-4.623512317148001e-06,1.4833229156464e-05,4.822796270534998e-07,1.661122249099295e-05,1.757505906415516e-05
206.3744220422196,118.681501988922,12.5,0,-1.313813505834696,4.293607718709461,0.08329310737518245,-7.639089393638595e-06,1.479059550453803e-05,6.663448590014595e-07,1.283908451027579e-05,1.248817249170172e-05
208.5199176975729,118.9154564199549,12.5,0,-1.392021092794891,4.141704731046701,0.2366455428133259,-7.767831281781009e-06,1.436707201358535e-05,1.893164342506607e-06,1.208793567336899e-05,1.290050163360702e-05
207.0116500074055,120.8267270458876,12.5,0,-0.906744754700753,4.434984863932948,-0.01421311842568843,-6.449571106188767e-06,1.491734736834604e-05,-1.137049474055074e-07,1.443521139865848e-05,1.40494624683773e-05
209.1780232061296,121.0908446277699,12.5,0,-0.9898777050431082,4.282073901652371,0.1395608312225471,-6.593267777459843e-06,1.449453864932207e-05,1.116486649780377e-06,1.363485210554716e-05,1.451923360821732e-05
202.6583145597963,118.2762810277244,12.5,0,-1.388842669155888,4.120060819148997,0.3132270674424263,-7.740345196618039e-06,1.42952687566015e-05,2.505816539539411e-06,1.202479088292146e-05,1.174556216861555e-05
204.8038102151496,118.5102354587573,12.5,0,-1.460665287599757,3.991829256927601,0.4639031582132818,-7.867592325861304e-06,1.394238585224813e-05,3.711225265706254e-06,1.140379492162531e-05,1.217870739476006e-05
203.2593815591273,120.3692619749035,12.5,0,-0.9981127755448451,4.248879350816768,0.2286745671673278,-6.593064362396919e-06,1.439490414304953e-05,1.829396537338622e-06,1.349417599944641e-05,1.321017541217551e-05
205.4257547578515,120.6333795567858,12.5,0,-1.074792236002103,4.11964922570318,0.3796227055244373,-6.735054535769275e-06,1.404271131105186e-05,3.036981644195498e-06,1.282454329173355e-05,1.369870138191347e-05
203.6993931413719,121.901430367447,12.5,0,-0.7225542887871892,4.393546975461442,0.2440220811093135,-5.827011304488158e-06,1.463739375250636e-05,1.952176648874508e-06,1.479443563196003e-05,1.434980005692918e-05
205.88104976258,122.1876289082665,12.5,0,-0.8055821345739449,4.259498887644279,0.4009481142694569,-5.985461940752046e-06,1.427486214812085e-05,3.207584914155656e-06,1.407579821294976e-05,1.487917466839015e-05
204.300460140703,123.994411314626,12.5,0,-0.3249200243110089,4.524410297262519,0.1582912827598692,-4.659272315605243e-06,1.473804897068887e-05,1.266330262078954e-06,1.64238251510258e-05,1.599869924452626e-05
206.5029943052818,124.3107730062949,12.5,0,-0.4127849658792706,4.389379403563014,0.3154667415148217,-4.832415413664077e-06,1.437624206410506e-05,2.523733932118574e-06,1.566467031936165e-05,1.658429367700596e-05
266.0513957291549,149.9716681101865,12.5,0,6.352000474542205,3.635323551805531,-4.176051944598114,1.741814267709063e-05,6.551434986143932e-06,-3.340841555678491e-05,3.791298069192519e-05,3.740511528009599e-05
268.3366557165963,150.4577322822098,12.5,0,6.113628849294281,3.19041724699149,-3.904158154246774,1.70112785201485e-05,5.318432110937342e-06,-3.123326523397419e-05,3.537676735750764e-05,3.714641023716948e-05
266.4115730216731,152.0837467413611,12.5,0,6.962231882898595,3.849084204594782,-4.357589486542559,1.919987466159968e-05,6.747283948384426e-06,-3.486071589234047e-05,4.094912820886554e-05,3.908021955014867e-05
268.6852042191355,152.5720388870704,12.5,0,6.721142498986593,3.401249054288187,-4.083787860757098,1.878665675332655e-05,5.507082974532925e-06,-3.267030288605678e-05,3.839460055766986e-05,3.877897322735374e-05
265.4275503587919,146.3134406114771,12.5,0,5.536321276513084,3.666669774786075,-4.111306720223223,1.478289226501301e-05,7.304286258104972e-06,-3.289045376178579e-05,3.506235112590148e-05,3.447769277582975e-05
267.7329520013072,146.7956458198786,12.5,0,5.307094090545066,3.235314239546345,-3.84787099796984,1.439444969810713e-05,6.107330294112252e-06,-3.078296798375872e-05,3.260015660454188e-05,3.428868237517519e-05
265.7877276513101,148.4255192426518,12.5,0,6.12354156404573,3.872365009884042,-4.285987629289471,1.64974409970391e-05,7.492734780392349e-06,-3.428790103431577e-05,3.797218842913722e-05,3.6171871947813e-05
268.0815005038464,148.9099524247392,12.5,0,5.891724491366569,3.438200053659374,-4.020723544569994,1.610295832944552e-05,6.288860578616742e-06,-3.216578835655995e-05,3.549260857954222e-05,3.594324042958482e-05
261.4344775821746,145.4782366908663,12.5,0,5.272589541077907,4.05945079974494,-4.029345096133675,1.362472589165335e-05,8.772170926321481e-06,-3.223476076906939e-05,3.540455780069238e-05,3.473237674029088e-05
263.7398792246898,145.9604418992678,12.5,0,5.0384403683104,3.607283560591016,-3.764808369701066,1.323718233012047e-05,7.51255509924293e-06,-3.011846695760852e-05,3.284273606025675e-05,3.459658032264505e-05
261.8147965297667,147.5864563584192,12.5,0,5.85920959158373,4.271546470307229,-4.212951717813356,1.533223351682215e-05,8.981581031716149e-06,-3.370361374250685e-05,3.833650393117432e-05,3.649676854285184e-05
264.1085693823028,148.0708895405066,12.5,0,5.622434801904058,3.816430629254239,-3.946552773097267,1.493864686268959e-05,7.71463017209032e-06,-3.157242218477813e-05,3.575705745035309e-05,3.63201893587462e-05
262.0932093224735,149.1297802685182,12.5,0,6.0970285028797,4.058345521628357,-4.120090713155908,1.626381479191236e-05,8.10908286690698e-06,-3.296072570524726e-05,3.839204574175704e-05,3.778374490281002e-05
264.3784693099147,149.6158444405416,12.5,0,5.852706604628544,3.589568766276963,-3.84632523814317,1.585700612178977e-05,6.804454768383444e-06,-3.077060190514536e-05,3.574084545343165e-05,3.757588858905742e-05
262.4735282700656,151.237999936071,12.5,0,6.708026815494794,4.27947668305583,-4.311814418975896,1.804210446313867e-05,8.32790393338282e-06,-3.449451535180717e-05,4.145953269567551e-05,3.953543790394434e-05
264.7471594675278,151.7262920817803,12.5,0,6.460941745622781,3.807611041224884,-4.036099445735406,1.762892475301299e-05,7.015601935421402e-06,-3.228879556588325e-05,3.878974641098555e-05,3.928291364933748e-05
253.8807594004604,108.5290722120466,12.5,0,-2.325343591524244,3.17292190912666,-2.717410175802023,-9.979437020178909e-06,1.201362498242471e-05,-2.173928140641618e-05,8.751057784055325e-06,8.62291282573562e-06
256.135630842293,108.8904277901122,12.5,0,-2.439465989232105,2.972870842893884,-2.546396799711238,-1.018458783985784e-05,1.146475948864611e-05,-2.037117439768991e-05,7.814004638886811e-06,8.732025118083303e-06
254.0738822682164,110.598724220807,12.5,0,-1.923499999550689,3.288305532906918,-2.795301530140689,-8.785844424887739e-06,1.206137770494269e-05,-2.236241224112551e-05,9.866323071629626e-06,9.554535012689184e-06
256.3301171379915,110.9911366443079,12.5,0,-2.043692091011637,3.086397714350376,-2.62301023252375,-9.00893286271754e-06,1.151142635873051e-05,-2.098408186019e-05,8.840862142326546e-06,9.684972242361659e-06
254.2152580195111,112.1138146451422,12.5,0,-1.646360989452771,3.326809006596437,-2.831659591599262,-7.929802371526017e-06,1.196287761267081e-05,-2.26532767327941e-05,1.055940852905444e-05,1.030756230709492e-05
256.4724909878126,112.5289622574235,12.5,0,-1.775835656534488,3.110348448908833,-2.654219031079751,-8.170952860037426e-06,1.137378356173586e-05,-2.123375224863801e-05,9.425457519436799e-06,1.045396280915462e-05
254.4083808872669,114.1834666539026,12.5,0,-1.235004648838138,3.44564810645015,-2.91449178280173,-6.708533361442161e-06,1.201407765971099e-05,-2.331593426241384e-05,1.190973643624448e-05,1.143324894803141e-05
256.666977283511,114.6296711116192,12.5,0,-1.370708659936609,3.227265828669761,-2.735693648336489,-6.968080374732957e-06,1.142381757969252e-05,-2.188554918669192e-05,1.069552377571437e-05,1.160193698398513e-05
258.1249002050586,112.8328714022414,12.5,0,-1.405613051184158,3.175705182396696,-3.017225937906447,-7.038525909706662e-06,1.128674702461675e-05,-2.413780750325158e-05,1.082169238714676e-05,1.055453403154869e-05
260.3821331733602,113.2480190145227,12.5,0,-1.538512947932161,2.950399573956711,-2.836557441726579,-7.283561092548283e-06,1.06720889950072e-05,-2.269245953381263e-05,9.631567026684102e-06,1.068289921886058e-05
258.3203845992833,114.9563154452175,12.5,0,-0.9768793964805565,3.299780335367207,-3.105265828183405,-5.765838337031546e-06,1.134080059035951e-05,-2.484212662546724e-05,1.226864113929338e-05,1.171774502592684e-05
260.5789809955275,115.4025199029341,12.5,0,-1.116106782587057,3.072519368398179,-2.923196046027501,-6.029557198997126e-06,1.072494740494382e-05,-2.338556836822001e-05,1.099739980852899e-05,1.186545044449639e-05
257.7863113021804,109.1549584328434,12.5,0,-2.107409373250765,3.035422285531637,-2.901298104558947,-9.172047822827756e-06,1.139927881230185e-05,-2.321038483647157e-05,8.948875661134884e-06,8.80710282600354e-06
260.041182744013,109.516314010909,12.5,0,-2.224891912404824,2.826747348868707,-2.726780132734753,-9.381051998790402e-06,1.082550504630372e-05,-2.181424106187802e-05,7.957969407855549e-06,8.903106646218477e-06
257.9817956964053,111.2784024758195,12.5,0,-1.687493385026483,3.156185693933365,-2.984232452620721,-7.924927387231435e-06,1.144978892860795e-05,-2.387385962096577e-05,1.015639975330419e-05,9.774629804647565e-06
260.2380305661805,111.6708148993204,12.5,0,-1.811157730242586,2.945616827106439,-2.808393102565938,-8.152198198461426e-06,1.087490003093467e-05,-2.24671448205275e-05,9.073735024582385e-06,9.889141590433369e-06
235.5250649469907,198.6552159343816,12.5,0.4814128843542884,16.65147195382019,9.229978071953379,-2.477202655539969,8.851112264428177e-05,3.126717147032294e-05,-3.821464252856362e-05,0.0001823859170421352,0.0001870997715295967
236.935844270423,197.4015853384808,12.5,0.4286478500328633,18.14371664787244,9.613420396028783,-2.937213123495087,8.815781468445677e-05,2.843775410651505e-05,-4.112648388443493e-05,0.0001777616198879387,0.0001707834400267847
236.7863037690027,200.0212424231199,12.5,0.4957413625344044,16.23262619578463,9.380496074539231,-2.557770323030721,8.812939167534134e-05,3.377529945247561e-05,-4.057870518012069e-05,0.0001855391579736161,0.00019208426526854
238.1440503311434,198.7544625351217,12.5,0.4417554095801933,17.77100085292801,9.844164785932186,-3.042331642246891,8.77605833381769e-05,3.096228235663226e-05,-4.359854722402624e-05,0.0001809129301610883,0.0001745646258816858
237.9686064133993,196.4838640483976,12.5,0.3854002957446685,16.70377480001059,9.013449227336654,-2.358346398814537,7.523810971271454e-05,2.518715446865518e-05,-3.069765745067495e-05,0.0001529565166089268,0.0001593935928602984
239.3793857368317,195.2302334524969,12.5,0.3190032669133499,18.20313788898336,9.411413913302182,-2.86324956673922,7.448040152000447e-05,2.284007170031636e-05,-3.363598593210755e-05,0.0001484214130640464,0.0001445922832125025
239.1379897983902,197.8271152951401,12.5,0.3976260940244892,16.3067164411583,9.180943228167044,-2.425467552487203,7.443340022599806e-05,2.711545937694043e-05,-3.221211979372572e-05,0.0001545854060392633,0.000162456198190263
240.4957363605309,196.560335407142,12.5,0.3302130631088959,17.8243573411041,9.642455256247665,-2.950529729184588,7.364129780655041e-05,2.477858261037947e-05,-3.524141265435631e-05,0.0001500110347759917,0.0001468949979229697
235.9431749771045,194.1572846417511,12.5,0.3560500485484053,16.6883491885281,9.303643898668161,-2.326434728321384,7.137169927686556e-05,2.550039966289211e-05,-2.890205641698862e-05,0.000147451376600653,0.000152492800136155
237.4458097375581,192.9264292878462,12.5,0.2913527835453765,18.15066666786117,9.583510021863319,-2.781906392184392,7.114305136467477e-05,2.278524258721561e-05,-3.140526149078608e-05,0.0001431717759516101,0.000139209831121209
237.1125583620955,195.5005358884937,12.5,0.3743526445354005,16.27165511973721,9.463198145731774,-2.431659591694771,7.11243122469995e-05,2.759527363099161e-05,-3.109303757723448e-05,0.000150198150040407,0.0001567239083979134
238.5621603612574,194.2565312424913,12.5,0.3086715956787494,17.76886727341743,9.819044305387241,-2.911751623082029,7.088547139725795e-05,2.488809638220781e-05,-3.369456952593522e-05,0.000145912225751301,0.0001425330489743363
233.3405352268266,196.2891886514445,12.5,0.4488553753174278,16.60300258609556,9.524146788139866,-2.439630140611653,8.257413536638452e-05,3.119846748586975e-05,-3.541183248613542e-05,0.000173128249579756,0.0001766836634266673
234.8431699872801,195.0583332975395,12.5,0.397930209040617,18.03751094666938,9.772361701092905,-2.835405671286676,8.28843207511705e-05,2.797275156311233e-05,-3.767544180243328e-05,0.0001689161110058372,0.0001625338832393894
234.6017740488387,197.6552151401827,12.5,0.4689586904133155,16.17666631690393,9.66718399091039,-2.564625181219444,8.291555520536539e-05,3.388372127093985e-05,-3.863541513507521e-05,0.0001776742547574143,0.0001829731927032421
236.0513760480006,196.4112104941804,12.5,0.4170051203054139,17.66612450323268,10.00451975903658,-2.988916696571809,8.323912317812756e-05,3.067190510437851e-05,-4.101465451137568e-05,0.0001734994829239785,0.000167559812251535
172.0864767016593,108.9762973494302,12.5,0,-3.006767848626235,2.149922894135399,1.632317304333159,-1.134159543091227e-05,9.285167540134262e-06,1.305853843466527e-05,4.245036266197848e-06,4.44226822537938e-06
174.027211232318,108.7943081152537,12.5,0,-2.990743264531069,2.101613135024942,1.750227044296712,-1.125166895451937e-05,9.117756643704669e-06,1.40018163543737e-05,4.269979773828055e-06,4.565418648992358e-06
172.7757176565631,110.9072842037894,12.5,0,-2.67413636303026,2.252214021430782,1.567035444016896,-1.035900757884146e-05,9.34639395900271e-06,1.253628355213517e-05,4.626099129352473e-06,4.879565564035219e-06
174.6810413764038,110.7446946457701,12.5,0,-2.660484580320952,2.202036000953163,1.687999822554392,-1.027517945778958e-05,9.174902867306882e-06,1.350399858043513e-05,4.643197438910627e-06,5.02071318860835e-06
173.2802770541885,112.3208646898679,12.5,0,-2.415477430467855,2.300766089224089,1.615534103257417,-9.570140648876407e-06,9.294833429891367e-06,1.292427282605934e-05,5.01652607976058e-06,5.267303937374321e-06
175.1596782613744,112.1724766804454,12.5,0,-2.40316456460744,2.256938444504163,1.731941620917453,-9.495677362347137e-06,9.144734674099272e-06,1.385553296733962e-05,5.044100546578176e-06,5.423541354066862e-06
173.9695180090923,114.2518515442271,12.5,0,-2.077752390588251,2.402931732156556,1.551088173019192,-8.571153035607647e-06,9.351583455371581e-06,1.240870538415353e-05,5.595652007354479e-06,5.889327534770057e-06
175.8135084054602,114.1228632109619,12.5,0,-2.068029219230098,2.357264566987098,1.67062738404748,-8.503505155125991e-06,9.19766998974279e-06,1.336501907237984e-05,5.610053209249936e-06,6.068793829250074e-06
176.5354954327822,112.0638491183188,12.5,0,-2.477154701446108,2.467876066823204,1.517049030524519,-9.901195898086109e-06,9.878927174991137e-06,1.213639224419616e-05,5.279499507873733e-06,5.539011714879407e-06
178.414896639968,111.9154611088965,12.5,0,-2.462924438723614,2.431793387236881,1.633590541446499,-9.826792913705069e-06,9.752078390136908e-06,1.306872433157199e-05,5.316494253788381e-06,5.698245190708462e-06
177.1634030642132,114.0284371974321,12.5,0,-2.135147623431172,2.567025543073873,1.459413733137066,-8.886092829438847e-06,9.922599836581329e-06,1.167530986509653e-05,5.890907884989827e-06,6.2012886629157e-06
179.0073934605811,113.8994488641669,12.5,0,-2.123463387527377,2.529324685279366,1.578987646765496,-8.818542588311096e-06,9.792609702915871e-06,1.263190117412397e-05,5.917208644560831e-06,6.383804985765954e-06
175.447927512703,108.6610827494116,12.5,0,-3.075130005496908,2.310677469946797,1.533035012939498,-1.168895799354754e-05,9.854271908227275e-06,1.226428010351599e-05,4.451380594989529e-06,4.656069869107018e-06
177.3886620433617,108.4790935152351,12.5,0,-3.056887155516111,2.271604959089642,1.650882067822818,-1.159932286492327e-05,9.714645593499743e-06,1.320705654258254e-05,4.486096230031707e-06,4.780583184625936e-06
176.075835144134,110.6256708285249,12.5,0,-2.739240889041075,2.409181584531461,1.475054741127547,-1.069291611255661e-05,9.900773781733535e-06,1.180043792902037e-05,4.856146288408351e-06,5.124971586961864e-06
177.9811588639747,110.4630812705057,12.5,0,-2.723317200641218,2.368492145665021,1.595853745215244,-1.060940875858391e-05,9.757828626641039e-06,1.276682996172195e-05,4.885384855775194e-06,5.268663203818394e-06
282.7271472936586,91.90767693654465,12.5,0,-4.643212187232243,1.515242132111992,-3.17982826207426,-1.607047270483277e-05,8.563344572544169e-06,-2.543862609659408e-05,4.268622168234066e-06,4.263190723987651e-06
284.9140192728333,92.14910188626573,12.5,0,-4.755984830467634,1.248323431193335,-3.002460093759555,-1.621781020245109e-05,7.799422844192777e-06,-2.401968075007644e-05,3.74539087332778e-06,4.25801249563327e-06
283.3723015663027,94.20908250570871,12.5,0,-4.155448313276159,1.707727803169265,-3.32978566260295,-1.466361684501912e-05,8.789087620762574e-06,-2.66382853008236e-05,4.84705907081433e-06,4.498565609267712e-06
285.5477927519796,94.44315465856474,12.5,0,-4.267377539563633,1.440156797048033,-3.152044744691431,-1.480773356424205e-05,8.022403782204611e-06,-2.521635795753145e-05,4.236359342610963e-06,4.493467744876402e-06
281.609707314739,87.92152556200215,12.5,0,-5.372234808754072,1.463349054188214,-3.062773297992391,-1.83618306313636e-05,8.980504820405542e-06,-2.450218638393913e-05,3.97490944085953e-06,3.949281073890425e-06
283.816291406482,88.17568592947097,12.5,0,-5.485666736297219,1.200258415821874,-2.886450050127711,-1.85143402888086e-05,8.229360319667771e-06,-2.309160040102169e-05,3.527351427111741e-06,3.943294982966925e-06
282.2548615873831,90.22293113116621,12.5,0,-4.892817764562349,1.651947570362843,-3.209334683816959,-1.697857490288979e-05,9.200486436810977e-06,-2.567467747053567e-05,4.418707238489404e-06,4.116010376322983e-06
284.4500648856283,90.46973870177,12.5,0,-5.005438399978919,1.3882157988246,-3.032636838465026,-1.712797551899222e-05,8.446641276221856e-06,-2.426109470772021e-05,3.901686469570172e-06,4.110594148386614e-06
277.7877915567356,87.48130689228364,12.5,0,-5.545095179946311,1.568554241276134,-2.956351200420826,-1.89991479688491e-05,9.455449716040676e-06,-2.365080960336661e-05,3.983095958980998e-06,3.96020884669127e-06
279.9943756484786,87.73546725975248,12.5,0,-5.660834076338809,1.297092156578238,-2.778925286942762,-1.915234276954678e-05,8.679362162121408e-06,-2.223140229554209e-05,3.533284758742194e-06,3.953813130016112e-06
278.452657941948,89.79544787919549,12.5,0,-5.059860057696253,1.763059646911871,-3.108434892342609,-1.76019999021575e-05,9.689678916274987e-06,-2.486747913874087e-05,4.424528420129761e-06,4.125028557711456e-06
280.6478612401932,90.04225544979927,12.5,0,-5.174785754314069,1.490938888033298,-2.930646339045328,-1.775206552423166e-05,8.910833045157806e-06,-2.344517071236263e-05,3.90388923442318e-06,4.119878064644674e-06
278.9393739161474,91.48951665742052,12.5,0,-4.806799318654646,1.633260860874399,-3.081694130145336,-1.668836650839438e-05,9.071874209721793e-06,-2.465355304116269e-05,4.280475360503754e-06,4.271447976210235e-06
281.1262458953221,91.73094160714157,12.5,0,-4.921232529418083,1.359198106709873,-2.904483344611783,-1.683530257950576e-05,8.286419965006057e-06,-2.323586675689426e-05,3.755374738002231e-06,4.266790750158061e-06
279.6042403013598,93.80365764433235,12.5,0,-4.316607767145652,1.830557476135071,-3.236428139035069,-1.527759083577414e-05,9.311070137348748e-06,-2.589142511228056e-05,4.855051424382849e-06,4.506653555760413e-06
281.7797314870367,94.03772979718836,12.5,0,-4.43020223190881,1.555827202474649,-3.058860155409366,-1.542130890408791e-05,8.522808833445923e-06,-2.447088124327493e-05,4.241266461642638e-06,4.502098736645522e-06
190.5563887760225,113.0462675432317,12.5,0,-2.293317163081614,3.277318664789693,0.9597896472182617,-9.960469853692919e-06,1.232207345779231e-05,7.678317177746093e-06,7.4426096971667e-06,7.4635599242635e-06
192.6626070544386,113.3551243407745,12.5,0,-2.369356820748751,3.185022182246359,1.108565646661953,-1.012995957219309e-05,1.208755643978735e-05,8.868525173295623e-06,7.127529653493415e-06,7.84197472267966e-06
191.171406495535,115.0954446723015,12.5,0,-1.914595324143746,3.393296329342742,0.8894202373651542,-8.84134210073418e-06,1.239022451321177e-05,7.115361898921233e-06,8.442518085831633e-06,8.441330593171632e-06
193.2869375596397,115.4050730584262,12.5,0,-1.990179108879764,3.301449392172316,1.037506801805313,-9.009732662153096e-06,1.215678134205522e-05,8.300054414442501e-06,8.075671318822438e-06,8.871448262047642e-06
189.4911468382907,109.4969886420383,12.5,0,-2.918718512639597,3.062872386510221,0.9957074591283074,-1.179019714965489e-05,1.213616644694438e-05,7.965659673026459e-06,6.020608852700986e-06,6.101012106379344e-06
191.5812348987344,109.804509008955,12.5,0,-2.995088089225967,2.967726894852265,1.143137887199413,-1.195846340140491e-05,1.189279653490802e-05,9.145103097595302e-06,5.78066882028571e-06,6.393093369816466e-06
190.1061645578033,111.5461657711082,12.5,0,-2.540834404361708,3.179614301551694,0.924163871902857,-1.067436153519882e-05,1.220743328845478e-05,7.393310975222856e-06,6.760475321268839e-06,6.836473475715396e-06
192.2055654039356,111.8544577266067,12.5,0,-2.616743295566335,3.084935008136711,1.070905193085379,-1.084152655232164e-05,1.196518666249054e-05,8.567241544683033e-06,6.46823407902187e-06,7.177901530769262e-06
185.8710081253743,108.9643477421859,12.5,0,-2.998044558552202,2.862325902596577,1.147797398981237,-1.188360330944431e-05,1.155787853515081e-05,9.182379191849898e-06,5.506636772733266e-06,5.622446663972301e-06
187.961096185818,109.2718681091026,12.5,0,-3.070516244310029,2.782773291855746,1.294368384035866,-1.205187061527669e-05,1.136128752938641e-05,1.035494707228693e-05,5.348260391030852e-06,5.894517943905121e-06
186.4698956269144,111.0121884406296,12.5,0,-2.621667092014509,2.973938612169867,1.0830721709839,-1.076848558418232e-05,1.161393723255518e-05,8.664577367871202e-06,6.149268267007306e-06,6.273377259996319e-06
188.5692964730467,111.3204803961281,12.5,0,-2.693696427622278,2.894779850968984,1.228960374344187,-1.093565244916647e-05,1.141825266519857e-05,9.831682994753494e-06,5.94725837423611e-06,6.594106927834979e-06
186.9083117060411,112.511311877634,12.5,0,-2.374084781079484,3.062291726569028,1.118666120143648,-1.004690468070957e-05,1.169860134988448e-05,8.949328961149186e-06,6.750761423727258e-06,6.835605447551109e-06
189.0145299844572,112.8201686751769,12.5,0,-2.446109522489413,2.986976044393262,1.267133124715217,-1.021713130748073e-05,1.151521096004997e-05,1.013706499772174e-05,6.534861945979014e-06,7.193904089713703e-06
187.5071992075812,114.5591525760778,12.5,0,-1.995339023623616,3.17319565193938,1.055422387053281,-8.923641397147073e-06,1.175049730510491e-05,8.443379096426248e-06,7.652633138780167e-06,7.720710825439446e-06
189.6227302716859,114.8687809622024,12.5,0,-2.066926145635058,3.098251524195283,1.203203854669685,-9.092764885388412e-06,1.156794579393295e-05,9.62563083735748e-06,7.389103248043069e-06,8.132991426341801e-06
183.3633842957383,112.1864577754925,12.5,0,-2.440759350057133,2.854259168832286,1.266254655010638,-1.009383725524865e-05,1.108623682030902e-05,1.013003724008511e-05,6.155429912230882e-06,6.31805874225306e-06
185.3940917824854,112.3415095538341,12.5,0,-2.480993440175319,2.796923030040764,1.403383413578847,-1.017671743259363e-05,1.09349484482707e-05,1.122706730863078e-05,6.056134178416239e-06,6.600923394011778e-06
183.952576070108,114.2117479099198,12.5,0,-2.073278611100035,2.959957992079361,1.207553179212835,-9.002457949183599e-06,1.113048846353398e-05,9.660425433702683e-06,6.94372881227413e-06,7.115128043082014e-06
185.9878859683557,114.3831011003236,12.5,0,-2.116451879576252,2.901773254730709,1.345160582165927,-9.094064618428573e-06,1.097883591879927e-05,1.076128465732741e-05,6.805897387983882e-06,7.447975153898263e-06
182.3428742071466,108.6785523626594,12.5,0,-3.059252624633523,2.666232529225943,1.290945821212464,-1.192259442220803e-05,1.097934619322984e-05,1.032756656969971e-05,5.070882162585357e-06,5.238269672258666e-06
184.3656100833374,108.8053692670747,12.5,0,-3.095009877152903,2.607058085694749,1.42595407946009,-1.198967807544509e-05,1.081859377594552e-05,1.140763263568072e-05,5.009638964864388e-06,5.446605469555786e-06
182.9320659815164,110.7038424970867,12.5,0,-2.695304631895814,2.771971128233267,1.231387559518795,-1.084255172465322e-05,1.102655131586311e-05,9.85110047615036e-06,5.613719677229056e-06,5.815156057499003e-06
184.9594042692077,110.8469608135642,12.5,0,-2.733972168756519,2.711947742590719,1.366881101274583,-1.091826913409344e-05,1.086541051129551e-05,1.093504881019666e-05,5.523159634754874e-06,6.06465800335277e-06
178.8393928993547,108.4588990409574,12.5,0,-3.082172531712486,2.480935652441872,1.412606149140354,-1.184770062343345e-05,1.040473211318398e-05,1.130084919312283e-05,4.718574137659628e-06,4.897132788133613e-06
180.8621287755455,108.5857159453728,12.5,0,-3.116590550249067,2.427941271913356,1.548780710122045,-1.19154427783277e-05,1.026268451032199e-05,1.239024568097636e-05,4.693234756961529e-06,5.091038911013213e-06
179.4206130631682,110.4559543014584,12.5,0,-2.720222365868034,2.584283433427752,1.355802420122213,-1.077213831751991e-05,1.044588487966324e-05,1.08464193609777e-05,5.199338143380975e-06,5.406331886725395e-06
181.4479513508596,110.5990726179359,12.5,0,-2.75757522665216,2.530448005773109,1.492446840720423,-1.08485991299054e-05,1.030349379979568e-05,1.193957472576338e-05,5.149935464957236e-06,5.638758106197871e-06
179.8460957534451,111.9179002176057,12.5,0,-2.473441544605057,2.648227027459916,1.394926716907294,-1.003359456470411e-05,1.045307972355578e-05,1.115941373525835e-05,5.648271740894427e-06,5.853314294170721e-06
181.8768032401921,112.0729519959473,12.5,0,-2.510190995196489,2.604138210040372,1.53077217956973,-1.011592175266106e-05,1.034139506828638e-05,1.224617743655784e-05,5.61314425394115e-06,6.117737487702725e-06
180.4273159172585,113.9149554781067,12.5,0,-2.114387171567648,2.748062277167359,1.342190470191961,-8.964488770750359e-06,1.048530902418967e-05,1.073752376153569e-05,6.34149266136181e-06,6.565293842860941e-06
182.4626258155062,114.0863086685105,12.5,0,-2.154048526502277,2.703161401661536,1.478472869379112,-9.055484406136514e-06,1.037335530651873e-05,1.18277829550329e-05,6.275556423496629e-06,6.878614298622879e-06
231.2952388557319,193.7767271108086,12.5,0.4011090706450183,16.59285279781233,9.78152061795055,-2.387898407084742,7.559291724020239e-05,3.009994450676838e-05,-3.189760659299428e-05,0.0001607460545021946,0.0001633503879747965
232.7922222207587,192.3096883232882,12.5,0.3448714013993411,18.20018119001806,10.078027163011,-2.777222126403575,7.659283716941756e-05,2.700163297313725e-05,-3.391361185984754e-05,0.0001577642944719463,0.0001500192715853086
232.4545517921161,195.2499509161523,12.5,0.4309152656749065,16.10954508472314,9.860660145271854,-2.576484145418554,7.672322506889519e-05,3.280087352761085e-05,-3.621933944123997e-05,0.0001665501003057301,0.0001714257487466103
233.969882351289,193.9593337441448,12.5,0.378991491991822,17.60104093576273,10.0999939636307,-2.950681646829527,7.76854667873582e-05,2.937020620459498e-05,-3.80114811153688e-05,0.0001630116348672427,0.000157833909533215
233.8880901019971,191.2357413941947,12.5,0.2988159820322931,16.6139545701228,9.55839022093706,-2.31771008339201,6.49158299123407e-05,2.46663994154198e-05,-2.644338745893952e-05,0.0001362820318440987,0.0001406226902209844
235.3850734670239,189.7687026066744,12.5,0.2280680948902198,18.30407850036077,9.897392429884835,-2.72862199502381,6.562125094446338e-05,2.205944962583347e-05,-2.827836991280478e-05,0.0001335720560005356,0.0001282818689045925
235.0791813108182,193.0145364011546,12.5,0.3363098091325877,16.06315975455152,9.609504510215013,-2.531987602126891,6.586583349869917e-05,2.697024436304008e-05,-3.05201148001624e-05,0.0001412152310086449,0.0001481784917286239
236.5945118699912,191.7239192291472,12.5,0.2704014072365776,17.64802141098564,9.90971224486827,-2.933427410948763,6.653781846725792e-05,2.411279603508568e-05,-3.216483628169439e-05,0.0001380783221987041,0.0001353912389304495
231.8250596119074,188.1547780659457,12.5,0.2229879967700444,16.40638775012172,9.717878320897821,-2.25953881748519,5.756170813031136e-05,2.312975906687098e-05,-2.326387554470232e-05,0.0001226915732594489,0.0001274786346206517
233.2902647044972,186.3821680768091,12.5,0.141161513156013,18.15704856723348,10.0936364511517,-2.752551706715469,5.825035442701766e-05,2.06953904164374e-05,-2.563976113208803e-05,0.0001202145737328217,0.0001158006091941128
233.0161508207285,189.9335730729056,12.5,0.268619824617879,15.76180302771756,9.725877092675599,-2.471582065326845,5.832406927391608e-05,2.531291508512008e-05,-2.70347176313389e-05,0.0001271562872663492,0.0001350761802256363
234.4997031074645,188.3373846992819,12.5,0.1936677822435507,17.37820469530961,10.05378627163835,-2.950243434493026,5.899209402798246e-05,2.265759932528616e-05,-2.927074840394523e-05,0.0001243176146735416,0.0001230325754876873
230.7524550406685,189.4524186399426,12.5,0.2761736429809302,18.27774574048048,10.36734627443905,-2.790744414332418,6.934661726978788e-05,2.563226843828759e-05,-3.084435251377721e-05,0.0001445826617170546,0.0001364221956257614
231.9301151711989,191.1020640607992,12.5,0.3174654949407818,17.52132735325145,10.30437917093341,-2.931561205819847,7.00693427792468e-05,2.777434887741098e-05,-3.436088501419278e-05,0.0001489201856274844,0.0001442820201354187
229.2872499480786,191.2250286290792,12.5,0.34098685283303,16.61622367867231,9.996449086374199,-2.322399430686765,6.854909753599555e-05,2.836917323095951e-05,-2.819245037123186e-05,0.0001473359179259913,0.0001491784332668128
230.4465628844628,192.6982524344229,12.5,0.3771410143939911,15.98367816370015,9.988225598463671,-2.47943909709994,6.928886094993052e-05,3.078606847979723e-05,-3.184591253428031e-05,0.0001521103286660657,0.0001573892377584099
230.2031339264615,127.6673771379442,12.5,0,0.6718344279940049,5.149533338081619,-1.816979291556332,-1.969756500884479e-06,1.594103913946598e-05,-1.453583433245066e-05,2.234859741562724e-05,2.165734771074221e-05
232.393646641271,128.1968038534156,12.5,0,0.5711307205436242,5.097686356509822,-1.669187243522147,-2.25053077946826e-06,1.585569176439653e-05,-1.335349794817718e-05,2.17665177170669e-05,2.21765971880554e-05
230.0931958221277,129.6639001761668,12.5,0,1.027012036064444,5.236979326428807,-1.819432807862267,-9.031449457368244e-07,1.593672421572063e-05,-1.455546246289813e-05,2.379948432661722e-05,2.342809955315249e-05
232.3041225298249,130.2339264868164,12.5,0,0.9212161179227387,5.184147203288269,-1.673065918119158,-1.199426185277851e-06,1.585229815618427e-05,-1.338452734495326e-05,2.319516841729607e-05,2.400016260946232e-05
233.997213243069,128.5843711080084,12.5,0,0.9434214246391667,5.106585337530051,-2.120932086429957,-1.066319711178707e-06,1.558633594038483e-05,-1.696745669143966e-05,2.32062890414102e-05,2.253620287589025e-05
236.1877259578785,129.1137978234798,12.5,0,0.8356737206589449,5.032110688145483,-1.968827099023323,-1.351532644407763e-06,1.543421522553839e-05,-1.575061679218658e-05,2.250334506928794e-05,2.29994144084744e-05
233.9226332116013,130.6512147078453,12.5,0,1.316784963514546,5.19829616570112,-2.133943598301574,5.507495068565082e-08,1.558111975943194e-05,-1.707154878641259e-05,2.474655449553282e-05,2.439280758396202e-05
236.1335599192985,131.2212410184949,12.5,0,1.203856952886243,5.123011917728373,-1.983088369457583,-2.460672849467223e-07,1.54305525744218e-05,-1.586470695566066e-05,2.402191498859213e-05,2.489347054736755e-05
234.1263896467989,125.0044929818568,12.5,0,0.2518301368765745,4.837898113656294,-2.036955829605059,-3.064462052919996e-06,1.527980985419888e-05,-1.629564663684047e-05,2.001883092086369e-05,1.945405220196543e-05
236.2815442887423,125.4635991357138,12.5,0,0.1609328314315392,4.773813924124223,-1.892836661011944,-3.304066078718453e-06,1.514745829205228e-05,-1.514269328809555e-05,1.941867322084863e-05,1.984998865163036e-05
234.0518096153312,127.0713365816936,12.5,0,0.6136119710687482,4.926901908812075,-2.048036356141992,-1.977963219629666e-06,1.527519653134364e-05,-1.638429084913594e-05,2.146267943590662e-05,2.121286735971059e-05
236.2273782501622,127.571042330729,12.5,0,0.5174773569431174,4.861938349378543,-1.905142579976271,-2.233623137284859e-06,1.514422083245684e-05,-1.524114063981017e-05,2.084004121372075e-05,2.164801750751269e-05
230.3935523088522,124.2092977973231,12.5,0,0.002569288282024296,4.858344804248306,-1.732992689297249,-3.878454120896167e-06,1.554464794296896e-05,-1.386394151437799e-05,1.916977368744866e-05,1.872387621629716e-05
232.5487069507955,124.6684039511801,12.5,0,-0.07644037502467405,4.8294005327927,-1.597440440165776,-4.108129626313117e-06,1.551523400495638e-05,-1.277952352132621e-05,1.875410602214999e-05,1.915231128434065e-05
230.2836142045183,126.2058208355457,12.5,0,0.3378653218190212,4.941696412603304,-1.729498056713829,-2.872188100261775e-06,1.554313626287536e-05,-1.383598445371063e-05,2.049101820794137e-05,2.039685486665542e-05
232.4591828393493,126.705526584581,12.5,0,0.2538021855842385,4.911589868177753,-1.595376068236435,-3.117104900672639e-06,1.551404582970142e-05,-1.276300854589148e-05,2.005311969742164e-05,2.087761934050332e-05
155.3914471685123,76.46052727901872,12.5,0,-8.421760383497796,0.8467088296274068,1.762933533743815,-2.762700029089487e-05,9.446876561605938e-06,1.410346826995052e-05,2.905810476736376e-06,2.893851850809717e-06
157.7211262917131,76.58981599826747,12.5,0,-8.477773954803688,0.7091345601843706,1.921506686339831,-2.769618430351929e-05,9.051449756432935e-06,1.537205349071865e-05,2.875144604815178e-06,2.92880341408933e-06
156.1164186986683,78.3781329033428,12.5,0,-8.074484397493096,0.971433474266628,1.675026962490725,-2.661549685139121e-05,9.568174635647686e-06,1.34002156999258e-05,2.90073479702064e-06,2.870592340248424e-06
158.4796916528538,78.50922222027312,12.5,0,-8.129689513497436,0.8358204698925213,1.831341358395316,-2.668366281910581e-05,9.178377114454016e-06,1.465073086716253e-05,2.86645491185e-06,2.908265654505729e-06
154.1357596442637,73.13913690886923,12.5,0,-8.963901364585807,0.7585822569475309,1.759533749442649,-2.92913501722326e-05,9.598584313900743e-06,1.407626999554119e-05,2.949509209272101e-06,2.94575344609093e-06
156.4072525453792,73.26530690144959,12.5,0,-9.019026620475531,0.6213115153419548,1.912120509211979,-2.935793439779526e-05,9.20341814547468e-06,1.529696407369583e-05,2.916780292952536e-06,2.975888584170402e-06
154.8607311744197,75.05674253319333,12.5,0,-8.621147533756405,0.8831075272915303,1.671318299710324,-2.829415812985372e-05,9.72286211433802e-06,1.337054639768259e-05,2.940953583401053e-06,2.91399120842182e-06
157.1658179065199,75.18471312345524,12.5,0,-8.67545702239485,0.7478431625905353,1.821676543258585,-2.835973700173594e-05,9.333463738205592e-06,1.457341234606868e-05,2.904998046779598e-06,2.946922923482242e-06
150.2014185305703,72.92060407133336,12.5,0,-8.962874891503331,0.6376776618983762,1.803560996666028,-2.919134178232935e-05,9.210868431277467e-06,1.442848797332823e-05,2.879250433330249e-06,2.896142049244966e-06
152.4729114316858,73.04677406391374,12.5,0,-9.006631129341518,0.5436783191219008,1.951280333524479,-2.925616226919037e-05,8.945075524663295e-06,1.561024266819584e-05,2.87512137832753e-06,2.924385426459144e-06
150.868203838641,74.83509096898906,12.5,0,-8.633401554573544,0.7440715087753422,1.733773390752419,-2.822214218165561e-05,9.287750071739929e-06,1.387018712601935e-05,2.863442097592634e-06,2.858081243050781e-06
153.1732905707412,74.96306155925099,12.5,0,-8.676508337438669,0.6514467224899771,1.879335963634246,-2.828598405779572e-05,9.025836181918861e-06,1.503468770907397e-05,2.857608045990999e-06,2.890186151896727e-06
151.3563245618684,76.23659264843837,12.5,0,-8.430353503084822,0.7152553032076274,1.811499659366843,-2.754933545243753e-05,9.033099772732265e-06,1.449199727493475e-05,2.829488045295274e-06,2.833874493763839e-06
153.6860036850693,76.36588136768714,12.5,0,-8.478287993565115,0.6111734224339367,1.971493341168595,-2.761946031735552e-05,8.738385346640688e-06,1.577194672934876e-05,2.825153566847878e-06,2.868415723270935e-06
152.0231098699391,78.15107954609407,12.5,0,-8.082226936804359,0.8282708635519924,1.737094822609238,-2.652574288861554e-05,9.116248312809861e-06,1.38967585808739e-05,2.816552788919526e-06,2.805801231017203e-06
154.3863828241246,78.2821688630244,12.5,0,-8.129467914322323,0.7256733171391629,1.894810123654771,-2.659483597954276e-05,8.825728946303178e-06,1.515848098923816e-05,2.810052163913897e-06,2.843137080722607e-06
206.8298892724885,146.5781717328614,12.5,0,4.146217551830095,6.299505717224641,-0.04642411024103222,8.228291592076592e-06,1.684144425365477e-05,-3.713928819282578e-07,3.799368137609217e-05,3.734727346765873e-05
208.9178177430518,146.9743962121872,12.5,0,4.09043538737456,6.373569356742941,0.1035025671313388,7.99053775420424e-06,1.712307363167776e-05,8.280205370507108e-07,3.807304546107932e-05,3.832220756313319e-05
206.9876672524198,148.6257399395369,12.5,0,4.547080659551666,6.393183625038168,-0.02411971769620408,9.436111210534795e-06,1.68205230724808e-05,-1.929577415696326e-07,3.975748694481771e-05,3.959554890140525e-05
209.0794782771847,148.9943083808396,12.5,0,4.497168086341652,6.468361476499894,0.1256812086178512,9.216248695093369e-06,1.710102225572634e-05,1.005449668942809e-06,3.986012652500662e-05,4.058136179841832e-05
207.1031687500403,150.1246638987224,12.5,0,4.921363256836619,6.621102207264111,-0.09494340902275296,1.045148065606589e-05,1.725043645777586e-05,-7.595472721820236e-07,4.192876601369587e-05,4.127697896311893e-05
209.1978220017437,150.4729867150568,12.5,0,4.872221996160955,6.700241086218537,0.06477102924977608,1.023091751874023e-05,1.754299387897055e-05,5.181682339982087e-07,4.204594620525043e-05,4.22723376297803e-05
207.2609467299717,152.1722321053978,12.5,0,5.344454376584128,6.720104647497287,-0.07207635329108944,1.172617028707138e-05,1.722877137072401e-05,-5.766108263287155e-07,4.380112030938965e-05,4.362245588754315e-05
209.3594825358766,152.4928988837092,12.5,0,5.301447996476735,6.800412525313939,0.08749215682667318,1.15243035684744e-05,1.752016168382321e-05,6.999372546133854e-07,4.394317417856664e-05,4.463301528034352e-05
210.7312146061648,150.7279767140383,12.5,0,5.084445411883799,6.932091932594333,-0.4247659464670672,1.072455177195269e-05,1.811513785479483e-05,-3.398127571736537e-06,4.366911707002343e-05,4.297638869302944e-05
212.8258678578682,151.0762995303728,12.5,0,5.027376210140059,6.9813222759636,-0.2621095513472132,1.050254605167731e-05,1.831833031497147e-05,-2.096876410777706e-06,4.363992249377773e-05,4.390453330236943e-05
210.8957173672362,152.7276432577225,12.5,0,5.500631425300798,7.031237837414701,-0.4138170302324482,1.197703029103079e-05,1.809945593948641e-05,-3.310536241859586e-06,4.551521155152383e-05,4.534570040579393e-05
212.9942531731412,153.0483100360338,12.5,0,5.44977501084543,7.081758817551492,-0.2514920871704042,1.177387298066418e-05,1.830180820748843e-05,-2.011936697363234e-06,4.551197477604396e-05,4.628223298560544e-05
210.4462874660088,147.2644526622439,12.5,0,4.31663008087447,6.599841373314881,-0.3690800752007657,8.533343160146398e-06,1.766618832990804e-05,-2.952640601606125e-06,3.972012539132106e-05,3.901508058742611e-05
212.5342159365721,147.6606771415697,12.5,0,4.250170776489982,6.638319389294884,-0.2129013215599804,8.289890973332034e-06,1.784248542455164e-05,-1.703210572479843e-06,3.962156298534106e-05,3.993311079759432e-05
210.6107902270802,149.2641192059281,12.5,0,4.717931310467478,6.695901438397572,-0.3607560566284128,9.740659042777869e-06,1.765253955449825e-05,-2.886048453027302e-06,4.149280303534113e-05,4.128010422516212e-05
212.7026012518451,149.6326876472308,12.5,0,4.657528683177801,6.735664427155629,-0.2049291629261925,9.515560244444457e-06,1.782810322035577e-05,-1.63943330340954e-06,4.141916051744211e-05,4.220329113949827e-05
236.9773534135962,235.037050705504,12.5,0.9088731393080918,17.09418202724901,12.02976907779179,-5.775889104238995,0.0004946682776373326,0.000272366624271722,-0.0005070635867742014,0.001172873324548705,0.0008473314988763386
238.9657434788025,234.8771779938942,12.5,0.9120551343402201,15.82755994962558,8.28004918009618,-4.86651985294966,0.0005005880919192606,0.0001573043441799708,-0.0004426882516849674,0.001010450967869948,0.0008708770021611837
238.1891233894813,236.6389962213642,12.5,0.9160894809812434,17.99374531434606,13.56797713873586,-6.831126690161024,0.0005568503668112708,0.0003458747595875373,-0.0006512772672645781,0.001381988173305865,0.0009027535182365521
240.1807832572097,236.5307273763819,12.5,0.9169285922355421,17.10344127565831,10.16027797609964,-6.03806977117944,0.0005609967491265497,0.0002266740989436882,-0.000581482359205939,0.001209778790895582,0.0009096902792724617
239.0762005788781,237.8117017298812,12.5,0.9191687310694643,21.38308257026098,13.5178194444527,-9.061610703294242,0.0007127391346383896,0.0003235202974298593,-0.0008968421080788974,0.001597229351989648,0.0009287633240532805
241.0702541081831,237.7412095371355,12.5,0.9182429758976821,19.8174470709415,4.847870036446021,-4.806901538232115,0.0007282253146022721,-4.168125538662722e-06,-0.0004703597364029629,0.001129095808669271,0.00092078136596688
240.2879705547632,239.4136472457415,12.5,0.9209353168014753,32.02980483997658,21.16597231323002,-14.35678227794299,0.001082184790679559,0.0005325673338199186,-0.001452661967102995,0.002490746216181274,0.0009444014156823902
242.2852938865902,239.3947589196232,12.5,0.9172372126057153,31.30277616652815,12.81087674025031,-10.36185473285286,0.00108648083482625,0.0001927506931295078,-0.00100159552949696,0.001980578103464917,0.0009122695012171923
242.5300026045844,237.689605670511,12.5,0.9114929073899474,18.17901808773012,2.950868767878068,-3.579911889041635,0.0006305953706143407,-5.762740886141107e-05,-0.0003235819217168617,0.0008992863152350165,0.000866618716856557
244.5240561338894,237.6191134777652,12.5,0.8892091162553302,23.2999106415747,6.256271516348027,-5.541381270658586,0.0006278016249085738,1.245716517827059e-05,-0.0004001326523167251,0.0009957168024685924,0.0007266255656947381
243.7474360445682,239.3809317052352,12.5,0.9067841497863369,16.61710463603315,1.170362098189004,-2.456333065380939,0.0005604030327140443,-0.0001024345642155837,-0.0002108081885001916,0.0007266408873866339,0.0008325760227979276
245.7447593763952,239.3620433791169,12.5,0.872096976301021,23.54089421374468,4.690712123419452,-4.667332942520052,0.0005596293951088101,-2.9885427767913e-05,-0.0002919294826683482,0.0008277321422676862,0.0006469813051805442
240.4213460317369,234.760143046257,12.5,0.909294199697142,16.70314244957738,9.37691365085249,-6.068289202528439,0.0005065665565437698,0.0001834900267402375,-0.0005352062763145907,0.001062035606800469,0.0008503713525296973
242.4097360969432,234.6002703346473,12.5,0.8971415473114237,18.25021617620798,6.768225693845533,-5.629685168514952,0.0005151361878757278,6.862002193158809e-05,-0.0004378588260945285,0.0009046896020111026,0.0007708033726070437
241.6387794717207,236.4514690809814,12.5,0.9121220835217516,19.49843186921581,11.93353803666919,-7.751289332128763,0.0006013814809234385,0.0002570449679193281,-0.0007056416121606496,0.001321615477100977,0.0008713869610870817
243.6304393394491,236.343200235999,12.5,0.8952550232381975,22.41314282823457,10.12838143706522,-7.880338272675798,0.0006073737745474262,0.0001382434440646283,-0.0006018685394791768,0.0011530991507606,0.000759803588665788
181.3682486467462,131.2970365415285,12.5,0,1.007882433550374,3.402805863469173,1.490149519896336,5.029790965858576e-07,1.008267281626105e-05,1.192119615917069e-05,1.672323454238591e-05,1.657400409671927e-05
182.45086920441,130.2097921200133,12.5,0,0.9431061115024437,3.180475683698299,1.403681046912144,4.735590098491804e-07,9.423037298632601e-06,1.122944837529716e-05,1.564026134920176e-05,1.607452469456639e-05
182.8292120898132,132.5871866895526,12.5,0,1.058238583828082,3.63936554923253,1.415014453427297,4.748710288638388e-07,1.079937889048163e-05,1.132011562741838e-05,1.77256162787144e-05,1.79216748600734e-05
184.0978129554178,131.2384472525649,12.5,0,1.00604301641525,3.461677831507691,1.34207407498079,4.499953873226469e-07,1.027253464769241e-05,1.073659259984632e-05,1.685650288767494e-05,1.726438291684562e-05
185.3034594583123,131.9914750730272,12.5,0,1.307807606946562,3.449154770736589,1.297841070739203,1.425660525639727e-06,9.991049180799834e-06,1.038272856591362e-05,1.778292812914772e-05,1.815452211892009e-05
186.9504032093201,133.0201302055788,12.5,0,1.358432997585981,3.712741339664369,1.244930351509391,1.376792520543642e-06,1.07940258888572e-05,9.959442812075125e-06,1.890969785668027e-05,1.939656942262052e-05
183.8987115580935,133.5316421472586,12.5,0,1.400121660903208,3.714768993393896,1.413660560516409,1.508574120175147e-06,1.07671634501379e-05,1.130928448413128e-05,1.913190567067616e-05,1.893177548236942e-05
185.3596750011603,134.8217922952826,12.5,0,1.437615811184633,3.938536825328872,1.346285589597785,1.449541135527727e-06,1.145322519210468e-05,1.077028471678228e-05,2.005927000487737e-05,2.034375094000229e-05
187.7365541932733,129.3238274483618,12.5,0,0.6825486543167196,3.389163992696155,1.148040792690538,-5.271755003434213e-07,1.029928585317432e-05,9.184326341524305e-06,1.54452128053118e-05,1.673150250523359e-05
189.7056252868362,129.8995599281971,12.5,0,0.7454188176113211,3.821926452873699,1.161265700921705,-6.722009459427312e-07,1.163382959510678e-05,9.290125607373638e-06,1.7279764722536e-05,1.767060148008938e-05
186.3318062930545,130.8639945225931,12.5,0,0.9199937574808577,3.787090629321276,1.346855363525097,-8.569247951827682e-08,1.13826950078434e-05,1.077484290820077e-05,1.779478198093199e-05,1.756496075158687e-05
188.1148970786765,131.7012220179009,12.5,0,0.9492459186914183,4.157685686515014,1.332633325409335,-2.885616093994726e-07,1.254519746189491e-05,1.066106660327468e-05,1.927255393799751e-05,1.868030118361146e-05
184.3260230155684,128.3266295417371,12.5,0,0.5013440618987572,3.227572741214908,1.275873360705767,-9.777571948959031e-07,9.927157522368699e-06,1.020698688564614e-05,1.433189165378754e-05,1.519104975810007e-05
186.2950941091314,128.9023620215725,12.5,0,0.552239713727162,3.622749068995502,1.296670832902346,-1.131032171269483e-06,1.115100524980388e-05,1.037336666321877e-05,1.598134287357305e-05,1.606710862375603e-05
183.2434024579047,129.4138739632523,12.5,0,0.6829163451531588,3.52323437938569,1.419287956683246,-6.332551990184443e-07,1.072801693791168e-05,1.135430365346596e-05,1.608739949557279e-05,1.570396319637579e-05
185.0264932435267,130.2511014585601,12.5,0,0.700050858440916,3.856149357008446,1.413871946300354,-8.447567385958253e-07,1.177963725567429e-05,1.131097557040283e-05,1.738262587252398e-05,1.676745339152982e-05
174.2066316176061,105.20142030822,12.5,0,-3.667122532191371,2.155850502226233,1.56196506545399,-1.345947250479337e-05,9.832419632877041e-06,1.249572052363192e-05,3.914238091249188e-06,4.032840321275649e-06
176.182897084541,105.0082137160819,12.5,0,-3.656062099117721,2.083394083389062,1.678391333121358,-1.336611398388796e-05,9.591710746139172e-06,1.342713066497086e-05,3.885013991201292e-06,4.131770833086986e-06
174.9470759372961,107.207659202997,12.5,0,-3.33336819256491,2.267736174460532,1.485991808542267,-1.248096715577614e-05,9.923450312325629e-06,1.188793446833813e-05,4.189013261101827e-06,4.363434178446726e-06
176.9068192517977,107.017466159254,12.5,0,-3.322438053262864,2.194574875583113,1.603480318183913,-1.238746167090765e-05,9.680590044476253e-06,1.28278425454713e-05,4.149168867829035e-06,4.475953792016831e-06
172.9241444357503,101.7265126104079,12.5,0,-4.260663773872514,1.995081750585794,1.582380876273865,-1.523018947686068e-05,9.792792620972549e-06,1.265904701019092e-05,3.544450726809126e-06,3.615758481385612e-06
174.9290271101497,101.5280863993385,12.5,0,-4.250923923483108,1.915467432761083,1.698938604854439,-1.513533050135481e-05,9.53023492362195e-06,1.359150883883551e-05,3.51149947132525e-06,3.696528623150196e-06
173.6645887554403,103.7327515051849,12.5,0,-3.92986010598357,2.108364747331271,1.504580882732477,-1.426224413701244e-05,9.890655276246921e-06,1.203664706185981e-05,3.722112197906277e-06,3.832501222053981e-06
175.6529492774063,103.5373388425106,12.5,0,-3.920257942574801,2.027993838808328,1.622187462292033,-1.416722048728602e-05,9.625786638246489e-06,1.297749969833627e-05,3.680257566277319e-06,3.922924488535178e-06
169.4515857805384,102.0701968895271,12.5,0,-4.184657409066922,1.857846941149116,1.688175137366833,-1.487718126193344e-05,9.292836138930709e-06,1.350540109893467e-05,3.428142795028035e-06,3.473464354064956e-06
171.4564684549377,101.8717706784578,12.5,0,-4.176877226034697,1.770231250348304,1.80459989233847,-1.478219212358967e-05,9.006241781942328e-06,1.443679913870776e-05,3.39293907696991e-06,3.555988590625843e-06
170.2206473076928,104.0712161653729,12.5,0,-3.853157444438117,1.975394274453728,1.605644537958306,-1.391041924176496e-05,9.403787633802422e-06,1.284515630366645e-05,3.597187630331844e-06,3.674097008761678e-06
172.2090078296588,103.8758035026987,12.5,0,-3.845532353345169,1.886949752241734,1.723121384188125,-1.381526333249793e-05,9.114665089849684e-06,1.3784971073505e-05,3.55228479958646e-06,3.765828099796075e-06
170.7836394196923,105.5360639421545,12.5,0,-3.59370242014634,2.007847367078063,1.663673837876916,-1.310612563813074e-05,9.300073510766873e-06,1.330939070301533e-05,3.761653733729503e-06,3.86052327945551e-06
172.7599048866273,105.3428573500164,12.5,0,-3.584153978114166,1.929543263314392,1.779681350286898,-1.301292734061684e-05,9.041861625097385e-06,1.423745080229518e-05,3.732582154163716e-06,3.960159758333438e-06
171.5527009468468,107.5370832180002,12.5,0,-3.2604852452379,2.122846994809137,1.583879675758128,-1.213183038060859e-05,9.401498579579559e-06,1.267103740606502e-05,4.021471005717759e-06,4.169216668181579e-06
173.5124442613484,107.3468901742572,12.5,0,-3.251080026926858,2.043784243246374,1.700949633511137,-1.203848348076304e-05,9.140973599929881e-06,1.36075970680891e-05,3.981184331296981e-06,4.281244213828983e-06
224.2464012882091,183.1246913688506,12.5,0.07580011369525896,17.33050832049024,10.59218695048503,-2.45654998642253,5.083735430117605e-05,2.167344086704973e-05,-2.126423102036625e-05,0.0001102100879815608,0.0001079057109089429
225.1611504039426,184.6792450513053,12.5,0.1334087542377013,16.85436239059174,10.48173777149021,-2.684338830020689,5.256061569446676e-05,2.314594228176302e-05,-2.47806687930193e-05,0.0001150938325975886,0.000114804251537687
222.860154872084,184.5320890398818,12.5,0.1231120674848766,16.20348399158604,10.49059539466815,-2.265390514174566,4.956012147720062e-05,2.350028698714455e-05,-2.066754877264087e-05,0.0001109452412029124,0.0001135071847951363
224.0214561677945,185.8906884066036,12.5,0.1750586545033599,15.76107245391246,10.45807292008831,-2.47283823836127,5.099632082463073e-05,2.528297980821422e-05,-2.398074240657724e-05,0.0001158467477781738,0.0001203682543073327
225.2612040965799,182.0944047672454,12.5,0.03974419620109315,15.77154036756933,10.43224226905716,-2.359180215647235,4.386657721237516e-05,2.162542822940977e-05,-1.965459792121213e-05,9.944818851027011e-05,0.0001039948669823858
226.647450512705,180.6870070962142,12.5,0,16.87130747774424,10.50782335089867,-2.435664566467397,4.558192524806262e-05,2.012798874068036e-05,-1.948531653173918e-05,9.985160565599293e-05,9.891171656029873e-05
225.9954644898609,183.792406964773,12.5,0.1016023680343835,15.55182870686838,10.22036298593504,-2.566543159281485,4.62930444086728e-05,2.255537845214728e-05,-2.285440716192548e-05,0.0001046000403422791,0.0001108900710583047
227.135158726009,182.5809636094747,12.5,0.05635126298405713,16.86618786748863,10.34349513928118,-2.682108316365617,4.842586364185069e-05,2.077704699071474e-05,-2.273819239008044e-05,0.0001052287690207114,0.0001057603338878289
225.8027151080091,177.4065781879798,12.5,0,14.75121318237439,10.00248319882715,-2.253325947627172,3.920189562453633e-05,2.020697569034735e-05,-1.802660758101738e-05,9.018874362829108e-05,8.927859418629445e-05
226.290423321313,179.3005347012404,12.5,0,15.41312899345556,10.27263187717437,-2.47713770079144,4.110390727731829e-05,2.054191881219354e-05,-1.981710160633152e-05,9.362707214346594e-05,9.449544771755004e-05
223.9894277894545,179.1533786898169,12.5,0,14.34058767885039,10.23207141987585,-2.319635585053801,3.770422343642057e-05,2.12701584005224e-05,-1.855708468043041e-05,8.949387338996679e-05,9.40791009632891e-05
224.7236881827355,180.8513808873445,12.5,0,14.92857239782231,10.53085687587202,-2.548826439539663,3.934674617233377e-05,2.175588408453262e-05,-2.039061151631731e-05,9.275992635734642e-05,9.949038112158279e-05
222.6620093436086,180.4321254077941,12.5,0,16.61484835180049,10.50907194750873,-2.322891374443057,4.476025716775456e-05,2.033715155058756e-05,-1.858313099554446e-05,9.888617375151935e-05,9.769761343123746e-05
223.576758459342,181.9866790902488,12.5,0.03326533993682002,16.64317026812483,10.66975866291271,-2.600480084304544,4.626123358890069e-05,2.15454067876904e-05,-2.151970083815629e-05,0.0001030276542272001,0.0001033220010432509
220.8487220250539,182.1789259096312,12.5,0.02801485659401937,15.84698480350893,10.76325546437659,-2.199804945646177,4.331315893595197e-05,2.239214229852397e-05,-1.810566723633436e-05,9.970951776031539e-05,0.0001027830665649195
222.0100233207644,183.5375252763529,12.5,0.08363908227137506,15.43947395116403,10.69575042797515,-2.396005825182186,4.45781956770904e-05,2.387140458020643e-05,-2.091757322973697e-05,0.0001038916729540197,0.0001087952479409536
252.3062870711188,101.1139970608679,12.5,0,-3.735346931853425,2.900410148314954,-2.4360499967825,-1.427343830058292e-05,1.226959002009059e-05,-1.948839997426e-05,6.165513660424136e-06,6.146015872705914e-06
254.5053531435393,101.3424112796683,12.5,0,-3.84349070140428,2.63635660985252,-2.263957793336032,-1.440825553237571e-05,1.151113371265148e-05,-1.811166234668826e-05,5.373200108572593e-06,6.186152379110713e-06
252.7916800540952,103.262920936502,12.5,0,-3.292680256658738,3.064103110414572,-2.566250730625839,-1.298785930963962e-05,1.243927415865362e-05,-2.053000584500671e-05,7.058568282739408e-06,6.725910473721567e-06
255.0085979533839,103.5305768513044,12.5,0,-3.40809800764525,2.79827734306173,-2.392593548693797,-1.314453549891418e-05,1.168096590391373e-05,-1.914074838955037e-05,6.142724626537441e-06,6.782786059413849e-06
253.1470123792562,104.8360423949972,12.5,0,-3.029321954556283,3.042117131244115,-2.569593448466619,-1.212752395957539e-05,1.215823238362619e-05,-2.055674758773295e-05,7.284503672135597e-06,7.22213416547835e-06
255.3769987228198,105.132425225047,12.5,0,-3.155405848434803,2.760026876342283,-2.389054868432369,-1.23053202160652e-05,1.135641068304315e-05,-1.911243894745895e-05,6.267434821175954e-06,7.293231332497244e-06
253.6324053622325,106.9849662706314,12.5,0,-2.579086862220889,3.209951431652496,-2.704367560993056,-1.082103910442884e-05,1.23351140710647e-05,-2.163494048794444e-05,8.459206660924415e-06,7.997947902319261e-06
255.8802435326645,107.3205907966831,12.5,0,-2.712451560601268,2.926103089462324,-2.522230207163743,-1.102072746549392e-05,1.153349113476045e-05,-2.017784165730995e-05,7.302140391377804e-06,8.0911600728006e-06
257.0094620264238,105.3493925151253,12.5,0,-2.837978578464048,2.918407883018618,-2.746511207296415,-1.141625775749985e-05,1.160928808843081e-05,-2.197208965837132e-05,7.409740863792503e-06,7.34176785553256e-06
259.2394483699875,105.6457753451751,12.5,0,-2.968266821585952,2.62320871592686,-2.562541328761391,-1.159702080181653e-05,1.076888134823471e-05,-2.050033063009113e-05,6.331637327084436e-06,7.403274935474523e-06
257.5257752805434,107.5662850020087,12.5,0,-2.364965267565565,3.098263008078143,-2.892187995985856,-1.004649926267232e-05,1.180641383990251e-05,-2.313750396788685e-05,8.705822241790836e-06,8.155219431462054e-06
259.7736134509754,107.9019095280605,12.5,0,-2.502688591164234,2.801206662489027,-2.706496198655567,-1.024956882171677e-05,1.096601219289627e-05,-2.165196958924453e-05,7.476918020022189e-06,8.237020683551528e-06
256.1151812376835,101.5096220929943,12.5,0,-3.569238269169529,2.785036467142583,-2.606414730427933,-1.364959163505656e-05,1.176750731019189e-05,-2.085131784342346e-05,6.22692204746134e-06,6.212745294100235e-06
258.314247310104,101.7380363117948,12.5,0,-3.68034390922651,2.51087204086822,-2.432261297193863,-1.378579814221941e-05,1.097906565815951e-05,-1.94580903775509e-05,5.393663382152685e-06,6.245261982571264e-06
256.6314944918031,103.7265145798778,12.5,0,-3.107151256839361,2.959168879296846,-2.746069692720267,-1.231021912532343e-05,1.19550614192214e-05,-2.196855754176214e-05,7.208709260792025e-06,6.821283479124317e-06
258.8484123910919,103.9941704946803,12.5,0,-3.225634534546743,2.683147706786054,-2.570245361445541,-1.246854867597842e-05,1.116658028935276e-05,-2.056196289156433e-05,6.241462335762758e-06,6.869584800045809e-06
216.3857064201078,169.694165420488,12.5,0,10.34002850775257,9.496837064690077,-1.402240841775496,2.549062157305616e-05,2.211785580080619e-05,-1.121792673420397e-05,7.205799128732533e-05,7.089730121158613e-05
218.8164928972903,169.6324962317314,12.5,0,10.1981284309275,8.844425493196033,-1.074204809560896,2.555847058441119e-05,2.01436588334853e-05,-8.593638476487165e-06,6.915525536529927e-05,7.159439262591693e-05
217.3721202678929,171.3718758381505,12.5,0,11.1254678545253,9.98150492911353,-1.754608847049651,2.761629319119013e-05,2.304044148954305e-05,-1.403687077639721e-05,7.671383102799529e-05,7.429391881856579e-05
219.7350274140677,171.4505401280315,12.5,0,10.91243333296509,9.251455907369976,-1.378866892982948,2.751862193959231e-05,2.087471223721185e-05,-1.103093514386358e-05,7.32628559429223e-05,7.517386284845274e-05
218.0942253217303,172.6000451042149,12.5,0,11.57173537095609,9.841537528002478,-1.69140733758114,2.915632316465749e-05,2.223553179284306e-05,-1.353125870064912e-05,7.783149344427933e-05,7.690593428198031e-05
220.4074413488259,172.7814406304571,12.5,0,11.32208724783144,9.13334592428917,-1.300822428413435,2.892400245362926e-05,2.016903715946019e-05,-1.040657942730748e-05,7.433206682694921e-05,7.79638898923935e-05
219.0806391695154,174.2777555218774,12.5,0,12.49629184879033,10.39509096535218,-2.09564633569994,3.167206114384731e-05,2.326725761009471e-05,-1.676517068559952e-05,8.325838712251483e-05,8.064547563150811e-05
221.3259758656033,174.5994845267572,12.5,0,12.14774144382827,9.590455551262831,-1.64306649006821,3.120040817924019e-05,2.097126460897845e-05,-1.314453192054568e-05,7.90381958458353e-05,8.20069153087191e-05
222.1008330094706,172.9142313719265,12.5,0,11.8593777758985,10.08309892969785,-2.119480224386133,2.988352973911691e-05,2.277841435431431e-05,-1.695584179508907e-05,7.981669179960722e-05,7.857450571368725e-05
224.4140490365661,173.0956268981687,12.5,0,11.61242470485259,9.431000311981091,-1.672849279713918,2.96149588059434e-05,2.088926123445742e-05,-1.338279423771134e-05,7.650887836838918e-05,7.918478355102493e-05
222.9696764071687,174.8350065045878,12.5,0,13.01359460366273,10.62578761317656,-2.528500344745142,3.314287264117948e-05,2.35916446792348e-05,-2.022800275796113e-05,8.605402766983979e-05,8.281451238867112e-05
225.2150131032566,175.1567355094676,12.5,0,12.66339564804708,9.894200264446377,-2.024548784319927,3.260750586219353e-05,2.153072432779075e-05,-1.619639027455942e-05,8.207168852687692e-05,8.365946896602715e-05
220.5959521008636,169.587351252302,12.5,0,10.45083556776791,9.656809189219171,-1.838259571907519,2.571722646548197e-05,2.254112095128702e-05,-1.470607657526015e-05,7.310188773828229e-05,7.194816278088717e-05
223.0267385780461,169.5256820635454,12.5,0,10.3176533157882,9.04248082098912,-1.522519403700121,2.578250595373094e-05,2.068181597453462e-05,-1.218015522960096e-05,7.035829245016694e-05,7.221758940417766e-05
221.4647954985618,171.5081263849633,12.5,0,11.28059376821723,10.09930422149575,-2.176234231841091,2.801845668109852e-05,2.329329849421261e-05,-1.740987385472873e-05,7.777330798715453e-05,7.566287611169791e-05
223.8277026447366,171.5867906748443,12.5,0,11.08226397121273,9.421718183359634,-1.820233757642399,2.792587016119303e-05,2.128368700978064e-05,-1.45618700611392e-05,7.455717220289944e-05,7.61189411626286e-05
208.2808266542514,160.6018642810008,12.5,0,7.485079403811544,7.551651178316019,-0.2966403530313953,1.791093314954412e-05,1.817722024756202e-05,-2.373122824251162e-06,5.455214977819389e-05,5.414005335325493e-05
210.3590318667444,160.9858785165571,12.5,0,7.460867290846436,7.802403933925032,-0.1275070065432152,1.763285218356857e-05,1.899899875588295e-05,-1.020056052345722e-06,5.537125125260234e-05,5.548067257636177e-05
208.2323988163086,162.4369120873426,12.5,0,7.954302924880108,7.67527359973539,-0.1962737772937461,1.931355047982803e-05,1.819743317924916e-05,-1.570190218349969e-06,5.67007178859069e-05,5.650006542035833e-05
210.3685946636545,162.9922905377392,12.5,0,7.894144577656753,7.909665398329725,-0.0395004480797771,1.893353032983783e-05,1.899561361252971e-05,-3.160035846382168e-07,5.732947158743781e-05,5.81851303497744e-05
208.1969471784353,163.7802603158456,12.5,0,8.440368181212246,7.843666048348645,-0.3261439765979066,2.073424534120027e-05,1.834743680974586e-05,-2.609151812783253e-06,5.90823638650697e-05,5.825474007383833e-05
210.3755951168549,164.461086078099,12.5,0,8.372279925621202,8.113054874771354,-0.1885874183293909,2.030085186217076e-05,1.926395165877137e-05,-1.508699346635127e-06,5.980455163958565e-05,6.020840576687751e-05
208.1485193404925,165.6153081221875,12.5,0,8.852118110977942,7.953306529359067,-0.2204896824868554,2.196413273164216e-05,1.836888640516666e-05,-1.763917459894843e-06,6.097639737064857e-05,6.068858831099942e-05
210.385157913765,166.4674980992811,12.5,0,8.755085254471744,8.20762494750435,-0.09433035418651399,2.14501728563061e-05,1.926033162843652e-05,-7.546428334921119e-07,6.153787261772639e-05,6.303163923093071e-05
211.9704760995155,164.9594851271492,12.5,0,8.871914059940201,8.466143178755827,-0.755642039784824,2.161721044880398e-05,1.999412692406648e-05,-6.045136318278592e-06,6.292714527189754e-05,6.162258220021478e-05
214.1491240379351,165.6403108894025,12.5,0,8.76711481487612,8.709431792316611,-0.5773320827314016,2.108722197375029e-05,2.085648988351226e-05,-4.618656661851213e-06,6.34147737813791e-05,6.35325183740838e-05
212.0224909874992,167.0913444601881,12.5,0,9.448963136835143,8.603672971701499,-0.6505644883429663,2.335374366051125e-05,1.997258299997668e-05,-5.20451590674373e-06,6.551753570409877e-05,6.476477535912884e-05
214.2591295607718,167.9435344372818,12.5,0,9.308449853447549,8.832365222275389,-0.4832349428063006,2.272114735321184e-05,2.08168088285232e-05,-3.865879542450405e-06,6.582160503055157e-05,6.715674039806936e-05
211.8803836707791,161.266996447802,12.5,0,7.711843496670875,8.039802492286213,-0.668708118959873,1.824605719551783e-05,1.955789317797919e-05,-5.349664951678984e-06,5.716758309852697e-05,5.642647223683945e-05
213.9585888832721,161.6510106833583,12.5,0,7.659515697610369,8.18915109378703,-0.4866145679673122,1.795912935732355e-05,2.00776709420302e-05,-3.892916543738498e-06,5.750975475866992e-05,5.766982574004893e-05
211.9323985587629,163.398855780841,12.5,0,8.267381404570642,8.174424653194453,-0.6039240830184464,1.991608077207049e-05,1.954425376656573e-05,-4.831392664147571e-06,5.966409440055418e-05,5.938834061242097e-05
214.0685944061088,163.9542342312376,12.5,0,8.178118429886609,8.310997589535734,-0.4305807340898799,1.952118090400856e-05,2.005269754260506e-05,-3.444645872719039e-06,5.98258678492601e-05,6.099050725288336e-05
207.4222313411841,153.6622288305576,12.5,0,5.731924847815776,6.962044612242172,-0.1449641056225836,1.277252382321674e-05,1.769300288092233e-05,-1.159712844980669e-06,4.607689348350201e-05,4.538490426560421e-05
209.5176471266859,153.9739083097423,12.5,0,5.680165116186746,7.015493369894341,0.02621136256522274,1.256413367588211e-05,1.790544669071249e-05,2.096909005217819e-07,4.60863991674398e-05,4.641992300935395e-05
207.7050911135828,155.6854073803028,12.5,0,6.184388423948955,7.066119751540046,-0.1429466284551609,1.413714715540462e-05,1.766407246576898e-05,-1.143573027641287e-06,4.808188380994252e-05,4.785452585596488e-05
209.7881002906204,156.000189139673,12.5,0,6.131169295041884,7.119643349953365,0.02929903530535694,1.392402706417134e-05,1.787792328381726e-05,2.343922824428555e-07,4.808507417147169e-05,4.894116806309226e-05
207.9121588383872,157.1664768714369,12.5,0,6.590669571289558,7.310118083509161,-0.2131905276582996,1.524204816131925e-05,1.811984221019767e-05,-1.705524221266397e-06,5.043750590765802e-05,4.971318488459872e-05
209.9860857476799,157.483529657522,12.5,0,6.53833828032375,7.380363803281571,-0.03541130949870331,1.501839145441074e-05,1.838649354624203e-05,-2.832904759896265e-07,5.050271624477193e-05,5.084175819257847e-05
208.1950186107858,159.1896554211823,12.5,0,7.067582612036719,7.417880052669886,-0.205549271221553,1.668196031638159e-05,1.808315007891426e-05,-1.644394169772424e-06,5.255157592708694e-05,5.232151419462823e-05
210.2565389116145,159.5098104874526,12.5,0,7.013710275426297,7.488298764515527,-0.02666040047608802,1.645323386975173e-05,1.835158782610864e-05,-2.132832038087042e-07,5.261059352899557e-05,5.351302193718116e-05
211.5043056164019,157.7156284056076,12.5,0,6.761258051173243,7.692901236925739,-0.564077343314333,1.548170477421378e-05,1.920827751722377e-05,-4.512618746514664e-06,5.246717440392125e-05,5.16347919848625e-05
213.5782325256947,158.0326811916926,12.5,0,6.695622620887802,7.712478208082439,-0.3817365175010762,1.525600982037501e-05,1.932343216915356e-05,-3.05389214000861e-06,5.229192271384063e-05,5.267282728961388e-05
211.7656765125916,159.7441802622531,12.5,0,7.245650341319966,7.809423900469972,-0.5733365422080515,1.693854197184791e-05,1.919363620844793e-05,-4.586692337664412e-06,5.463800335037486e-05,5.434891514367438e-05
213.8271968134202,160.0643353285236,12.5,0,7.178377606767868,7.828830626609548,-0.3898194250034361,1.670774384036954e-05,1.930955591973626e-05,-3.118555400027489e-06,5.445530945949487e-05,5.54411101110597e-05
211.0515979445898,154.2020735241724,12.5,0,5.891225410769371,7.310500629736028,-0.4837321528845047,1.300352081067316e-05,1.868062168653979e-05,-3.869857223076038e-06,4.794104252032583e-05,4.714876505784983e-05
213.1470137300915,154.5137530033571,12.5,0,5.830518163938283,7.329549099039607,-0.3097087038078379,1.279401884537082e-05,1.879014258577611e-05,-2.477669630462703e-06,4.778455821322653e-05,4.810497982136807e-05
211.3129688407794,156.230625380818,12.5,0,6.348575505009432,7.420531625966474,-0.4925160200535859,1.4379016315257e-05,1.866684079908517e-05,-3.940128160428687e-06,4.998342602210027e-05,4.970551758404298e-05
213.3959780178171,156.5454071401881,12.5,0,6.286347011772458,7.43942459240312,-0.317382229202232,1.416477076374937e-05,1.877708108627201e-05,-2.539057833617856e-06,4.981991624354903e-05,5.070711710298268e-05
215.4983445032806,161.8542883880203,12.5,0,7.894024587990958,8.399723799147498,-1.086054959800609,1.854109964225306e-05,2.056389648687922e-05,-8.688439678404872e-06,5.917617752446533e-05,5.842708325937876e-05
217.6268298760691,162.02563916967,12.5,0,7.84224738269024,8.376184695025888,-0.8576871356444877,1.839424386858806e-05,2.052999311793064e-05,-6.861497085155902e-06,5.887878498244804e-05,5.925259577347989e-05
215.6682271510952,164.1866365636605,12.5,0,8.499596082675653,8.551884940629897,-1.106809077227943,2.035719951205817e-05,2.056635494387515e-05,-8.854472617823546e-06,6.192087427328795e-05,6.186027731792988e-05
217.9023092366889,164.266193093268,12.5,0,8.476479513064366,8.536100642050291,-0.8913305761706197,2.029585392816574e-05,2.053433844410944e-05,-7.130644609364958e-06,6.175687913370936e-05,6.263436668617814e-05
215.7925898806146,165.8940339290972,12.5,0,9.064205274456937,8.951910005773517,-1.27136562570088,2.184392887364338e-05,2.13947477989097e-05,-1.017092500560704e-05,6.543654121904192e-05,6.449837364656365e-05
218.1039741250906,165.9063924023697,12.5,0,9.029861947128923,8.830187252893001,-0.978413962153608,2.183140842849815e-05,2.103270965155446e-05,-7.827311697228864e-06,6.483787625247187e-05,6.522720314998002e-05
215.9624725284294,168.2263821047375,12.5,0,9.787616035813054,9.140378542427342,-1.332893175182571,2.40080684806599e-05,2.141911850711705e-05,-1.066314540146057e-05,6.875309251234389e-05,6.827259279340727e-05
218.3794534857104,168.1469463259677,12.5,0,9.783329274033258,9.031918119779164,-1.056467049978917,2.40811191810831e-05,2.107547456406671e-05,-8.451736399831336e-06,6.831445455926453e-05,6.892919319240693e-05
219.7960248277893,165.9154394327089,12.5,0,9.195704892815957,9.072529529963003,-1.706654287279812,2.216823203304066e-05,2.167553058162884e-05,-1.36532342982385e-05,6.641451895696699e-05,6.563998087546219e-05
222.1074090722652,165.9277979059814,12.5,0,9.122775401665113,8.796590503964829,-1.410992320492489,2.215560888215649e-05,2.085086929135536e-05,-1.128793856393991e-05,6.510621443619883e-05,6.603888109034376e-05
220.1488063472913,168.088795299972,12.5,0,9.87860994102949,9.279048478558954,-1.835844186223664,2.41883130284472e-05,2.179006717856506e-05,-1.468675348978931e-05,6.966001841969175e-05,6.926253609659965e-05
222.5657873045723,168.0093595212023,12.5,0,9.838217822979866,9.026069585453399,-1.560904000121131,2.426144136517285e-05,2.101284841506698e-05,-1.248723200096905e-05,6.855699312146722e-05,6.95166454482358e-05
219.1849893120513,162.1510766477489,12.5,0,8.082397472568138,8.644774898496944,-1.510294132430249,1.894785199342048e-05,2.119736169713571e-05,-1.208235305944199e-05,6.080733767678029e-05,5.977685460836726e-05
221.31347468484,162.3224274293987,12.5,0,7.968945370535032,8.389281555764466,-1.256637172220445,1.878919994110053e-05,2.047054468201826e-05,-1.005309737776356e-05,5.943092504189495e-05,6.038364386755614e-05
219.5377708315534,164.324432515012,12.5,0,8.696159901580227,8.832153784779097,-1.630735666238833,2.076198865723345e-05,2.130596419002893e-05,-1.304588532991067e-05,6.372343121249591e-05,6.309830018111057e-05
221.7718529171471,164.4039890446195,12.5,0,8.617544863603733,8.599831729542547,-1.397048699964079,2.069627817989791e-05,2.062542564365316e-05,-1.117638959971263e-05,6.256040007762738e-05,6.359170069240465e-05
221.0160179228633,146.5392681350454,12.5,0,4.293833993526396,6.853237510737795,-1.37487882712406,8.257678770694232e-06,1.849529283953983e-05,-1.099903061699248e-05,4.072335918445445e-05,4.004401855292788e-05
222.8819857522147,147.2542254664789,12.5,0,4.238026205943065,7.008762889532632,-1.302001646122741,7.954673547391701e-06,1.903762028174997e-05,-1.041601316898193e-05,4.108950429014932e-05,4.103015101965137e-05
220.7939367619107,148.277826352195,12.5,0,4.58052846590728,6.947951633688668,-1.289291037049082,9.099329783952359e-06,1.856902245507791e-05,-1.031432829639266e-05,4.206129045882839e-05,4.201449742838865e-05
222.3582332413558,148.7877243635564,12.5,0,4.530742281648895,7.142662245321695,-1.195471646051863,8.784245505019108e-06,1.92319253597103e-05,-9.563773168414901e-06,4.258955861878232e-05,4.276965779037396e-05
224.247969008531,147.7776105583098,12.5,0,4.609861575750903,6.720123992672502,-1.702138937636452,9.375457848264887e-06,1.781650751595128e-05,-1.361711150109162e-05,4.142061996347781e-05,4.174009545002612e-05
226.1139368378824,148.4925678897434,12.5,0,4.639625113723642,7.067111605028167,-1.694690349107687,9.193111079893119e-06,1.890305704511122e-05,-1.35575227928615e-05,4.280282601113052e-05,4.269356723771948e-05
223.503377742362,149.1609956145354,12.5,0,4.787962442688898,6.921610515001186,-1.557991296447176,9.784191404603525e-06,1.831878369385267e-05,-1.246393037157741e-05,4.275316566618615e-05,4.330820176171668e-05
225.0676742218072,149.6708936258967,12.5,0,4.837374713808326,7.365969407138389,-1.538630784089442,9.586823558475931e-06,1.970120233179618e-05,-1.230904627271554e-05,4.456287398407318e-05,4.402437089161215e-05
225.5376389123844,145.3815173545388,12.5,0,4.167087034245468,6.473889629773953,-1.777060287014997,8.155566805766336e-06,1.738277718788027e-05,-1.421648229611998e-05,3.898178412256452e-05,3.90967333461121e-05
227.9261168469521,146.4516478468965,12.5,0,4.192510438263989,6.897670369336063,-1.779981043828095,7.897897106975914e-06,1.871853683126421e-05,-1.423984835062476e-05,4.06372675451794e-05,4.042017781759874e-05
224.7930476462155,146.7649024107643,12.5,0,4.329455673579329,6.659465315323844,-1.644344804578308,8.526685903194775e-06,1.784672447017284e-05,-1.315475843662647e-05,4.019729435509772e-05,4.061163588915082e-05
226.8798542308768,147.6299735830498,12.5,0,4.367245030966124,7.164262811023669,-1.641173986056309,8.243773850272662e-06,1.943184497050284e-05,-1.312939188845047e-05,4.219585066011035e-05,4.17278266142018e-05
221.4006737770302,143.5279969710799,12.5,0,3.724843241556892,6.55377322010078,-1.386553407769158,6.67647979690143e-06,1.799219971107698e-05,-1.109242726215326e-05,3.763129047822006e-05,3.674913302848478e-05
223.7891517115979,144.5981274634375,12.5,0,3.659066692047465,6.760820595705892,-1.321670609560473,6.300356937987174e-06,1.870737255262088e-05,-1.057336487648379e-05,3.815882875269347e-05,3.811307985952115e-05
221.1785926160776,145.2665551882296,12.5,0,3.956145961425456,6.634571697544358,-1.303830147545348,7.352009718525972e-06,1.806571266300158e-05,-1.043064118036278e-05,3.871705700298631e-05,3.863316841416196e-05
223.265399200739,146.131626360515,12.5,0,3.890676800332445,6.877617432367453,-1.225043137698968,6.948071815169861e-06,1.889583434330989e-05,-9.800345101591747e-06,3.937620473462172e-05,3.978242472362561e-05
237.7573913717687,133.1584615135076,12.5,0,1.937879985842571,5.3294732766689,-2.510798663724648,1.937637333361107e-06,1.550401049666642e-05,-2.008638930979718e-05,2.746872749957035e-05,2.663715464836718e-05
239.9716146665526,133.64993365955,12.5,0,1.801700666554362,5.147598726043929,-2.334202587392522,1.647363152138816e-06,1.503095539009708e-05,-1.867362069914017e-05,2.624878807149934e-05,2.700340234343693e-05
237.8193485376083,135.2624317431029,12.5,0,2.347981451656112,5.436083157016522,-2.570796874448722,3.164674119686341e-06,1.551708094112798e-05,-2.056637499558978e-05,2.925445915261448e-05,2.861977431348368e-05
240.0445632510825,135.7407560215562,12.5,0,2.215573440008912,5.255948388886114,-2.395564817619575,2.885076296919625e-06,1.504657609242843e-05,-1.91645185409566e-05,2.805296975954682e-05,2.896815734986258e-05
237.8647043308939,136.8026448487135,12.5,0,2.679756971135845,5.593574596542791,-2.633579611098822,4.100362630400471e-06,1.575563313202825e-05,-2.106863688879058e-05,3.097960333634655e-05,3.009890641977489e-05
240.0979653212963,137.2713442200808,12.5,0,2.53950670465203,5.393503107167751,-2.447751401574031,3.811618969152295e-06,1.522760457921518e-05,-1.958201121259225e-05,2.96727495596875e-05,3.043146391999866e-05
237.9266614967335,138.9066150783087,12.5,0,3.107634122416682,5.705064700094316,-2.699699288383867,5.380377431657928e-06,1.577009974236846e-05,-2.159759430707094e-05,3.287208243134349e-05,3.215735082032415e-05
240.1709139058262,139.362166582087,12.5,0,2.971274198272645,5.506847164360728,-2.515315744258618,5.10259970298388e-06,1.524489156733621e-05,-2.012252595406895e-05,3.158610726693701e-05,3.24645368104041e-05
241.732825832763,137.6144559733827,12.5,0,2.972195295174968,5.424348161109505,-2.927658946605459,5.171546415672293e-06,1.498015787941044e-05,-2.342127157284367e-05,3.151677527880997e-05,3.064624286996705e-05
243.9660868231653,138.08315534475,12.5,0,2.819603959407352,5.185447797426811,-2.733810187730357,4.874374432162075e-06,1.433774978423991e-05,-2.187048150184285e-05,3.001701039570678e-05,3.090047237347817e-05
241.8138206942211,139.6956534283029,12.5,0,3.408414693700966,5.540591964064697,-3.00788645792732,6.474453448591331e-06,1.500316253004626e-05,-2.406309166341856e-05,3.346994348505476e-05,3.265815918191388e-05
244.0580731033138,140.1512049320812,12.5,0,3.259891105016016,5.303807434590051,-2.815648758248978,6.18860558837921e-06,1.436427090667535e-05,-2.252519006599183e-05,3.199335578643443e-05,3.287995934830312e-05
241.592538617568,134.0097162409427,12.5,0,2.22929354197621,5.188157229981774,-2.800283794048334,2.983213550338452e-06,1.481866830236071e-05,-2.240227035238667e-05,2.80890066774843e-05,2.724779256966557e-05
243.8067619123518,134.501188386985,12.5,0,2.080004497689848,4.967955316233401,-2.614218171655762,2.681650139620793e-06,1.423345341379501e-05,-2.09137453732461e-05,2.667350869159006e-05,2.75492313895541e-05
241.6735334790261,136.0909136958628,12.5,0,2.651305309823452,5.300264642193765,-2.87429881675182,4.243965277680032e-06,1.483980260716129e-05,-2.299439053401455e-05,2.995143785189218e-05,2.919653950550392e-05
243.8987481925002,136.5692379743161,12.5,0,2.505996087054721,5.08206827500192,-2.689770985322894,3.953532858573571e-06,1.425782161036237e-05,-2.151816788258315e-05,2.855682315009837e-05,2.947210812190582e-05
227.9251670348093,93.11189540268033,12.5,0,-5.675678442170172,2.936250553737661,-0.9844509537176892,-2.051117145793468e-05,1.393654452569665e-05,-7.875607629741514e-06,4.561150376859266e-06,4.565878117598372e-06
229.9424311619744,92.98789030171807,12.5,0,-5.722127684689724,2.671599305374244,-0.8623959634990831,-2.044808803530651e-05,1.312681992494936e-05,-6.899167707992665e-06,4.114928006984115e-06,4.575564726733451e-06
228.8077326321942,95.29791240823165,12.5,0,-5.273001770714012,3.14830839425849,-1.151277870853866,-1.939225238169163e-05,1.429298827819838e-05,-9.210222966830927e-06,5.040945516071566e-06,4.849657198550079e-06
230.8036882539837,95.16827543129396,12.5,0,-5.318620729795379,2.881855308361767,-1.028608443235334,-1.932507058203462e-05,1.347683357059396e-05,-8.22886754588267e-06,4.524458750315377e-06,4.858098137677037e-06
229.4538154904648,96.89818792243676,12.5,0,-4.994047316662588,3.134701041112455,-1.121973615840081,-1.848871224621024e-05,1.402628118488992e-05,-8.975788926720652e-06,5.067883714875592e-06,5.105334405427493e-06
231.4341722036867,96.76442812614332,12.5,0,-5.039042228476462,2.869390836306852,-1.002503045387397,-1.842044780017016e-05,1.32132844589631e-05,-8.020024363099179e-06,4.53219762919481e-06,5.112307782531318e-06
230.3363810878496,99.08420492798808,12.5,0,-4.589455773048762,3.34978345721373,-1.291509981969711,-1.736608523952702e-05,1.439087168152295e-05,-1.033207985575769e-05,5.719664962941663e-06,5.520078444031876e-06
232.2954292956961,98.94481325571921,12.5,0,-4.633586889401931,3.082645245066624,-1.17144801768318,-1.729359424213948e-05,1.357133429573474e-05,-9.371584141465439e-06,5.096632177299743e-06,5.524288037133196e-06
232.8838939348137,96.66650915925058,12.5,0,-4.981929883558459,3.089584402186559,-1.311199428243086,-1.841384314913631e-05,1.387221399384376e-05,-1.048959542594469e-05,5.078049450238192e-06,5.117148792093748e-06
234.8642506480356,96.53274936295713,12.5,0,-5.025742141100392,2.828217572098835,-1.190464768839429,-1.834494890920032e-05,1.307088994359658e-05,-9.523718150715433e-06,4.54490389845911e-06,5.123401299074967e-06
233.7295521182555,98.84277146947073,12.5,0,-4.577245781950387,3.298361698177489,-1.476755928066654,-1.728587586078323e-05,1.421655405972827e-05,-1.181404742453323e-05,5.724228981023394e-06,5.527026284885926e-06
235.6886003261019,98.70337979720183,12.5,0,-4.620177881983659,3.035174063095074,-1.355401785366563,-1.721270847282377e-05,1.340869930749116e-05,-1.084321428293251e-05,5.106392483428831e-06,5.530297723769095e-06
231.4191709952824,92.89711226741983,12.5,0,-5.662963906388691,2.898515071453401,-1.174779841908991,-2.044029655760653e-05,1.380561935376183e-05,-9.398238735271929e-06,4.574290423606829e-06,4.582499301837722e-06
233.4364351224474,92.77310716645755,12.5,0,-5.708065467665752,2.638622454097475,-1.051587862734485,-2.037670745980838e-05,1.301004422724452e-05,-8.412702901875878e-06,4.129554294066813e-06,4.591758304217217e-06
232.2648291787242,95.07337457763995,12.5,0,-5.260701236682351,3.103949767809571,-1.337272192628318,-1.931740377163118e-05,1.414120024633651e-05,-1.069817754102654e-05,5.051151883418321e-06,4.864063549764454e-06
234.2607848005137,94.94373760070226,12.5,0,-5.3049566522683,2.842269179595991,-1.21343808917357,-1.924967663093535e-05,1.333922669652181e-05,-9.707504713388562e-06,4.538201029011493e-06,4.871920419549095e-06
269.3915884588637,147.1166384478523,12.5,0,5.754278414515152,3.266971376339291,-4.147679311237713,1.580011382537705e-05,5.850885672673608e-06,-3.318143448990171e-05,3.452265107762155e-05,3.412295142989878e-05
271.6176658898715,147.5114014079673,12.5,0,5.555048603108063,2.86795507886967,-3.898530046149355,1.548179146685006e-05,4.733417369896494e-06,-3.118824036919484e-05,3.229740115058144e-05,3.385917646765252e-05
269.7436734388648,149.2348811840421,12.5,0,6.334378138643754,3.466851544058964,-4.314935482017099,1.749652880841284e-05,6.026422430073682e-06,-3.45194838561368e-05,3.738478716824514e-05,3.57477965395511e-05
271.9910414959575,149.638169881248,12.5,0,6.135635008326245,3.071007339685688,-4.06766993228826,1.717722615489543e-05,4.918715480333206e-06,-3.254135945830608e-05,3.517535051438987e-05,3.544246542015556e-05
270.0014175327964,150.7855424896307,12.5,0,6.564130511518703,3.211971348408855,-4.191513465803745,1.843564055813276e-05,5.027003905693373e-06,-3.353210772642995e-05,3.727281672878752e-05,3.692819269629787e-05
272.2643714099077,151.195072459559,12.5,0,6.354798967062866,2.798412525296586,-3.931202249404913,1.80966266743639e-05,3.871080907298782e-06,-3.144961799523931e-05,3.496589827012726e-05,3.659071633043505e-05
270.3535025127974,152.9037852258204,12.5,0,7.159591900338638,3.416660924543629,-4.362042928482271,2.017736534144874e-05,5.2056414382687e-06,-3.489634342785817e-05,4.021986168626639e-05,3.852824986007383e-05
272.6377470159937,153.3218409328396,12.5,0,6.950795384554514,3.006344388543495,-4.103678788617583,1.983746971973965e-05,4.059665735695571e-06,-3.282943030894067e-05,3.792893103213657e-05,3.814450720478615e-05
273.9209686230677,151.4948692047558,12.5,0,6.738279622111619,2.814130033074568,-4.175053711009768,1.931119076429753e-05,3.61459240814932e-06,-3.340042968807814e-05,3.657749419276225e-05,3.633166442100532e-05
276.1839225001789,151.904399174684,12.5,0,6.533169251211977,2.41506659865519,-3.917035670645132,1.897408832495417e-05,2.501677714727025e-06,-3.133628536516105e-05,3.434726525577419e-05,3.59613978084783e-05
274.3099300491722,153.6278789507587,12.5,0,7.335455142582285,3.022801995155818,-4.345055705322679,2.105521486013865e-05,3.804602270432791e-06,-3.476044564258143e-05,3.954442785717293e-05,3.785290372814961e-05
276.5941745523684,154.0459346577778,12.5,0,7.130836238745472,2.626830072004326,-4.088957917054345,2.071721190638205e-05,2.701187239417466e-06,-3.271166333643476e-05,3.73285632798731e-05,3.743997086956866e-05
273.2472676708823,147.8003879517055,12.5,0,5.941272107174045,2.89386398535762,-4.154748996008012,1.669697955467085e-05,4.507347067405146e-06,-3.323799196806409e-05,3.395867237969955e-05,3.365211324061313e-05
275.4733451018901,148.1951509118205,12.5,0,5.744811593583915,2.504933553380097,-3.906825065813358,1.637945025676445e-05,3.419938095949177e-06,-3.125460052650687e-05,3.178885013841584e-05,3.335018094618453e-05
273.6362290969868,149.9333976977085,12.5,0,6.525008557309729,3.098770200983186,-4.32294886386933,1.840101122260458e-05,4.696057797298411e-06,-3.458359091095464e-05,3.685271141068075e-05,3.520606600233261e-05
275.8835971540796,150.3366863949144,12.5,0,6.328999447210971,2.712896565139144,-4.076887978836288,1.808248097896379e-05,3.618069450676484e-06,-3.26151038306903e-05,3.469728746557183e-05,3.486554190132869e-05
245.8513868530915,142.0197717834986,12.5,0,4.048029880290123,5.427425949220748,-3.319944800677608,8.611754857551794e-06,1.412933913327429e-05,-2.655955840542086e-05,3.544618591377893e-05,3.448838182945493e-05
248.0642756645076,142.5045706790428,12.5,0,3.832837064644727,5.016689421603248,-3.083245026026986,8.251727069580526e-06,1.298713649741461e-05,-2.466596020821589e-05,3.30879764435273e-05,3.464017175625677e-05
246.1980156620766,144.1208985222652,12.5,0,4.582507560274816,5.616898585683501,-3.487512776420597,1.017050532433261e-05,1.430806942596735e-05,-2.790010221136478e-05,3.807916622649488e-05,3.652918007856559e-05
248.411874814868,144.6048633124499,12.5,0,4.367702762799906,5.206473341535663,-3.251022560541285,9.811470167731169e-06,1.31665524826742e-05,-2.600818048433028e-05,3.572615673473106e-05,3.664740243685887e-05
246.45176556161,145.6590300481185,12.5,0,4.874259010760249,5.587283346191372,-3.480431047953584,1.11278021574797e-05,1.397989949920419e-05,-2.784344838362867e-05,3.898876734770427e-05,3.803623499966496e-05
248.6663350535887,146.1423842308012,12.5,0,4.645875016527432,5.144944369807506,-3.230910709583695,1.075084455704178e-05,1.274712197016207e-05,-2.584728567666956e-05,3.646960828551232e-05,3.81268634935302e-05
246.7983943705952,147.7601567868852,12.5,0,5.435964828080003,5.787946396906964,-3.660239299471245,1.276473033233043e-05,1.417265660763828e-05,-2.928191439576996e-05,4.177899887037024e-05,4.011278736496954e-05
249.0139342039491,148.2426768642083,12.5,0,5.20798940900514,5.345940603739407,-3.41094130566961,1.238881362582492e-05,1.294061840476199e-05,-2.728753044535688e-05,3.926590129224088e-05,4.016159558774555e-05
250.2875124385402,146.4962240505608,12.5,0,5.190647930621009,5.249039216749559,-3.700281334683613,1.241084200458758e-05,1.264440714910178e-05,-2.96022506774689e-05,3.903150536911988e-05,3.816485729781219e-05
252.5020819305188,146.9795782332434,12.5,0,4.955259509029736,4.792259247779698,-3.443432709377973,1.202302303067139e-05,1.137102198567124e-05,-2.754746167502378e-05,3.643716673983415e-05,3.81780298076226e-05
250.6358219280879,148.5959060764659,12.5,0,5.76829853156922,5.455974282705832,-3.885937643512876,1.409377587485684e-05,1.284447887940328e-05,-3.108750114810301e-05,4.191093394478084e-05,4.016786865423568e-05
252.8513617614418,149.078426153789,12.5,0,5.53333093008721,4.999538538143372,-3.629318390943495,1.370702814576437e-05,1.157185857798902e-05,-2.903454712754796e-05,3.932306611365806e-05,4.013619876783069e-05
249.684222705896,142.8594681020193,12.5,0,4.359296138188656,5.13138792750034,-3.550218689446656,9.844637300203423e-06,1.293300445745016e-05,-2.840174951557325e-05,3.561306654153012e-05,3.472502351367387e-05
251.8971115173121,143.3442669975635,12.5,0,4.135901715376507,4.7020080069704,-3.305600051630817,9.473279083628504e-06,1.173770425000407e-05,-2.644480041304653e-05,3.315855954016751e-05,3.480505289925688e-05
250.0325321954437,144.9591501279245,12.5,0,4.910524566314889,5.327928046587078,-3.725156875756576,1.145133617493798e-05,1.312095009602674e-05,-2.980125500605261e-05,3.834202887038776e-05,3.670645133791639e-05
252.246391348235,145.4431149181091,12.5,0,4.687531438589153,4.898873037429963,-3.480755914208006,1.108100217354132e-05,1.192636856890456e-05,-2.784604731366404e-05,3.589329403543815e-05,3.674955357745019e-05
238.2841900087865,231.9324491440935,12.5,0.898623011757911,15.83265328270917,10.16678100700943,-4.889307845721109,0.0004195337268996126,0.0001959771831928853,-0.0003858317695566498,0.0009412570908183999,0.0007796737548736229
240.2533329993707,231.731701645462,12.5,0.8925091081352261,16.25221534037588,8.046855526236106,-4.709534089136706,0.0004239392182692239,0.0001185976336273433,-0.0003505066527914876,0.0008334406444873382,0.0007443571466876885
239.5224864942337,233.5492753036255,12.5,0.9057985429331619,16.22248678110928,11.27097512734221,-5.621602271649816,0.0004553557761557848,0.0002451037563699823,-0.0004774110674454777,0.00107185960178616,0.0008257968729902968
241.5048431803934,233.3646230114541,12.5,0.8964382398251194,17.30248106627002,9.738977002444091,-5.711348263412073,0.0004594046849895929,0.0001672696710209719,-0.0004411936030262558,0.0009622523678885794,0.0007666645109532065
236.1393975811967,229.1320240888279,12.5,0.8822873093752658,15.76275734050947,10.10607617240321,-4.396735080440518,0.0003598249460352385,0.0001676050201093366,-0.0002988112875242806,0.000805306603394395,0.0006921073999762512
238.0856537796888,228.9033988748496,12.5,0.880245874556506,15.75897757390527,8.513321405580383,-3.991435334857069,0.0003642302171261212,0.0001222124614457541,-0.0002666420264070439,0.0007442582276604052,0.0006825586171606107
237.3776940666438,230.7488502483599,12.5,0.8924172880357329,15.79559292418859,10.56398597693786,-4.854283437389469,0.000391277630088324,0.0001967628478624075,-0.0003609712637845969,0.0008984889010369976,0.0007438517685440818
239.3371639607114,230.5363202408417,12.5,0.8882863087681137,16.12938622163068,9.307330793148619,-4.583044008142335,0.0003953693659895143,0.0001511000968156444,-0.0003281992713769859,0.0008363274265810526,0.0007218210403679661
232.768382960923,229.5280145753225,12.5,0.871711864194012,16.17912603485003,10.55909750876482,-4.530242620794613,0.0003377235551230602,0.0001624921203289822,-0.0002825042295506276,0.0007635512789494264,0.0006453933751936015
234.7146391594152,229.2993893613442,12.5,0.8801569952523579,15.06611724966462,8.892152495519412,-3.613066724779125,0.0003429307642031551,0.0001368623410308238,-0.0002411866579872422,0.0007323046843741317,0.0006821490034049938
233.9837926542781,231.1169630195078,12.5,0.8841960427537485,16.17126746953973,10.50807181116354,-4.799864986221761,0.0003742669895246541,0.0001786537896636621,-0.0003315855589297407,0.0008448016182750493,0.0007012862430127113
235.9432625483457,230.9044330119896,12.5,0.8914092498396311,15.10575064095862,8.964083484248732,-3.933570426682762,0.0003791035166703627,0.0001528718294358695,-0.000289790459749,0.000812671058044126,0.0007383494861761757
234.8735343017879,232.2801540112094,12.5,0.892443725840289,16.38766703779822,10.88598442994019,-4.864702409722307,0.0004065941045156006,0.000201987440670457,-0.0003618349518131264,0.0009294726776989806,0.0007439972100741349
236.8426772923721,232.0794065125779,12.5,0.8986070907655426,15.27624060696026,8.813719512036524,-3.898696070987484,0.0004125830361165635,0.000157633409215928,-0.0003076109444278613,0.0008713444646764868,0.0007795773101486977
236.088943995143,233.8691024553946,12.5,0.9026359767993866,16.61249552808377,11.1399360605869,-5.289149138834762,0.0004544598239354571,0.0002296310098581691,-0.0004345875583170386,0.001045828127969847,0.0008047928743121963
238.0713006813026,233.6844501632232,12.5,0.9072775896741786,15.64592390027073,9.272490476696307,-4.4002959127537,0.0004599639283496104,0.0001850170885865571,-0.0003796532809957208,0.0009863957504438728,0.0008360133371607405
249.6160595155348,237.2448639196778,12.5,0.743733726787555,13.13630786094027,-0.01824592563276894,-0.5155044459936973,0.0001640901916915729,-4.123614519502793e-05,-1.609277536311128e-05,0.0001968362649820496,0.0003569883719758962
251.6951685154544,237.0787843354867,12.5,0.6253606328878483,19.62154103487524,3.327962327916997,-2.759311098831821,0.0001604918402268913,-1.347363310341785e-05,-5.892196797366029e-05,0.0002298061667386394,0.0002531331010353925
250.7141833237769,239.2617635122628,12.5,0.6812272488370572,10.70275891107661,-3.068348062363431,1.622824563780995,0.0001151400388879997,-5.766151862531292e-05,4.072680761729166e-05,0.0001027525365417851,0.0002933787518112535
252.7342972002662,239.2172626218009,12.5,0.5387592597991316,16.48363476085144,0.1744966540869024,-0.4463170243896892,0.0001140576478316823,-2.737945158552864e-05,-7.741155288152907e-06,0.0001385041522330709,0.0002087876469170656
247.7140532866926,233.7514913516184,12.5,0.8012103176416834,14.71782884426902,1.8038614791032,-2.62539826195164,0.0002296596210465663,-3.019224273152462e-05,-0.0001056553129239126,0.0003144317797698614,0.0004462108723536543
249.8953448377903,233.3748312927742,12.5,0.7148007464303354,21.23203863522267,5.170940271256237,-4.815744532211927,0.0002237234867100448,-1.537949467497594e-06,-0.0001350843516435951,0.000346135542056378,0.0003244107338517855
248.8121770949347,235.7683909442034,12.5,0.7733414223478675,13.81664480601355,0.1828519361051835,-1.617648366561684,0.0001944200933705303,-4.618483781955278e-05,-5.709550931866847e-05,0.0002373772580389633,0.0003979396152514939
250.9344735226022,235.5133095790884,12.5,0.6697748925574928,20.49053385099963,3.552475423159369,-3.736817635726881,0.0001899544479536351,-1.521539584195455e-05,-9.052776549105896e-05,0.0002736187279820356,0.0002841142138049799
243.9359454941386,234.4038857107067,12.5,0.8815571580382021,15.62506185055518,3.968632183369521,-4.111396065766234,0.0003953408361324513,1.684977353065293e-06,-0.0002776965495030799,0.000619469297480328,0.0006886608823681842
246.1172370452363,234.0272256518625,12.5,0.8423041721919138,20.85579653845668,5.980479511968913,-5.708647934562562,0.0003928713027771645,1.555461068076147e-05,-0.0002896029914759654,0.0006357294657839238,0.0005438114054885023
245.1362518535589,236.2102048286386,12.5,0.8751657798552775,15.82753480325975,3.689247836281599,-3.995083756914313,0.0003820804347246316,-6.86057689561247e-06,-0.000256024910623561,0.0005862617919707586,0.0006599258135817151
247.2585482812263,235.9551234635236,12.5,0.8253091484370567,22.25993840697208,6.01709979581385,-5.891859162011667,0.0003802037855527214,8.281879721133353e-06,-0.0002698187848669915,0.0006052267138991659,0.0004986380299147844
246.0149370932651,237.5325221975916,12.5,0.8642527687523749,15.15442331418079,0.6980514029052927,-1.416888019498965,0.0003531247970399611,-7.285433427372916e-05,-8.350154954773733e-05,0.0004454966393743325,0.000616132726896203
248.0940460931847,237.3664426134005,12.5,0.8052727909336893,22.27147249217096,5.252363233193324,-4.555193711862966,0.0003444142280371002,-5.184769259309447e-06,-0.0001871415395395219,0.0005281339837781012,0.0004542538285750728
247.2152434526853,239.3388413155235,12.5,0.8356697292816977,11.85483971023178,-3.052282874731269,1.120235994818557,0.0002457083116581861,-0.0001171493047700638,5.453583152620171e-05,0.0002252453217837529,0.0005252228578324981
249.2353573291747,239.2943404250616,12.5,0.7598527637879539,18.60743390128531,1.468325294105675,-1.928323294889796,0.0002430555902683362,-4.242108441712342e-05,-6.423803414292448e-05,0.0003172135305423925,0.0003781673110301768
277.0968197019483,148.4201481795615,12.5,0,6.062232213233715,2.526249885059732,-4.131911040403564,1.73781431743001e-05,3.23421386160417e-06,-3.305528832322851e-05,3.31706774417977e-05,3.308706557826146e-05
279.3061573632858,148.6400891865049,12.5,0,5.924104335632191,2.182899532816306,-3.909508551944608,1.721081424776996e-05,2.245995036506427e-06,-3.127606841555686e-05,3.138928671936671e-05,3.267015331924152e-05
277.5275461302949,150.5697970060799,12.5,0,6.617955139926925,2.724799538685089,-4.29149020783967,1.899761681681809e-05,3.424994411850742e-06,-3.433192166271736e-05,3.593657235151882e-05,3.457454769078432e-05
279.7715302014644,150.8033783423886,12.5,0,6.479187371849545,2.385470549069683,-4.071545587107524,1.882502315066279e-05,2.450155859543349e-06,-3.257236469686019e-05,3.416870812510027e-05,3.412006082383885e-05
277.8428597599939,152.1434491654553,12.5,0,6.847711414932139,2.427218348641717,-4.129122035279574,1.997090184886947e-05,2.288929583707782e-06,-3.303297628223659e-05,3.568007881496377e-05,3.564913574955163e-05
280.1122067634591,152.3870159158908,12.5,0,6.700647471674078,2.074256503629524,-3.896320449981483,1.978266670645343e-05,1.277102834275215e-06,-3.117056359985186e-05,3.383970701926703e-05,3.516628655177864e-05
278.2735861883406,154.2930979919737,12.5,0,7.412061576136233,2.627749248143202,-4.289002485973218,2.161639764512138e-05,2.479148333149259e-06,-3.431201988778575e-05,3.849367110211968e-05,3.709748281091268e-05
280.5775796016377,154.5503050717745,12.5,0,7.264459462604202,2.278836914976149,-4.058743991487864,2.142320074835253e-05,1.480710557840315e-06,-3.246995193190291e-05,3.666676523487478e-05,3.657472089222006e-05
281.7734840699292,152.5653191522365,12.5,0,6.914322742763368,2.077962541633534,-4.069861160449717,2.046346274353595e-05,1.118021939016615e-06,-3.255888928359774e-05,3.475440912450489e-05,3.480789994433066e-05
284.0428310733944,152.808885902672,12.5,0,6.772336568372732,1.741189369759265,-3.841540984109919,2.027852552298533e-05,1.539367285314629e-07,-3.073232787287935e-05,3.29983217077423e-05,3.431161872176191e-05
282.2642198404035,154.7385937222471,12.5,0,7.47638522553319,2.283012691690396,-4.230316745783281,2.209802256835389e-05,1.324532432982715e-06,-3.384253396626624e-05,3.757315850239924e-05,3.618835666997603e-05
284.5682132537005,154.9958008020478,12.5,0,7.333804625238916,1.95000958623643,-4.004454096520312,2.190816713177539e-05,3.729869757654412e-07,-3.20356327721625e-05,3.582837557660625e-05,3.565555190322626e-05
280.9235047823915,148.8010971782486,12.5,0,6.143209882228652,2.194579431195683,-4.09483110269928,1.790260807817514e-05,2.108086274043262e-06,-3.275864882159424e-05,3.235963091756235e-05,3.23585179776331e-05
283.132842443729,149.0210381851921,12.5,0,6.008881766498415,1.863430834440287,-3.875887485483783,1.77376769852427e-05,1.155873257010186e-06,-3.100709988387027e-05,3.064399206641155e-05,3.192402664990855e-05
281.4142405528659,150.974371748259,12.5,0,6.698644857452417,2.398893705874189,-4.256336195831056,1.951654857914838e-05,2.31754397283547e-06,-3.405068956664845e-05,3.514338787191436e-05,3.378169775960784e-05
283.6582246240353,151.2079530845677,12.5,0,6.563628941228375,2.071531619583941,-4.039771756806146,1.934638731626364e-05,1.37799802968591e-06,-3.231817405444917e-05,3.343926706343315e-05,3.331175954363021e-05
278.6158509008588,155.8724613485752,12.5,0,7.627290927491007,2.303829350965493,-4.09432392004124,2.256426748719882e-05,1.270421181096774e-06,-3.275459136032992e-05,3.809753292090506e-05,3.813975464157003e-05
280.9403422788988,156.138948590853,12.5,0,7.469008852637899,1.931795917150679,-3.851332545523156,2.235539159472073e-05,2.065398527718518e-07,-3.081066036418525e-05,3.616116669888201e-05,3.758749446182725e-05
279.1202090567896,158.0377134560879,12.5,0,8.210018265671126,2.521373066343563,-4.266954776220003,2.425495999707275e-05,1.500379199762501e-06,-3.413563820976002e-05,4.104899908259084e-05,3.953894717698374e-05
281.4660555061291,158.3159142443914,12.5,0,8.050493071448912,2.151419898087425,-4.02518950463047,2.404044191016657e-05,4.441492167206289e-07,-3.220151603704376e-05,3.911509605951766e-05,3.89460089702332e-05
279.4894248521271,159.6227880099155,12.5,0,8.404130983640181,2.152460430483772,-4.032139087685412,2.517125080326156e-05,1.645685906359259e-07,-3.225711270148329e-05,4.042566224066458e-05,4.054262039929165e-05
281.8509042986565,159.9095637090461,12.5,0,8.240929825331962,1.781883329086577,-3.783717264652919,2.494546877779302e-05,-8.907172071885225e-07,-3.026973811722335e-05,3.848645891541142e-05,3.991970435133656e-05
279.993783008058,161.7880401174282,12.5,0,8.988953640172394,2.368834626648977,-4.202084537418919,2.686958394723248e-05,3.891078931388126e-07,-3.361667629935136e-05,4.338391290011533e-05,4.188551410153612e-05
282.376617525887,162.0865293625844,12.5,0,8.824557092991796,2.000302233937768,-3.954926826523375,2.663834091042353e-05,-6.58678525792579e-07,-3.1639414612187e-05,4.144655005386196e-05,4.122137509531321e-05
283.5796272344721,160.1194980911768,12.5,0,8.430142447003078,1.78136259169325,-3.928378560461482,2.555136575705524e-05,-1.043753664184063e-06,-3.142702848369185e-05,3.927467536192625e-05,3.946452618929083e-05
285.9411066810014,160.4062737903074,12.5,0,8.276987708064107,1.441447383195709,-3.689166597821148,2.533320275924857e-05,-2.008958540225016e-06,-2.951333278256919e-05,3.748719932330225e-05,3.884387237198833e-05
284.1209734588924,162.3050386555424,12.5,0,9.000660869794476,1.992879623811845,-4.090910917992616,2.720781108429284e-05,-8.23313899637676e-07,-3.272728734394093e-05,4.215745208239097e-05,4.073815053494213e-05
286.5038079767213,162.6035279006986,12.5,0,8.846300378377842,1.654770694125565,-3.852911970824747,2.698434465550864e-05,-1.781774081500466e-06,-3.082329576659798e-05,4.037033438999481e-05,4.008209549070999e-05
282.6419880693074,156.3340307917609,12.5,0,7.67686022947313,1.940777158738485,-4.013741201554374,2.301333100732323e-05,6.899872438464669e-08,-3.210992961243499e-05,3.706184809148815e-05,3.71806810977605e-05
284.9664794473472,156.6005180340387,12.5,0,7.527050743057834,1.595529685875527,-3.778077983356985,2.281013862908465e-05,-9.159455996445801e-07,-3.022462386685588e-05,3.525834897765514e-05,3.662150649762766e-05
283.1833342937277,158.5195713561265,12.5,0,8.249285535925665,2.155294560856532,-4.180463594604766,2.46734780662769e-05,2.975141660003719e-07,-3.344370875683813e-05,3.995970628402167e-05,3.851130512652928e-05
285.5291807430671,158.7977721444299,12.5,0,8.098218231701647,1.8119087136515,-3.945983653094948,2.446477137052407e-05,-6.804667016765183e-07,-3.156786922475958e-05,3.815714196561904e-05,3.791661034598475e-05
239.0277840005969,159.1026477469597,12.5,0,7.793086410890188,7.230331585839039,-3.393587525153934,1.915361124617737e-05,1.690259194597277e-05,-2.714870020123147e-05,5.519354377203174e-05,5.468983617581477e-05
241.0783473748103,159.166110959506,12.5,0,7.628544520474494,6.642459276511265,-3.159687727961454,1.909737504430937e-05,1.515303406845645e-05,-2.527750182369163e-05,5.241455502997854e-05,5.426204937138965e-05
239.6877499105465,161.2159207592605,12.5,0,8.475683768256401,7.579952578597075,-3.69717151847709,2.105822599554282e-05,1.747530123690551e-05,-2.957737214781672e-05,5.902039658933565e-05,5.722390195980263e-05
241.7293090389103,161.2990030009404,12.5,0,8.303441922360754,6.984391798096309,-3.458652103117727,2.098350071307736e-05,1.570730021601958e-05,-2.766921682494181e-05,5.618763728953854e-05,5.673582238797426e-05
237.8846895133211,155.4423515194563,12.5,0,6.797242608300376,7.055239989992228,-3.173485371670242,1.610698435456742e-05,1.713897388133483e-05,-2.538788297336194e-05,5.090643006517656e-05,5.038890985478417e-05
239.9508486988298,155.4718335767486,12.5,0,6.651951894473452,6.504332191637872,-2.958515073859765,1.608278030900475e-05,1.549230149766243e-05,-2.366812059087812e-05,4.832492834601492e-05,5.00389413900308e-05
238.5446554232708,157.5556245317571,12.5,0,7.429882386477855,7.380539358904537,-3.456433140547669,1.78711921496055e-05,1.767382003931223e-05,-2.765146512438135e-05,5.445174245422533e-05,5.285840556105898e-05
240.6018103629298,157.604725618183,12.5,0,7.27759892067871,6.82254004393749,-3.237234236363768,1.783028451102188e-05,1.6010049004057e-05,-2.589787389091014e-05,5.182157724448861e-05,5.246762551623921e-05
234.3059968275591,155.3912870983153,12.5,0,6.650642947229094,7.399619829512812,-2.855213717118952,1.536236156752285e-05,1.835826909665772e-05,-2.284170973695162e-05,5.150098644502865e-05,5.089827985402702e-05
236.3721560130678,155.4207691556076,12.5,0,6.503662904102377,6.84189732867715,-2.640609101253866,1.533820343018589e-05,1.669114112848498e-05,-2.112487281003092e-05,4.888575054121848e-05,5.06191689022298e-05
234.9815585488041,157.4705789553622,12.5,0,7.274521451788545,7.728851764084255,-3.138907817382651,1.709538723445594e-05,1.891270848363878e-05,-2.511126253906121e-05,5.502129918509789e-05,5.342140818898162e-05
237.0387134884631,157.5196800417881,12.5,0,7.120504147329461,7.163832493061141,-2.920000478253104,1.705454727700536e-05,1.722786065993208e-05,-2.336000382602483e-05,5.235621419139514e-05,5.311397085796714e-05
235.4761040523831,158.9927262384201,12.5,0,7.640801073513263,7.618751711867353,-3.094573690989904,1.835556206574855e-05,1.826736461916492e-05,-2.475658952791923e-05,5.592162053250392e-05,5.530444137086218e-05
237.5266674265965,159.0561894509663,12.5,0,7.475413986576264,7.027107355686341,-2.861894017771487,1.829963887249497e-05,1.650641234893528e-05,-2.28951521421719e-05,5.312209875585513e-05,5.49691442702614e-05
236.1516657736281,161.0720180954669,12.5,0,8.311348904501207,7.970835042186216,-3.397359736315641,2.021964846065489e-05,1.885759301139493e-05,-2.717887789052513e-05,5.970589868396322e-05,5.792585536136206e-05
238.1932249019918,161.1551003371468,12.5,0,8.138243055549411,7.371321484582819,-3.160000180884052,2.014532059009186e-05,1.707763430622549e-05,-2.528000144707242e-05,5.685165168418441e-05,5.754277033397837e-05
188.5579499046531,95.88190563901811,12.5,0,-5.299630781281614,2.445397386109212,0.9857998563008333,-1.891513640898853e-05,1.206497626057477e-05,7.886398850406667e-06,3.831073207915307e-06,3.83570914987636e-06
190.6304278094838,96.14035894487134,12.5,0,-5.375067991843867,2.319040482555997,1.13180493557242,-1.905544995994517e-05,1.172098393765428e-05,9.054439484579356e-06,3.707646985579052e-06,3.92646270923593e-06
189.2229371352223,97.93486904933091,12.5,0,-4.915502307929349,2.57623116163586,0.8972914791435577,-1.77905923146826e-05,1.217634156357823e-05,7.178331833148461e-06,4.019318715666448e-06,4.020674044741466e-06
191.2993552948848,98.21001627790592,12.5,0,-4.994130543909324,2.448713687614153,1.044125997930309,-1.794018869060116e-05,1.183118823549275e-05,8.353007983442472e-06,3.870351566466408e-06,4.12934604021705e-06
189.7097415743629,99.43774257169586,12.5,0,-4.682252309054665,2.63621875694418,0.9505665801446742,-1.709218239453027e-05,1.218170186946511e-05,7.604532641157394e-06,4.167473498370078e-06,4.190958775287105e-06
191.7890442007567,99.72511059988031,12.5,0,-4.762461267119437,2.511008498915422,1.097928259091913,-1.724868285391453e-05,1.18451962102249e-05,8.783426072735308e-06,4.011829900984926e-06,4.315890437288539e-06
190.3747288049321,101.4907059820087,12.5,0,-4.297175855771842,2.766420748345636,0.8629877579378268,-1.59640993371464e-05,1.229028707932351e-05,6.903902063502615e-06,4.447962042292672e-06,4.471220416045642e-06
192.4579716861576,101.7947679329149,12.5,0,-4.38059113863561,2.640054450776315,1.011173326390574,-1.6129935204255e-05,1.195264715339269e-05,8.089386611124594e-06,4.256321704371059e-06,4.622655876995695e-06
193.3111993675237,99.93547859697327,12.5,0,-4.607202997554337,2.789968784842779,0.7931919804317187,-1.69750246200481e-05,1.261366250954036e-05,6.34553584345375e-06,4.39225692323781e-06,4.40959650102401e-06
195.3905019939176,100.2228466251577,12.5,0,-4.68967534435736,2.65507623720167,0.9406026988793441,-1.713102209170489e-05,1.224798423453123e-05,7.524821591034753e-06,4.194579770927248e-06,4.540674566136056e-06
193.983011319656,102.0173567296173,12.5,0,-4.217219462927115,2.924713058212462,0.7010301807571775,-1.583487272793674e-05,1.273285735662157e-05,5.60824144605742e-06,4.725028172691263e-06,4.736449488959416e-06
196.0662542008816,102.3214186805235,12.5,0,-4.302894560786793,2.788637000088064,0.8492902600669905,-1.600017219458819e-05,1.236595404891124e-05,6.794322080535924e-06,4.483455090445874e-06,4.895903957484244e-06
192.1475869333194,96.329559896132,12.5,0,-5.23384169980951,2.586697984364173,0.8359082677417937,-1.881765182688177e-05,1.246450690981296e-05,6.68726614193435e-06,3.993083812833049e-06,3.994105235006521e-06
194.2200648381503,96.58801320198522,12.5,0,-5.311273574888388,2.451687623623935,0.9817790261200843,-1.895742553854199e-05,1.20944192555073e-05,7.854232208960674e-06,3.838567115398748e-06,4.08815449281235e-06
192.8193988854517,98.41143802877602,12.5,0,-4.845138302242591,2.721695088110721,0.7432097642623187,-1.768179863766487e-05,1.258553492374838e-05,5.945678114098549e-06,4.216200015913778e-06,4.210685957677638e-06
194.8958170451142,98.686585257351,12.5,0,-4.92575497902478,2.585500576756052,0.889932029604141,-1.783081639428414e-05,1.221420582883919e-05,7.119456236833127e-06,4.030636915483977e-06,4.324238749397286e-06
280.343812759311,163.3545349973796,12.5,0,9.164562803977143,1.991916646155294,-3.94526831863328,2.773306765580262e-05,-9.575169754847714e-07,-3.156214654906624e-05,4.267539963553206e-05,4.283725378417283e-05
282.737002737955,163.6609935870824,12.5,0,9.00202208076777,1.639470761744413,-3.696804280702855,2.749489404906132e-05,-1.955311227032092e-06,-2.957443424562284e-05,4.08100367212852e-05,4.214434642549326e-05
280.7957536680045,165.4690264918725,12.5,0,9.729396749493418,2.192150084299932,-4.099742334351245,2.938034953093899e-05,-7.686371298349509e-07,-3.279793867480996e-05,4.550167768550426e-05,4.409456125058189e-05
283.1958802204327,165.7855441897549,12.5,0,9.564685710005262,1.839537168719561,-3.851101553263168,2.913536453704119e-05,-1.765229628101616e-06,-3.080881242610535e-05,4.362645717455718e-05,4.336428024960513e-05
281.126597375173,167.0169416979477,12.5,0,9.889663648239061,1.818410381709745,-3.821455956221092,3.01921953689972e-05,-2.092817697120063e-06,-3.057164764976874e-05,4.475597770954433e-05,4.499111264096695e-05
283.5318018520414,167.3408231740962,12.5,0,9.725972053438934,1.475958162819486,-3.573284206955023,2.994234404074899e-05,-3.057711521728792e-06,-2.858627365564018e-05,4.29317650410984e-05,4.423382850893433e-05
281.5785382838666,169.1314331924407,12.5,0,10.44983382921941,2.015246038423517,-3.971427034766889,3.182727142276329e-05,-1.91107974042027e-06,-3.177141627813511e-05,4.755334562328774e-05,4.618322912479056e-05
283.9906793345192,169.4653737767688,12.5,0,10.28400250324425,1.672622031890115,-3.723098449635724,3.15707103848695e-05,-2.874811500547031e-06,-2.978478759708579e-05,4.571886033293509e-05,4.538954470904393e-05
285.2925337316264,167.5779208702572,12.5,0,9.86082581141445,1.446081846708442,-3.67820631551723,3.039777711915948e-05,-3.261198739664545e-06,-2.942565052413784e-05,4.339828043434826e-05,4.368837445669474e-05
287.6977382084948,167.9018023464057,12.5,0,9.710995493427706,1.144313822800046,-3.443001032783858,3.015973452072862e-05,-4.106992161782017e-06,-2.754400826227086e-05,4.177128713716804e-05,4.295545040475112e-05
285.7564891385445,169.7098352511958,12.5,0,10.39798884256298,1.631478044802983,-3.814864976315713,3.196838186035915e-05,-3.097661330680838e-06,-3.05189198105257e-05,4.606368816141229e-05,4.482010525961954e-05
288.1686301891971,170.0437758355239,12.5,0,10.24610782418153,1.32950745684828,-3.579536174700912,3.172393907190227e-05,-3.942462397430726e-06,-2.863628939760729e-05,4.442654852909303e-05,4.405805216763853e-05
284.4889393944126,163.8853368451512,12.5,0,9.164097032160988,1.617603593630855,-3.821123769332229,2.803102762801048e-05,-2.154946126110054e-06,-3.056899015465783e-05,4.141586200181807e-05,4.164173020524672e-05
286.8821293730565,164.1917954348541,12.5,0,9.013650927340304,1.301964939186725,-3.583426377285837,2.780211101613959e-05,-3.044632936474723e-06,-2.86674110182867e-05,3.972887977837994e-05,4.096146451344613e-05
284.9528948013306,166.0172512260898,12.5,0,9.710595849293675,1.808256241160278,-3.963852372505588,2.962730172481154e-05,-1.982056707722051e-06,-3.17108189800447e-05,4.413432352277639e-05,4.283673142765882e-05
287.3530213537587,166.3337689239723,12.5,0,9.558052045496572,1.492419323599318,-3.726009393547258,2.939183108670957e-05,-2.87069980087944e-06,-2.980807514837806e-05,4.243740530403471e-05,4.212572224354391e-05
210.0702532347793,118.9871715521718,12.5,0,-1.269739700927856,4.417504296399562,-0.1559154304250614,-7.597170480088788e-06,1.515180550922088e-05,-1.247323443400491e-06,1.342028727651346e-05,1.312562369533114e-05
212.1603530360337,118.9491465060352,12.5,0,-1.321562907515645,4.183356935203416,-0.009915376013289505,-7.575686852212795e-06,1.444399251866344e-05,-7.932300810631603e-08,1.240437599108859e-05,1.332833946398694e-05
210.7987229785016,121.1966783866453,12.5,0,-0.8501187265842127,4.596491964858971,-0.2952326662074636,-6.397573496956657e-06,1.538886926881608e-05,-2.361861329659709e-06,1.522226906975439e-05,1.479390864038473e-05
213.0601839019017,121.2217040111791,12.5,0,-0.9099140559578054,4.372731119621939,-0.1549600174499883,-6.409909874762528e-06,1.472067082755645e-05,-1.239680139599906e-06,1.41945908213043e-05,1.507456364402859e-05
211.3319998426604,122.8141496490819,12.5,0,-0.5457635665891936,4.737613674711235,-0.2880097938617407,-5.536534352854407e-06,1.559697461234731e-05,-2.304078350893926e-06,1.661327367010643e-05,1.608331435593729e-05
213.7189058139077,122.8853315679957,12.5,0,-0.6244436079906523,4.473039418319904,-0.116936747566577,-5.57665108022601e-06,1.481328102501621e-05,-9.354939805326164e-07,1.536372878222035e-05,1.6422863762276e-05
212.0604695863826,125.0236564835555,12.5,0,-0.1259775676427188,4.914687776850668,-0.4250402298404518,-4.334878437937235e-06,1.582778294003631e-05,-3.400321838723614e-06,1.853774315756724e-05,1.793775133749277e-05
214.6187366797756,125.1578890731397,12.5,0,-0.2102573318427736,4.661273319936827,-0.2606356540272453,-4.401842117846336e-06,1.508428048927206e-05,-2.085085232217962e-06,1.729480654106885e-05,1.8360264009294e-05
215.4662422576759,122.9374403492187,12.5,0,-0.5024932109283529,4.891549090032265,-0.5676425080658651,-5.521217546996541e-06,1.605495165684593e-05,-4.541140064526921e-06,1.736929307164049e-05,1.664090330079459e-05
217.8531482289232,123.0086222681325,12.5,0,-0.6037474955660289,4.536621456961166,-0.3957481165567666,-5.561289151380224e-06,1.500018665872855e-05,-3.165984932454132e-06,1.569330013544039e-05,1.689704899177289e-05
216.4915181713911,125.2561541487426,12.5,0,-0.04549809389135873,5.142630845857817,-0.761150838028674,-4.259698577138601e-06,1.64928171818581e-05,-6.089206704229392e-06,1.971702556913326e-05,1.863749385158404e-05
219.0497852647841,125.3903867383268,12.5,0,-0.1517274648335221,4.801754107687484,-0.5943851272788649,-4.326931173617257e-06,1.548699511646676e-05,-4.75508101823092e-06,1.805742616565069e-05,1.897238719432574e-05
213.6904122833765,118.9213102403043,12.5,0,-1.250108804021573,4.518457137915967,-0.3931584808603737,-7.615113883201806e-06,1.545914988454835e-05,-3.14526784688299e-06,1.387827501342859e-05,1.345725899464364e-05
215.7805120846309,118.8832851941678,12.5,0,-1.326854927323371,4.185615734796625,-0.2533148828611311,-7.594428355272086e-06,1.445545429320789e-05,-2.026519062889049e-06,1.241440601990007e-05,1.360675793384484e-05
214.7156881970917,121.2400240398282,12.5,0,-0.8058138276160731,4.777658917531512,-0.5942792341374957,-6.400731382396642e-06,1.593315959819369e-05,-4.754233873099966e-06,1.608504222378259e-05,1.525286355431706e-05
216.9771491204917,121.2650496643621,12.5,0,-0.8892646085638134,4.458798545225945,-0.457928771882359,-6.412685583584958e-06,1.497956703157407e-05,-3.663430175058872e-06,1.461606279530884e-05,1.545933296458698e-05
275.9807994422591,219.4141923634967,12.5,0,16.16200567612835,0.2800459911506925,-0.2179335202487682,5.149438137069015e-05,-1.203345736922046e-05,-1.743468161990145e-06,6.296179210227062e-05,6.316896203020348e-05
277.6820459553502,218.9232592605073,12.5,0,16.11363836720287,0.2827843903496969,-0.2842141539749889,5.133741526276942e-05,-1.198600064464326e-05,-2.273713231799911e-06,6.278595658407095e-05,6.249581176946803e-05
276.3525898905744,220.8441136336242,12.5,0,15.98658157352613,0.232480275846692,-0.1952185754665174,5.097107681460624e-05,-1.204532837611148e-05,-1.561748603732139e-06,6.214228447073679e-05,6.25442093564932e-05
278.1892708507816,220.6039636388299,12.5,0,15.96668803323936,0.2424431070002901,-0.2629158047076814,5.089944722076571e-05,-1.199753248419056e-05,-2.103326437661451e-06,6.209775926626761e-05,6.182904425789659e-05
278.9274448390794,218.5638712860169,12.5,0,15.97358411422308,0.1621147128312712,-0.1891075377302061,5.098577739524882e-05,-1.226010021031839e-05,-1.512860301841649e-06,6.187810545423608e-05,6.202480250379764e-05
280.6286913521706,218.0729381830275,12.5,0,15.93605704004476,0.1780212082994233,-0.24371818590146,5.085296556150368e-05,-1.217917776547765e-05,-1.94974548721168e-06,6.17834700456151e-05,6.141113151983123e-05
279.5338146308904,220.4281616412106,12.5,0,15.78430639100865,0.1047902877529285,-0.1540424473606074,5.042594822102535e-05,-1.229211619199755e-05,-1.232339578884859e-06,6.097600312313435e-05,6.134429289978114e-05
281.3704955910975,220.1880116464162,12.5,0,15.77068062506103,0.1272614244021755,-0.2115593385324291,5.036436886067357e-05,-1.220930794196187e-05,-1.692474708259433e-06,6.099295906490758e-05,6.073509265891202e-05
277.8771815515068,215.3348256708191,12.5,0,16.22682914797981,0.3442777823380077,-0.4819037452197846,5.165043104766499e-05,-1.187977441490223e-05,-3.855229961758277e-06,6.34160583625798e-05,6.315739299378943e-05
279.3438487211023,214.4095234827635,12.5,0,16.11415370821272,0.3437355861234415,-0.5462853824241991,5.129030339738193e-05,-1.179136909097516e-05,-4.370283059393592e-06,6.29848241615602e-05,6.25403300025293e-05
278.4835513433177,217.1991160260126,12.5,0,15.95360013380822,0.2632278411665636,-0.4333212808265829,5.084093815525305e-05,-1.192055101531357e-05,-3.466570246612663e-06,6.211681211609888e-05,6.251062120976884e-05
280.0856529600292,216.5245969461522,12.5,0,15.87848093492436,0.2729771454449077,-0.5022008980739906,5.059275727540202e-05,-1.182925788251578e-05,-4.017607184591925e-06,6.18611912451121e-05,6.189484340818491e-05
275.3368394960196,216.937496072857,12.5,0,16.39322801959145,0.4268453028610049,-0.4666760285496193,5.211685342040384e-05,-1.174867744651795e-05,-3.733408228396955e-06,6.430702023301697e-05,6.419339099411259e-05
276.8035066656152,216.0121938848015,12.5,0,16.26438982722618,0.4246932624212105,-0.5404366854320215,5.170629283718679e-05,-1.165249342203307e-05,-4.323493483456172e-06,6.380913124720656e-05,6.360032935150978e-05
275.708629944335,218.3674173429845,12.5,0,16.14671794237115,0.3564211345870594,-0.4293364010960854,5.138436050791803e-05,-1.177682672321833e-05,-3.434691208768683e-06,6.314298327460314e-05,6.361085891816208e-05
277.3107315610465,217.6928982631241,12.5,0,16.062199246381,0.3657837555728483,-0.5067237405364665,5.110641058396091e-05,-1.167925137927168e-05,-4.053789924291732e-06,6.285049741347172e-05,6.297042617985219e-05
226.4324663692231,214.4100925832683,12.5,0.739615907886347,16.51186891572038,10.53320416770187,-3.612569002351274,0.0001705611768969317,7.871739797039217e-05,-0.0001109920033294339,0.0003796074170048419,0.0003519554827962861
228.7490331177234,213.6989996301538,12.5,0.7453124310853755,16.35551876638909,9.201325471963163,-3.049253773913168,0.0001765951902032229,6.423488420298571e-05,-9.578021532524278e-05,0.0003670811366920182,0.0003589565464824393
227.9816072313383,216.0521010049481,12.5,0.7635724947035312,16.27112581482177,10.59344597014898,-3.966446766993029,0.0001843814482441335,8.832359173453243e-05,-0.0001342127012512963,0.0004155783326725241,0.0003834193691438915
230.4595445321542,215.3691058071106,12.5,0.7675186672981951,16.13616327578428,9.418880699491401,-3.45376471116239,0.0001896953076206027,7.411987628205504e-05,-0.0001188487581699269,0.0004022845945810668,0.0003891543210319274
223.7492756880065,211.5660505705141,12.5,0.6920458745435916,16.56792829467196,10.66335520616801,-3.528886581911214,0.0001444588096103068,6.776461913952838e-05,-9.167304582606049e-05,0.0003230587277309258,0.0003027061296423038
225.7863404410561,210.806290877682,12.5,0.7006132966047162,16.38199063870381,9.45873636562971,-3.038061367350745,0.0001498242254671054,5.732507043371376e-05,-8.118092975798076e-05,0.0003155843524527995,0.0003105265735983468
225.2984165501218,213.2080589921939,12.5,0.7204832340503815,16.29223592340365,10.679614223912,-3.873342821372517,0.0001559529476797797,7.563402039935602e-05,-0.0001108582609193659,0.0003527865894709307,0.000330328435454009
227.4968518554869,212.4763970546388,12.5,0.7274513712395116,16.08048676154239,9.588339650813182,-3.411534022317075,0.000160657149938422,6.537658088541227e-05,-0.0001001372573498458,0.0003445136957600044,0.0003378883050555888
220.2209760374803,212.8819929600186,12.5,0.6601583179427104,16.56051581149947,11.05388059483595,-3.806214344891746,0.0001299150411852269,6.510091734581824e-05,-8.959970588304952e-05,0.0002968931879899844,0.0002767768930455379
222.2580407905298,212.1222332671865,12.5,0.6815670607971978,15.91530001110129,9.737068544796163,-3.080606780147312,0.0001354737525197191,5.786580804296559e-05,-7.739417380273837e-05,0.000294339848898789,0.0002936629299936517
221.4906149041447,214.4753346419809,12.5,0.6894766070160507,16.44274572707771,10.86146517580199,-4.052628907666801,0.0001414631399067498,6.956800186071915e-05,-0.0001044076935711257,0.0003215541059064651,0.0003004374500201928
223.6890502095098,213.7436727044257,12.5,0.7107225810780111,15.61433857686677,9.554086527813437,-3.334312337941562,0.0001463045901800454,6.250610951553655e-05,-9.221078784143175e-05,0.0003181371492068454,0.0003202935090917319
222.4200550617678,215.6417417069449,12.5,0.7094817374307381,16.60794665446373,10.94024126159549,-3.970535059472545,0.00015280704177564,7.47712536947854e-05,-0.0001093366048484043,0.0003466720957132213,0.0003190615522461333
224.7366218102682,214.9306487538302,12.5,0.7304639906190762,15.75308409677981,9.444840991137001,-3.102108680241948,0.0001589917295845323,6.537539802079471e-05,-9.20725564607694e-05,0.0003417358980563507,0.0003412656513089563
223.6896939284322,217.235083388907,12.5,0.7348303210088207,16.48598667212603,10.74049152701742,-4.199308780376967,0.0001665453014733951,7.98763404222377e-05,-0.0001266904661604739,0.000375704874025714,0.0003462829888002674
226.1676312292481,216.5520881910695,12.5,0.7552992196886622,15.46831170006274,9.274446763990293,-3.351390543258857,0.0001719612008407595,7.071322070449897e-05,-0.0001095669752746947,0.0003699092918908177,0.0003719320302943294
180.7558070510191,115.4325463798439,12.5,0,-1.85285466797777,2.786240472137941,1.357145467949122,-8.158127315239215e-06,1.039825324522362e-05,1.085716374359298e-05,6.874692351308155e-06,7.181928577532503e-06
182.8224675371981,115.6013217809292,12.5,0,-1.875090676892663,2.815215220389307,1.50040932708027,-8.252462342367965e-06,1.050876124675991e-05,1.200327461664216e-05,7.057742030527959e-06,7.530858866958713e-06
181.0720413545138,117.5816265681696,12.5,0,-1.475122579891392,2.875670806555763,1.349827314248741,-7.020928900897062e-06,1.038224464489155e-05,1.079861851398993e-05,7.850119277390888e-06,8.15462645374837e-06
183.219750828271,117.7270579058029,12.5,0,-1.491273945148917,2.904707023759781,1.487220184414356,-7.09584224348436e-06,1.048808163215043e-05,1.189776147531485e-05,8.035029968615212e-06,8.551947355768646e-06
181.3035409317582,119.1548624554968,12.5,0,-1.18557551879043,2.979449973622335,1.339696114454303,-6.177401639027245e-06,1.048270033062381e-05,1.071756891563442e-05,8.813511114849781e-06,8.950713241077934e-06
183.5105823823223,119.2832047526289,12.5,0,-1.206545749886589,2.987130742807052,1.496849801437116,-6.250650993882725e-06,1.052405497689184e-05,1.197479841149693e-05,8.924658947311631e-06,9.38299259682769e-06
181.6197752352529,121.3039426438224,12.5,0,-0.797575871344967,3.07469048938328,1.323042747557285,-5.011995179810517e-06,1.047707026310247e-05,1.058434198045828e-05,1.006949039569668e-05,1.015296491517318e-05
183.9078656733953,121.4089408775026,12.5,0,-0.8127740764237873,3.083305085783294,1.474065466975041,-5.067521113182754e-06,1.051679553564557e-05,1.179252373580033e-05,1.017886243578527e-05,1.063236193007592e-05
185.126248858477,119.3771578348857,12.5,0,-1.160979781704807,3.20763933050076,1.206686725408284,-6.281246765855989e-06,1.119322968296628e-05,9.653493803266273e-06,9.578771564205305e-06,9.704778890959221e-06
187.3332903090411,119.5055001320178,12.5,0,-1.184366568706805,3.203969815548128,1.361194374472155,-6.353148872300275e-06,1.120019666471945e-05,1.088955499577724e-05,9.622559393642338e-06,1.015163603999348e-05
185.5828641263568,121.4858049192582,12.5,0,-0.7873849806849494,3.300610553018001,1.177129686295834,-5.160120380606238e-06,1.119186175420556e-05,9.417037490366668e-06,1.081998015333131e-05,1.098734618469658e-05
187.8709545644992,121.5908031529384,12.5,0,-0.8049645689953968,3.298303383941391,1.325299324778361,-5.214529327938382e-06,1.119854248380877e-05,1.060239459822689e-05,1.086370366278243e-05,1.14777841893457e-05
184.3353680150117,115.7248739495861,12.5,0,-1.808121366789447,3.026842602531649,1.229514924759236,-8.207462455751547e-06,1.113239342153283e-05,9.836119398073885e-06,7.623319854366989e-06,7.793272822214842e-06
186.4020285011907,115.8936493506714,12.5,0,-1.844705228973242,2.999476282480483,1.37578821626133,-8.30263775869876e-06,1.107408828711614e-05,1.100630573009064e-05,7.584809352673456e-06,8.161270791193958e-06
184.7919832828915,117.8335210339587,12.5,0,-1.43236677140903,3.1245872621116,1.192054083622656,-7.083243478198174e-06,1.114457265588434e-05,9.536432668981248e-06,8.667930551374578e-06,8.848929512943114e-06
186.9396927566488,117.978952371592,12.5,0,-1.462153516587633,3.099725556475149,1.331764948078084,-7.158671698260545e-06,1.108884459399058e-05,1.065411958462467e-05,8.623116426339073e-06,9.262978953299382e-06
251.01895095093,163.9990171208474,12.5,0,9.501131681398022,5.813444550809583,-4.169164859491042,2.5752865739826e-05,1.100211721747225e-05,-3.335331887592834e-05,5.676596523745991e-05,5.629944722626985e-05
253.167379295835,164.4691345905435,12.5,0,9.172782053499677,5.135277907574311,-3.826691599530832,2.524468024513952e-05,9.094663661438052e-06,-3.061353279624666e-05,5.307050741886312e-05,5.579892375912776e-05
251.5626966877035,166.0802802383012,12.5,0,10.29479444326356,6.163390453176413,-4.474963679441772,2.801262985590225e-05,1.148701389555367e-05,-3.579970943553418e-05,6.102039481748811e-05,5.832865035338886e-05
253.703335398378,166.5499284238847,12.5,0,9.964696875222623,5.482427801942051,-4.130996929397408,2.750108775915875e-05,9.572011466036463e-06,-3.304797543517927e-05,5.731069624837593e-05,5.773268604191673e-05
251.9607461934038,167.6038705841318,12.5,0,10.47603129564107,5.737009420287302,-4.216075868474997,2.893369260982158e-05,9.977605108406513e-06,-3.372860694779998e-05,6.010156630087776e-05,5.979384288211054e-05
254.0956824960494,168.0731752299017,12.5,0,10.13778953323107,5.04208865317532,-3.863052773911353,2.840725558379917e-05,8.024452063576165e-06,-3.090442219129083e-05,5.632403960662072e-05,5.912403265500839e-05
252.5044919301773,169.6851337015856,12.5,0,11.29935240243397,6.098985450198701,-4.531726431897113,3.127873932762975e-05,1.047727151868866e-05,-3.62538114551769e-05,6.451366228069939e-05,6.176762018649966e-05
254.6316385985925,170.1539690632429,12.5,0,10.95929446598323,5.401178480686487,-4.177153374360098,3.074879950659714e-05,8.516335565410173e-06,-3.341722699488079e-05,6.072037426244308e-05,6.099150001028633e-05
255.6585643404429,168.4167300748188,12.5,0,10.69066339852663,5.117077893318662,-4.253194536266966,3.011646056063028e-05,7.822118539798414e-06,-3.402555629013573e-05,5.879865372030318e-05,5.861332426483669e-05
257.7935006430885,168.8860347205887,12.5,0,10.36648615248479,4.462455829848968,-3.91066583016861,2.960279102407214e-05,5.986669733528869e-06,-3.128532664134888e-05,5.5231265197616e-05,5.788785322207875e-05
256.1888180349571,170.4971803683463,12.5,0,11.49124461527813,5.460317352228238,-4.550637286122774,3.240372888710743e-05,8.280019834907854e-06,-3.640509828898219e-05,6.305671993428951e-05,6.040677361641988e-05
258.3159647033723,170.9660157300036,12.5,0,11.16532132953074,4.802978016854935,-4.206611950261766,3.188664584101442e-05,6.437272590311197e-06,-3.365289560209412e-05,5.947361178018159e-05,5.958539157599562e-05
254.7401380006597,164.8132844638722,12.5,0,9.752990751544813,5.237302448359945,-4.24458800488283,2.701972844625544e-05,8.956975233515973e-06,-3.395670403906264e-05,5.575015623286855e-05,5.540734690955431e-05
256.8885663455646,165.2834019335684,12.5,0,9.434668644478567,4.590515958845351,-3.908631518156268,2.651852689525513e-05,7.141916152722267e-06,-3.126905214525014e-05,5.221712528527593e-05,5.483806252854852e-05
255.2703916951739,166.8937347573998,12.5,0,10.53309631329252,5.572940638826761,-4.536241195567017,2.924755569147465e-05,9.40693299361162e-06,-3.628992956453614e-05,5.99021256007534e-05,5.727373191615516e-05
257.4110304058483,167.3633829429833,12.5,0,10.21307476087335,4.923489242732693,-4.19882649084995,2.874304784060856e-05,7.584705768045935e-06,-3.359061192679961e-05,5.635475573467136e-05,5.661581023765007e-05
247.1224768027191,149.3088296649826,12.5,0,5.726442483928546,5.725580416069466,-3.630393505928327,1.374415161571577e-05,1.374070334427945e-05,-2.904314804742661e-05,4.256745791676058e-05,4.165151915865201e-05
249.3357063337411,149.7903266184176,12.5,0,5.455121859724708,5.16228641410787,-3.347342315699096,1.332656081983277e-05,1.215521903736542e-05,-2.677873852559277e-05,3.945677441156661e-05,4.166422020697401e-05
247.6612576641747,151.4387559136618,12.5,0,6.376338342292329,6.00903834453053,-3.880292758731859,1.559705201971103e-05,1.412785202866383e-05,-3.104234206985487e-05,4.601391605785301e-05,4.377886023308827e-05
249.8672049904697,151.9182917460113,12.5,0,6.104256426518306,5.443963568485739,-3.596366932466911,1.517844971006999e-05,1.253727827793972e-05,-2.877093545973529e-05,4.289796179399752e-05,4.373473491736917e-05
248.0556726288892,152.9979701440033,12.5,0,6.631476595953258,5.807544949210525,-3.797332988534415,1.6574689147682e-05,1.327896256071107e-05,-3.037866390827532e-05,4.616896337781453e-05,4.534000983953944e-05
250.256289011333,153.4760703360785,12.5,0,6.345919622209388,5.213645799369339,-3.499538647495099,1.613602615157457e-05,1.160693086021437e-05,-2.799630917996079e-05,4.290233141148149e-05,4.525055556971903e-05
248.5944534903448,155.1278963926826,12.5,0,7.319116666915629,6.107776640236738,-4.062230079189034,1.853495202194062e-05,1.368959191522506e-05,-3.249784063351227e-05,4.982711371438202e-05,4.747780880832527e-05
250.7877876680615,155.6040354636723,12.5,0,7.03275460055864,5.51198957370544,-3.763510700999879,1.809522306282329e-05,1.20121629554105e-05,-3.010808560799903e-05,4.655467124493199e-05,4.732133989688192e-05
251.8672520111818,153.8260639677711,12.5,0,6.942700941310635,5.374970648974191,-3.977053345553946,1.791666649301468e-05,1.16457453236689e-05,-3.181642676443157e-05,4.586850688979574e-05,4.515436652526804e-05
254.0678683936256,154.3041641598463,12.5,0,6.65699839940801,4.78756809087251,-3.676568455544704,1.747234040540762e-05,9.994619171265623e-06,-2.941254764435763e-05,4.263285100850301e-05,4.498102743850568e-05
252.3934197240592,155.9525934550906,12.5,0,7.636502873156738,5.672171994622561,-4.238424496151821,1.989907159840351e-05,1.20417480842668e-05,-3.390739596921457e-05,4.954234006306012e-05,4.717614473324805e-05
254.5867539017759,156.4287325260803,12.5,0,7.349995662909533,5.08290160822167,-3.93700478701158,1.945366483473317e-05,1.038528861598172e-05,-3.149603829609264e-05,4.630069743882369e-05,4.693593308061345e-05
250.9559027991922,150.1428068520066,12.5,0,6.043880605994836,5.340005230921048,-3.834731283833758,1.506841375444664e-05,1.225291225415148e-05,-3.067785027067007e-05,4.245165754676007e-05,4.164347412992021e-05
253.1691323302142,150.6243038054415,12.5,0,5.770117038180655,4.776507076862999,-3.547317660371543,1.46431688606877e-05,1.066872901541707e-05,-2.837854128297235e-05,3.933780509211915e-05,4.157409374502707e-05
251.4820705120696,152.269336339326,12.5,0,6.70331365937702,5.622918319503949,-4.083846096782258,1.695226905440331e-05,1.263068769491102e-05,-3.267076877425806e-05,4.593657906028918e-05,4.367189190516508e-05
253.6880178383645,152.7488721716755,12.5,0,6.428782388022913,5.057638044369173,-3.795543196867003,1.652599320617798e-05,1.104141583156302e-05,-3.036434557493603e-05,4.281737528949889e-05,4.354432691863459e-05
249.0059724105763,156.6819793892381,12.5,0,7.563401170992531,5.854425533090231,-3.944737621581736,1.951934332070391e-05,1.268344076909471e-05,-3.155790097265389e-05,4.975738878689716e-05,4.903456327087641e-05
251.1924791622304,157.1568583792974,12.5,0,7.256014851110468,5.207779196851668,-3.626849785330762,1.905302416607216e-05,1.086008154903696e-05,-2.90147982826461e-05,4.622977706867188e-05,4.882557764180048e-05
249.5914821475167,158.7978868465079,12.5,0,8.300977234960529,6.192296707975543,-4.238881857079217,2.160928978549325e-05,1.317456767755331e-05,-3.391105485663374e-05,5.374984382416343e-05,5.114989658887069e-05
251.7666182290091,159.271284352529,12.5,0,7.991575294256351,5.542016089910555,-3.919143499929835,2.113942806969188e-05,1.134119125230869e-05,-3.135314799943868e-05,5.020515199384507e-05,5.086444726059264e-05
250.0201050232652,160.3468386092774,12.5,0,8.520992764175825,5.851933285676715,-4.072492406993256,2.258563021682126e-05,1.190939230282483e-05,-3.257993925594605e-05,5.32793268830839e-05,5.269180940633994e-05
252.1869171964834,160.819151593712,12.5,0,8.199856213732694,5.180183729274431,-3.739791939806673,2.209539290052507e-05,1.001670296269202e-05,-2.991833551845339e-05,4.962158300929926e-05,5.234621877095755e-05
250.6056147602057,162.4627460665473,12.5,0,9.300264732505223,6.207520951197625,-4.381303036225532,2.479483038305861e-05,1.242385525782822e-05,-3.505042428980426e-05,5.74977773662842e-05,5.478906024669241e-05
252.7610562632621,162.9335775669435,12.5,0,8.976998281381373,5.531958335935871,-4.046647188876825,2.43008278316717e-05,1.052066804988969e-05,-3.237317751101461e-05,5.382132452469348e-05,5.435562420386249e-05
253.7731337976704,161.1649086953778,12.5,0,8.801927196509743,5.322054434191259,-4.186791573451985,2.390852348147817e-05,9.989032432204236e-06,-3.349433258761588e-05,5.253052420459996e-05,5.206453239132476e-05
255.9399459708886,161.6372216798123,12.5,0,8.488228996816861,4.676897522472502,-3.857697640074305,2.342081477183595e-05,8.175488874458516e-06,-3.086158112059444e-05,4.90073561467208e-05,5.164054152571755e-05
254.338948956175,163.2782501470228,12.5,0,9.573333948116149,5.663770577259978,-4.482661423918879,2.610365217216369e-05,1.046539868873901e-05,-3.586129139135103e-05,5.666998478746544e-05,5.401154610370686e-05
256.4943904592314,163.7490816474191,12.5,0,9.257551868268299,5.014954645054322,-4.151639823803837,2.561220226241509e-05,8.641813369559192e-06,-3.32131185904307e-05,5.312820446350823e-05,5.350494329509986e-05
252.7931131954655,157.504493927453,12.5,0,7.862837944039686,5.372201375210477,-4.094882978928802,2.086332032075861e-05,1.090077404544178e-05,-3.275906383143042e-05,4.924193982536784e-05,4.864221765864409e-05
254.9796199471195,157.9793729175123,12.5,0,7.55921153326274,4.743913820078788,-3.776980143118075,2.039434585037774e-05,9.133154997641928e-06,-3.02158411449446e-05,4.580408767791546e-05,4.835025449764045e-05
253.35892835397,159.617835379098,12.5,0,8.600941780135894,5.70050732634463,-4.379949060232089,2.296260783535915e-05,1.13608700201941e-05,-3.503959248185671e-05,5.320335690039847e-05,5.062582517061752e-05
255.5340644354624,160.0912328851191,12.5,0,8.295321359957757,5.068691706614024,-4.060201750309179,2.24900749865736e-05,9.583556373198672e-06,-3.248161400247343e-05,4.97484299814984e-05,5.025934682524753e-05
193.1151531934649,110.0374400555073,12.5,0,-2.832274498563639,3.25901683712685,0.828253826840622,-1.167049186510513e-05,1.269467347765683e-05,6.626030614724976e-06,6.583207122341021e-06,6.615471333232865e-06
195.2158078490629,110.3662991424587,12.5,0,-2.916984775219714,3.14570951622317,0.9780873368100285,-1.185091889368162e-05,1.239985827208991e-05,7.824698694480227e-06,6.242147962277595e-06,6.930937964358869e-06
193.7458894487157,112.0883724703733,12.5,0,-2.451143786666107,3.381866339366904,0.7492922314230362,-1.054915318882507e-05,1.278288731530698e-05,5.99433785138429e-06,7.43015082087127e-06,7.436712261451782e-06
195.8547321532214,112.419147479512,12.5,0,-2.535656742500784,3.268948116890998,0.8985842052487832,-1.072926006951531e-05,1.248915936805182e-05,7.188673641990266e-06,7.026551795164185e-06,7.802368272196649e-06
194.2076204337152,113.5897592008814,12.5,0,-2.204721889302557,3.486539906569829,0.7837707401043843,-9.844341971024045e-06,1.29207052124655e-05,6.270165920835074e-06,8.18330437285118e-06,8.127854369303531e-06
196.3224572060362,113.9219367624045,12.5,0,-2.289976863524985,3.374102084151553,0.9350246132875472,-1.002720763060119e-05,1.262910816010495e-05,7.480196906300377e-06,7.745810091998576e-06,8.530477290346832e-06
194.8383566889659,115.6406916157474,12.5,0,-1.822444116509674,3.609193026770881,0.7052904100328686,-8.719175594247661e-06,1.300737297887456e-05,5.642323280262949e-06,9.291240750860284e-06,9.194848795066121e-06
196.9613815101947,115.9747850994578,12.5,0,-1.907501375509101,3.497138562459242,0.856000778572363,-8.901715251596518e-06,1.271684450027686e-05,6.848006228578904e-06,8.796366092678623e-06,9.648277813629013e-06
197.8706251730243,114.1651076145634,12.5,0,-2.109864926942553,3.685524263860217,0.593032175543018,-9.699987177304341e-06,1.348156958590674e-05,4.744257404344144e-06,8.956115853582194e-06,8.828639495662577e-06
199.9854619453453,114.4972851760864,12.5,0,-2.20029566402337,3.552672024366328,0.7456711120818215,-9.883083744367845e-06,1.312878700919094e-05,5.965368896654571e-06,8.396054436893204e-06,9.240610868473308e-06
198.515543544998,116.219358504001,12.5,0,-1.724793287846802,3.815295614492633,0.5060627448631499,-8.571575012703871e-06,1.358878059665386e-05,4.0485019589052e-06,1.01681756169434e-05,9.982765665749719e-06
200.6385683662268,116.5534519877114,12.5,0,-1.815007866630398,3.6829009505318,0.6581560006296026,-8.754345933642712e-06,1.323728933500608e-05,5.26524800503682e-06,9.549826112951356e-06,1.044317445373403e-05
196.7535937860514,110.6070407026276,12.5,0,-2.740382839547761,3.447014670273185,0.647061313803165,-1.152683682277138e-05,1.32227532165124e-05,5.17649051042532e-06,7.185218270748394e-06,7.166049422246261e-06
198.8542484416493,110.935899789579,12.5,0,-2.829724368999675,3.315506895658211,0.7981693568368377,-1.170752349732553e-05,1.287340156130601e-05,6.385354854694702e-06,6.738019056799929e-06,7.492919239537511e-06
197.398512158025,112.6612915920653,12.5,0,-2.356552108724333,3.576373198635627,0.5603654709105147,-1.040206530682637e-05,1.332963592261347e-05,4.482923767284118e-06,8.141242926146166e-06,8.073902652931688e-06
199.5073548625309,112.992066601204,12.5,0,-2.445679782551022,3.445321045318261,0.7109299603696821,-1.058243214041788e-05,1.298157117105925e-05,5.687439682957457e-06,7.625373213205512e-06,8.450092366388244e-06
259.9337214607719,101.8901356699645,12.5,0,-3.411658592372012,2.657107098681679,-2.765893782647697,-1.304299317453578e-05,1.123206958967898e-05,-2.212715026118158e-05,6.263764479190613e-06,6.262609514301761e-06
262.1591410497088,102.0772646254996,12.5,0,-3.514222678937472,2.385350981092678,-2.592905201554655,-1.315379335747405e-05,1.044450128264655e-05,-2.074324161243724e-05,5.429358672158719e-06,6.277487163906378e-06
260.4734064067733,104.1762954596376,12.5,0,-2.932730930489615,2.838031288469065,-2.910532874108131,-1.165516400834202e-05,1.14278848674927e-05,-2.328426299286505e-05,7.314135064816706e-06,6.897806720649624e-06
262.6960547205103,104.4062142024464,12.5,0,-3.04496704971574,2.561264321269878,-2.733796193417554,-1.179290601610627e-05,1.06320194678362e-05,-2.187036954734043e-05,6.332496002477614e-06,6.926609120708208e-06
260.8684832073095,105.8498805798281,12.5,0,-2.654952250919756,2.776503609626919,-2.906689536947128,-1.071705009064475e-05,1.100877335154194e-05,-2.325351629557703e-05,7.484913174429003e-06,7.440735276898235e-06
263.0891028067986,106.1111236209649,12.5,0,-2.777506686952093,2.485227894491539,-2.725319740437738,-1.087620371383993e-05,1.01747346119346e-05,-2.180255792350191e-05,6.411038334761837e-06,7.48157175299908e-06
261.408168153311,108.1360403695012,12.5,0,-2.161529690207115,2.964818863391865,-3.058906383845647,-9.288750099376258e-06,1.121664411501966e-05,-2.447125107076517e-05,8.878610076566251e-06,8.288846471164655e-06
263.6260164776002,108.4400731979117,12.5,0,-2.294249776817825,2.668224923720234,-2.873555937995805,-9.476179224793225e-06,1.037371957735901e-05,-2.298844750396644e-05,7.638334129547761e-06,8.348635903982537e-06
264.7147091778388,106.3023668001927,12.5,0,-2.472129571547565,2.621492593272513,-3.055427578698946,-1.000800870357022e-05,1.036647995571009e-05,-2.444342062959157e-05,7.536215383550609e-06,7.506864710283738e-06
266.9353287773279,106.5636098413295,12.5,0,-2.593530084204611,2.336155620971826,-2.873199051280895,-1.016822076623221e-05,9.550522054473532e-06,-2.298559241024716e-05,6.464258435844405e-06,7.535129878561185e-06
265.2495941343924,108.6626406754675,12.5,0,-1.960945992216633,2.812223402673156,-3.208527530382753,-8.524805897231749e-06,1.05678716823274e-05,-2.566822024306203e-05,8.997035570982455e-06,8.387155641608693e-06
267.4674424586816,108.9666735038779,12.5,0,-2.092508430010366,2.521727930307271,-3.022424839011558,-8.713409320278988e-06,9.743536120991559e-06,-2.417939871209246e-05,7.758905464351193e-06,8.43260408908416e-06
263.7882612569004,102.2142525285129,12.5,0,-3.255799639214946,2.514793128992696,-2.915041882242312,-1.243039334868198e-05,1.065197772414858e-05,-2.332033505793849e-05,6.275990718775848e-06,6.284791125315198e-06
266.0136808458373,102.401381484048,12.5,0,-3.357713957836105,2.246940012533462,-2.740628424215136,-1.25422366751023e-05,9.876379206375961e-06,-2.192502739372108e-05,5.439354619084733e-06,6.289868269376848e-06
264.323146213454,104.5745264037876,12.5,0,-2.758166299187478,2.698880121810861,-3.061316572541622,-1.098523625484862e-05,1.084294942914473e-05,-2.449053258033298e-05,7.381087068482387e-06,6.943537835964581e-06
266.545794527191,104.8044451465964,12.5,0,-2.869784820097346,2.426139364752312,-2.883236073163099,-1.112422291611335e-05,1.005947382328527e-05,-2.306588858530479e-05,6.394511486090328e-06,6.96098554609524e-06
303.8799382910767,180.6825160358767,12.5,0,11.11542048490458,0.0792733695693193,-2.512462620312127,3.55059268560392e-05,-8.638661605301842e-06,-2.009970096249702e-05,4.341227325835641e-05,4.388450875643652e-05
306.2669572691123,180.9618495830508,12.5,0,11.04432597653552,-0.02351532206508589,-2.35330767817704,3.536065538256572e-05,-8.910709811836689e-06,-1.882646142541632e-05,4.277678765166997e-05,4.32519297346529e-05
304.2173095768929,183.0099356116903,12.5,0,11.52185278039948,0.1928899863623177,-2.567518740913591,3.671561690818848e-05,-8.600234267960166e-06,-2.054014992730873e-05,4.53207079538299e-05,4.480520879220956e-05
306.6511349989552,183.3328443209666,12.5,0,11.44539900884027,0.08998692567037514,-2.410133293370264,3.655328728775255e-05,-8.868361044927012e-06,-1.928106634696211e-05,4.466464888888825e-05,4.417011778905979e-05
299.7455001425622,180.1986961399216,12.5,0,11.28889754432351,0.2287115327489651,-2.63903120748622,3.594150291563606e-05,-8.299241130662119e-06,-2.111224965988976e-05,4.456915817686119e-05,4.505454725687415e-05
302.1325191205977,180.4780296870956,12.5,0,11.21194460402688,0.1127610365710257,-2.470550957098434,3.57880139036292e-05,-8.608720366194223e-06,-1.976440765678747e-05,4.38654818257733e-05,4.436751866576286e-05
300.0018002892041,182.4506413210273,12.5,0,11.70388151866686,0.3428354190279554,-2.693098081733174,3.717815252451159e-05,-8.266031874044032e-06,-2.15447846538654e-05,4.651250875877768e-05,4.598527260925731e-05
302.4356257112664,182.7735500303036,12.5,0,11.62137442399465,0.2269848336072777,-2.526614592668678,3.700681028989705e-05,-8.570748071652428e-06,-2.021291674134942e-05,4.578834525228465e-05,4.52915780604038e-05
300.1894250185255,184.0991796093865,12.5,0,11.81237807479638,0.1237185994925403,-2.386241630371934,3.770063495975437e-05,-9.05400294146097e-06,-1.908993304297548e-05,4.615655258922132e-05,4.66414526096924e-05
302.6575151357353,184.4539875512684,12.5,0,11.72671428255099,0.0156023779469221,-2.218107746358993,3.751300380180564e-05,-9.331443816610642e-06,-1.774486197087194e-05,4.545116185218197e-05,4.594232209076676e-05
300.4457251651675,186.3511247904922,12.5,0,12.21150353911293,0.2324980643235106,-2.434798024365716,3.889081287370257e-05,-9.02520902545511e-06,-1.947838419492573e-05,4.80224760509404e-05,4.750344435748473e-05
302.9606217264039,186.7495078944763,12.5,0,12.12084636641998,0.1244342386458377,-2.26868612431154,3.868716098162726e-05,-9.298487529469301e-06,-1.814948899449232e-05,4.729835687215265e-05,4.679612844987516e-05
304.4642824991147,184.7137249916438,12.5,0,11.62507975494551,-0.01401395993550603,-2.256439016486155,3.721146638377404e-05,-9.344908475750029e-06,-1.805151213188924e-05,4.498625406487863e-05,4.545331868641789e-05
306.9323726163246,185.0685329335256,12.5,0,11.54543187800142,-0.1110392238446174,-2.097880395869438,3.703421338868023e-05,-9.591671018703909e-06,-1.67830431669555e-05,4.434298111956008e-05,4.481646705953145e-05
304.801653784931,187.0411445674573,12.5,0,12.0152387288843,0.0940605740641729,-2.30656512835957,3.837351547317843e-05,-9.311197146102089e-06,-1.845252102687656e-05,4.681524034526054e-05,4.630328781058537e-05
307.3165503461674,187.4395276714414,12.5,0,11.93077562225667,-0.003082581248816663,-2.149793785619493,3.818094805622041e-05,-9.554484757801551e-06,-1.719835028495594e-05,4.615321658344724e-05,4.566413805156328e-05
279.9349100357539,221.7841411020917,12.5,0,15.70047917827219,0.05860592307554935,0.04820283579799994,5.019464863201056e-05,-1.237284438877599e-05,3.856226863839995e-07,6.05126532786506e-05,6.085396188767846e-05
281.8285204761095,221.6451812736089,12.5,0,15.69445440788923,0.07242411324177223,-0.003017339937868885,5.016431481465211e-05,-1.232380636393771e-05,-2.413871950295108e-08,6.053128395424898e-05,6.027890719746745e-05
280.424353268759,223.6244555282026,12.5,0,15.56449621744065,0.02061939706064919,0.06766093825721994,4.978989237816155e-05,-1.238561490335844e-05,5.412875060577596e-07,5.987509609665561e-05,6.019486225404681e-05
282.3380634942196,223.511169267126,12.5,0,15.56043851543418,0.03488274684183512,0.01650984889485464,4.976549705191591e-05,-1.233672602245347e-05,1.320787911588371e-07,5.990248604423392e-05,5.970862419999283e-05
276.655080543374,222.0248265852306,12.5,0,15.89111304412298,0.1646611789052805,-0.001633571222696005,5.071983279806929e-05,-1.218597466280148e-05,-1.306856978156804e-08,6.156711177760878e-05,6.201366402137157e-05
278.5486909837297,221.8858667567478,12.5,0,15.88406990765549,0.1836108403081393,-0.0652392455151974,5.068213503225103e-05,-1.211970123713834e-05,-5.219139641215792e-07,6.15978930535522e-05,6.131878857769347e-05
277.1097099273568,223.8206730881835,12.5,0,15.7261249505342,0.1184034020482532,0.02181973491683286,5.022887712007084e-05,-1.220200907387295e-05,1.745578793346629e-07,6.079255634813321e-05,6.118893988374926e-05
279.0234201528174,223.7073868271068,12.5,0,15.72152665527911,0.1378941427491238,-0.04168767814516318,5.019856998269385e-05,-1.213596006742609e-05,-3.335014251613054e-07,6.083415588088775e-05,6.059151164604012e-05
277.4425217350319,225.135323970884,12.5,0,15.61291525155943,0.07415686402664079,0.1793864375575173,4.990200331376885e-05,-1.225303023636229e-05,1.435091500460138e-06,6.022487213178184e-05,6.057613782890875e-05
279.3709460244098,225.0408320655593,12.5,0,15.61174762674812,0.1063471617421321,0.104796262102516,4.987251467620027e-05,-1.214908718382367e-05,8.38370096820128e-07,6.031696258103107e-05,6.00535801531969e-05
277.8971511190148,226.9311704738369,12.5,0,15.42261631165626,0.01886586325178818,0.209448952959157,4.933727950669859e-05,-1.227772228691928e-05,1.675591623673256e-06,5.93266375891217e-05,5.972665561765298e-05
279.8456751934977,226.8623521359183,12.5,0,15.42418785673216,0.05163021280617475,0.1349359214394656,4.931609697129795e-05,-1.217413360440596e-05,1.079487371515725e-06,5.943059520498855e-05,5.931120091534872e-05
280.7826505827244,224.9716591899606,12.5,0,15.4757806579659,0.004228412517334412,0.2036884095868473,4.951911537547701e-05,-1.236709360631725e-05,1.629507276694779e-06,5.948648723781814e-05,5.970927983361344e-05
282.7110748721024,224.8771672846359,12.5,0,15.47538007674724,0.03287631082627307,0.1425161385028138,4.949491519693015e-05,-1.227509986675372e-05,1.14012910802251e-06,5.957059318141593e-05,5.929119154312108e-05
281.2720938157296,226.8119736160716,12.5,0,15.31554247710372,-0.04318191846632047,0.2305296730811552,4.904428146150497e-05,-1.23906161207752e-05,1.844237384649242e-06,5.87279272647058e-05,5.904174362330248e-05
283.2206178902125,226.743155278153,12.5,0,15.3173885486015,-0.01406068524929172,0.1693885121182063,4.902689190372424e-05,-1.229890503167894e-05,1.35510809694565e-06,5.88217944492324e-05,5.872102731323515e-05
217.6152624094817,110.9295407302467,12.5,0,-2.694941459667839,3.994708227390773,-0.5693244792190683,-1.18195792528497e-05,1.493901949538474e-05,-4.554595833752546e-06,8.974047891177849e-06,9.018583006960577e-06
219.5040554573833,110.6633806208699,12.5,0,-2.703975479663666,3.798349147468212,-0.4665636672316359,-1.16914008528983e-05,1.431789765562921e-05,-3.732509337853087e-06,8.291231545162352e-06,9.012106141798143e-06
218.3538015333542,113.0043368277432,12.5,0,-2.340732635562749,4.159350822695036,-0.6994022507221531,-1.081782509195682e-05,1.518250874107431e-05,-5.595218005777225e-06,1.01935346090172e-05,1.014742689573599e-05
220.2204248922464,112.7269009931077,12.5,0,-2.34747227507291,3.962271134473955,-0.5965591980917819,-1.068172818781247e-05,1.455724545037498e-05,-4.772473584734255e-06,9.469658581773992e-06,1.012762676687606e-05
214.343776885592,111.3905435626272,12.5,0,-2.637812781685344,3.983344807072977,-0.3617361967488693,-1.162767674705148e-05,1.48569536079818e-05,-2.893889573990955e-06,8.980654552560548e-06,9.007768147508373e-06
216.2325699334936,111.1243834532503,12.5,0,-2.647124108494278,3.786732018577252,-0.2595928925820947,-1.150018276204349e-05,1.423524174624263e-05,-2.076743140656757e-06,8.300934728276446e-06,9.017420644893897e-06
215.1207150372159,113.4848697891636,12.5,0,-2.281195703491256,4.152619345052305,-0.4947640341702397,-1.062192172721386e-05,1.511333846696038e-05,-3.958112273361918e-06,1.02248496829692e-05,1.015877808257456e-05
216.9873383961083,113.2074339545281,12.5,0,-2.28822559160028,3.955322644761412,-0.392564692603298,-1.048658000893003e-05,1.448761293651674e-05,-3.140517540826384e-06,9.503192593750943e-06,1.015577386562031e-05
215.6894732385192,115.0180229945471,12.5,0,-1.984694006048123,4.228856966176204,-0.4750344774384701,-9.734106392294956e-06,1.512009749660235e-05,-3.800275819507761e-06,1.109265617257547e-05,1.108425672258496e-05
217.5398672586693,114.7323327561303,12.5,0,-1.988598969611584,4.039562679032072,-0.3741769547253073,-9.595166845982728e-06,1.45174797485919e-05,-2.993415637802459e-06,1.038492311937304e-05,1.107253235488667e-05
216.4664113901432,117.1123492210835,12.5,0,-1.623167627553082,4.398512966442727,-0.6078646022710334,-8.712946781324043e-06,1.537377559465919e-05,-4.862916818168268e-06,1.25570771198435e-05,1.246170145345444e-05
218.294635721284,116.8153832574081,12.5,0,-1.624670620063732,4.208594642257868,-0.5069608133889182,-8.565821698010235e-06,1.476723935127616e-05,-4.055686507111345e-06,1.182830587740694e-05,1.243880990521255e-05
218.8944496953832,114.5231929863917,12.5,0,-2.045435938516241,4.245118078202108,-0.6813161086877781,-9.941489465813656e-06,1.522072660105974e-05,-5.450528869502225e-06,1.107872599916695e-05,1.105732130230799e-05
220.7448437155333,114.237502747975,12.5,0,-2.051196566475158,4.049384078570965,-0.5814642835563706,-9.803336275577277e-06,1.459898630460721e-05,-4.651714268450965e-06,1.034042313675756e-05,1.102748830152294e-05
219.6329888192557,116.5979890838883,12.5,0,-1.689388658178769,4.411879875346673,-0.8134451387832359,-8.935547606449398e-06,1.546952652765237e-05,-6.507561110265887e-06,1.251514686479175e-05,1.241435516191571e-05
221.4612131503964,116.3010231202129,12.5,0,-1.692773855235377,4.215433840934008,-0.7135512219572983,-8.789223409500413e-06,1.484360737517712e-05,-5.708409775658386e-06,1.175477931892284e-05,1.237043510898173e-05
193.4178183377103,89.45201769256801,12.5,0,-6.447639495849931,2.316052617309169,0.7680343490332038,-2.248528848056711e-05,1.256947997206929e-05,6.14427479226563e-06,3.652893270215117e-06,3.637873510397929e-06
195.407576818216,89.57680743479413,12.5,0,-6.500531166980622,2.186679951813335,0.9020055731125882,-2.255104369578865e-05,1.219780077938717e-05,7.216044584900706e-06,3.538049152620581e-06,3.686355719418809e-06
194.0770785988597,91.55492138827714,12.5,0,-6.066274193295683,2.450054196887145,0.6750848114484758,-2.13721207760559e-05,1.269319278467541e-05,5.400678491587806e-06,3.768782862845324e-06,3.742579419428593e-06
196.0678782728761,91.68769275460927,12.5,0,-6.12066527850804,2.320071951822042,0.8095118958805544,-2.144218645268336e-05,1.232076246863697e-05,6.476095167044435e-06,3.637540477598165e-06,3.798971888564689e-06
194.5596906054116,93.09435373689513,12.5,0,-5.817672520958403,2.507504745935238,0.7263213790413122,-2.062255586381508e-05,1.267815320375948e-05,5.810571032330498e-06,3.845431556413436e-06,3.840407791915641e-06
196.5512524859784,93.23296805759955,12.5,0,-5.872514538323639,2.379222375452219,0.8603798304264516,-2.069542442299742e-05,1.231152323210601e-05,6.883038643411613e-06,3.71052154042334e-06,3.903866031625359e-06
195.2189508665609,95.19725743260427,12.5,0,-5.437324019256513,2.640692624341106,0.6341877156174449,-1.951199096109372e-05,1.280007561329675e-05,5.073501724939559e-06,4.012740105250622e-06,4.002973966952731e-06
197.2115539406385,95.34385337741469,12.5,0,-5.49366495315958,2.511803819058488,0.7686995555860969,-1.958917090535744e-05,1.243270418351482e-05,6.149596444688776e-06,3.856205929323019e-06,4.077825990749809e-06
198.0091769689087,93.33444078300751,12.5,0,-5.78176011048588,2.614841065554296,0.5690493153813353,-2.059350520599825e-05,1.299289949816245e-05,4.552394523050683e-06,3.960312759708897e-06,3.949804084194069e-06
200.0007388494756,93.47305510371191,12.5,0,-5.838647793119907,2.478346319021318,0.7032794705495905,-2.066634999320076e-05,1.260162645536414e-05,5.626235764396724e-06,3.800662735799159e-06,4.011850938108172e-06
198.6702406301193,95.45116905719493,12.5,0,-5.398398573677184,2.75145314283675,0.4732051212000483,-1.947603795003638e-05,1.312336891601935e-05,3.785640969600386e-06,4.151665731543058e-06,4.132119729465061e-06
200.6628437041968,95.59776500200536,12.5,0,-5.456788279474267,2.614336822782777,0.6078999312560237,-1.955319195254387e-05,1.27313084564843e-05,4.86319945004819e-06,3.966746145009431e-06,4.205600958377224e-06
196.8641811206753,89.6681598663632,12.5,0,-6.415691572934819,2.41530903850689,0.6172613552780341,-2.246246026419693e-05,1.28615421815699e-05,4.938090842224272e-06,3.740500272751317e-06,3.721198516889817e-06
198.853939601181,89.79294960858931,12.5,0,-6.470221040089121,2.279022397739471,0.7508172880961659,-2.252792524647676e-05,1.24690485048376e-05,6.006538304769327e-06,3.60669920602032e-06,3.767908600841612e-06
197.5252447818858,91.78488814055061,12.5,0,-6.032939930998882,2.551932663652369,0.5212836318124715,-2.134695391011832e-05,1.299253646848669e-05,4.170269054499772e-06,3.872981208048007e-06,3.839698077135141e-06
199.5160444559022,91.91765950688274,12.5,0,-6.088965422839641,2.415025358419164,0.6553036302021573,-2.141670963982218e-05,1.259925348521304e-05,5.242429041617258e-06,3.720327812995253e-06,3.894571624376881e-06
216.8805257380612,204.1552058119227,12.5,0.5211060156637031,16.74872932244703,10.37801888080809,-3.748143371758195,9.457942719818602e-05,4.136756277714373e-05,-6.261332978659614e-05,0.0002071668029475325,0.0002015929553497219
219.0552049927311,204.0812076098918,12.5,0.5542633889697164,15.83743503398279,10.62068262905371,-3.381864032247449,9.463715782286503e-05,4.782249395335713e-05,-6.069708340861743e-05,0.0002167272738941506,0.0002155448800919882
215.967465640821,206.2263691534126,12.5,0.5277127460361069,16.8610359154609,10.70109706425832,-3.31127591861471,9.6116160021415e-05,4.394503916644893e-05,-5.608918539847549e-05,0.0002131238214937725,0.0002042266120832459
218.1392747362622,205.9819281113342,12.5,0.5639403678180377,15.85080387607995,10.90040301105699,-2.914724812333599,9.632226166966817e-05,5.091195078854344e-05,-5.34738755385148e-05,0.0002236798636029369,0.0002199893224621476
220.6471806972479,204.0270371663388,12.5,0.573638879478227,16.7688218147982,10.10284579671358,-3.657476613886949,0.0001068998812889081,4.436157094835059e-05,-6.862683181639069e-05,0.0002305624350882545,0.0002246319658008163
222.8218599519178,203.9530389643079,12.5,0.5948547597301783,16.14779110520259,10.39189882441336,-3.283829757466738,0.0001070218977476837,5.019395844417984e-05,-6.484251929564318e-05,0.0002392359135618362,0.0002355064209088568
219.7291493383978,205.8029848490854,12.5,0.5846882352679404,16.79659108259191,10.25774527377621,-3.255614494060179,0.0001096595355892587,4.668182713898873e-05,-6.271172204641118e-05,0.0002380233032326388,0.0002301666625946495
221.900958433839,205.558543807007,12.5,0.6069795331412626,16.16206443023047,10.55813911119363,-2.852708990274671,0.0001101013777568378,5.306694019864268e-05,-5.806738795208883e-05,0.0002480074832877838,0.0002422089625448349
222.2372576536891,200.9510055482927,12.5,0.5442883039317279,17.06449177121137,10.20190390616408,-3.481762658944473,0.0001019171790929566,4.168095584694033e-05,-6.112219965357843e-05,0.0002187866147437979,0.0002111481173958201
224.4169081699689,201.1722230050051,12.5,0.5642756088658099,16.44928906992402,10.50045895201506,-3.148066090740621,0.0001015260076375229,4.69150632979218e-05,-5.779921720785395e-05,0.0002258141189239747,0.000220146588047992
221.3192262948391,202.7269532310393,12.5,0.5629712496559708,16.87388634956407,10.19586932950069,-3.034573917430595,0.0001048895314528378,4.376753877106173e-05,-5.554918599825348e-05,0.0002262517022482045,0.0002195359619737338
223.4960066518901,202.7777278477043,12.5,0.5835713795822881,16.26244112743123,10.50189632396649,-2.680291195248326,0.0001047917756105091,4.945893323587654e-05,-5.149100832809762e-05,0.0002344076959625355,0.0002295948254794987
218.4619922168167,200.5678456737525,12.5,0.4954319231618878,17.03896779546695,10.45248003217511,-3.565536614801471,9.14895631309731e-05,3.927470400182467e-05,-5.653209988463781e-05,0.0001991853744852226,0.0001919738094983513
220.6416427330964,200.7890631304649,12.5,0.5261544898698307,16.17366032233898,10.63126262931012,-3.255123625631664,9.127595809899162e-05,4.448942050781497e-05,-5.495670729875575e-05,0.0002065114557588393,0.000203599244135138
217.5489321195764,202.6390090152424,12.5,0.5126237327587766,16.85302478883016,10.51240867123327,-3.104800325221165,9.339755635811501e-05,4.135878021098969e-05,-5.096350452673095e-05,0.0002050200192994975,0.0001983098267921837
219.7257124766275,202.6897836319073,12.5,0.5443000102375926,15.96237023451132,10.67793365498993,-2.781687817601568,9.334482945374287e-05,4.695960497939875e-05,-4.883366916996214e-05,0.0002131682671356508,0.0002111531718405199
171.0598344244819,87.49322229802753,12.5,0,-6.657648269237744,1.562702656565389,1.527810134750036,-2.255463658681309e-05,1.032676711639944e-05,1.222248107800029e-05,3.108931491796084e-06,3.085485804649056e-06
173.3120310080938,87.64652327796787,12.5,0,-6.716095533347192,1.429336492580751,1.678578120998746,-2.263497490077561e-05,9.946753202936154e-06,1.342862496798996e-05,3.055034010478704e-06,3.13865281535633e-06
171.8291854237289,89.51504235355937,12.5,0,-6.289315925981139,1.695835072882352,1.433662105079068,-2.148247902144552e-05,1.045812497400844e-05,1.146929684063254e-05,3.153710601540233e-06,3.118595917583408e-06
174.0589465928747,89.66948220026046,12.5,0,-6.348881183785307,1.560884110424976,1.586144691527309,-2.156512707645296e-05,1.007393410038817e-05,1.268915753221847e-05,3.090272755313555e-06,3.177546467591298e-06
172.3923894440076,90.99511735790747,12.5,0,-6.068333916292789,1.709336128233765,1.518197823719741,-2.078613743472393e-05,1.032454274338228e-05,1.214558258975793e-05,3.179073424304266e-06,3.153044867041517e-06
174.6057267498761,91.15039091294045,12.5,0,-6.126797041343631,1.576114091265063,1.664969158182722,-2.086664180531167e-05,9.945002725123106e-06,1.331975326546178e-05,3.116011855947144e-06,3.216440035287358e-06
173.1617404432546,93.01693741343929,12.5,0,-5.70355442404379,1.842258059182793,1.423870147652408,-1.972518060428636e-05,1.045806932861997e-05,1.139096118121926e-05,3.247998141773479e-06,3.214051034298092e-06
175.352642334657,93.17334983523305,12.5,0,-5.763151517283025,1.707423649767853,1.57234532967892,-1.980802377511996e-05,1.007427689308355e-05,1.257876263743136e-05,3.172926349488192e-06,3.283805586090164e-06
176.2260021119906,91.2640590442916,12.5,0,-6.048299381713013,1.846773817774222,1.402523727619843,-2.083197707570102e-05,1.074831572224792e-05,1.122018982095875e-05,3.275209719123817e-06,3.26280650102032e-06
178.4393394178591,91.41933259932458,12.5,0,-6.104416847328722,1.724167751556022,1.55077166527351,-2.091346811269673e-05,1.040087028284225e-05,1.240617332218808e-05,3.213851600425401e-06,3.326086872929717e-06
176.9564938334942,93.2878516749161,12.5,0,-5.680302288333457,1.975041212300507,1.313830225383321,-1.975700029250747e-05,1.086437371002839e-05,1.051064180306656e-05,3.352800724501294e-06,3.335218494091434e-06
179.1473957248966,93.44426409670983,12.5,0,-5.737530389667614,1.850946583523605,1.463785876813789,-1.984085451375525e-05,1.051305337900963e-05,1.171028701451031e-05,3.279491069044861e-06,3.405926619129664e-06
174.9607533358606,87.75874738412952,12.5,0,-6.6425127066373,1.70040117239084,1.415595950207036,-2.261636159915203e-05,1.075529391696053e-05,1.132476760165628e-05,3.198060125023828e-06,3.177672023361129e-06
177.2129499194725,87.91204836406985,12.5,0,-6.699550622696002,1.5728819713225,1.566522222105377,-2.26968675696852e-05,1.03928628063888e-05,1.253217777684302e-05,3.141008360306214e-06,3.231107471398596e-06
175.6912450573643,89.78254001475399,12.5,0,-6.274129171790973,1.82966861309319,1.32588157971074,-2.154094824020566e-05,1.087424289933098e-05,1.060705263768592e-05,3.249968455480497e-06,3.220592051419075e-06
177.9210062265101,89.93697986145509,12.5,0,-6.332267721790418,1.700634983131212,1.478514023294512,-2.162376469623431e-05,1.050784612345221e-05,1.182811218635609e-05,3.183038319349433e-06,3.279244223475139e-06
218.1385192774534,102.9984477394941,12.5,0,-4.093250005915717,3.490700792221323,-0.5235827400462896,-1.589096065270735e-05,1.444484253984081e-05,-4.188661920370316e-06,5.990514550455861e-06,6.09594197059493e-06
219.9743492176327,102.6232461060316,12.5,0,-4.08816186029255,3.292299762145825,-0.4328718852400094,-1.571595776265282e-05,1.380588872710068e-05,-3.462975081920075e-06,5.505256564782765e-06,6.06868653730382e-06
218.9424605436712,105.161537885876,12.5,0,-3.731529732952545,3.669081088980682,-0.6653840684686326,-1.487616001663269e-05,1.472628327110021e-05,-5.323072547749061e-06,6.752725798794384e-06,6.763325234031899e-06
220.7968691501712,104.808409191002,12.5,0,-3.73042380392199,3.469754519223634,-0.5735911932416826,-1.471315978792927e-05,1.408755350465322e-05,-4.588729545933461e-06,6.203585692032382e-06,6.73124481629361e-06
219.5309863968187,106.7450297743118,12.5,0,-3.419666303933121,3.737906467326292,-0.6472724060849216,-1.393325734644702e-05,1.469703373859063e-05,-5.178179248679373e-06,7.238230195344144e-06,7.341775907126961e-06
221.398995531002,106.4080595919563,12.5,0,-3.422560752739748,3.525527973371234,-0.5512298194782558,-1.377261678746418e-05,1.401973811697974e-05,-4.409838555826046e-06,6.610178475920145e-06,7.306831217929006e-06
220.3349276630365,108.9081199206938,12.5,0,-3.049518559361914,3.922060524587565,-0.7940584848688639,-1.289610780962817e-05,1.499020852616974e-05,-6.352467878950911e-06,8.289755095743793e-06,8.254749272325302e-06
222.2215154635405,108.5932226769267,12.5,0,-3.056410358466731,3.708773710051096,-0.6969167543422069,-1.274753211513442e-05,1.431320415893689e-05,-5.575334034737655e-06,7.591456552694769e-06,8.216804232419722e-06
222.7664731261687,106.1613802978467,12.5,0,-3.487002995000951,3.71281433768995,-0.8425480696533239,-1.4128661054155e-05,1.46706082766086e-05,-6.740384557226591e-06,7.169209307094968e-06,7.276306886720618e-06
224.634482260352,105.8244101154912,12.5,0,-3.493001708095401,3.487729280381242,-0.7472058510001299,-1.396778889021027e-05,1.39551350636963e-05,-5.97764680800104e-06,6.507435707384108e-06,7.22785755218665e-06
223.6025935863905,108.3627018953356,12.5,0,-3.107868078257828,3.908242507290544,-0.9987172820763652,-1.307177185625748e-05,1.4992670485936e-05,-7.989738256610921e-06,8.258756585582255e-06,8.182421381074533e-06
225.4891813868946,108.0478046515685,12.5,0,-3.117870490214253,3.682209799134406,-0.9021928206638131,-1.292295340799313e-05,1.42773677494015e-05,-7.217542565310505e-06,7.520537179868402e-06,8.126430724191983e-06
221.3182700078428,102.3485794472659,12.5,0,-4.175443382020807,3.467001869686506,-0.7081075438070987,-1.613502031821579e-05,1.443476068861346e-05,-5.66486035045679e-06,5.937334365158759e-06,6.045670157018765e-06
223.1540999480221,101.9733778138035,12.5,0,-4.173359335673325,3.255637645073317,-0.617931784227058,-1.595925999021329e-05,1.375672793277327e-05,-4.943454273816463e-06,5.424670250342984e-06,6.010043669962103e-06
222.1543904680645,104.5499010447547,12.5,0,-3.803864364867582,3.656951058764153,-0.8595562112225603,-1.509792681458758e-05,1.474533487993935e-05,-6.876449689780482e-06,6.729963935934277e-06,6.703766121826481e-06
224.0087990745646,104.1967723498808,12.5,0,-3.805779083467779,3.444620076479248,-0.768212286546689,-1.493418912828029e-05,1.406740751150781e-05,-6.145698292373512e-06,6.147714583979415e-06,6.66077335015172e-06
260.2194705378861,172.8400439626908,12.5,0,11.77063930637071,4.341496093879871,-4.178991914747821,3.419284890528239e-05,4.476276055319015e-06,-3.343193531798257e-05,6.016712552633857e-05,6.014507603084522e-05
262.3490880301819,173.3664139128195,12.5,0,11.44535460306915,3.748627670071464,-3.841860928303656,3.362623259376411e-05,2.839324861773364e-06,-3.073488742642925e-05,5.683865210646369e-05,5.926402787520473e-05
260.6419734920353,174.8851132191567,12.5,0,12.53376628139635,4.634065984314346,-4.433087891388046,3.640079931301683e-05,4.801998124688827e-06,-3.546470313110436e-05,6.409737238284615e-05,6.16816966474189e-05
262.7672342334862,175.4118751120871,12.5,0,12.20718783153804,4.039672024923329,-4.095022925436527,3.583126344098306e-05,3.161200214524219e-06,-3.276018340349221e-05,6.075810126816778e-05,6.07119566856709e-05
260.9512671208074,176.3822078198232,12.5,0,12.60534713401163,4.160993379176983,-4.057466478001319,3.700831612549562e-05,3.230901106157039e-06,-3.245973182401055e-05,6.263258678710948e-05,6.276507467928623e-05
263.073338499284,176.9092566347982,12.5,0,12.28241635434526,3.572839534220946,-3.723776099501266,3.644546070652807e-05,1.607153426030818e-06,-2.979020879601013e-05,5.934654480013743e-05,6.172974977797214e-05
261.3737700749567,178.4272770762891,12.5,0,13.36253271365186,4.451617090407805,-4.310219439524431,3.919881101135969e-05,3.555148518383493e-06,-3.448175551619545e-05,6.653323722956077e-05,6.418829788970393e-05
263.4914847025882,178.9547178340658,12.5,0,13.03831295755378,3.861943765193225,-3.975600127447006,3.863304645201752e-05,1.927569682575294e-06,-3.180480101957605e-05,6.323545421910528e-05,6.306248340738378e-05
264.6268025655505,177.2950831454124,12.5,0,12.67694917263938,3.526863177516161,-3.939052701671563,3.774474681043308e-05,1.14440282994021e-06,-3.15124216133725e-05,6.076518343869124e-05,6.097720118426252e-05
266.748873944027,177.8221319603874,12.5,0,12.37626914633571,2.99442509865673,-3.623747373564094,3.720852118934889e-05,-3.188550013670348e-07,-2.898997898851275e-05,5.777081478476289e-05,5.995652509231001e-05
265.0417594058804,179.3408312667246,12.5,0,13.39671171822412,3.796484792367792,-4.168833836914478,3.983228966442293e-05,1.431381960997642e-06,-3.335067069531582e-05,6.444491167754905e-05,6.224909628101031e-05
267.159474033512,179.8682720245013,12.5,0,13.09482190185216,3.262668023060522,-3.852658784709716,3.929329566747849e-05,-3.531984768805757e-08,-3.082127027767773e-05,6.143899092913179e-05,6.115269580776121e-05
263.9080762351635,173.7517434598748,12.5,0,11.89166437771176,3.726449693519865,-4.088004433128823,3.507216625386173e-05,2.411307517094161e-06,-3.270403546503059e-05,5.854247698142003e-05,5.861622701683079e-05
266.0376937274592,174.2781134100035,12.5,0,11.58628675627171,3.184403649219082,-3.767060519178217,3.452859470069421e-05,9.210622724836921e-07,-3.013648415342574e-05,5.548064472221222e-05,5.772745031413173e-05
264.3230330754935,175.7974915811869,12.5,0,12.62221584841774,4.000097897163871,-4.321200765072537,3.719101239720566e-05,2.702540592190196e-06,-3.45696061205803e-05,6.227817698037932e-05,6.000377679874806e-05
266.4482938169443,176.3242534741174,12.5,0,12.3156145552281,3.456654257708112,-3.999375466675844,3.664464317056342e-05,1.20880198048348e-06,-3.199500373340675e-05,5.92055364572951e-05,5.903873332844221e-05
246.3805381819802,120.6185746389025,12.5,0,-0.2333248209232019,4.077349085996794,-2.703608511805673,-4.00851869575168e-06,1.32341769319283e-05,-2.162886809444538e-05,1.636402197871445e-05,1.586879720639301e-05
248.5979191615662,121.191268502946,12.5,0,-0.3450155955004248,4.003302536677389,-2.554533445559538,-4.306691934943271e-06,1.308658059376798e-05,-2.04362675644763e-05,1.565180340430223e-05,1.621353462273966e-05
246.1698412529018,122.6455050879953,12.5,0,0.1131263091907626,4.159631079373645,-2.706723645692845,-2.965700674088475e-06,1.322031840664305e-05,-2.165378916554276e-05,1.764300956499033e-05,1.737820659176245e-05
248.403608270344,123.2119882851347,12.5,0,0.003941163256859781,4.086507503446455,-2.558692795563754,-3.256594280335212e-06,1.307367108042317e-05,-2.046954236451003e-05,1.693343442796987e-05,1.772465569083436e-05
246.0156003958244,124.1293211600766,12.5,0,0.4239767857511031,4.284242120327527,-2.780332165830917,-2.070667981858492e-06,1.33703933564472e-05,-2.224265732664733e-05,1.906841096901783e-05,1.852739919118261e-05
248.2613628255113,124.6912578334935,12.5,0,0.3141221021092075,4.208970751216805,-2.630016810419966,-2.36198587422398e-06,1.321740872220641e-05,-2.104013448335973e-05,1.834104852905968e-05,1.887131824986894e-05
245.8049034667461,126.1562516091694,12.5,0,0.7689588801928255,4.366054855869193,-2.783896000486822,-1.032175468078313e-06,1.335620843462716e-05,-2.227116800389457e-05,2.040935041348533e-05,2.015764237524467e-05
248.0670519342891,126.7119776156822,12.5,0,0.6615604445915004,4.291701589075897,-2.63462320639914,-1.316367848567916e-06,1.320419672936967e-05,-2.107698565119312e-05,1.96892466780156e-05,2.049293755232684e-05
249.9053750257016,125.1026240290535,12.5,0,0.7273732679093045,4.143278424644804,-3.016728582206149,-9.870282824060692e-07,1.267659234453593e-05,-2.413382865764919e-05,1.968940566181232e-05,1.910271841147455e-05
252.1511374553885,125.6645607024704,12.5,0,0.6035932841633955,4.028910386589062,-2.856212596242573,-1.291629799948384e-06,1.240963860975428e-05,-2.284970076994058e-05,1.876191840126825e-05,1.939099635120127e-05
249.7230595467242,127.1187972875197,12.5,0,1.085579703278281,4.226137566658122,-3.034125316446468,9.294499716400173e-08,1.265517645068336e-05,-2.427300253157174e-05,2.109980296382685e-05,2.071762725344579e-05
251.9852080142671,127.6745232940326,12.5,0,0.9644389822285107,4.112969676729538,-2.874800105865933,-2.04170998252396e-07,1.238995177975171e-05,-2.299840084692747e-05,2.018085088207277e-05,2.099619575578415e-05
250.221154698291,121.610509508591,12.5,0,0.06601843787047512,3.945569703098933,-2.926913389993027,-2.945196761293625e-06,1.25730082996202e-05,-2.341530711994421e-05,1.695990020270134e-05,1.644861847662653e-05
252.438535677877,122.1832033726344,12.5,0,-0.05455743734115592,3.842720478252314,-2.772483457863051,-3.24876018209355e-06,1.234035148028033e-05,-2.217986766290441e-05,1.610359756753558e-05,1.67461420931652e-05
250.0388392193136,123.6266827670572,12.5,0,0.4164182985851412,4.02726320858953,-2.941105063547229,-1.889272011399172e-06,1.255410762861838e-05,-2.352884050837783e-05,1.827733402464011e-05,1.795884095728005e-05
252.2726062367556,124.1931659641966,12.5,0,0.2984517665201876,3.925542537035205,-2.78782171050972,-2.185388376763563e-06,1.23229747052965e-05,-2.230257368407776e-05,1.742473097906514e-05,1.825219790454903e-05
195.7091161519083,96.73734600358273,12.5,0,-5.187418717070424,2.710455866310136,0.6828003176733233,-1.876810458767346e-05,1.282339374584877e-05,5.462402541386586e-06,4.145355062649819e-06,4.153590649809513e-06
197.7048020915148,96.88687749894784,12.5,0,-5.246117325977653,2.57433618074554,0.8181340091529681,-1.884704438772492e-05,1.243476963916785e-05,6.545072073223745e-06,3.968044309775324e-06,4.238316297579587e-06
196.3890123544916,98.84204253212178,12.5,0,-4.807552177754233,2.846630456131138,0.5870892162928275,-1.766147133371845e-05,1.295525920182302e-05,4.69671373034262e-06,4.395895976423897e-06,4.402516904822137e-06
198.3920796458451,98.9916124766448,12.5,0,-4.865934602704908,2.711058038182871,0.721888707276683,-1.7739837159202e-05,1.256813340434911e-05,5.775109658213463e-06,4.189003327626601e-06,4.502824010855047e-06
196.8867309186345,100.3827873254607,12.5,0,-4.556813927618697,2.923179171731848,0.6325605302392456,-1.692034790576531e-05,1.299962449163687e-05,5.060484241913965e-06,4.600881442607885e-06,4.630318028777117e-06
198.8952017344951,100.5323854167208,12.5,0,-4.615867067995917,2.785609412541753,0.7686549964842595,-1.699926214762033e-05,1.260664377453034e-05,6.149239971874076e-06,4.374293592891185e-06,4.744150458177267e-06
197.5666271212178,102.4874838539997,12.5,0,-4.177168584019694,3.059496253080999,0.5366377004871253,-1.581453647132782e-05,1.313212287707495e-05,4.293101603897002e-06,4.972006019251668e-06,5.003756018457257e-06
199.5824792888255,102.6371203944177,12.5,0,-4.235906318766666,2.922475678130477,0.6721985299210282,-1.589288076255771e-05,1.274064722503086e-05,5.377588239368226e-06,4.704798329277261e-06,5.138958860224238e-06
200.365504417162,100.6418988202339,12.5,0,-4.514467795058627,3.044519517440977,0.4598573555863908,-1.688191255814038e-05,1.335403669185803e-05,3.678858844691126e-06,4.806436581094884e-06,4.826835459301523e-06
202.3739752330226,100.791496911494,12.5,0,-4.577684906573561,2.890547804925094,0.5967503999826159,-1.696102994497547e-05,1.291190090101915e-05,4.774003199860927e-06,4.524452828022027e-06,4.938902654006334e-06
201.0581854959995,102.7466619446679,12.5,0,-4.132247837028089,3.187535301040537,0.3565630718569573,-1.577322131932231e-05,1.350591123295219e-05,2.852504574855658e-06,5.231645211080659e-06,5.237125280453459e-06
203.0740376636072,102.896298485086,12.5,0,-4.195133162473955,3.034176143201039,0.4929174276818867,-1.585176703447749e-05,1.306547018822249e-05,3.943339421455094e-06,4.900584818212483e-06,5.370118086361267e-06
199.1657455951953,96.9963421508822,12.5,0,-5.146567390717923,2.82608277473968,0.5188074713722478,-1.87298818700891e-05,1.316071879174131e-05,4.150459770977982e-06,4.299663457723944e-06,4.299824402889729e-06
201.1614315348017,97.14587364624731,12.5,0,-5.208934296331833,2.675344926595609,0.6546252342314309,-1.880886568953835e-05,1.272825120217141e-05,5.237001873851447e-06,4.080727604194012e-06,4.383142023911405e-06
199.8584266740328,99.10110527531626,12.5,0,-4.76501446969004,2.968190145293313,0.4164725289665752,-1.762259841924278e-05,1.331022004069063e-05,3.331780231732601e-06,4.588592785714613e-06,4.575686446101155e-06
201.8614939653863,99.25067521983931,12.5,0,-4.827050795270695,2.818056428056554,0.5517523794939952,-1.770100768731147e-05,1.287942120599753e-05,4.414019035951962e-06,4.333778186325902e-06,4.674443215132275e-06
245.4431264507294,134.8628478314419,12.5,0,2.526941716396613,5.005348369990536,-3.071276220369004,4.081934796476734e-06,1.399556141085242e-05,-2.457020976295203e-05,2.85933395470879e-05,2.774611106380866e-05
247.6995342146873,135.3594476627347,12.5,0,2.368978779385216,4.760763738205545,-2.877257930843371,3.772121103468254e-06,1.333926093874957e-05,-2.301806344674696e-05,2.705133719572971e-05,2.798255751698405e-05
245.5339523160094,136.9247268019517,12.5,0,2.960515406207607,5.122046944490053,-3.153817341514879,5.3760117442723e-06,1.402213789740208e-05,-2.523053873211903e-05,3.052496901748125e-05,2.965176175306907e-05
247.7761983488984,137.4176160621632,12.5,0,2.801683295549069,4.875954157038374,-2.958599761802621,5.064623220126321e-06,1.336170666608354e-05,-2.366879809442097e-05,2.897374186255707e-05,2.98670159847903e-05
245.600441464033,138.4341269673586,12.5,0,3.274365693983302,5.213039927269564,-3.198020478727294,6.307538278930915e-06,1.406223521207596e-05,-2.558416382981835e-05,3.194538162808914e-05,3.106611751497558e-05
247.8323203902569,138.9242999010135,12.5,0,3.108909456246615,4.948612149823052,-2.997479681790042,5.989620540130727e-06,1.334843131443647e-05,-2.397983745432034e-05,3.030275901026894e-05,3.12644389540816e-05
245.691267329313,140.4960059378685,12.5,0,3.725276751266612,5.334900395706187,-3.288358999690489,7.652965287488207e-06,1.409145986524651e-05,-2.630687199752391e-05,3.398241685412112e-05,3.302455862738585e-05
247.908984524468,140.982468300442,12.5,0,3.558899099536807,5.068822826376206,-3.086566392697084,7.333418857416815e-06,1.337311376477441e-05,-2.469253114157667e-05,3.233103226116889e-05,3.319781103820527e-05
249.4661691605256,139.2831313929287,12.5,0,3.582044018071833,4.951118589870581,-3.43737301718012,7.5016459859334e-06,1.297794427312839e-05,-2.749898413744096e-05,3.221641579670289e-05,3.138494332934139e-05
251.6980480867494,139.7733043265836,12.5,0,3.411855733136228,4.677417507210471,-3.231725385076912,7.176004340267553e-06,1.223825143656452e-05,-2.58538030806153e-05,3.052020073443137e-05,3.151584596599348e-05
249.5324661880715,141.3385834658006,12.5,0,4.041827247599363,5.072972483380065,-3.528582415680609,8.875469205613909e-06,1.300005014873672e-05,-2.822865932544487e-05,3.429169509721353e-05,3.329912974030482e-05
251.7501833832265,141.8250458283741,12.5,0,3.870689518633273,4.797561608526464,-3.321650014077263,8.548157172805302e-06,1.225564553237806e-05,-2.65732001126181e-05,3.258687339808444e-05,3.340268517139009e-05
249.3513393404271,135.7229839702558,12.5,0,2.829653648285871,4.772808454188199,-3.316600400222032,5.236644911164228e-06,1.300926413477354e-05,-2.653280320177626e-05,2.894406646401036e-05,2.813226127489276e-05
251.6077471043851,136.2195838015487,12.5,0,2.666925310069456,4.518781569962535,-3.117484994308241,4.919135736252233e-06,1.232656077582454e-05,-2.493987995446593e-05,2.734651309866434e-05,2.830481309442532e-05
249.4176363679732,137.7784360431277,12.5,0,3.272032205643933,4.889709220919637,-3.400136049620762,6.558735681324874e-06,1.302944374242769e-05,-2.72010883969661e-05,3.091483223061675e-05,3.000048509667949e-05
251.6598824008622,138.2713253033392,12.5,0,3.108406766400143,4.634113903469791,-3.199788878416863,6.239610529704625e-06,1.234243907798321e-05,-2.55983110273349e-05,2.930828780672457e-05,3.014987525989611e-05
227.725371791814,101.1730787400391,12.5,0,-4.291815894264634,3.383864577289004,-1.078143903976604,-1.644090252347803e-05,1.426181936273652e-05,-8.625151231812832e-06,5.830619785277772e-06,5.933497711191624e-06
229.5838893364454,100.8570912936305,12.5,0,-4.30414976562042,3.143732035767848,-0.9820457088821258,-1.628826487859962e-05,1.350326232695345e-05,-7.856365671057007e-06,5.255527273256567e-06,5.899448244933808e-06
228.5928403568797,103.3855857899035,12.5,0,-3.908694116968823,3.589533055031426,-1.242274351806233,-1.537944761832537e-05,1.461346106967562e-05,-9.938194814449863e-06,6.659985553060549e-06,6.548461685617041e-06
230.4542029719852,103.0605582798547,12.5,0,-3.919598622949981,3.350920757527424,-1.147081320219717,-1.522345219946188e-05,1.385862532244774e-05,-9.176650561757739e-06,6.013203509966538e-06,6.496768381763077e-06
224.5063249778124,101.720385051763,12.5,0,-4.241354409663792,3.432099383818678,-0.8929222035408717,-1.631801361797907e-05,1.43758015559508e-05,-7.143377628326974e-06,5.885936118097461e-06,5.986216859962793e-06
226.3648425224436,101.4043976053544,12.5,0,-4.25162479950767,3.202473452428872,-0.7974694960767741,-1.616717812036764e-05,1.364921488737853e-05,-6.379755968614193e-06,5.329534975670904e-06,5.956747291516284e-06
225.3688657362656,103.9485499511556,12.5,0,-3.861313892931292,3.631772719265281,-1.052188202342602,-1.526162263279236e-05,1.471072381599393e-05,-8.417505618740816e-06,6.704082486322582e-06,6.628626649579847e-06
227.2302283513711,103.6235224411068,12.5,0,-3.870181558884664,3.403602266435982,-0.9576154057774965,-1.510746280157971e-05,1.398767249970287e-05,-7.660923246219972e-06,6.079274481902053e-06,6.583793001992811e-06
226.0002893950256,105.5796798650832,12.5,0,-3.546947032678073,3.671639587285221,-1.036101058933226,-1.428754217439801e-05,1.458680430545516e-05,-8.288808471465812e-06,7.084037387643209e-06,7.188133416727894e-06
227.8637347462692,105.2480345691464,12.5,0,-3.558185756864774,3.429273186079021,-0.9422336469312013,-1.412961297083049e-05,1.382022280094469e-05,-7.53786917544961e-06,6.378732997436415e-06,7.128054394897177e-06
226.8628301534789,107.8078447644757,12.5,0,-3.166280156498364,3.876942804734386,-1.200901677187046,-1.323365074458227e-05,1.493924110034872e-05,-9.607213417496367e-06,8.195375387699053e-06,8.074324542202904e-06
228.7291205751967,107.4671594048988,12.5,0,-3.176118567984648,3.636084627454155,-1.107924106804996,-1.30724471195142e-05,1.417636566224101e-05,-8.863392854439964e-06,7.421147159180995e-06,7.987958462496805e-06
229.2278714204496,105.0052533624397,12.5,0,-3.598033530722684,3.606570248302606,-1.230524027688084,-1.439896349695467e-05,1.441945161914648e-05,-9.844192221504673e-06,6.965415787717019e-06,7.081038463522511e-06
231.0913167716932,104.6736080665029,12.5,0,-3.61222689847439,3.349872252673263,-1.13621227925133,-1.423902387725665e-05,1.360937272733395e-05,-9.089698234010643e-06,6.23043757015214e-06,7.012667572067007e-06
230.0953399855152,107.2177604123041,12.5,0,-3.213567212354119,3.819732672432683,-1.401874013890852,-1.333920121747933e-05,1.479399832166788e-05,-1.121499211112682e-05,8.091184435006961e-06,7.921101305328027e-06
231.961630407233,106.8770750527272,12.5,0,-3.22632834106016,3.564626624175237,-1.308482713812141,-1.31759519907327e-05,1.398786787020889e-05,-1.046786171049713e-05,7.281311530821111e-06,7.824810234791642e-06
237.8049048784713,129.4942998470409,12.5,0,1.212686296118439,5.047549973840249,-2.412364334315813,-1.574438314931932e-07,1.518201087939404e-05,-1.92989146745265e-05,2.401794438591269e-05,2.330943101544456e-05
240.0326071398385,130.0044239923655,12.5,0,1.096819599518258,4.93350597874557,-2.25197929611927,-4.369820645380302e-07,1.490976345237122e-05,-1.801583436895416e-05,2.312773916948298e-05,2.369320060432903e-05
237.7535212049673,131.6128952301697,12.5,0,1.600098912076746,5.142435915940426,-2.441279970132363,1.006367785893246e-06,1.517571580134797e-05,-1.95302397610589e-05,2.563343503177427e-05,2.521425245016986e-05
239.9684110362002,132.1128881248594,12.5,0,1.484871529636052,5.028044488134454,-2.280049902631898,7.291533043278023e-07,1.490184513832141e-05,-1.824039922105518e-05,2.474120236983848e-05,2.55899819434061e-05
241.663398379226,130.3778607848948,12.5,0,1.502589279176793,4.92055091358694,-2.698086462200796,8.718449624961869e-07,1.454369150013677e-05,-2.158469169760637e-05,2.466885404308539e-05,2.395493922734718e-05
243.8911006405931,130.8879849302194,12.5,0,1.381223878468017,4.79035122795329,-2.533797600318648,5.876354287350224e-07,1.422414482667611e-05,-2.027038080254918e-05,2.369060339267148e-05,2.428625285488181e-05
241.5898229257614,132.4789083271801,12.5,0,1.892866355014933,5.014813931866203,-2.730715596786142,2.045321190554822e-06,1.45331114979599e-05,-2.184572477428913e-05,2.630285674383036e-05,2.584331000813043e-05
243.8047127569943,132.9789012218698,12.5,0,1.772121348206646,4.884166995789489,-2.565566318224032,1.763454717629676e-06,1.421163730796105e-05,-2.052453054579226e-05,2.532275910750478e-05,2.615968565873358e-05
241.7908348028142,126.7387396926045,12.5,0,0.7892597228328808,4.675483729473259,-2.598771214438507,-1.214755870513389e-06,1.433014015604812e-05,-2.079016971550805e-05,2.144867774218417e-05,2.08042128222504e-05
244.0407288441419,127.2664116787726,12.5,0,0.6679237290589907,4.55294028444909,-2.435429472614291,-1.504996294570502e-06,1.40350699269899e-05,-1.948343578091433e-05,2.050561163901539e-05,2.11568985842505e-05
241.7172593493497,128.8397872348897,12.5,0,1.174618966555473,4.768800728752855,-2.628228326766689,-5.625989002477124e-08,1.432046715876475e-05,-2.102582661413352e-05,2.301780040007118e-05,2.26047172058507e-05
243.954340960543,129.3573279704229,12.5,0,1.053880546275968,4.645856212950042,-2.464029677622917,-3.44267222276935e-07,1.402363544441936e-05,-1.971223742098334e-05,2.207040672161745e-05,2.294576009841093e-05
237.8939040116581,125.8247850028469,12.5,0,0.5074448610319777,4.788429720515095,-2.317840931285895,-2.206920221109747e-06,1.491701921682272e-05,-1.854272745028715e-05,2.079557576311138e-05,2.013865661531375e-05
240.1437980529859,126.352456989015,12.5,0,0.3933969435384309,4.683972106470275,-2.160743479027251,-2.488307465853241e-06,1.467399318587413e-05,-1.728594783221801e-05,1.995628596389751e-05,2.053137570898282e-05
237.8425203381541,127.9433803859757,12.5,0,0.8844888335156227,4.880952014281023,-2.343082713906607,-1.074397344174826e-06,1.491145537888677e-05,-1.874466171125286e-05,2.23206908183154e-05,2.194942921043043e-05
240.0796019493476,128.4609211215089,12.5,0,0.7710493749909224,4.776198326578704,-2.185155503306284,-1.353600661292012e-06,1.466699514505912e-05,-1.748124402645027e-05,2.147689627204549e-05,2.233775114903045e-05
191.2777628661428,82.24237142399866,12.5,0,-7.695903823506254,1.968491453599154,0.8260703115316572,-2.620168539809933e-05,1.245589571032229e-05,6.608562492253257e-06,3.462801753950189e-06,3.441012819809982e-06
193.3457537725643,82.3490733855096,12.5,0,-7.742955235396841,1.849937772193261,0.963266830702164,-2.62574069710245e-05,1.211416505933591e-05,7.706134645617312e-06,3.384362826567951e-06,3.474234856035873e-06
191.8906430339585,84.32105821380628,12.5,0,-7.319543777912084,2.09475007590676,0.7417643973910724,-2.509834015004407e-05,1.25588352652313e-05,5.934115179128579e-06,3.513149911017302e-06,3.476983277830692e-06
193.9332589903048,84.4326555692632,12.5,0,-7.368373570180453,1.974232606961579,0.8810442576939119,-2.515818151014671e-05,1.221224319842141e-05,7.048354061551295e-06,3.424782639841706e-06,3.513345070497027e-06
192.3393024557319,85.84276255690303,12.5,0,-7.073362119934119,2.136847904870153,0.7983563681022182,-2.43442371076853e-05,1.249660299153178e-05,6.386850944817746e-06,3.532333387617618e-06,3.513268131133607e-06
194.3633426593845,85.95794358945132,12.5,0,-7.12114238057596,2.020641346955373,0.9323745076523243,-2.440416869540737e-05,1.216296621471796e-05,7.458996061218595e-06,3.445749320079152e-06,3.552485778018435e-06
192.9521826235477,87.92144934671065,12.5,0,-6.698212431810827,2.262736263477106,0.71427409343883,-2.324446879257633e-05,1.25993259885754e-05,5.71419274751064e-06,3.6060527324726e-06,3.57642973588586e-06
194.9508478771251,88.04152577320494,12.5,0,-6.747819148676543,2.144552722444386,0.8503807295928386,-2.330866345372044e-05,1.226082403076327e-05,6.803045836742709e-06,3.507385133823044e-06,3.620309965154507e-06
195.8450429249572,86.04226195734134,12.5,0,-7.046898705103401,2.225811293432775,0.6493005696580503,-2.43307248910771e-05,1.27601151030676e-05,5.194404557264402e-06,3.597618602704678e-06,3.580345490412319e-06
197.8690831286097,86.15744298988965,12.5,0,-7.093534601123674,2.114146481018897,0.7831590821493455,-2.439062790841087e-05,1.244009642015941e-05,6.265272657194764e-06,3.507434306181847e-06,3.617241993275072e-06
196.413972390004,88.12942781818634,12.5,0,-6.671400985213056,2.348265781160317,0.5697571756625155,-2.322709577761003e-05,1.285157128788346e-05,4.558057405300124e-06,3.677016700251034e-06,3.651705200724677e-06
198.4126376435814,88.24950424468062,12.5,0,-6.719839061649735,2.234706876921835,0.7056765969221936,-2.329125049881661e-05,1.252693325546966e-05,5.645412775377549e-06,3.574475064241838e-06,3.693598350152974e-06
194.8596281855908,82.42718464259954,12.5,0,-7.67617933613751,2.053027163957605,0.6812865842512124,-2.620619560680612e-05,1.271063039357434e-05,5.450292674009699e-06,3.517949354587514e-06,3.497572209992024e-06
196.9276190920123,82.53388660411048,12.5,0,-7.722133235084759,1.939108424727575,0.8188677288868568,-2.626211309205329e-05,1.238285354719605e-05,6.550941831094854e-06,3.436843019383829e-06,3.528109010491263e-06
195.4285576506376,84.51435050344453,12.5,0,-7.297993371529426,2.176213613714934,0.60138213214139,-2.509454967986611e-05,1.280227826111133e-05,4.81105705713112e-06,3.572342058247118e-06,3.539045680019796e-06
197.4711736069839,84.62594785890147,12.5,0,-7.34570730658736,2.060412140298669,0.7410273104282366,-2.515459309331849e-05,1.246988469422563e-05,5.928218483425892e-06,3.481120673605893e-06,3.572899258358137e-06
217.6009091547944,142.3193221514031,12.5,0,3.351476086504311,6.38988627884127,-0.9807464876383803,5.612814453740777e-06,1.776645522308861e-05,-7.845971901107042e-06,3.564097279075712e-05,3.498322365138239e-05
219.7425391814184,142.9173929280315,12.5,0,3.258484275947461,6.43266186378078,-0.8396064238930587,5.281020192007252e-06,1.797773054334052e-05,-6.716851391144469e-06,3.545609497891096e-05,3.591049058511456e-05
217.5496602212943,144.1844064482086,12.5,0,3.699441720353295,6.478469719465338,-0.9539900218748535,6.655437729558272e-06,1.777154972600645e-05,-7.631920174998828e-06,3.717388345315471e-05,3.698557775137766e-05
219.647064972436,144.7447991852575,12.5,0,3.609286702169532,6.523410823816609,-0.8094107983282682,6.330988787889215e-06,1.798748527447752e-05,-6.475286386626146e-06,3.700541488580089e-05,3.788375552661802e-05
213.8914971377331,141.2834331797791,12.5,0,3.09426786868617,6.207963896927848,-0.6345534811695277,4.935286062253467e-06,1.739007017522018e-05,-5.076427849356221e-06,3.401934217180766e-05,3.331803083579208e-05
216.0331271643572,141.8815039564075,12.5,0,3.009886183808385,6.275158164420237,-0.4994893430131553,4.611509256650644e-06,1.767259717909804e-05,-3.995914744105242e-06,3.396605121699104e-05,3.428857615516287e-05
213.9168486283458,143.2137777554647,12.5,0,3.444934899646648,6.294577711707348,-0.6042120796139036,5.988129509503393e-06,1.73867007577462e-05,-4.833696636911229e-06,3.555361349409297e-05,3.535281168326557e-05
216.0142533794875,143.7741704925137,12.5,0,3.36354246781589,6.364377421325941,-0.4658699654664223,5.671833959950095e-06,1.76751737739903e-05,-3.726959723731379e-06,3.551858906662751e-05,3.630741339248396e-05
213.9354072075211,144.6268880609216,12.5,0,3.789974713129916,6.510077374597501,-0.6647851577313311,6.91985718233773e-06,1.780026782820807e-05,-5.318281261850648e-06,3.75659514152641e-05,3.687448295704933e-05
216.0004368100324,145.1596985586698,12.5,0,3.7129956614435,6.577437258637383,-0.5282764301779616,6.619636309709295e-06,1.807740269848482e-05,-4.226211441423692e-06,3.753463276578939e-05,3.781695812893031e-05
213.9607586981338,146.5572326366073,12.5,0,4.155063889686536,6.600278210057091,-0.633950869808773,8.015981878951243e-06,1.779683916043346e-05,-5.071606958470185e-06,3.917589220063727e-05,3.899698534214786e-05
215.9815630251628,147.052365094776,12.5,0,4.081555108640265,6.670397288221868,-0.4940003825468849,7.724658517071353e-06,1.808002723539776e-05,-3.952003060375079e-06,3.916557248964026e-05,3.992227380805417e-05
217.5121433981402,145.5497429138111,12.5,0,4.042546093528435,6.696271487836034,-1.026136446997825,7.579130309022161e-06,1.819403188625256e-05,-8.209091575982598e-06,3.919327335767387e-05,3.848338290860192e-05
219.5771730006514,146.0825534115593,12.5,0,3.970601598772856,6.767546089795186,-0.8961896379512836,7.291888244236988e-06,1.847966620832631e-05,-7.169517103610269e-06,3.918627241277517e-05,3.936161409428408e-05
217.46089446464,147.4148272106166,12.5,0,4.380966907716175,6.783109537383077,-0.9901517300811113,8.592606474785297e-06,1.82011769934529e-05,-7.921213840648891e-06,4.069541026498488e-05,4.057310859815601e-05
219.4816987916689,147.9099596687853,12.5,0,4.31230671695447,6.85725222962402,-0.8567501120216572,8.313579710555086e-06,1.849336176123329e-05,-6.854000896173258e-06,4.07095601415287e-05,4.142593384621693e-05
227.3660547854239,123.4304807565827,12.5,0,-0.2008851606370756,4.720259750860693,-1.47066023042068,-4.419040314727196e-06,1.526553933126388e-05,-1.176528184336544e-05,1.791289811583174e-05,1.797053160949792e-05
229.0048648465327,123.8775972770492,12.5,0,-0.2518418834281684,4.826081822131914,-1.370103845876582,-4.66675948467567e-06,1.564493533756466e-05,-1.096083076701265e-05,1.811443850434484e-05,1.84072193068014e-05
226.8519203600909,125.1178630847039,12.5,0,0.08689218832646306,4.825493675198764,-1.395090692371862,-3.582339937514329e-06,1.537206600997487e-05,-1.11607255389749e-05,1.912816322049401e-05,1.93457020410061e-05
228.7811527514984,125.7804076829145,12.5,0,0.02713398120773425,4.908518537401911,-1.314769561401564,-3.839986090056779e-06,1.568555213471993e-05,-1.051815649121251e-05,1.922745773941085e-05,1.998637886339665e-05
224.5275524956795,122.6560522262452,12.5,0,-0.4332077189785293,4.569436182720962,-1.216190334914994,-5.041813646908063e-06,1.49687619598899e-05,-9.729522679319952e-06,1.655169227856466e-05,1.718164655135598e-05
226.1663625567883,123.1031687467118,12.5,0,-0.4037710778410974,4.899050316121858,-1.173703132450359,-5.211307701988998e-06,1.599997787386282e-05,-9.389625059602873e-06,1.786486444192212e-05,1.764214037942096e-05
223.5103918386255,123.9703021783435,12.5,0,-0.2396163452785391,4.794314415561591,-1.082452392473323,-4.602223837340598e-06,1.553349920601992e-05,-8.659619139786585e-06,1.790990132153982e-05,1.816758715709126e-05
225.439624230033,124.6328467765541,12.5,0,-0.2279196504809928,5.051613834967176,-1.056097628995692,-4.770633949512917e-06,1.634749999227975e-05,-8.44878103196554e-06,1.891305235056841e-05,1.885835827211631e-05
222.7657785582335,124.9323999170835,12.5,0,0.0092409924013519,4.705768415228313,-1.141647634923955,-3.735043556498324e-06,1.505106613480952e-05,-9.133181079391643e-06,1.833478114687042e-05,1.890368619443215e-05
224.9076148510633,125.7526488135729,12.5,0,0.02725332386344403,5.111775593647145,-1.115949312209766,-4.002209838554695e-06,1.633587924058011e-05,-8.927594497678128e-06,1.992279314266005e-05,1.976834412582148e-05
221.7486179011796,126.2466498691818,12.5,0,0.185581494319903,4.923586740476252,-1.014123633530552,-3.345008610557311e-06,1.560701237406808e-05,-8.112989068244413e-06,1.965220092041925e-05,1.99288055582002e-05
224.1808765243081,127.2823268434152,12.5,0,0.1923759998261663,5.264193937399414,-0.9982397541561641,-3.595751950475799e-06,1.669151979981719e-05,-7.985918033249313e-06,2.096649385871287e-05,2.103825381972325e-05
226.4755478388429,126.3531126806299,12.5,0,0.4072815429467368,4.946881441459593,-1.473262590799437,-2.654204215738116e-06,1.550419537831331e-05,-1.17861007263955e-05,2.059908621805524e-05,2.037697871201423e-05
228.6173841316727,127.1733615771193,12.5,0,0.3307452580666337,5.096003868318311,-1.38015754961393,-3.018418268841421e-06,1.604261617216529e-05,-1.104126039691144e-05,2.088725065178025e-05,2.117514139341786e-05
225.96141341351,128.040495008751,12.5,0,0.6465832729855725,5.043806412982279,-1.398346282180992,-1.965978656831991e-06,1.562291390315483e-05,-1.118677025744794e-05,2.16787006031278e-05,2.181930854248055e-05
228.3936720366385,129.0761719829845,12.5,0,0.5685188383504056,5.170041656835965,-1.320192302318323,-2.316773042747473e-06,1.608931823119476e-05,-1.056153841854659e-05,2.188123611795975e-05,2.284374146711278e-05
261.911236009745,124.3941431983282,12.5,0,0.9309422139847824,3.369357928334323,-3.498084587422108,2.835287420838454e-07,1.003719159948201e-05,-2.798467669937687e-05,1.810920205976035e-05,1.762561072343651e-05
264.1567207496381,124.9201867521183,12.5,0,0.8052126186578518,3.235256300467046,-3.331029584995423,-1.152466066851133e-08,9.708650066568266e-06,-2.664823667996338e-05,1.709292221585168e-05,1.778560861875176e-05
261.710286537345,126.3934399487996,12.5,0,1.303087027894013,3.453186453625236,-3.520609227637217,1.407329326360651e-06,1.000772702928554e-05,-2.816487382109774e-05,1.954884837313743e-05,1.910283345130918e-05
263.9507139360445,126.9180597938722,12.5,0,1.177115824833269,3.318790484866349,-3.353177968609081,1.111738251573382e-06,9.678436891705699e-06,-2.682542374887265e-05,1.852402610989336e-05,1.9250936228803e-05
261.5631813138003,127.8570267494897,12.5,0,1.605225203338728,3.511717185545719,-3.58381494742921,2.327346902247355e-06,9.953314831075318e-06,-2.867051957943369e-05,2.075576797431255e-05,2.021385367340965e-05
263.7999064817951,128.3806043674461,12.5,0,1.474405004621185,3.365104215518803,-3.412236810635744,2.026012642372748e-06,9.588809485963222e-06,-2.729789448508596e-05,1.966630456612189e-05,2.035195314169895e-05
261.3622318414003,129.8563234999611,12.5,0,1.986869826424086,3.596872650651456,-3.610141769809733,3.48048532403591e-06,9.92049662094539e-06,-2.888113415847786e-05,2.228753944726181e-05,2.177199464068095e-05
263.5938996682015,130.3784774092,12.5,0,1.855796591949194,3.449935846247565,-3.438176040000316,3.178600417239367e-06,9.555157434432853e-06,-2.750540832000253e-05,2.119270920549047e-05,2.189465967779997e-05
265.4373029472657,128.7638897854797,12.5,0,1.890659006057041,3.264570392892755,-3.721643186289805,3.438452505068328e-06,8.934098052411181e-06,-2.977314549031844e-05,2.096304820077559e-05,2.043991444952239e-05
267.6740281152605,129.2874674034361,12.5,0,1.756435625399502,3.111172947444993,-3.546592430415607,3.131655643322413e-06,8.550604931504375e-06,-2.837273944332485e-05,1.983392143419036e-05,2.054212974331714e-05
265.2275939029673,130.7607206001173,12.5,0,2.2785212717024,3.350275682383408,-3.749137548750107,4.611047523540953e-06,8.898065166264985e-06,-2.999310039000086e-05,2.252673144429674e-05,2.197045220884e-05
267.4592617297686,131.2828745093562,12.5,0,2.144037783832609,3.19653894974127,-3.573691349352374,4.303689748471334e-06,8.513694412105974e-06,-2.858953079481899e-05,2.139255765425091e-05,2.205485621736542e-05
265.8005296667905,125.3052773604704,12.5,0,1.213382806147288,3.141890150978126,-3.640574024635319,1.36931285888882e-06,9.08334223821217e-06,-2.912459219708255e-05,1.83577328949197e-05,1.789119221166756e-05
268.0460144066835,125.8313209142605,12.5,0,1.084208403660053,3.001052475592064,-3.469962035927514,1.068624911238517e-06,8.736001198966564e-06,-2.775969628742011e-05,1.730033712531508e-05,1.801965405665624e-05
265.5908206224922,127.302108175108,12.5,0,1.591956898347196,3.226374779953967,-3.664250840988345,2.513162250747852e-06,9.050833777174937e-06,-2.931400672790676e-05,1.983206445651391e-05,1.934688002759747e-05
267.8312480211918,127.8267280201806,12.5,0,1.46253377712043,3.085227499857813,-3.493254585128127,2.211926086899125e-06,8.702700977848655e-06,-2.794603668102502e-05,1.876656827728609e-05,1.946090058309244e-05
249.6215376178614,128.6084365571221,12.5,0,1.404660648679896,4.357203578315892,-3.11058751072387,1.009151213122954e-06,1.281932293166694e-05,-2.488470008579096e-05,2.263522020308539e-05,2.194376592320551e-05
251.8889911894561,129.1560255914781,12.5,0,1.267503604989228,4.19893254636089,-2.936972029010736,6.968654988768164e-07,1.242258126436346e-05,-2.349577623208588e-05,2.148946418748272e-05,2.220982915177124e-05
249.5264900290914,130.6620334683323,12.5,0,1.791186740119056,4.448671026049776,-3.148484921266408,2.17286074754116e-06,1.280279789126404e-05,-2.518787937013127e-05,2.423075834514174e-05,2.367873022428514e-05
251.7920513766399,131.1936025482393,12.5,0,1.656792901141896,4.290908098378225,-2.974954776237607,1.869010804951489e-06,1.24054715938968e-05,-2.379963820990086e-05,2.309281559238139e-05,2.392033784692839e-05
245.6941928281262,127.6599845279669,12.5,0,1.09669410020317,4.527828869787104,-2.867653076162876,-1.128419751795374e-07,1.361169710315619e-05,-2.294122460930301e-05,2.207755532129006e-05,2.140441476620458e-05
247.961646399721,128.2075735623229,12.5,0,0.9680189985485032,4.393202663400434,-2.700374796927256,-4.169013353651369e-07,1.328383332404258e-05,-2.160299837541805e-05,2.105564602798233e-05,2.172795578902723e-05
245.6024226675437,129.7413288142173,12.5,0,1.478414643407028,4.619138275307496,-2.898706593267388,1.035616238656491e-06,1.359851076625836e-05,-2.318965274613911e-05,2.36409211368588e-05,2.318041709986394e-05
247.8679840150922,130.2728978941244,12.5,0,1.352440872668081,4.485039469545907,-2.731468724769621,7.397792169011347e-07,1.327017360441243e-05,-2.185174979815697e-05,2.262613223773201e-05,2.348046905765236e-05
245.5352422473813,131.2649785797311,12.5,0,1.802669192064141,4.754579704654196,-2.969227264625702,1.964877650881895e-06,1.377251970124211e-05,-2.375381811700562e-05,2.522918680685112e-05,2.451054688115774e-05
247.7994183907887,131.7848202390469,12.5,0,1.672086288370821,4.60453025250793,-2.796297268815105,1.667051920780283e-06,1.339682777732872e-05,-2.237037815052084e-05,2.413585892906361e-05,2.479201592926919e-05
245.4434720867988,133.3463228659816,12.5,0,2.196389076935363,4.848281045136737,-3.005594564387893,3.149820210083771e-06,1.375738808288927e-05,-2.404475651510314e-05,2.688351169772599e-05,2.636852669080801e-05
247.7057560061598,133.8501445708483,12.5,0,2.068600399690847,4.698760250313231,-2.832738314285498,2.860513078760125e-06,1.338115248124966e-05,-2.266190651428399e-05,2.580019370776906e-05,2.662271535056159e-05
249.4569103649778,132.1653707455408,12.5,0,2.107545876470258,4.556221672510207,-3.213981678220902,3.099169466696659e-06,1.289387265085646e-05,-2.571185342576721e-05,2.569677613227532e-05,2.497620551171089e-05
251.7210865083851,132.6852124048566,12.5,0,1.968774203808699,4.383298730899427,-3.03483510779986,2.793438467468295e-06,1.24515365758312e-05,-2.427868086239888e-05,2.448457155668331e-05,2.519795176107646e-05
249.3618627762077,134.218967656751,12.5,0,2.506034878875912,4.650078120791575,-3.25686903570845,4.29924911576966e-06,1.287542208343231e-05,-2.60549522856676e-05,2.738030289787088e-05,2.678600961759415e-05
251.6241466955688,134.7227893616178,12.5,0,2.370120714141708,4.477665391156333,-3.077839351598951,4.002253972328397e-06,1.24324326803869e-05,-2.462271481279161e-05,2.617876273514355e-05,2.697794919197719e-05
190.7333900212499,174.4489198738322,12.5,0,10.29920186672297,5.860548326601796,0.4346966193871779,2.826900731223207e-05,1.051439315174737e-05,3.477572955097423e-06,5.890780506489813e-05,5.869787478752235e-05
192.4077823882138,173.5635505606855,12.5,0,10.48273229809537,5.753689784990673,0.5614350838665128,2.894179152591265e-05,1.002562147349386e-05,4.491480670932102e-06,5.922861101154188e-05,5.919633103385825e-05
191.9937117326974,176.0680523555284,12.5,0,10.76127635006457,6.096590118876557,0.2472653584866891,2.955881222510537e-05,1.090006730035333e-05,1.978122867893513e-06,6.144920285724198e-05,6.138358385231916e-05
193.8040197105408,175.2812425729027,12.5,0,10.90929214218105,5.976158950380648,0.3838272493969947,3.012880769467485e-05,1.039627492747323e-05,3.070617995175958e-06,6.158783318460011e-05,6.216657293197008e-05
192.9163312593199,177.2533395962647,12.5,0,11.16357075911516,6.367857190910252,0.1419582225054669,3.06291406764403e-05,1.144628640362068e-05,1.135665780043735e-06,6.389517763504018e-05,6.342012225049627e-05
194.8261363698647,176.5386803975475,12.5,0,11.31776716269352,6.233443323443392,0.3168140385372971,3.123010026186455e-05,1.089280490486404e-05,2.534512308298377e-06,6.400741008419719e-05,6.443316241889654e-05
194.1766529707673,178.8724720779608,12.5,0,11.67029990425296,6.613971946568046,-0.0580320307870042,3.205378213635502e-05,1.182847030561538e-05,-4.642562462960336e-07,6.664487469963905e-05,6.62983395613208e-05
196.2223736921917,178.2563724097648,12.5,0,11.78805915583644,6.46644724547094,0.1260393325895452,3.254863150229986e-05,1.126218386083785e-05,1.008314660716362e-06,6.657207346437633e-05,6.765535815923254e-05
196.2242107432787,176.0155135540124,12.5,0,11.10755249602747,7.009974118274062,0.1518712257349429,2.993618869266866e-05,1.354587518165502e-05,1.214969805879543e-06,6.593431163238011e-05,6.512741030124196e-05
198.1340158538235,175.3008543552953,12.5,0,11.25828474464391,6.820314779399659,0.3296478793061219,3.057025935934079e-05,1.281837949836378e-05,2.637183034448975e-06,6.583422675447061e-05,6.60110906205371e-05
197.7199451983071,177.8053561501382,12.5,0,11.70822202405849,7.345555750700317,-0.1096207484064344,3.158986587642693e-05,1.413920078299422e-05,-8.769659872514754e-07,6.934642655651004e-05,6.861174161055142e-05
199.7656659197314,177.1892564819422,12.5,0,11.82077824923777,7.13996019178796,0.07998328337019628,3.211452224413051e-05,1.339125001433125e-05,6.398662669615703e-07,6.904411418695027e-05,6.986761119327202e-05
193.6335226725848,172.9154152400273,12.5,0,10.10653277393319,6.359523403128526,0.4618738572156378,2.725328615408337e-05,1.226524867086473e-05,3.694990857725102e-06,5.993723496523514e-05,5.951630157434216e-05
195.3079150395487,172.0300459268806,12.5,0,10.25681903060432,6.186716461618868,0.5637452928696485,2.787244772863874e-05,1.159203745269692e-05,4.509962342957188e-06,5.989632763805535e-05,5.989202110157074e-05
195.1292571276131,174.705257836153,12.5,0,10.59392693141291,6.677366287269793,0.2317000580670832,2.855867315070546e-05,1.289243057413301e-05,1.853600464536665e-06,6.285743301768354e-05,6.269029448880984e-05
196.9395651054566,173.9184480535275,12.5,0,10.7115725537737,6.488793475792573,0.345463071183474,2.908599739144177e-05,1.219488107951727e-05,2.763704569467792e-06,6.263723878625371e-05,6.333813931152503e-05
261.6199550339015,179.9015224458128,12.5,0,13.40877692713372,3.992834378857825,-3.911852632347372,3.971381866374165e-05,2.050048470638062e-06,-3.129482105877898e-05,6.503193302496813e-05,6.520180547230444e-05
263.7313909714622,180.4307148662989,12.5,0,13.11023843470037,3.465696228311227,-3.600353931031407,3.918020600839219e-05,6.020371828356326e-07,-2.880283144825126e-05,6.206132802743291e-05,6.401333335048701e-05
261.8700418956772,181.8841664418803,12.5,0,14.09665728256946,4.218966629819199,-4.115462581683851,4.173413000036689e-05,2.223367389365873e-06,-3.292370065347081e-05,6.843936209698833e-05,6.654753647152542e-05
263.968680883804,182.4177525510843,12.5,0,13.79343411120007,3.687480008517466,-3.80111649196565,4.118900514902624e-05,7.651887382958359e-07,-3.04089319357252e-05,6.543499336493034e-05,6.52783700761178e-05
262.0531181847947,183.3355625802614,12.5,0,14.13435493769208,3.83688250748139,-3.715188846447189,4.216042979462954e-05,9.705400737867846e-07,-2.972151077157751e-05,6.717751674459924e-05,6.748765132603155e-05
264.1423891557544,183.8723650928394,12.5,0,13.83849216910942,3.312097590528033,-3.412499489023642,4.163349686872771e-05,-4.720814455978295e-07,-2.729999591218914e-05,6.42415973934128e-05,6.615912383447248e-05
262.3032050465704,185.3182065763288,12.5,0,14.80455715330739,4.058972647012626,-3.919154686240773,4.412740477297353e-05,1.145066747794497e-06,-3.135323748992619e-05,7.050438926773612e-05,6.871036187438072e-05
264.3796790680961,185.8594027776248,12.5,0,14.50404466667914,3.529821196768193,-3.613642187052417,4.358908597595869e-05,-3.078079036850957e-07,-2.890913749641934e-05,6.753411956810204e-05,6.730035112572619e-05
265.6718416572106,184.2653318056605,12.5,0,14.11286061485464,3.16971900469555,-3.556969895745577,4.262537876377839e-05,-1.147187676857949e-06,-2.845575916596461e-05,6.486638157586827e-05,6.521054009816137e-05
267.7611126281703,184.8021343182386,12.5,0,13.84093636689424,2.705116327456158,-3.273695395638243,4.212690331209664e-05,-2.416376845655686e-06,-2.618956316510594e-05,6.223996939810827e-05,6.394748862677477e-05
265.8997635523851,186.25558589382,12.5,0,14.74710518039127,3.372007091326083,-3.736439084271444,4.449313090419118e-05,-1.007261452069547e-06,-2.989151267417155e-05,6.798239488882601e-05,6.629816256426685e-05
267.9762375739109,186.796782095116,12.5,0,14.47086410088923,2.903542734699676,-3.450586274052203,4.398393093508579e-05,-2.28535452967242e-06,-2.760469019241762e-05,6.5324456761754e-05,6.497014324413375e-05
265.2770693546179,180.8181106050585,12.5,0,13.43024530398944,3.341004619316516,-3.770276554348079,4.030398127731298e-05,-5.298146137869969e-08,-3.016221243478463e-05,6.292461792276583e-05,6.315795959476608e-05
267.3885052921788,181.3473030255446,12.5,0,13.1545529717402,2.870315590498392,-3.477803424132962,3.979831703716991e-05,-1.338632487797304e-06,-2.782242739306369e-05,6.024788833457975e-05,6.200950715639355e-05
265.5049912497925,182.808364693218,12.5,0,14.08250058292545,3.547892358231718,-3.950856813012373,4.222568797877606e-05,8.725508000113555e-08,-3.160685450409898e-05,6.612494817568935e-05,6.436912524844e-05
267.6036302379194,183.341950802422,12.5,0,13.80244453480204,3.073327433911575,-3.655770220550186,4.170916056423727e-05,-1.207307839324592e-06,-2.924616176440149e-05,6.341701164945377e-05,6.315418857800705e-05
176.4260035067638,101.5003928127728,12.5,0,-4.282244640224051,2.155582823677235,1.460944150105546,-1.542764910765875e-05,1.032366074794639e-05,1.168755320084437e-05,3.7058435965467e-06,3.767664476917307e-06
178.5109364058195,101.6231587382977,12.5,0,-4.325225929319484,2.063688193520264,1.598771247252979,-1.549167352863856e-05,1.006398296272043e-05,1.279016997802383e-05,3.650525310743132e-06,3.881241101892524e-06
177.1363307864547,103.5105219527156,12.5,0,-3.921723037232545,2.273647949986961,1.382536104086804,-1.436843207913371e-05,1.041305186974431e-05,1.106028883269443e-05,3.920345607856303e-06,4.004154700489967e-06
179.2006439143893,103.6326695099658,12.5,0,-3.965248233995478,2.180789943089367,1.521777952433634,-1.443342630325702e-05,1.015072640508236e-05,1.217422361946907e-05,3.847250126044735e-06,4.135656500188276e-06
177.6563264451685,104.9820386128658,12.5,0,-3.683991551374051,2.324332984717079,1.442811617593842,-1.364823935217063e-05,1.038505879219389e-05,1.154249294075074e-05,4.125070831826563e-06,4.221745334439604e-06
179.7055448530027,105.1037334931213,12.5,0,-3.726171339099162,2.234975243100322,1.578320335663693,-1.371172847959757e-05,1.013285784920036e-05,1.262656268530954e-05,4.049621819713817e-06,4.368629731719746e-06
178.3666537248594,106.9921677528086,12.5,0,-3.323362829288613,2.442098466403269,1.364747336251568,-1.258843982684618e-05,1.047340535592135e-05,1.091797869001254e-05,4.45550450766112e-06,4.579723778093745e-06
180.3952523615726,107.1132442647893,12.5,0,-3.366088001745565,2.351786358669262,1.501672054691911,-1.265291069252122e-05,1.021858674913809e-05,1.201337643753529e-05,4.354734336396212e-06,4.750709038798538e-06
181.205676843279,105.1928203284854,12.5,0,-3.665976781053791,2.496051506538943,1.319512867604389,-1.372796690460328e-05,1.092014624576765e-05,1.055610294083511e-05,4.376241971526785e-06,4.479896761549657e-06
183.2548952511132,105.3145152087407,12.5,0,-3.707567423829234,2.409230799402238,1.455268686029364,-1.379160039577534e-05,1.067559249715055e-05,1.164214948823491e-05,4.286375286621159e-06,4.636999542985034e-06
181.8802896317484,107.2018784231586,12.5,0,-3.305317657255314,2.611641285494969,1.244665368718256,-1.266632953161298e-05,1.100150623938815e-05,9.957322949746047e-06,4.746943242729508e-06,4.880488022234024e-06
183.9088882684616,107.3229549351393,12.5,0,-3.347447353073601,2.523893444733962,1.381837961249657,-1.273094628562269e-05,1.075441690560756e-05,1.105470368999726e-05,4.629699917765838e-06,5.064065538044697e-06
180.0372132182352,101.7130296332163,12.5,0,-4.266758782801894,2.322630231603012,1.341031287423742,-1.551173229024847e-05,1.084582376737115e-05,1.072825029938993e-05,3.903422570785473e-06,3.967043723880917e-06
182.1221461172908,101.8357955587411,12.5,0,-4.309541170466493,2.231568251005938,1.478902855900795,-1.557578634629752e-05,1.058865133959219e-05,1.183122284720636e-05,3.833813886159203e-06,4.087884221610585e-06
180.7118260067047,103.7220877278896,12.5,0,-3.906706724014984,2.438917338855564,1.265277269051085,-1.44525953879324e-05,1.092990086354979e-05,1.012221815240868e-05,4.14681089215356e-06,4.235140099482745e-06
182.7761391346392,103.8442352851397,12.5,0,-3.950030582106443,2.346901432067602,1.404562477913302,-1.45176190083947e-05,1.067010904830148e-05,1.123649982330641e-05,4.057203831199973e-06,4.375432547588304e-06
285.068171804796,228.0633354579921,12.5,0,15.14545908393013,-0.04842179699957772,0.2832210226159237,4.850420650617609e-05,-1.227131701754276e-05,2.26576818092739e-06,5.805997166772037e-05,5.815627557876034e-05
287.0693586961753,228.0233213600423,12.5,0,15.14980903638646,-0.02113647379376005,0.2339910802212912,4.849629809547168e-05,-1.21874839452492e-05,1.87192864177033e-06,5.815782125459113e-05,5.795882474095914e-05
285.6525895094857,229.9052202705841,12.5,0,15.02224915042551,-0.08686419025586734,0.307270099297863,4.81406886335663e-05,-1.229576472915918e-05,2.458160794382904e-06,5.74711689938072e-05,5.770178434201959e-05
287.6631133376072,229.869681876999,12.5,0,15.0268900445563,-0.05958936489939326,0.2581723417189089,4.813371963449968e-05,-1.22121980033231e-05,2.065378733751271e-06,5.75698726976756e-05,5.760200004840096e-05
286.0804129621431,231.2535735350336,12.5,0,14.95569080781046,-0.03510671171263668,0.2902951943402842,4.788629595436358e-05,-1.20768941237288e-05,2.322361554722274e-06,5.737124778753406e-05,5.740287564738989e-05
288.0977719023467,231.221311584443,12.5,0,14.95858312833363,-0.01653256222704647,0.2466075332620309,4.788069206044924e-05,-1.201977070179345e-05,1.972860266096247e-06,5.743726078930539e-05,5.737298625128772e-05
286.6648306668328,233.0954583476256,12.5,0,14.84781809176084,-0.06723900296318819,0.3094767807013858,4.756680909600523e-05,-1.209341928289087e-05,2.475814245611087e-06,5.686025983081659e-05,5.704073314354347e-05
288.6915265437786,233.0676721013998,12.5,0,14.85096698010058,-0.04865714860339754,0.2659109971263123,4.756202005520458e-05,-1.203647645961134e-05,2.127287977010499e-06,5.692712863759221e-05,5.710413361447167e-05
289.5745811436162,231.1976941974604,12.5,0,14.96147784395618,-0.0414616530204488,0.2612989456681229,4.790989842307612e-05,-1.210185956483038e-05,2.090391565344983e-06,5.737339723568554e-05,5.735668811175106e-05
291.5919400838198,231.1654322468699,12.5,0,14.96137031180325,-0.03771137141479519,0.2351827542091864,4.790655409490224e-05,-1.208977263796995e-05,1.881462033673491e-06,5.738361463387319e-05,5.734205016256836e-05
290.1751708971303,233.0473311574117,12.5,0,14.89735537194661,-0.05861520576987234,0.2704536813123758,4.771842935484506e-05,-1.210545295602088e-05,2.163629450499006e-06,5.707541995834434e-05,5.715164917131401e-05
292.2018667740762,233.0195449111859,12.5,0,14.897406754834,-0.0548370112215637,0.2444157500695096,4.771557122444604e-05,-1.20934038397762e-05,1.955326000556076e-06,5.708629891538205e-05,5.721806361583449e-05
288.5343291760434,227.9940290073252,12.5,0,15.08424171247569,-0.0637884391074568,0.2607827411152787,4.832060423120817e-05,-1.227151637512441e-05,2.08626192892223e-06,5.777763946560831e-05,5.782725159482555e-05
290.5355160674226,227.9540149093754,12.5,0,15.08584110368081,-0.05069851661455971,0.227414387551152,4.831525034507025e-05,-1.223090813611124e-05,1.819315100409216e-06,5.782245916904192e-05,5.76652379124628e-05
289.1349189295574,229.8436659672765,12.5,0,15.00084956330372,-0.08843963305263092,0.2754985345461035,4.8073470309014e-05,-1.228368647641139e-05,2.203988276368828e-06,5.738317396728282e-05,5.753771523552986e-05
291.1454427576788,229.8081275736914,12.5,0,15.00265025376211,-0.07533927477301372,0.2422233342587628,4.806875223185717e-05,-1.224320588228333e-05,1.937786674070102e-06,5.742871283088593e-05,5.746187015422214e-05
145.5658851843908,88.93020984499611,12.5,0,-6.257206355773886,0.6298718623079913,1.915855466091843,-2.052695782832283e-05,7.02135504400468e-06,1.532684372873474e-05,2.421869961400118e-06,2.513088128344677e-06
148.2299697157109,89.06985443737631,12.5,0,-6.26646173953653,0.6905861260830275,2.100990463728802,-2.060514646738332e-05,7.223044995094912e-06,1.680792370983042e-05,2.568581423589448e-06,2.565731121660853e-06
145.4867696619417,90.93289250553084,12.5,0,-5.907550700808497,0.7190344086096694,1.938733990657594,-1.947938976947492e-05,7.026950668197738e-06,1.550987192526076e-05,2.45208903803433e-06,2.485383508520703e-06
148.2685766052061,91.02814809729084,12.5,0,-5.907759925658477,0.779364567892102,2.116536815034602,-1.952832341642081e-05,7.220174557781507e-06,1.693229452027681e-05,2.602781487770915e-06,2.547733920328279e-06
150.1802149482126,89.17208137399649,12.5,0,-6.244863721320571,0.7720791461520267,1.887149947948132,-2.060122722514744e-05,7.466544244742941e-06,1.509719958358506e-05,2.515894495913106e-06,2.606494643189915e-06
152.8442994795325,89.31172596637668,12.5,0,-6.25850060855045,0.8129785063570758,2.068310784139241,-2.06775847524471e-05,7.608331707183001e-06,1.654648627311393e-05,2.646958889848723e-06,2.665219661791296e-06
150.3050006244369,91.09788003016121,12.5,0,-5.918466847843562,0.8517454238549937,1.891138678844341,-1.962049025218339e-05,7.460358834610829e-06,1.512910943075472e-05,2.53587055395239e-06,2.594735856750019e-06
153.0868075677012,91.19313562192119,12.5,0,-5.923058495311803,0.892881195689623,2.064327885353111,-1.966809214154947e-05,7.595666622456235e-06,1.651462308282489e-05,2.668753580373056e-06,2.660797123306219e-06
149.9640798169389,85.83650025643126,12.5,0,-6.786700241792592,0.7409835319099756,1.872092255338312,-2.231022759926427e-05,7.800507495545994e-06,1.49767380427065e-05,2.57073649878346e-06,2.640622213926898e-06
152.4242631495855,86.05302885318146,12.5,0,-6.818838656392146,0.7630327746130514,2.042147147048515,-2.243070992014531e-05,7.89677580387548e-06,1.633717717638812e-05,2.674998595145686e-06,2.687888222788931e-06
150.0888654931633,87.76229891259598,12.5,0,-6.456403952627396,0.8221449636612148,1.872777720852371,-2.131820861933664e-05,7.795987045817803e-06,1.498222176681897e-05,2.581032787790576e-06,2.618789855538682e-06
152.6667712377542,87.93443850872598,12.5,0,-6.477737524674001,0.8454027614581421,2.03463797225654,-2.140508228812331e-05,7.887478856405253e-06,1.627710377805232e-05,2.685426248791057e-06,2.672478700019534e-06
145.7029172889374,85.46146172557506,12.5,0,-6.828944198059439,0.5783679556932089,1.909751164115279,-2.231531579834477e-05,7.313932816665819e-06,1.527800931292223e-05,2.473904646246827e-06,2.566203097751526e-06
148.163100621584,85.67799032232526,12.5,0,-6.847472402126678,0.6515762703279158,2.074396049081421,-2.24331727030677e-05,7.563021986750672e-06,1.659516839265137e-05,2.610636937483672e-06,2.60801678294326e-06
145.6238017664884,87.46414438610981,12.5,0,-6.490727113183268,0.6652479974609629,1.938301683724003,-2.130252516015522e-05,7.321375282421695e-06,1.550641346979202e-05,2.496590919364331e-06,2.534743672011017e-06
148.2017075110793,87.6362839822398,12.5,0,-6.4993658140632,0.7374050286618627,2.096124804833597,-2.138789462793173e-05,7.55918874296852e-06,1.676899843866878e-05,2.63528836149578e-06,2.581883866015471e-06
212.263959369056,115.1828925440973,12.5,0,-1.948792172301161,4.217715440537072,-0.2773900483845254,-9.610307303793372e-06,1.505572314755956e-05,-2.219120387076203e-06,1.109400387002981e-05,1.090017788759169e-05
214.2757979802003,115.138750125871,12.5,0,-2.000335715564799,3.983003511823027,-0.1492729937462828,-9.587477099265776e-06,1.434587981028552e-05,-1.194183949970262e-06,1.012910582705637e-05,1.103807448226281e-05
213.0334735238646,117.2983067476246,12.5,0,-1.566677417352908,4.396950940720237,-0.418514981130407,-8.530928488105494e-06,1.532358494418708e-05,-3.348119849043256e-06,1.264276237669268e-05,1.229096038537436e-05
215.0566872281394,117.241748180289,12.5,0,-1.615642245170398,4.165094942641661,-0.2922033092092201,-8.502131138658602e-06,1.462081761258963e-05,-2.337626473673761e-06,1.164885218458109e-05,1.24220852940137e-05
210.9311217558077,111.5188876646011,12.5,0,-2.604421190098207,3.947549391621416,-0.1648981639775253,-1.149218732161139e-05,1.471569500526709e-05,-1.319185311820202e-06,8.889868626623191e-06,8.816940659382206e-06
212.9232581277098,111.496250647466,12.5,0,-2.65425438284532,3.733647148427877,-0.03759735083113942,-1.148053174384732e-05,1.407107438124546e-05,-3.007788066491154e-07,8.099268423869935e-06,8.954049697293584e-06
211.7006359106165,113.6343018681283,12.5,0,-2.22583021704575,4.118950212881116,-0.2981489665213044,-1.041781686485129e-05,1.496130485485617e-05,-2.385191732170435e-06,1.017619676232019e-05,9.969317107551273e-06
213.7041473756489,113.599248701884,12.5,0,-2.273083184861525,3.907732929188078,-0.1726264055091394,-1.040005253490734e-05,1.432321192129107e-05,-1.381011244073116e-06,9.33453220607343e-06,1.010881714482819e-05
207.4806403441295,111.5580961284101,12.5,0,-2.614317080893266,3.862291828804834,0.05050921286841264,-1.145564812190232e-05,1.445078751689008e-05,4.040737029473011e-07,8.584021588975285e-06,8.548220679351183e-06
209.4727767160315,111.535459111275,12.5,0,-2.656902874575443,3.677525298651196,0.1766483419065828,-1.144410943756237e-05,1.389360325534418e-05,1.413186735252662e-06,7.921604436104291e-06,8.708199101762807e-06
208.2304522596959,113.6950157330286,12.5,0,-2.238891683122379,4.020800658235865,-0.07032363334873495,-1.03810939125803e-05,1.465767545285267e-05,-5.625890667898797e-07,9.785812760773704e-06,9.687263540900055e-06
210.2339637247283,113.6599625667843,12.5,0,-2.278997765233028,3.838390157146517,0.05413492855764891,-1.03635049744629e-05,1.410604671505528e-05,4.330794284611913e-07,9.077255267518115e-06,9.856362159815817e-06
208.7793526779877,115.2593494552329,12.5,0,-1.956522720413433,4.143320550956598,-0.04579178858402235,-9.575529146088263e-06,1.482384393939186e-05,-3.663343086721788e-07,1.079088011042305e-05,1.061364559951075e-05
210.7911912891321,115.2152070370066,12.5,0,-1.999197597815286,3.944443642310248,0.08097794984238962,-9.552987226857113e-06,1.422157773364502e-05,6.478235987391169e-07,9.989867696258821e-06,1.078645251121737e-05
209.5291645935541,117.3962690598514,12.5,0,-1.579157597901433,4.306873599838982,-0.1719173694332478,-8.498803193155769e-06,1.504532159780588e-05,-1.375338955465983e-06,1.224616469033515e-05,1.200552558941415e-05
211.5523782978289,117.3397104925158,12.5,0,-1.619374395744662,4.110458824441285,-0.04684038230334396,-8.470365125935948e-06,1.444896775480784e-05,-3.747230584267517e-07,1.141886869963452e-05,1.217934354893103e-05
269.1007044810014,195.2742043795996,12.5,0,15.71589490589138,2.24720234037485,-2.648342572555669,4.849310182655255e-05,-5.381668435513586e-06,-2.118674058044535e-05,6.772113608782701e-05,6.802289841188842e-05
271.1591088041999,195.847004219901,12.5,0,15.50876402671242,1.921267186497814,-2.437217456504589,4.809103113628148e-05,-6.25895622457693e-06,-1.949773965203671e-05,6.584670893294953e-05,6.653224692368775e-05
268.7260202299562,197.137749299276,12.5,0,16.14645943390821,2.304014902285417,-2.715978354676113,4.982545826667795e-05,-5.544319859813237e-06,-2.17278268374089e-05,6.956014188861645e-05,6.896309387033721e-05
270.7697787593062,197.7337703896675,12.5,0,15.93246882498905,1.975816591421714,-2.502963470585524,4.940324696682758e-05,-6.423361967441754e-06,-2.002370776468419e-05,6.765197546281108e-05,6.741234593197391e-05
268.4517323214069,198.501958862608,12.5,0,16.15182794279753,2.221262226104695,-2.396531898754447,4.990883963606834e-05,-5.813423230703e-06,-1.917225519003558e-05,6.92426662758868e-05,6.960517389208297e-05
270.4847693855431,199.11497908788,12.5,0,15.93651683506972,1.874536098059398,-2.190568666757405,4.949722499377558e-05,-6.7506979542657e-06,-1.752454933405924e-05,6.727835636891015e-05,6.800776963284079e-05
268.0770480703617,200.3655037822845,12.5,0,16.56205675945187,2.268829677393234,-2.473895769149518,5.11835178883314e-05,-5.989390439903146e-06,-1.979116615319614e-05,7.097687013315512e-05,7.04191736756431e-05
270.0954393406494,201.0017452576465,12.5,0,16.34007567440671,1.91985519207556,-2.265916661632335,5.075235800444102e-05,-6.928523924883579e-06,-1.812733329305868e-05,6.897939405395626e-05,6.875439842742279e-05
271.9730558100981,199.5637410388273,12.5,0,15.94604445346237,1.628114349051324,-2.13929395033124,4.972485077183852e-05,-7.546869645805657e-06,-1.711435160264992e-05,6.652840618636202e-05,6.690356042764232e-05
274.0060928742344,200.1767612640993,12.5,0,15.75520317288036,1.343336185321294,-1.951980901102729,4.934198120496011e-05,-8.305486745276147e-06,-1.561584720882183e-05,6.486945161080254e-05,6.548420903596878e-05
271.5730042999905,201.4675063434742,12.5,0,16.33695196022536,1.678340680710316,-2.197909986612653,5.093557372815288e-05,-7.698871389907273e-06,-1.758327989290123e-05,6.819296380470136e-05,6.760890567929378e-05
273.5913955702782,202.1037478188362,12.5,0,16.13996792668285,1.391608188639217,-2.008965419702743,5.053461081447374e-05,-8.458828137700782e-06,-1.607172335762195e-05,6.650374365604665e-05,6.614413653979085e-05
272.6659653512367,196.2663228055512,12.5,0,15.53127549236042,1.676364133384784,-2.404921371348316,4.835899026884552e-05,-7.06065516705703e-06,-1.923937097078653e-05,6.515312412423076e-05,6.549495665113853e-05
274.7243696744353,196.8391226458528,12.5,0,15.34505641558152,1.404456203236156,-2.20987226815509,4.798061556727194e-05,-7.78178528210952e-06,-1.767897814524072e-05,6.354455051497328e-05,6.41516784124173e-05
272.2659138411291,198.1700881101982,12.5,0,15.94616653563627,1.735496275983087,-2.456169515993437,4.963933589324961e-05,-7.203345145363142e-06,-1.96493561279475e-05,6.693566081139826e-05,6.633712949272519e-05
274.3096723704792,198.7661092005897,12.5,0,15.7535505335324,1.461586669447344,-2.259565993742766,4.924209237174579e-05,-7.925763084594417e-06,-1.807652794994213e-05,6.529588958694441e-05,6.495033148980282e-05
214.0306276908373,147.9745854536553,12.5,0,4.518173673158171,6.861598062038141,-0.7011790307882604,8.968877304475634e-06,1.834257485999551e-05,-5.609432246306083e-06,4.142977498544456e-05,4.060103191974648e-05
216.0309721621435,148.4359744319018,12.5,0,4.430083865476215,6.862146167490546,-0.5502590271721614,8.686551435531451e-06,1.841480064358877e-05,-4.402072217377291e-06,4.110669817131298e-05,4.150779615082398e-05
214.1961618381721,149.9165207865604,12.5,0,4.904384277444467,6.956327242481207,-0.7049833706966385,1.012896789383733e-05,1.833673975398429e-05,-5.639866965573108e-06,4.314434867256709e-05,4.286086628254065e-05
216.1848342196084,150.323398902811,12.5,0,4.826815279569796,6.959537770146859,-0.5536123435033837,9.878178678505859e-06,1.840906864081411e-05,-4.42889874802707e-06,4.286719540799503e-05,4.373420806886704e-05
214.3173412444036,151.3381161151996,12.5,0,5.261991384469494,7.205483871654348,-0.7688384965204704,1.10739853329789e-05,1.884795528171832e-05,-6.150707972163764e-06,4.533863637371642e-05,4.455463720802503e-05
216.297469063025,151.7050895109065,12.5,0,5.190251646240928,7.212472043832472,-0.6120770650317787,1.083882763290499e-05,1.892770922327117e-05,-4.89661652025423e-06,4.509419777865971e-05,4.540260949921065e-05
214.4828753917384,153.2800514481046,12.5,0,5.666347090253458,7.304539017510248,-0.7722377638277086,1.228867947480287e-05,1.884144718383002e-05,-6.177902110621669e-06,4.714169048505677e-05,4.692227107023389e-05
216.4513311204898,153.5925139818156,12.5,0,5.605769655596343,7.314353000576579,-0.6149892214858579,1.208698049744703e-05,1.892131387736798e-05,-4.919913771886863e-06,4.694669027983502e-05,4.773435505648074e-05
217.7470232316747,151.9737326815786,12.5,0,5.451724866909638,7.41043769197887,-1.130932971114398,1.151716942052774e-05,1.935202072080467e-05,-9.047463768915181e-06,4.681651473272561e-05,4.598850848390085e-05
219.7271510502961,152.3407060772855,12.5,0,5.369043980156309,7.382493956495257,-0.9670187920869791,1.127494557130398e-05,1.932874547665977e-05,-7.736150336695832e-06,4.639600457769066e-05,4.67412419870599e-05
217.8923407263246,153.821252431944,12.5,0,5.848165824942386,7.510068341029339,-1.145268745944203,1.270607596699216e-05,1.935368603133997e-05,-9.162149967553625e-06,4.859419244858714e-05,4.828948370659958e-05
219.8607964550761,154.133714965655,12.5,0,5.776943815508385,7.48497633932932,-0.9811394364938686,1.249823913816337e-05,1.933036923344711e-05,-7.849115491950949e-06,4.82245749949217e-05,4.899403939727902e-05
217.4953259477169,148.7737346060162,12.5,0,4.739300929958981,7.074599174081141,-1.064738646967256,9.506083636603828e-06,1.884727661309246e-05,-8.517909175738045e-06,4.304762015996684e-05,4.214278804191233e-05
219.4956704190231,149.2351235842628,12.5,0,4.647052092031664,7.060955811155313,-0.9115453662669765,9.221802045577073e-06,1.887741692207167e-05,-7.292362930135811e-06,4.264903688794807e-05,4.297085391975616e-05
217.6406434423668,150.6212543563817,12.5,0,5.109120381132304,7.16638683060709,-1.072258954860341,1.06160757551377e-05,1.884514155303684e-05,-8.578071638882731e-06,4.469365127984359e-05,4.434150634447927e-05
219.6293158238031,151.0281324726323,12.5,0,5.027430257367978,7.155400046457088,-0.9186924529550902,1.036345678641186e-05,1.88753359427683e-05,-7.349539623640721e-06,4.434146524022916e-05,4.512733430254501e-05
209.6411922797317,107.8690485143279,12.5,0,-3.258341667257201,3.683054874216109,-0.06429403265369843,-1.337313723459593e-05,1.439244893129731e-05,-5.143522612295875e-07,7.149549348342809e-06,7.179682248574247e-06
211.60145282353,107.8075353406152,12.5,0,-3.295554809565533,3.495114871668492,0.05802492173524006,-1.33418672879445e-05,1.38208114369916e-05,4.641993738819204e-07,6.569860707971932e-06,7.281485452881245e-06
210.3792954980719,109.9740926843375,12.5,0,-2.879747202419559,3.845677346303672,-0.1892349848074042,-1.229173292478553e-05,1.46099652701074e-05,-1.513879878459233e-06,8.136231547426274e-06,8.069460251764865e-06
212.3598428205577,109.9443657295698,12.5,0,-2.922447603173747,3.656158059069163,-0.06560285096749016,-1.227675877741132e-05,1.403766387156032e-05,-5.248228077399213e-07,7.475165331488555e-06,8.196468453725059e-06
208.3627600043592,104.2230050597604,12.5,0,-3.908699369239576,3.432053670593942,0.02966754122742983,-1.52534809180418e-05,1.410953124129227e-05,2.373403298194386e-07,5.899822709944534e-06,5.963481682805544e-06
210.2878828167495,104.1064365398554,12.5,0,-3.93480610798438,3.254981011745525,0.1455108227461896,-1.519536435494643e-05,1.356378412397318e-05,1.164086581969517e-06,5.461528176264519e-06,6.030994845514753e-06
209.1008632226995,106.3280492297698,12.5,0,-3.537516822930625,3.590934541193584,-0.09221053906102358,-1.419280146633286e-05,1.432100399016397e-05,-7.376843124881887e-07,6.606443323641348e-06,6.615386991761908e-06
211.0462728137773,106.2432669288099,12.5,0,-3.569093178806428,3.412276923411332,0.02493969456169101,-1.415091971090964e-05,1.37745606979614e-05,1.995175564935281e-07,6.097449157524997e-06,6.701248548348443e-06
205.0283494825491,104.4249076587952,12.5,0,-3.883631517511958,3.365057620607357,0.2171537993734865,-1.511966695252415e-05,1.387508959995311e-05,1.737230394987892e-06,5.762981842531534e-06,5.831271884024663e-06
206.9534722949394,104.3083391388903,12.5,0,-3.905684606145494,3.204257452889579,0.33327105702034,-1.506159670197724e-05,1.337817153416305e-05,2.66616845616272e-06,5.381218893871498e-06,5.909966076565989e-06
205.7313149694814,106.4748964826125,12.5,0,-3.524207915981048,3.512237881150861,0.1060327903249956,-1.408725563606004e-05,1.405852755246759e-05,8.482623225999648e-07,6.404800228948153e-06,6.448182903858284e-06
207.6767245605593,106.3901141816525,12.5,0,-3.551714266041199,3.349915034309502,0.2233244151497878,-1.404541767877944e-05,1.356109952262337e-05,1.786595321198303e-06,5.961025659933158e-06,6.547578256690819e-06
206.2459214218613,107.9755924565313,12.5,0,-3.252585161096284,3.60454350281633,0.1355531405423873,-1.329190731776117e-05,1.413660733788928e-05,1.084425124339098e-06,6.931049574551437e-06,6.981954703822913e-06
208.2061819656597,107.9140792828186,12.5,0,-3.284875295716089,3.436460325422431,0.2575807344194639,-1.326076920662943e-05,1.362457327792465e-05,2.060645875355711e-06,6.432818105865909e-06,7.099423226258275e-06
206.9488869087936,110.0255812803485,12.5,0,-2.887458300160853,3.753829427121624,0.02292902058454935,-1.224293010221203e-05,1.432222080691788e-05,1.834321646763948e-07,7.825617812452724e-06,7.823335361202144e-06
208.9294342312795,109.9958543255808,12.5,0,-2.925197771562613,3.584237340030088,0.1461171463664412,-1.222802274102443e-05,1.380971770534637e-05,1.168937170931529e-06,7.255269885326033e-06,7.969479540957136e-06
218.6180168152375,158.6511739766365,12.5,0,7.104915692052657,8.216185609710214,-1.344698616193574,1.616278172680033e-05,2.060786139743056e-05,-1.075758892954859e-05,5.570404589267441e-05,5.472318658164041e-05
220.6583022596428,158.8906521272363,12.5,0,7.002335521726996,8.045005145110109,-1.13412510380208,1.59714695534383e-05,2.014214804697074e-05,-9.07300083041664e-06,5.467950020617822e-05,5.539021133094486e-05
218.9385419661519,160.6309316039856,12.5,0,7.619711403772802,8.366955109656615,-1.430124551355847,1.768951240434767e-05,2.067848722788292e-05,-1.144099641084678e-05,5.811707341288066e-05,5.753274968294015e-05
221.0150996854398,160.8451332548312,12.5,0,7.526979590363331,8.201491233769454,-1.225069375652917,1.752514170214709e-05,2.022318827577159e-05,-9.800555005223333e-06,5.714954220923749e-05,5.818606141648895e-05
218.0628509687601,155.2221331794574,12.5,0,6.23048861634213,7.80706778229646,-1.207466953749827,1.369190934645765e-05,1.999822601027497e-05,-9.659735629998618e-06,5.105691044347263e-05,5.009599897060298e-05
220.0403109901637,155.5053915118682,12.5,0,6.130165735408865,7.66552881747258,-1.019457855424321,1.34841072993303e-05,1.962555962758516e-05,-8.155662843394571e-06,5.01522369346738e-05,5.077977640910652e-05
218.3833761196745,157.2018908068065,12.5,0,6.702085033499046,7.943165776996977,-1.280767274160373,1.509213948559936e-05,2.005646245959109e-05,-1.024613819328299e-05,5.325245620570734e-05,5.273051523402011e-05
220.3971084159607,157.4598726394631,12.5,0,6.611240988998126,7.806703000611586,-1.09781601801971,1.491060876430473e-05,1.969245681075857e-05,-8.782528144157678e-06,5.240070227489252e-05,5.340570324436377e-05
214.6377897418145,154.7315153560637,12.5,0,6.055245058274572,7.583474312979536,-0.8395323393935644,1.3310004736095e-05,1.942292175491486e-05,-6.716258715148515e-06,4.956138787277197e-05,4.874887673170872e-05
216.615249763218,155.0147736884744,12.5,0,5.98116836319153,7.539269761656264,-0.6620650770935635,1.310832295288789e-05,1.934072854674682e-05,-5.296520616748508e-06,4.911669674769502e-05,4.955182104215256e-05
214.8954894697272,156.7550531652237,12.5,0,6.519569633081849,7.702785686277533,-0.8718116947651656,1.470039427683989e-05,1.943325848962263e-05,-6.974493558121325e-06,5.166362735199344e-05,5.137162234225421e-05
216.9092217660133,157.0130349978803,12.5,0,6.454078977801977,7.661296831142112,-0.6984291206799478,1.452401526405263e-05,1.935288667741317e-05,-5.587432965439582e-06,5.125946707782387e-05,5.218548489897725e-05
215.0841387636479,158.2363856525025,12.5,0,6.926693300645544,7.979821569851644,-0.94229701896905,1.578156130618442e-05,1.999407438300882e-05,-7.5383761517524e-06,5.414557246621521e-05,5.335417962841413e-05
217.1244242080531,158.4758638031023,12.5,0,6.859886701506528,7.936124737581288,-0.7505887926044461,1.560273765475586e-05,1.99076897990549e-05,-6.004710340835569e-06,5.372604319877064e-05,5.417763353120012e-05
215.3418384915605,160.2599234616625,12.5,0,7.414220185722324,8.104997684426763,-0.975885155248045,1.724150644677003e-05,2.000461644158778e-05,-7.80708124198436e-06,5.635990524858995e-05,5.61478812528037e-05
217.4183962108484,160.4741251125081,12.5,0,7.355908776914033,8.064001116839325,-0.7884210480094123,1.708770719265344e-05,1.992007655235461e-05,-6.307368384075298e-06,5.598089687893135e-05,5.698662095406856e-05
296.2620312859673,190.970953695195,12.5,0,12.97098544507279,0.09078248486756246,-2.009510213460077,4.143452743633888e-05,-1.008628440448203e-05,-1.607608170768062e-05,5.037283055052204e-05,5.087627786401273e-05
298.6494359549532,191.4677008108969,12.5,0,12.86758443418375,0.002869443803271032,-1.847815264233372,4.117397463434538e-05,-1.028488532717653e-05,-1.478252211386697e-05,4.967278627416146e-05,5.016241306878271e-05
296.246944539394,193.1397754291507,12.5,0,13.35864336429268,0.1872959074862117,-2.031560572374864,4.259782203974759e-05,-1.008756778747826e-05,-1.625248457899891e-05,5.215307158548111e-05,5.166616316522274e-05
298.6141781488066,193.6628419048919,12.5,0,13.24896696354247,0.09730370261822108,-1.868213417663184,4.231885132124132e-05,-1.028780172245567e-05,-1.494570734130547e-05,5.142227660780666e-05,5.09668374053987e-05
296.288162297553,187.2144442594917,12.5,0,12.49563345040381,0.1839103695321453,-2.281523329148924,3.983889874566648e-05,-9.407993577820184e-06,-1.825218663319139e-05,4.891230410307129e-05,4.940324278604361e-05
298.7105042665615,187.6656049063836,12.5,0,12.39539961260251,0.0903720735347231,-2.111375989403627,3.959298110150025e-05,-9.627129054770893e-06,-1.689100791522902e-05,4.819843704113333e-05,4.866983113889251e-05
296.2730755509796,189.3832659934474,12.5,0,12.8983532882747,0.2841543253106589,-2.305543891987084,4.10474070622305e-05,-9.409388789625647e-06,-1.844435113589667e-05,5.076068607803617e-05,5.026993017589462e-05
298.6752464604149,189.8607460003786,12.5,0,12.79175164964668,0.188468900585403,-2.133671397476164,4.078283015840106e-05,-9.630300837844058e-06,-1.706937117980931e-05,5.001564649032603e-05,4.95469320946823e-05
292.0925429339991,186.4330110967132,12.5,0,12.68316268713393,0.3911976112262958,-2.451506402758886,4.027316250984755e-05,-8.894697793783001e-06,-1.961205122207109e-05,5.030847279800225e-05,5.079031477216754e-05
294.5148849030077,186.8841717436052,12.5,0,12.57025380684123,0.2646614375565548,-2.269632198533217,4.001308303184668e-05,-9.209286445292005e-06,-1.815705758826574e-05,4.943869336882475e-05,4.997142466312539e-05
292.1123934874484,188.556246361859,12.5,0,13.10068737174555,0.4964027915330229,-2.488224194072304,4.152507735635932e-05,-8.892060964490762e-06,-1.990579355257843e-05,5.223320193258423e-05,5.165091733007989e-05
294.5145643968837,189.0337263687902,12.5,0,12.98093978964368,0.3673200000756238,-2.304305084306732,4.124515132679927e-05,-9.209327831472946e-06,-1.843444067445386e-05,5.132878867178017e-05,5.083369132058886e-05
292.126925101131,190.1105624523016,12.5,0,13.1671383408654,0.2820173558812491,-2.178878426122266,4.190922880606429e-05,-9.631255133872325e-06,-1.743102740897813e-05,5.174609446164864e-05,5.22493892555077e-05
294.5143297701168,190.6073095680034,12.5,0,13.05237946678115,0.1665516754858953,-2.006533954984402,4.163437295331095e-05,-9.908938211870052e-06,-1.605227163987521e-05,5.091278700384376e-05,5.143548144785127e-05
292.1467756545803,192.2337977174474,12.5,0,13.56801122905921,0.3829738099456379,-2.211867993507375,4.311125688503297e-05,-9.628892791421328e-06,-1.7694943948059e-05,5.359412667278826e-05,5.30238424048372e-05
294.5140092639929,192.7568641931885,12.5,0,13.4465353909006,0.2650790744955573,-2.037583004681242,4.281684999128546e-05,-9.908975274334694e-06,-1.630066403744993e-05,5.272695483749901e-05,5.221733599363192e-05
230.7243018120195,180.9786517752328,12.5,0,15.89654126230886,10.24044891078827,-2.810153257545443,4.267657291075774e-05,2.005220350467535e-05,-2.248122606036355e-05,9.536509627309589e-05,9.744373137513286e-05
232.4255983978601,181.3631887979937,12.5,0,15.54386812611142,9.913118238202332,-2.309221686872819,4.180988341299469e-05,1.928688386135832e-05,-1.847377349498255e-05,9.281950349513123e-05,9.70968664866385e-05
231.0287285401162,183.3012250609329,12.5,0.05493839675105605,16.89110368305098,10.19034207667159,-2.885878724125653,4.856747747092132e-05,2.020631420561274e-05,-2.442912685653121e-05,0.0001046427995237303,0.0001056078035839647
232.6856811104822,183.8558667314562,12.5,0.05572596578110545,16.3875889620213,9.821390027751544,-2.374413236561901,4.721423129372209e-05,1.939942882612556e-05,-2.011630650016567e-05,0.0001012870055788321,0.0001056927736625941
230.1970192517836,176.9558368401704,12.5,0,13.68017582350913,9.772861737276084,-2.9355179789484,3.595827324540834e-05,2.032901690047616e-05,-2.348414383158721e-05,8.555826147026301e-05,8.664384425501964e-05
231.9751219254364,177.0457439704084,12.5,0,13.55232466106155,9.432830126862903,-2.590360917472409,3.582117481390663e-05,1.934319667711205e-05,-2.072288733977927e-05,8.381251825210513e-05,8.593144748752821e-05
230.5014459798803,179.2784101258705,12.5,0,15.01437206645397,10.16531730844609,-3.180091789468909,3.991373676589583e-05,2.051751773386431e-05,-2.544073431575127e-05,9.191658727447961e-05,9.236235378780352e-05
232.2352046380585,179.5384219038709,12.5,0,14.78575797270017,9.784643018991375,-2.804758506557608,3.948671109744745e-05,1.948225128261226e-05,-2.243806805246086e-05,8.965181506773127e-05,9.180183509682639e-05
227.1172550799983,176.8001131226383,12.5,0,13.58476705492006,9.913886945144137,-2.803107747973365,3.554014501962888e-05,2.085662458052519e-05,-2.242486198378692e-05,8.567643491025822e-05,8.739112315351429e-05
228.8953577536511,176.8900202528763,12.5,0,13.46654676056247,9.641917480297916,-2.400859632617657,3.537941564956158e-05,2.008089852850335e-05,-1.920687706094125e-05,8.419767686240808e-05,8.703496317091979e-05
227.4984878959072,178.8280565158155,12.5,0,14.97209432884985,10.31970932310435,-3.025318679826538,3.965493439383604e-05,2.104539437085403e-05,-2.420254943861231e-05,9.226989608337224e-05,9.264611512894131e-05
229.2322465540854,179.088068293816,12.5,0,14.73477379634849,10.00303236954447,-2.588059797784328,3.914885025267959e-05,2.022188454546352e-05,-2.070447838227463e-05,9.018907076133097e-05,9.25885779405874e-05
227.7775696866532,180.3126141144317,12.5,0,15.82136249723922,10.28280751966422,-2.733848408454251,4.24021139754341e-05,2.024789406513414e-05,-2.187078726763401e-05,9.522074689436087e-05,9.716094574892108e-05
229.4788662724938,180.6971511371926,12.5,0,15.47329908299471,9.978841155359005,-2.232745881040635,4.153148414129588e-05,1.955365243075304e-05,-1.786196704832508e-05,9.27762395944165e-05,9.746090136171253e-05
228.1588025025622,182.3405575076089,12.5,0.04209038958411393,16.85049020672306,10.3271541018226,-2.850873216680603,4.766613142155661e-05,2.042624977106021e-05,-2.380912090812299e-05,0.0001035739553383515,0.0001042407004153709
229.8157550729281,182.8951991781322,12.5,0.05131582386793887,16.19432238785876,9.884497487468781,-2.306347251372327,4.628962383479234e-05,1.968509069662553e-05,-1.944880970420042e-05,0.0001002797221469001,0.0001052187217300325
187.2645955513163,126.1959213957297,12.5,0,0.1153441365205694,3.694083002677074,1.17910230082618,-2.586165165275837e-06,1.172879029935018e-05,9.432818406609437e-06,1.484298246244408e-05,1.43777679421056e-05
189.4123959429355,126.5246859885325,12.5,0,0.04678817649161826,3.66221548317767,1.338334107637871,-2.780050221768957e-06,1.168165900497525e-05,1.070667286110296e-05,1.460153143316117e-05,1.509873918835743e-05
187.9864943217252,128.0730210238482,12.5,0,0.5372703632927195,3.80520485661765,1.112603332981366,-1.324898722757418e-06,1.17468392505423e-05,8.900826663850924e-06,1.653474577582269e-05,1.587749676583738e-05
190.0532890596839,128.5125112795805,12.5,0,0.4354011331250444,3.763726364035071,1.28608360868508,-1.617697465227915e-06,1.169560345841219e-05,1.028866886948064e-05,1.613969299150586e-05,1.671092483584893e-05
186.0142302030688,122.9446894690182,12.5,0,-0.5164589762930226,3.46610918623791,1.208369222974866,-4.425556073128e-06,1.150471657699573e-05,9.666953783798928e-06,1.217553165286286e-05,1.195806746414419e-05
188.3023365025259,123.0816715879291,12.5,0,-0.5522685584730219,3.410737917199247,1.356251184243217,-4.495849720873068e-06,1.135617618181601e-05,1.085000947394574e-05,1.196507114174159e-05,1.250110501881571e-05
186.7361289734778,124.8217890971367,12.5,0,-0.1507707586432555,3.57401046965001,1.139124181766016,-3.341674803378425e-06,1.155745010979464e-05,9.112993454128129e-06,1.357986151967127e-05,1.332756002595872e-05
188.9432296192744,125.069496878977,12.5,0,-0.2114144858899255,3.508853444665115,1.299449726358302,-3.483609110579853e-06,1.139746261164031e-05,1.039559781086641e-05,1.324829234338821e-05,1.397072136813795e-05
182.0511138393618,122.7074294793404,12.5,0,-0.540600402663988,3.186459515028141,1.348219225820048,-4.279088900547274e-06,1.062915077022124e-05,1.078575380656038e-05,1.11669861579775e-05,1.104023978686758e-05
184.339220138819,122.8444115982512,12.5,0,-0.5905538786655948,3.079228473993382,1.505135517657971,-4.353155190924609e-06,1.03259742197113e-05,1.204108414126377e-05,1.076138507922828e-05,1.156662980500516e-05
182.9133185176087,124.3927466335669,12.5,0,-0.1829727090383085,3.316622386562569,1.249828091550858,-3.238810578172643e-06,1.075956980423087e-05,9.99862473240686e-06,1.258398377810557e-05,1.226206814262362e-05
185.1204191634053,124.6404544154071,12.5,0,-0.2610820338623315,3.193664751659272,1.423299616645516,-3.390394309686878e-06,1.042859283239953e-05,1.138639693316413e-05,1.201830374400107e-05,1.286972777405157e-05
183.5444961485822,125.6264844172757,12.5,0,0.02363251441569081,3.367574783567968,1.321783393168189,-2.618435780724163e-06,1.075733329588494e-05,1.057426714534552e-05,1.34221704548414e-05,1.319407226079128e-05
185.6922965402015,125.9552490100785,12.5,0,-0.05358079330538079,3.282194985695651,1.471823056157469,-2.797214527133739e-06,1.054588858887039e-05,1.177458444925975e-05,1.297459443070204e-05,1.386741397702986e-05
184.4067008268291,127.3118015715022,12.5,0,0.3861765547453397,3.488978242828994,1.229747700686059,-1.555417619078107e-06,1.085578913325651e-05,9.837981605488469e-06,1.492638281426623e-05,1.451852650884094e-05
186.4734955647878,127.7512918272344,12.5,0,0.2751858170038712,3.388188426689795,1.397344807121102,-1.829956126939448e-06,1.062205431180425e-05,1.117875845696881e-05,1.430174482088607e-05,1.529004540464653e-05
195.0722452262606,180.0486664069751,12.5,0,12.04880460828805,6.927286614382032,-0.1997048938959227,3.301434545501613e-05,1.252827347939206e-05,-1.597639151167381e-06,6.915266536792279e-05,6.844772697621989e-05
197.1436232024681,179.4798750258731,12.5,0,12.18115383137316,6.829751502032154,0.01425874185427017,3.351589105876838e-05,1.211028174140437e-05,1.140699348341613e-07,6.930510022494107e-05,6.997116297291766e-05
196.2587270597898,181.6429565918568,12.5,0,12.5586886378708,7.132844632347945,-0.3781614078175201,3.448152793530821e-05,1.277815191321678e-05,-3.025291262540161e-06,7.177817427892394e-05,7.144174528829848e-05
198.2642863487711,181.1048543241993,12.5,0,12.69243167501677,7.030348964125167,-0.1551594271556416,3.499150218875353e-05,1.234317134518712e-05,-1.241275417245133e-06,7.191552055133037e-05,7.307586364425091e-05
197.1272920441538,182.810058009149,12.5,0,12.94033963743149,7.498882795214376,-0.5787936202000501,3.540998060360928e-05,1.364415323474081e-05,-4.630348961600401e-06,7.448829547348709e-05,7.373895058938339e-05
199.08466871,182.2944217317711,12.5,0,13.05626809908479,7.360413570460702,-0.3678472702039899,3.589172706070277e-05,1.310830894620641e-05,-2.942778161631919e-06,7.442940861295151e-05,7.547154024054902e-05
198.313773877683,184.4043481940307,12.5,0,13.48832693204348,7.742115568597887,-0.7809186683352404,3.696895372766083e-05,1.398410827387845e-05,-6.247349346681923e-06,7.739378327840767e-05,7.702101387555216e-05
200.2053318563031,183.9194010300971,12.5,0,13.60482661653233,7.59647833211198,-0.5602691583792951,3.745826250721386e-05,1.342486936953247e-05,-4.482153267034361e-06,7.730880334835619e-05,7.891194974908408e-05
200.5175678788884,181.9169497785207,12.5,0,13.07197661143579,8.227070968409905,-0.7135966802640583,3.524866838186662e-05,1.586904580976305e-05,-5.708773442112467e-06,7.75358359266389e-05,7.67338479923469e-05
202.4749445447347,181.4013135011427,12.5,0,13.19803606520447,8.072318809307623,-0.4830688582242901,3.577586036120821e-05,1.527299133762081e-05,-3.864550865794321e-06,7.745016837947482e-05,7.844994725402779e-05
201.5900484020564,183.5643950671264,12.5,0,13.68775975845991,8.487776181744929,-0.9225714310428943,3.701061028167575e-05,1.621067597481585e-05,-7.380571448343154e-06,8.075504635354661e-05,8.030054794242838e-05
203.4816063806765,183.0794479031929,12.5,0,13.81429064027387,8.325191518758933,-0.6816557787547335,3.754557683386924e-05,1.558918034780948e-05,-5.453246230037868e-06,8.064054251383471e-05,8.22033328845727e-05
198.6599771226667,179.0634908360169,12.5,0,12.11911263575013,7.612365932110444,-0.2802318585604466,3.269126768871205e-05,1.466428087415332e-05,-2.241854868483573e-06,7.181479108073259e-05,7.105809925686158e-05
200.7313550988742,178.494699454915,12.5,0,12.23582019351997,7.430386226931223,-0.06714663026148217,3.321031563771891e-05,1.398857977136394e-05,-5.371730420918573e-07,7.160740685102332e-05,7.250422841261504e-05
199.7324576458347,180.7109361246226,12.5,0,12.6722721431602,7.864702350496724,-0.4779218321426045,3.425950897771525e-05,1.502922980706136e-05,-3.823374657140836e-06,7.476503714360194e-05,7.425734133104026e-05
201.738016934816,180.172833856965,12.5,0,12.78950210813459,7.674451915145275,-0.2558061020076441,3.478684521391446e-05,1.432664444195721e-05,-2.046448816061153e-06,7.452762250192684e-05,7.585108004354252e-05
257.2243605993697,141.0152608808899,12.5,0,4.204512515847021,4.33660698754969,-3.814301932798358,9.985154460670715e-06,1.051353234748139e-05,-3.051441546238686e-05,3.246690048982702e-05,3.16995070467992e-05
259.4689826498495,141.5216966350454,12.5,0,4.009489792292684,4.011467111499193,-3.587715442912289,9.621193646137233e-06,9.629102922963269e-06,-2.870172354329831e-05,3.049348386862098e-05,3.171445140952724e-05
257.3135079797846,143.0755905356046,12.5,0,4.696648120365028,4.470521407061487,-3.922826132436122,1.14528568595189e-05,1.054835000630474e-05,-3.138260905948898e-05,3.472237258995113e-05,3.351043216946857e-05
259.578241614888,143.5867669737012,12.5,0,4.503307790382188,4.148254124057732,-3.698240022403595,1.109198162997681e-05,9.671766964678991e-06,-2.958592017922876e-05,3.276853235538793e-05,3.349167626991201e-05
257.069952807132,137.4466652386475,12.5,0,3.435308945707158,4.222603039669768,-3.699707765958708,7.61490619452709e-06,1.076408257037753e-05,-2.959766212766966e-05,2.934100040230937e-05,2.8599546839202e-05
259.2797405712236,137.9448898873542,12.5,0,3.25225134024585,3.921987063916503,-3.48528896634491,7.269614637653518e-06,9.948557532336129e-06,-2.788231173075928e-05,2.75003950661397e-05,2.866433332778737e-05
257.159100187547,139.5069948933621,12.5,0,3.909749299219579,4.351402708616343,-3.801560393919799,9.030075590609577e-06,1.079668922819663e-05,-3.041248315135839e-05,3.14917345828417e-05,3.038363928847338e-05
259.3889995362622,140.0099602260101,12.5,0,3.728294271875637,4.05348362596443,-3.589064193033724,8.687754769230494e-06,9.988512185585665e-06,-2.871251354426979e-05,2.966873653842539e-05,3.042096876663712e-05
253.2424881258501,136.5837148335197,12.5,0,3.136986675936457,4.505136666942826,-3.526522739159772,6.434248029442403e-06,1.190684799346788e-05,-2.821218191327818e-05,2.918558673417275e-05,2.841189783076385e-05
255.4522758899417,137.0819394822265,12.5,0,2.963963372593248,4.230614642509708,-3.320459627873714,6.100191078290627e-06,1.116679615795646e-05,-2.656367702298971e-05,2.747517692234939e-05,2.85319069516357e-05
253.296801219877,138.6358333827856,12.5,0,3.593044294834461,4.62478454740482,-3.616174363225857,7.797914105546418e-06,1.192487511582786e-05,-2.892939490580686e-05,3.122485778842811e-05,3.023951319205824e-05
255.5267005685921,139.1387987154336,12.5,0,3.421535223289894,4.352725545594342,-3.411960074384615,7.466732278052187e-06,1.119149356726998e-05,-2.729568059507692e-05,2.953054686289058e-05,3.033501841380435e-05
253.3365611642192,140.138088423939,12.5,0,3.899061254182145,4.654084443160987,-3.646117643216917,8.753728458854072e-06,1.177382121476944e-05,-2.916894114573534e-05,3.239952729092782e-05,3.159129050494716e-05
255.5811832146989,140.6445241780944,12.5,0,3.714225934288498,4.354403040681229,-3.428376230303268,8.40200055717821e-06,1.096270898274913e-05,-2.742700984242614e-05,3.05536402659987e-05,3.166650618187891e-05
253.390874258246,142.1902069732049,12.5,0,4.371588210827245,4.778295609426952,-3.742671321160221,1.016644578710562e-05,1.179327538150445e-05,-2.994137056928177e-05,3.453789246476989e-05,3.345679944314126e-05
255.6556078933493,142.7013834113016,12.5,0,4.188347072050076,4.481262251029555,-3.526853292375566,9.817700829736601e-06,1.098936154565451e-05,-2.821482633900453e-05,3.271014129588881e-05,3.350108695190108e-05
205.1708414452677,115.0165704196008,12.5,0,-1.976208009004742,4.023178017848609,0.1705171508218744,-9.542408043094062e-06,1.445513606431934e-05,1.364137206574995e-06,1.032426837119873e-05,1.010438999355207e-05
207.2733844761908,115.2061249340134,12.5,0,-2.052460493263029,3.845751625411106,0.3177440004317758,-9.644474878770575e-06,1.394837359592596e-05,2.541952003454206e-06,9.557901348820068e-06,1.043088749872048e-05
205.8811788745898,117.1246752130586,12.5,0,-1.582724174408382,4.175166280847202,0.05895473834035278,-8.404850382784585e-06,1.462671143823775e-05,4.716379067228223e-07,1.174360494483496e-05,1.143109350802295e-05
208.0095712880286,117.3386505303784,12.5,0,-1.662501443494297,3.997632952898193,0.2061160145416059,-8.518110981500305e-06,1.412242660406965e-05,1.648928116332847e-06,1.091530910556498e-05,1.180503259522252e-05
203.9405009271857,111.3652258097179,12.5,0,-2.631739661987882,3.75256329419564,0.2542652557946796,-1.142361755371773e-05,1.411359427101635e-05,2.034122046357437e-06,8.212459622270069e-06,8.150576434160087e-06
205.9982715142482,111.5124822527344,12.5,0,-2.699890062025643,3.578259727407429,0.3961291856714453,-1.1502255980408e-05,1.361034317732429e-05,3.169033485371563e-06,7.576582092914737e-06,8.398806135890397e-06
204.650838356508,113.4733306031757,12.5,0,-2.241154911011386,3.904615532950976,0.1421594222819481,-1.029538814159721e-05,1.428769363425223e-05,1.137275378255585e-06,9.380554275323947e-06,9.225378092881362e-06
206.7344583260862,113.6450078490994,12.5,0,-2.312921153029353,3.730175877757682,0.2840087941594104,-1.038548839190007e-05,1.378689973124806e-05,2.272070353275283e-06,8.667462341219019e-06,9.518191869733324e-06
200.3763377201368,111.1101701686761,12.5,0,-2.679605336870227,3.610637274948155,0.4577297355820326,-1.146324689794325e-05,1.369772354933027e-05,3.661837884656261e-06,7.722878702563404e-06,7.707057111920198e-06
202.4341083071992,111.2574266116926,12.5,0,-2.741058183591464,3.463189881549359,0.5989650234756162,-1.154193809273217e-05,1.327505416783112e-05,4.791720187804929e-06,7.217192808963141e-06,7.965222841828024e-06
201.0419027055984,113.1759768907378,12.5,0,-2.299394348256564,3.748506126424522,0.360015095752749,-1.035686681556062e-05,1.383473508316372e-05,2.880120766021992e-06,8.766887323570342e-06,8.699876909886884e-06
203.1255226751765,113.3476541366614,12.5,0,-2.364476692493808,3.600840079109188,0.5010832880134226,-1.044699747926753e-05,1.341426960714445e-05,4.008666304107381e-06,8.191765258336175e-06,9.006111260243026e-06
201.5291300906744,114.6882523698399,12.5,0,-2.037704509494578,3.863950780056285,0.3884396186917818,-9.611815054427677e-06,1.399480610377577e-05,3.107516949534255e-06,9.664334208101836e-06,9.516820097394155e-06
203.6316731215975,114.8778068842525,12.5,0,-2.10774402437902,3.711856848605453,0.5353420075747273,-9.714266356897227e-06,1.356413713504066e-05,4.282736060597819e-06,9.033384046762229e-06,9.859466371546689e-06
202.194695076136,116.7540590919016,12.5,0,-1.653326429502431,4.002741326577032,0.2903667309361315,-8.492837635669403e-06,1.413143338864845e-05,2.322933847489052e-06,1.09651535352697e-05,1.075593059468949e-05
204.3230874895748,116.9680344092214,12.5,0,-1.726911985408081,3.850462190242214,0.4370594465363938,-8.606488105499628e-06,1.370300859710155e-05,3.496475572291151e-06,1.027383616574316e-05,1.1149987474211e-05
258.4683369923937,165.6470778116644,12.5,0,9.989263379685898,4.663771206007368,-4.272879910132484,2.823462585018898e-05,6.93265715547486e-06,-3.418303928105987e-05,5.468852279625161e-05,5.441115160812011e-05
260.6359223191154,166.1705413184562,12.5,0,9.658655018223229,4.03799564245659,-3.931939245361486,2.767729954434905e-05,5.194662041282504e-06,-3.145551396289189e-05,5.119524513952765e-05,5.381409366415989e-05
258.9836525050592,167.7272134865629,12.5,0,10.7679718587472,4.988578819356039,-4.55211292245541,3.046664689250619e-05,7.34907473494157e-06,-3.641690337964328e-05,5.879410941720384e-05,5.612774421241825e-05
261.1394972707172,168.2515688314264,12.5,0,10.43392530578392,4.358494169028855,-4.208628864280702,2.990176564328546e-05,5.600041096265199e-06,-3.366903091424562e-05,5.527327729168652e-05,5.545224471248514e-05
259.3608896422427,169.2499784871604,12.5,0,10.88706645210182,4.510258705327683,-4.244675077963483,3.123040568246368e-05,5.723174695367126e-06,-3.395740062370786e-05,5.747731140528898e-05,5.735338590096056e-05
261.5081397206931,169.7749867028046,12.5,0,10.55270704229422,3.884835589960836,-3.900473828684418,3.066079406337284e-05,3.989308254039297e-06,-3.120379062947535e-05,5.398689855746409e-05,5.66186650673763e-05
259.8762051549083,171.3301141620588,12.5,0,11.68024700381868,4.839615170840888,-4.526732448434021,3.350509827554707e-05,6.142570943635899e-06,-3.621385958747217e-05,6.16544950291009e-05,5.898530866177685e-05
262.0117146722951,171.8560142157749,12.5,0,11.34236363952047,4.209831838389864,-4.179936706230473,3.292769817575363e-05,4.397570971231184e-06,-3.343949364984378e-05,5.813500629120279e-05,5.816723369173174e-05
263.0800358746083,170.1593193910309,12.5,0,11.05537012663176,3.916084331404485,-4.188221840747264,3.224431694009804e-05,3.687173759188943e-06,-3.350577472597811e-05,5.609632154481802e-05,5.607127860126754e-05
265.2272859530586,170.6843276066752,12.5,0,10.74077397620148,3.343983746812231,-3.859275986457027,3.169528972639493e-05,2.108128808837959e-06,-3.087420789165622e-05,5.28813109772037e-05,5.531051179800348e-05
263.5750161390025,172.2409997747819,12.5,0,11.81729598993118,4.221211214023466,-4.446294910521098,3.443837819656101e-05,4.054039092930145e-06,-3.557035928416878e-05,6.006456797293585e-05,5.756251730061183e-05
265.7105256563892,172.7668998284979,12.5,0,11.49936513215696,3.645128047809083,-4.114899952655036,3.388186598465501e-05,2.464917647263497e-06,-3.291919962124029e-05,5.682185134818249e-05,5.672847636587743e-05
262.222704907949,166.5537432013196,12.5,0,10.19844987415721,4.092039748719933,-4.251213174467239,2.936140779832711e-05,4.93576729657802e-06,-3.400970539573791e-05,5.3533051680839e-05,5.336239779367839e-05
264.3902902346706,167.0772067081113,12.5,0,9.884727521841056,3.513582729144833,-3.922810696285433,2.882026188657551e-05,3.33568271579062e-06,-3.138248557028346e-05,5.028375099768142e-05,5.272539966986161e-05
262.7176851723432,168.6354235850706,12.5,0,10.95206102327012,4.395516474885042,-4.509255529164377,3.153018209455633e-05,5.304003901016041e-06,-3.607404423331502e-05,5.746409293282047e-05,5.494585997130554e-05
264.8735299380011,169.1597789299341,12.5,0,10.63505887644124,3.813083201653257,-4.178432112218158,3.098172184328937e-05,3.693819144137429e-06,-3.342745689774527e-05,5.418825274546356e-05,5.423789063009958e-05
243.0555420126585,195.644654365015,12.5,0.2259118807280345,17.66781680763786,8.823275245873246,-2.956451925414004,6.391829606463575e-05,1.821527419119343e-05,-3.055416407315038e-05,0.0001253897808968552,0.0001279397071447889
244.3437947587643,196.3680881498496,12.5,0.20392264899426,17.69205184881736,9.142744951844829,-2.730233531172639,6.192912019473368e-05,1.897195335072492e-05,-2.743686680921993e-05,0.0001233695146737459,0.0001245518696612854
242.2080495080428,196.5901362432619,12.5,0.2817724531108137,17.03607732581225,8.457557581619785,-2.48759948348187,6.648227512870723e-05,1.870621985849063e-05,-2.770820466863185e-05,0.0001299744261873356,0.0001374373058267966
243.5604997564285,197.492890558615,12.5,0.2652049698882678,16.97574463897729,8.687154395362469,-2.307636366358504,6.447057667392482e-05,1.935001976240375e-05,-2.512413690122653e-05,0.0001277727244983028,0.0001344763752378237
245.2868612218637,196.8976784362378,12.5,0.1852044996949737,17.65690714970604,8.563581117744612,-2.957438468318743,6.093705471652239e-05,1.629603238118916e-05,-2.903735690451504e-05,0.0001179793917894597,0.000121806373761545
246.5751139679695,197.6211122210724,12.5,0.1555275119246444,17.71703034824069,8.67079539938498,-2.673104526809155,5.892182575215185e-05,1.607266215430361e-05,-2.532330717275539e-05,0.0001144718761300414,0.0001176933769546667
244.5505620529139,198.1537525841774,12.5,0.2499958238631108,17.10931938161679,8.06716737959799,-2.552440357328504,6.439442559674552e-05,1.616988344236452e-05,-2.722587887950788e-05,0.0001230601642651995,0.0001318684570217196
245.9030123012997,199.0565068995305,12.5,0.2244224677478952,17.13781650532837,8.156111534053007,-2.322179361189855,6.229696140050509e-05,1.597429423816745e-05,-2.395303385797432e-05,0.0001194825462957118,0.0001277044225420089
246.5621687920327,194.7220941939718,12.5,0.07248587443515475,17.28545118318253,8.231831632495524,-2.945908362798661,5.2536103911639e-05,1.34914390331458e-05,-2.540906521292827e-05,0.0001009114298252174,0.0001075339862844501
247.7392282024725,195.1349357091137,12.5,0.039344746310499,17.50118625068513,8.289518524452216,-2.641167787209372,5.139427593094548e-05,1.303850702902358e-05,-2.199471893431638e-05,9.84161297573071e-05,0.0001039531282813506
245.8258696230828,195.9781683419114,12.5,0.1371738148093659,17.04490618762882,7.823647741484441,-2.575303061700942,5.596119176257564e-05,1.321210229627938e-05,-2.387783872026972e-05,0.0001057268072995212,0.0001152859719794577
247.0671265358026,196.5703303875717,12.5,0.1052824753268341,17.25239116710613,7.899521456825477,-2.340389354235089,5.464074774565045e-05,1.282701569118021e-05,-2.092628602610655e-05,0.0001030731055782007,0.0001113292368385274
244.5234420896603,194.0070317142853,12.5,0.1255481070357688,17.39968507914173,8.626221819532258,-2.971895957935162,5.57812444459114e-05,1.564884457257339e-05,-2.718865137667876e-05,0.0001090792290388475,0.0001138113952106237
245.7005015001002,194.4198732294272,12.5,0.09555168674712022,17.64284002527699,8.870457799546374,-2.69034428956263,5.457550322994324e-05,1.57788927561819e-05,-2.379655531568599e-05,0.0001073373286264304,0.000110175500946837
243.6759495850446,194.9525135925321,12.5,0.1838274022398768,16.98496533402116,8.261022333202735,-2.515064388798129,5.849629273676918e-05,1.574090974665104e-05,-2.465227963497317e-05,0.00011331966462582,0.0001216091634749325
244.9172064977645,195.5446756381925,12.5,0.1581118996788233,17.15227441682034,8.457243921153179,-2.304638552657344,5.715900127171818e-05,1.584695283036335e-05,-2.189971376745327e-05,0.0001113623669847222,0.0001180404700198479
199.1866393820105,185.5652870927766,12.5,0,13.86414135103477,8.185648354035886,-1.072543379578009,3.781673364008256e-05,1.510276165208701e-05,-8.58034703662407e-06,8.036629262307682e-05,7.957182976889913e-05
201.0417639765351,185.0859696053508,12.5,0,13.96700433998175,7.996287318438357,-0.8622361246813611,3.82973840331909e-05,1.441451594701734e-05,-6.897888997450889e-06,8.007225920621703e-05,8.160544956568519e-05
200.3848704545794,187.1427409638865,12.5,0,14.42688483171833,8.4648636596987,-1.295266602186989,3.93941405337397e-05,1.554605584566117e-05,-1.036213281749591e-05,8.346011004072717e-05,8.325872510440474e-05
202.2062758798856,186.6481149252663,12.5,0,14.53812509829368,8.277210610180774,-1.085718194224992,3.990023182639515e-05,1.485657387394353e-05,-8.685745553799933e-06,8.320070218688676e-05,8.552381840659466e-05
201.2620364788702,188.297517344086,12.5,0,14.74852630764161,9.038947829024192,-1.689229056780197,3.996412592123379e-05,1.712581200676412e-05,-1.351383245424158e-05,8.671047316023722e-05,8.62134751789036e-05
203.0587577591206,187.7916846682018,12.5,0,14.85098333611374,8.80910003395123,-1.490783907930577,4.047586664840297e-05,1.630833343975295e-05,-1.192627126344462e-05,8.626376852875028e-05,8.872629472546336e-05
202.4602675514391,189.874971215196,12.5,0,15.32427001465051,9.352765091104924,-1.929783629376058,4.15554519739977e-05,1.766943227981535e-05,-1.543826903500846e-05,8.998228185016385e-05,9.059910717094001e-05
204.223269662471,189.3538299881173,12.5,0,15.43542291951528,9.124694950273547,-1.73247036428481,4.209359738223005e-05,1.685068550526313e-05,-1.385976291427848e-05,8.957206754359309e-05,9.355725389811125e-05
204.3740490232481,187.4213894493417,12.5,0,15.08743804449817,9.841954329842606,-1.950977736559936,4.040623827852004e-05,1.94243034198978e-05,-1.560782189247949e-05,9.082225799123866e-05,9.06101006765635e-05
206.1707703034985,186.9155567734574,12.5,0,15.17924222622175,9.445914770352173,-1.72705208982157,4.101684330762786e-05,1.808353348414955e-05,-1.381641671857256e-05,8.974230799215345e-05,9.324393470022877e-05
205.5138767815427,188.9723281319931,12.5,0,15.78035177947773,10.28021176164265,-2.26671323956136,4.22729562850146e-05,2.027239621367428e-05,-1.813370591649088e-05,9.497883916369072e-05,9.5792695717067e-05
207.2768788925746,188.4511869049145,12.5,0,15.88253320879457,9.885916697169232,-2.044695906626767,4.291537291040723e-05,1.892890686390589e-05,-1.635756725301414e-05,9.394061146472241e-05,9.894188961690667e-05
202.39980943404,184.7350848516137,12.5,0,14.10428351049677,8.958337972828367,-1.241247630450029,3.796703685532697e-05,1.738325470465336e-05,-9.929981043600231e-06,8.398268280901394e-05,8.310795525295889e-05
204.2549340285647,184.255767364188,12.5,0,14.20109020671763,8.677497623282264,-1.014208595396995,3.85014905628706e-05,1.640712022912914e-05,-8.113668763175963e-06,8.333723956231808e-05,8.517925733264024e-05
203.5396371923347,186.2860235342652,12.5,0,14.72891563035845,9.301382986228351,-1.501377286561217,3.969142362816435e-05,1.798129305164396e-05,-1.201101829248973e-05,8.753504635409701e-05,8.721123471311314e-05
205.3610426176409,185.791397495645,12.5,0,14.8350545305813,9.022187338175009,-1.275438713019665,4.025442462732016e-05,1.700295585769498e-05,-1.020350970415732e-05,8.692714775738344e-05,8.955624849404784e-05
195.6150461805107,107.06489641064,12.5,0,-3.363305840833739,3.220986361947502,0.6989303740857007,-1.333936778022597e-05,1.2997801030899e-05,5.591442992685606e-06,5.893924011233259e-06,5.918786175824517e-06
197.7075882553098,107.3859618788369,12.5,0,-3.452273749671756,3.084671729447389,0.8490275200378011,-1.351501338250753e-05,1.263276853396905e-05,6.792220160302409e-06,5.540266204658197e-06,6.166898343587628e-06
196.2757155176629,109.1074911332859,12.5,0,-2.980708780078946,3.352699506726374,0.6090912193752545,-1.222042770163373e-05,1.311320544558755e-05,4.872729755002036e-06,6.596286811472519e-06,6.58858770262836e-06
198.372002432695,109.4337485565832,12.5,0,-3.070491539265933,3.216213748803389,0.7592459628719475,-1.23985439246937e-05,1.274827722758359e-05,6.07396770297558e-06,6.172314464242959e-06,6.88113924498356e-06
194.4707333215809,103.5270185718086,12.5,0,-3.981139525786899,3.002562555543536,0.7470088000561409,-1.51416965269529e-05,1.279311179836883e-05,5.976070400449127e-06,4.998905672661524e-06,5.028851632051819e-06
196.5567891428304,103.8390913099814,12.5,0,-4.068514761262453,2.865930154169908,0.8961700808387285,-1.531199135937578e-05,1.242578830235367e-05,7.169360646709828e-06,4.733163179511992e-06,5.211795841421973e-06
195.131402658733,105.5696132944546,12.5,0,-3.599392927627646,3.134402353220047,0.6568642061044938,-1.40255792509845e-05,1.290960187240626e-05,5.25491364883595e-06,5.483410720879328e-06,5.500856155320847e-06
197.2212033202155,105.8868779877277,12.5,0,-3.687584108869972,2.997598547815956,0.8060848836690554,-1.419834798663667e-05,1.254238264010703e-05,6.448679069352443e-06,5.161102479411516e-06,5.719599126727e-06
190.8575786518168,102.9864927336457,12.5,0,-4.064694316808966,2.836561293865013,0.9123471012418942,-1.52762708488807e-05,1.232875159381521e-05,7.298776809935154e-06,4.681539484427554e-06,4.724551067785593e-06
192.9436344730663,103.2985654718186,12.5,0,-4.148901519616583,2.712750862142113,1.060888672061002,-1.544668555248676e-05,1.199992397454803e-05,8.487109376488012e-06,4.477225553054372e-06,4.89829478844373e-06
191.5117617354194,105.0200947262676,12.5,0,-3.685425502704557,2.963646797586886,0.8275090922356908,-1.416427904672409e-05,1.243201015444168e-05,6.620072737885526e-06,5.093349298658244e-06,5.136401638724562e-06
193.6015623969018,105.3373594195408,12.5,0,-3.770449411539251,2.839662240052171,0.9760982965997269,-1.433716790896734e-05,1.210327869739835e-05,7.808786372797815e-06,4.84234206242058e-06,5.344588859387598e-06
191.9906569900482,106.5087947071768,12.5,0,-3.451161261273974,3.04449921204243,0.8722010896021514,-1.347931540571066e-05,1.250332648755495e-05,6.977608716817211e-06,5.452648228134472e-06,5.504333654965221e-06
194.0831990648473,106.8298601753739,12.5,0,-3.536756102135092,2.9218053711387,1.021597799480452,-1.365506382374325e-05,1.217918206935191e-05,8.172782395843617e-06,5.178237512028607e-06,5.74125250258029e-06
192.6448400736507,108.5423966997987,12.5,0,-3.071147883611334,3.171212613298008,0.7879494490217677,-1.236464331819467e-05,1.260479866944269e-05,6.303595592174142e-06,6.060237361692937e-06,6.097692046169728e-06
194.7411269886828,108.868654123096,12.5,0,-3.157558290236096,3.048344685205813,0.9373914221859857,-1.254286227692016e-05,1.228074962484748e-05,7.499131377487886e-06,5.724858504910119e-06,6.378663658400302e-06
198.0603313678178,104.0076554885526,12.5,0,-3.926757660077543,3.145605239178611,0.5779961670289029,-1.508210870359103e-05,1.320734289343359e-05,4.623969336231223e-06,5.28974054733007e-06,5.334607910901327e-06
200.0820292967334,104.156108650592,12.5,0,-3.986862293264894,3.003122587551335,0.715113039993953,-1.516045740848873e-05,1.279948211477619e-05,5.720904319951624e-06,4.98602814702302e-06,5.487192515145708e-06
198.7292602509155,106.0561451020137,12.5,0,-3.557668367847294,3.279762390516786,0.4828606967383542,-1.400834868952477e-05,1.334137434393155e-05,3.862885573906833e-06,5.82386360988301e-06,5.865074101197129e-06
200.7595477449869,106.2013267650402,12.5,0,-3.616761435122994,3.138236139574778,0.619123290901809,-1.40842255040534e-05,1.293576479473768e-05,4.952986327214472e-06,5.468570349688932e-06,6.04377615129005e-06
199.2189501799725,107.5557435777806,12.5,0,-3.307370772769502,3.373627579273539,0.5200144185277071,-1.328248853628124e-05,1.344150487189093e-05,4.160115348221657e-06,6.292818741734069e-06,6.330668433259041e-06
201.2555256721525,107.6985303373127,12.5,0,-3.367268504445115,3.228345288288071,0.6581817664621921,-1.335793544485482e-05,1.302451972607792e-05,5.265454131697536e-06,5.894898828429899e-06,6.529984471257361e-06
199.8878790630703,109.6042331912416,12.5,0,-2.937672313264362,3.508563657402783,0.4240572266367134,-1.220740232836819e-05,1.35775415543004e-05,3.392457813093707e-06,7.053926532823138e-06,7.072229613926555e-06
201.9330441204059,109.7437484517608,12.5,0,-2.996566783447903,3.364244801906669,0.5613707869851238,-1.228040954855862e-05,1.316283679285966e-05,4.490966295880991e-06,6.596368756244713e-06,7.301746668382896e-06
202.7464024058144,107.8030574999339,12.5,0,-3.262696492469508,3.505725146344573,0.3271133595219363,-1.324520889297808e-05,1.382847766227824e-05,2.61690687617549e-06,6.660837462994127e-06,6.673948382082012e-06
204.7829778979944,107.945844259466,12.5,0,-3.328194276722049,3.338191843389876,0.4660782653282379,-1.332077516022246e-05,1.334476932022524e-05,3.728626122625903e-06,6.162802559069135e-06,6.867949062929673e-06
203.4302088521765,109.8458807108876,12.5,0,-2.8913259482955,3.648977283756682,0.2219461670692913,-1.217142486155095e-05,1.398978806665778e-05,1.775569336554331e-06,7.506090476858485e-06,7.466922903627907e-06
205.4753739095121,109.9853959714068,12.5,0,-2.955786678488687,3.482534786700466,0.3600327175298605,-1.224454520052417e-05,1.350874066023244e-05,2.880261740238884e-06,6.94000826545885e-06,7.688675716083068e-06
201.5620148981935,104.2647839077445,12.5,0,-3.882269597120056,3.273050496216061,0.395498024791456,-1.504170310775703e-05,1.357957726558744e-05,3.163984198331648e-06,5.568754832406832e-06,5.597865405650408e-06
203.5837128271091,104.4132370697839,12.5,0,-3.947354120282093,3.11090193629853,0.5335013905421319,-1.512025473394152e-05,1.311276949238097e-05,4.268011124337054e-06,5.187796265244473e-06,5.747644761298224e-06
202.2458213445556,106.3076071186983,12.5,0,-3.51135592495412,3.414782297037141,0.2920213855849702,-1.39681647974829e-05,1.373638809048215e-05,2.336171084679761e-06,6.173756487884042e-06,6.173135934907194e-06
204.2761088386269,106.4527887817247,12.5,0,-3.575397514276307,3.253704458762971,0.429146955737,-1.404423561269456e-05,1.327217227946255e-05,3.433175645896e-06,5.731555671303274e-06,6.34785138612745e-06
256.5934768528704,158.3490832783856,12.5,0,8.159198627345914,4.877069552824281,-4.199389131505832,2.22077799652475e-05,9.079263667160966e-06,-3.359511305204665e-05,4.867191822272469e-05,4.81201467901423e-05
258.8161091640611,158.8842717783598,12.5,0,7.836351349796441,4.25483266871807,-3.869333290824599,2.167245818437415e-05,7.346383460060668e-06,-3.095466632659679e-05,4.519259427001294e-05,4.778344400302106e-05
257.1377635185042,160.4589771567622,12.5,0,8.903545834999228,5.196756266158015,-4.475106283382147,2.433394165907111e-05,9.506783383706266e-06,-3.580085026705718e-05,5.262499522127235e-05,4.997582234764516e-05
259.3440148121202,160.9902756851054,12.5,0,8.578278712651201,4.569886403852901,-4.14259001105732,2.379458275740152e-05,7.761013522208319e-06,-3.314072008845856e-05,4.912241428599433e-05,4.956769741498309e-05
257.5362090116135,162.0035266742468,12.5,0,9.072165613463786,4.786505326049817,-4.25424504182787,2.520172570224426e-05,8.059084552588386e-06,-3.403396033462296e-05,5.172479334270049e-05,5.131602619790442e-05
259.7304685680856,162.5319775457161,12.5,0,8.743353673898504,4.156550176115451,-3.916927698323943,2.465349161558285e-05,6.30627762445064e-06,-3.133542158659155e-05,4.820932827945304e-05,5.08534247000536e-05
258.0804956772473,164.1134205526234,12.5,0,9.84381173558541,5.116313646249685,-4.537630053050301,2.740714663687356e-05,8.497154279530662e-06,-3.630104042440241e-05,5.582059038342275e-05,5.312185565196497e-05
260.2583742161448,164.6379814524617,12.5,0,9.512502727452429,4.481606716576584,-4.197765312792306,2.68547233545865e-05,6.731139311083123e-06,-3.358212250233845e-05,5.228033768731193e-05,5.258184355573113e-05
261.3367780483485,162.9188304329193,12.5,0,9.318205831470326,4.241831462261539,-4.269898725437328,2.642479349089581e-05,6.119296014060662e-06,-3.415918980349862e-05,5.079727145328514e-05,5.049588369496641e-05
263.5310376048206,163.4472813043886,12.5,0,9.003574006445499,3.654919049151189,-3.942065658381127,2.588750158130464e-05,4.492881752127405e-06,-3.153652526704902e-05,4.75003335545029e-05,4.998166500108825e-05
261.8526919592637,165.021986682791,12.5,0,10.06848019348706,4.549803727440915,-4.532295656533995,2.857929363720584e-05,6.504587773021285e-06,-3.625836525227195e-05,5.473107081375659e-05,5.217003024413278e-05
264.0305704981611,165.5465475826293,12.5,0,9.751458768751062,3.958464403462478,-4.201987303060713,2.803789653723341e-05,4.865919076079079e-06,-3.361589842448571e-05,5.141014955826175e-05,5.158494744979887e-05
260.4431889423278,159.2760569519508,12.5,0,8.435697771201314,4.362852322578542,-4.251232641893634,2.350395100978136e-05,7.212569215290284e-06,-3.400986113514907e-05,4.79606526513558e-05,4.751472251577223e-05
262.6658212535185,159.8112454519249,12.5,0,8.124034276939556,3.776893970204042,-3.927913733006431,2.297539451004334e-05,5.58683328310129e-06,-3.142330986405145e-05,4.466448091955395e-05,4.711726454661299e-05
260.9591028532431,161.3792132018226,12.5,0,9.164908341156,4.663960595372236,-4.509125319540586,2.559653821540141e-05,7.592747232266356e-06,-3.607300255632469e-05,5.178788596791678e-05,4.924849774867266e-05
263.165354146859,161.9105117301657,12.5,0,8.850908645265301,4.073639590895455,-4.183396653626446,2.50639959921326e-05,5.954919774653214e-06,-3.346717322901156e-05,4.846899081233907e-05,4.878455297517851e-05
219.2385846464701,122.7173449375719,12.5,0,-0.5986228252286006,4.867466865274801,-0.7139527221440028,-5.809566532951362e-06,1.605479222906224e-05,-5.711621777152023e-06,1.703606810187198e-05,1.679579523418072e-05
220.6367613587781,121.8503785524397,12.5,0,-0.5732741699128239,4.627816832760841,-0.7199633016920535,-5.536730809929709e-06,1.526763320076495e-05,-5.759706413536428e-06,1.619638655548487e-05,1.62630191329916e-05
220.4243347837952,125.0234666540864,12.5,0,-0.3305907952321905,5.122397625065149,-0.9021645799906397,-5.155808644795128e-06,1.665614503639423e-05,-7.217316639925118e-06,1.883228885666223e-05,1.879204220631697e-05
221.6214068140197,123.8867897519974,12.5,0,-0.2626617308680954,4.912571402191628,-0.9375979338715047,-4.770574660531207e-06,1.593035787170768e-05,-7.500783470972038e-06,1.824232754349085e-05,1.796443719342398e-05
221.6602977501036,121.2157151100955,12.5,0,-0.861916815021091,4.696752944709198,-0.9162844871273669,-6.515536163834848e-06,1.57191428750863e-05,-7.330275897018935e-06,1.571552368154036e-05,1.586807280865806e-05
223.0584744624115,120.3487487249633,12.5,0,-0.820855873133181,4.494387594595334,-0.9098988630982797,-6.222248869702447e-06,1.503872500121161e-05,-7.279190904786238e-06,1.506078112647977e-05,1.532183548545951e-05
222.4977243604264,123.0546845079136,12.5,0,-0.6517734510304496,4.860184466747286,-1.044529792534034,-5.973822616695267e-06,1.607400905441567e-05,-8.356238340272268e-06,1.69617758915745e-05,1.736634258204403e-05
223.6947963906509,121.9180076058246,12.5,0,-0.5639005944959432,4.68126124299512,-1.064972466931555,-5.549490896783113e-06,1.543115645318113e-05,-8.519779735452438e-06,1.653972644508768e-05,1.655992272884437e-05
220.2098323134404,118.0305266795675,12.5,0,-1.424429324276406,4.519322201322321,-0.7916662506534662,-8.173631598742355e-06,1.560137450365255e-05,-6.333330005227729e-06,1.35408296828799e-05,1.342006194051873e-05
221.9563325527506,117.6307126131318,12.5,0,-1.432912882545526,4.275983608978845,-0.7222806513130592,-8.006108111328759e-06,1.482947785476872e-05,-5.778245210504474e-06,1.259390180356273e-05,1.328604836511568e-05
221.0472589237632,119.8694960773856,12.5,0,-1.171194528865145,4.684440607360624,-0.9197028636931056,-7.495374978256963e-06,1.592716556664611e-05,-7.357622909544845e-06,1.484550771991421e-05,1.481067009768769e-05
222.5926544809899,119.199971493993,12.5,0,-1.131127296915838,4.460751409282267,-0.8715778708548991,-7.188208477556493e-06,1.517930634723592e-05,-6.972622966839193e-06,1.409385129666603e-05,1.444460349360476e-05
217.1848051635782,118.7230249562027,12.5,0,-1.321278446066162,4.521337726706957,-0.5613127599833615,-7.845161208777281e-06,1.552530348231519e-05,-4.490502079866892e-06,1.374134436170704e-05,1.362082704071042e-05
218.9313054028885,118.3232108897668,12.5,0,-1.334152583795127,4.277284210637541,-0.4992515305437382,-7.691115636654438e-06,1.475463154107623e-05,-3.994012244349905e-06,1.278111265488498e-05,1.350976561628471e-05
218.3705553009033,121.0291466727171,12.5,0,-1.013270897381281,4.746559821018852,-0.7283875216977794,-7.03971472843518e-06,1.599960814516535e-05,-5.827100173582235e-06,1.543577838293603e-05,1.541017230671199e-05
219.9159508581301,120.3596220893245,12.5,0,-0.9820081143553456,4.525905647878983,-0.6881846405925197,-6.763150484240293e-06,1.526850456469702e-05,-5.505477124740157e-06,1.467404865800493e-05,1.50693934813884e-05
261.0316231935003,134.8066843867769,12.5,0,3.000328823635277,3.785898014769119,-3.761488826319558,6.572333823817592e-06,9.714610588352959e-06,-3.009191061055646e-05,2.641006463786423e-05,2.577146117430846e-05
263.2650725309472,135.3144988044743,12.5,0,2.849284431055906,3.580770640585616,-3.570758663947563,6.253093666910405e-06,9.179038505029245e-06,-2.856606931158051e-05,2.502927135518566e-05,2.583443447008324e-05
260.9091033180342,136.8173680138714,12.5,0,3.41754338274578,3.881057284111319,-3.811927182572304,7.831292997497439e-06,9.685348602959595e-06,-3.049541746057843e-05,2.818858751934327e-05,2.744445703823257e-05
263.1442840635103,137.3185962180133,12.5,0,3.26802055367923,3.676377490660199,-3.621482561948013,7.516563779245375e-06,9.149991527169252e-06,-2.897186049558411e-05,2.681518282366316e-05,2.747745838256835e-05
264.9000709220199,135.6862447590291,12.5,0,3.284924254355771,3.494368585114381,-3.886061666526631,7.716262745846963e-06,8.554040068881399e-06,-3.108849333221305e-05,2.648130114859383e-05,2.586450953708944e-05
267.1335202594669,136.1940591767266,12.5,0,3.130235775862122,3.281724995938719,-3.691625622944742,7.391374486007814e-06,7.997331366314201e-06,-2.953300498355794e-05,2.50605805572287e-05,2.588370285242015e-05
264.7805499332289,137.6855207296162,12.5,0,3.707096093827929,3.590639167626338,-3.938582982914482,8.990196166148301e-06,8.524368461341938e-06,-3.150866386331585e-05,2.828841690697566e-05,2.748480484593334e-05
267.015730678705,138.1867489337582,12.5,0,3.553957565324322,3.378454129764572,-3.744443580553172,8.669900905226174e-06,7.967887162987171e-06,-2.995554864442538e-05,2.687546234078005e-05,2.747187441276751e-05
265.107087347173,132.2233971996828,12.5,0,2.5807361171684,3.390922556348439,-3.800831106438401,5.545617529860128e-06,8.786363286580282e-06,-3.040664885150721e-05,2.370308043285625e-05,2.310986126495242e-05
267.3375377979449,132.7426192738876,12.5,0,2.429895129668098,3.191940694031554,-3.61210165980009,5.22211185971267e-06,8.270294117166494e-06,-2.889681327840072e-05,2.234779825619574e-05,2.317782773793699e-05
264.9875663583821,134.2226731702699,12.5,0,2.991986540502763,3.485128143867817,-3.84914934804879,6.786254414514588e-06,8.758820827974804e-06,-3.079319478439032e-05,2.543242827584732e-05,2.469224693767036e-05
267.2197482171831,134.7353090309193,12.5,0,2.842657049187087,3.28659005962659,-3.660698928938816,6.467230509697407e-06,8.242962551455418e-06,-2.928559143151052e-05,2.408292038108285e-05,2.473311651367358e-05
261.2438338427408,131.3240781867649,12.5,0,2.294033896668163,3.658609708993012,-3.669000904462467,4.41402070214371e-06,9.872323951443107e-06,-2.935200723569974e-05,2.355117000489831e-05,2.293757124058118e-05
263.4742842935126,131.8433002609697,12.5,0,2.147214304259768,3.467849897629679,-3.484321421476941,4.096805855527512e-06,9.37934822900716e-06,-2.787457137181553e-05,2.224090137316581e-05,2.30454847305116e-05
261.1213139672747,133.3347618138594,12.5,0,2.699613809898559,3.75157632573332,-3.715009288275011,5.637503131088733e-06,9.845353194427777e-06,-2.972007430620009e-05,2.524777727175815e-05,2.456384476448606e-05
263.3534958260757,133.8473976745087,12.5,0,2.554274853134825,3.561248543620802,-3.530596844083665,5.324680695134799e-06,9.352575457078705e-06,-2.824477475266932e-05,2.394279805623891e-05,2.464689070917558e-05
157.1600080493855,130.6586281363278,12.5,0,0.7755539432869214,1.607607990864483,1.91584985178856,1.195686225826562e-06,4.523902416136809e-06,1.532679881430848e-05,9.927188259494236e-06,1.00191791484616e-05
158.7661131476711,129.9936697662483,12.5,0,0.8278378281648473,1.516289939039459,1.971132190545736,1.436049098895944e-06,4.189857542394391e-06,1.576905752436589e-05,9.849649603213902e-06,1.00330575364479e-05
158.3715211255369,132.2365885566958,12.5,0,0.9840687552598076,1.737505003611461,1.821269899144079,1.759016013942216e-06,4.772761007348827e-06,1.457015919315263e-05,1.092122091138963e-05,1.117533929482918e-05
159.9801941632194,131.5577055537315,12.5,0,1.037314659579397,1.647562247045996,1.875621065595956,2.001357113017274e-06,4.44234746288367e-06,1.500496852476765e-05,1.084223394288008e-05,1.118569054107823e-05
159.2584102512761,133.3917357566888,12.5,0,1.27345269663546,1.769489086002646,1.878265512987005,2.659457360431356e-06,4.643602917900097e-06,1.502612410389604e-05,1.202645265621563e-05,1.20576372714786e-05
160.8689631510679,132.7026592149765,12.5,0,1.329500801903814,1.679111151561323,1.933923532550979,2.911113644843146e-06,4.30955504347318e-06,1.547138826040783e-05,1.195779948014447e-05,1.206628856017633e-05
160.4699233274275,134.9696961770567,12.5,0,1.483880075343016,1.899660530213787,1.783225395344614,3.228687816926621e-06,4.891809636409705e-06,1.426580316275691e-05,1.308903567968518e-05,1.331196002483493e-05
162.0830441666162,134.2666950024597,12.5,0,1.540868251467148,1.810638984328424,1.837957093281801,3.482267217232135e-06,4.561350148677237e-06,1.470365674625441e-05,1.302112632979736e-05,1.33194940848688e-05
162.0479697019428,132.1982201761607,12.5,0,1.088021634727371,1.963831069001527,1.869869907679743,1.910604375926365e-06,5.413842113022988e-06,1.495895926143794e-05,1.208136398240115e-05,1.206966610443258e-05
163.6585226017347,131.5091436344485,12.5,0,1.138593788294515,1.860484342463804,1.921454384821863,2.155112648571406e-06,5.042674865248561e-06,1.537163507857491e-05,1.193917640165732e-05,1.207024243824812e-05
163.2639305796004,133.7520624248959,12.5,0,1.292597606033233,2.101463628748086,1.772395377812849,2.455141436307877e-06,5.690605527167289e-06,1.417916302250279e-05,1.314438226892593e-05,1.332142555388977e-05
164.8770514187893,133.0490612502989,12.5,0,1.344118011566086,1.999615172936956,1.823054071146797,2.701485498661911e-06,5.32347414414539e-06,1.458443256917438e-05,1.300296107046285e-05,1.331916836535467e-05
159.9418636818616,129.5068864544526,12.5,0,0.5967533838245636,1.791450955869078,1.908228167622463,4.76450063543341e-07,5.255240351721398e-06,1.526582534097971e-05,9.988852952599824e-06,1.004102477993573e-05
161.5479687801472,128.841928084373,12.5,0,0.6435431130272554,1.687047390446061,1.959423402132015,7.097000493303689e-07,4.883717159005589e-06,1.567538721705612e-05,9.838381952776395e-06,1.004891330595536e-05
161.1578245595192,131.0607287031878,12.5,0,0.7993104426150519,1.928889622879626,1.811211542372974,1.014681718064465e-06,5.532998439122761e-06,1.448969233898379e-05,1.098185745501193e-05,1.119068536622852e-05
162.7664975972018,130.3818457002235,12.5,0,0.8470701502009033,1.826006238006161,1.861476167509178,1.249819490237962e-06,5.165563841458992e-06,1.489180934007342e-05,1.082938093653121e-05,1.119398023606556e-05
203.3334983004789,191.032682294666,12.5,0,15.61565239597407,10.15178793343311,-2.491157892502348,4.184865732037055e-05,1.999319947020668e-05,-1.992926314001879e-05,9.395444144620194e-05,9.431140789010575e-05
205.0610648945271,190.5083521778357,12.5,0,15.76111777789304,9.878921161077137,-2.247083283201808,4.253243996039601e-05,1.90036534931324e-05,-1.797666626561446e-05,9.349571203923944e-05,9.768218194334948e-05
204.5209780011199,192.6181539132883,12.5,0.0007027744373138134,16.36978590939771,10.55396485722624,-2.80441364371169,4.397104475052432e-05,2.06914002027405e-05,-2.245108719986749e-05,9.828652679836456e-05,0.0001000679700762358
206.1854521315902,192.1004201388304,12.5,0.0409468518969639,15.85962727551363,9.861140017919579,-2.451609168126532,4.469188736003508e-05,1.967351473091111e-05,-2.045024656225324e-05,9.783908310055046e-05,0.0001041207357683373
205.3902734749088,193.7787996920289,12.5,0.04947760973258342,16.35241634269781,11.11002631368717,-2.989234881529946,4.570088163148066e-05,2.363979150803489e-05,-2.515866990309584e-05,0.0001053568239933053,0.0001050223837844429
207.0085607164674,193.2658947753317,12.5,0.09022856046561367,15.91168089850383,10.37138513003976,-2.491270815262829,4.684722878637863e-05,2.248816220016203e-05,-2.190678411745123e-05,0.000105326236447664,0.0001095544304636976
206.5777531755497,195.3642713106512,12.5,0.1174107497991035,16.31941145597276,10.83954559156458,-3.204599265252558,4.934399572162037e-05,2.45085884779412e-05,-2.904725399293609e-05,0.0001122994731439547,0.0001128015315714259
208.1329479535305,194.8579627363265,12.5,0.1575215740534062,15.83507808579047,10.09895101829444,-2.707291389892419,5.055688994295266e-05,2.332235483399237e-05,-2.570787625191047e-05,0.0001123130270596864,0.0001179610066198825
208.1932291984785,192.8904223168734,12.5,0.1181100394686964,16.54958095863699,11.27280107829636,-2.993334883306328,4.982528452702753e-05,2.589132398092228e-05,-2.715381752619533e-05,0.0001150333626779794,0.0001128876100052097
209.8115164400371,192.3775174001763,12.5,0.1537960767108154,16.13651597924633,10.50899184681285,-2.49840712947154,5.10865720027683e-05,2.448530496746858e-05,-2.361990589464782e-05,0.0001147957209227339,0.0001174619791845026
209.2714295466299,194.4873191356289,12.5,0.1844018053476657,16.46899956818613,10.9618384863785,-3.191798254035858,5.386393461527886e-05,2.685474740561286e-05,-3.130755585251316e-05,0.0001227253018229375,0.0001216913443934378
210.8266243246108,193.9810105613043,12.5,0.2181523010477692,16.04113975780576,10.2174840299852,-2.704885891004856,5.519957410992792e-05,2.540525106913645e-05,-2.767685721533466e-05,0.0001225307474789115,0.0001267233416721611
206.3257314147753,190.1245158923936,12.5,0.002275260895662545,16.3082785342381,11.03978034369431,-2.771921641466376,4.345353516394329e-05,2.233148422523109e-05,-2.222594295059572e-05,9.991952282199052e-05,0.0001002203912740895
208.0532980088235,189.6001857755632,12.5,0.03772414310709615,15.98712131985823,10.35469480671298,-2.279958510094163,4.455586417455729e-05,2.114292505611443e-05,-1.89547185976872e-05,9.977296598364142e-05,0.0001037841340729679
207.4039317629267,191.721412711149,12.5,0.06889832860514888,16.34829226787271,10.8064725721133,-2.989015645927694,4.690073978074003e-05,2.309315843483867e-05,-2.568154037528429e-05,0.0001063906675480592,0.0001071344854563329
209.0684058933971,191.2036789366912,12.5,0.1051672783705528,15.96712652878167,10.10730270077804,-2.496954640030628,4.806369022040415e-05,2.186963769477382e-05,-2.23233199204767e-05,0.0001062793679449656,0.0001113154370334802
265.0753154914445,142.7314761621314,12.5,0,4.764519701327359,3.64331067635006,-4.044846228409588,1.23318145031675e-05,7.846978403258306e-06,-3.23587698272767e-05,3.22131465348913e-05,3.157360211961048e-05
267.355854264762,143.2197382996876,12.5,0,4.561499108612404,3.289372708399745,-3.804895008262171,1.196529898083989e-05,6.876793379989262e-06,-3.043916006609736e-05,3.011503957896046e-05,3.146175754427672e-05
265.2366600958837,144.7877263664311,12.5,0,5.277315475193641,3.792652808033156,-4.167552534526124,1.385328727419313e-05,7.914636605551185e-06,-3.334042027620899e-05,3.461515342172345e-05,3.324559008882084e-05
267.5385156775599,145.2709575403583,12.5,0,5.078672817672682,3.442830482373819,-3.930492850620745,1.349748863065353e-05,6.954119289458074e-06,-3.144394280496596e-05,3.25510238146908e-05,3.308787265520036e-05
264.7958584390336,139.1699463352744,12.5,0,4.004362608536276,3.599187125293125,-3.956603659828234,9.934610647081583e-06,8.313908714108979e-06,-3.165282927862587e-05,2.93522217944892e-05,2.868727962629653e-05
267.0394754172193,139.6669223574468,12.5,0,3.807602541454213,3.264489049157786,-3.727095302203453,9.572736893327251e-06,7.400282924141543e-06,-2.981676241762762e-05,2.73447816388198e-05,2.864772112586705e-05
264.9572030434729,141.2261965395741,12.5,0,4.501592541675917,3.743727904688103,-4.074220653469958,1.141011380961245e-05,8.378655261661195e-06,-3.259376522775966e-05,3.166064274821949e-05,3.035220651236477e-05
267.2221368300173,141.7181415981176,12.5,0,4.309148607666639,3.413003731525865,-3.847526135885042,1.105887255931255e-05,7.474293054749457e-06,-3.078020908708033e-05,2.968544363799886e-05,3.027202252775708e-05
260.9097998401618,138.3091586147438,12.5,0,3.725439080113672,3.918479411759948,-3.843740015183609,8.786621526955791e-06,9.558782853540896e-06,-3.074992012146887e-05,2.939343149806645e-05,2.869094456019964e-05
263.1534168183474,138.8061346369162,12.5,0,3.534208325608308,3.595948100420657,-3.619679371397592,8.432708161610058e-06,8.679667260859457e-06,-2.895743497118074e-05,2.744523153006764e-05,2.869886131061969e-05
261.0342226494693,140.3741227036598,12.5,0,4.212555314889199,4.055274060670358,-3.954337670834514,1.023595775910915e-05,9.606832742233787e-06,-3.163470136667611e-05,3.162891634606584e-05,3.042341593743498e-05
263.2991564360136,140.8660677622032,12.5,0,4.025503177532567,3.736528733037337,-3.73298127698317,9.892387181674342e-06,8.736489403693426e-06,-2.986385021586536e-05,2.971181727929494e-05,3.039277225422609e-05
261.1253064674989,141.8857813324872,12.5,0,4.492701072731509,3.996735638255431,-3.946849301843242,1.117925492213648e-05,9.195393184232171e-06,-3.157479441474593e-05,3.239374291890569e-05,3.169765172622457e-05
263.4058452408163,142.3740434700433,12.5,0,4.294559315754539,3.653042138472517,-3.71200113195886,1.082015609963651e-05,8.254087390508424e-06,-2.969600905567088e-05,3.034445463034808e-05,3.163680977516064e-05
261.2497292768064,143.9507454214031,12.5,0,4.995979134816039,4.138376485679435,-4.06315623182181,1.267643204286778e-05,9.246021446321362e-06,-3.250524985457448e-05,3.472631333112896e-05,3.344645726493301e-05
263.5515848584824,144.4339765953303,12.5,0,4.802088580653541,3.798631251703856,-3.831097389949063,1.232777845672824e-05,8.313949140929507e-06,-3.06487791195925e-05,3.271009933708099e-05,3.334167254541394e-05
262.1012047348739,120.8454764695498,12.5,0,0.2405510853219682,3.244388983385057,-3.399428201370804,-1.825747713677747e-06,1.018960387857461e-05,-2.719542561096643e-05,1.55789981715881e-05,1.514908465892177e-05
264.3264629033409,121.3372473272113,12.5,0,0.1096501639510377,3.07749260186361,-3.226158046577764,-2.111113556847567e-06,9.760256194802719e-06,-2.580926437262211e-05,1.445243995994376e-05,1.530140590257321e-05
262.0159822250762,122.9075708644721,12.5,0,0.6391736294087167,3.338891585876129,-3.443103375181138,-6.257576545930102e-07,1.017311417127664e-05,-2.75448270014491e-05,1.708252091346736e-05,1.656620692747375e-05
264.2574023819788,123.4248125586135,12.5,0,0.505138216527787,3.172275023967073,-3.270686366689004,-9.213777262847395e-07,9.747169503472402e-06,-2.616549093351203e-05,1.593354659466888e-05,1.672733515738919e-05
265.9554649425471,121.6972485806859,12.5,0,0.5079325816386224,3.039120361332838,-3.541956014330795,-8.059120278226789e-07,9.318839090954184e-06,-2.833564811464636e-05,1.582821940082789e-05,1.540360387569342e-05
268.1807231110141,122.1890194383475,12.5,0,0.3704295974053949,2.85490723303546,-3.363187099554777,-1.098551074731104e-06,8.839359467789154e-06,-2.690549679643822e-05,1.46142939273499e-05,1.553049268704882e-05
265.8982358178707,123.8034597585019,12.5,0,0.9258482886323809,3.139735040348986,-3.594573797115013,4.509264913444297e-07,9.30647349821085e-06,-2.87565903769201e-05,1.743543227844174e-05,1.683459455126485e-05
268.1396559747733,124.3207014526433,12.5,0,0.7851188710164284,2.955862834509386,-3.416592893812397,1.476901196450619e-07,8.830665973616893e-06,-2.733274315049918e-05,1.619846983302571e-05,1.696650443501921e-05
266.0545886941576,118.0491838093048,12.5,0,-0.1983300341149734,2.92017511171825,-3.445083260803043,-2.970796198542515e-06,9.503224384790378e-06,-2.756066608642434e-05,1.340877489119121e-05,1.3097224482792e-05
268.2518534775032,118.4968378840727,12.5,0,-0.3219679373972025,2.751116464226857,-3.274060142146901,-3.231190571052533e-06,9.061147035443703e-06,-2.619248113717521e-05,1.23292468264989e-05,1.321139269350635e-05
265.9973595694811,120.1553949871207,12.5,0,0.2102451855482602,3.018710581255385,-3.494029561715804,-1.742183871249875e-06,9.491677711578623e-06,-2.795223649372644e-05,1.48725169215504e-05,1.440217858406103e-05
268.2107863412624,120.6285198983685,12.5,0,0.08333116514060868,2.849905119794507,-3.323784408478609,-2.013264367385658e-06,9.053031451229936e-06,-2.659027526782888e-05,1.376161251886945e-05,1.452431352845314e-05
262.2488144517894,117.2738242076054,12.5,0,-0.4491635278493878,3.107237548853683,-3.303713980053972,-3.923113328200986e-06,1.030249097861129e-05,-2.642971184043177e-05,1.318217690346567e-05,1.287312272162316e-05
264.4460792351351,117.7214782823733,12.5,0,-0.566646204118891,2.956163344781333,-3.137288506741915,-4.178198529005518e-06,9.913039666595378e-06,-2.509830805393532e-05,1.218918989522949e-05,1.300658531700502e-05
262.1635919419917,119.3359186025278,12.5,0,-0.05762153538523695,3.20038912142161,-3.343444226567313,-2.744700210370046e-06,1.028734241685734e-05,-2.674755381253851e-05,1.455063721390904e-05,1.415952572841477e-05
264.377018713773,119.8090435137755,12.5,0,-0.178308331262551,3.049491882516168,-3.177872269695154,-3.010180166053097e-06,9.901020689061777e-06,-2.542297815756123e-05,1.352752265472128e-05,1.430443398763507e-05
214.9136047696846,103.501721769403,12.5,0,-4.019923187171303,3.493729452444023,-0.3400409569941846,-1.565873776090339e-05,1.439587279755791e-05,-2.720327655953477e-06,6.006727740111884e-06,6.093207041238389e-06
216.7824968895677,103.2338345840575,12.5,0,-4.027752712308009,3.301883261190442,-0.2389373749780941,-1.553031528833798e-05,1.378822860565582e-05,-1.911498999824753e-06,5.528645350139209e-06,6.102512219821998e-06
215.6983929391652,105.6541513504387,12.5,0,-3.655741764713975,3.664287613234997,-0.4741669090633214,-1.462980373767271e-05,1.465031377412317e-05,-3.793335272506571e-06,6.75351380217991e-06,6.766741258490493e-06
217.5763279603453,105.3881538144949,12.5,0,-3.664047597949718,3.473013238070149,-0.3733027957975141,-1.450336290389521e-05,1.404488044018425e-05,-2.986422366380113e-06,6.21622820124137e-06,6.772836477052436e-06
211.6765886642401,103.9657159851098,12.5,0,-3.958338036670172,3.471409318256197,-0.1522640233784991,-1.544380917194951e-05,1.427518024775597e-05,-1.218112187027992e-06,5.969732898442858e-06,6.06291144266534e-06
213.5454807841232,103.6978287997642,12.5,0,-3.962699972363325,3.294219726072777,-0.05091830900761318,-1.531601569242086e-05,1.371166310132354e-05,-4.073464720609054e-07,5.533742453090266e-06,6.082596044979947e-06
212.4457140692266,106.1148725973732,12.5,0,-3.598290161410147,3.633687712256158,-0.2787703336739245,-1.442147868631739e-05,1.450643280834782e-05,-2.230162669391396e-06,6.68551031496635e-06,6.739403416110636e-06
214.3236490904068,105.8488750614294,12.5,0,-3.603138449269698,3.457020872690254,-0.1776763783557171,-1.429565973581524e-05,1.394497755202457e-05,-1.421411026845737e-06,6.195709676406562e-06,6.757782896810915e-06
213.0087529430448,107.6881644309057,12.5,0,-3.298150487722087,3.723092914631104,-0.2538839560570799,-1.353255589241556e-05,1.45524177169972e-05,-2.031071648456639e-06,7.237906529854574e-06,7.325020770819651e-06
214.8933078274219,107.4235502143324,12.5,0,-3.305037391461899,3.536163208416019,-0.1507758639703911,-1.340505021941089e-05,1.395975218010078e-05,-1.206206911763129e-06,6.681503189115005e-06,7.342158267049098e-06
213.7778783480313,109.8373210431692,12.5,0,-2.933828647779511,3.889547721101442,-0.3843263874327076,-1.249988984977559e-05,1.479361562574822e-05,-3.074611099461661e-06,8.227378497905472e-06,8.24846516430149e-06
215.6714761337055,109.5745964759977,12.5,0,-2.941193697824953,3.703172091161102,-0.2814701509613274,-1.237435750596873e-05,1.420310564997549e-05,-2.25176120769062e-06,7.616021584497523e-06,8.263514617468595e-06
216.2728977523795,107.229839163404,12.5,0,-3.355573799431307,3.741257715407456,-0.4510448429232314,-1.373084233050615e-05,1.46564837288489e-05,-3.608358743385851e-06,7.262804668223674e-06,7.349727615036522e-06
218.1574526367566,106.9652249468308,12.5,0,-3.365946407842789,3.539693262678163,-0.3482169814611502,-1.360278311523945e-05,1.401977556684435e-05,-2.785735851689201e-06,6.656656007764691e-06,7.353269962089767e-06
217.05768592186,109.3822687444398,12.5,0,-2.987295172390612,3.915952576551585,-0.5890320509944851,-1.269210661289122e-05,1.492088438287756e-05,-4.712256407955881e-06,8.285934846138517e-06,8.268941744055354e-06
218.9512837075343,109.1195441772683,12.5,0,-2.998135654324223,3.714990795381371,-0.4864437880714584,-1.256602673014261e-05,1.428647906867976e-05,-3.891550304571667e-06,7.619674512764191e-06,8.268719476463004e-06
253.3596601805541,133.0599028115251,12.5,0,2.409685654406402,4.323303562485189,-3.426342990237968,4.252351244112333e-06,1.190682287642748e-05,-2.741074392190374e-05,2.603331028526852e-05,2.533810338108157e-05
255.5721505616474,133.56373438038,12.5,0,2.268370544545169,4.137377880983717,-3.246046943194072,3.948883437757566e-06,1.142491278351176e-05,-2.596837554555257e-05,2.476236630001879e-05,2.549925847834931e-05
253.2593311336001,135.089648739945,12.5,0,2.816038953608843,4.418051785850374,-3.474129547198002,5.476883222867997e-06,1.188493455183412e-05,-2.779303637758402e-05,2.775771686041772e-05,2.709856903017955e-05
255.4644541788765,135.5881054959438,12.5,0,2.674974967520025,4.231660037568607,-3.293301709682002,5.174591866009194e-06,1.140133214620352e-05,-2.634641367745601e-05,2.648526605890318e-05,2.723616898218007e-05
257.1918059317962,133.9325646872231,12.5,0,2.706686211627689,4.064700242025308,-3.60780817789915,5.409635683588357e-06,1.084169180517883e-05,-2.88624654231932e-05,2.626220953673813e-05,2.559843214444752e-05
259.4042963128895,134.4363962560779,12.5,0,2.561177793437094,3.869902993983511,-3.423329640846708,5.09984654381189e-06,1.033474734599756e-05,-2.738663712677366e-05,2.494119900544599e-05,2.570822454174447e-05
257.0787162848912,135.9530011666954,12.5,0,3.119294162192882,4.159741587107563,-3.657063441494905,6.65394804933117e-06,1.081573774898989e-05,-2.925650753195924e-05,2.801704424015579e-05,2.731735444938454e-05
259.2838393301676,136.4514579226942,12.5,0,2.974034592351492,3.964446818252136,-3.472039719906695,6.345353240923065e-06,1.030700214452564e-05,-2.777631775925356e-05,2.669480632717542e-05,2.740155731863225e-05
257.3876829460423,130.4330660513745,12.5,0,1.999849320376089,3.91417303551025,-3.50964823861289,3.268179396795286e-06,1.092547425733193e-05,-2.807718590890312e-05,2.333112683313467e-05,2.269739946857127e-05
259.6129339270867,130.9462070691769,12.5,0,1.859051718360114,3.733481751833324,-3.330356255690309,2.962180097285705e-06,1.045990023117855e-05,-2.664285004552248e-05,2.208165235549409e-05,2.284430207574999e-05
257.2745932991372,132.4535025308467,12.5,0,2.400134437702779,4.006838346359539,-3.554130275529527,4.474959523561261e-06,1.09017751581883e-05,-2.843304220423622e-05,2.499963821230563e-05,2.436051893830899e-05
259.4924769443647,132.9612687357931,12.5,0,2.259578070602835,3.825696439051052,-3.374305456247968,4.170092674688232e-06,1.04345661484811e-05,-2.699444364998374e-05,2.374722316300834e-05,2.448711167974967e-05
253.5334351873502,129.5442797371092,12.5,0,1.704032490700972,4.149111629649927,-3.323899260643335,2.133614666523167e-06,1.191393122231899e-05,-2.659119408514668e-05,2.303510374363099e-05,2.237830776544705e-05
255.7586861683946,130.0574207549115,12.5,0,1.567511283075563,3.977988907814252,-3.148659714207705,1.833644979590399e-06,1.147555547854515e-05,-2.518927771366164e-05,2.183950471330122e-05,2.257253666945199e-05
253.4331061403962,131.574025665529,12.5,0,2.098531380965234,4.241549905223287,-3.366619177537944,3.322060494910118e-06,1.189413459194233e-05,-2.693295342030355e-05,2.467354270560907e-05,2.407331318717195e-05
255.6509897856237,132.0817918704753,12.5,0,1.962254820369225,4.070010176990917,-3.190859099717176,3.023207283588786e-06,1.145422871007555e-05,-2.55268727977374e-05,2.347464500013183e-05,2.424964196639702e-05
244.3785569783099,203.5492530953059,12.5,0.4028190141671814,17.93435804135391,8.69825245393408,-3.31811270493763,8.444901121366834e-05,2.258431152274095e-05,-4.445034632588303e-05,0.0001636129365778679,0.0001637930022436981
246.2212972097677,204.6922425431898,12.5,0.3653469246018289,18.1274604954154,9.002478294281442,-2.96196131758547,8.005301308597508e-05,2.254138946130996e-05,-3.733644641336917e-05,0.0001566218397776341,0.0001546130217413318
243.232683204461,205.1325582007179,12.5,0.4762504479563002,16.7744759562793,7.885732143058431,-2.628457429196636,9.044348994821606e-05,2.255803760912382e-05,-4.014831010646595e-05,0.0001726626133722327,0.0001853668261959484
245.1437095327978,206.4413894539681,12.5,0.4476769837714245,16.87641861330822,8.105916645500862,-2.325736628463644,8.603625930830275e-05,2.251906585368311e-05,-3.368661540624485e-05,0.0001656926316364833,0.0001763284038577966
247.5702766842886,205.5289688915204,12.5,0.3311503748373912,17.8541280415698,8.125601062476106,-3.292368920624972,7.570121441083681e-05,1.752056146225498e-05,-3.937948138730933e-05,0.0001426915980133791,0.0001470908716893095
249.4130169157463,206.6719583394044,12.5,0.2722513985809347,18.18283488696644,8.075696333702396,-2.790988219430744,7.107470144287608e-05,1.5521789167644e-05,-3.068079514259169e-05,0.0001324611874566818,0.0001357199560665203
246.5426778996826,207.3995204298405,12.5,0.4194169151292468,16.88907206364461,7.201738200201785,-2.705484568388711,8.316404887036971e-05,1.642194689818169e-05,-3.72795506984637e-05,0.000152503959129504,0.0001682175386224266
248.4537042280194,208.7083516830907,12.5,0.3674319808699711,17.3160185659468,7.212629781678624,-2.307100035492904,7.847560117559904e-05,1.458752287430667e-05,-2.917757415135669e-05,0.0001424537983549823,0.0001550966650432616
249.35012998899,202.2890785890322,12.5,0.1657248420873599,17.61595041385533,7.728587438569662,-3.086378965798729,6.015781591657641e-05,1.275205113257451e-05,-2.959578922158835e-05,0.0001116483861672046,0.0001190749289155013
251.0745952312047,203.144821604008,12.5,0.1026299784642566,18.03092502870944,7.599913850608064,-2.628073545775324,5.752256903238627e-05,1.10266490539144e-05,-2.342911826965367e-05,0.0001049465155875837,0.0001110123516961263
248.3225312043841,204.1596301273522,12.5,0.2620281553156876,16.91453273601118,6.936154777278307,-2.612753585075121,6.582579170644849e-05,1.174037893300378e-05,-2.832361265698745e-05,0.0001188613771684571,0.0001339231491047908
250.1152825434779,205.1812149476943,12.5,0.1996047218342468,17.50881718390675,6.922406176452776,-2.262767106379563,6.30816940387839e-05,1.017577969248941e-05,-2.261649630482671e-05,0.0001122522854246659,0.0001239075999066424
246.3632685736412,200.8068882088983,12.5,0.2572128781451938,17.74450739112347,8.391893398536872,-3.18496368006879,6.740680803369215e-05,1.704183148842149e-05,-3.430284221531089e-05,0.0001291295346279747,0.0001330932268509236
248.0877338158559,201.6626312238743,12.5,0.2068433772265211,18.12827328338068,8.59929771116439,-2.782116774900961,6.446524541280844e-05,1.640928623089687e-05,-2.806120955200565e-05,0.0001235366263743419,0.0001249914815812176
245.2173947997923,202.3901933143104,12.5,0.3437996350823067,16.82294500554689,7.615705847172758,-2.543094273249127,7.275347880368816e-05,1.662891898556622e-05,-3.100387514801952e-05,0.000136655489134746,0.0001497863335141666
247.0101461388861,203.4117781346525,12.5,0.3000409406758814,17.20674827259567,7.815277409095996,-2.220505096187434,6.973175344306528e-05,1.606306674834294e-05,-2.537868541433331e-05,0.0001310677655710677,0.0001408573348758513
267.6006974618972,102.5251461815403,12.5,0,-3.110255936701491,2.358672711138549,-3.042247396039963,-1.183975716635561e-05,1.003595742500455e-05,-2.43379791683197e-05,6.240723233785167e-06,6.290486656337903e-06
269.7110879006763,102.6761486677517,12.5,0,-3.201700333134054,2.106690979652968,-2.876650232210053,-1.193079384975135e-05,9.302771401396739e-06,-2.301320185768042e-05,5.449997820956209e-06,6.287098976872663e-06
268.1360564075964,104.9577021421915,12.5,0,-2.598942229532168,2.545426739213231,-3.190247542630845,-1.035295652587352e-05,1.022451934910807e-05,-2.552198034104676e-05,7.386277811437383e-06,6.969231097401328e-06
270.2580843486514,105.1464892979819,12.5,0,-2.698002103312983,2.291007209452233,-3.022664843069256,-1.046641249816333e-05,9.489624752897531e-06,-2.418131874455404e-05,6.461192451561543e-06,6.974310652376274e-06
268.527966356118,106.738456697567,12.5,0,-2.303110810994716,2.454303860664846,-3.183231918563157,-9.333397683714966e-06,9.696261002923277e-06,-2.546585534850525e-05,7.532598675807191e-06,7.549825453652033e-06
270.6585135401119,106.9549041512352,12.5,0,-2.412743497647531,2.183350849692044,-3.008383978834631,-9.467459872225731e-06,8.916917517132563e-06,-2.406707183067705e-05,6.511503165031515e-06,7.561709343170933e-06
269.0633253018171,109.1710126582183,12.5,0,-1.777427376882733,2.647765047937417,-3.33801051483404,-7.805979644374679e-06,9.894790054905921e-06,-2.670408411867232e-05,9.049260483311708e-06,8.457294292520717e-06
271.205509988087,109.4252447814654,12.5,0,-1.89484380468896,2.374309104327051,-3.161094354389325,-7.962947458466313e-06,9.113664177597732e-06,-2.52887548351146e-05,7.881916213239982e-06,8.479300735286002e-06
272.2181823266519,107.1133546844825,12.5,0,-2.142367519136434,2.291012964839676,-3.295868291835189,-8.688386433108327e-06,9.04513550279611e-06,-2.636694633468151e-05,7.524450323417162e-06,7.566824569555657e-06
274.3487295106459,107.3298021381506,12.5,0,-2.251304943650453,2.023559994162388,-3.120447797995797,-8.823023815011358e-06,8.276435936240001e-06,-2.496358238396638e-05,6.508126734331258e-06,7.568915738412633e-06
272.7736980175659,109.6113556125905,12.5,0,-1.600545562032185,2.48994306906737,-3.453812576534755,-7.113700253756888e-06,9.24825427064133e-06,-2.763050061227804e-05,9.107487009270255e-06,8.490750464571446e-06
274.9158827038358,109.8655877358376,12.5,0,-1.717306969299645,2.219965098073624,-3.276330880287823,-7.271354380217762e-06,8.477733889275313e-06,-2.621064704230259e-05,7.943524891878305e-06,8.500025263948233e-06
271.2560009256044,102.786690159723,12.5,0,-2.969600283218144,2.209479926869078,-3.157828983877526,-1.127030484779332e-05,9.446015992555564e-06,-2.52626318710202e-05,6.216125546829766e-06,6.282492997943421e-06
273.3663913643836,102.9376926459343,12.5,0,-3.061016491015145,1.958225516449501,-2.991393524931485,-1.136183318440807e-05,8.715134845450521e-06,-2.393114819945188e-05,5.423380324431303e-06,6.273296908954847e-06
271.8115166165184,105.2846910878309,12.5,0,-2.441851109859872,2.402347620600247,-3.310080008988225,-9.735801648031784e-06,9.640993273808685e-06,-2.64806400719058e-05,7.4177506044211e-06,6.975123764711096e-06
273.9335445575735,105.4734782436213,12.5,0,-2.540930821489462,2.14862633217502,-3.141648294584319,-9.849879694506293e-06,8.908348920151632e-06,-2.513318635667455e-05,6.48696765111224e-06,6.972265673947242e-06
188.3777060319428,105.9842342690433,12.5,0,-3.533616871782297,2.862209576992369,1.033095893977283,-1.359734165129724e-05,1.198596414380142e-05,8.264767151818268e-06,5.048653646077446e-06,5.121332076827844e-06
190.4618747395076,106.2822099284838,12.5,0,-3.611718352920672,2.752794924877525,1.180217261657279,-1.375973466924817e-05,1.169831844194462e-05,9.441738093258231e-06,4.846377997174471e-06,5.338226477518465e-06
189.0280077721501,108.0066735877492,12.5,0,-3.15740510419834,2.984409336116934,0.9536231446778557,-1.249122380232823e-05,1.207603395893286e-05,7.628985157422845e-06,5.567932514598229e-06,5.641441353656541e-06
191.1140143933657,108.3114297114683,12.5,0,-3.236786762756311,2.87456443892984,1.101037358162477,-1.265736919196407e-05,1.178803561478054e-05,8.808298865299819e-06,5.314849485779353e-06,5.900153924977574e-06
187.2513503776734,102.4812666138826,12.5,0,-4.142974692976271,2.665952488009967,1.066516090687655,-1.539028100793204e-05,1.184542771601291e-05,8.532128725501238e-06,4.392102081855593e-06,4.444558543733343e-06
189.3323357254152,102.7674981646937,12.5,0,-4.21968247005207,2.553700592477237,1.213101591875737,-1.554594437814841e-05,1.154758787196881e-05,9.704812735005896e-06,4.240580151800872e-06,4.602972807442498e-06
187.9016521178808,104.5037059325885,12.5,0,-3.767263658141171,2.789069137423031,0.9858408862897491,-1.428649901599017e-05,1.193883216626663e-05,7.886727090317992e-06,4.739795842273708e-06,4.800628294484211e-06
189.9844753792734,104.7967179476783,12.5,0,-3.845249307601687,2.67638355150515,1.132723102026921,-1.444590462552952e-05,1.164062681089783e-05,9.061784816215366e-06,4.550629209261845e-06,4.990647844648857e-06
183.646978025643,101.9854990251575,12.5,0,-4.213779775989059,2.493056154370433,1.205809100501692,-1.547854020666134e-05,1.134880351477663e-05,9.646472804013533e-06,4.129107724842341e-06,4.185888635729617e-06
185.7279633733848,102.2717305759685,12.5,0,-4.288468557524984,2.389835073890856,1.352619701472351,-1.563496744319263e-05,1.107824708247073e-05,1.082095761177881e-05,4.019223884613036e-06,4.332801176750551e-06
184.2940964060273,103.996194235234,12.5,0,-3.839150098181789,2.61309938904187,1.12865060788352,-1.437575982541522e-05,1.143323812347941e-05,9.029204863068158e-06,4.42335095459776e-06,4.491087859552245e-06
186.3769196674199,104.2892062503238,12.5,0,-3.91512023652273,2.509454039442694,1.275747795027632,-1.453594798842689e-05,1.11623491154348e-05,1.020598236022106e-05,4.283088448823894e-06,4.666771599910836e-06
184.7678199389602,105.4681252874828,12.5,0,-3.608592851325628,2.676094832318421,1.179146310179578,-1.368837299009674e-05,1.145037774447945e-05,9.433170481436628e-06,4.681821384887352e-06,4.767925876804637e-06
186.8519886465251,105.7661009469233,12.5,0,-3.684290324382004,2.576815825564014,1.326085846399631,-1.385118169847362e-05,1.119324290131045e-05,1.060868677119704e-05,4.535433443303725e-06,4.968520491428346e-06
185.4149383193445,107.4788204975593,12.5,0,-3.234404999417809,2.794680404281095,1.103672172837023,-1.258584032156186e-05,1.153050129323375e-05,8.829377382696185e-06,5.124402785794128e-06,5.219062181614327e-06
187.5009449405602,107.7835766212785,12.5,0,-3.311382890032642,2.694982619014443,1.25089269835632,-1.275241134331601e-05,1.127305069287233e-05,1.000714158685056e-05,4.936037979469147e-06,5.458943371056534e-06
161.9358274363135,112.494047663568,12.5,0,-2.389035869053404,1.652606435780728,1.935979113321542,-8.966999929595473e-06,7.19956928974105e-06,1.548783290657233e-05,3.958115443962685e-06,4.180020828264395e-06
163.4013356693864,111.2257990168393,12.5,0,-2.333551304827741,1.553273487359847,1.933916529401681,-8.709982965336647e-06,6.837316203413702e-06,1.547133223521345e-05,3.80030421708472e-06,4.088591561418812e-06
163.2369297177944,114.3179175039201,12.5,0,-2.226769044029199,1.801891908349455,1.839365676925688,-8.567174467572999e-06,7.547469341941614e-06,1.47149254154055e-05,4.275636003786993e-06,4.661695794835278e-06
164.7147327778549,113.1756675351666,12.5,0,-2.176908108640948,1.692528588895319,1.84165169281279,-8.320128818767287e-06,7.157617971377777e-06,1.473321354250232e-05,4.084582657650174e-06,4.567472682398963e-06
159.3974927177665,114.6907187562932,12.5,0,-1.990423254589313,1.581578252603871,1.973931418337602,-7.634617016768897e-06,6.653389012003835e-06,1.579145134670082e-05,4.181310334627329e-06,4.353881951880467e-06
160.8630009508393,113.4224701095644,12.5,0,-1.944323953403631,1.494257469479839,1.971113100073364,-7.417242626475491e-06,6.337083065058389e-06,1.576890480058691e-05,4.035588788304656e-06,4.25110517414612e-06
160.6772997342349,116.2963524847096,12.5,0,-1.865443600286783,1.70683674959277,1.896888858627489,-7.334888920591921e-06,6.954232478926289e-06,1.517511086901991e-05,4.480269176905321e-06,4.845640212080258e-06
162.1551027942953,115.154102515956,12.5,0,-1.823929996744373,1.610237105805404,1.897795168677681,-7.124765674226314e-06,6.611902735972788e-06,1.518236134942145e-05,4.304279758218862e-06,4.736230559771622e-06
161.6141834941331,117.4717579522067,12.5,0,-1.510524401383762,1.740601305731308,1.94157603341301,-6.226159129013085e-06,6.778343699447194e-06,1.553260826730408e-05,5.056431197262202e-06,5.271401243465676e-06
163.1009869922184,116.4217454174136,12.5,0,-1.462586189961361,1.638225394590038,1.95091874070972,-5.990856123548385e-06,6.41239021465721e-06,1.560734992567776e-05,4.877145550488348e-06,5.164991903788101e-06
162.8939905106015,119.0773916806231,12.5,0,-1.350417172073918,1.888439282181937,1.848209400440381,-5.832086376382088e-06,7.123339440641332e-06,1.478567520352305e-05,5.561376721384337e-06,5.94284375294323e-06
164.3930888356744,118.1533778238052,12.5,0,-1.30914863798075,1.774429180960901,1.862834253887533,-5.608818986307121e-06,6.725492289459483e-06,1.490267403110026e-05,5.333514424470242e-06,5.851264294386939e-06
164.1894026936416,115.6530828933936,12.5,0,-1.828878752007283,1.857462802290818,1.886819853164845,-7.33838224825596e-06,7.406983968936444e-06,1.509455882531876e-05,4.867480780037043e-06,5.092289393157319e-06
165.676206191727,114.6030703586005,12.5,0,-1.770068880820681,1.772151966273226,1.903956727009372,-7.081941991644758e-06,7.086941396730866e-06,1.523165381607497e-05,4.751360108508471e-06,5.000071779945338e-06
165.4905049751225,117.4769527337456,12.5,0,-1.642143657913148,1.99926688721497,1.790315559217613,-6.854273215094048e-06,7.71136896541842e-06,1.43225244737409e-05,5.350277515567903e-06,5.78701801466617e-06
166.9896033001954,116.5529388769278,12.5,0,-1.590361324686822,1.904173199881656,1.81271022280311,-6.612494798903155e-06,7.365643299370758e-06,1.450168178242488e-05,5.197206649265807e-06,5.703073372820575e-06
144.5800366354755,114.2444359198425,12.5,0,-2.074292030099593,0.821700862017283,2.085807640873723,-7.295095185932524e-06,4.28887638253498e-06,1.668646112698979e-05,2.91559113970236e-06,3.021478143458289e-06
146.1879824458358,113.6817127671962,12.5,0,-2.039609062327865,0.7212054956408938,2.138883627297387,-7.103713395961882e-06,3.939544835913152e-06,1.71110690183791e-05,2.862031657016664e-06,3.078890888784492e-06
145.7902656274677,115.8273209860381,12.5,0,-1.872958289998202,0.9541894257967559,1.991382716674218,-6.75681806863165e-06,4.55177279454818e-06,1.593106173339374e-05,3.110551810396705e-06,3.297443990689343e-06
147.3972711940605,115.2641275831181,12.5,0,-1.838185173364508,0.8537182233215013,2.044436193466779,-6.565167133423626e-06,4.20244645332041e-06,1.635548954773423e-05,3.045450888480007e-06,3.355938991210558e-06
146.6762147383612,116.9860732769861,12.5,0,-1.607907191496943,0.9376214637831163,2.066629669836153,-5.895400183816712e-06,4.286714437303526e-06,1.653303735868922e-05,3.390990804694898e-06,3.54447382527793e-06
148.2825319987447,116.4225356269734,12.5,0,-1.57225952986757,0.8356496059275335,2.120779821738198,-5.69975018031825e-06,3.931886362862163e-06,1.696623857390559e-05,3.325603948220119e-06,3.603324816146591e-06
147.8864437303533,118.5689583431817,12.5,0,-1.402469736940582,1.072513217228559,1.970412913275359,-5.345913731992708e-06,4.554018084683854e-06,1.576330330620287e-05,3.696783175367803e-06,3.943406037156924e-06
149.4918207469694,118.0049504428952,12.5,0,-1.366729970003502,0.9705660725380819,2.024540136171697,-5.149988762041672e-06,4.199195408124664e-06,1.619632108937357e-05,3.615801856971826e-06,4.002147356546838e-06
149.4584378463703,116.0099974352036,12.5,0,-1.761564967751937,1.074762379169416,2.056663119986075,-6.49681780014173e-06,4.84849158754368e-06,1.64533049598886e-05,3.494415134818352e-06,3.644494885527448e-06
151.0647551067539,115.4464597851909,12.5,0,-1.727236381597211,0.9682987110790688,2.110005598342946,-6.301795389974329e-06,4.480344980730788e-06,1.688004478674357e-05,3.410867161647389e-06,3.698122615963208e-06
150.6670382883858,117.5920680040328,12.5,0,-1.556004004091091,1.212703780719418,1.959068253266929,-5.949375837667025e-06,5.125455301575009e-06,1.567254602613543e-05,3.806431846129168e-06,4.042835394730235e-06
152.2724153050019,117.0280601037464,12.5,0,-1.521583576185582,1.106264777880899,2.012387006194405,-5.754079266098581e-06,4.757314150167342e-06,1.609909604955524e-05,3.705507171188682e-06,4.095255862922391e-06
147.3650804747869,113.2697708288813,12.5,0,-2.230097493768943,0.9542571377102075,2.076951160370611,-7.899717690228783e-06,4.837700835687818e-06,1.661560928296489e-05,3.020075882887572e-06,3.119715028353999e-06
148.9730262851472,112.707047676235,12.5,0,-2.197063148750244,0.8478943803388541,2.12905572816969,-7.708917580271864e-06,4.470912536084528e-06,1.703244582535752e-05,2.94884748675371e-06,3.173835906511713e-06
148.5736809168024,114.8518413977105,12.5,0,-2.028337324380769,1.090841671101359,1.980626996737087,-7.363352774899547e-06,5.113363207028964e-06,1.584501597389669e-05,3.223688826104209e-06,3.397145528847912e-06
150.1806864833952,114.2886479947904,12.5,0,-1.99521306845877,0.9845030543020726,2.032708004558969,-7.172284262509722e-06,4.746580228533648e-06,1.626166403647175e-05,3.138950063543206e-06,3.45122888276073e-06
227.1315208240533,210.0639006228152,12.5,0.7005354330073333,16.38668399906594,10.06338358577473,-3.151848553336766,0.0001482201462902226,6.375872934474402e-05,-8.419957218949243e-05,0.0003226817234834094,0.0003104536700772767
228.769557222853,208.795412420221,12.5,0.6917397901462635,17.15406972912309,9.689720839180188,-3.239683970794275,0.0001529267967611433,5.606902983125515e-05,-8.407660456291632e-05,0.0003185637453085843,0.0003024340499976112
228.8836598521416,211.704882301029,12.5,0.7256669496216857,15.70479886481963,10.04855865477665,-3.340755053428092,0.0001538877994663185,7.141519615085448e-05,-9.742187603924734e-05,0.0003429978764895615,0.0003359193820374895
230.4740544541412,210.3287267328436,12.5,0.7133957506521603,16.70298961622603,9.933090421155741,-3.509332457698465,0.0001587662937257204,6.428201150764415e-05,-9.795618775880282e-05,0.0003399510644949799,0.0003229803147140418
230.166314642572,212.9061642637201,12.5,0.7421669129692705,16.3005934045474,9.759371884159282,-3.138257952669116,0.0001720275776007675,7.05476380675064e-05,-9.737331973363333e-05,0.0003694169448780035,0.0003550563900609652
231.7218330287515,211.4511907136082,12.5,0.7270106880958854,17.39812099185126,9.58842182333844,-3.475176574735497,0.0001758429638890553,6.141065715822012e-05,-0.0001018406632991148,0.0003619570198877811,0.0003373999008734257
231.9184536706604,214.5471459419339,12.5,0.7624886740450321,15.52393905901341,9.83018849374165,-3.285335567009611,0.0001760440434818558,8.015386995217249e-05,-0.0001106586577730616,0.0003900808913643593,0.000381873956327964
233.4263302600396,212.9845050262309,12.5,0.7431358655175611,16.94319519403228,9.989308872413886,-3.713583982328862,0.0001799658703466544,7.167692863620603e-05,-0.0001156590892632463,0.0003837363972268513,0.0003562486781702234
234.4160699056733,208.9311026011909,12.5,0.6852797517109357,17.65373295834049,9.489744131100412,-3.495531004202642,0.0001553765619709839,5.161471160866952e-05,-8.885430214816215e-05,0.0003159181153386824,0.0002968042073575337
236.038049124341,210.2779315662959,12.5,0.6941898172999953,17.28578648534968,9.866920861267332,-3.585869185701421,0.0001550667137549974,5.802788321533364e-05,-9.380640380360664e-05,0.0003249871198889316,0.0003046257696788048
232.8605515194939,210.3860761513028,12.5,0.7122182834061612,16.31742978606995,9.25938345631431,-2.982430549240578,0.0001557022769921573,5.759950085621497e-05,-8.290813146965377e-05,0.000325026618045703,0.0003217912755611768
234.5301725349618,211.840572481999,12.5,0.7253299152134141,15.68273773519606,9.376213272788155,-3.012884669019451,0.0001554002146522853,6.355876832502374e-05,-8.775283034875565e-05,0.000333454876510229,0.0003355500889414567
229.9686830913707,207.8668146071598,12.5,0.6816605334985724,16.43995879102846,9.729466633140397,-2.937055557173894,0.0001408065902647912,5.64878944821184e-05,-7.38093982364759e-05,0.0003003690433624337,0.0002937411964392764
231.6067194901705,206.5983264045656,12.5,0.6618121140820252,17.48054859693594,9.566714274354538,-3.252317986647117,0.0001427738428880993,4.917103034382205e-05,-7.693517413420174e-05,0.0002927146560461908,0.0002780114989338058
231.6383041068386,209.3213109378559,12.5,0.7006795318095362,15.83789066498809,9.888277128305873,-3.075945767609006,0.000142892427918098,6.33841527553536e-05,-8.221143809388187e-05,0.0003139380312928773,0.0003105886165791266
233.2286987088382,207.9451553696705,12.5,0.6767346146511157,17.14160716871769,10.00572574367108,-3.463510822716504,0.0001449229161804578,5.662541513690861e-05,-8.571312561605712e-05,0.0003071858654586715,0.0002896729350044899
206.5300344490498,169.4249602421238,12.5,0,10.03305950403987,7.899591956441354,-0.2652758734416564,2.578611684777448e-05,1.725224665738044e-05,-2.122206987533251e-06,6.511328330785732e-05,6.502097271914721e-05
208.3685496595565,170.3674442499901,12.5,0,10.12821639931548,8.421570029654964,-0.3398577235870252,2.567303645408556e-05,1.88464509754435e-05,-2.718861788696201e-06,6.733204323898659e-05,6.758268563947479e-05
205.767069279396,170.9206056284897,12.5,0,10.16613390185333,8.172205652327483,-0.0643528900841296,2.599386396406867e-05,1.801815096596528e-05,-5.148231206730369e-07,6.657315150905067e-05,6.660976087421009e-05
207.4057111935741,171.8762304244244,12.5,0,10.26105760406631,8.721557887278683,-0.1578741017013447,2.585813802318925e-05,1.970013915603873e-05,-1.262992813610758e-06,6.889035822785748e-05,6.917041409182812e-05
209.7144362040784,171.0573904290401,12.5,0,10.68030548087056,8.318884172425387,-0.626626070068093,2.752187020084549e-05,1.807618496706478e-05,-5.013008560544744e-06,6.900648992718883e-05,6.951384380972614e-05
211.5529514145851,171.9998744369065,12.5,0,10.82996638765748,8.96249049120415,-0.7421566234708666,2.748590004754062e-05,2.001599646172729e-05,-5.937252987766933e-06,7.186395358967112e-05,7.222815312820129e-05
208.6052803301133,172.5757963279916,12.5,0,10.81365746579616,8.769616434003034,-0.3920260167736072,2.758801074334528e-05,1.941184661617278e-05,-3.136208134188858e-06,7.109539193871981e-05,7.111532535819965e-05
210.2439222442914,173.5314211239265,12.5,0,10.96727967203584,9.437194842469243,-0.5296912247787033,2.754553907653929e-05,2.14251997582729e-05,-4.237529798229627e-06,7.405727569637762e-05,7.386826853674768e-05
211.6355505312648,168.427434265591,12.5,0,9.883863804648064,8.241513953876506,-0.7229517601955825,2.50351530117726e-05,1.846575360868637e-05,-5.78361408156466e-06,6.58111915356859e-05,6.655156961439818e-05
213.8202564460829,169.3471577608717,12.5,0,10.00986397798706,8.984953241870375,-0.7859613090643677,2.484360213606229e-05,2.074395919159555e-05,-6.287690472514941e-06,6.894721122907343e-05,6.914781542284565e-05
210.5263946572998,169.9458401645426,12.5,0,10.11065709984833,8.704426736702647,-0.4680608340311681,2.539056133015252e-05,1.976563987756981e-05,-3.744486672249345e-06,6.828753910369431e-05,6.82909891437597e-05
212.5112272757892,170.8787044478917,12.5,0,10.23388826222651,9.475184350413498,-0.5480565066604709,2.516829495879404e-05,2.213347931154198e-05,-4.384452053283767e-06,7.151653089454531e-05,7.096331152846164e-05
207.8515288872717,166.8344264428786,12.5,0,9.284197677512735,7.811184442438466,-0.3364963882026553,2.346048501408998e-05,1.75684320737929e-05,-2.691971105621242e-06,6.204960021479341e-05,6.218382713886173e-05
210.0362348020898,167.7541499381593,12.5,0,9.368471335316926,8.457208874555029,-0.3683516606954845,2.321334117337014e-05,1.956829133032255e-05,-2.946813285563876e-06,6.468140533375224e-05,6.468557457766296e-05
207.088563717618,168.3300718292445,12.5,0,9.502549366054584,8.113763063283418,-0.1129219675652555,2.391714752074793e-05,1.836200230966327e-05,-9.033757405220444e-07,6.392996366010345e-05,6.383504734904386e-05
209.0733963361074,169.2629361125937,12.5,0,9.581156279015014,8.791213058094272,-0.1593477275715189,2.362672964637263e-05,2.046695676268965e-05,-1.274781820572151e-06,6.665600184413282e-05,6.638097651350845e-05
236.5973901754215,189.0022377845088,12.5,0.1780014715125202,16.58223044145206,9.474641702947379,-2.375616595220362,5.533273171909511e-05,2.074586328961988e-05,-2.312039754710141e-05,0.0001157646207368272,0.0001207818715273192
238.4125176527423,188.3752557355695,12.5,0.1160329710289233,17.79637441223753,9.358962463621337,-2.469498296241922,5.595370248801597e-05,1.77739438676647e-05,-2.23492344425233e-05,0.0001123389408825648,0.000112632318951496
237.74061722507,191.0019064594328,12.5,0.222569202620148,16.33519937686292,9.591267833041513,-2.686851187349125,5.736796624193521e-05,2.266941009237055e-05,-2.764851813336468e-05,0.0001218107461646641,0.0001274128664204696
239.356504726932,190.3199480607834,12.5,0.1607935622513325,17.6378333336956,9.536027623631483,-2.840477956793686,5.816476420255896e-05,1.954825534069291e-05,-2.70777518286329e-05,0.0001184330893780169,0.0001184028001587414
239.7412831882989,187.9162730203319,12.5,0.06918159610519226,16.4300551197224,9.078651892357355,-2.481718312890178,4.868109040347965e-05,1.708995212514443e-05,-2.132934460690476e-05,0.0001001618911056846,0.0001071659214311148
241.5564106656198,187.2892909713926,12.5,0.00392702764666697,17.54718345038654,8.906622058822,-2.572322723149218,4.921897366450039e-05,1.452046609973733e-05,-2.065971304951138e-05,9.720853100721093e-05,0.0001003809982462532
240.5394164775603,189.8207198643449,12.5,0.1134464611224748,16.23235269113979,9.11542415215497,-2.749807636016499,5.036491010622628e-05,1.825436865829236e-05,-2.481346035343164e-05,0.0001045314833568435,0.0001123160236470758
242.1553039794224,189.1387614656956,12.5,0.04641324995515184,17.46472953102241,8.987527765752208,-2.897491787096209,5.106731221294725e-05,1.550808589244096e-05,-2.430815475957431e-05,0.000101572064174923,0.0001046967072239098
238.3588757801111,184.6176743262462,12.5,0,16.3439193380352,9.35682972355605,-2.764472863895067,4.481507810286778e-05,1.68667196449512e-05,-2.211578291116054e-05,9.393024250722337e-05,9.895611309352834e-05
240.519097017819,184.0859141082179,12.5,0,16.23691876187328,8.590713230888827,-2.69991843955381,4.508556945328343e-05,1.450074732934562e-05,-2.159934751643048e-05,9.086152300146588e-05,9.375470319192758e-05
239.1570090693724,186.5221211702593,12.5,0.03581874933982665,16.15014827985486,9.389926525030228,-2.973695427172369,4.580936752842811e-05,1.776392793832651e-05,-2.467333128609406e-05,9.683503022959739e-05,0.0001035861441874512
241.1179903316216,185.9353846025209,12.5,0,16.65703455569182,8.929590585628132,-3.032224797166973,4.615883810971133e-05,1.524906222945656e-05,-2.425779837733578e-05,9.366922247958444e-05,9.744909710239673e-05
234.6172628408788,185.5387100412985,12.5,0.08778891865035776,16.26961496074953,9.759840731787413,-2.47811796482375,4.851387600279112e-05,1.996884136308595e-05,-2.173284684204716e-05,0.0001041495367767181,0.0001092721232172667
236.7774840785868,185.0069498232702,12.5,0.03124536490001018,17.22454164795433,9.317232963392673,-2.395002247894073,4.920208397023052e-05,1.655270755203972e-05,-1.977798844923718e-05,0.0001001396675845939,0.0001031139932578031
235.7604898905273,187.5383787162226,12.5,0.1420898244467467,16.19146092523078,9.897837349188674,-2.840402632966295,5.116433670119451e-05,2.182036221349973e-05,-2.648671354093276e-05,0.0001110428063621735,0.0001159210740360719
237.7214711527765,186.9516421484842,12.5,0.08136508403534304,17.33189947433651,9.56833747029134,-2.827816624108498,5.204179322036901e-05,1.823701672374451e-05,-2.462624988416873e-05,0.000107069983406792,0.0001085356954892817
140.4148277971046,108.7598008626795,12.5,0,-2.999176259443032,0.6207856675003195,2.111730524135125,-1.009399256421796e-05,4.385855143555447e-06,1.6893844193081e-05,2.403096070591238e-06,2.433609863137525e-06
142.1001986944504,108.1949901789131,12.5,0,-2.966222145725332,0.5169814121848291,2.167019379799318,-9.905495996068924e-06,4.027318235571718e-06,1.733615503839454e-05,2.358934128611563e-06,2.488594927772517e-06
141.6162941359053,110.3431250216485,12.5,0,-2.800101677904979,0.7510902574189322,2.018740278102225,-9.561197575231077e-06,4.643570166064565e-06,1.61499222248178e-05,2.485637469715604e-06,2.555615199298483e-06
143.2767847757547,109.7790437113747,12.5,0,-2.765969705035332,0.6465242417584546,2.074343045619513,-9.368322449519826e-06,4.28165333765532e-06,1.65947443649561e-05,2.434070034947123e-06,2.611596542797832e-06
142.4958285394538,111.5021987508158,12.5,0,-2.540890912759293,0.7175875431072394,2.099322443896727,-8.704920955315528e-06,4.3289928681506e-06,1.679457955117382e-05,2.603832422895335e-06,2.667937497535152e-06
144.1381055667112,110.9386513789962,12.5,0,-2.506149757646568,0.6190724519719047,2.153813920862706,-8.514937186046541e-06,3.985951652427349e-06,1.723051136690165e-05,2.561143093693029e-06,2.724425220037486e-06
143.6972948782545,113.0855229097848,12.5,0,-2.340367288746779,0.8468096711560564,2.00657178734388,-8.166623060914537e-06,4.582084778696803e-06,1.605257429875104e-05,2.727955283450109e-06,2.852802386992725e-06
145.3146916480154,112.5227049114578,12.5,0,-2.304394711455272,0.7475780955554778,2.061374960824183,-7.972125553101252e-06,4.235765674941746e-06,1.649099968659346e-05,2.676927042631992e-06,2.909677283794801e-06
145.3403357907156,110.5261060703698,12.5,0,-2.699219128214166,0.8454611452121324,2.088847981147188,-9.313870126455036e-06,4.864850967250156e-06,1.67107838491775e-05,2.704159347477721e-06,2.765181100224182e-06
146.982612817973,109.9625586985502,12.5,0,-2.663752176325543,0.7477034979366219,2.144043826793897,-9.122169762591034e-06,4.523652934457624e-06,1.715235061435118e-05,2.657141459832448e-06,2.820040513103824e-06
146.4987082594278,112.1106935412856,12.5,0,-2.497783828720025,0.9716690551402144,1.997669535179727,-8.77024349601625e-06,5.107568039424706e-06,1.598135628143782e-05,2.830836573004514e-06,2.950380670064345e-06
148.1161050291887,111.5478755429586,12.5,0,-2.461064134078282,0.8731874081996305,2.053194394088617,-8.573955155610205e-06,4.763051013501442e-06,1.642555515270894e-05,2.775461132472202e-06,3.004709492595492e-06
143.3339758208531,107.781520061756,12.5,0,-3.158505293682659,0.744028179686802,2.100509551456993,-1.070243948353395e-05,4.907694409943893e-06,1.680407641165594e-05,2.500110085196223e-06,2.528692490928566e-06
145.019346718199,107.2167093779896,12.5,0,-3.124430764441125,0.6422097233140192,2.156771810731008,-1.051194622486281e-05,4.554615726157761e-06,1.725417448584806e-05,2.453555658570312e-06,2.58325600610026e-06
144.4923482895653,109.3661075326717,12.5,0,-2.958480649591985,0.8705038281546038,2.009423697339062,-1.016354114121803e-05,5.15239676976832e-06,1.607538957871249e-05,2.585009202552808e-06,2.652190093170516e-06
146.1528389294147,108.8020262223979,12.5,0,-2.923202751257044,0.7679278747358232,2.066021444370656,-9.968591103811199e-06,4.795931400160269e-06,1.652817155496525e-05,2.531204263027727e-06,2.70711239175366e-06
200.2476349820063,89.80384172863384,12.5,0,-6.422420019894133,2.484594835639502,0.4765705429783746,-2.253941993217282e-05,1.308863948996171e-05,3.812564343826997e-06,3.805107070947626e-06,3.796906422962588e-06
202.065523092351,89.70880981177278,12.5,0,-6.439338661611465,2.357843289927736,0.5870183174713864,-2.249215834909888e-05,1.269656945705793e-05,4.696146539771092e-06,3.666070063128366e-06,3.829419862357513e-06
200.9142891417404,91.92349718252288,12.5,0,-6.066145530175179,2.617717647333429,0.3799076793407105,-2.150583981442732e-05,1.322961289560711e-05,3.039261434725684e-06,3.943739912402277e-06,3.927660370546232e-06
202.7435649910095,91.80667464263841,12.5,0,-6.079392366549605,2.493526914775298,0.4883142535650234,-2.144887710477897e-05,1.284280002052064e-05,3.906514028520188e-06,3.791821538409392e-06,3.963186959001753e-06
201.4023138577222,93.47519266924417,12.5,0,-5.793734331825404,2.688817240429953,0.4214521529831471,-2.069100365418525e-05,1.323920263483617e-05,3.371617223865177e-06,4.041999149183183e-06,4.048302276706159e-06
203.2399261104668,93.34241828617866,12.5,0,-5.805246853504813,2.560990765123373,0.5310203910087588,-2.06255825433141e-05,1.283936793119864e-05,4.24816312807007e-06,3.877481686844349e-06,4.085842331849883e-06
202.0689680174564,95.59484812313323,12.5,0,-5.440424994241336,2.82160373252755,0.3246366946795421,-1.966664296759431e-05,1.338147193948123e-05,2.597093557436337e-06,4.23835588502579e-06,4.247148146287403e-06
203.9179680091252,95.44028311704429,12.5,0,-5.448408584791862,2.696302201408513,0.4322051069533385,-1.959194923246076e-05,1.298689391234073e-05,3.457640855626708e-06,4.057359640880629e-06,4.287175945662287e-06
204.5851516440297,93.24522069183521,12.5,0,-5.831012932081645,2.747642391837067,0.2659055339794775,-2.085735529613092e-05,1.345726599954393e-05,2.12724427183582e-06,4.110053077693322e-06,4.111480569393775e-06
206.4227638967743,93.11244630876969,12.5,0,-5.847272157984577,2.600518195662458,0.3753806301803376,-2.079168546208061e-05,1.299947595250752e-05,3.003045041442701e-06,3.91030194803798e-06,4.143985481839459e-06
205.2715299461636,95.3271336795198,12.5,0,-5.48050410997996,2.887661798215289,0.1607324785570278,-1.98477425905081e-05,1.362492104227289e-05,1.285859828456222e-06,4.327104925198661e-06,4.314357967444752e-06
207.1205299378324,95.17256867343085,12.5,0,-5.493154972926515,2.743367201896785,0.2680923842704724,-1.977278967488227e-05,1.317329902441092e-05,2.144739074163779e-06,4.107339086162762e-06,4.348592832635165e-06
203.3963095515422,89.63924162029279,12.5,0,-6.448177464391796,2.546459673093319,0.3269668966211756,-2.26713356245284e-05,1.330721292541206e-05,2.615735172969405e-06,3.868310778254845e-06,3.851923645096199e-06
205.2141976618871,89.54420970343173,12.5,0,-6.468547160522473,2.40617189895077,0.4366370209516341,-2.262428843283253e-05,1.287458780506044e-05,3.493096167613073e-06,3.705418335462326e-06,3.880891683508468e-06
204.0826878536762,91.72115460797738,12.5,0,-6.098093570579372,2.68401287641723,0.2246318633553426,-2.166110972698777e-05,1.346731606099863e-05,1.797054906842741e-06,4.021795321606595e-06,3.987571666171903e-06
205.9119637029452,91.6043320680929,12.5,0,-6.114755110535261,2.546510583956272,0.3321764484701974,-2.160442482087785e-05,1.304063795708828e-05,2.657411587761579e-06,3.844049962860125e-06,4.018665336635752e-06
257.6799519578849,126.9574928051812,12.5,0,1.313505764731193,3.746843943753512,-3.419940041128546,1.205743292137007e-06,1.093909600822628e-05,-2.735952032902837e-05,2.048620076922527e-05,1.992905427181616e-05
259.9233444414544,127.4757051556533,12.5,0,1.187244715908822,3.607121811896001,-3.251795032562218,9.134856413914297e-07,1.059299402534014e-05,-2.601436026049774e-05,1.944191264624808e-05,2.010053826274805e-05
257.4962984712953,128.9604146838346,12.5,0,1.689628377896446,3.831974218267738,-3.445752485593074,2.341231434654437e-06,1.09106147961396e-05,-2.756601988474459e-05,2.199013696202837e-05,2.150999208993442e-05
259.7283845249731,129.4763547378946,12.5,0,1.562666880587614,3.691532175114577,-3.276753898298092,2.047308277788702e-06,1.056276945589655e-05,-2.621403118638474e-05,2.093682301097856e-05,2.166892327116116e-05
257.9980491276395,123.4883303478245,12.5,0,0.6418311880880982,3.586197729977957,-3.331081420432814,-8.150983821004516e-07,1.096236778545898e-05,-2.664865136346251e-05,1.780448926381397e-05,1.731059558330259e-05
260.2610249222333,124.0104784311323,12.5,0,0.5198074170260447,3.457783815870517,-3.166160240981322,-1.10284331821307e-06,1.064906227716482e-05,-2.532928192785057e-05,1.682669974184293e-05,1.749833136419761e-05
257.8143956410499,125.4912522264779,12.5,0,1.009527538497065,3.67013491793269,-3.353207020861493,2.943801888444578e-07,1.093680970658695e-05,-2.682565616689194e-05,1.921796726029411e-05,1.88038293692011e-05
260.0660650057521,126.0111280133736,12.5,0,0.8868320027830302,3.541064153865282,-3.187456416642255,5.011085813471207e-09,1.062193969014248e-05,-2.549965133313804e-05,1.82280056422907e-05,1.898303152935217e-05
254.0784600751748,122.5839433384768,12.5,0,0.3524586983044096,3.784727291890673,-3.139822315011668,-1.899913998938427e-06,1.182916037540662e-05,-2.511857852009335e-05,1.743930656695079e-05,1.693679140785161e-05
256.3414358697686,123.1060914217846,12.5,0,0.2336878150547156,3.663358070854073,-2.978062283693486,-2.182885448508169e-06,1.153579557468926e-05,-2.382449826954789e-05,1.650624958373665e-05,1.716013140548655e-05
253.9143898996095,124.590800949966,12.5,0,0.7150832880985953,3.868702318808136,-3.161338927456039,-8.06695333131004e-07,1.180778078970716e-05,-2.529071141964831e-05,1.882335866455002e-05,1.843959487047507e-05
256.1660592643117,125.1106767368616,12.5,0,0.5956575784872937,3.746711336585159,-2.998765167041043,-1.091264818108787e-06,1.151295021428267e-05,-2.399012133632835e-05,1.787755189185836e-05,1.865821595532205e-05
253.7942821950942,126.0599226850699,12.5,0,1.020607277238633,3.96345010320602,-3.230681670905684,9.518320459880826e-08,1.186655450846836e-05,-2.584545336724547e-05,2.015059984014466e-05,1.957465570904155e-05
256.0376746786637,126.5781350355421,12.5,0,0.8975953496571549,3.830519796757748,-3.06577521869059,-1.921107185033023e-07,1.153958706989907e-05,-2.452620174952472e-05,1.914849080762356e-05,1.978814446624127e-05
253.630212019529,128.0667802965591,12.5,0,1.391403459495595,4.048637417828539,-3.256004879571557,1.213581136123073e-06,1.184251696945485e-05,-2.604803903657246e-05,2.162706825971629e-05,2.11728961271953e-05
255.8622980732068,128.582720350619,12.5,0,1.267708185107133,3.915021296927764,-3.090261045784136,9.246491548006128e-07,1.151390160208314e-05,-2.472208836627309e-05,2.061552506649005e-05,2.137708201728899e-05
261.6769548906293,109.7701840835869,12.5,0,-1.8967106673225,2.880488660076934,-3.063835756859153,-8.373865063493544e-06,1.073493224610419e-05,-2.451068605487322e-05,9.087988746795133e-06,8.965051512785812e-06
263.8910960631482,110.1024144426279,12.5,0,-2.008679636232188,2.674387698524075,-2.892015415277601,-8.567284994762261e-06,1.016498434426279e-05,-2.313612332222081e-05,8.100133564811162e-06,9.038284215308105e-06
261.8716089674135,111.948587947855,12.5,0,-1.460688063444838,3.005486384228952,-3.149891272934992,-7.078590910406641e-06,1.078610688028852e-05,-2.519913018347994e-05,1.03744476318988e-05,9.964366848641164e-06
264.0783932881439,112.3150656059562,12.5,0,-1.580273962660857,2.796381634484292,-2.975861879032124,-7.293981988102174e-06,1.021264040047842e-05,-2.380689503225699e-05,9.289819510914576e-06,1.005537429030028e-05
262.0141056415139,113.5432902558358,12.5,0,-1.173420460927533,3.006296960350893,-3.179728441510715,-6.15998304324882e-06,1.055888664186488e-05,-2.543782753208572e-05,1.101160363779031e-05,1.076803316219588e-05
264.2155043729516,113.9348386768701,12.5,0,-1.301844277528967,2.78411957605618,-3.002305931419611,-6.393197348937639e-06,9.950658065402949e-06,-2.401844745135689e-05,9.830324340365016e-06,1.087225823353462e-05
262.2087597182981,115.7216941201039,12.5,0,-0.7270439704477161,3.135059050586409,-3.271384241096897,-4.834587945901818e-06,1.061382413823468e-05,-2.617107392877517e-05,1.254847310783385e-05,1.196437502739694e-05
264.4028015979473,116.1474898401985,12.5,0,-0.8633953435487777,2.909715042246216,-3.091616068036905,-5.09063713315306e-06,1.000180441002691e-05,-2.473292854429524e-05,1.128010403170034e-05,1.208693659544075e-05
265.8270400920131,114.2214720146784,12.5,0,-0.9446709792303488,2.826042956678314,-3.323960154287114,-5.283781498879766e-06,9.799074244754881e-06,-2.659168123429691e-05,1.116465257735563e-05,1.094242470765636e-05
268.0284388234508,114.6130204357127,12.5,0,-1.07334077303301,2.605834010751173,-3.145022169377023,-5.51935768230657e-06,9.197341452830163e-06,-2.516017735501618e-05,9.97619419917131e-06,1.102989800861435e-05
266.0089517277162,116.4591939409399,12.5,0,-0.4822867013941429,2.957502424119319,-3.415982163402088,-3.909319383756712e-06,9.849837118297133e-06,-2.73278573072167e-05,1.277525131933561e-05,1.217018622562777e-05
268.2029936073653,116.8849896610344,12.5,0,-0.6189214813400895,2.734180381380311,-3.234750435600234,-4.167893045392535e-06,9.244514405489066e-06,-2.587800348480187e-05,1.150114514213802e-05,1.227506687697591e-05
265.5119598964932,110.3456239452524,12.5,0,-1.68868846194877,2.71470284504391,-3.210853389870019,-7.575565354271191e-06,1.003799987369953e-05,-2.568682711896015e-05,9.198010754658529e-06,9.086297952216309e-06
267.7261010690121,110.6778543042933,12.5,0,-1.800615463814614,2.510829066641309,-3.037793668023397,-7.770632737519811e-06,9.475145384303879e-06,-2.430234934418718e-05,8.201979925400262e-06,9.144241218394049e-06
265.6938715321962,112.5833458715138,12.5,0,-1.237722320811415,2.842195003144273,-3.297060998917105,-6.234467429111945e-06,1.00852018667108e-05,-2.637648799133684e-05,1.055000112405903e-05,1.011609933527367e-05
267.9006558529266,112.949823529615,12.5,0,-1.35729374385644,2.635370474187786,-3.121844642517521,-6.451636359690836e-06,9.519020512486066e-06,-2.497475714014017e-05,9.457845148316541e-06,1.019099580178081e-05
182.342504157727,147.8415094299043,12.5,0,4.168743794693729,4.015972533642155,1.407400991489493,1.012720211610621e-05,9.516117071899912e-06,1.125920793191594e-05,2.991034659855897e-05,2.980555136233094e-05
183.951006763423,146.8676599355461,12.5,0,4.25379510345021,3.899186741137971,1.449450000684992,1.04927949381303e-05,9.074361488881338e-06,1.159560000547994e-05,2.981212503925145e-05,2.963045761718901e-05
183.484473679561,149.4338362229887,12.5,0,4.39762099513678,4.172715131638804,1.297475654276272,1.073421507912665e-05,9.834591625134748e-06,1.037980523421018e-05,3.126891994539735e-05,3.159096226018076e-05
185.0778114215,148.4769705698682,12.5,0,4.482900417152295,4.053993158125353,1.340406095836995,1.110208680838706e-05,9.386457772279293e-06,1.072324876669596e-05,3.116377320653039e-05,3.143054373998942e-05
179.5564959206048,149.5282662330277,12.5,0,4.480628958066712,3.764464771427385,1.459650112883714,1.132644084867157e-05,8.461784102114264e-06,1.167720090306971e-05,3.015743124380528e-05,3.003752897865698e-05
181.1649985263007,148.5544167386695,12.5,0,4.574778356053102,3.666395096362757,1.508600448441004,1.170617466227972e-05,8.07264162351834e-06,1.206880358752803e-05,3.016762401688916e-05,2.991462580489473e-05
180.724731756955,151.0911761501811,12.5,0,4.710847877375818,3.911714283551501,1.353824680014014,1.194534178076142e-05,8.748807405464147e-06,1.083059744011212e-05,3.148826711813246e-05,3.179274938258319e-05
182.3180694988941,150.1343104970607,12.5,0,4.805331522615925,3.811954792362816,1.403730524952339,1.232749703848071e-05,8.353990117468272e-06,1.122984419961871e-05,3.149270195476364e-05,3.168801496960474e-05
181.5799397443498,152.235305617142,12.5,0,5.058707610448187,4.043973592532463,1.381576223561893,1.295268547940823e-05,8.89374940774533e-06,1.105260978849515e-05,3.323620929871263e-05,3.310798556265272e-05
183.1621760355295,151.2908729987147,12.5,0,5.157002761142919,3.944680035280645,1.434507461616948,1.334666480743282e-05,8.497373903983726e-06,1.147605969293558e-05,3.325821728191571e-05,3.30176953734933e-05
182.7481755807001,153.7982155342954,12.5,0,5.304261859799969,4.198271133035903,1.269972474812907,1.361502104493118e-05,9.191058137874913e-06,1.015977979850326e-05,3.465424129550604e-05,3.494605722678205e-05
184.3152470081228,152.8707667571059,12.5,0,5.402894998571484,4.097211829970867,1.323948897893597,1.401149453145206e-05,8.788761857049586e-06,1.059159118314877e-05,3.467020611459974e-05,3.487706063018999e-05
184.3204533902031,150.5995003377301,12.5,0,4.749959531206562,4.315534368254913,1.327589231116654,1.174744300525707e-05,1.000974235345047e-05,1.062071384893323e-05,3.306674516643594e-05,3.293066550929705e-05
185.9026896813826,149.6550677193028,12.5,0,4.839760491762473,4.203619262364478,1.3744362749367,1.212433816374833e-05,9.579773246156352e-06,1.09954901994936e-05,3.300496435369064e-05,3.278318568768635e-05
185.462422912037,152.1918271308144,12.5,0,4.991387855407195,4.474399245434448,1.214781973701868,1.239292174095547e-05,1.032496730106447e-05,9.718255789614944e-06,3.448575431317145e-05,3.480539195525361e-05
187.0294943394597,151.2643783536249,12.5,0,5.081435571270555,4.360559011113121,1.262597796757302,1.277214661917528e-05,9.888640378545544e-06,1.010078237405842e-05,3.441719258142165e-05,3.467858609060003e-05
222.8250123371071,162.3946250123382,12.5,0,8.202062601019119,8.724588401547479,-1.894253341035357,1.926692960202319e-05,2.135703280413664e-05,-1.515402672828286e-05,6.159893651975453e-05,6.06790943355071e-05
224.8261246280412,162.4205216954711,12.5,0,8.106454172195054,8.370868313497736,-1.670667473741869,1.924395870022598e-05,2.030161526543671e-05,-1.336533978993495e-05,5.992763802534836e-05,6.087949076591454e-05
223.3277177199975,164.4430293350419,12.5,0,8.825372609988612,8.962683949067982,-2.083686606315505,2.107104519270917e-05,2.162029054902665e-05,-1.666949285052404e-05,6.474944334719904e-05,6.383478441457943e-05
225.3443373256801,164.4701328624155,12.5,0,8.730182710298648,8.611523074932284,-1.861699383508573,2.104736621300984e-05,2.057272767154439e-05,-1.489359506806859e-05,6.309012720365616e-05,6.400550098278807e-05
223.695723601496,165.9425653736411,12.5,0,9.301125437870873,9.14227702566861,-2.095792920195953,2.24497797806519e-05,2.181438613184285e-05,-1.676634336156762e-05,6.712147851467238e-05,6.623795188530515e-05
225.723695349463,165.9705523723156,12.5,0,9.194303846741292,8.749394684267777,-1.844475842621943,2.242225656215791e-05,2.064261991226385e-05,-1.475580674097554e-05,6.526692248393323e-05,6.638292319658438e-05
224.1984289843864,167.9909696963449,12.5,0,9.991956377387037,9.405120590522099,-2.304070783703995,2.445016393522084e-05,2.210282078776108e-05,-1.843256626963196e-05,7.061693538328841e-05,6.964783743563144e-05
226.2419080471018,168.02016353926,12.5,0,9.885599047400422,9.015044825355229,-2.054529635335566,2.442188109139716e-05,2.093966420321639e-05,-1.643623708268453e-05,6.877551057805651e-05,6.975215125912138e-05
227.2082737052259,165.9910402772958,12.5,0,9.416645846667272,9.033526468914616,-2.507462073133338,2.290644553420358e-05,2.137396802319295e-05,-2.005969658506671e-05,6.724038851279184e-05,6.639466109591675e-05
229.2362454531929,166.0190272759702,12.5,0,9.283860985606971,8.53743964876905,-2.250911276215533,2.287840343492706e-05,1.989271808757538e-05,-1.800729020972426e-05,6.491327982313688e-05,6.628175832198905e-05
227.7378385451491,168.0415349155411,12.5,0,10.12871679323868,9.331575086271638,-2.759230558935786,2.494663366934646e-05,2.175806684147829e-05,-2.207384447148629e-05,7.095589336468311e-05,6.971805330477563e-05
229.7813176078645,168.0707287584561,12.5,0,9.996579255135478,8.839045443343178,-2.504472287102508,2.491781726175898e-05,2.028768201458979e-05,-2.003577829682007e-05,6.864592492259585e-05,6.952058213757499e-05
226.2910404965932,162.4394793832711,12.5,0,8.308587980342288,8.648764284307335,-2.296111909975528,1.966847010964945e-05,2.102917532550964e-05,-1.836889527980423e-05,6.179772158736133e-05,6.095181405973097e-05
228.2921527875274,162.465376066404,12.5,0,8.192936366946149,8.215380830038017,-2.068203540159907,1.964509171019726e-05,1.973486956256473e-05,-1.654562832127925e-05,5.97590799649821e-05,6.094900854260913e-05
226.8206053365165,164.4899740215164,12.5,0,8.949597641052094,8.91529680669584,-2.520055963555834,2.150647500601002e-05,2.136927166858501e-05,-2.016044770844667e-05,6.512871047374736e-05,6.404575436962212e-05
228.8372249421991,164.5170775488899,12.5,0,8.834507040121867,8.485058589680298,-2.293760700102437,2.148237565664573e-05,2.008458185487946e-05,-1.83500856008195e-05,6.310531205476823e-05,6.39850120994255e-05
224.6566557622164,169.5138799435135,12.5,0,10.52161641857333,9.596370597947272,-2.289632988370783,2.599207606107683e-05,2.229109277857261e-05,-1.831706390696626e-05,7.322586283707314e-05,7.233429940559173e-05
226.6788858445063,169.5433051407043,12.5,0,10.37176993491317,9.037517088588412,-2.008041500271385,2.59596501208514e-05,2.062263873555239e-05,-1.606433200217108e-05,7.061823745110478e-05,7.238373043592946e-05
225.4058492177996,171.6261437916183,12.5,0,11.38053095962295,10.01162115546549,-2.622902351351086,2.840840214642104e-05,2.29327629297912e-05,-2.098321881080869e-05,7.791347393418962e-05,7.626396445011058e-05
227.354518691207,171.6549942162046,12.5,0,11.22480499934279,9.43152237082092,-2.330575578580497,2.837415810124017e-05,2.120102758715271e-05,-1.864460462864398e-05,7.520650941103793e-05,7.620411038887808e-05
225.9542968919613,173.1724282473563,12.5,0,11.97207689185858,10.05308165846592,-2.508993187924885,3.026818072717472e-05,2.259219979360407e-05,-2.007194550339908e-05,8.019540586019765e-05,7.934333130712871e-05
227.8491162622332,173.2008579091933,12.5,0,11.77952486611797,9.328353624562023,-2.201810748775422,3.023179667192789e-05,2.042711170570409e-05,-1.761448599020337e-05,7.684362606105834e-05,7.916621399491094e-05
226.7034903475445,175.2846920954612,12.5,0,12.98413666910705,10.58451774326658,-2.947720188613414,3.308162314652929e-05,2.348314744316741e-05,-2.358176150890731e-05,8.588702024932409e-05,8.382665297148472e-05
228.5247491089338,175.3125469846937,12.5,0,12.78352373474836,9.830308383951719,-2.627985924235021,3.304302924403337e-05,2.123016784084681e-05,-2.102388739388017e-05,8.239802472805288e-05,8.34384515912711e-05
229.2362203123789,173.2216698660991,12.5,0,12.03545394589626,9.620966692838348,-2.871826986291615,3.081667927259734e-05,2.11587302603657e-05,-2.297461589033292e-05,7.89667032918967e-05,7.891007198626389e-05
231.1310396826508,173.2500995279361,12.5,0,11.88421659125342,9.06067244520181,-2.571067312609384,3.078095513584948e-05,1.948677855164306e-05,-2.056853850087507e-05,7.635177761972071e-05,7.838739631687542e-05
229.858003055944,175.3329381788501,12.5,0,13.00339154638534,10.04138909163012,-3.215825985995952,3.357774167512899e-05,2.172973185610811e-05,-2.572660788796761e-05,8.408964830538111e-05,8.303931621005338e-05
231.6792618173333,175.3607930680826,12.5,0,12.84578044086681,9.458310376299337,-2.902804894489106,3.353984910973431e-05,1.998996885146443e-05,-2.322243915591285e-05,8.136882375893025e-05,8.233705944963549e-05
228.1592610092738,169.5648458800698,12.5,0,10.63452388436953,9.400359829108679,-2.710501457797574,2.651018856669556e-05,2.157353234565214e-05,-2.168401166238059e-05,7.302796010454115e-05,7.230053795632624e-05
230.1814910915637,169.5942710772607,12.5,0,10.48211440923997,8.831871263875176,-2.424617940508058,2.647726909846775e-05,1.987629651700859e-05,-1.939694352406446e-05,7.037115884142247e-05,7.202382084489517e-05
228.781043752839,171.6761141928208,12.5,0,11.49697039835034,9.785260067483655,-3.030692745431199,2.896209722073417e-05,2.211525589726742e-05,-2.424554196344959e-05,7.762539754616098e-05,7.603262502557036e-05
230.7297132262463,171.7049646174071,12.5,0,11.33858614651339,9.195178273750084,-2.733919374917683,2.892733304984279e-05,2.035370155878955e-05,-2.187135499934147e-05,7.486863736105407e-05,7.562397236147178e-05
240.3115619711998,194.4749849656818,12.5,0.2720247937428394,16.89201139855566,8.85441172285096,-2.365821199400309,6.452267425232153e-05,2.035853455844639e-05,-2.599892061229978e-05,0.0001293464396612402,0.0001356796057616018
241.4475354817777,193.6652383231765,12.5,0.2143195092367506,18.05765179524755,9.119059081259081,-2.701606894550216,6.426179480508308e-05,1.875427453915373e-05,-2.750845338593799e-05,0.0001266319647951838,0.0001261310277810285
241.3374992522589,195.7814908768273,12.5,0.2835333828726279,16.6110411488424,9.033108345253479,-2.463125987577415,6.410465456749639e-05,2.179740606527217e-05,-2.750303702861315e-05,0.000130845768476641,0.0001377597104739414
242.279491678343,194.9204279367179,12.5,0.2285766780861932,17.69528069674963,9.290224788093258,-2.829465888340635,6.376877260734493e-05,2.018670465635556e-05,-2.934280888808056e-05,0.0001280122588652376,0.000128362841287682
242.2791258075378,193.0724626396296,12.5,0.1702558954767166,16.84576492265625,8.656439658941444,-2.398524248683692,5.662142794294299e-05,1.714262854408564e-05,-2.312543576370911e-05,0.0001124556429561811,0.0001196992750961642
243.4150993181156,192.2627159971244,12.5,0.1081676227911912,17.98626939892998,8.8416103865693,-2.703802337545754,5.660567507687682e-05,1.559052807815066e-05,-2.425390606255329e-05,0.0001101887606946351,0.0001116759779592239
242.9690779945522,194.2900861160701,12.5,0.1869248318230053,16.56431848612273,8.73430092017318,-2.516656176909296,5.659793856776184e-05,1.80774284235137e-05,-2.47618549960336e-05,0.0001138231566230229,0.0001220536389555183
243.9110704206363,193.4290231759609,12.5,0.1287477103100308,17.62544897308556,8.885966189113454,-2.86095651329493,5.657679680833158e-05,1.645302146843775e-05,-2.626983294873623e-05,0.0001114503953223788,0.0001142134468143417
241.0840935648568,190.9634769139838,12.5,0.1363551497753931,16.66463658057012,8.855427962444551,-2.426533237678894,5.354341506910222e-05,1.737480425138176e-05,-2.247713964412875e-05,0.0001080594103987336,0.0001151808840378058
242.5560521694793,190.2426127061836,12.5,0.06967898636414249,17.86925049574242,8.923639812970199,-2.671681545971184,5.379077651962734e-05,1.532830796670834e-05,-2.297427667922739e-05,0.0001054564587497321,0.000107221164643602
241.7740457518713,192.1811003904243,12.5,0.1567531217992562,16.4546030312475,8.943179841863467,-2.571198265137343,5.39583211070832e-05,1.832736470005168e-05,-2.439331428654508e-05,0.0001101340114616213,0.0001178577259662435
243.052023272,191.4089198850201,12.5,0.09236112037511768,17.64530131391376,8.998032877658302,-2.854978947821072,5.427988929116692e-05,1.61710394815189e-05,-2.516400750925086e-05,0.0001074885941953174,0.000109802401598382
238.5345864750583,192.2120503472294,12.5,0.2442727065316936,16.78831398336057,9.139517562317298,-2.332923263253795,6.141235217786451e-05,2.092792618371957e-05,-2.469592704582274e-05,0.0001253833762612101,0.0001309131406828089
240.0065450796807,191.4911861394291,12.5,0.1832672605593517,17.9910691883536,9.200747113437169,-2.632694953326633,6.147766740239826e-05,1.842651174069863e-05,-2.578757849359313e-05,0.0001218425515371218,0.0001215291298844112
239.5605237561174,193.5185562583749,12.5,0.2615776981266598,16.53950115924484,9.364072109189001,-2.491753712116846,6.153002950610455e-05,2.266105693118567e-05,-2.699543289302496e-05,0.0001281570160439402,0.0001338450729152017
240.8385012762461,192.7463757529705,12.5,0.2022395405683226,17.7203923589611,9.441584995689013,-2.832558481667813,6.161246395583464e-05,2.010222230174269e-05,-2.840510279173997e-05,0.0001245605829005469,0.0001242999403292717
245.2804367807562,226.9601883061163,12.5,0.7951566181535237,15.8159899538235,6.081150131348922,-3.973786293354074,0.0002233230448296417,3.322972114549105e-05,-0.0001551931532289309,0.0003956449307978802,0.0004347456031462568
246.2881621707461,226.37653743355,12.5,0.7653064850643665,17.63378633145247,7.207356021818659,-4.846781500076488,0.0002158654935867635,3.816258070494247e-05,-0.0001652122855258529,0.0003917297717766634,0.0003859182471037265
246.9729876826146,228.5335243666019,12.5,0.774273622288249,16.20674621485951,5.967782735215016,-3.773002940809997,0.0002086037182571026,2.71634526853139e-05,-0.0001337195228686321,0.0003635824161009196,0.0003993833891646905
247.8342601123484,227.6061233469085,12.5,0.7368392864030674,18.178685499012,7.040586707388625,-4.55945971744047,0.0001996472935219306,3.035000534565768e-05,-0.0001386060907077162,0.0003546170463816849,0.0003486417064825065
248.212020937119,229.6852863002086,12.5,0.7495465120782039,16.5590798102346,4.471789274019332,-3.991617531694533,0.0001972886238620242,4.242152255455644e-06,-0.0001275004813010522,0.000313439667593221,0.0003643447273190196
248.9660823590308,228.5062427077197,12.5,0.707446477079396,17.65473964381492,5.698747810310477,-4.563609777128658,0.0001775270661363879,1.405623571676352e-05,-0.0001247938423456873,0.0002969397733033891,0.0003170613718605555
249.9045718389775,231.2586223606941,12.5,0.6934711134097256,17.73151307149717,3.196889506897254,-3.428650886408422,0.0001767641895874497,-1.290307115626999e-05,-8.94832699011854e-05,0.0002565380341737213,0.0003039795369049181
250.5121803006331,229.7358286210782,12.5,0.6480447440484529,18.15343740384701,3.813729533060854,-3.598275844131416,0.0001563835605098592,-6.58838127310735e-06,-8.178939301595276e-05,0.0002337672370266007,0.0002680588337709109
250.2721550537862,226.4640793012271,12.5,0.6215687386262354,17.01024069312021,5.565587902308621,-4.012356007401121,0.0001320723338624338,1.11029113124498e-05,-8.482081512686118e-05,0.0002215022307212491,0.0002507993164893778
251.5645890273104,227.098272494663,12.5,0.5572520963864609,18.23591732939239,4.341423876112738,-3.434789898133516,0.000123957213360563,-1.572401482358729e-06,-6.206312658016129e-05,0.0001903102988203406,0.0002168981951520679
249.5180936318744,227.643122893716,12.5,0.6729670828685743,16.09530318852851,4.427726459863197,-3.543067119744701,0.0001466604323996099,3.952146872787145e-06,-8.667181642319725e-05,0.0002338131973730273,0.0002866369707254398
250.9569805656548,228.6210662342789,12.5,0.6113597913450742,17.68303616898388,3.70959017072676,-3.26503081399907,0.0001379631916875964,-5.85564833020688e-06,-6.720932608181253e-05,0.0002060036780659325,0.0002447254585731422
247.0258683562645,225.9492753409677,12.5,0.7401318462682254,15.84628853324123,5.494898956832664,-3.661871204316897,0.0001782142347026769,1.888128947241446e-05,-0.0001127301256958644,0.0003043776987086772,0.000352578231750052
248.0335937462544,225.3656244684014,12.5,0.7003914737497241,17.49220762489347,6.995332931300506,-4.674768548578731,0.0001681487462494146,2.80075449963571e-05,-0.0001248233782151766,0.0003025067354499406,0.0003103189719173449
248.4647552900449,226.9272186815307,12.5,0.7058769499919679,16.67213810488979,5.136752775683822,-3.352097778560452,0.0001674178195614235,1.053946094395439e-05,-9.117538468253777e-05,0.0002751658774665045,0.0003155360341987504
249.3260277197786,225.9998176618374,12.5,0.6588816615975488,18.26663998987323,6.246982355849032,-4.072007765055391,0.0001567070897837458,1.576295068743709e-05,-9.549783301890358e-05,0.0002663129456927811,0.0002758313381791429
279.2439404383977,201.6388600934955,12.5,0,15.46296167291164,0.7274011235243605,-1.639206088661384,4.889955645449775e-05,-1.004268574305136e-05,-1.311364870929107e-05,6.178331298568513e-05,6.224228351734067e-05
281.385761754358,202.2287899765248,12.5,0,15.32250407807763,0.5471649664198037,-1.48467450265165,4.859428107671258e-05,-1.050707536991873e-05,-1.18773960212132e-05,6.066589871639563e-05,6.108154209014721e-05
278.8448038172419,203.6293437455086,12.5,0,15.80057403081502,0.7846410876352197,-1.667459049826047,4.993412402849989e-05,-1.012960774421931e-05,-1.333967239860838e-05,6.325847757801233e-05,6.279228454813027e-05
280.9965968469534,204.2454869422103,12.5,0,15.65734057188684,0.6049696910723439,-1.513640237663257,4.961951407718001e-05,-1.058996944607797e-05,-1.210912190130605e-05,6.213179782816655e-05,6.160225519863574e-05
279.9352653453884,198.1912412766357,12.5,0,15.09587992939094,0.79796812246245,-1.925349345858725,4.766844127608106e-05,-9.523205951632915e-06,-1.54027947668698e-05,6.064716793822255e-05,6.109065472819303e-05
282.0598151464935,198.7357683685502,12.5,0,14.95637441790292,0.6239029049623732,-1.76127336470728,4.736127581331945e-05,-9.968610238442741e-06,-1.409018691765824e-05,5.954518934490927e-05,5.998106667206492e-05
279.5361287242326,200.1817249286487,12.5,0,15.46481824696961,0.8639369233013481,-1.949474698929366,4.879626885166168e-05,-9.607256443011376e-06,-1.559579759143493e-05,6.226824067367287e-05,6.178633318128595e-05
281.6706502390888,200.7524653342357,12.5,0,15.32215048614782,0.690304778480181,-1.786229496443536,4.847863773288887e-05,-1.004874509778167e-05,-1.428983597154829e-05,6.115534280578757e-05,6.064714593368747e-05
276.2554371467302,197.248092687359,12.5,0,15.32462892121633,1.196742413342159,-2.160356598414174,4.808141861721853e-05,-8.430127414278156e-06,-1.72828527873134e-05,6.280751531740604e-05,6.320286390284054e-05
278.3799869478352,197.7926197792735,12.5,0,15.16518036801717,0.9717285831362972,-1.980322543473814,4.775119431114591e-05,-9.022612828377585e-06,-1.584258034779051e-05,6.146074996182288e-05,6.195393269432933e-05
275.8390290107192,199.1931735482573,12.5,0,15.70988799899364,1.256602829887651,-2.196759846617908,4.926635933286952e-05,-8.546781343554428e-06,-1.757407877294326e-05,6.447531751803446e-05,6.396948231324785e-05
277.9735505255754,199.7639139538443,12.5,0,15.54716658150272,1.032447555360488,-2.017542814101601,4.892497501652032e-05,-9.133901088048614e-06,-1.614034251281281e-05,6.311860349840533e-05,6.267655053114599e-05
275.534197098487,200.6170715632041,12.5,0,15.71632434787202,1.136507603440199,-1.884248746944955,4.938303183043831e-05,-8.93623514728898e-06,-1.507398997555964e-05,6.406340707539631e-05,6.447916176994084e-05
277.6760184144473,201.2070014462333,12.5,0,15.55339762649217,0.8994478814737046,-1.712075261949925,4.905131409959598e-05,-9.564484880477883e-06,-1.36966020955994e-05,6.26733431781303e-05,6.315267296670113e-05
275.117788962476,202.5621524241023,12.5,0,16.07231063752811,1.187163082131319,-1.926486908469891,5.04816635743849e-05,-9.058926647202269e-06,-1.541189526775913e-05,6.559187528775169e-05,6.510501353085211e-05
277.2695819921875,203.1782956208041,12.5,0,15.90650029032233,0.9511361510065326,-1.755002574309946,5.013989200822622e-05,-9.681564549036958e-06,-1.404002059447957e-05,6.419363823532439e-05,6.373084581449983e-05
242.0110604652133,122.9092948989197,12.5,0,0.09447125970697856,4.423097820429277,-2.519712058352962,-3.23617022528109e-06,1.40783360176081e-05,-2.01576964668237e-05,1.837573505085415e-05,1.769718942425713e-05
244.3408369259843,123.6518456308302,12.5,0,-0.04085854295260516,4.34876079174271,-2.368031040307072,-3.609755970842504e-06,1.394872136793875e-05,-1.894424832245658e-05,1.758953223896881e-05,1.821279232055962e-05
241.8695585745428,125.1496690605118,12.5,0,0.4569283491036152,4.511334682165295,-2.526168702103484,-2.146897028600667e-06,1.407072830364605e-05,-2.020934961682787e-05,1.97786437973919e-05,1.948924471638003e-05
244.1442901259565,125.7376322934963,12.5,0,0.3413666430696308,4.440573438902974,-2.370380430713644,-2.46008549329956e-06,1.393674169003381e-05,-1.896304344570915e-05,1.905296108057313e-05,1.988870369041218e-05
242.2561489292173,119.0288530231475,12.5,0,-0.5612797631183397,4.192383409187536,-2.434676249123672,-5.150001969328715e-06,1.386465071989479e-05,-1.947740999298938e-05,1.562597301745225e-05,1.482789930900517e-05
244.6812659696915,120.039157157408,12.5,0,-0.7183594214665951,4.127885785160673,-2.2951336558832,-5.601058776821642e-06,1.378392204968743e-05,-1.83610692470656e-05,1.485253104098556e-05,1.549751734308536e-05
242.1146470385468,121.2692271847395,12.5,0,-0.2389371105273674,4.271544257817336,-2.436056105417108,-4.181834159941444e-06,1.386009131343737e-05,-1.948844884333686e-05,1.680070806181372e-05,1.644818568674739e-05
244.4847191696636,122.124943820074,12.5,0,-0.3803446370248531,4.210159082259552,-2.292636016867195,-4.585230104287171e-06,1.377678477285045e-05,-1.834108813493756e-05,1.606268309931047e-05,1.703617748501544e-05
238.0557230008904,117.2789549315431,12.5,0,-1.007342477031741,4.185670989522028,-2.129486466176497,-6.572032718119193e-06,1.420002114809588e-05,-1.703589172941198e-05,1.416662690939175e-05,1.361253165423811e-05
240.4808400413646,118.2892590658035,12.5,0,-1.1698262299304,4.129943499545961,-1.98433653601882,-7.047398735414046e-06,1.415168018249139e-05,-1.587469228815056e-05,1.343980564735818e-05,1.432281891595004e-05
238.0095616899229,119.7870824954851,12.5,0,-0.6254881015554952,4.280855400473529,-2.132918132715755,-5.426246245356407e-06,1.419912776275969e-05,-1.706334506172604e-05,1.551571408048072e-05,1.538740020624369e-05
240.3796338210399,120.6427991308195,12.5,0,-0.7706139311908005,4.229064447206707,-1.984241167196036,-5.849216137575927e-06,1.41494973760141e-05,-1.587392933756829e-05,1.482197293069239e-05,1.600639714641546e-05
237.9757692649522,121.6231593040766,12.5,0,-0.2432074723090356,4.502729692145193,-2.225588561282217,-4.380447665105068e-06,1.460330099271184e-05,-1.780470849025773e-05,1.745899544891201e-05,1.676375549782712e-05
240.3055457257234,122.365710035987,12.5,0,-0.3811891589627288,4.414348104257769,-2.073279918192716,-4.751283792086946e-06,1.443086526079504e-05,-1.658623934554172e-05,1.663105600073044e-05,1.730892117781509e-05
237.9296079539849,124.1312868680185,12.5,0,0.1613635972792793,4.602837203036303,-2.24529424484556,-3.165906251135348e-06,1.459998817189274e-05,-1.796235395876448e-05,1.90184390627286e-05,1.874915953185364e-05
240.2043395053987,124.719250101003,12.5,0,0.04354333928460163,4.517989542368943,-2.090062567439459,-3.475052948184428e-06,1.442273186415293e-05,-1.672050053951567e-05,1.824782484695266e-05,1.918390477936417e-05
286.0551828144435,171.2502612704806,12.5,0,10.53134531172243,1.276360036025938,-3.517303619355135,3.267921696869104e-05,-4.340724134094948e-06,-2.813842895484108e-05,4.530147283268631e-05,4.562349373971329e-05
288.4672560015649,171.5929107640609,12.5,0,10.38804934214954,1.008917305190105,-3.288916711995647,3.243462405072643e-05,-5.081904097111291e-06,-2.631133369596517e-05,4.382118613349288e-05,4.484371896210761e-05
286.4072737060158,173.3268690397082,12.5,0,11.04017867034291,1.437761095218969,-3.629742846888604,3.417836286892214e-05,-4.231307431573628e-06,-2.903794277510884e-05,4.777414449769054e-05,4.668666108271347e-05
288.8122249127376,173.6832526076653,12.5,0,10.89261895921781,1.168077579864276,-3.399626540136409,3.392191860560555e-05,-4.976246911808559e-06,-2.719701232109127e-05,4.626875805317906e-05,4.588759879962077e-05
281.8773495028497,170.6567749384225,12.5,0,10.5908725519488,1.643575180791064,-3.676628301280534,3.257593202160331e-05,-3.213257463027634e-06,-2.941302641024427e-05,4.675474448870259e-05,4.702480989484104e-05
284.2894226899711,170.9994244320028,12.5,0,10.43257837229584,1.331923049901745,-3.43483165183325,3.231871235142528e-05,-4.083908938151085e-06,-2.7478653214666e-05,4.506362679655567e-05,4.620791529373986e-05
282.2417760263244,172.7095945930349,12.5,0,11.12152734143478,1.8178176719207,-3.804902399409042,3.413463335505472e-05,-3.080205323001579e-06,-3.043921919527234e-05,4.935988746076769e-05,4.813193483356604e-05
284.6467272330462,173.065978160992,12.5,0,10.95869412400134,1.503622770149734,-3.561183702299048,3.386492298068449e-05,-3.955362434721922e-06,-2.848946961839238e-05,4.764142145747254e-05,4.728802911053445e-05
282.5085547571221,174.2123628789233,12.5,0,11.24631414345971,1.465801092046477,-3.497677722108506,3.481556438543389e-05,-4.306487820219043e-06,-2.798142177686804e-05,4.857679758500523e-05,4.891483849999157e-05
284.9082923123411,174.5788004871187,12.5,0,11.08767111579336,1.169232920577842,-3.260632886997928,3.454516123407647e-05,-5.128591546785591e-06,-2.608506309598343e-05,4.694602686386699e-05,4.805201040095909e-05
282.8729812805966,176.2651825335357,12.5,0,11.76761882770492,1.635592617068675,-3.620604871238243,3.63479061550008e-05,-4.180198687544177e-06,-2.896483896990595e-05,5.113065614220972e-05,4.994664615546403e-05
285.2655968554162,176.645354216108,12.5,0,11.60447241220226,1.336558183793026,-3.381683344674954,3.606506517201281e-05,-5.006591741624124e-06,-2.705346675739963e-05,4.947265399263323e-05,4.90591322857254e-05
286.665022127518,174.8470514341104,12.5,0,11.16100602766226,1.109850630394569,-3.325127327658711,3.482733878420357e-05,-5.377282804867184e-06,-2.660101862126969e-05,4.70667533785086e-05,4.74389113810327e-05
289.0647596827371,175.2134890423058,12.5,0,11.0183392628733,0.8583043128392798,-3.102954738861481,3.457204219092314e-05,-6.068097609212945e-06,-2.482363791089185e-05,4.565222429816673e-05,4.662672180748441e-05
287.0171130190903,176.923659203338,12.5,0,11.6573109673227,1.265962443650425,-3.431717484631307,3.629062514051229e-05,-5.274768954176799e-06,-2.745373987705045e-05,4.947366327613686e-05,4.843093007313692e-05
289.4097285939098,177.3038308859103,12.5,0,11.51044473420131,1.012262386513247,-3.207871183903851,3.602361324023359e-05,-5.969116150518657e-06,-2.566296947123081e-05,4.803437304027359e-05,4.760216358058367e-05
286.8834675334369,203.6430721293441,12.5,0,14.93590514224482,0.1681762933691422,-1.221613555710911,4.766035542048811e-05,-1.14105599750146e-05,-9.772908445687288e-06,5.798798721304852e-05,5.849402060785976e-05
289.1301660764647,204.2142395744208,12.5,0,14.83826303221808,0.08350050753629201,-1.095161690164406,4.741564129706881e-05,-1.160340880165833e-05,-8.761293521315251e-06,5.734031482744149e-05,5.758587868331717e-05
286.499317360285,205.6896391570721,12.5,0,15.22641651653606,0.2304649028636816,-1.223003589140119,4.854016093062442e-05,-1.144364552406506e-05,-9.784028713120951e-06,5.929242053548786e-05,5.899269892034491e-05
288.7466664200543,206.2704703708966,12.5,0,15.12759619417642,0.1456028663940918,-1.096677268687656,4.829182552824928e-05,-1.163614778288004e-05,-8.77341814950125e-06,5.863954567505487e-05,5.808730181712393e-05
287.5488351510605,200.0983140562877,12.5,0,14.60612969699763,0.2285898386697265,-1.511378346828496,4.655674315945661e-05,-1.095341627385497e-05,-1.209102677462797e-05,5.694993051713575e-05,5.74558332457071e-05
289.7944069660407,200.652743362901,12.5,0,14.50051118570703,0.138160449827998,-1.370569230025768,4.629110743440009e-05,-1.115829550911603e-05,-1.096455384020614e-05,5.624763047040107e-05,5.655521044820124e-05
287.1646849779086,202.1448810840157,12.5,0,14.93115297754788,0.2988558580023373,-1.511713264098439,4.754060484175133e-05,-1.098858363643082e-05,-1.209370611278751e-05,5.841019224720678e-05,5.808221869147826e-05
289.4109073096303,202.7089741593767,12.5,0,14.8242101245749,0.2082106748779924,-1.371049552678432,4.727090385873729e-05,-1.119309394005035e-05,-1.096839642142746e-05,5.770215810750656e-05,5.717535603829643e-05
283.6593906755401,199.1380143280457,12.5,0,14.85541963690552,0.4808709650538625,-1.709342644533535,4.715264606605456e-05,-1.034554862135205e-05,-1.367474115626828e-05,5.871006392161744e-05,5.919677499252092e-05
285.9049624905202,199.6924436346589,12.5,0,14.73375697682244,0.3495495636965176,-1.555460363150359,4.686838267487458e-05,-1.066844697762909e-05,-1.244368290520288e-05,5.781521164481057e-05,5.816363833209022e-05
283.2741137743406,201.1678432173101,12.5,0,15.19887759037582,0.5493638067479352,-1.72117528566293,4.819691724380426e-05,-1.040113789070726e-05,-1.376940228530344e-05,6.023822006234472e-05,5.984640406778638e-05
285.5203361060623,201.7319362926712,12.5,0,15.07581526215008,0.4178758197780899,-1.567402134918417,4.790830818305778e-05,-1.072344958643018e-05,-1.253921707934733e-05,5.933731248701077e-05,5.879792385390257e-05
282.9920715076918,202.6537810948597,12.5,0,15.20180551829655,0.4101171976354441,-1.416743738457364,4.83176839004406e-05,-1.084906938220382e-05,-1.133394990765891e-05,5.977299284591347e-05,6.026990229579144e-05
285.2387700507196,203.2249485399364,12.5,0,15.08683882519583,0.2822559711176877,-1.276069218122776,4.80520794637325e-05,-1.116625195258006e-05,-1.020855374498221e-05,5.892159764283048e-05,5.921320256726592e-05
282.6067946064923,204.6836099841242,12.5,0,15.51296602996223,0.4708518467073133,-1.430214951594466,4.926480981851328e-05,-1.090364691450638e-05,-1.144171961275572e-05,6.115429095860721e-05,6.077729189640039e-05
284.8541436662616,205.2644411979487,12.5,0,15.39673857102225,0.3428551491649672,-1.289628230689117,4.899527930793922e-05,-1.12202543794899e-05,-1.031702584551293e-05,6.029733396305966e-05,5.971347958971233e-05
218.0379876575922,184.4349027579239,12.5,0.08138429213734311,16.22541515398688,10.89245854652412,-2.391032025820595,4.703529591941041e-05,2.381358715995122e-05,-2.082291435128022e-05,0.0001075546742674467,0.0001085378826977336
219.6097191485404,183.2514668680467,12.5,0.05567904842074745,16.97080895203052,10.41013675172933,-2.457619007965621,4.868946216667251e-05,2.089945204636616e-05,-2.08202010458887e-05,0.0001057719686144611,0.0001056877079605227
219.3107657123265,185.9223449385586,12.5,0.1465853560664293,15.75482062847546,10.85411222746377,-2.655441192462858,4.890018764711854e-05,2.593030572232155e-05,-2.48923892866273e-05,0.0001136271789443087,0.0001165080154796193
220.8669540093202,184.5920837620534,12.5,0.1135481877976967,16.67320482029215,10.61819348458382,-2.787842144771138,5.060591001085357e-05,2.328344870000014e-05,-2.515955955096998e-05,0.0001123176580370783,0.0001123284298604537
215.3156688594628,186.4846738466549,12.5,0.1095436490017236,16.27559304024118,11.03711071798672,-2.494248758919479,4.857308177530885e-05,2.504140695988783e-05,-2.240872340231583e-05,0.0001117556873143824,0.0001118421131458238
216.887400350411,185.3012379567777,12.5,0.09564925670319446,17.00321315458695,10.58771215867983,-2.421864597725652,5.079899884889788e-05,2.24228359786405e-05,-2.142411771695357e-05,0.0001112611528398887,0.0001101869505969776
216.615368515838,188.2264248835605,12.5,0.1850987328932432,15.83509559211192,10.83586763176783,-2.776558979680535,5.154441830539105e-05,2.700535738041072e-05,-2.725786881680516e-05,0.0001193097135871653,0.0001217912044997925
218.1715568128315,186.8961637070554,12.5,0.1654959217786285,16.69328192906005,10.590109780541,-2.774734879387978,5.386002959309238e-05,2.460590222428619e-05,-2.660008454651952e-05,0.0001192777141582348,0.0001190435583023089
217.5668146988439,189.5014751366571,12.5,0.237465538121212,16.46784611328546,10.98692500971629,-2.531926912938099,5.758109272406884e-05,2.88300191525748e-05,-2.65632785351078e-05,0.0001312128435964514,0.0001297947579806274
219.1116245881513,188.063730390509,12.5,0.2137147595901011,17.47786074458417,10.66795548070581,-2.618511952815499,6.027684046745844e-05,2.56334061823215e-05,-2.664185278564243e-05,0.0001306080919553327,0.0001260380765211138
218.866514355219,191.2432261735628,12.5,0.3044672446035704,15.85406902649106,10.76328661066122,-2.788754414787122,6.056133412758411e-05,3.128430942194956e-05,-3.207618209954905e-05,0.0001395221951444422,0.000141711781378324
220.3957810505719,189.6586561407867,12.5,0.2754430983349001,17.00528657453072,10.66849278081958,-2.939790864978,6.332438861378754e-05,2.834138711784655e-05,-3.24589095290883e-05,0.0001393960980850624,0.0001362908479648361
220.2425039151112,187.011228188058,12.5,0.1916555689653114,16.40728807835774,10.71789760364912,-2.440315730222542,5.434441319969994e-05,2.619111489627181e-05,-2.415124678571896e-05,0.000122309844044785,0.0001227388025007903
221.7873138044187,185.5734834419098,12.5,0.1539439017335851,17.40327052434666,10.51303100941823,-2.663215011769202,5.588286753946035e-05,2.330706303171361e-05,-2.518239646024589e-05,0.0001204222399642204,0.000117481699708305
221.5152819698456,188.4986703686928,12.5,0.2495378435990497,15.72657725335218,10.57761283437782,-2.616476312012928,5.578290202398768e-05,2.833866982623022e-05,-2.789189343868815e-05,0.0001277680710357316,0.0001317914964326084
223.0445486651985,186.9141003359167,12.5,0.2063696831882199,16.87090218786672,10.59251748281513,-2.888004789421827,5.734769961631314e-05,2.570382426501103e-05,-2.911183938661714e-05,0.0001262880134789922,0.0001249199728584149
227.4456928487466,109.4281952673922,12.5,0,-2.834980204336321,3.89749345332068,-1.202720014748537,-1.218993141653277e-05,1.473996321409523e-05,-9.621760117988295e-06,8.721679593770254e-06,8.812464834506935e-06
229.3705123541204,109.1113542706201,12.5,0,-2.847466844805611,3.634840839612709,-1.09058875179387,-1.201976657506812e-05,1.390946416260515e-05,-8.724710014350963e-06,7.824496583617598e-06,8.725130880070491e-06
228.1755625876692,111.6269102682255,12.5,0,-2.423827888756108,4.096651254350322,-1.366826776088008,-1.10335702474998e-05,1.504834632492591e-05,-1.093461420870407e-05,1.015284020735763e-05,9.942910490806014e-06
230.2574414528441,111.3842533457533,12.5,0,-2.451582610144783,3.841706491510311,-1.254908052201206,-1.091842954567155e-05,1.425472686094882e-05,-1.003926441760965e-05,9.188668907424185e-06,9.879219311306177e-06
228.7098643194449,113.2364813601308,12.5,0,-2.113035916282601,4.147278506011784,-1.368054782449584,-1.007953773691375e-05,1.496171995226379e-05,-1.094443825959667e-05,1.09224840874435e-05,1.086149445323828e-05
230.9067186157936,113.0481309491564,12.5,0,-2.157887016844461,3.839445803228532,-1.228432889427526,-9.976795096485098e-06,1.401253618380687e-05,-9.827463115420212e-06,9.693746023585901e-06,1.081969721198758e-05
229.4397340583675,115.4351963609641,12.5,0,-1.694957615351401,4.348497071310045,-1.533409541077904,-8.90266202617252e-06,1.527115672047327e-05,-1.226727632862323e-05,1.263716586880382e-05,1.22406668534288e-05
231.7936477145173,115.3210300242896,12.5,0,-1.75218018509407,4.049999578681746,-1.395404824709083,-8.846976255246419e-06,1.436174279985684e-05,-1.116323859767267e-05,1.13596694006072e-05,1.223504218891843e-05
232.5149275774784,112.9102488787025,12.5,0,-2.110801970204127,4.095721718734446,-1.585495039693224,-1.003114367964076e-05,1.479495107611353e-05,-1.268396031754579e-05,1.089676909931092e-05,1.07756742687195e-05
234.7117818738271,112.721898467728,12.5,0,-2.166795661390074,3.743352576579771,-1.447344538712083,-9.928428177712054e-06,1.371216477416733e-05,-1.157875630969666e-05,9.500599469454126e-06,1.069719859225797e-05
233.516832107376,115.2374544653335,12.5,0,-1.654795633803058,4.361320133283267,-1.793438709002761,-8.784402134796399e-06,1.52800609335489e-05,-1.434750967202209e-05,1.295564990555377e-05,1.221519865554651e-05
235.8707457635259,115.1232881286589,12.5,0,-1.723149142817351,4.017846839794215,-1.655320512469901,-8.728354728850896e-06,1.423562920159537e-05,-1.324256409975921e-05,1.149163841697246e-05,1.216660977868076e-05
230.7795780273937,108.879410563072,12.5,0,-2.866999719150486,3.828770322182347,-1.392237116967265,-1.223741535902743e-05,1.45456648063039e-05,-1.113789693573812e-05,8.580424608708368e-06,8.655501207690169e-06
232.7043975327675,108.5625695662999,12.5,0,-2.895331558922174,3.511585656102353,-1.288811239093227,-1.207432951343284e-05,1.355333934666527e-05,-1.031048991274582e-05,7.513372090524403e-06,8.552603359461113e-06
231.7814825572912,111.206616149703,12.5,0,-2.433240542463552,4.095494913662709,-1.60251505381583,-1.106276566681353e-05,1.505217615769151e-05,-1.282012043052664e-05,1.029339870205948e-05,9.821856212296951e-06
233.8633614224661,110.9639592272308,12.5,0,-2.475826771164472,3.786074522396349,-1.497124667468829,-1.095150528564339e-05,1.40960998885999e-05,-1.197699733975063e-05,9.132050028915723e-06,9.728828490817313e-06
227.0544562722943,120.3383368499478,12.5,0,-0.8465462478802015,4.658490283477181,-1.357169590685361,-6.43574021999839e-06,1.558440590543114e-05,-1.085735672548289e-05,1.58017311960976e-05,1.552899096577736e-05
228.7151269359449,120.4846231690542,12.5,0,-0.904550085835881,4.520049169937054,-1.246575209915311,-6.510599610624462e-06,1.518779741246728e-05,-9.972601679322486e-06,1.507305465297043e-05,1.572052274387173e-05
227.4203241195355,122.1498105618163,12.5,0,-0.4707351937477233,4.784888475466047,-1.449235217802043,-5.334263400365552e-06,1.568823127648953e-05,-1.159388174241634e-05,1.736667316613964e-05,1.694784695917929e-05
228.9871732825761,122.4585960933153,12.5,0,-0.568580650426981,4.623979497195031,-1.321531845813195,-5.518641679122364e-06,1.525159891136569e-05,-1.057225476650556e-05,1.642227984708959e-05,1.726418660458291e-05
226.4207545720283,117.2007723444726,12.5,0,-1.462488460095223,4.415622321875825,-1.263995912416471,-8.212460929805373e-06,1.529998219807881e-05,-1.011196729933176e-05,1.326847227964633e-05,1.325742494405135e-05
228.2439288415748,117.06560177153,12.5,0,-1.470618149035718,4.301241386905264,-1.156912411962797,-8.146971186438507e-06,1.494046695732542e-05,-9.255299295702376e-06,1.277530606738035e-05,1.32621357073201e-05
226.7866224192694,119.0122460563411,12.5,0,-1.114877320519576,4.528774574575148,-1.341779927872149,-7.190627085322759e-06,1.538398049505613e-05,-1.073423942297719e-05,1.459903970141479e-05,1.454014536712457e-05
228.5159751882059,119.0395746957911,12.5,0,-1.152494312517139,4.397269893805309,-1.221008679514173,-7.205797715099092e-06,1.49932591101907e-05,-9.768069436113386e-06,1.395242581225987e-05,1.464817643791528e-05
223.2629241061784,117.4348946444932,12.5,0,-1.458420203321921,4.475753587198233,-1.042807250894874,-8.247547520388732e-06,1.548914764169188e-05,-8.342458007158996e-06,1.339228089510219e-05,1.324094875878945e-05
225.0860983757248,117.2997240715506,12.5,0,-1.485896038061,4.282456095067618,-0.935854355355705,-8.180832197849294e-06,1.489257633466518e-05,-7.48683484284564e-06,1.256834193855018e-05,1.325174791830266e-05
223.7912955593153,118.9649114643127,12.5,0,-1.140412552364871,4.619816542629704,-1.156540481457591,-7.34517340167135e-06,1.569574297830695e-05,-9.252323851660724e-06,1.478020184251271e-05,1.435076330855994e-05
225.5206483282518,118.9922401037628,12.5,0,-1.200986803356723,4.397292492664304,-1.030106606259365,-7.360991764872955e-06,1.503212541921115e-05,-8.24085285007492e-06,1.373941702636857e-05,1.446045375929787e-05
224.1780903082641,120.084961512808,12.5,0,-0.9435816128163246,4.606458106716413,-1.136877639166281,-6.704627646385368e-06,1.549553123174558e-05,-9.095021113330248e-06,1.524126007614049e-05,1.51931124220722e-05
225.8387609719147,120.2312478319143,12.5,0,-0.9986261196563453,4.479587758193995,-1.026967494941895,-6.779273789455501e-06,1.513358172194586e-05,-8.215739959535162e-06,1.457210772515855e-05,1.538767179597573e-05
224.7064617614011,121.6149783326276,12.5,0,-0.6117834566200437,4.733658573018053,-1.229573163801954,-5.744633919598581e-06,1.56371341989538e-05,-9.836585310415633e-06,1.66712570527229e-05,1.638463844822564e-05
226.2733109244417,121.9237638641266,12.5,0,-0.7092152018311235,4.580901083885825,-1.099207670915306,-5.934209512968255e-06,1.522625562989954e-05,-8.793661367322448e-06,1.576763121626189e-05,1.671217274098641e-05
246.6820744455829,192.3513159006257,12.5,0,17.07673473087675,8.057452503971241,-2.754013811797945,4.819958913562859e-05,1.212246022800657e-05,-2.203211049438356e-05,9.217811312020192e-05,9.998235432798069e-05
248.0410241106247,192.5348114968296,12.5,0,16.90409288737991,7.601399374873498,-2.55803420620403,4.801197773971692e-05,1.080120368969126e-05,-2.046427364963224e-05,8.993197406891383e-05,9.636512691775378e-05
246.7915881827701,193.7502820112927,12.5,0.03434374341160829,17.07634094378029,7.967405354160862,-2.881500894099419,4.998711125976099e-05,1.225552498370546e-05,-2.387185605179712e-05,9.516184875446881e-05,0.0001034333942935897
248.0001832711486,194.0536216813324,12.5,0,17.42759762996548,7.719645120710179,-2.740604269366794,4.959259631932139e-05,1.076078628230019e-05,-2.192483415493435e-05,9.233664846626798e-05,9.994350711275354e-05
246.4923910886514,189.9282355189269,12.5,0,16.64553085488699,7.776440221332615,-2.930137872994394,4.704454655857226e-05,1.156818402435478e-05,-2.344110298395515e-05,8.963509959825173e-05,9.48326284734481e-05
248.1117625196197,189.9041550902648,12.5,0,16.54400312539786,7.357845538714196,-2.848525360262696,4.705453357030181e-05,1.030990322356713e-05,-2.278820288210157e-05,8.780620403370532e-05,9.120546045951021e-05
246.6019048258385,191.327201629594,12.5,0,16.88661036182679,7.868685348601108,-3.100349761247113,4.774220487896485e-05,1.167050482606211e-05,-2.48027980899769e-05,9.089143680799172e-05,9.767778607225626e-05
248.0709216801436,191.4229652747677,12.5,0,16.75438921802146,7.400378683546181,-2.996073656889463,4.769374255083171e-05,1.027770041293061e-05,-2.39685892551157e-05,8.877284015419e-05,9.402377437366462e-05
243.6875574939393,189.969944044837,12.5,0.02608067552685267,16.70176503597089,8.531373570581437,-2.693097875449533,4.786900525242336e-05,1.431225672067276e-05,-2.212173273720712e-05,9.48663975014535e-05,0.0001025859482598203
245.3069289249075,189.9458636161749,12.5,0,16.98704522562747,8.079825185485628,-2.553158685836716,4.78946845736194e-05,1.226580441305203e-05,-2.042526948669372e-05,9.188068864178629e-05,9.788202098891851e-05
244.0574929970529,191.1613341306381,12.5,0.0511168661436221,16.81716122002888,8.620334425531805,-2.903640259947135,4.944618224267915e-05,1.48926044540882e-05,-2.448048790283696e-05,9.819127672201632e-05,0.0001051974357967721
245.526509851358,191.2570977758118,12.5,0.006903955632784786,17.36403224706456,8.235218343277797,-2.774369102488852,4.931721236206468e-05,1.254810445728595e-05,-2.234925105763872e-05,9.4521163940521e-05,0.0001006717596269835
244.3283045808441,192.0334922050412,12.5,0.06920474884587458,16.78655033574098,8.416800721968102,-2.606450368891863,5.047675139998849e-05,1.450858502442982e-05,-2.240192236185163e-05,9.916050349291886e-05,0.0001071684916523784
245.6872542458859,192.2169878012451,12.5,0.02893499683401257,17.28046059141478,8.198511964162993,-2.433963488413514,5.019093898172937e-05,1.278067871020609e-05,-2.005190985549269e-05,9.61493685843228e-05,0.0001028771071840721
244.6982400839578,193.2248822908423,12.5,0.09355768302795253,17.12945981785791,8.566891354346357,-2.849049156853345,5.291098775472023e-05,1.512560062886473e-05,-2.514489099644454e-05,0.0001038616837431899,0.0001099420288577279
245.9068351723363,193.528221960882,12.5,0.0595977108865462,17.41130266297472,8.192590384968994,-2.598432458354623,5.22777292044775e-05,1.306594767342024e-05,-2.2104858641331e-05,9.98154421970042e-05,0.0001061124901205773
207.8666746555152,173.6208756874925,12.5,0,11.47604922580568,8.319425198845195,-0.5049587662993109,3.006781736350202e-05,1.744132125566008e-05,-4.039670130394487e-06,7.193569662117448e-05,7.2184020881521e-05
209.4642332179316,174.4845745792614,12.5,0,11.59440409689574,8.93458821376662,-0.6053740775676401,2.995442253905307e-05,1.931515900653659e-05,-4.84299262054112e-06,7.45650233062441e-05,7.486334263143637e-05
206.9579222996338,174.9576796967601,12.5,0,11.60363526706892,8.63978221761538,-0.3223096571146756,3.021980708052823e-05,1.836439488271408e-05,-2.578477256917405e-06,7.353782127567233e-05,7.350226980070695e-05
208.6431123540162,175.5570915597369,12.5,0,11.75594666054625,9.357218831343999,-0.3885502782309514,3.013325424867279e-05,2.05383429318638e-05,-3.108402225847611e-06,7.665801430758331e-05,7.594182020699066e-05
205.099622057393,172.1249053245347,12.5,0,10.89305480002428,7.814131207109192,-0.2227963556215005,2.860647039439035e-05,1.629077602272998e-05,-1.782370844972004e-06,6.797931954939197e-05,6.779745162735386e-05
206.6971806198094,172.9886042163036,12.5,0,10.96913426362356,8.301709037542693,-0.29022715890704,2.845986241356124e-05,1.779016150923776e-05,-2.32181727125632e-06,6.99943283102136e-05,7.029072109322968e-05
204.0390875050863,173.9194678954435,12.5,0,11.05864400075877,8.134718839489535,-0.01362822669165732,2.887988573083643e-05,1.718418508575949e-05,-1.090258135332586e-07,6.972662487140285e-05,6.945349495369748e-05
205.7242775594687,174.5188797584202,12.5,0,11.16375809446739,8.69174864731567,-0.05074589380619381,2.877062698444311e-05,1.888258919583623e-05,-4.059671504495505e-07,7.209739737788988e-05,7.176372828891069e-05
203.2627223296486,175.2331788746544,12.5,0,11.53966666697392,7.604662655544962,-0.410284196356096,3.084320320988058e-05,1.510318716416474e-05,-3.282273570848768e-06,6.963923154051638e-05,7.05831018249081e-05
205.0120630884903,175.639119204782,12.5,0,11.64433777260808,8.265187526254056,-0.3649484435607072,3.06497308513426e-05,1.713312986592651e-05,-2.919587548485657e-06,7.235973884313845e-05,7.278409637982608e-05
202.2021877773418,177.0277414455632,12.5,0,11.88515730994051,8.033786094661018,-0.1219825799967853,3.160547451608081e-05,1.619998965496285e-05,-9.758606399742822e-07,7.242736271624443e-05,7.201320186342198e-05
204.0391600281495,177.1693947468987,12.5,0,12.05252912610276,8.794322330343002,-0.02607754731367962,3.153263533925443e-05,1.84998081562154e-05,-2.08620378509437e-07,7.573930270476139e-05,7.409878665106644e-05
206.292669403659,175.9362881512642,12.5,0,11.97059414430857,8.114871996381273,-0.6538762256444052,3.18140036646824e-05,1.639111507297322e-05,-5.231009805155241e-06,7.304905709947775e-05,7.442081316215635e-05
208.0420101625007,176.3422284813919,12.5,0,12.08175175281455,8.803251670485698,-0.61015290514812,3.1619004272618e-05,1.850500394330259e-05,-4.881223241184961e-06,7.589510754692932e-05,7.669141201435547e-05
205.3839170477776,177.2730921605318,12.5,0,12.23183323511402,8.473569743824385,-0.4345914574881322,3.236301055730534e-05,1.732995659214681e-05,-3.476731659905058e-06,7.527372859196922e-05,7.561207137551194e-05
207.2208892985853,177.4147454618675,12.5,0,12.41188448130424,9.288134122482093,-0.3359621611966523,3.228752304218789e-05,1.97925216068993e-05,-2.687697289573219e-06,7.882538888996708e-05,7.766085734154625e-05
166.380521296368,118.6932811523989,12.5,0,-1.303632068884672,2.055520422628927,1.852489747143039,-5.816038958534092e-06,7.620571007520304e-06,1.481991797714431e-05,6.12107196823273e-06,6.318603235513305e-06
167.8752619021973,117.817323400208,12.5,0,-1.259591973918382,1.94871898820206,1.873158295346124,-5.589669507100469e-06,7.243574341381297e-06,1.498526636276899e-05,5.915872066714629e-06,6.229318172834688e-06
167.5109888241987,120.1924823506387,12.5,0,-1.14933876130064,2.184003848803616,1.76794554055705,-5.425087115204939e-06,7.90828332521208e-06,1.41435643244564e-05,6.684618314043384e-06,7.076192445973297e-06
168.9815290926612,119.321817639933,12.5,0,-1.104066964344524,2.076318547887518,1.788535437379984,-5.194069124212489e-06,7.527472924715676e-06,1.430828349903988e-05,6.466966300150379e-06,6.96404411087805e-06
163.7915546229819,120.2104844844501,12.5,0,-1.035023675328285,1.921651401172852,1.901322081694486,-4.849396881988795e-06,6.977303424015755e-06,1.521057665355589e-05,6.282163315755889e-06,6.478286013848764e-06
165.2862952288112,119.3345267322592,12.5,0,-0.9915682177177964,1.814427174390496,1.921598878012049,-4.624560036209344e-06,6.599421532223822e-06,1.537279102409639e-05,6.078044094003694e-06,6.385313967452271e-06
164.9639383646913,121.7005178659112,12.5,0,-0.8814667009971688,2.053497404751262,1.815856148493241,-4.46349136699195e-06,7.276365056001774e-06,1.452684918794593e-05,6.880149422288318e-06,7.269698965746872e-06
166.4344786331539,120.8298531552055,12.5,0,-0.8367991869302739,1.945404051959211,1.836045854157982,-4.234080639744245e-06,6.894732315813694e-06,1.468836683326386e-05,6.663726681307788e-06,7.158092417495501e-06
165.8221828295538,122.791298006068,12.5,0,-0.5765641748662463,2.092315860884016,1.866836313121988,-3.5188580482792e-06,7.156662094721846e-06,1.49346905049759e-05,7.750951578472891e-06,7.904674126694922e-06
167.2750072215044,121.9245080706558,12.5,0,-0.5321865808903693,1.988455533734828,1.886562884223016,-3.293761485837044e-06,6.788806972663744e-06,1.509250307378413e-05,7.544877340390987e-06,7.779495683901593e-06
166.9945665712632,124.2813313875291,12.5,0,-0.4214254754676738,2.224721846351428,1.780832975111047,-3.128338998577698e-06,7.456250288698707e-06,1.424666380088837e-05,8.467782345096091e-06,8.848045576124867e-06
168.4231906258471,123.4198344936021,12.5,0,-0.3757882415482908,2.120019906549788,1.800460690415872,-2.898538298194361e-06,7.084694294197955e-06,1.440368552332698e-05,8.254103346808856e-06,8.704422529741244e-06
168.3385484908424,121.2899737984717,12.5,0,-0.8463974346614848,2.228566071873597,1.818566721486361,-4.491324648415628e-06,7.808529377724698e-06,1.454853377189089e-05,7.516253777053486e-06,7.686579425212817e-06
169.7913728827929,120.4231838630596,12.5,0,-0.8022055939204713,2.123546279044212,1.838097470576769,-4.265894923780878e-06,7.437112568077855e-06,1.470477976461415e-05,7.300501534390518e-06,7.557905928408403e-06
169.469016018673,122.7891749967115,12.5,0,-0.6909129685211719,2.35859147852319,1.73311950437797,-4.097794682086302e-06,8.100223106091145e-06,1.386495603502376e-05,8.202888442993796e-06,8.59659845438458e-06
170.8976400732569,121.9276781027846,12.5,0,-0.6454531936844122,2.252697838980673,1.752550378353399,-3.867608490974657e-06,7.724995639685683e-06,1.402040302682719e-05,7.978869199665152e-06,8.445640648602137e-06
129.1664024581693,81.28701312167267,12.5,0,-7.436871993948201,0.1947978127047878,1.989306160759958,-2.395382863079807e-05,6.572850595813881e-06,1.591444928607966e-05,2.355890761570821e-06,2.391244497446306e-06
131.5020085090039,81.36519807804549,12.5,0,-7.459815548981902,0.1586404864876456,2.155856918351926,-2.39983221459322e-05,6.475501995945987e-06,1.724685534681541e-05,2.411220522081974e-06,2.421972586312083e-06
129.4103365097868,83.30733717917816,12.5,0,-7.079299371199611,0.2871488749707385,1.963352617016181,-2.288347708781534e-05,6.582315896866051e-06,1.570682093612945e-05,2.339684235116339e-06,2.342523464784227e-06
131.811255682994,83.30884440142421,12.5,0,-7.087386769390028,0.2558045992634483,2.123501259695006,-2.288428134145884e-05,6.488484133155057e-06,1.698801007756005e-05,2.394859909870565e-06,2.379083514499631e-06
133.2117908046074,81.42243343849555,12.5,0,-7.435472247525107,0.2653247131504317,1.999958088957992,-2.400577096260068e-05,6.797416880101467e-06,1.599966471166393e-05,2.405973709685969e-06,2.445549436557348e-06
135.5473968554419,81.50061839486837,12.5,0,-7.454540982687297,0.2412731567922428,2.156222345984853,-2.404754967003314e-05,6.735706887885015e-06,1.724977876787882e-05,2.464003092186194e-06,2.479234500446817e-06
133.5688505025732,83.30994776468657,12.5,0,-7.123386802979487,0.3460763412029624,1.972097699566137,-2.307169884249673e-05,6.806153734233069e-06,1.577678159652909e-05,2.39094557149978e-06,2.406219116728819e-06
135.9697696757804,83.3114549869326,12.5,0,-7.128570769096927,0.3262800165646331,2.121765687843772,-2.307245047436187e-05,6.746952668284367e-06,1.697412550275018e-05,2.448215892362016e-06,2.443794911000686e-06
132.5933452664065,78.1531627255773,12.5,0,-7.948443537013368,0.2578112007460649,1.982922800483751,-2.564126827903963e-05,7.183750671998102e-06,1.586338240387001e-05,2.490052415570837e-06,2.51935031820794e-06
134.8158256708928,78.36415741326459,12.5,0,-7.998262465921256,0.2051657106533407,2.138899744346541,-2.575857245947069e-05,7.055140246827694e-06,1.711119795477233e-05,2.53070253193221e-06,2.545206002499142e-06
132.9504049643724,80.04067705176831,12.5,0,-7.624492751978818,0.3447495493613668,1.947472089670253,-2.467417644582131e-05,7.202792759539427e-06,1.557977671736203e-05,2.471086227561391e-06,2.475862850631497e-06
135.2381984912312,80.17499400532883,12.5,0,-7.657871534673959,0.2979642150281929,2.096099943260809,-2.474356028297922e-05,7.079782715829384e-06,1.676879954608647e-05,2.510150257021121e-06,2.506407520516541e-06
128.7438962870793,77.78770920638235,12.5,0,-7.988458952306282,0.1597009429397458,1.99318654912914,-2.56908294017319e-05,6.901810179252212e-06,1.594549239303312e-05,2.439330544781584e-06,2.477210481620945e-06
130.9663766915655,77.99870389406964,12.5,0,-8.028093970584933,0.1407812350919331,2.140595721847765,-2.580252569394533e-05,6.872975128762132e-06,1.712476577478212e-05,2.496057977254045e-06,2.501130973300261e-06
128.9878303386968,79.80803326388782,12.5,0,-7.657720299630531,0.2433024639345271,1.975185132078017,-2.469934692996532e-05,6.904744124294911e-06,1.580148105662413e-05,2.422328796168865e-06,2.427333774837539e-06
131.2756238655556,79.94235021744834,12.5,0,-7.682170298652383,0.2285255285009642,2.116800110046622,-2.47657653784884e-05,6.877017930124991e-06,1.693440088037298e-05,2.478273811758463e-06,2.454675104334964e-06
302.7165954080918,206.9956012111363,12.5,0,13.97238720214828,-0.2173757207242821,-0.7749780257152681,4.488553962345393e-05,-1.187351206803633e-05,-6.199824205722145e-06,5.307374759676338e-05,5.342141440018339e-05
304.8633707559245,206.9092240895488,12.5,0,13.97276708483625,-0.2294271950871671,-0.7414447922412724,4.489639642754574e-05,-1.191238069214793e-05,-5.931558337930179e-06,5.303600491134058e-05,5.281006039758117e-05
303.0223828871412,208.9724537992765,12.5,0,14.03891535808787,-0.1993616470546677,-0.7823895404550211,4.50840184635249e-05,-1.186908955704523e-05,-6.259116323640169e-06,5.338405136336082e-05,5.37847982392088e-05
305.3781595429497,208.6572188789774,12.5,0,14.04660830828617,-0.2080609490593348,-0.7534610346172054,4.511559534576322e-05,-1.190308168361881e-05,-6.027688276937643e-06,5.338484035760225e-05,5.310051030256202e-05
302.1869559580692,203.571592089465,12.5,0,13.794317794841,-0.1975052447054964,-1.01050275178792,4.429982113925558e-05,-1.166747101893038e-05,-8.084022014303357e-06,5.247470282673431e-05,5.272708835382073e-05
303.9717304216462,203.8816083029471,12.5,0,13.76793255649923,-0.2040536707084621,-0.9535157255863032,4.422062711736431e-05,-1.166731779146646e-05,-7.628125804690425e-06,5.234707237644151e-05,5.229307226492345e-05
302.4927434371187,205.5484446776052,12.5,0,13.9215410865072,-0.1657056223967355,-1.017866591634248,4.468149597474042e-05,-1.166749086087531e-05,-8.142932733073982e-06,5.305953728738783e-05,5.313800189057607e-05
304.4865192086713,205.6296030923758,12.5,0,13.91634370501218,-0.1669646551287558,-0.9698877201361937,4.466587158014198e-05,-1.166736186042176e-05,-7.75910176108955e-06,5.303018002420415e-05,5.259370802746447e-05
299.0956359071581,203.0346282565535,12.5,0,13.94510712042652,-0.1773652440978646,-1.052566203349427,4.476623498064314e-05,-1.172365447745438e-05,-8.420529626795414e-06,5.31191443133395e-05,5.354735928613168e-05
300.8804103707349,203.3446444700356,12.5,0,13.91107272130638,-0.1895128507243391,-0.9809318824265383,4.466704298875987e-05,-1.173529929936299e-05,-7.847455059412306e-06,5.294339863310952e-05,5.306317354821985e-05
299.0394225019518,205.4078741797634,12.5,0,14.14708413556482,-0.1269624606179276,-1.05231664973668,4.537223920230175e-05,-1.172394718242922e-05,-8.418533197893444e-06,5.404604805661504e-05,5.41278482029984e-05
301.0331982735044,205.489032594534,12.5,0,14.13932915004401,-0.1321379446534396,-0.9887732373807523,4.535156363586357e-05,-1.173430474292621e-05,-7.910185899046018e-06,5.399318254654079e-05,5.354907351167373e-05
298.998271433276,207.145210774335,12.5,0,14.23432815779045,-0.1868409061740675,-0.7763308538459823,4.56993228298687e-05,-1.198535342598938e-05,-6.210646830767858e-06,5.417158956909941e-05,5.451874650938609e-05
301.1450467811087,207.0588336527474,12.5,0,14.24194988392999,-0.1738548208196926,-0.7326568259227858,4.571332348523173e-05,-1.194989533376701e-05,-5.861254607382287e-06,5.423613373692523e-05,5.387925546394555e-05
298.9420580280696,209.5184566975449,12.5,0,14.34061223379815,-0.1600295318319391,-0.7713283923891247,4.601798277361962e-05,-1.198458428890072e-05,-6.170627139112997e-06,5.46600036755671e-05,5.500621162620856e-05
301.2978346838781,209.2032217772457,12.5,0,14.3573747698911,-0.1457856894236476,-0.7313277034380248,4.606022781519043e-05,-1.195241402206855e-05,-5.850621627504198e-06,5.476384238301399e-05,5.429542936987892e-05
174.281372474873,132.8331103308792,12.5,0,1.257640782126648,2.904123870101392,1.697603091838284,1.70115140672416e-06,8.287083758623135e-06,1.358082473470627e-05,1.584073546841241e-05,1.574335759157628e-05
175.7026501768906,131.7358503843277,12.5,0,1.287597337132887,2.76288759012338,1.685490629503687,1.910001406726533e-06,7.811162418688508e-06,1.34839250360295e-05,1.541988900767316e-05,1.538118396797234e-05
175.5426661108666,134.254082567276,12.5,0,1.378566981403469,3.061681108910339,1.611275345703312,1.962069453362829e-06,8.694525963390308e-06,1.289020276562649e-05,1.675975181335735e-05,1.708417814958693e-05
176.9768431525819,133.1126205606882,12.5,0,1.409592716397439,2.92573247501105,1.598199266551644,2.170110712462965e-06,8.234669746917406e-06,1.278559413241316e-05,1.635959200338951e-05,1.668589004309896e-05
176.7430976663879,130.9326003543759,12.5,0,0.9127011854108199,3.054563340254319,1.63929004567561,4.769931211111686e-07,9.044441740485164e-06,1.311432036540488e-05,1.522498317794866e-05,1.510636188760271e-05
178.1643753684055,129.8353404078245,12.5,0,0.9144959764214824,2.87973258523693,1.608737788394628,6.226010563591998e-07,8.483547491620988e-06,1.286990230715703e-05,1.457096585890865e-05,1.471770762456311e-05
178.0267336141217,132.2770123769919,12.5,0,1.010705957853397,3.231642767004957,1.554846814096379,6.489448515269054e-07,9.532692088133144e-06,1.243877451277103e-05,1.613803926983626e-05,1.638280404491581e-05
179.4609106558371,131.1355503704041,12.5,0,1.013887094993879,3.063261084906096,1.523742499263264,7.938298360555371e-07,8.991325795704402e-06,1.218993999410611e-05,1.550958459535501e-05,1.595304580526949e-05
174.5197749865311,128.6040104249404,12.5,0,0.4947810057735227,2.820029253502467,1.693098392869006,-6.727241843267006e-07,8.628268806589075e-06,1.354478714295205e-05,1.309132369714021e-05,1.301041196243711e-05
175.9187103768084,127.58331069217,12.5,0,0.5008467886394451,2.65194891417891,1.669963422535468,-5.18849407696904e-07,8.085559094460956e-06,1.335970738028374e-05,1.248326817382383e-05,1.269512186042044e-05
175.8034109342649,129.9484224475564,12.5,0,0.599737860295269,2.996036607036721,1.607074936227017,-4.776681326845158e-07,9.107526854281291e-06,1.285659948981613e-05,1.399430431023407e-05,1.420273215256955e-05
177.21524566424,128.8835206547495,12.5,0,0.6072521212564109,2.834490915732718,1.583171133277852,-3.243859445656593e-07,8.584569233339567e-06,1.266536906622282e-05,1.340991354017935e-05,1.384474953456596e-05
172.0967478141081,130.3719142213392,12.5,0,0.8051833645955032,2.679406805866595,1.745696077847195,4.330613220123339e-07,7.929955087096702e-06,1.396556862277756e-05,1.359626869809758e-05,1.353279783715904e-05
173.4956832043855,129.3512144885687,12.5,0,0.8333700010090492,2.54346150503566,1.738048648611927,6.320147992004295e-07,7.472380815306873e-06,1.390438918889541e-05,1.319113629791905e-05,1.323486656391619e-05
173.3580414501017,131.7928864577361,12.5,0,0.9272438800367256,2.834119922127234,1.660122605971448,6.998844784157344e-07,8.327388646777768e-06,1.328098084777158e-05,1.448218556409466e-05,1.479176810487506e-05
174.7698761800768,130.7279846649292,12.5,0,0.9565977113022421,2.703507133290692,1.651385006538886,8.983069695346211e-07,7.885944657488419e-06,1.321108005231109e-05,1.409666990610677e-05,1.445648501369326e-05
294.955275792888,206.0910083982792,12.5,0,14.4370339939997,-0.136163504921742,-0.8734079787805095,4.630743958473644e-05,-1.198535041094934e-05,-6.987263830244075e-06,5.511172005860333e-05,5.564008012208718e-05
297.3397272957003,206.8858827789938,12.5,0,14.33644296554111,-0.1570314336779859,-0.7595380458628521,4.600224263667395e-05,-1.197165496020244e-05,-6.076304366902817e-06,5.465198662147273e-05,5.499055805453326e-05
294.7237619697892,208.3913731827446,12.5,0,14.73271441435462,-0.06182622626830403,-0.8605949059538061,4.719414710694942e-05,-1.198401545554227e-05,-6.884759247630448e-06,5.647009792885026e-05,5.613526438164753e-05
297.1805405534008,209.3009225222788,12.5,0,14.62481108522283,-0.0846729018993706,-0.7507946585343875,4.686713379423255e-05,-1.197080215425625e-05,-6.0063572682751e-06,5.597688259929768e-05,5.549919393180312e-05
295.3562694971425,202.1066597157145,12.5,0,14.13835309112494,-0.1006659787302819,-1.175161535757035,4.532326267458401e-05,-1.163281360483685e-05,-9.40129228605628e-06,5.410760432786632e-05,5.462988138015168e-05
297.6154468212493,202.7029112414014,12.5,0,14.04898333553108,-0.1367702222552154,-1.051940865019264,4.506616285150362e-05,-1.167685137964155e-05,-8.415526920154109e-06,5.363992708569542e-05,5.396715738446026e-05
295.1247556740437,204.4070245001799,12.5,0,14.46998639582854,-0.01917379409258935,-1.168259585363906,4.631929550192541e-05,-1.163734525775912e-05,-9.346076682911243e-06,5.562524826460074e-05,5.523671396254938e-05
297.4562600789499,205.1179509846863,12.5,0,14.37115033823982,-0.05712913259227248,-1.049437205528599,4.603338438844123e-05,-1.167973349488712e-05,-8.395497644228794e-06,5.511636480312855e-05,5.458005009891055e-05
291.4432595885525,201.0739217791528,12.5,0,14.3721536406368,0.03669728630917524,-1.33472134820217,4.596153382099041e-05,-1.138029159632008e-05,-1.067777078561736e-05,5.54423433103894e-05,5.593961501422686e-05
293.7024369126592,201.6701733048397,12.5,0,14.26741317808986,-0.02900540530477125,-1.196700763021524,4.567892649413137e-05,-1.150674783944716e-05,-9.573606104172194e-06,5.482200858383637e-05,5.515839980913581e-05
291.0864715867481,203.1756637085905,12.5,0,14.70402154775035,0.1133954465057356,-1.328259601849876,4.696215259559653e-05,-1.140035180938193e-05,-1.0626076814799e-05,5.694682563307141e-05,5.65546771907397e-05
293.4179759916543,203.886590193097,12.5,0,14.58969822357592,0.04696893140856062,-1.195457696890375,4.664945917031609e-05,-1.152145799835334e-05,-9.563661575123002e-06,5.628832533831515e-05,5.576581369714114e-05
290.8252846419075,204.7142455852713,12.5,0,14.68766684589125,-0.01211437400840998,-1.047859576766596,4.701022540605873e-05,-1.178889947353991e-05,-8.382876614132766e-06,5.646717181661837e-05,5.696276577874716e-05
293.2097361447197,205.509119965986,12.5,0,14.55910113328674,-0.0794408852035775,-0.9090966437127547,4.665267633468043e-05,-1.190149173928084e-05,-7.272773149702037e-06,5.57550568817701e-05,5.616853158908026e-05
290.4684966401032,206.815987514709,12.5,0,15.00271280032181,0.06136025133583622,-1.040171605353087,4.79595927599611e-05,-1.180581743598277e-05,-8.321372842824692e-06,5.789809832078008e-05,5.746262235870717e-05
292.9252752237148,207.7255368542432,12.5,0,14.86656833484166,-0.006470716787691178,-0.9063931548946614,4.757819524492347e-05,-1.191396096159394e-05,-7.251145239157292e-06,5.715585124647827e-05,5.66613634430164e-05
245.1906663605647,230.7246689666792,12.5,0.8349960652441979,14.89892129732333,4.354742127502041,-3.667134262324172,0.0002678284885438409,1.221811936261705e-05,-0.0001777962091753196,0.0004348141392213073,0.0005234071845717973
247.2004012692699,230.2797118247463,12.5,0.7866676786508989,19.02985010391518,6.327833253007453,-5.410053191119395,0.0002617196183730454,2.355567264591095e-05,-0.0002028779570542911,0.0004426228203565939,0.0004196349211948198
246.7436724100677,232.4000301209358,12.5,0.8172764468991907,15.00477671618379,3.961717207212738,-3.376513517849374,0.0002454303835766386,3.68684648859724e-06,-0.0001478304667592157,0.0003872570817303172,0.0004798298062282793
248.8948031930616,231.9724930010325,12.5,0.7467148753571429,20.58239011485008,6.306817547626421,-5.45762416246794,0.0002401175134748848,1.46708341666889e-05,-0.0001723788294370125,0.0003956340970317908,0.0003607233979534574
242.5007809784121,227.8228583265319,12.5,0.8456172318887712,15.08790188618116,6.85275459457978,-3.96090858555596,0.0002772270693402793,6.38574713636925e-05,-0.0002052513312989558,0.0005241893885498363,0.0005536033093231425
244.265611048873,227.347728821375,12.5,0.8172084319158486,17.57404134478648,7.392501366986549,-4.922993867646142,0.0002753022567570536,5.250117059070101e-05,-0.0002154582476311928,0.0005052987893715592,0.0004796766801493135
244.0537870279151,229.4982194807884,12.5,0.8420845575816363,15.21386688757588,7.433760085472041,-4.137617818425621,0.0002706344947484079,7.356429862428017e-05,-0.0002096118152885326,0.0005283507973664807,0.0005431747351482657
245.9600129726647,229.0405099976613,12.5,0.8039025045172712,18.60398950710562,8.485064412118117,-5.37250557723623,0.0002689718946343655,6.256589092528244e-05,-0.0002191769176454132,0.000510297674144654,0.0004515083570952389
239.4440056297035,228.6458067696239,12.5,0.8747798472353231,15.264471522995,8.665387375414625,-4.226561146051418,0.0003347224711666038,0.0001239230430591532,-0.0002700243405065501,0.0007018795504228479,0.0006582689025913134
241.2088357001643,228.170677264467,12.5,0.8602329275628435,16.78717469974341,8.07153022086327,-4.660981224187942,0.000338146417738975,8.871300464952342e-05,-0.00026678565375453,0.0006557089487941265,0.0006014569510994664
240.7521068409621,230.2909955606564,12.5,0.8807301469396737,15.24796471679495,9.374398187613313,-4.636735888672319,0.0003462230185088499,0.0001492389063137657,-0.0003110080725144901,0.0007581254159194765,0.0006847993295595364
242.6583327857117,229.8332860775293,12.5,0.8614113412036328,17.4618528918811,9.359407720113186,-5.316600260901004,0.0003491656784775626,0.0001153097412850944,-0.0003068995865650368,0.0007128449535433636,0.0006056848628196001
241.7097033890052,231.4953573436839,12.5,0.882998119994342,15.16199064348112,7.425773261123993,-4.614712471938336,0.0003639065581525817,9.942474360454152e-05,-0.0003155308254339281,0.000712616219907762,0.00069549671156836
243.7194382977103,231.0504002017509,12.5,0.8590645998275599,18.00829341340608,7.340845768053602,-5.431671174015808,0.000367216911046718,6.445557124705318e-05,-0.0003083211835987234,0.0006669414999753653,0.0005973241285226906
243.0178046002639,233.1405461347165,12.5,0.8835583531400855,15.76631813878675,8.365053551349341,-5.135679131096101,0.0003758120602303395,0.0001215640385979584,-0.0003528413944385101,0.000764566082947742,0.0006981920757574588
245.1689353832577,232.7130090148133,12.5,0.85098579808407,19.90013951936384,9.06486397074347,-6.428502105120858,0.0003786790423989592,8.782688443529458e-05,-0.0003451215802234826,0.0007197491228845919,0.0005702542659138459
127.888565252949,92.31949898186278,12.5,0,-5.666982778644291,0.1993636233203178,2.133440061354084,-1.829383579031799e-05,5.17154981754045e-06,1.706752049083267e-05,2.145755768389751e-06,2.112676257923109e-06
129.7225122233618,91.78559058600486,12.5,0,-5.64720449385524,0.05903869932334738,2.191899218835218,-1.811828533979544e-05,4.706687432918903e-06,1.753519375068175e-05,2.084185387666211e-06,2.157407246139765e-06
129.1001305222774,93.88840384333322,12.5,0,-5.476098877514719,0.3398182094087845,2.037289682893471,-1.779537097557413e-05,5.468297372119885e-06,1.629831746314777e-05,2.162443799438065e-06,2.104669582619074e-06
130.9367880264987,93.31583056759058,12.5,0,-5.452826775183013,0.2043214559898923,2.092991704495196,-1.761250284537755e-05,5.016090079314065e-06,1.674393363596156e-05,2.097307232579623e-06,2.151690376277077e-06
129.9870578560739,95.03692191412257,12.5,0,-5.230178591990942,0.2536790509685682,2.139897081470092,-1.693951473514587e-05,4.995915836692171e-06,1.711917665176073e-05,2.134717857763188e-06,2.10178552478421e-06
131.8256996087586,94.43604398183697,12.5,0,-5.206747588106335,0.1205148081316372,2.191149948272107,-1.675800412844558e-05,4.551045456506307e-06,1.752919958617686e-05,2.072377065934584e-06,2.150316177490958e-06
131.1986231254024,96.60582677559302,12.5,0,-5.053776029305006,0.3863731933275723,2.049765097298237,-1.648118184843808e-05,5.279415042092235e-06,1.63981207783859e-05,2.154662044412547e-06,2.101912807551095e-06
133.0399754118954,95.9662839634227,12.5,0,-5.027269027487621,0.2576664607754999,2.098547474734844,-1.629339405658078e-05,4.846347896471695e-06,1.678837979787875e-05,2.088864947331299e-06,2.15227866645011e-06
133.171678788584,93.99617080627569,12.5,0,-5.402102013779976,0.3426275329074349,2.135509671678717,-1.756082847042187e-05,5.418089716327772e-06,1.708407737342974e-05,2.21555873158011e-06,2.185435570988722e-06
135.0103205412686,93.3952928739901,12.5,0,-5.379166753502956,0.201666080616975,2.187538584434762,-1.737466647570304e-05,4.948664860776684e-06,1.750030867547809e-05,2.145224703644012e-06,2.232852885652951e-06
134.3879388401841,95.49810613131844,12.5,0,-5.227274525898542,0.4800716226467556,2.043708352929641,-1.711133578099274e-05,5.718048813188451e-06,1.634966682343713e-05,2.241029565586568e-06,2.188966076424036e-06
136.2292911266772,94.85856331914815,12.5,0,-5.201180940608654,0.3439317161653406,2.093136424636584,-1.691892438287996e-05,5.261526244216012e-06,1.674509139709267e-05,2.166953941560763e-06,2.238832085576158e-06
131.0650545840339,91.39474251366589,12.5,0,-5.831021056334035,0.2834370023965542,2.135760548260272,-1.888601698218615e-05,5.571815252736201e-06,1.708608438608217e-05,2.227112698259952e-06,2.189846800091382e-06
132.8990015544468,90.860834117808,12.5,0,-5.811756151214479,0.1361268879336952,2.195115228258326,-1.870652119423329e-05,5.085010962359407e-06,1.756092182606661e-05,2.158595488818307e-06,2.233742321449185e-06
132.2813146356341,92.89667783870865,12.5,0,-5.642616440436921,0.4279067049793235,2.038336579653793,-1.83986979733816e-05,5.883394608283371e-06,1.630669263723034e-05,2.249003602804731e-06,2.185671560184135e-06
134.1179721398555,92.32410456296603,12.5,0,-5.619776676272664,0.2857841527188654,2.094796494143878,-1.821191268624762e-05,5.4103306297185e-06,1.675837195315102e-05,2.176698865851433e-06,2.231489087465506e-06
220.7739023526099,149.5488671766749,12.5,0,4.956493647178517,7.207911895782551,-1.354477030092227,1.009445015434521e-05,1.910012314876135e-05,-1.083581624073781e-05,4.435853572731129e-05,4.350559144785282e-05
222.2657524678684,149.9446416334837,12.5,0,4.83441515092337,7.078580033680897,-1.208675086854642,9.807264456010065e-06,1.878392398704017e-05,-9.669400694837138e-06,4.342242023623455e-05,4.413845566554495e-05
220.9412484894509,151.282857070646,12.5,0,5.317015471050999,7.307503471138197,-1.406646660589463,1.116844673045264e-05,1.913039873080143e-05,-1.12531732847157e-05,4.600978510897616e-05,4.560885719260348e-05
222.5368428068258,151.571899498136,12.5,0,5.233199894242611,7.196249881058792,-1.276444511916566,1.098923975672932e-05,1.884143970399405e-05,-1.021155609533253e-05,4.527810101530978e-05,4.61385742352408e-05
221.0637543640636,152.5522257727899,12.5,0,5.624415264890499,7.523267269388419,-1.46471266423688,1.197951503213886e-05,1.957492305013054e-05,-1.171770131389504e-05,4.790451237620721e-05,4.718094003079414e-05
222.7352947083752,152.7631349320269,12.5,0,5.548964909355583,7.412474144298369,-1.308691077158168,1.182670839449917e-05,1.928074533427031e-05,-1.046952861726534e-05,4.719938443699751e-05,4.762948392315674e-05
221.2311005009045,154.286215666761,12.5,0,5.990860404167246,7.622885329242054,-1.511082911160542,1.307244502994154e-05,1.960054473024078e-05,-1.208866328928433e-05,4.958156143110628e-05,4.937268447387004e-05
223.0063850473325,154.3903927966792,12.5,0,5.946282854646427,7.526726132672767,-1.369093692457255,1.300672422873035e-05,1.932849734083571e-05,-1.095274953965804e-05,4.904280893409959e-05,4.970260637051706e-05
223.9589471672604,152.9175311523635,12.5,0,5.764861718649605,7.61052568326409,-1.760027526486932,1.235913695306747e-05,1.97417928115254e-05,-1.408022021189546e-05,4.878791969888053e-05,4.792015629894366e-05
225.630487511572,153.1284403116006,12.5,0,5.634087596758202,7.301274669009815,-1.576588319072522,1.218806057441839e-05,1.885680886342484e-05,-1.261270655258018e-05,4.714707029215261e-05,4.826574410562141e-05
224.3059835331544,154.4666557487628,12.5,0,6.135348744685541,7.752143852618397,-1.877539136800317,1.343140090089901e-05,1.989858133263044e-05,-1.502031309440254e-05,5.065074605696148e-05,4.990209172524687e-05
226.0812680795824,154.5708328786811,12.5,0,6.044382472140754,7.47850554981061,-1.717894246472266,1.335921947100192e-05,1.909571178168134e-05,-1.374315397177812e-05,4.928778450914171e-05,5.011717395311075e-05
223.3578625494686,150.2343686441935,12.5,0,5.169456481623822,7.339420000350093,-1.662250898996876,1.067072474091616e-05,1.935057881582124e-05,-1.329800719197501e-05,4.566227091778463e-05,4.458219249536634e-05
224.8497126647272,150.6301431010024,12.5,0,5.031035341184456,7.167482537677754,-1.503780225005022,1.036532706164806e-05,1.891111584762125e-05,-1.203024180004017e-05,4.450387409502179e-05,4.516163984198735e-05
223.7048989153627,151.7834932405928,12.5,0,5.508124625292461,7.450671385377343,-1.737573750980727,1.1665461692634e-05,1.943564873297353e-05,-1.390059000784582e-05,4.728613758609672e-05,4.649469359652658e-05
225.3004932327376,152.0725356680828,12.5,0,5.413552540017314,7.304656865232189,-1.600485108917268,1.147964263586965e-05,1.904405993672915e-05,-1.280388087133814e-05,4.638263602640567e-05,4.693791274252235e-05
298.66085179683,127.19867028588,12.5,0,1.99813523768571,1.208912612607074,-3.930397594233115,5.426902670508613e-06,2.270012170194069e-06,-3.144318075386492e-05,1.506598064162788e-05,1.514369439132533e-05
300.9598886885767,127.2037273622217,12.5,0,1.944861645154758,0.9996482111175564,-3.756107999937819,5.42383869560118e-06,1.642984959452374e-06,-3.004886399950255e-05,1.405974096775919e-05,1.479306844553895e-05
299.2410906073746,129.6972328972111,12.5,0,2.498769341769953,1.38188554657111,-4.055242698211721,6.890553456406962e-06,2.423018275611588e-06,-3.244194158569377e-05,1.728834816424735e-05,1.646568593308415e-05
301.5602576627722,129.6527930101363,12.5,0,2.456225720773994,1.178971209787617,-3.885858281232944,6.916745338646686e-06,1.80772729470118e-06,-3.108686624986355e-05,1.63326262600026e-05,1.605252009051191e-05
297.6558486964615,122.8710328972405,12.5,0,1.212571304053046,1.263158049925688,-3.908256719418731,2.869701733029197e-06,3.072048716519764e-06,-3.126605375534984e-05,1.290551956862784e-05,1.29395979925157e-05
299.920019122001,122.9618212290383,12.5,0,1.138896919331055,1.038603230278353,-3.730021528499408,2.813587557636694e-06,2.412412801425885e-06,-2.984017222799526e-05,1.180760897523341e-05,1.269602015313641e-05
298.2360875070061,125.3695955085715,12.5,0,1.723475591454576,1.441917563717144,-4.039466040795372,4.361587841680926e-06,3.2353557307312e-06,-3.231572832636297e-05,1.507445035849764e-05,1.41988819752383e-05
300.5203880961964,125.4108868769529,12.5,0,1.661294293415245,1.224204107761145,-3.866442683976058,4.336778452719868e-06,2.588417710103468e-06,-3.093154147180846e-05,1.401433100915896e-05,1.389369699795206e-05
293.7341904825029,122.7137828938351,12.5,0,1.144467996999705,1.441986168806022,-3.902005772253461,2.508708655354237e-06,3.698781342579508e-06,-3.121604617802769e-05,1.320956912761384e-05,1.328785683694361e-05
295.9983609080423,122.8045712256329,12.5,0,1.067830851810607,1.206949216231965,-3.720200414688397,2.451499352808371e-06,3.007972810493802e-06,-2.976160331750717e-05,1.205907004131553e-05,1.309818015398802e-05
294.2795628268401,125.2980767606222,12.5,0,1.682894430818185,1.626885618654519,-4.038880948194429,4.083753683694578e-06,3.859718435039912e-06,-3.231104758555543e-05,1.549525403722124e-05,1.464926045956796e-05
296.5638634160304,125.3393681290036,12.5,0,1.617941375668588,1.398720886724747,-3.862269955849976,4.058435692759683e-06,3.181553736984321e-06,-3.089815964679981e-05,1.438315109441161e-05,1.440133459460244e-05
294.678803091921,127.1899111727186,12.5,0,1.973712610762827,1.39225318283142,-3.938826784240804,5.20207780817591e-06,2.87624009645028e-06,-3.151061427392643e-05,1.553702816310443e-05,1.566994391446916e-05
296.9778399836677,127.1949682490603,12.5,0,1.917691891222487,1.172023033113962,-3.763493444449009,5.198995625420788e-06,2.216320192986688e-06,-3.010794755559207e-05,1.448120960284897e-05,1.537865246508053e-05
295.2241754362582,129.7742050395057,12.5,0,2.494532998603676,1.569810217375289,-4.068796433624917,6.726657421631531e-06,3.027766296717985e-06,-3.255037146899934e-05,1.785478423685857e-05,1.709709934919838e-05
297.5433424916558,129.729765152431,12.5,0,2.449309913800356,1.355953147959648,-3.898317197197174,6.753029205793421e-06,2.379602142430588e-06,-3.118653757757739e-05,1.685028159327308e-05,1.674558010187078e-05
220.8870424429896,110.4579942163319,12.5,0,-2.750634320048488,3.990767828605927,-0.7809153004981134,-1.19946440870399e-05,1.497096450757776e-05,-6.247322403984907e-06,8.943563473829183e-06,8.995748469450852e-06
222.7766401061314,110.1630282333033,12.5,0,-2.756474925741768,3.789153295188835,-0.67922187482734,-1.185204239852472e-05,1.433047048519768e-05,-5.43377499861872e-06,8.246648462494526e-06,8.957535342665023e-06
221.5915068072777,112.5292393911584,12.5,0,-2.388071956731476,4.157902202603929,-0.9145180418093179,-1.096815202362387e-05,1.521574461371775e-05,-7.316144334474544e-06,1.018270440205144e-05,1.010722255925333e-05
223.4707489017491,112.2666536865399,12.5,0,-2.399071491939582,3.951780553281817,-0.8098582406721594,-1.083845321683211e-05,1.456495496405348e-05,-6.478865925377275e-06,9.416813219235098e-06,1.007127735619741e-05
222.1072105140365,114.0454960939988,12.5,0,-2.089876737400948,4.244687834315902,-0.9058567243222344,-1.008335582713575e-05,1.525490245973165e-05,-7.246853794577875e-06,1.106773471807132e-05,1.100446730486205e-05
223.9788718061002,113.8066143983387,12.5,0,-2.108449567775843,4.021185676780227,-0.8001218450644055,-9.963987158306879e-06,1.45545538199174e-05,-6.400974760515244e-06,1.020045405910761e-05,1.097140577312599e-05
222.8116748783246,116.1167412688253,12.5,0,-1.713519269376225,4.423260574240782,-1.050343506080539,-9.021870121396546e-06,1.552524925307148e-05,-8.402748048644314e-06,1.259671121254642e-05,1.234431144699102e-05
224.6729806017179,115.9102398515754,12.5,0,-1.737684882234612,4.194763676843966,-0.9413862714203298,-8.916402564625929e-06,1.481339167168838e-05,-7.531090171362638e-06,1.16647682940166e-05,1.231686032808357e-05
225.3490229663926,113.6317408601248,12.5,0,-2.120693852933698,4.192946603088426,-1.118015621417956,-1.014057761185857e-05,1.511398421222992e-05,-8.944124971343645e-06,1.092226915721967e-05,1.094186776398322e-05
227.2206842584563,113.3928591644647,12.5,0,-2.136408520472305,3.978076262564461,-1.009682065812843,-1.001896827556294e-05,1.443897085658412e-05,-8.077456526502742e-06,1.008867553543526e-05,1.089422995398336e-05
226.0355509596025,115.7590703223198,12.5,0,-1.729541635362638,4.370039992377186,-1.26108996631043,-9.03056522706219e-06,1.53677612838971e-05,-1.008871973048344e-05,1.247253363898406e-05,1.229326936617664e-05
227.8968566829958,115.5525689050699,12.5,0,-1.750890056311005,4.150408338185577,-1.149604144432708,-8.923174850743675e-06,1.468201872724265e-05,-9.196833155461666e-06,1.157567141650454e-05,1.22562687785522e-05
224.1599216013559,109.947098147231,12.5,0,-2.804453793422208,3.958192640899327,-0.9888008911300311,-1.214080625167052e-05,1.490977948561561e-05,-7.910407129040249e-06,8.845518360647341e-06,8.922602462421814e-06
226.0495192644977,109.6521321642023,12.5,0,-2.808930345759868,3.757678701301691,-0.8842697600707676,-1.199472006747293e-05,1.42717161207733e-05,-7.074158080566141e-06,8.153427248208632e-06,8.865377185524419e-06
224.8464495945659,112.074427609426,12.5,0,-2.424858263042905,4.12731095609649,-1.124336954529245,-1.106139520661449e-05,1.514728166994309e-05,-8.994695636233962e-06,1.011213374307385e-05,1.003870028919591e-05
226.7256916890373,111.8118419048076,12.5,0,-2.434590613649817,3.92238130086153,-1.016853774779043,-1.092859500436864e-05,1.449929265367675e-05,-8.134830198232345e-06,9.350055005572371e-06,9.985643290038365e-06
269.3673188281037,191.9561656619605,12.5,0,15.21175828946999,2.311532017470329,-2.888536767729945,4.68284009123277e-05,-4.77250417567094e-06,-2.310829414183956e-05,6.606862294460447e-05,6.646267599213822e-05
271.4283638033623,192.4941103899604,12.5,0,14.99548348921268,1.960436921440332,-2.660594471378514,4.641719762832829e-05,-5.722988642761079e-06,-2.128475577102811e-05,6.406841282902593e-05,6.507560232744585e-05
269.2725399224769,193.8858032285098,12.5,0,15.70378086640331,2.420766828458238,-2.991552664310297,4.831548530972399e-05,-4.816570842056285e-06,-2.393242131448238e-05,6.831805711458909e-05,6.73529134607055e-05
271.3355761348965,194.4430415544095,12.5,0,15.48313232094048,2.069122758623088,-2.762948987993505,4.789072522011105e-05,-5.765313029158499e-06,-2.210359190394804e-05,6.62983392261072e-05,6.590611836195534e-05
272.9371534418721,192.8879132625034,12.5,0,15.05612194346254,1.757670472425481,-2.659502651227434,4.677345384113975e-05,-6.420352043008497e-06,-2.127602120981947e-05,6.365917008119663e-05,6.410438927810897e-05
274.9981984171309,193.4258579905034,12.5,0,14.86192035260944,1.46251803366312,-2.449219203727533,4.63881307014197e-05,-7.209478574365566e-06,-1.959375362982027e-05,6.193678746823795e-05,6.283805954692629e-05
272.8458234601779,194.8509683208755,12.5,0,15.52566288193615,1.86404016475723,-2.745967116751661,4.819088909038989e-05,-6.455601778325784e-06,-2.196773693401328e-05,6.580786107472937e-05,6.489669571374224e-05
274.9088596725976,195.4082066467753,12.5,0,15.32733826812891,1.568297781423945,-2.535163520940781,4.779284423287334e-05,-7.243317713946499e-06,-2.028130816752625e-05,6.406670346899827e-05,6.358569685114623e-05
273.0953416104179,189.4878021634091,12.5,0,14.54382695420643,1.879354588193167,-2.925954160575017,4.503676258290604e-05,-5.621126881147007e-06,-2.340763328460014e-05,6.216638956075984e-05,6.256159822776626e-05
275.152937661744,189.9923293995863,12.5,0,14.35242416979737,1.58614977166794,-2.709229762045426,4.465883752601723e-05,-6.406260066500486e-06,-2.167383809636341e-05,6.045057432181709e-05,6.137168841020968e-05
273.0040116287237,191.4508572217811,12.5,0,15.03500972424865,1.991171900881746,-3.011721712062971,4.65190935968903e-05,-5.656257696577335e-06,-2.409377369650377e-05,6.44148145785637e-05,6.347870179251324e-05
275.0635989172108,191.9746780558582,12.5,0,14.83926748647479,1.697322018756797,-2.79449130302146,4.612779834171389e-05,-6.439983529158083e-06,-2.235593042417168e-05,6.267953850379047e-05,6.224481777316011e-05
269.5314807081322,188.6139353565637,12.5,0,14.66779029225572,2.41767956806657,-3.140470168988053,4.500278528076504e-05,-3.997657615991551e-06,-2.512376135190442e-05,6.441274313940089e-05,6.475599203684799e-05
271.5890767594582,189.1184625927409,12.5,0,14.45678436698509,2.075248192878802,-2.907495430419499,4.460151142004923e-05,-4.924633276375901e-06,-2.325996344335599e-05,6.244987459128661e-05,6.34684196514375e-05
269.4367018025054,190.5435729231129,12.5,0,15.1799778447674,2.532273445551616,-3.240527941433358,4.655011034681439e-05,-4.04070725004875e-06,-2.592422353146686e-05,6.675534203812363e-05,6.576683299383017e-05
271.4962890909923,191.06739375719,12.5,0,14.96438818548259,2.189228633672078,-3.006925422981903,4.613465928660662e-05,-4.965978920635421e-06,-2.405540338385522e-05,6.477234622191474e-05,6.442242292659252e-05
202.5727055961613,97.1424398842758,12.5,0,-5.159715513565439,2.904397708718164,0.3643044709428954,-1.883460781038394e-05,1.342184507875047e-05,2.914435767543164e-06,4.403477425902882e-06,4.429586744428127e-06
204.4326920957575,96.98352717674298,12.5,0,-5.171425432422716,2.76023933735613,0.473384123324803,-1.875675285363759e-05,1.296990622547779e-05,3.787072986598423e-06,4.179938202614228e-06,4.473158459606869e-06
203.2822880951892,99.25088375138297,12.5,0,-4.801979330308117,3.047567476204048,0.2570974374833284,-1.780438783794921e-05,1.359379938809945e-05,2.056779499866627e-06,4.706363406892119e-06,4.729172394250175e-06
205.1609025537179,99.10188352563227,12.5,0,-4.815469311541083,2.903796707043248,0.3658779185731532,-1.773253916256606e-05,1.314452491177126e-05,2.927023348585226e-06,4.452563886823527e-06,4.77993852323205e-06
203.8017385366172,100.7943717869468,12.5,0,-4.522389128620119,3.129796303985609,0.2932927521701471,-1.697548225477286e-05,1.363325947565004e-05,2.346342017361177e-06,4.947262032233421e-06,5.000838114919146e-06
205.6939896075252,100.6526280014894,12.5,0,-4.53819527573727,2.979068836495225,0.4057094915830111,-1.690547995155544e-05,1.316357649737453e-05,3.245675932664089e-06,4.660782296063838e-06,5.057981746225526e-06
204.5113210356451,102.9028156540539,12.5,0,-4.161567893336771,3.27489689105548,0.184357201482799,-1.593693477152205e-05,1.380892436604695e-05,1.474857611862392e-06,5.391387657231252e-06,5.443457016671096e-06
206.4222000654856,102.7709843503787,12.5,0,-4.179114172551646,3.1245929440366,0.2964617620289486,-1.587283970739455e-05,1.334198875895844e-05,2.371694096231589e-06,5.063248311791693e-06,5.510829894551017e-06
207.0792135320476,100.5488643488819,12.5,0,-4.556669018075908,3.191982611686362,0.1172601076173963,-1.713492694719199e-05,1.385967957185708e-05,9.380808609391706e-07,5.046978095780952e-06,5.096778471610601e-06
208.9714646029555,100.4071205634245,12.5,0,-4.577127275324045,3.022647921383542,0.2291525410294911,-1.706492561814378e-05,1.333417516868657e-05,1.833220328235929e-06,4.710379530075047e-06,5.145629465228049e-06
207.8210606023873,102.6744771380645,12.5,0,-4.190540562909466,3.347728503906531,-0.002013037987469218,-1.608791260443551e-05,1.406516366282847e-05,-1.610430389975374e-08,5.534710136364549e-06,5.556571756224643e-06
209.7319396322277,102.5426458343892,12.5,0,-4.212714812997858,3.178902592058948,0.1096269324370712,-1.60238094752403e-05,1.354266014498692e-05,8.770154594965694e-07,5.149139166894673e-06,5.614167968475174e-06
205.7942967147962,96.86719500086556,12.5,0,-5.201374676554502,2.961661130064667,0.1990474882655131,-1.901372786902614e-05,1.363841535745054e-05,1.592379906124105e-06,4.478292834842609e-06,4.502703401026214e-06
207.6542832143924,96.70828229333273,12.5,0,-5.217434339744687,2.800052300305085,0.3076281897465137,-1.893583172742706e-05,1.313411483277202e-05,2.46102551797211e-06,4.216133610659871e-06,4.539849966915203e-06
206.5361437851359,98.99280779004816,12.5,0,-4.838262976757099,3.115128554756382,0.08186297192794116,-1.797454436942782e-05,1.38390217566261e-05,6.549037754235293e-07,4.813758358640987e-06,4.814395296915255e-06
208.4147582436646,98.84380756429746,12.5,0,-4.856080595093972,2.953986824026657,0.1902028434581319,-1.790264736352203e-05,1.333762231296048e-05,1.521622747665055e-06,4.515749497604015e-06,4.857766824304797e-06
268.937024420118,181.7184927503728,12.5,0,13.41339140046856,2.743175193650261,-3.599394570560866,4.072831232657917e-05,-1.95255250069401e-06,-2.879515656448693e-05,6.086106504340199e-05,6.117807658086104e-05
271.0562214167591,182.2034095174083,12.5,0,13.17967495360987,2.340163566366731,-3.335423072611267,4.030282899845819e-05,-3.055216550514354e-06,-2.668338458089014e-05,5.858677234696705e-05,6.005501844381591e-05
269.1401013402141,183.7162312870103,12.5,0,14.01509109857844,2.927099242916808,-3.753807881206597,4.250661212111756e-05,-1.845355301528968e-06,-3.003046304965278e-05,6.37845433240531e-05,6.228091971064523e-05
271.239179468096,184.2051984780264,12.5,0,13.7763604214457,2.519248035996417,-3.486515099452539,4.206895491982911e-05,-2.959494621968027e-06,-2.789212079562032e-05,6.147317980809982e-05,6.111004146667614e-05
269.2887639635627,185.1786773960051,12.5,0,14.05589304017318,2.564161090419905,-3.369773881160924,4.292752885621826e-05,-3.039398942794851e-06,-2.695819104928739e-05,6.263456443109055e-05,6.304413860562604e-05
271.3731140573228,185.6706097031671,12.5,0,13.82713268381535,2.171833695067702,-3.116657836224054,4.250935763215494e-05,-4.111838322835631e-06,-2.493326268979243e-05,6.042904865708208e-05,6.183919192211091e-05
269.4918408836587,187.1764159326426,12.5,0,14.63914505596,2.74310804623165,-3.522050744580248,4.465077774208669e-05,-2.933370296826724e-06,-2.817640595664198e-05,6.547046961613662e-05,6.402644827431464e-05
271.5560721086598,187.6723986637853,12.5,0,14.40541634121239,2.345987017384298,-3.265674897516145,4.42205426779722e-05,-4.017174617340158e-06,-2.612539918012916e-05,6.322785766259479e-05,6.277624498994516e-05
272.8989642266513,186.030729145879,12.5,0,13.97047077802064,2.031026258516687,-3.171970139451087,4.308068548285269e-05,-4.677092595163114e-06,-2.53757611156087e-05,6.05443291906099e-05,6.098570624963824e-05
274.9833143204115,186.5226614530411,12.5,0,13.76436608926856,1.697446679389109,-2.937371065220951,4.26880141421481e-05,-5.579663497369699e-06,-2.349896852176761e-05,5.863045084136425e-05,5.985888671232684e-05
273.0671942438665,188.0354832226431,12.5,0,14.51785146144297,2.190969476646355,-3.299102873249209,4.470434909530042e-05,-4.60317884388604e-06,-2.639282298599367e-05,6.317248421911393e-05,6.189360208533931e-05
275.1314254688676,188.5314659537858,12.5,0,14.30720680350396,1.85331077299674,-3.061569087551988,4.430041315281528e-05,-5.515170969213603e-06,-2.449255270041591e-05,6.122578419688671e-05,6.073238010928296e-05
272.6075812894817,182.5583932283052,12.5,0,13.36292066984731,2.20829966823177,-3.414573583792447,4.099470640892596e-05,-3.623777597536182e-06,-2.731658867033957e-05,5.888884761274365e-05,5.925494570290204e-05
274.7267782861228,183.0433099953406,12.5,0,13.15055949819152,1.861367370573155,-3.168069307519665,4.059269649775432e-05,-4.564072012719117e-06,-2.534455446015732e-05,5.689381797237564e-05,5.819216446192668e-05
272.7758113066969,184.5631473050692,12.5,0,13.93119982895436,2.374031337490266,-3.545046843894087,4.268061438266173e-05,-3.548059583194634e-06,-2.83603747511527e-05,6.161663935634002e-05,6.027868040288296e-05
274.8748894345789,185.0521144960854,12.5,0,13.71422210898362,2.022932073086209,-3.295525555351085,4.22671650902786e-05,-4.497995053311023e-06,-2.636420444280868e-05,5.958845201622188e-05,5.9178237981038e-05
222.462965362715,197.7933944274508,12.5,0.4905276258368124,17.33856080612502,10.88073894769963,-3.354449949170764,9.181813537637821e-05,4.111609784955518e-05,-5.267331646282842e-05,0.0002022941485942756,0.0001902400413183986
224.4432506420319,198.2398747394085,12.5,0.5112257067374558,16.41823901889811,10.57211414820253,-2.79283003477605,9.018615371048999e-05,4.234300851009099e-05,-4.571156991312368e-05,0.0002014396086030338,0.0001977789710415358
222.5437216132689,199.6290624511009,12.5,0.5254035815369651,17.05253190504432,10.35480858409107,-3.082341165015929,9.752339762436266e-05,4.10735546808056e-05,-5.195725960171365e-05,0.0002109299271041952,0.0002032982991149411
224.6707214321547,199.956308929304,12.5,0.5453823735280707,16.22229684694011,10.05101217385635,-2.584394114196971,9.649986629770967e-05,4.220118262390521e-05,-4.547811547481293e-05,0.000210874480405708,0.000211621555545099
222.3230914337295,194.6139241447164,12.5,0.4218961456554463,17.45162232467809,10.94967143424897,-3.247184267442481,8.144808919317023e-05,3.645997267005211e-05,-4.493565290097012e-05,0.0001793815468992103,0.0001688990683442697
224.0492596763083,195.2669235147146,12.5,0.4462349786142678,16.39302664987806,10.56354468255198,-2.771818576815462,7.946845292511654e-05,3.736047035345839e-05,-4.00432453444504e-05,0.0001775682749488376,0.0001758956129341502
222.4038476842834,196.4495921683665,12.5,0.4628743133468083,17.03900186665713,10.37375962587197,-2.977338118293179,8.606141806517635e-05,3.642504872811473e-05,-4.434475121597482e-05,0.000186365448876843,0.0001810227952134322
224.2767304664312,196.9833577046101,12.5,0.4846592037410534,16.15084586888534,10.03514053424628,-2.566134252225841,8.471014650875933e-05,3.724093484117725e-05,-3.983591861314887e-05,0.0001853981198785988,0.0001882062335703894
219.333280335225,193.4828960585895,12.5,0.3680420470488294,17.4618595515188,10.87182133416338,-3.283284137113593,7.465764656841806e-05,3.294576882983936e-05,-4.156332391142209e-05,0.0001637357795649116,0.0001552387476232056
221.0594485778037,194.1358954285876,12.5,0.4011620980109957,16.37167844506943,10.66863334357588,-2.891326706270048,7.323261303885656e-05,3.513853059984443e-05,-3.862583442586622e-05,0.0001647250812758135,0.0001633640779662159
219.1599195490408,195.5250831402799,12.5,0.4125944868221183,16.98328845549938,10.32792010432632,-2.865903421900353,7.845378693301683e-05,3.313335188863116e-05,-3.903134523059858e-05,0.0001697518207326826,0.0001663702081602116
221.0328023311885,196.0588486765236,12.5,0.4438075408041668,15.99025830405973,10.11091779574469,-2.510462440671445,7.745536931349703e-05,3.517259175253806e-05,-3.610926252831516e-05,0.0001711693059932957,0.0001751718498390517
219.0330106455193,197.0200678425746,12.5,0.4415503106323444,17.34950087450192,10.8597258996258,-3.377796514068563,8.385826506902133e-05,3.737404206068107e-05,-4.838819436563124e-05,0.0001845023803606252,0.0001745041689921556
221.013295924836,197.4665481545324,12.5,0.472120863803736,16.32431820460312,10.61833908530896,-2.935986378544817,8.286583800542406e-05,3.962882613630796e-05,-4.449482735310417e-05,0.0001862175249565513,0.000184003576905467
218.859649859335,199.062254924265,12.5,0.476936006799354,16.94466709215392,10.37324240716002,-3.009919861544897,8.779870410913194e-05,3.754539078291248e-05,-4.603520640948113e-05,0.0001907148059774228,0.0001855951027157406
220.9866496782209,199.3895014024683,12.5,0.5073565745959778,15.94171401709551,10.09102539692062,-2.600766503089454,8.716378281503102e-05,3.965933380811146e-05,-4.22336541031727e-05,0.0001927748247242869,0.0001963245320976849
314.5599847844595,226.0624951193159,12.5,0,14.59912195126027,-0.08302540510655421,-0.0429983301710379,4.678361056811809e-05,-1.194497885734919e-05,-3.439866413683032e-07,5.58517028175957e-05,5.583187949413199e-05
316.4067753441421,226.7352987905885,12.5,0,14.54853615201517,-0.07995136135064396,0.0110961561922856,4.661927677552906e-05,-1.18946732779342e-05,8.876924953828483e-08,5.566649482691887e-05,5.589803532232919e-05
314.7643464590857,228.3411836137415,12.5,0,14.75515304978065,-0.04548434030486348,-0.04171735223858653,4.725287723154198e-05,-1.194967232880009e-05,-3.337388179086923e-07,5.656472378796002e-05,5.642716272112747e-05
316.6593532191102,228.7596689255204,12.5,0,14.72776313969489,-0.0374907517238765,0.01020273140864107,4.715883464840274e-05,-1.190218091727232e-05,8.162185126912858e-08,5.648354462810096e-05,5.645244622250424e-05
314.9139495880255,230.0092993662127,12.5,0,14.83754744191187,-0.0395463229785733,0.01267211780506868,4.751178887250082e-05,-1.199658618706093e-05,1.013769424405495e-07,5.689921937067619e-05,5.685322740315894e-05
316.8442530564469,230.2416107175526,12.5,0,14.82128877811361,-0.03870837835104224,0.06717045671639373,4.745909079264437e-05,-1.198089783321422e-05,5.373636537311498e-07,5.683951291230099e-05,5.685386339534746e-05
315.1183112626517,232.2879878606384,12.5,0,14.98438104512717,-0.003280599893230818,0.009704309785873305,4.795264382432152e-05,-1.199800275576007e-05,7.763447828698644e-08,5.757318774064193e-05,5.742197453483358e-05
317.096830931415,232.2659808524846,12.5,0,14.98716050232246,0.00206362829508322,0.06163201662792803,4.79572627047958e-05,-1.19831247913137e-05,4.930561330234243e-07,5.760024731304932e-05,5.73961446064574e-05
318.2573332692976,230.4116744299013,12.5,0,14.81295045488693,-0.0008746074272436566,0.002632921435345367,4.740214114157997e-05,-1.185315910767672e-05,2.106337148276294e-08,5.692167912415635e-05,5.68517749950666e-05
320.1876367377191,230.6439857812412,12.5,0,14.7909846441017,-0.007114423828541216,0.07049085244415768,4.733684240018827e-05,-1.185555387153269e-05,5.639268195532614e-07,5.681865513936569e-05,5.684543338720397e-05
318.5452078526626,232.2498706043942,12.5,0,14.95381584442839,0.03443300715808117,-0.005871455893420412,4.782466429644437e-05,-1.185286705263685e-05,-4.697164714736329e-08,5.756993751088363e-05,5.736810042087605e-05
320.5237275214259,232.2278635962405,12.5,0,14.95549926903734,0.03415864722631712,0.05713075010001321,4.783027074313842e-05,-1.185509174410565e-05,4.570460008001057e-07,5.757575131199919e-05,5.731731220938385e-05
317.7587198647108,227.2278252614581,12.5,0,14.61047225172345,-0.01433419887564424,-0.05744763001414022,4.676497856461554e-05,-1.173424723778082e-05,-4.595810401131217e-07,5.610303121034849e-05,5.595456402858772e-05
319.6055104243935,227.9006289327307,12.5,0,14.55299427623263,-0.007264054090317273,0.004477719176888308,4.657539292721668e-05,-1.166564039407512e-05,3.582175341510646e-08,5.590336192083747e-05,5.604284749798151e-05
318.0465944480758,229.0660214359509,12.5,0,14.74832675812003,0.01744727266799151,-0.05873484780884262,4.71806878078497e-05,-1.174283013395845e-05,-4.698787824707409e-07,5.672900284747503e-05,5.647301906029272e-05
319.9416012081004,229.4845067477299,12.5,0,14.71829586693238,0.02969554243316974,-0.0005386834560231271,4.707479034023708e-05,-1.167961095775976e-05,-4.309467648185017e-09,5.665050861679552e-05,5.650394159701238e-05
124.2344088177892,74.18925831850203,12.5,0,-8.524316803827157,0.1150861541245689,2.01329266798869,-2.736988269554655e-05,7.187729136260345e-06,1.610634134390952e-05,2.524071618951846e-06,2.522480124674318e-06
126.2466926485523,74.45974282076138,12.5,0,-8.601904356956513,-0.01704781857581938,2.151939084444222,-2.751245568740018e-05,6.826970466122589e-06,1.721551267555377e-05,2.512800575213401e-06,2.539054073009377e-06
125.0295920373824,75.85323229547873,12.5,0,-8.17557181800977,0.2533387050130642,1.910492066870472,-2.636450078164171e-05,7.35114131044962e-06,1.528393653496378e-05,2.502945577448526e-06,2.483168266006277e-06
126.9241904983427,76.19281513334244,12.5,0,-8.279048269697618,0.1026157898016802,2.066278289006182,-2.657504709487372e-05,6.95160914312347e-06,1.653022631204946e-05,2.489060368267195e-06,2.497464570949006e-06
122.8571110801523,71.30717084795772,12.5,0,-8.975667714556071,0.09870587656234076,1.983032266991325,-2.88011013878293e-05,7.496392976644346e-06,1.58642581359306e-05,2.593557824305831e-06,2.596098990483671e-06
125.0732319507177,71.45797352223403,12.5,0,-9.029780199581067,-0.02626259061808245,2.120502194576404,-2.887428656616494e-05,7.139783869686988e-06,1.696401755661123e-05,2.579316701280205e-06,2.618478074720672e-06
123.6522942997455,72.97114482493441,12.5,0,-8.66025272569965,0.2226295839251944,1.890937138833728,-2.789091238937903e-05,7.640616849120341e-06,1.512749711066983e-05,2.573483028857662e-06,2.552739821097756e-06
125.7507298005081,73.19104583481509,12.5,0,-8.733709210285957,0.08260437444292457,2.042803274800956,-2.80139529724694e-05,7.251301366446123e-06,1.634242619840765e-05,2.556846194360649e-06,2.571479543617247e-06
119.0186771366881,71.04597295419862,12.5,0,-8.977027508553155,0.05019504026228949,2.00496115706098,-2.876664405957992e-05,7.342246135681849e-06,1.603968925648784e-05,2.572202698068564e-06,2.558093538547349e-06
121.2347980072536,71.19677562847491,12.5,0,-9.048026147349095,-0.1428029103398489,2.143455348477507,-2.883944134324522e-05,6.781451604791759e-06,1.714764278782006e-05,2.523114467833049e-06,2.579919002781206e-06
120.0176973960837,72.59026510319228,12.5,0,-8.669843071419294,0.2170192702754719,1.880598329943814,-2.791711324476212e-05,7.630336122016945e-06,1.504478663955051e-05,2.568248746459235e-06,2.520173699104833e-06
122.1161328968463,72.81016611307291,12.5,0,-8.762865510932109,-7.326665832030343e-05,2.036631639397638,-2.804111102165609e-05,7.010057955439061e-06,1.629305311518111e-05,2.510344030523146e-06,2.538992461494086e-06
120.7490309837208,73.7207654179373,12.5,0,-8.569243945122505,0.07456458487484996,2.025764426089236,-2.748123229229189e-05,7.094001827697522e-06,1.620611540871389e-05,2.512823499063359e-06,2.493604038748303e-06
122.7613148144839,73.99124992019662,12.5,0,-8.662005592891667,-0.1175633680524277,2.167955106925763,-2.762436720281139e-05,6.553401696545564e-06,1.734364085540611e-05,2.471266058896174e-06,2.510301824698475e-06
121.7480512431164,75.26505756693095,12.5,0,-8.22642402238348,0.2578126672517067,1.888596192450748,-2.65308070054285e-05,7.406139753112244e-06,1.510876953960598e-05,2.507643521058583e-06,2.458934216153841e-06
123.6426497040766,75.60464040479464,12.5,0,-8.348866151819843,0.03685612098377256,2.052218447973726,-2.674585658261051e-05,6.797032508603946e-06,1.641774758378981e-05,2.456721489979917e-06,2.472844088555149e-06
271.526462318685,228.4277658089652,12.5,0,15.50086348984256,0.1477567071482873,0.1869467060003241,4.948455780177756e-05,-1.192786932899953e-05,1.495573648002593e-06,6.001789700250779e-05,6.105279843879008e-05
273.4740894050547,228.376786627661,12.5,0,15.51765080518143,0.2465035589349269,0.06722006790314805,4.945927972943261e-05,-1.162530925555337e-05,5.377605432251844e-07,6.038134237672615e-05,6.031456325548803e-05
272.0844464032111,230.2159968381262,12.5,0,15.1982317033617,0.04502476275375411,0.2562201554346462,4.859832164055443e-05,-1.201450612187734e-05,2.04976124347717e-06,5.854480973058518e-05,5.965601237133242e-05
274.0395412604762,230.1694664922253,12.5,0,15.21574254958507,0.1437307500722258,0.1366846807045749,4.857539155861445e-05,-1.171265563943693e-05,1.093477445636599e-06,5.890916029256558e-05,5.910016669135257e-05
272.4929191028816,231.5250728070876,12.5,0,14.99276880074271,0.05846465470166962,0.2760761671049807,4.793008843861533e-05,-1.180712814554882e-05,2.208609336839845e-06,5.77966057352895e-05,5.868610102892291e-05
274.4534807478612,231.4817992347363,12.5,0,15.01158283878768,0.1616522878110005,0.1503987050726366,4.790774325387178e-05,-1.149197895003494e-05,1.203189640581093e-06,5.817932198868242e-05,5.825968179756781e-05
273.0509031874077,233.3133038362487,12.5,0,14.67766058587446,-0.04832693778304931,0.3479858581228275,4.700717542502472e-05,-1.189677466960533e-05,2.78388686498262e-06,5.626498475736958e-05,5.74330400299678e-05
275.0189326032826,233.2744790993006,12.5,0,14.6972199000509,0.05481679187012478,0.222510052478469,4.698725024666678e-05,-1.158236218605632e-05,1.780080419827752e-06,5.66483951563513e-05,5.717783092879156e-05
275.888711483296,231.4501207811514,12.5,0,14.96576443896684,0.0204615903233627,0.3109427311439109,4.787407693243519e-05,-1.190713446213871e-05,2.487541849151287e-06,5.757879327829e-05,5.802291842211099e-05
277.8492731282756,231.4068472088001,12.5,0,14.97922467857631,0.09702871297481508,0.2086253768611857,4.785589600106433e-05,-1.167288786134164e-05,1.669003014889486e-06,5.78597757906593e-05,5.780248808231907e-05
276.4596301264319,233.2460574192653,12.5,0,14.70869753543935,-0.06511074550027462,0.3677189003601722,4.711992070980612e-05,-1.197531241395235e-05,2.941751202881378e-06,5.633431108263177e-05,5.705492072717724e-05
278.4276595423069,233.2072326823172,12.5,0,14.72276886126314,0.01144000360183295,0.2655694821107179,4.710370835316058e-05,-1.174160707748464e-05,2.124555856885743e-06,5.661631063180573e-05,5.697433291276031e-05
274.8998513864141,228.3394672768196,12.5,0,15.38518923499088,0.07160720484215943,0.2540204075544725,4.917531978809709e-05,-1.20790083324978e-05,2.03216326043578e-06,5.934375445060851e-05,5.987151193200292e-05
276.8474784727839,228.2884880955154,12.5,0,15.3977178260857,0.1481636927066781,0.1537687158187389,4.91541660893089e-05,-1.184405044420719e-05,1.230149726549911e-06,5.962218083595443e-05,5.939930838913158e-05
275.4707700295501,230.1354039149335,12.5,0,15.1311742453934,-0.01340871216418016,0.310686099773568,4.843048455499023e-05,-1.21478472752401e-05,2.485488798188544e-06,5.81118467200269e-05,5.877762176082915e-05
277.4258648868151,230.0888735690326,12.5,0,15.14431223948513,0.06312992880499912,0.2105971857558697,4.841129522330841e-05,-1.19134340194121e-05,1.684777486046958e-06,5.839135880540688e-05,5.84522583028578e-05
229.7836917415495,117.0048234136321,12.5,0,-1.427281543460889,4.378562261045776,-1.54705620125655,-8.070150747911464e-06,1.515322447011519e-05,-1.23764496100524e-05,1.33844601264922e-05,1.328036489213754e-05
232.1672279465224,116.97394442479,12.5,0,-1.447586225777626,4.277506215988249,-1.394430164379283,-8.054280895279002e-06,1.48460888717845e-05,-1.115544131503426e-05,1.287484851251215e-05,1.332545718797272e-05
229.9935318687737,119.0944092698049,12.5,0,-1.025410449665415,4.488456737211674,-1.599643683621293,-6.872078828698666e-06,1.518338991880969e-05,-1.279714946897034e-05,1.483121594051634e-05,1.474170035834978e-05
232.300939022383,119.2168914725781,12.5,0,-1.074759338893112,4.375917756861242,-1.437657237210666,-6.93996408994695e-06,1.486274429307046e-05,-1.150125789768533e-05,1.419109505184691e-05,1.488918138992e-05
230.1471455033621,120.6240922832356,12.5,0,-0.7165500687515503,4.624549052539536,-1.62928712760413,-5.992599462036589e-06,1.537179702312775e-05,-1.303429702083304e-05,1.617943223784524e-05,1.587567899896644e-05
232.3988223234436,120.8588426701758,12.5,0,-0.7837379066503118,4.509018880290281,-1.478203159150163,-6.115176405513222e-06,1.505585074224915e-05,-1.18256252732013e-05,1.547932168182978e-05,1.610804199292097e-05
230.3569856305864,122.7136781394084,12.5,0,-0.3049257116820399,4.737799065079365,-1.685886158625072,-4.766001529446018e-06,1.54048975775996e-05,-1.348708926900057e-05,1.779229686036805e-05,1.751243079374852e-05
232.5325333993044,123.101789717964,12.5,0,-0.4057418148274454,4.60917216396452,-1.524558788859728,-4.985711538619441e-06,1.507394437654842e-05,-1.219647031087782e-05,1.693204485697432e-05,1.787430688585795e-05
234.0471641578984,121.0306918805052,12.5,0,-0.5380734046334645,4.568828308466617,-1.925106186442065,-5.376897541600379e-06,1.505070931079994e-05,-1.540084949153652e-05,1.665495276835896e-05,1.62715192675413e-05
236.2988409779799,121.2654422674455,12.5,0,-0.5993463157105574,4.472887608509644,-1.778681562583629,-5.496218297081498e-06,1.479271739979931e-05,-1.422945250066903e-05,1.603328092327313e-05,1.648578449375141e-05
234.1251449002313,123.3859071124604,12.5,0,-0.09476882814381593,4.682750524341341,-1.968003757624886,-4.049460669533283e-06,1.506061674040734e-05,-1.574403006099909e-05,1.836957675051486e-05,1.813002197118881e-05
236.3006926689494,123.774018691016,12.5,0,-0.1876945471808982,4.575864762424144,-1.813591842875033,-4.261314360918189e-06,1.479292287750197e-05,-1.450873474300026e-05,1.760379370072609e-05,1.846677248449479e-05
233.9120975501682,116.9513394360722,12.5,0,-1.379957871927575,4.27436751443926,-1.802215796222072,-7.835359201719647e-06,1.478194234374769e-05,-1.441772636977658e-05,1.330011349802613e-05,1.334419927459328e-05
236.2956337551411,116.92046044723,12.5,0,-1.406522876107531,4.146823339964252,-1.638550799267389,-7.818331875515498e-06,1.439505298877163e-05,-1.310840639413911e-05,1.266108368088329e-05,1.335031131164749e-05
233.9900782925012,119.3065546680273,12.5,0,-0.901645073945885,4.398305496020408,-1.860810748299834,-6.403908633443158e-06,1.479589364642201e-05,-1.488648598639867e-05,1.499957314406356e-05,1.49891619409099e-05
236.2974854461105,119.4290368708005,12.5,0,-0.9591011128312539,4.258769916288428,-1.688060933186924,-6.476139494090755e-06,1.439534462238797e-05,-1.350448746549539e-05,1.421905036364669e-05,1.511483285442445e-05
182.3060392565031,163.4853826294675,12.5,0,7.437050081300611,4.328616983274548,1.090508540778578,2.033566667354231e-05,7.901934281438067e-06,8.72406832622862e-06,4.295836319940019e-05,4.292174825096347e-05
183.8704556760632,162.6115007460891,12.5,0,7.570872752112403,4.262436776579438,1.175920771630679,2.081684338549614e-05,7.58309948336428e-06,9.407366173045431e-06,4.324128514269009e-05,4.30735571241786e-05
183.5142792081454,165.0637343492568,12.5,0,7.744523738187047,4.481757781806527,0.9682276862877059,2.119706973675333e-05,8.146005911231248e-06,7.745821490301647e-06,4.461850334787698e-05,4.497920879055356e-05
185.0723212246436,164.1769968828939,12.5,0,7.880390521911797,4.416803039437964,1.052610556704264,2.168380723856737e-05,7.829457308672046e-06,8.420884453634115e-06,4.491144061331031e-05,4.514657565215906e-05
184.3987722404445,166.2191680003072,12.5,0,8.112091266571365,4.663945548730402,0.9697113885754246,2.222753561404405e-05,8.434952742680194e-06,7.757691108603397e-06,4.662357494056859e-05,4.652481759884366e-05
185.9521478700337,165.3230195940392,12.5,0,8.252357791673466,4.592529355372031,1.054773162212083,2.273352144905746e-05,8.094207703851725e-06,8.438185297696664e-06,4.691031247054058e-05,4.67041566179135e-05
185.6070121920867,167.7975197200966,12.5,0,8.428426864323651,4.825124574986454,0.842289760646578,2.311086630584652e-05,8.697657148497729e-06,6.738318085172624e-06,4.834880037321905e-05,4.869003885230765e-05
187.154013418614,166.8885157308441,12.5,0,8.570786718558264,4.754997435056368,0.9262879276462276,2.362251955134135e-05,8.359362417333766e-06,7.41030342116982e-06,4.864608342939365e-05,4.888652842545731e-05
187.089297754084,164.6669934295571,12.5,0,7.858197622496123,5.03348152652009,0.9770247386675499,2.111944717077152e-05,9.820582786867387e-06,7.816197909340399e-06,4.697315085766288e-05,4.681275484194758e-05
188.6426733836732,163.7708450232891,12.5,0,7.984693570511703,4.933161444343211,1.051673292318859,2.160449027016288e-05,9.398361765488911e-06,8.413386338550875e-06,4.710158112049884e-05,4.693011168856318e-05
188.2864969157553,166.2230786264569,12.5,0,8.163316564115839,5.210545317276264,0.8443496689799289,2.195417675134967e-05,1.014309176399137e-05,6.754797351839431e-06,4.871103903726278e-05,4.900442375301828e-05
189.8334981422827,165.3140746372044,12.5,0,8.29187137212366,5.111693962982388,0.9178985181694728,2.24446332204098e-05,9.723923583844713e-06,7.343188145355782e-06,4.885062063602194e-05,4.913003020475384e-05
185.0156879793276,161.9717748076693,12.5,0,7.204996848873642,4.683612883520499,1.101398064365055,1.930909960957925e-05,9.223563748166682e-06,8.81118451492044e-06,4.334064590545582e-05,4.316762862233031e-05
186.5801043988877,161.0978929242909,12.5,0,7.320946898722638,4.586142292896045,1.173620554161344,1.97581162415956e-05,8.818897818289233e-06,9.388964433290755e-06,4.344105934564324e-05,4.327282786162068e-05
186.2128871409989,163.5278600045691,12.5,0,7.49470608923991,4.851949803257909,0.9753281253727148,2.010149964296138e-05,9.530474499033379e-06,7.802625002981719e-06,4.498668071465137e-05,4.52487903003425e-05
187.7709291574972,162.6411225382062,12.5,0,7.612622946175677,4.755882688692082,1.046500756640448,2.05556872768085e-05,9.128726246874119e-06,8.372006053123586e-06,4.509759418816103e-05,4.536067905086382e-05
234.1327859325635,226.3352693200335,12.5,0.8620801607020694,15.88322597390983,10.14094796215107,-4.211618086258858,0.0003096984811193257,0.0001431589015783591,-0.0002442936771213045,0.0006910270530255872,0.0006081114915986969
236.1220160442192,226.08051574874,12.5,0.8627638532172089,15.68029592484936,8.912674651814367,-3.717562873951586,0.000313669599789903,0.000116414825980307,-0.0002167104198770906,0.0006568252389460164,0.0006106126395878559
235.2699270671837,227.9494086433903,12.5,0.8741860027443072,15.73788968750432,10.18058550974623,-4.478991998005914,0.0003355491401041757,0.0001588659633837372,-0.0002848008708540258,0.0007549928243601989,0.0006557359023894903
237.2241574919449,227.7094696595971,12.5,0.8734824083241917,15.70148545919806,9.122846894299142,-4.054721093071962,0.0003394506280521173,0.0001314593605055085,-0.0002563893946676997,0.0007196040410163953,0.0006527604159809509
232.1631997120601,223.5394980015349,12.5,0.8384395788225031,16.11722401476719,10.19877889720457,-4.107088356268461,0.0002687297632245748,0.0001221977085436733,-0.0002033710150708877,0.0005963282123883184,0.0005328244570552271
234.213051059665,223.259084811998,12.5,0.841417672557711,15.75945981169239,9.043486321153035,-3.553779661302731,0.0002723852212108116,0.0001029849204620809,-0.0001792774626842839,0.0005728567211571435,0.000541250652659659
233.3003408466803,225.1536373248917,12.5,0.8525126370728391,15.90955330682324,10.11366602913129,-4.316125096113,0.0002903275027005298,0.0001331374312893447,-0.0002341149782843206,0.0006464205702374577,0.0005751774690818639
235.3151925073907,224.8880387228552,12.5,0.8542041847839265,15.66336321545076,9.085558982377396,-3.815300889282409,0.0002939337801982122,0.0001134675789337966,-0.0002093503648854681,0.0006221295160778357,0.0005807336885586601
228.6127530301088,224.0251878929164,12.5,0.819567415082076,16.37700141985633,10.55559002447224,-4.255509934288173,0.000243647412932426,0.0001145928655394003,-0.0001886803289427545,0.0005464189060189098,0.0004850460279636881
230.6626043777136,223.7447747033796,12.5,0.8328718828386737,15.19688338371729,9.088095244319357,-3.395715742019913,0.0002474721269821766,0.0001012660129385126,-0.0001625443186794035,0.0005317594056189603,0.0005177644732575161
229.8105154006782,225.6136675980298,12.5,0.8360920791854933,16.20167932097973,10.3295152392719,-4.426663498034586,0.000265891736159833,0.000122587762745313,-0.0002160561113111407,0.0005930405849457351,0.0005263677139151447
231.8253670613885,225.3480689959934,12.5,0.8479158481396182,15.0513177011222,8.940264404816007,-3.597161389161202,0.000269666527498464,0.0001089383195543164,-0.0001892195259089724,0.0005777708803277797,0.0005606101500808564
230.6873383112918,226.7765154489155,12.5,0.8474338563060372,16.2236867775417,10.50927971211216,-4.367492131368866,0.0002851771229514623,0.0001353560177685916,-0.0002290150108338455,0.0006416637765422179,0.0005591260106459548
232.6765684229475,226.521761877622,12.5,0.8582037266144937,15.08759854242166,9.043302794483733,-3.502348457130853,0.0002894693359716871,0.0001189628592180959,-0.0001975989000844275,0.0006229918925693946,0.0005943156909531429
231.8851006818613,228.3649951540289,12.5,0.8618575615614531,16.07317300788109,10.29945659791101,-4.545009922698332,0.0003126815252078089,0.0001454999849011046,-0.000263207163508711,0.0006997181822030103,0.0006073016557362939
233.8393311066225,228.1250561702358,12.5,0.8712636548317183,14.97948927831987,8.922220688657859,-3.715811261284184,0.0003169003212447018,0.000128693375281025,-0.0002309098495177533,0.0006802524879080611,0.0006435552642933937
254.4943516939597,197.49260251059,12.5,0,17.10659197899872,5.772752103008858,-2.841466939358417,5.012289265038882e-05,4.787533146429369e-06,-2.273173551486734e-05,8.45686725519333e-05,8.788500397580745e-05
256.3682892801054,198.0851010769435,12.5,0,16.86123218693513,5.286594535079217,-2.631093425592887,4.972666737012904e-05,3.428116762705389e-06,-2.10487474047431e-05,8.197402218274595e-05,8.461463988097161e-05
253.9278606278914,199.2491436297723,12.5,0,17.46582555007396,5.733446217476478,-2.953997530425704,5.130388478625549e-05,4.374367455865563e-06,-2.363198024340563e-05,8.582006228215945e-05,9.122965570759577e-05
255.8067656156762,199.8656076688944,12.5,0,17.21786418005598,5.250672491414717,-2.743615660366855,5.089662738304735e-05,3.027860628482308e-06,-2.194892528293484e-05,8.322872660331489e-05,8.724433138066312e-05
253.5131603855132,200.535020974543,12.5,0,17.40172776188194,6.178768352127965,-2.632846492766532,5.074251415631984e-05,5.850676517303935e-06,-2.106277194213226e-05,8.700095890440278e-05,9.430066277686952e-05
255.3957017636791,201.1690289573583,12.5,0,17.17903989751667,5.661954628596229,-2.459692367364055,5.044336396917636e-05,4.375022893494593e-06,-1.967753893891244e-05,8.439449376561422e-05,8.955975090023654e-05
252.946669319445,202.2915620937252,12.5,0,17.64226787623018,6.099397532296621,-2.772285227842599,5.157573917809926e-05,5.404257802365045e-06,-2.217828182274079e-05,8.767160131165132e-05,9.9346158389097e-05
254.8341780992498,202.9495355493092,12.5,0,17.41820519044064,5.58656664531571,-2.598597578270807,5.126900329315747e-05,3.942449112657759e-06,-2.078878062616646e-05,8.507505448145729e-05,9.325590316912525e-05
256.7738176997887,201.6331550131637,12.5,0,17.36465999324524,5.070027580167944,-2.61776709060621,5.151088991425042e-05,2.332360261941228e-06,-2.094213672484968e-05,8.315955440995635e-05,8.654563902360681e-05
258.6563590779544,202.267162995979,12.5,0,17.08454998838097,4.481394120507154,-2.389996249007613,5.108544466641337e-05,6.728211949181195e-07,-1.911996999206091e-05,8.010802677904728e-05,8.305184411324048e-05
256.2159304257405,203.4312055488078,12.5,0,17.7277536817357,5.006309592135059,-2.76989485799219,5.272376410784619e-05,1.837987749443628e-06,-2.215915886393752e-05,8.435720227080656e-05,8.947281296610906e-05
258.1034392055452,204.0891790043917,12.5,0,17.44527944255629,4.42183128536441,-2.541780955671173,5.228742918788861e-05,1.936365591210777e-07,-2.033424764536938e-05,8.131277897030957e-05,8.52274735413851e-05
257.7401068033188,198.5188401309076,12.5,0,16.99959903468778,4.745633304641341,-2.775191366959632,5.060221026728781e-05,1.586347347102071e-06,-2.220153093567706e-05,8.073640674386786e-05,8.245765870795006e-05
259.6140443894647,199.1113386972612,12.5,0,16.75927321431643,4.26819463082735,-2.569372314156077,5.02151185811507e-05,2.508042471943738e-07,-2.055497851324861e-05,7.820815117331378e-05,7.983504064687089e-05
257.1822195292706,200.3168906665517,12.5,0,17.35992709153003,4.710808077902192,-2.890419357138283,5.178312023057432e-05,1.186644176062995e-06,-2.312335485710627e-05,8.201391165878037e-05,8.466593410541184e-05
259.0611245170554,200.9333547056738,12.5,0,17.11700790373174,4.236586293766267,-2.684535053465594,5.138515625692855e-05,-1.365301829333362e-07,-2.147628042772475e-05,7.948812318383035e-05,8.160694607396135e-05
253.5400808465375,143.7097971242829,12.5,0,4.680502729155811,4.803047030880689,-3.753475300469639,1.113517110859404e-05,1.162534831549355e-05,-3.002780240375712e-05,3.570816991825745e-05,3.484069657343403e-05
255.8158677180336,144.2236451066756,12.5,0,4.439407624065558,4.346604263457515,-3.492733981662707,1.072882098624377e-05,1.03576075438116e-05,-2.794187185330165e-05,3.309195974251252e-05,3.485804751667553e-05
253.8934077325646,145.8092760746198,12.5,0,5.247902801980707,5.006142621530516,-3.933822267768324,1.278837486911385e-05,1.182133414731308e-05,-3.147057814214659e-05,3.852761286942067e-05,3.67560649078093e-05
256.1792810228513,146.325682167823,12.5,0,5.007787723645587,4.551675769223037,-3.674200783215309,1.238358010028745e-05,1.055913228259725e-05,-2.939360626572247e-05,3.592583056490196e-05,3.673075195364216e-05
254.1520609648055,147.3462013356224,12.5,0,5.513461275921047,4.880737887466288,-3.888379242409192,1.373848577297432e-05,1.120759221915528e-05,-3.110703393927354e-05,3.89970900131612e-05,3.816128987599814e-05
256.4453180261131,147.8644800959103,12.5,0,5.258067384128931,4.395299940526307,-3.613039542107294,1.330957567679153e-05,9.858505902381035e-06,-2.890431633685835e-05,3.622759963977436e-05,3.810238302247253e-05
254.5053878508326,149.4456802859593,12.5,0,6.10741790921966,5.093908060810307,-4.078509772621221,1.546861086085467e-05,1.141457146721725e-05,-3.262807818096977e-05,4.196543321923309e-05,4.00850675509424e-05
256.8087313309307,149.9665171570577,12.5,0,5.853055306333931,4.610556075747184,-3.804343722128714,1.504133211967083e-05,1.007133519732384e-05,-3.043474977702972e-05,3.921138811980824e-05,3.997704435494979e-05
258.1240987097349,148.2438864809087,12.5,0,5.820646374750567,4.476471997822273,-4.027725215562306,1.5044890800944e-05,9.668193293230817e-06,-3.222180172449845e-05,3.877644825777584e-05,3.803411966267453e-05
260.4173557710425,148.7621652411965,12.5,0,5.561925411399846,3.98753712991838,-3.747803294435679,1.46081316125448e-05,8.310578486618939e-06,-2.998242635548543e-05,3.598978279508342e-05,3.790652754892875e-05
258.4948957855734,150.3477962091407,12.5,0,6.427364068871841,4.696459757582145,-4.221652868644941,1.681039721432417e-05,9.886779969165392e-06,-3.377322294915953e-05,4.182184877137951e-05,3.987207113955932e-05
260.7982392656716,150.8686330802391,12.5,0,6.169686891234345,4.209624653419223,-3.942923758685427,1.637529832921453e-05,8.535049377954036e-06,-3.154339006948342e-05,3.90504504734655e-05,3.969330217765912e-05
257.4818593350961,144.5998079371379,12.5,0,4.989914892701884,4.44009472623426,-3.912328118395585,1.241565187565862e-05,1.021637120978813e-05,-3.129862494716468e-05,3.563636468635859e-05,3.484700283210593e-05
259.7576462065922,145.1136559195306,12.5,0,4.743896150667496,3.975519917435213,-3.645842588354892,1.200005174818781e-05,8.926546815258684e-06,-2.916674070683914e-05,3.297886895005143e-05,3.479947724946541e-05
257.8526564109347,146.7037176653699,12.5,0,5.572155435034312,4.651048407543506,-4.098073998865805,1.411005866607499e-05,1.042563055611177e-05,-3.278459199092644e-05,3.85453685288651e-05,3.668765666782307e-05
260.1385297012214,147.2201237585731,12.5,0,5.327136044275359,4.18848364874251,-3.832732501949233,1.369604842268714e-05,9.141438840555745e-06,-3.066186001559387e-05,3.590240857859473e-05,3.659523111156075e-05
123.6645927990318,86.78462187924882,12.5,0,-6.552655645325626,0.08273658949544727,2.109985065416931,-2.103468733663836e-05,5.506881602645932e-06,1.687988052333544e-05,2.186818436839867e-06,2.172139752066952e-06
125.4154196731148,86.11136213141687,12.5,0,-6.516950095125519,-0.01695490484149542,2.156344200285303,-2.084067638052846e-05,5.159304380607629e-06,1.725075360228242e-05,2.142176266078787e-06,2.214569283476977e-06
124.8848690379512,88.38581491934099,12.5,0,-6.372750010310716,0.2059899903989102,2.023450855327069,-2.055759202531342e-05,5.757367977525085e-06,1.618760684261655e-05,2.193868698228276e-06,2.149384668311734e-06
126.6622052573493,87.76210323610646,12.5,0,-6.34194118282879,0.1023411144662836,2.072473691612542,-2.037608467662515e-05,5.401044512555139e-06,1.657978953290034e-05,2.146305829816791e-06,2.192112503530901e-06
125.7781732440713,89.55796957736429,12.5,0,-6.106252092538456,0.1316462541675087,2.129455996271987,-1.964532369945706e-05,5.306269687366792e-06,1.70356479701759e-05,2.159507822716254e-06,2.135677760051831e-06
127.5749156511147,88.97052959483023,12.5,0,-6.081302434868366,0.001063449249352866,2.182027204826993,-1.946101855097825e-05,4.868444985492622e-06,1.745621763861595e-05,2.100799106748753e-06,2.178737907133551e-06
126.9984494829907,91.15916261745646,12.5,0,-5.90742657881459,0.2774618514331217,2.029514225277733,-1.912573453335319e-05,5.613819187637661e-06,1.623611380222186e-05,2.173534408243446e-06,2.120984874024719e-06
128.8217012353492,90.62127069951978,12.5,0,-5.888005526431648,0.1420956646742297,2.085183179162855,-1.895529421632066e-05,5.165110548102853e-06,1.668146543330285e-05,2.109958432764854e-06,2.164654610189788e-06
128.8902223811281,88.5404936812362,12.5,0,-6.281239025685331,0.2193357577694661,2.116837684102975,-2.027543348840863e-05,5.726865645410556e-06,1.69347014728238e-05,2.237168930360264e-06,2.210235494219606e-06
130.6869647881716,87.95305369870213,12.5,0,-6.254147865293779,0.1038240427810213,2.169320215568207,-2.009633240316491e-05,5.335555229134291e-06,1.735456172454566e-05,2.185128536978367e-06,2.253228355376471e-06
130.1564141530079,90.22750648662623,12.5,0,-6.080465571271527,0.3585173672914499,2.019582126099473,-1.974430372190205e-05,6.01162803234986e-06,1.615665700879578e-05,2.250411336795717e-06,2.196428686378913e-06
131.9796659053665,89.68961456868956,12.5,0,-6.058686407124556,0.2386966990264798,2.07494389218515,-1.957875386201976e-05,5.61077856258438e-06,1.65995511374812e-05,2.19416681467016e-06,2.239567340729791e-06
126.6971139001461,85.61850178933385,12.5,0,-6.763355017521461,0.1311916132569853,2.124840952020407,-2.174768934667426e-05,5.830497176439521e-06,1.699872761616326e-05,2.2597989633118e-06,2.245462239991496e-06
128.4479407742292,84.94524204150193,12.5,0,-6.737051853881378,-0.01597474705284085,2.166824783684943,-2.154578613477814e-05,5.338522292536012e-06,1.733459826947954e-05,2.1836667903436e-06,2.287433835378738e-06
127.9633056720259,87.30551459472389,12.5,0,-6.558648431984003,0.2971528803060397,2.014666601539194,-2.122539728659364e-05,6.19780796256653e-06,1.611733281231355e-05,2.280969590849619e-06,2.223373995311717e-06
129.7406418914241,86.68180291148937,12.5,0,-6.537724013843489,0.1448460369926647,2.059805127957334,-2.10365936738933e-05,5.693686529451318e-06,1.647844102365867e-05,2.198991299623207e-06,2.266054143961766e-06
249.4105593709094,104.4049733066667,12.5,0,-3.215867185277586,3.151124056589227,-2.375198117550635,-1.281167423815966e-05,1.265629072930759e-05,-1.900158494040508e-05,7.13617145597453e-06,7.106065908510801e-06
251.5483097732723,104.6411222409408,12.5,0,-3.324406885000291,2.888364319491851,-2.209626812256415,-1.294879348759441e-05,1.190229133037415e-05,-1.767701449805132e-05,6.220528877544823e-06,7.171983341271714e-06
249.9161320987155,106.4996987023973,12.5,0,-2.783593531074169,3.316505734441113,-2.50792491248038,-1.156070388699023e-05,1.283969317507089e-05,-2.006339929984304e-05,8.234125320070393e-06,7.848378555674062e-06
252.0343265199864,106.7650088969012,12.5,0,-2.900140466320016,3.047862223911572,-2.33820916248703,-1.171873927135331e-05,1.207327148957304e-05,-1.870567329989624e-05,7.178179527836969e-06,7.932894790870026e-06
248.5348817194437,100.7768024934219,12.5,0,-3.895945474268808,3.002040569037686,-2.249305136480507,-1.486865797289033e-05,1.272328620033564e-05,-1.799444109184406e-05,6.084199015720109e-06,6.075647918673921e-06
250.7065040746491,100.9624426433659,12.5,0,-3.991056733320471,2.753738857516598,-2.087046269688936,-1.497437263263878e-05,1.200480973070949e-05,-1.669637015751149e-05,5.358554037362568e-06,6.11640629177276e-06
249.0404544472498,102.8715278891524,12.5,0,-3.472910417359978,3.161527905274387,-2.375341338943211,-1.364253565977144e-05,1.289521763076602e-05,-1.900273071154569e-05,6.910226664995351e-06,6.631064165943487e-06
251.1925208213633,103.0863292993263,12.5,0,-3.575549937932397,2.907738226374065,-2.209169179261507,-1.376795038248292e-05,1.216520227474292e-05,-1.767335343409206e-05,6.063307104756011e-06,6.685256714893328e-06
244.7735214654429,100.4552643217999,12.5,0,-4.035938972171227,3.09396683853296,-2.059487319278777,-1.539017818177429e-05,1.312944506104245e-05,-1.647589855423022e-05,6.015826857804706e-06,5.998691747571496e-06
246.9451438206484,100.640904471744,12.5,0,-4.133821278492936,2.834362891420534,-1.897120745334371,-1.549571840431382e-05,1.237701827534006e-05,-1.517696596267497e-05,5.283323703945405e-06,6.044106401618775e-06
245.3129661460916,102.4994809332004,12.5,0,-3.621430452516353,3.257675240400495,-2.189991604219623,-1.419471764037273e-05,1.332170513129467e-05,-1.751993283375698e-05,6.819485852022806e-06,6.532366329081652e-06
247.4650325202052,102.7142823433743,12.5,0,-3.726945961729514,2.992227330337299,-2.023537266752765,-1.432000894180429e-05,1.255668422646297e-05,-1.618829813402212e-05,5.962774652140538e-06,6.590097310536041e-06
245.7078670601824,103.9959513543582,12.5,0,-3.375817744653527,3.245243849331313,-2.18271537582573,-1.339881186235634e-05,1.308543451358302e-05,-1.746172300660584e-05,7.008600976481913e-06,6.988322167560631e-06
247.8456174625454,104.2321002886322,12.5,0,-3.484516447613214,2.979717168524742,-2.018952601651823,-1.353422636718208e-05,1.232270809736974e-05,-1.615162081321459e-05,6.109954905256155e-06,7.056854045335496e-06
246.2473117408311,106.0401679657586,12.5,0,-2.95712405683502,3.411825661170721,-2.31635513464986,-1.219225751080864e-05,1.328354136121432e-05,-1.853084107719888e-05,8.055790293735797e-06,7.700342102835674e-06
248.3655061621021,106.3054781602626,12.5,0,-3.073836626098272,3.140199671637641,-2.148344239063897,-1.234843694082458e-05,1.250770825011907e-05,-1.718675391251118e-05,7.017151591110787e-06,7.78606625071951e-06
194.0005120242913,78.88233226050153,12.5,0,-8.295823088948287,1.890037294007077,0.6927964859260343,-2.805866371984018e-05,1.268477781198128e-05,5.542371887408274e-06,3.473394633425624e-06,3.457902353858829e-06
196.1495278781836,78.99536605484289,12.5,0,-8.33664147635757,1.800309431896844,0.8342957801036964,-2.81175002698617e-05,1.243030336315595e-05,6.674366240829572e-06,3.421745795516013e-06,3.485476429717145e-06
194.4769845132684,80.91808990269257,12.5,0,-7.929649987857319,1.999618731773315,0.6302522287397652,-2.697457494656207e-05,1.274249993196046e-05,5.042017829918121e-06,3.501112431305727e-06,3.475829921276695e-06
196.5734851863112,81.02517675684257,12.5,0,-7.970882151966424,1.907850915416988,0.7751477441596309,-2.703310361862614e-05,1.24818286509075e-05,6.201181953277048e-06,3.442990997021633e-06,3.504684134157594e-06
193.1752374649887,75.35629659239335,12.5,0,-8.907880442317362,1.740732941212544,0.6978614599418843,-2.989780376838559e-05,1.269664976573403e-05,5.582891679535074e-06,3.460291209847974e-06,3.449761596506957e-06
195.4152122802795,75.47963078929557,12.5,0,-8.949217976946018,1.65587935373325,0.8456991605797082,-2.996220100921385e-05,1.245818831350321e-05,6.765593284637666e-06,3.418052113542577e-06,3.475477656870726e-06
193.651709953966,77.39205423458441,12.5,0,-8.541411214616705,1.848551976354259,0.6383867406395567,-2.881135746785686e-05,1.274849529602699e-05,5.107093925116454e-06,3.474832930710997e-06,3.450917367288963e-06
195.8391695884072,77.50944149129525,12.5,0,-8.583157381699277,1.761854991011934,0.7896362566726824,-2.887558761424723e-05,1.250446187659761e-05,6.31709005338146e-06,3.427472294184213e-06,3.477650577714614e-06
189.2954872773,75.14267549705184,12.5,0,-8.913689205066108,1.662479130715502,0.8527045953992153,-2.985378876078394e-05,1.245088458234249e-05,6.821636763193722e-06,3.417631526866925e-06,3.402246292367519e-06
191.5354620925908,75.26600969395406,12.5,0,-8.962822934389973,1.545270698992735,0.9990869066102941,-2.99172499492421e-05,1.211512458428873e-05,7.992695252882352e-06,3.355045969253958e-06,3.430139311528305e-06
189.8629187276757,77.18873354180374,12.5,0,-8.547775394278037,1.781123378715481,0.7762214929448016,-2.87777799646621e-05,1.253781512731197e-05,6.209771943558413e-06,3.435557221325576e-06,3.401705105722461e-06
192.050378362117,77.3061207985146,12.5,0,-8.597501832282797,1.661328428502643,0.9259455819896436,-2.884106860610706e-05,1.219425243703469e-05,7.407564655917149e-06,3.365779139799468e-06,3.430567839400499e-06
190.2783073791455,78.6865519857335,12.5,0,-8.309287112453315,1.811519030609625,0.839991109878138,-2.803893398433831e-05,1.244429058791345e-05,6.719928879025104e-06,3.42783057148058e-06,3.407073251373001e-06
192.4273232330379,78.79958578007488,12.5,0,-8.354504914459916,1.70355158632976,0.9806305744321144,-2.809725699533553e-05,1.213496900782316e-05,7.845044595456915e-06,3.366323066844884e-06,3.436894285538136e-06
190.8457388295212,80.73261003048542,12.5,0,-7.942325888992482,1.929369312146852,0.7648926371963587,-2.695893829449342e-05,1.252784251006391e-05,6.11914109757087e-06,3.456713015706433e-06,3.422280484678388e-06
192.942239502564,80.8396968846354,12.5,0,-7.988063477494868,1.818931425016562,0.9088772404117803,-2.701694826799683e-05,1.221103134204889e-05,7.271017923294243e-06,3.387497976894715e-06,3.453749929946051e-06
176.0102017860241,139.6659756841801,12.5,0,2.547938475772388,3.213717815451084,1.626660757389383,5.582428870110772e-06,8.245546228825558e-06,1.301328605911507e-05,2.13284669479631e-05,2.114920668053879e-05
177.6065678873445,138.7014546307874,12.5,0,2.603879906842117,3.073054911915989,1.649601597779394,5.873971772361981e-06,7.750671792657472e-06,1.319681278223515e-05,2.103024953313267e-05,2.094625537958898e-05
177.2789037831258,141.1867533091141,12.5,0,2.731415696329523,3.38082465294597,1.521245166772884,6.035870505897698e-06,8.633506332363485e-06,1.216996133418307e-05,2.252792366155228e-05,2.271043573033759e-05
178.8931995043531,140.2082015065263,12.5,0,2.786927867270793,3.242110185854284,1.543760146383998,6.324481026583111e-06,8.145210300917072e-06,1.235008117107198e-05,2.223310322992744e-05,2.250723622604333e-05
173.8127454674195,137.0319115708278,12.5,0,2.038742326588668,2.964352474932887,1.686256014728992,4.152493465137429e-06,7.854934058514301e-06,1.349004811783194e-05,1.869038656952166e-05,1.854213275732475e-05
175.378056556101,136.091692487909,12.5,0,2.089981492775673,2.828859042874827,1.707303490876303,4.424853542582291e-06,7.380363742978907e-06,1.365842792701043e-05,1.839239338749083e-05,1.834273537895629e-05
175.0814474645211,138.5526891957618,12.5,0,2.21516034150133,3.126991687732595,1.584119295451722,4.58691974261818e-06,8.234245127543239e-06,1.267295436361377e-05,1.983236148861042e-05,2.003231326514652e-05
176.6646881731097,137.5984393636478,12.5,0,2.266009651193174,2.993417995924814,1.604759958419931,4.856496487078306e-06,7.766129866004865e-06,1.283807966735945e-05,1.953746559534374e-05,1.983038074076801e-05
171.1015471322208,138.6604187926598,12.5,0,2.319934994217363,2.75639203237172,1.717753462700645,5.218678355598185e-06,6.964506508215615e-06,1.374202770160516e-05,1.893857311525806e-05,1.884027826872329e-05
172.6668582209023,137.720199709741,12.5,0,2.385458192824363,2.645401718657663,1.749263030750151,5.51714484211183e-06,6.556918945445031e-06,1.399410424600121e-05,1.879156602925695e-05,1.867544897283351e-05
172.3391941166836,140.2054983880676,12.5,0,2.507649602486222,2.902636392049998,1.619728052417391,5.702369614315914e-06,7.282316772571013e-06,1.295782441933913e-05,2.006522576410683e-05,2.033049448021099e-05
173.9224348252722,139.2512485559536,12.5,0,2.572622090772891,2.793233152744968,1.650707422218474,5.997804168277274e-06,6.880248416165583e-06,1.320565937774779e-05,1.991963398837977e-05,2.01663183377498e-05
173.2452145911063,141.336575153596,12.5,0,2.839359289878308,2.991119169063774,1.661149426108202,6.693054392359566e-06,7.30009390910143e-06,1.328919540886562e-05,2.157452329667603e-05,2.144611487449948e-05
174.8415806924266,140.3720541002033,12.5,0,2.908944125523383,2.875026032712662,1.694169833502357,7.008600375504696e-06,6.872928004261812e-06,1.355335866801885e-05,2.142503894212806e-05,2.128314362852492e-05
174.4828615755691,142.8816547490038,12.5,0,3.032794706609004,3.1415696380821,1.560241753922198,7.191687350683131e-06,7.626787076575516e-06,1.248193403137758e-05,2.275234965000098e-05,2.300383026229753e-05
176.0971572967965,141.903102946416,12.5,0,3.101798872123352,3.027098049138154,1.592720770139612,7.504077951484204e-06,7.20527465954341e-06,1.27417661611169e-05,2.260449446498075e-05,2.284349770131387e-05
279.1249495272015,138.564778505723,12.5,0,4.068749017724375,2.408373859482167,-4.064221192357826,1.109329776913227e-05,4.451797136163435e-06,-3.251376953886261e-05,2.571161212958536e-05,2.541497690731745e-05
280.9452123143881,138.8287919853054,12.5,0,3.936034150185372,2.132040820020437,-3.874628859788852,1.088967662457684e-05,3.673703303917102e-06,-3.099703087831081e-05,2.41791885141199e-05,2.521734164023054e-05
279.3376426305206,140.2264320267392,12.5,0,4.437751068830487,2.52473891285391,-4.156982168241219,1.218101228997443e-05,4.528963666068121e-06,-3.325585734592976e-05,2.745101418933746e-05,2.655798155535073e-05
281.2932216017315,140.3792731330722,12.5,0,4.345599494642658,2.28075753619284,-3.990619193954567,1.208131235390223e-05,3.821944520102961e-06,-3.192495355163654e-05,2.618548200296777e-05,2.624531728735019e-05
278.7565542658401,135.6867101827987,12.5,0,3.545208975604949,2.435607212389521,-4.04187732335582,9.39618295202422e-06,4.957775899162506e-06,-3.233501858684656e-05,2.399251474652013e-05,2.342362742826025e-05
280.3424425472144,136.143279861244,12.5,0,3.380879136164857,2.217811598207816,-3.868859426447297,9.044563957161288e-06,4.392293805333125e-06,-3.095087541157837e-05,2.255621340208173e-05,2.344335568468999e-05
278.9692473691591,137.348363703815,12.5,0,3.902504642127854,2.544492784996126,-4.119906998996761,1.045242062681223e-05,5.02037319828532e-06,-3.295925599197409e-05,2.563809523654113e-05,2.457512925019654e-05
280.6904518345577,137.6937610090107,12.5,0,3.787577676029838,2.358106047964186,-3.971049214954235,1.023376372492413e-05,4.515877212661525e-06,-3.176839371963388e-05,2.449418089033403e-05,2.446655829159809e-05
276.009715187421,134.8959083025503,12.5,0,3.334393406835304,2.609162720972797,-3.998462882636963,8.582728725094733e-06,5.681805981644708e-06,-3.19877030610957e-05,2.380257897779545e-05,2.335410988842958e-05
277.5956034687953,135.3524779809956,12.5,0,3.175277852830462,2.395310111460152,-3.831624039281198,8.244641039889354e-06,5.124770074408118e-06,-3.065299231424959e-05,2.240002207138712e-05,2.339971408922514e-05
275.9880337849278,136.7501180224294,12.5,0,3.721917461920153,2.704025882349502,-4.06578856554699,9.746915172264886e-06,5.675348853982284e-06,-3.252630852437592e-05,2.549091434278272e-05,2.470556000844669e-05
277.7092382503265,137.0955153276251,12.5,0,3.607317205617304,2.515749141457058,-3.918365587024303,9.530815744809726e-06,5.164543488168742e-06,-3.134692469619442e-05,2.43404944436964e-05,2.463916956721378e-05
275.9721618967241,138.1074937452112,12.5,0,3.948848028095845,2.629921768191791,-4.063059152194405,1.053237627535327e-05,5.256671235737056e-06,-3.250447321755524e-05,2.602043856470132e-05,2.56982584317494e-05
277.7924246839107,138.3715072247938,12.5,0,3.840722844964878,2.430598969050152,-3.892296935058054,1.034583392864749e-05,4.705338424988584e-06,-3.113837548046443e-05,2.483525573575533e-05,2.554383817322749e-05
275.9504804942309,139.9617034650904,12.5,0,4.326531600070341,2.7225656061724,-4.122190997527051,1.166684863528717e-05,5.250984659695406e-06,-3.297752798021641e-05,2.768003257627643e-05,2.705891084090411e-05
277.9060594654418,140.1145445714233,12.5,0,4.252844896178375,2.544352237033296,-3.968092704788697,1.157362187814416e-05,4.739651241563846e-06,-3.174474163830958e-05,2.669984705545124e-05,2.677598329098589e-05
160.6914265437218,80.03654658041458,12.5,0,-7.862716624304937,1.047289316460326,1.696147340381417,-2.599852465094406e-05,9.641499112116991e-06,1.356917872305134e-05,2.927307865915069e-06,2.923559859988714e-06
162.9791093950827,80.18099711761371,12.5,0,-7.912570043528382,0.945337313120215,1.85275894451293,-2.6076493989787e-05,9.355135436807393e-06,1.482207155610344e-05,2.917307753187239e-06,2.961858329605046e-06
161.3206694526974,82.01666652839116,12.5,0,-7.501942138819488,1.161957938536946,1.623125028591356,-2.493578119505192e-05,9.719819114373815e-06,1.298500022873085e-05,2.92635671311985e-06,2.910044347023831e-06
163.6315424327886,82.16930594224401,12.5,0,-7.552578116002691,1.060538107455922,1.778566226367601,-2.501668045717335e-05,9.435784436661102e-06,1.422852981094081e-05,2.913506160561065e-06,2.951430566483184e-06
161.7813072323503,83.46621493532902,12.5,0,-7.285121237122976,1.146602618588393,1.700582337045468,-2.422967005366423e-05,9.497225369181237e-06,1.360465869636374e-05,2.905644105022434e-06,2.90412435788421e-06
164.1091565649054,83.62484902294906,12.5,0,-7.336255009949778,1.048197689267032,1.858655176154999,-2.431457418325292e-05,9.223236613614325e-06,1.486924140923999e-05,2.89982803668094e-06,2.948055717775931e-06
162.4105501413258,85.44633488330558,12.5,0,-6.927687829547494,1.258976282890299,1.629749143293197,-2.317578208086422e-05,9.570874368886951e-06,1.303799314634558e-05,2.912488852101564e-06,2.901466159738707e-06
164.7615896026112,85.61315784757934,12.5,0,-6.979569368744696,1.161071357403875,1.786649253477423,-2.326347906590612e-05,9.299083838688155e-06,1.429319402781939e-05,2.903601396515721e-06,2.949263222761328e-06
165.8132605486286,83.74097723489432,12.5,0,-7.265531767590174,1.289516075297237,1.617540473375759,-2.428131451652634e-05,9.938876855023295e-06,1.294032378700607e-05,2.990657953589398e-06,2.980274625513586e-06
168.1411098811837,83.89961132251436,12.5,0,-7.322054873587653,1.170533291499985,1.777574826145769,-2.436700222868048e-05,9.603350431670074e-06,1.422059860916615e-05,2.96386384147483e-06,3.024366958529255e-06
166.4826699387983,85.7352807332918,12.5,0,-6.900446549771288,1.410771997308746,1.536860596827667,-2.321004655711511e-05,1.003482763120502e-05,1.229488477462134e-05,3.006305147994388e-06,2.984535791995267e-06
168.8337094000837,85.90210369756556,12.5,0,-6.957690874973663,1.292439230708884,1.695744597343747,-2.329856218448282e-05,9.701958238247357e-06,1.356595677874997e-05,2.974631741353463e-06,3.033105180237353e-06
164.6538094738117,80.28674225001961,12.5,0,-7.850946785173683,1.174340560030511,1.621345887535929,-2.606250216058019e-05,1.003864722023658e-05,1.297076710028743e-05,2.999780037883088e-06,2.989691998173351e-06
166.9414923251727,80.43119278721875,12.5,0,-7.904904667644749,1.055909651143198,1.77825109442364,-2.614042265737776e-05,9.702834617774032e-06,1.422600875538912e-05,2.973113121490863e-06,3.027436525249894e-06
165.3232188639815,82.28104574841709,12.5,0,-7.486230468285477,1.29605407354612,1.540075695467407,-2.499278075735042e-05,1.013635740997596e-05,1.232060556373925e-05,3.00559946039626e-06,2.981656226794969e-06
167.6340918440727,82.43368516226994,12.5,0,-7.540942703967305,1.178276799891004,1.695842806215554,-2.507363809260818e-05,9.803239922825057e-06,1.356674244972443e-05,2.974807922480267e-06,3.022848047003242e-06
255.6074312944119,230.9625516446103,12.5,0.2663148337015723,13.92329310070235,0.572968568407449,-1.022436564894251,6.010229604340315e-05,-1.268273571429024e-05,-1.114850469230693e-05,7.539280126402598e-05,0.0001346707324275907
257.7662374645732,231.3327304488602,12.5,0.03125542805085146,18.48441179323326,0.8940736246933887,-1.511595592973095,6.032019226803894e-05,-1.231128842515343e-05,-1.248292387275387e-05,7.624808630884613e-05,0.0001031150274379133
255.5534000863944,232.6084528095581,12.5,0.2738498873338798,13.57486345083297,0.5175778235382689,-0.9918977662231357,5.925152393884952e-05,-1.267457177903889e-05,-1.092774343950786e-05,7.409425133474429e-05,0.0001360052742938246
257.9505063464347,232.9773381140526,12.5,0.002284423158519844,18.73784638042632,0.836855782432095,-1.511777405452152,5.942738107700104e-05,-1.234052959214705e-05,-1.212191081741403e-05,7.483183623467789e-05,0.0001002212807341521
255.7010160918908,228.1117672027352,12.5,0.2386943441953565,14.96084174657507,1.4910053357888,-1.56781835348235,6.131819587110502e-05,-9.454095431786491e-06,-1.647504748221299e-05,8.173228770702752e-05,0.0001299952275513473
257.4470743989411,228.4841864142807,12.5,0.06163253738359897,18.3752936392465,1.605032445036478,-1.901043612730151,6.129465905519381e-05,-1.019230894964464e-05,-1.620724237329858e-05,8.068391015573637e-05,0.0001063344154676853
255.6469848838734,229.757668367683,12.5,0.257020858065577,14.62146477809686,1.455780971333986,-1.584931461965326,6.140692239900002e-05,-9.473580504403955e-06,-1.706568997712418e-05,8.18541721475084e-05,0.0001330603452565207
257.6313432808025,230.1287940794733,12.5,0.04694463200273857,18.69842700196989,1.660049442486811,-2.007084207866568,6.138880155017639e-05,-1.012174497887707e-05,-1.684757696362787e-05,8.093773712233289e-05,0.0001047530369529351
252.6767543911563,227.4667182066351,12.5,0.4914883382278037,15.45984374772372,3.597747221920944,-2.790371630217801,9.162681157163328e-05,-1.681542336810782e-06,-4.389864524236356e-05,0.0001398813239807855,0.0001905771966401674
254.4228126982067,227.8391374181807,12.5,0.3563842718693336,18.79162853825218,3.082444090028587,-2.65784476988285,8.959889190072209e-05,-8.031938183867323e-06,-3.303641789615503e-05,0.0001275921523693562,0.0001525680127339631
252.2099753200278,229.1148597788786,12.5,0.5444515171373425,14.96582880673418,3.29430353237699,-2.668762207782126,9.934224579404797e-05,-3.141030638032817e-06,-4.68667956659485e-05,0.000149790172347916,0.0002112186100375989
254.194333716957,229.4859854906689,12.5,0.3942062683953116,19.2973326032043,3.160619943652285,-2.828725342272062,9.776094615316679e-05,-8.78827558808455e-06,-3.735562379992338e-05,0.000139215595115305,0.0001615877095853852
251.8682693240664,230.321383147776,12.5,0.5807554814621814,14.53367907928797,2.899377246329803,-2.574323380096014,0.0001053997590970807,-5.602783033078866e-06,-4.91230919669385e-05,0.0001557336189258894,0.0002281656392058212
254.0270754942278,230.6915619520258,12.5,0.4192722572728044,19.39503065137781,2.619095720798635,-2.57896134201609,0.0001032649503296439,-1.22861673200592e-05,-3.55273034472898e-05,0.0001428045712986376,0.0001681779428627766
251.4014902529377,231.9695247200195,12.5,0.6264703629512203,13.95395591851884,2.685572316690233,-2.39297764428274,0.000113790705930939,-6.878526003201157e-06,-5.125114383296419e-05,0.0001669201737510619,0.0002538243705352934
253.7985965129781,232.338410024514,12.5,0.4504381484824569,19.93402868610347,2.761099988630165,-2.680880673834893,0.0001120529229504956,-1.294067804311419e-05,-3.902571718079765e-05,0.0001555078475641538,0.0001771630981596846
132.0839882183369,97.76029633192505,12.5,0,-4.809861549845907,0.3101138243769055,2.13050466490668,-1.563964801900843e-05,4.840253477882822e-06,1.704403731925344e-05,2.128015833161514e-06,2.106300838724601e-06
133.9230566318844,97.10870862409556,12.5,0,-4.774217914503923,0.1961628606893291,2.185495358200541,-1.543442761496402e-05,4.447095485808991e-06,1.748396286560433e-05,2.079894811278027e-06,2.157400787379942e-06
133.2912853662564,99.34546095427928,12.5,0,-4.620613128893083,0.4386487660116887,2.039982040128804,-1.513688102526721e-05,5.100166554351869e-06,1.631985632103043e-05,2.147940314325107e-06,2.118161880069441e-06
135.1214035890697,98.69963085942038,12.5,0,-4.585009314294478,0.3238783245893191,2.095404975309525,-1.493113246541378e-05,4.704418090121403e-06,1.67632398024762e-05,2.095320661464703e-06,2.169432193044197e-06
134.1750882183289,100.505881996154,12.5,0,-4.361916449042255,0.3753201636310772,2.127430364425538,-1.425838876784008e-05,4.69055768285325e-06,1.70194429154043e-05,2.144558254261786e-06,2.132383275609495e-06
135.9986544467876,99.86426676651969,12.5,0,-4.326164986421557,0.2627231572896169,2.182971867273186,-1.405390648238068e-05,4.301646092464019e-06,1.746377493818549e-05,2.097589269377992e-06,2.183957418350058e-06
135.3823853662484,102.0910466185082,12.5,0,-4.170713748225978,0.5041551149531025,2.036434250429881,-1.374960808628561e-05,4.94986736643071e-06,1.629147400343905e-05,2.171603280008567e-06,2.159375809436268e-06
137.197001403973,101.4551890018445,12.5,0,-4.135004428911602,0.3907378607865732,2.092416140506799,-1.354460446114638e-05,4.558364697646315e-06,1.673932912405439e-05,2.119673365899458e-06,2.211609666214489e-06
137.3335975769295,99.39457181953739,12.5,0,-4.542053107904513,0.4805736456507164,2.124230159998453,-1.491902886181501e-05,5.171478152405902e-06,1.699384127998762e-05,2.237067206682308e-06,2.221821997725411e-06
139.1571638053882,98.75295658990311,12.5,0,-4.509186869076219,0.3606354205182445,2.177646375123642,-1.47179063174585e-05,4.761382840919357e-06,1.742117100098913e-05,2.179010106513612e-06,2.273695809649932e-06
138.5253925397602,100.9897089200868,12.5,0,-4.351706084722334,0.6125100219569393,2.032042628488643,-1.441546748867702e-05,5.441396938040072e-06,1.625634102790915e-05,2.26939036067358e-06,2.249906314795496e-06
140.3400085774849,100.3538513034231,12.5,0,-4.318897458240847,0.4917069297282042,2.085887503946288,-1.421383741015327e-05,5.02858014172293e-06,1.668710003157031e-05,2.205592412718948e-06,2.302300847704645e-06
135.2693481491389,96.63171331639728,12.5,0,-4.983098561383184,0.4081078514168732,2.126828311194235,-1.627240167755969e-05,5.292423973640541e-06,1.701462648955388e-05,2.215244108526788e-06,2.1947561892171e-06
137.1084165626864,95.98012560856782,12.5,0,-4.95181996416101,0.287598869299575,2.177967184621184,-1.607590298075489e-05,4.881772353087447e-06,1.742373747696947e-05,2.156650588446632e-06,2.245713096322368e-06
136.4611431119698,98.22685041694675,12.5,0,-4.799292644918347,0.5378055437629203,2.036751421948023,-1.578798089874904e-05,5.560411855976021e-06,1.629401137558418e-05,2.239956900351871e-06,2.207044566114664e-06
138.2912613347831,97.58102032208785,12.5,0,-4.768071751133118,0.4164398839519403,2.088298955789633,-1.559098151078753e-05,5.147065029552703e-06,1.670639164631706e-05,2.176299914492161e-06,2.258533167366029e-06
309.2851564509408,169.1737079450808,12.5,0,9.127473582433828,0.1567879324651358,-2.986079682665917,2.908248511781613e-05,-6.800257482058626e-06,-2.388863746132733e-05,3.632502773990461e-05,3.670189742023392e-05
311.5124605151964,169.2740967029085,12.5,0,9.082626776354353,0.04147120550573868,-2.842050946712314,2.903122871992934e-05,-7.133393563465117e-06,-2.273640757369851e-05,3.573906838973804e-05,3.610800853050575e-05
309.8857934961142,171.5661770476824,12.5,0,9.547396033707795,0.2901982880959344,-3.070196285127349,3.031950867738819e-05,-6.709282305059246e-06,-2.456157028101879e-05,3.834922344703545e-05,3.773740981857351e-05
312.1182951798875,171.6947346808378,12.5,0,9.497606073137048,0.1732260193867412,-2.925063668407762,3.025375861852916e-05,-7.043761596472065e-06,-2.340050934726209e-05,3.773845293688588e-05,3.715219226474932e-05
308.2448225718113,165.0298299039104,12.5,0,8.513291760804496,0.2704177233802236,-3.183323514686882,2.70261994558702e-05,-5.945296693826881e-06,-2.546658811749506e-05,3.44679264740853e-05,3.484069616006103e-05
310.4631240949838,165.0814287384797,12.5,0,8.473152392589757,0.1432973745371195,-3.038483548652176,2.699944975665753e-05,-6.319970315553022e-06,-2.430786838921741e-05,3.385544715450076e-05,3.42366762800238e-05
308.8454596169846,167.4222990065121,12.5,0,8.940515884070088,0.4093274699959328,-3.273888992567204,2.828218885302753e-05,-5.842564803269085e-06,-2.619111194053763e-05,3.653659545373248e-05,3.592572533475546e-05
311.0689587596749,167.5020667164089,12.5,0,8.895359344906382,0.2804799184552902,-3.12787084715807,2.824076596893619e-05,-6.218751736868176e-06,-2.502296677726456e-05,3.589882891060769e-05,3.532679837690283e-05
304.4026116272379,164.9404581008268,12.5,0,8.649179224475509,0.408684507504272,-3.267549592549389,2.73504259123182e-05,-5.611552955566736e-06,-2.614039674039511e-05,3.544072918724428e-05,3.587253965614417e-05
306.6209131504105,164.9920569353961,12.5,0,8.60550680954487,0.2686748440496922,-3.117254649024351,2.732268191530383e-05,-6.02464594667688e-06,-2.493803719219481e-05,3.477085003208432e-05,3.527902443060649e-05
304.9942461313283,167.2841372801699,12.5,0,9.083959750646587,0.5522538683356595,-3.363087258738905,2.862686810740055e-05,-5.499955421843158e-06,-2.690469806991124e-05,3.755660386976846e-05,3.695335152627961e-05
307.2177452740186,167.3639049900667,12.5,0,9.035073716821143,0.4104148537837269,-3.211525966001255,2.858390401080067e-05,-5.914731441348988e-06,-2.569220772801004e-05,3.686021316846454e-05,3.63615589375637e-05
305.4273526478149,168.9998295160174,12.5,0,9.269733773929612,0.2835797652795957,-3.072922639964768,2.943628426435108e-05,-6.508331770248982e-06,-2.458338111971815e-05,3.728569513400768e-05,3.772449862646434e-05
307.6546567120704,169.1002182738452,12.5,0,9.220074508795578,0.1508581906361304,-2.92450837015141,2.938355187563695e-05,-6.893313397000845e-06,-2.339606696121128e-05,3.662501359647689e-05,3.713503463600546e-05
306.0189871519052,171.3435086953605,12.5,0,9.694038510075606,0.4220262106380384,-3.163564181060197,3.06833022637315e-05,-6.404746934018761e-06,-2.530851344848158e-05,3.93465924085042e-05,3.875049981423258e-05
308.2514888356785,171.4720663285159,12.5,0,9.639277624004098,0.2875399048672347,-3.013941669412971,3.061565647291932e-05,-6.791294403628127e-06,-2.411153335530377e-05,3.865982872255065e-05,3.816567503570079e-05
284.7542148692851,149.0967810626887,12.5,0,6.15517948873662,1.87753427552895,-4.03740660946462,1.819454694353402e-05,1.083966090703343e-06,-3.229925287571696e-05,3.13436842671061e-05,3.155924358701602e-05
286.9745490527464,149.0837734453865,12.5,0,6.089962521887988,1.605819409865213,-3.852852379798013,1.820322454214939e-05,2.666520940582898e-07,-3.082281903838411e-05,3.010202687452797e-05,3.099712905313518e-05
285.2994826877799,151.2947935147309,12.5,0,6.661003273071775,2.06675352764638,-4.184106401686845,1.966180765171257e-05,1.284808670010996e-06,-3.347285121349476e-05,3.388593684711312e-05,3.292473143925632e-05
287.5394990352834,151.2984646457894,12.5,0,6.592432098557183,1.795487971148986,-3.999720659847309,1.96593923384638e-05,4.716158288310072e-07,-3.199776527877847e-05,3.263379546594069e-05,3.233728921008246e-05
285.6986464346332,152.9038503052265,12.5,0,6.914674590902164,1.749414517656209,-3.991439795027053,2.072742707676196e-05,6.638678377813775e-08,-3.193151836021642e-05,3.365252345544827e-05,3.390833181649025e-05
287.953071126218,152.919731127491,12.5,0,6.84340388156092,1.477621193945266,-3.802067636881341,2.071679546583873e-05,-7.46335284623886e-07,-3.041654109505073e-05,3.239735061572511e-05,3.330281272378277e-05
286.243914253128,155.1018627572687,12.5,0,7.4218684648557,1.937679455873713,-4.136208159288162,2.219983552283927e-05,2.630794869113232e-07,-3.30896652743053e-05,3.620382661716425e-05,3.523009016931119e-05
288.5180211087551,155.1344223278938,12.5,0,7.347314143277884,1.66633776806775,-3.947049658761717,2.217833504403503e-05,-5.45570456805507e-07,-3.157639727009373e-05,3.493786599346508e-05,3.460051186227928e-05
289.6034245422257,152.9313566962541,12.5,0,6.871389301940801,1.467288325238251,-3.920277998469611,2.081461510601996e-05,-8.017888007902374e-07,-3.136222398775689e-05,3.25540838255486e-05,3.286319927741667e-05
291.8578492338105,152.9472375185186,12.5,0,6.805102971474176,1.21502065137376,-3.736804148052298,2.080431298761835e-05,-1.556016292783308e-06,-2.989443318441838e-05,3.138980401727287e-05,3.226767209891046e-05
290.182782868844,155.158257587863,12.5,0,7.369390327201388,1.65239693442058,-4.06047184503208,2.226013149950797e-05,-6.078420716152527e-07,-3.248377476025664e-05,3.505535220844092e-05,3.414449200557272e-05
292.4568897244711,155.1908171584881,12.5,0,7.299896045579044,1.40046705542215,-3.877202847420126,2.223929370151522e-05,-1.358422259112356e-06,-3.1017622779361e-05,3.38798226337665e-05,3.352820089476906e-05
288.5999464847529,149.0742512086362,12.5,0,6.124420310826158,1.599904425470775,-3.98135613048536,1.831822145426708e-05,2.201579128455547e-07,-3.185084904388288e-05,3.031046128874406e-05,3.058743300566913e-05
290.8202806682142,149.0612435913339,12.5,0,6.063489610710771,1.34561585904204,-3.801564068265295,1.832667406704083e-05,-5.44820939634089e-07,-3.041251254612236e-05,2.915002103360342e-05,3.003023712216498e-05
289.1793048113711,151.3011521002452,12.5,0,6.623728423323774,1.787148056240844,-4.124410628585107,1.97662125096434e-05,4.198910413116819e-07,-3.299528502868085e-05,3.281662673210853e-05,3.191008819099231e-05
291.4193211588747,151.3048232313036,12.5,0,6.559505851516856,1.533199161333038,-3.944779556401014,1.976385939578751e-05,-3.413673649477634e-07,-3.155823645120811e-05,3.164514707784555e-05,3.133039553091704e-05
247.9544486978855,220.6419757542668,12.5,0.6286599784174026,16.0558256111313,6.34739670803722,-3.497069418933668,0.0001246855224272983,2.01082795896622e-05,-7.533945636195452e-05,0.0002227100791338117,0.0002551994932390771
249.6904696116238,221.2950221771574,12.5,0.5657062509054924,18.02747651514232,6.233641031305448,-3.457586422169181,0.0001213487694291973,1.272334704237506e-05,-6.369120309704054e-05,0.0002066155853549426,0.0002208202612649825
248.0990539659848,222.0977235668557,12.5,0.6474653019886911,16.2362263818324,6.349794745131576,-3.660123570153007,0.0001329687230510702,2.079330664557727e-05,-8.305845843374193e-05,0.0002366649137635798,0.0002676556108307507
249.6745906274925,222.7040718112689,12.5,0.5907064553911434,18.05894283141815,6.132678793469943,-3.588624088000424,0.0001292042709256495,1.264964459411918e-05,-7.014279380203586e-05,0.000218782993068569,0.0002332978770454666
248.2049123692711,223.1634049286328,12.5,0.6604561858162803,16.1155309266739,6.053147722181697,-3.561055944261386,0.0001376175292721665,1.90775025167662e-05,-8.390212503967638e-05,0.000241360042367482,0.0002769984461684678
249.6629664043363,223.7355677337809,12.5,0.6080463510706822,17.88786904222182,5.772935374174649,-3.528667727661396,0.0001342577949701898,1.06214037679036e-05,-7.202214317535757e-05,0.0002237141493560068,0.000242817063484258
248.3495176373705,224.6191527412218,12.5,0.6772183530672184,16.39249890449395,6.118745883213668,-3.811986434426946,0.0001473472864388543,2.00320797794154e-05,-9.447839356791637e-05,0.0002580277292941182,0.0002900674294072722
249.647087420205,225.1446173678924,12.5,0.6304680919837576,17.99332130183392,5.713065665818836,-3.741247013887355,0.0001434468160483818,1.051912704919187e-05,-8.099429429997505e-05,0.0002379811463673797,0.0002563463487023786
250.7303360381394,224.1544199773327,12.5,0.5615042902991337,16.08601949810788,4.820394913445492,-3.186536024268241,0.0001085961513641116,5.830041361825928e-06,-5.813577563059009e-05,0.0001770249584003956,0.0002188532612935256
252.1883900732045,224.7265827824808,12.5,0.4827805232106721,18.25453513564431,4.574150448980791,-3.162308418510222,0.0001058645208312213,6.506585643677957e-08,-4.891244139745778e-05,0.0001643840797442604,0.0001875643188473404
250.5969744275656,225.5292841721792,12.5,0.5894492510890231,16.06008036808255,4.686202875885243,-3.263049250580255,0.0001160472730923866,5.231472391814974e-06,-6.358384212886304e-05,0.0001878046808739099,0.0002326367262876758
251.8945442104001,226.0547487988498,12.5,0.5210779531590303,17.97327698507609,4.310363269981949,-3.183472605015151,0.0001128914321085975,-1.222451812315584e-06,-5.317729891139884e-05,0.0001735089882738646,0.0002015819139245734
250.9613251234283,221.7730853383941,12.5,0.5092130427491921,16.02385407993022,5.225037724245864,-3.115797723781882,9.59607874263706e-05,7.948535298278169e-06,-5.078859864142003e-05,0.0001603858901979725,0.0001970197089817484
252.6973460371666,222.4261317612847,12.5,0.4126109717891299,18.22728246074137,4.817822920506747,-2.919697614480198,9.273759454426068e-05,1.421898157635761e-06,-3.976509569303074e-05,0.0001458374170530783,0.0001663746228670836
250.8279635128545,223.1479495332405,12.5,0.5399928813514594,16.15410463929613,5.101033230516964,-3.208681630709603,0.0001035034162106332,7.39123915344253e-06,-5.580229523641147e-05,0.0001713425608045265,0.000209309710269894
252.4035001743622,223.7542977776537,12.5,0.4536060508911506,18.20110013335724,4.587557301626396,-2.979556017078095,9.987935385164784e-05,2.183465953699889e-07,-4.362502215754993e-05,0.0001552380036107114,0.0001781305536410922
221.434855707624,155.6313696692033,12.5,0,6.346379502833439,7.911831562206511,-1.559065656328251,1.397894915930179e-05,2.024075739679408e-05,-1.247252525062601e-05,5.191654778370107e-05,5.113263583579189e-05
223.2673627079109,155.6922900632906,12.5,0,6.273227638192457,7.677495682694243,-1.380909741818177,1.393233189606047e-05,1.954940407406761e-05,-1.104727793454542e-05,5.076358558921038e-05,5.141288827896342e-05
221.8241791478712,157.5724088540654,12.5,0,6.835503674709464,8.078364397064954,-1.683217788175668,1.541092024141832e-05,2.038236313084028e-05,-1.346574230540534e-05,5.42972110550163e-05,5.374916793254096e-05
223.7092765973247,157.6218816774069,12.5,0,6.767778611343466,7.852047216779149,-1.511141734831926,1.537525378287577e-05,1.97123282046185e-05,-1.208913387865541e-05,5.319469420551288e-05,5.401234290094306e-05
222.1091836866975,158.9933481568061,12.5,0,7.231093496111312,8.301989290069191,-1.725805795642967,1.649790775550084e-05,2.078149093133236e-05,-1.380644636514374e-05,5.653835283228719e-05,5.572486797497431e-05
224.0327800169322,159.0344407767388,12.5,0,7.151565117909699,8.026648039010112,-1.523400664164388,1.646368994610294e-05,1.99640216305046e-05,-1.218720531331511e-05,5.52105176627657e-05,5.59721421802877e-05
222.4985071269447,160.9343873416682,12.5,0,7.764761743439,8.485342366186643,-1.864530191168605,1.805896368605548e-05,2.094128617704605e-05,-1.491624152934884e-05,5.915004188466082e-05,5.850604877489865e-05
224.474693906346,160.9640323908551,12.5,0,7.690858866696119,8.218887062176242,-1.668682250673516,1.803563872368658e-05,2.014775150560707e-05,-1.334945800538813e-05,5.787681666160425e-05,5.872695876234211e-05
225.4409502638572,159.0645226623444,12.5,0,7.345231329601924,8.27523621739776,-2.099212043520216,1.688455128080795e-05,2.060457083199129e-05,-1.679369634816172e-05,5.693292612195719e-05,5.609477839167682e-05
227.364546594092,159.105615282277,12.5,0,7.236745640322555,7.884685980693895,-1.892980808473408,1.684983726447706e-05,1.944159862596242e-05,-1.514384646778726e-05,5.507555851159073e-05,5.618255254674051e-05
225.9213630340522,160.9857340730518,12.5,0,7.890899502503279,8.499281789674468,-2.288362495020006,1.845145297627092e-05,2.088498212495567e-05,-1.830689996016005e-05,5.975154456059481e-05,5.882135646746758e-05
227.8975498134536,161.0153791222387,12.5,0,7.789000085803045,8.12124424130127,-2.089194442661828,1.842780488152873e-05,1.975678150352162e-05,-1.671355554129462e-05,5.796616115455736e-05,5.885834580655577e-05
224.6088509372896,155.7368868869777,12.5,0,6.452558785038341,7.907189226325078,-1.900015195776798,1.432243673106263e-05,2.014095849620957e-05,-1.520012156621439e-05,5.235250793404289e-05,5.15719943293055e-05
226.4413579375765,155.7978072810651,12.5,0,6.34935727490092,7.554865786624867,-1.713739382347518,1.427405065038305e-05,1.909608469727883e-05,-1.370991505878015e-05,5.065404371058022e-05,5.172642769947862e-05
225.0892637074845,157.6580982976852,12.5,0,6.964718014871158,8.117720735600528,-2.077934871907874,1.579292105910728e-05,2.040493194202476e-05,-1.6623478975263e-05,5.499231054312573e-05,5.415231766117599e-05
226.9743611569381,157.7075711210267,12.5,0,6.868058590335336,7.777325041235879,-1.898416057080729,1.575592745608437e-05,1.939299325968654e-05,-1.518732845664584e-05,5.336335672598109e-05,5.427156084952376e-05
305.7152806074853,237.4023487556905,12.5,0,15.22735628990307,-0.002823624552307891,0.03116004242703792,4.872979902733167e-05,-1.219092063048984e-05,2.492803394163034e-07,5.85083414331048e-05,5.808173599478996e-05
307.7438108102886,237.3629274028221,12.5,0,15.2179294275093,-0.04964061256076846,0.07768998032791079,4.873708665807837e-05,-1.23331935022019e-05,6.215198426232863e-07,5.833077673103011e-05,5.818219458716717e-05
306.2902767305735,239.3039614468912,12.5,0,15.3515576281161,0.04121183640905013,0.0002918752451102485,4.909201494084428e-05,-1.214936822598392e-05,2.335001960881988e-09,5.91189479547817e-05,5.824735856434846e-05
308.2968380592218,239.2933985272259,12.5,0,15.34014248098738,-0.006964211521050423,0.04798080150835056,4.909402730837644e-05,-1.229439946165726e-05,3.838464120668045e-07,5.892930324108927e-05,5.836333230778229e-05
304.7193581081592,234.1086589582721,12.5,0,15.06639687946599,-0.01838707575593634,0.09225077600555072,4.822717967489592e-05,-1.211195614599179e-05,7.380062080444057e-07,5.784310693079872e-05,5.766678202758364e-05
306.7859395171833,234.01925333287,12.5,0,15.06036723578335,-0.05812295238670728,0.127688107219256,4.823967351641608e-05,-1.223428723626414e-05,1.021504857754048e-06,5.770021048840722e-05,5.770564638410164e-05
305.2943542312474,236.0102716494729,12.5,0,15.16051672271882,0.01609404020274319,0.06742272215336763,4.850077828053804e-05,-1.207691244952628e-05,5.39381777226941e-07,5.830895279842178e-05,5.792617098062422e-05
307.3389667661166,235.9497244572739,12.5,0,15.15303496002203,-0.02472410998372432,0.103739430977706,4.850949116005747e-05,-1.220154511996554e-05,8.299154478216483e-07,5.815699446088884e-05,5.80059681750491e-05
301.1399341098165,234.2635140439484,12.5,0,15.03801579617415,-0.01769491299761139,0.1178139626283904,4.813580647815535e-05,-1.208703635853167e-05,9.425117010271235e-07,5.773642848447586e-05,5.756607544509467e-05
303.2065155188407,234.1741084185462,12.5,0,15.03156864149678,-0.05504909350676535,0.1439288524237973,4.81450589275951e-05,-1.220141201241907e-05,1.151430819390379e-06,5.759907237656935e-05,5.762938410719103e-05
301.7529814391255,236.1151424626154,12.5,0,15.10674196720141,0.01041138432834465,0.09644411497851044,4.833324518758184e-05,-1.205207714391043e-05,7.715529198280835e-07,5.80853527386207e-05,5.77512264765579e-05
303.7975939739947,236.0545952704164,12.5,0,15.09917643352246,-0.02792236333417542,0.12326940243394,4.833970247793921e-05,-1.216869270948733e-05,9.861552194715198e-07,5.794059099262432e-05,5.785791314823709e-05
302.2017632316051,237.4706285417605,12.5,0,15.15798099989448,-0.0019927851539423,0.04262512714941027,4.850713342778546e-05,-1.213276171240819e-05,3.410010171952822e-07,5.824430139557989e-05,5.786934323070935e-05
304.2302934344084,237.4312071888921,12.5,0,15.14851482169667,-0.04756528525232717,0.08195173336139291,4.85132996576312e-05,-1.227102077016478e-05,6.556138668911433e-07,5.807033704175942e-05,5.799790772647872e-05
302.8148105609141,239.3222569604275,12.5,0,15.26112462570645,0.03725761824997864,0.01399781409208191,4.880579270766065e-05,-1.208967532216523e-05,1.119825127366553e-07,5.875945329162853e-05,5.800689317282677e-05
304.8213718895624,239.3116940407622,12.5,0,15.24993833508002,-0.009617625112472439,0.05436860162901999,4.880749677234602e-05,-1.223072706842392e-05,4.349488130321599e-07,5.857466560117755e-05,5.815185098598926e-05
230.1889593524002,198.5037809332121,12.5,0.5212610281438212,16.59063045247045,9.836457804051083,-2.547816051432898,9.445826194039132e-05,3.802523228974963e-05,-4.257545261551515e-05,0.0002015288280945055,0.0002016539681463912
232.093443245845,197.212393562958,12.5,0.4816078613223057,17.91842552877434,9.783491640192196,-2.890444952901466,9.551103245164733e-05,3.274052895340686e-05,-4.460630842549986e-05,0.0001954190877809319,0.0001871658585850092
231.6552186489462,199.8994795215891,12.5,0.5440726454936616,16.12408179018221,10.02221766621799,-2.712152209548236,9.558384063793396e-05,4.205018828166247e-05,-4.758919916064007e-05,0.0002092991033088498,0.0002110550456931606
233.4238272239986,198.5898940090303,12.5,0.5027693895179647,17.55633740790129,10.10129922566079,-3.10466963159777,9.673427039844985e-05,3.676179062683414e-05,-4.995138378287658e-05,0.0002033262518429596,0.0001946277053781661
226.8902964868166,200.740529470705,12.5,0.5668440812059917,16.5740073582815,10.13573744513126,-2.786263707243416,0.0001037230051374685,4.426847956085249e-05,-5.14597831653955e-05,0.0002251069366782667,0.0002213590116440036
228.7947803802613,199.4491421004508,12.5,0.5435178632524658,17.58315283516885,9.896615425831387,-2.972571222744582,0.0001059160760952523,3.856152448800164e-05,-5.20952910696458e-05,0.0002200789709182296,0.0002108159958949373
228.5918987383084,202.1677481661562,12.5,0.5940672736327886,16.02783596378371,10.26300081269646,-2.9711817148398,0.0001061226938253341,4.931687575121003e-05,-5.855515501653906e-05,0.0002364001397688578,0.000235083946177129
230.3605073133609,200.8581626535975,12.5,0.5679711311790879,17.19692700057101,10.19085220395194,-3.215465587972311,0.0001085054449407586,4.363871679141087e-05,-5.954168010573776e-05,0.0002316935762046177,0.0002218952627437043
229.8375580406211,203.2125447646942,12.5,0.6112544871527235,16.60857800324665,9.742675464880852,-2.750467181545774,0.0001166658076804663,4.601904972225258e-05,-5.660190722512758e-05,0.0002476067600536531,0.0002446643450588281
231.50669897912,201.8896372873658,12.5,0.5832909635698706,17.75043615663527,9.737374839718846,-3.105562595574658,0.0001176156299592885,4.069806286678809e-05,-5.96207391551563e-05,0.0002413177948288417,0.0002294516980265626
231.5391602921129,204.6397634601454,12.5,0.6316686071469728,16.02564243582429,9.921154771203501,-2.868956284062711,0.0001176797113108701,5.138628334822428e-05,-6.231250096474924e-05,0.0002572045805975313,0.0002571135470283935
233.0724259122195,203.2986578405124,12.5,0.6012904052303671,17.31030885710886,10.07478789880082,-3.275821434536203,0.0001187158740211805,4.612649013651542e-05,-6.572846959309144e-05,0.0002511308993638451,0.0002390169962955484
232.7285949510424,200.9212018002897,12.5,0.5582901748645146,16.56921388822094,9.46759382965611,-2.583246549444614,0.0001028897407130169,3.857946591768894e-05,-4.678630906436833e-05,0.000215347005531299,0.0002173722425645809
234.3977358895413,199.5982943229612,12.5,0.5159468292865188,18.01880752419627,9.692422302962491,-3.020227610604869,0.0001031007526745411,3.429521043246957e-05,-4.991563395654466e-05,0.0002094554470017264,0.0001995832035455438
234.1948542475884,202.3169003886666,12.5,0.5748591651703998,16.110675498487,9.647465657938696,-2.686823659391154,0.0001031098061572404,4.229974689169084e-05,-5.055875021684151e-05,0.0002212457773609052,0.0002252300678326807
235.7281198676949,200.9757947690336,12.5,0.5312373078554522,17.63340665389854,9.980320087845644,-3.16546098324002,0.0001033415116731623,3.803694120028023e-05,-5.402240470560175e-05,0.0002154153402074653,0.0002056600295230525
254.975568830003,97.64442370826046,12.5,0,-4.304079947609158,2.665033612989031,-2.451914443474319,-1.590508272274053e-05,1.197137151965223e-05,-1.961531554779455e-05,5.385585299258662e-06,5.37565323825093e-06
257.179704068941,97.83091810337912,12.5,0,-4.415754593587947,2.357312004581882,-2.278190908739102,-1.601626430314693e-05,1.107600208953238e-05,-1.822552726991281e-05,4.642369083467164e-06,5.392494820046433e-06
255.671477293892,99.87993075570246,12.5,0,-3.828513989501235,2.873733048689077,-2.620032839380736,-1.455023120535521e-05,1.225875694740603e-05,-2.096026271504589e-05,6.241330603077002e-06,5.825389838516257e-06
257.8671182627945,100.0865978108479,12.5,0,-3.945507495783379,2.561901079467535,-2.443507357246957,-1.467514485008084e-05,1.135448945092281e-05,-1.954805885797566e-05,5.35715101871938e-06,5.849476915294645e-06
253.7702200131517,93.77241192148216,12.5,0,-5.03203009629432,2.538203975864049,-2.309175118349639,-1.813305948883306e-05,1.214787679980041e-05,-1.847340094679711e-05,4.801101596100887e-06,4.780219936935401e-06
255.989067759364,93.92396624451129,12.5,0,-5.133346445256302,2.243944453250731,-2.139308227995171,-1.822186418742075e-05,1.128729940660738e-05,-1.711446582396137e-05,4.206207321216127e-06,4.787686619853086e-06
254.4661284770407,96.00791896892419,12.5,0,-4.565369389419944,2.740598406879685,-2.471140026350036,-1.680166077164757e-05,1.242221041355095e-05,-1.976912021080029e-05,5.430806564199473e-06,5.09560080717774e-06
256.6764819532175,96.17964595198008,12.5,0,-4.671787573423381,2.442427808266547,-2.298588492509902,-1.690366248156805e-05,1.155319904519165e-05,-1.838870794007921e-05,4.727223726697759e-06,5.107988967860518e-06
249.9270629825213,93.50991213389378,12.5,0,-5.164963238274401,2.631936408220587,-2.138578308939567,-1.863343148905455e-05,1.25541670969254e-05,-1.710862647151654e-05,4.785897301578179e-06,4.758240453361842e-06
252.1459107287336,93.66146645692287,12.5,0,-5.266760484671683,2.33463466089931,-1.970269335670841,-1.872134127966883e-05,1.168423930261514e-05,-1.576215468536673e-05,4.198805926538348e-06,4.772329860404126e-06
250.6376839536848,95.71047910924625,12.5,0,-4.708780598106053,2.834498941049165,-2.300605815280701,-1.73356970667787e-05,1.283742108984217e-05,-1.840484652224561e-05,5.389505565546418e-06,5.064609197863282e-06
252.8480374298616,95.8822060923021,12.5,0,-4.815667210824812,2.533198367786157,-2.129577623609336,-1.743669376886832e-05,1.195876854557555e-05,-1.703662098887469e-05,4.696249162238683e-06,5.083977232839494e-06
251.1578946094782,97.32140594059393,12.5,0,-4.452596182260592,2.771278990121966,-2.279942597074934,-1.646533097533146e-05,1.243016971419876e-05,-1.823954077659947e-05,5.355526047148684e-06,5.336723352931318e-06
253.3620298484161,97.50790033571258,12.5,0,-4.564836245735055,2.459864372695838,-2.107790525879687,-1.657536748450884e-05,1.152343498921472e-05,-1.686232420703749e-05,4.621220918837677e-06,5.360709318677201e-06
251.8685155806416,99.52197291594642,12.5,0,-3.987721476059741,2.980394164197576,-2.448306181669591,-1.514502405474923e-05,1.272743850628004e-05,-1.958644945335673e-05,6.176334205632629e-06,5.773784305566035e-06
254.064156549544,99.72863997109181,12.5,0,-4.105269954169459,2.664770061573071,-2.273313509811384,-1.526867990260072e-05,1.181148016036939e-05,-1.818650807849107e-05,5.303436537175843e-06,5.805108064867104e-06
269.7942412380156,122.5654852413324,12.5,0,0.7750889091654176,2.828578680057469,-3.661125583722448,2.174215652833613e-07,8.431380648851565e-06,-2.928900466977959e-05,1.605574605190476e-05,1.562703915962148e-05
271.9771965716373,123.1022380847816,12.5,0,0.6293547405891546,2.643332974053829,-3.484749849936263,-1.007312093577678e-07,7.955181724500927e-06,-2.78779987994901e-05,1.481449974230036e-05,1.576392021663735e-05
269.7509948080197,124.7174739647398,12.5,0,1.210717917717242,2.934459825169738,-3.718069529355899,1.526729476559384e-06,8.421697106369367e-06,-2.97445562348472e-05,1.775433484082057e-05,1.706933159619658e-05
271.9118342119421,125.284234932739,12.5,0,1.056470561294351,2.745685318304917,-3.539048258921973,1.184157541497989e-06,7.941016569540252e-06,-2.831238607137578e-05,1.64570028110061e-05,1.721835074118879e-05
273.575230786434,123.4951684372767,12.5,0,1.037261678748306,2.603564880518155,-3.757515782210437,1.236385467580055e-06,7.50159827465945e-06,-3.00601262576835e-05,1.621690707620963e-05,1.586353135023507e-05
275.7581861200558,124.031921280726,12.5,0,0.890229223969791,2.422003746542392,-3.577923824562147,9.111305194694171e-07,7.038228609759821e-06,-2.862339059649718e-05,1.497701813686645e-05,1.599879297121924e-05
273.4936784425429,125.6991327570436,12.5,0,1.49240860970613,2.711802832467841,-3.811162301070744,2.606265285085344e-06,7.483842176132186e-06,-3.048929840856595e-05,1.799311922413124e-05,1.732749422934532e-05
275.6545178464654,126.2658937250428,12.5,0,1.33677508375268,2.526807279361747,-3.629019118268548,2.256234444519178e-06,7.016363226955446e-06,-2.903215294614838e-05,1.669800320110211e-05,1.74766606393247e-05
273.7164835895272,119.6777902574401,12.5,0,0.3030064430961519,2.520116855699616,-3.680717223617294,-1.046472866652007e-06,7.821968783761849e-06,-2.944573778893836e-05,1.379227810553353e-05,1.349460559315938e-05
275.9377448370443,120.1625675045299,12.5,0,0.1765926146725417,2.362645912005878,-3.510190354020847,-1.325020362652569e-06,7.419192826680775e-06,-2.808152283216678e-05,1.273087464921964e-05,1.360028722524815e-05
273.6349312456361,121.881754577207,12.5,0,0.7345457391513627,2.623263625001256,-3.725930323542645,2.519354652833557e-07,7.806807008682928e-06,-2.980744258834116e-05,1.53664179625757e-05,1.483651193552258e-05
275.8340765634538,122.3965399488467,12.5,0,0.6002297502778451,2.462717611852853,-3.55310932688397,-4.943888859317838e-08,7.400512557706853e-06,-2.842487461507176e-05,1.424873524882501e-05,1.496012184538828e-05
269.869146252013,118.8381314351424,12.5,0,0.05465603935500274,2.726412456549701,-3.572304246299187,-2.006230639303751e-06,8.680795029475039e-06,-2.85784339703935e-05,1.362680049139653e-05,1.329602564230839e-05
272.09040749953,119.3229086822322,12.5,0,-0.0750231632503362,2.55640922999106,-3.400512115579192,-2.285201506393924e-06,8.24052806657166e-06,-2.720409692463354e-05,1.252136735002956e-05,1.341307894772539e-05
269.8258998220172,120.9901201585498,12.5,0,0.4774558908225001,2.829364092650755,-3.623816373405687,-7.356324234886039e-07,8.672000383824416e-06,-2.89905309872455e-05,1.516675016744897e-05,1.461598487651306e-05
272.0250451398348,121.5049055301895,12.5,0,0.3397640194496193,2.656083566032942,-3.449553499829236,-1.037621990587572e-06,8.227656195745718e-06,-2.759642799863389e-05,1.400141920446686e-05,1.474430071262964e-05
259.6140518676726,155.59273738358,12.5,0,7.546968087008456,4.440519499767189,-4.200854835574688,2.059788227861331e-05,8.172087929648238e-06,-3.360683868459751e-05,4.49617416230688e-05,4.440061068750378e-05
261.8735989463606,156.1234980880225,12.5,0,7.254015655855261,3.887964104171602,-3.892190678587296,2.010247881539955e-05,6.638272608664917e-06,-3.113752542869836e-05,4.184041289716599e-05,4.409885134309944e-05
260.0827836169767,157.7255754294787,12.5,0,8.248057380432705,4.716807069701006,-4.44027108539261,2.262033796162385e-05,8.495336718697052e-06,-3.552216868314088e-05,4.858601660273872e-05,4.621573509277517e-05
262.319696490737,158.2606198199731,12.5,0,7.94851319086427,4.156814760638312,-4.127046232209558,2.210979040225501e-05,6.942996681351182e-06,-3.301636985767646e-05,4.541577619304277e-05,4.586173457836328e-05
258.8021846627718,151.8985535238338,12.5,0,6.666428592337825,4.483189707677546,-4.121974789058578,1.7746019729339e-05,9.013064190697886e-06,-3.297579831246862e-05,4.188254292207051e-05,4.121923467858566e-05
261.1009353343828,152.4218946663912,12.5,0,6.386181799655263,3.94538705762114,-3.823218829594996,1.727947211279993e-05,7.516293144663438e-06,-3.058575063675996e-05,3.885032768226944e-05,4.100374217569128e-05
259.2709164120759,154.0313915697325,12.5,0,7.335954079076727,4.747436788594619,-4.351328410178432,1.967710362216983e-05,9.323034460241401e-06,-3.481062728142746e-05,4.533750951074422e-05,4.30618024365816e-05
261.5470328787592,154.5590163983417,12.5,0,7.049525483608832,4.202553827794315,-4.048252348455919,1.919643848531281e-05,7.808551862054742e-06,-3.238601878764735e-05,4.225960138122785e-05,4.279715620200747e-05
254.8206317056801,150.9921000752495,12.5,0,6.363977260599635,4.931250130507825,-4.003944085966882,1.641972712951257e-05,1.068881860914533e-05,-3.203155268773506e-05,4.226936986850437e-05,4.149574321173493e-05
257.1193823772911,151.5154412178069,12.5,0,6.076671699756459,4.364321002394887,-3.703087962324316,1.595389263730476e-05,9.10448984785847e-06,-2.962470369859453e-05,3.909800610344614e-05,4.135106595886473e-05
255.3285670479072,153.117518559263,12.5,0,7.034165642216362,5.209918951975521,-4.247341737574194,1.834139489351194e-05,1.104440813254857e-05,-3.397873390059356e-05,4.578028110229835e-05,4.342600311524054e-05
257.6046835145905,153.6451433878722,12.5,0,6.740547254716819,4.6354644551512,-3.94204080648422,1.786137965097286e-05,9.441048452710384e-06,-3.153632645187376e-05,4.256151887704199e-05,4.323030145913996e-05
255.7004015253615,154.6734328768408,12.5,0,7.253457071544566,4.923428896224402,-4.114963474449929,1.927231951196309e-05,9.952206810682433e-06,-3.291970779559943e-05,4.55025327097035e-05,4.483167342904302e-05
257.9599486040495,155.2041935812834,12.5,0,6.951217389410876,4.337405492206701,-3.801805790707867,1.877397125234944e-05,8.318723663532741e-06,-3.041444632566294e-05,4.221699157986061e-05,4.459696977362194e-05
256.2083368675886,156.7988513608545,12.5,0,7.960437199638651,5.216766163097121,-4.370683972238182,2.129998610836598e-05,1.032530196219987e-05,-3.496547177790545e-05,4.921216687627881e-05,4.674177624170032e-05
258.4452497413489,157.3338957513488,12.5,0,7.6514187273276,4.622788085577272,-4.052798865952876,2.07863094589865e-05,8.671786891985191e-06,-3.242239092762301e-05,4.587563697838414e-05,4.645154154576474e-05
287.1232775124886,234.4279505044883,12.5,0,14.79582128299556,-0.01848578810745227,0.2243228782647367,4.736141673607175e-05,-1.18958115483403e-05,1.794583026117893e-06,5.680533569703686e-05,5.683188843609242e-05
289.1500527236711,234.4045653436629,12.5,0,14.7973780503775,-0.008755949912114591,0.194007741405978,4.73586145211377e-05,-1.186592148002077e-05,1.552061931247824e-06,5.68400581371231e-05,5.695575336160009e-05
287.7913598827536,236.2265019652872,12.5,0,14.72243149165281,-0.03994308221767895,0.2377790798024524,4.714373523906313e-05,-1.190576305641882e-05,1.902232638419619e-06,5.645877325955322e-05,5.662345658826645e-05
289.8090149023592,236.2106650890198,12.5,0,14.72430033834024,-0.03006757298113971,0.2072304976779172,4.714181514107367e-05,-1.187565650421184e-05,1.657843981423338e-06,5.649506192982125e-05,5.681922360871382e-05
288.2804301214079,237.5431330145632,12.5,0,14.69436816462002,-0.004044514815417344,0.09293566578029996,4.70252137386364e-05,-1.176843697910535e-05,7.434853262423997e-07,5.645686666709732e-05,5.654003217945087e-05
290.2914086974047,237.5328218661021,12.5,0,14.69280956224827,-0.009685311983554712,0.08134770189256149,4.702473884878131e-05,-1.178524064814599e-05,6.507816151404919e-07,5.643369373420343e-05,5.677307306745323e-05
288.9485124916729,239.341684475362,12.5,0,14.66694673867377,-0.009137656780539238,0.09492318676625286,4.694153968918049e-05,-1.176279789263674e-05,7.593854941300229e-07,5.633609723133436e-05,5.652054430379156e-05
290.9503708760927,239.3389216114589,12.5,0,14.66549325042044,-0.0147906563037421,0.08325823389802953,4.69414109263884e-05,-1.177972470050833e-05,6.660658711842363e-07,5.631329037991411e-05,5.678351719681339e-05
291.7635471879042,237.5252735815444,12.5,0,14.83842519720364,-0.002747686540660155,0.08031395915098047,4.748515878028416e-05,-1.187953275469302e-05,6.425116732078438e-07,5.701426013963845e-05,5.693613158448263e-05
293.7745257639009,237.5149624330832,12.5,0,14.83320805377897,-0.02385267658264389,0.08488416562094786,4.748534791335882e-05,-1.194289500808764e-05,6.790733249675829e-07,5.693039268966377e-05,5.714857484963036e-05
292.4158329229834,239.3368990547075,12.5,0,14.85134328482509,0.006969101902191799,0.07159636337755129,4.751872322991853e-05,-1.185877350177306e-05,5.727709070204104e-07,5.70932443382065e-05,5.696663127869499e-05
294.4176913074032,239.3341361908044,12.5,0,14.84604194736348,-0.01430034500631994,0.07622956443333051,4.751877450756819e-05,-1.192259466191101e-05,6.098365154666441e-07,5.700853366349591e-05,5.720393536097626e-05
290.6337551537147,234.3874462177963,12.5,0,14.87255521072814,-0.01855838123588294,0.1992825557222712,4.760702337931874e-05,-1.195743098853733e-05,1.59426044577817e-06,5.709939834985843e-05,5.704455614300245e-05
292.6605303648973,234.3640610569708,12.5,0,14.87024855712716,-0.02629210942503946,0.1863107857590269,4.760582907034692e-05,-1.198033359586185e-05,1.490486286072215e-06,5.706686554988938e-05,5.716330492814974e-05
291.286040888794,236.1990716909594,12.5,0,14.84202755992961,-0.02386394934898339,0.2009037565708872,4.751357935125393e-05,-1.194998668586043e-05,1.607230052567098e-06,5.696607489022427e-05,5.695701148894347e-05
293.3036959083996,236.1832348146919,12.5,0,14.83983258583769,-0.0316209943378567,0.1878497595277345,4.75127610701509e-05,-1.19730532505513e-05,1.502798076221876e-06,5.693389976751268e-05,5.71376879579667e-05
215.1555103591655,95.38909643262927,12.5,0,-5.442600378500987,3.012205186499165,-0.2861376544867645,-1.982608536040249e-05,1.399313689959812e-05,-2.289101235894116e-06,4.545600404142932e-06,4.5872259983445e-06
216.9363216992622,94.99161609891765,12.5,0,-5.432742397257072,2.826196487247348,-0.2019616386478149,-1.964573286102051e-05,1.339002267699717e-05,-1.615693109182519e-06,4.234044027556409e-06,4.582884714356539e-06
216.0233863597305,97.58968960647232,12.5,0,-5.086599586649964,3.192716923789185,-0.4279937621007139,-1.883129221631123e-05,1.428597382544536e-05,-3.423950096805711e-06,4.940473000801495e-06,4.908534682583406e-06
217.8197616604763,97.19679258286071,12.5,0,-5.07799646220389,3.007414014130987,-0.3439367660916515,-1.865551989035724e-05,1.368612201498227e-05,-2.751494128733212e-06,4.591159966752869e-06,4.898931176983237e-06
216.6587156867866,99.20063561644618,12.5,0,-4.767054143959625,3.248702316975272,-0.3990087649036325,-1.785353511425101e-05,1.420949072948857e-05,-3.19207011922906e-06,5.126659091208668e-06,5.200594920487196e-06
218.4664845974942,98.81109380869449,12.5,0,-4.761171178031566,3.050110505631108,-0.3131705207830561,-1.767583617420589e-05,1.35692905604448e-05,-2.505364166264449e-06,4.727312609220672e-06,5.186115264957372e-06
217.5265916873516,101.4012287902892,12.5,0,-4.408143560162905,3.434124374025613,-0.5453726956322927,-1.685335889174179e-05,1.451571284501229e-05,-4.362981565058342e-06,5.690657676296347e-06,5.677209645106024e-06
219.3499245587084,101.0162702926376,12.5,0,-4.403482343432801,3.236301059356412,-0.4596487472232225,-1.668018434647009e-05,1.387894926468676e-05,-3.67718997778578e-06,5.240282741027291e-06,5.654670321834698e-06
219.7898632884193,98.52592941376018,12.5,0,-4.857434404048453,3.22967779222073,-0.5734317140953394,-1.812753232673163e-05,1.422091645834509e-05,-4.587453712762715e-06,5.097946645207146e-06,5.17354752135845e-06
221.5976321991268,98.1363876060085,12.5,0,-4.854663047905517,3.017699182208953,-0.4882438684406589,-1.794908109906481e-05,1.354036782139306e-05,-3.905950947525271e-06,4.675364487170855e-06,5.153691462838062e-06
220.6846968595952,100.7344611135632,12.5,0,-4.493446112488403,3.425562339241341,-0.7280348531022536,-1.711947743135596e-05,1.455655637556301e-05,-5.824278824818029e-06,5.68274070072465e-06,5.635649318793034e-06
222.5080297309519,100.3495026159115,12.5,0,-4.491884716927038,3.214406043708242,-0.642929210579817,-1.694555592913311e-05,1.3879607113408e-05,-5.143433684638536e-06,5.205075999566516e-06,5.606222295341404e-06
218.2399660788523,94.70064029964365,12.5,0,-5.538404489898983,2.999311501971472,-0.4495611764084517,-2.012234356925392e-05,1.40285203982279e-05,-3.596489411267613e-06,4.537374745485837e-06,4.578416451579244e-06
220.0207774189489,94.303159965932,12.5,0,-5.531633638724198,2.800075707139634,-0.3661035562746356,-1.994128820962914e-05,1.338554917382619e-05,-2.928828450197085e-06,4.205485314898533e-06,4.570550214637546e-06
219.1347996500282,96.90917199944666,12.5,0,-5.177482024235034,3.190133719118281,-0.5996315081145719,-1.912004945284673e-05,1.435041352056653e-05,-4.797052064916575e-06,4.951431113148826e-06,4.890262828385691e-06
220.9311749507739,96.51627497583505,12.5,0,-5.17195356307476,2.991657930173336,-0.5162600075152941,-1.89435777459779e-05,1.371086822701448e-05,-4.130080060122353e-06,4.578603661892476e-06,4.87618396519864e-06
298.7191461931803,237.4953620089572,12.5,0,15.07108143109838,-0.002050230390895358,0.05449774474519707,4.822910076382751e-05,-1.206342588212957e-05,4.359819579615766e-07,5.791024627454877e-05,5.760647715204325e-05
300.7250557789949,237.487818773987,12.5,0,15.06110817313177,-0.0430696294247026,0.08439233671730788,4.823000185756143e-05,-1.218670935266447e-05,6.75138693738463e-07,5.774805955490541e-05,5.776445972439978e-05
299.3476241117216,239.3288842729887,12.5,0,15.14781685905602,0.02928470706476816,0.03087091798360288,4.844958618332746e-05,-1.202454242463756e-05,2.46967343868823e-07,5.829990986026788e-05,5.771383836857313e-05
301.3481242643157,239.3268630692701,12.5,0,15.13757721458277,-0.01197788327174543,0.06094511523680075,4.844982939328224e-05,-1.21483909981358e-05,4.87560921894406e-07,5.813577553919862e-05,5.788952804571913e-05
297.6305905068514,234.3196082909029,12.5,0,14.99604035797186,-0.01797480597515833,0.1445580119137932,4.800170899029008e-05,-1.205435166549799e-05,1.156464095310346e-06,5.757465945798665e-05,5.742171603976477e-05
299.645869505844,234.3025006172439,12.5,0,14.98854342746434,-0.04922792618482941,0.1593646070200414,4.800272130883374e-05,-1.214836410576292e-05,1.274916856160331e-06,5.745158480224101e-05,5.75104309541358e-05
298.2590684253926,236.1531305549344,12.5,0,15.03490416969788,0.0009637498428070046,0.1291162049149109,4.811092234315896e-05,-1.202483933626132e-05,1.032929639319287e-06,5.778108860522486e-05,5.752820320995039e-05
300.2689379911646,236.1415449125272,12.5,0,15.02726432636551,-0.03045879185372247,0.1440223438860634,4.811161287785262e-05,-1.211927959502432e-05,1.152178751088508e-06,5.765687601932715e-05,5.766288096486021e-05
294.1400248892323,234.3492396508789,12.5,0,14.9397969069304,-0.01833839985677832,0.172266568309958,4.782202082206271e-05,-1.201052040508601e-05,1.378132546479664e-06,5.73579069286375e-05,5.724533132055651e-05
296.1553038882249,234.33213197722,12.5,0,14.93456093426991,-0.03944882148126361,0.1741610608362195,4.782215404684873e-05,-1.207388497615597e-05,1.393288486689756e-06,5.727397523939231e-05,5.735068280703563e-05
294.7778722209515,236.1731974762217,12.5,0,14.94624541920245,-0.01041733388758548,0.1644252457594841,4.783631920855791e-05,-1.199033180380223e-05,1.315401966075873e-06,5.740650968254349e-05,5.72619529844449e-05
296.7877417867235,236.1616118338144,12.5,0,14.94097110363595,-0.03162819649476845,0.1663501103061011,4.783641008883083e-05,-1.205398711169202e-05,1.330800882448809e-06,5.732211093721883e-05,5.742077488137841e-05
295.2448088752224,237.5084272751787,12.5,0,14.96416052070847,-0.002219444680430893,0.06728767243881933,4.788708922201144e-05,-1.197843063954415e-05,5.383013795105546e-07,5.74989364108087e-05,5.729444808571397e-05
297.250718461037,237.5008840402085,12.5,0,14.95619487632189,-0.03477101698424612,0.08556356690270911,4.788764041781745e-05,-1.20762231554071e-05,6.845085352216729e-07,5.736999667527302e-05,5.748053791302808e-05
295.8826562069416,239.3323851005215,12.5,0,15.01149298143544,0.01939634093024578,0.05023300330450446,4.80212604678492e-05,-1.194712609417156e-05,4.018640264360357e-07,5.774616700897495e-05,5.736660468949354e-05
297.8831563595357,239.330363896803,12.5,0,15.00335553155126,-0.01333942898617213,0.06862714073559671,4.802140924415298e-05,-1.204537059799676e-05,5.490171258847737e-07,5.761591438720398e-05,5.757372147757347e-05
284.9119235120016,117.4104399826236,12.5,0,0.0517195246303373,1.849586468524486,-3.772677485099519,-1.314166696002509e-06,5.877301079574085e-06,-3.018141988079615e-05,1.130978645020237e-05,1.131386673049969e-05
287.1907586033635,117.6458711724748,12.5,0,-0.05659886060612956,1.603537627089143,-3.582406148890582,-1.463946455610929e-06,5.17659949517016e-06,-2.865924919112466e-05,1.006930536802336e-05,1.125495757813117e-05
285.3426552567906,120.0421372669656,12.5,0,0.6108910009219783,2.030043651322363,-3.905712725669726,3.308162818924402e-07,6.007426883493979e-06,-3.124570180535781e-05,1.346128501090359e-05,1.265192120647126e-05
287.6565099141762,120.2759650780403,12.5,0,0.5053685916625453,1.788176545440109,-3.718662188309551,1.866382569680578e-07,5.317870072078313e-06,-2.974929750647641e-05,1.219287807095492e-05,1.257482407352175e-05
288.8589816722403,117.818218765125,12.5,0,0.1915523677612163,1.664053148168964,-3.817908684144837,-7.182749416992791e-07,5.171728179931712e-06,-3.054326947315869e-05,1.120748498808928e-05,1.120783028007493e-05
291.1378167636021,118.0536499549763,12.5,0,0.08053017736182821,1.408603721742085,-3.625907520016757,-8.691864098358176e-07,4.443107767685209e-06,-2.900726016013405e-05,9.939966766198276e-06,1.113798525972487e-05
289.3503690846403,120.4471389159623,12.5,0,0.7562691186746784,1.853468429429719,-3.959815203395829,9.372864362151953e-07,5.326083679235358e-06,-3.167852162716664e-05,1.341639200813778e-05,1.25125114473594e-05
291.6642237420259,120.6809667270369,12.5,0,0.6481058065552063,1.60237965100523,-3.771090671146875,7.920348601724763e-07,4.60913023797257e-06,-3.0168725369175e-05,1.21180326507387e-05,1.241936731967311e-05
288.007873707779,113.2647954949151,12.5,0,-0.6606204665131488,1.653634607003175,-3.731467498877238,-3.436893178444616e-06,5.820127115620678e-06,-2.985173999101791e-05,9.14744479341141e-06,9.196889065116786e-06
290.2260531315299,113.5030038182711,12.5,0,-0.7690065542907666,1.408621081815681,-3.546548132782648,-3.587717839182998e-06,5.122792705242792e-06,-2.837238506226119e-05,8.024819165020853e-06,9.159028674019471e-06
288.499261120179,115.8937156457524,12.5,0,-0.103142838468696,1.840407817860831,-3.871101061091804,-1.802383337388492e-06,5.971819287929614e-06,-3.096880848873444e-05,1.10756669141619e-05,1.031941194037412e-05
290.7524601099536,116.1303205903318,12.5,0,-0.2086478103773939,1.599703324660502,-3.68943112543052,-1.947435652936062e-06,5.285968887215522e-06,-2.951544900344416e-05,9.890477144058924e-06,1.026438015259719e-05
284.1658742456077,112.8522065760842,12.5,0,-0.8060121989733005,1.828306745261346,-3.678156400550457,-4.041884432923637e-06,6.495391344014945e-06,-2.942525120440366e-05,9.213741296451816e-06,9.25428617867404e-06
286.3840536693585,113.0904148994401,12.5,0,-0.9131392378783802,1.587843805178041,-3.493871183993816,-4.19232060535325e-06,5.811611566872437e-06,-2.795096947195053e-05,8.100955443124933e-06,9.222413236561187e-06
284.5966059903967,115.4839038604261,12.5,0,-0.2511035841325675,2.007781252939201,-3.81113158709305,-2.409756471575576e-06,6.625782876711495e-06,-3.04890526967444e-05,1.109771543801193e-05,1.040347316865406e-05
286.8498049801713,115.7205088050056,12.5,0,-0.3553850730665202,1.771524493311154,-3.630060540249806,-2.554451828461787e-06,5.953186437048907e-06,-2.904048432199845e-05,9.924201194133783e-06,1.03566818016982e-05
199.4326154654391,161.4118094124856,12.5,0,7.360840319724957,6.671352626757791,0.5277655692722663,1.821760692171363e-05,1.545965614984496e-05,4.22212455417813e-06,5.092853222211573e-05,5.078507815222823e-05
200.8927097701535,160.7353463804648,12.5,0,7.465270955274229,6.599012152202477,0.6152975216410113,1.860965733511555e-05,1.514462212282854e-05,4.92238017312809e-06,5.105581523731229e-05,5.081147107848101e-05
200.1676681822908,162.7403377190466,12.5,0,7.633488489625143,6.789586442345506,0.4377668368542385,1.899549401292405e-05,1.56198858238055e-05,3.502134694833908e-06,5.234403387641055e-05,5.270601550016371e-05
201.434892672685,162.0169715901496,12.5,0,7.776307274897649,6.72095616983664,0.5260453793175603,1.950741834380316e-05,1.528601392355913e-05,4.208363034540483e-06,5.262469342086473e-05,5.258118262360831e-05
196.9036579458772,162.5834777533667,12.5,0,7.64190222792465,6.402292126520425,0.6886795416486435,1.933225342814254e-05,1.437381302252564e-05,5.509436333189148e-06,5.100193735500509e-05,5.065864588578671e-05
198.3637522505916,161.9070147213459,12.5,0,7.710959367268834,6.253746807748471,0.749635874302417,1.967207252906149e-05,1.384322229098004e-05,5.997086994419335e-06,5.072917327745208e-05,5.074412876526393e-05
197.9727709803717,163.9932446067482,12.5,0,7.912733477633216,6.59249094256601,0.5563400505684458,2.004675437437348e-05,1.476578423410466e-05,4.450720404547566e-06,5.26654873366053e-05,5.284304974037694e-05
199.239995470766,163.2698784778512,12.5,0,8.011099948895684,6.446020914948299,0.6118697385523892,2.047870310450755e-05,1.421838696871801e-05,4.894957908419114e-06,5.250634520814429e-05,5.277618258262394e-05
198.7554160406225,165.0252655702062,12.5,0,8.285599225698352,6.775453826505926,0.5640667746121221,2.109355446102998e-05,1.505297286426028e-05,4.512534196896977e-06,5.468871329158286e-05,5.448910631768901e-05
199.8814500276941,164.2675639913649,12.5,0,8.374321906761594,6.661311091537469,0.5970781995045241,2.146878122840712e-05,1.461673796751062e-05,4.776625596036193e-06,5.460880415838497e-05,5.430193233728789e-05
199.8245290751171,166.4350324235878,12.5,0,8.555628915102441,6.973750117432731,0.4282077812353631,2.179901243438162e-05,1.547149724370278e-05,3.425662249882905e-06,5.638132738835766e-05,5.680181266463949e-05
200.7576932478684,165.6304277478702,12.5,0,8.681481139061358,6.86676012081154,0.4512491054922826,2.228733154834711e-05,1.502844747534784e-05,3.609992843938261e-06,5.646245524264465e-05,5.643830436948277e-05
200.7057641172448,163.7128879387014,12.5,0,7.939528938671828,6.959692953881477,0.4361502156529867,1.983873824064466e-05,1.591939430148326e-05,3.489201725223893e-06,5.407424652777322e-05,5.414395956192554e-05
201.8317981043164,162.9551863598601,12.5,0,8.050426686212889,6.874689159786104,0.4843639775419953,2.026161406805236e-05,1.555866396234522e-05,3.874911820335962e-06,5.417728505997557e-05,5.389954389380569e-05
201.4408168340964,165.0414162452624,12.5,0,8.209626434933909,7.101720506036023,0.3303696003654144,2.058942818695969e-05,1.615780447136814e-05,2.642956802923315e-06,5.556770255914265e-05,5.615155844933238e-05
202.3739810068478,164.2368115695448,12.5,0,8.368513623757503,7.022479779485828,0.372240081933557,2.116125977243534e-05,1.577712439534864e-05,2.977920655468456e-06,5.586688569071264e-05,5.57316623217418e-05
249.1201160039231,218.43699539819,12.5,0.5433768645765521,17.03726273525401,7.133504967806296,-3.770651276149505,0.0001068987376938353,2.014222450697281e-05,-6.606150207702998e-05,0.0001951703327163403,0.0002107553275513874
250.7329746170361,219.0164200712708,12.5,0.4737865052497079,18.43841627884772,6.627257681807263,-3.271867985911455,0.0001020519741181287,1.226971870375333e-05,-4.974206125160782e-05,0.0001758921218909774,0.0001845510101613754
248.2280414463646,219.6610865977935,12.5,0.6029745993483904,15.93878158412853,5.981796570518387,-3.20993924732338,0.0001164123598564252,1.609651107427226e-05,-6.467977599529167e-05,0.0002038975660984219,0.0002399531082857441
249.9740627468952,220.3069188714885,12.5,0.5363093972868078,17.63274174311028,5.698684591130838,-2.880531689172684,0.0001118543822142735,8.905932690822169e-06,-4.969747797031613e-05,0.0001861567925524015,0.0002077585776502493
251.9136690672096,219.4405883711069,12.5,0.413380007707287,16.72151634944696,5.834151651800779,-3.257411096783263,8.325923364101541e-05,9.021295345768357e-06,-4.442277644240767e-05,0.000142201841588087,0.0001665808333584418
253.5265276803227,220.0200130441875,12.5,0.314511360452292,18.40918285503133,5.157617244509044,-2.811731058677976,7.991859847106958e-05,2.59235353568569e-06,-3.281432714080494e-05,0.0001275736865024986,0.0001436897146997563
251.2522390499267,220.7797009089808,12.5,0.4768623240790102,16.05770299146583,5.088188487241826,-2.997652036804754,9.044291963793312e-05,6.568138607015821e-06,-4.584111869254844e-05,0.0001497843662016965,0.0001855705409201922
252.9982603504573,221.4255331826757,12.5,0.3761253102125203,18.18804408757574,4.678927761277416,-2.740403666925202,8.729092518526679e-05,6.766319790452456e-07,-3.514043716514557e-05,0.0001362763431895973,0.0001571462278863895
253.0592994627743,217.1211774184983,12.5,0.2952310378871076,17.11268771430906,5.66497380474105,-2.96270082142638,7.126962783861974e-05,6.296767085797478e-06,-3.363032120534053e-05,0.0001195550734285977,0.0001399404580117488
254.4415135356118,217.5855807533085,12.5,0.2035229958934029,18.57388109110972,5.2306032686144,-2.653720064817834,6.937041068578662e-05,2.358920065477304e-06,-2.665458062076249e-05,0.0001108437353808987,0.0001244919566974115
252.3978694454913,218.4602899563723,12.5,0.3642261202992099,16.41245801837352,5.010010140691255,-2.753753060445795,7.630363419313963e-05,4.564619793563998e-06,-3.465072282292283e-05,0.0001248593493398589,0.0001543542894929397
253.9132462057464,218.9911008917967,12.5,0.2678473450550585,18.24764425917602,4.793314120295278,-2.590494024565534,7.451698763180723e-05,1.011387137098835e-06,-2.830550713236535e-05,0.0001169039024615693,0.0001349400291055151
250.6652344617261,216.3168072474171,12.5,0.4270381816778154,17.27770006555498,6.810305083206307,-3.427167073944646,8.69872905129342e-05,1.391160101585354e-05,-4.785194355854967e-05,0.0001550512401491875,0.0001703303750581416
252.0474485345636,216.7812105822273,12.5,0.3548476328257573,18.48012225926906,6.353261051668603,-2.946235385265202,8.378452151556201e-05,8.596942118056783e-06,-3.65338240722224e-05,0.0001421742702847408,0.0001522228251934441
249.7731599041677,217.5408984470205,12.5,0.4957853367769303,16.37408483912897,5.789701338090326,-2.932372527865893,9.473209309188331e-05,1.076481270078527e-05,-4.652577946260292e-05,0.0001623908112742571,0.0001920999724087845
251.2885366644227,218.071709382445,12.5,0.4246774489523689,17.87920681569741,5.546901410561842,-2.609882376365303,9.173278639205106e-05,5.990933355495419e-06,-3.629104920866181e-05,0.0001506822618121413,0.0001696702501399828
190.9876823000822,92.72983453175854,12.5,0,-5.858408017283993,2.394722171259647,0.8739103036224557,-2.066268339231649e-05,1.234983736185806e-05,6.991282428979646e-06,3.734236659098436e-06,3.722175444447413e-06
193.0689364671132,92.95953951496521,12.5,0,-5.930148211139878,2.261623433137383,1.018401996776229,-2.078577302215751e-05,1.198131355495153e-05,8.147215974209831e-06,3.610789271714423e-06,3.79172394581049e-06
191.6567799535222,94.80717882743971,12.5,0,-5.471702721069054,2.528983724607077,0.7817365011701822,-1.953263568710663e-05,1.247011009559789e-05,6.253892009361458e-06,3.884773615878213e-06,3.863209237496443e-06
193.730553662622,95.05345592034462,12.5,0,-5.54725031540335,2.393873768620927,0.9279473611875578,-1.966630002418746e-05,1.209819631190965e-05,7.423578889500463e-06,3.73849528909906e-06,3.945467581238091e-06
189.8287711691198,89.13176866689005,12.5,0,-6.48144297259226,2.211920643623322,0.9085402415313798,-2.251015402719389e-05,1.226330043766844e-05,7.268321932251038e-06,3.56719716481402e-06,3.547287292932294e-06
191.9229818693514,89.33276991411128,12.5,0,-6.548347502861797,2.078635651975641,1.052975409249128,-2.261762053073826e-05,1.189031208861149e-05,8.423803273993028e-06,3.462980771496689e-06,3.600610237829361e-06
190.4978688225599,91.20911296257121,12.5,0,-6.095588655896251,2.346183215831209,0.8162106411420617,-2.138283027153297e-05,1.238425721537687e-05,6.529685129136494e-06,3.670345032478622e-06,3.637524414532814e-06
192.5845990648601,91.42668631949067,12.5,0,-6.166221264032997,2.210907776112819,0.9623471900460222,-2.150063426579584e-05,1.200788189478742e-05,7.698777520368178e-06,3.549101706214552e-06,3.699319699143054e-06
186.2014918346296,88.78362429432443,12.5,0,-6.525780979658522,2.091711176877832,1.048559064708909,-2.255586807640953e-05,1.191410054973588e-05,8.388472517671273e-06,3.473691870174603e-06,3.454718634792561e-06
188.2957025348612,88.98462554154565,12.5,0,-6.592283442366997,1.960134271726125,1.193036512445865,-2.266341443295529e-05,1.15462564234172e-05,9.544292099566921e-06,3.382367651456802e-06,3.508195755717318e-06
186.8835460212701,90.83226485402014,12.5,0,-6.144704529152693,2.224988348499466,0.9565826228927297,-2.144304517208819e-05,1.203572633852045e-05,7.652660983141837e-06,3.562584213719272e-06,3.531173458517323e-06
188.9702762635705,91.0498382109396,12.5,0,-6.214947105374886,2.091410504735176,1.102784283239241,-2.156095914098777e-05,1.166447129945247e-05,8.822274265913926e-06,3.456166551764066e-06,3.592469765148223e-06
187.3828443393848,92.33197383009998,12.5,0,-5.913780479157744,2.265868287559083,1.019388297672673,-2.073679216335204e-05,1.198180290351526e-05,8.155106381381384e-06,3.615414631656751e-06,3.603292944624156e-06
189.4640985064159,92.56167881330666,12.5,0,-5.985072333344777,2.134919033599979,1.164112714299372,-2.086016669358327e-05,1.161979877419575e-05,9.312901714394973e-06,3.508784909226173e-06,3.671685509852118e-06
188.0648985260254,94.38061438979571,12.5,0,-5.531319051166191,2.399127514551333,0.9276643741880017,-1.961952297537288e-05,1.210226328749722e-05,7.421314993504013e-06,3.74536256977424e-06,3.723872221167394e-06
190.1386722351252,94.62689148270061,12.5,0,-5.606436082388973,2.266159122213886,1.074131696973446,-1.975352276141582e-05,1.173685805699561e-05,8.593053575787568e-06,3.618717845316762e-06,3.803832939720864e-06
266.7890954010592,218.5813249932214,12.5,0,16.83052436781217,1.231806571955323,-0.7331929766954089,5.287223271943468e-05,-9.522638463992702e-06,-5.865543813563271e-06,6.848757778246179e-05,7.035321031029011e-05
268.8675607210693,218.8901614587456,12.5,0,16.75072895442358,0.9119814800730377,-0.715802721334589,5.287274747009703e-05,-1.048224242730514e-05,-5.726421770676712e-06,6.718707403129382e-05,6.811873879247674e-05
266.4977125656469,220.4835513104129,12.5,0,16.81949741818873,1.191261144410996,-0.8319254795658868,5.286938282267513e-05,-9.643562272435794e-06,-6.655403836527095e-06,6.832615738775418e-05,6.987440758081731e-05
268.681209624085,220.6839966234417,12.5,0,16.74237778423349,0.8823987292858178,-0.8217101634920565,5.28696899261185e-05,-1.057022629367217e-05,-6.573681307936452e-06,6.707119290104291e-05,6.750355938576227e-05
267.2937852764378,215.2865723644102,12.5,0,16.90321470036683,1.433981425034406,-0.9945448836436144,5.294310190114633e-05,-8.933831200183366e-06,-7.956359069148915e-06,6.941845526197228e-05,7.08915869914139e-05
269.1903302890864,215.7831478131441,12.5,0,16.78273669323217,1.093502161738233,-0.9080233973350258,5.282995568895235e-05,-9.926982437023389e-06,-7.264187178680206e-06,6.788727229689362e-05,6.889750488610715e-05
267.0024024410254,217.1887986816018,12.5,0,17.02066050403537,1.420839968660442,-1.098135659073597,5.332944163798483e-05,-9.069840503514882e-06,-8.785085272588773e-06,6.983776284312581e-05,7.062576271190855e-05
269.0039791921022,217.5769829778401,12.5,0,16.91397901725319,1.095072091491308,-1.022876417431512,5.324867518201716e-05,-1.002695252103037e-05,-8.183011339452095e-06,6.8406146613022e-05,6.849224536357552e-05
264.0088729557481,214.4264784574274,12.5,0,17.18896171099684,2.16268937551036,-1.334047708161746,5.32745259747816e-05,-6.830563367164321e-06,-1.067238166529397e-05,7.284449769147233e-05,7.543567226978357e-05
265.9054179683967,214.9230539061612,12.5,0,17.0275203092119,1.677206795654616,-1.22621280845462,5.314629955295439e-05,-8.254954501274751e-06,-9.809702467636957e-06,7.068106278752592e-05,7.264348366179498e-05
263.5355698129742,216.5164437578285,12.5,0,17.32457370100907,2.096342147062533,-1.497330673671377,5.376156212557898e-05,-7.151364090207148e-06,-1.197864538937101e-05,7.31738600424743e-05,7.589068307390425e-05
265.5371465640509,216.904628054067,12.5,0,17.1782462683213,1.626571535222818,-1.404150850624353,5.366913083044988e-05,-8.537568101944017e-06,-1.123320680499482e-05,7.112083707085145e-05,7.26081681215814e-05
263.1890878650964,218.046404543713,12.5,0,17.15938717953155,1.971101768360926,-1.12804870144314,5.333315755981223e-05,-7.419984084870278e-06,-9.024389611545121e-06,7.210235570023204e-05,7.620133594860105e-05
265.2675531851066,218.3552410092373,12.5,0,17.01657625123837,1.440050875600675,-1.071557730338127,5.330100330348223e-05,-9.005098199068532e-06,-8.572461842705015e-06,6.987954408673287e-05,7.25189356909523e-05
262.7157847223224,220.1363698441141,12.5,0,17.19795737612587,1.878258730975055,-1.303470516672036,5.353085661882273e-05,-7.747937961780516e-06,-1.042776413337628e-05,7.19759421759146e-05,7.659504458170545e-05
264.8992817807608,220.336815157143,12.5,0,17.06286425893846,1.362069640266965,-1.259412671197164,5.35115099163895e-05,-9.291668558296482e-06,-1.007530136957731e-05,6.983333207907037e-05,7.231046369699399e-05
269.3253927602169,110.9055333403757,12.5,0,-1.49225658634986,2.536646417679543,-3.338202957878369,-6.804538210463187e-06,9.311073805654425e-06,-2.670562366302695e-05,9.249810636733726e-06,9.177912275965045e-06
271.4805977443781,111.1953336757567,12.5,0,-1.597458688746573,2.334088374464145,-3.166412971471449,-6.979138503560348e-06,8.747049749282523e-06,-2.533130377177159e-05,8.26237259706433e-06,9.211960049819752e-06
269.5060154259069,113.211776010359,12.5,0,-1.017949912666396,2.670222790317688,-3.428623926816823,-5.393617952786619e-06,9.35907285914972e-06,-2.742899141453458e-05,1.069672114651724e-05,1.023920838079779e-05
271.6851550231622,113.5609658388494,12.5,0,-1.133526752438276,2.46625578011249,-3.256183506680213,-5.600290231892475e-06,8.798839898310588e-06,-2.60494680534417e-05,9.615136968948311e-06,1.029603112973458e-05
269.6382403941848,114.9000628192983,12.5,0,-0.715559737602812,2.636185363677758,-3.451924789191885,-4.398739451271205e-06,9.008240953851075e-06,-2.761539831353508e-05,1.129307589649804e-05,1.108946047095723e-05
271.8349013442838,115.2927287741788,12.5,0,-0.847116270932327,2.41232876374622,-3.269117907437298,-4.640635077980421e-06,8.397145060733764e-06,-2.615294325949839e-05,1.007410916815167e-05,1.116471484335083e-05
269.8188630598749,117.2063054892815,12.5,0,-0.2305369570514753,2.773382188145923,-3.547461268840789,-2.956424013081458e-06,9.059252567708131e-06,-2.837969015072632e-05,1.300712305287212e-05,1.235109627578047e-05
272.039458623068,117.6583609372715,12.5,0,-0.3723376471807253,2.54823626229543,-3.363988598470272,-3.230069480814664e-06,8.452226157089956e-06,-2.691190878776218e-05,1.170399401468903e-05,1.245393180484413e-05
273.4429687666905,115.5801802035416,12.5,0,-0.4971850098381978,2.449350939909745,-3.558780973766934,-3.550472783410029e-06,8.235671015581741e-06,-2.847024779013547e-05,1.139935656938482e-05,1.121454752774789e-05
275.6396297167894,115.9728461584222,12.5,0,-0.6314042955386675,2.218696949207516,-3.373379860690479,-3.795451305089748e-06,7.604953673894985e-06,-2.698703888552383e-05,1.014526915847626e-05,1.127543858101039e-05
273.6650473983183,117.9892884930244,12.5,0,0.01651842352108868,2.597993916141608,-3.664078704239372,-2.025536177645802e-06,8.300365792836273e-06,-2.931262963391497e-05,1.325810934437018e-05,1.252410315511209e-05
275.8856429615115,118.4413439410144,12.5,0,-0.1281695211010507,2.365899206040529,-3.477839238468535,-2.302861832355785e-06,7.673413076210531e-06,-2.782271390774829e-05,1.191630572561477e-05,1.261297932022435e-05
273.0583172934427,111.4074822452971,12.5,0,-1.308483165553912,2.362891787959827,-3.445299752909186,-6.077459560140379e-06,8.608040253914578e-06,-2.756239802327348e-05,9.281241505986363e-06,9.231776464125239e-06
275.2135222776038,111.6972825806781,12.5,0,-1.416179787567309,2.153249300417229,-3.271010308642059,-6.25437476054917e-06,8.023341591388978e-06,-2.616808246913647e-05,8.26194529761776e-06,9.251868140979252e-06
273.2803959250705,113.8165905347799,12.5,0,-0.8058972830115896,2.507644885274982,-3.545404760054176,-4.584987213857071e-06,8.669181459289212e-06,-2.836323808043341e-05,1.085558760831292e-05,1.033237124970599e-05
275.4595355223258,114.1657803632704,12.5,0,-0.9241834709890367,2.29645314714687,-3.370290168233398,-4.794549624882413e-06,8.087996847661212e-06,-2.696232134586718e-05,9.736213054883453e-06,1.037483155488848e-05
191.3662042226273,170.1041907193302,12.5,0,9.281361341370426,5.856160409068899,0.6659272637941782,2.501542796513024e-05,1.131462423592413e-05,5.327418110353426e-06,5.51150468349624e-05,5.487342373104026e-05
192.9593105736257,169.1857963728446,12.5,0,9.421749684248912,5.717253018379424,0.7473096694409127,2.557579657489297e-05,1.075780991141503e-05,5.978477355527301e-06,5.515702387517893e-05,5.508744043016787e-05
192.6252156856496,171.6825630217916,12.5,0,9.636969101439204,6.081775033732187,0.5019049845422414,2.59728810976197e-05,1.175210482679163e-05,4.015239876337931e-06,5.721806147181655e-05,5.742177736752452e-05
194.2414090521075,170.7619357310234,12.5,0,9.77419586781442,5.943262301947044,0.5832068910043193,2.65228169354485e-05,1.1199082671979e-05,4.665655128034555e-06,5.72478173755528e-05,5.768125299938752e-05
189.1855324014002,167.3703696982569,12.5,0,8.551489264887293,5.420286545473865,0.8383316198877605,2.302853641126024e-05,1.050372553360653e-05,6.706652959102084e-06,5.088859038688047e-05,5.068025386151504e-05
190.7386508686285,166.4558429247193,12.5,0,8.683510621222112,5.296240285713044,0.9120907100279467,2.355024175934032e-05,1.000116041730405e-05,7.296725680223573e-06,5.09527411209795e-05,5.082340879206506e-05
190.4445438644225,168.9487420007182,12.5,0,8.883592398522438,5.629868535339756,0.6856231044156846,2.3923600847e-05,1.090870539426927e-05,5.484984835325477e-06,5.28436772581302e-05,5.306703795190581e-05
192.0207493471102,168.0319822828979,12.5,0,9.012596515238943,5.506142179663973,0.7593274113599705,2.443539510503344e-05,1.040957776273356e-05,6.074619290879764e-06,5.289600560352518e-05,5.324988661305456e-05
186.4954523060358,168.9543765348777,12.5,0,8.796914228723928,5.026443029360181,0.8254326968594756,2.412897110842842e-05,9.047086310973434e-06,6.603461574875805e-06,5.042304986040924e-05,5.032591944385562e-05
188.048570773264,168.03984976134,12.5,0,8.951501686712232,4.945873213597988,0.9160490456137306,2.468810682660075e-05,8.665592934143772e-06,7.328392364909845e-06,5.072997872411718e-05,5.054695199242338e-05
187.7144758852879,170.536616410287,12.5,0,9.142245377945482,5.205787734361133,0.6845369754184241,2.509055502193663e-05,9.344724447599238e-06,5.476295803347392e-06,5.232302453762084e-05,5.263000708180649e-05
189.2906813679756,169.6198566924666,12.5,0,9.293481802946081,5.125217313967858,0.7748583219347296,2.563896791825317e-05,8.965909962340281e-06,6.198866575477836e-06,5.2615665341155e-05,5.290094173210847e-05
188.606863080887,171.6948963887988,12.5,0,9.518112846173658,5.4252741448812,0.6516047338002716,2.611774179185074e-05,9.746386986680912e-06,5.212837870402173e-06,5.448818754510492e-05,5.43696908978486e-05
190.1999694318854,170.7765020423131,12.5,0,9.689015293746905,5.33730221777323,0.7553104788733819,2.673500716577151e-05,9.328154861876811e-06,6.042483830987055e-06,5.482906457058136e-05,5.468110332349347e-05
189.8258866601391,173.2771362642081,12.5,0,9.897025235062534,5.61942300491862,0.4981732697499554,2.717494234826521e-05,1.006453342768956e-05,3.985386157999643e-06,5.656899867235048e-05,5.681850783463211e-05
191.442080026597,172.3565089734398,12.5,0,10.06430478214249,5.531458412806122,0.6015103018304583,2.778060857261107e-05,9.649223095265598e-06,4.812082414643666e-06,5.689440677832004e-05,5.719060549736165e-05
229.8118565419384,89.01759044885563,12.5,0,-6.360011674259366,2.706118790075301,-1.030022373394785,-2.251693238969021e-05,1.374758946764846e-05,-8.240178987158281e-06,4.222288718468727e-06,4.206749044668861e-06
231.8775627600549,88.94397474959723,12.5,0,-6.419077068384014,2.422016920335023,-0.8996186115265933,-2.247866015509686e-05,1.288571579977928e-05,-7.196948892212746e-06,3.814251542242496e-06,4.219494933624293e-06
230.7618989582205,91.27446980062535,12.5,0,-5.939635707674452,2.933983018902718,-1.207872966599944,-2.135402067968042e-05,1.414045422662826e-05,-9.662983732799555e-06,4.622508705059516e-06,4.406372411029576e-06
232.7978527013423,91.16547555577574,12.5,0,-5.992285244796934,2.651530222576375,-1.079418913967772,-2.129653696141128e-05,1.327872490808194e-05,-8.635351311742177e-06,4.156393249327867e-06,4.416941422147625e-06
228.1663348076218,85.1085607451076,12.5,0,-7.05948339780473,2.516960278354931,-0.8966435641616513,-2.460391509565907e-05,1.370185960897956e-05,-7.17314851329321e-06,3.989944891746371e-06,3.957548090372913e-06
230.2835738240792,85.09622248430998,12.5,0,-7.129391688582625,2.229149782755304,-0.7569511216607777,-2.459737322966864e-05,1.283679265568307e-05,-6.055608973286222e-06,3.633363267998343e-06,3.970615126046604e-06
229.1163772239039,87.36544009687731,12.5,0,-6.632046359820511,2.744058551001341,-1.073310128942934,-2.34177951922267e-05,1.40866244510607e-05,-8.586481031543471e-06,4.297152214118271e-06,4.086486930409203e-06
231.2038637653666,87.31772329048849,12.5,0,-6.695582545114645,2.457837781676116,-0.935457620217738,-2.339213436970775e-05,1.322154693745529e-05,-7.483660961741904e-06,3.892466450051179e-06,4.099902163026973e-06
224.4991692594164,85.1299312396857,12.5,0,-7.100536229806915,2.522615687836304,-0.710894784398822,-2.473980848565117e-05,1.37527991849217e-05,-5.687158275190576e-06,3.960303132689952e-06,3.933081054813644e-06
226.6164082758737,85.1175929788881,12.5,0,-7.168913055796322,2.240985669594449,-0.5721260730955742,-2.473331031422379e-05,1.290628458733929e-05,-4.577008584764593e-06,3.619339659037403e-06,3.947490866297702e-06
225.5007444740393,87.44808802991622,12.5,0,-6.663959384744351,2.755831748404916,-0.8911351723235724,-2.352933542990585e-05,1.414982910269121e-05,-7.12908137858858e-06,4.261598854154356e-06,4.061734547328813e-06
227.5882310155019,87.40037122352739,12.5,0,-6.725983107278597,2.475887163869704,-0.7542188866634602,-2.350385567438727e-05,1.330362541020593e-05,-6.033751093307681e-06,3.87329186260489e-06,4.076259948606179e-06
226.2339484187139,89.1450965802036,12.5,0,-6.383937028387416,2.72823451799843,-0.839293872401765,-2.261118610523847e-05,1.383750008030491e-05,-6.71435097921412e-06,4.198324728684073e-06,4.183461295424351e-06
228.2996546368304,89.07148088094519,12.5,0,-6.442835159730475,2.44546278964388,-0.7107268095738004,-2.257344274285262e-05,1.297974905464479e-05,-5.685814476590403e-06,3.799683489032656e-06,4.197093860413131e-06
227.2355236333368,91.4632533704341,12.5,0,-5.956824180560745,2.963854409901062,-1.022210737824562,-2.143292090571523e-05,1.424979345613199e-05,-8.177685902596493e-06,4.59856029251844e-06,4.387371463360467e-06
229.2714773764586,91.35425912558449,12.5,0,-6.009374563655463,2.682818720326677,-0.8956330917473179,-2.137625357995882e-05,1.339251955596974e-05,-7.165064733978543e-06,4.141197550993476e-06,4.398449164452582e-06
186.0844185851215,98.97413338987499,12.5,0,-4.752507772201938,2.48108497314481,1.099234305045442,-1.719289284956205e-05,1.174147813182494e-05,8.793874440363538e-06,3.965284392797338e-06,3.986992052571832e-06
188.1811917475791,99.23651883474703,12.5,0,-4.826748721018613,2.36099459913274,1.24565939930618,-1.733439158656575e-05,1.141658169403966e-05,9.96527519444944e-06,3.840088756143545e-06,4.102830718713106e-06
186.764424120127,100.9996221166193,12.5,0,-4.373063216991075,2.609452976597879,1.012666548338628,-1.608136467564974e-05,1.184870009870607e-05,8.101332386709027e-06,4.20362798263352e-06,4.226545369787013e-06
188.8491473325935,101.2776473026739,12.5,0,-4.451295925886134,2.48719434970692,1.16111734873545,-1.623390244260116e-05,1.152005865977105e-05,9.288938789883596e-06,4.04735495163187e-06,4.365082925528896e-06
184.9066144490851,95.46588400505884,12.5,0,-5.359708952170037,2.301723793863883,1.127679560868262,-1.899244768203523e-05,1.165328330210045e-05,9.021436486946095e-06,3.681876350614092e-06,3.68409520771277e-06
187.0242587371555,95.70118062358596,12.5,0,-5.429679677171335,2.179689474305165,1.274387937951607,-1.91187265463924e-05,1.131875005951359e-05,1.019510350361286e-05,3.581062444602615e-06,3.770766973573703e-06
185.5866199840906,97.49137273180318,12.5,0,-4.981972345079222,2.430309870199746,1.040579925805677,-1.78865594004133e-05,1.176256946070257e-05,8.324639406445417e-06,3.841542100474057e-06,3.841642969714431e-06
187.6922143221699,97.74230909151285,12.5,0,-5.055825070715683,2.306120769556145,1.189291274048302,-1.80235368419351e-05,1.142424651915221e-05,9.514330192386417e-06,3.718498645906602e-06,3.943584239342734e-06
181.238746949855,95.05833830692805,12.5,0,-5.411061333700468,2.153472188754844,1.259988996142823,-1.903817401884537e-05,1.121996007097587e-05,1.007991196914259e-05,3.539593342364864e-06,3.539268572805072e-06
183.3563912379254,95.29363492545517,12.5,0,-5.481551766030352,2.029868406321087,1.407219777692371,-1.916486037635399e-05,1.088082031305176e-05,1.125775822153897e-05,3.451976169153531e-06,3.62206539817965e-06
181.9396236104733,97.05673820732748,12.5,0,-5.036573789463644,2.28278831000172,1.171278618887896,-1.794326677428504e-05,1.133418162357642e-05,9.370228951103166e-06,3.6771848370568e-06,3.672515843921086e-06
184.0452179485527,97.30767456703714,12.5,0,-5.110981411521605,2.156976786519311,1.320561771989571,-1.808072194608458e-05,1.099111084607908e-05,1.056449417591657e-05,3.569749307526077e-06,3.769010412069861e-06
182.4527009358632,98.51966846819825,12.5,0,-4.814177352647211,2.322561472766122,1.23547355581862,-1.726341670668397e-05,1.128353859496936e-05,9.883788446548962e-06,3.777523812735516e-06,3.795862211854909e-06
184.5494740983209,98.78205391307027,12.5,0,-4.888708267838578,2.20196940419054,1.38244609107974,-1.740544198043588e-05,1.095726870768059e-05,1.105956872863792e-05,3.67145589315543e-06,3.904740089059951e-06
183.1535775964815,100.5180683685977,12.5,0,-4.437912492436451,2.451318364421101,1.147638803055681,-1.616237466733352e-05,1.139454876009668e-05,9.181110424445445e-06,3.982129868493639e-06,3.999603484877509e-06
185.2383008089481,100.7960935546522,12.5,0,-4.516471208912701,2.328516469928538,1.296684681075612,-1.631552104446347e-05,1.106442967090148e-05,1.037347744860489e-05,3.848782723929883e-06,4.128615448817343e-06
224.6180043193823,93.55177485069365,12.5,0,-5.661002742813029,2.95763029971079,-0.7969696381939056,-2.048131301677032e-05,1.399321915332495e-05,-6.375757105551245e-06,4.537539528540064e-06,4.566008196634271e-06
226.4984911622226,93.26298781219802,12.5,0,-5.675594949617646,2.726698109102954,-0.6985636565773375,-2.034326232605883e-05,1.326590990882357e-05,-5.5885092526187e-06,4.152633144237238e-06,4.563317453075933e-06
225.5185153947603,95.75038767958999,12.5,0,-5.282268042046142,3.1609735879552,-0.9568078640967544,-1.943203660491181e-05,1.434092991509355e-05,-7.654462912774036e-06,4.984435554925812e-06,4.858062584106233e-06
227.3915748327505,95.45388891506198,12.5,0,-5.295448377128265,2.930320118596255,-0.8587995480069963,-1.928969090168745e-05,1.361338308121063e-05,-6.87039638405597e-06,4.547789560888501e-06,4.849647671999494e-06
221.3609055646766,94.05196867392641,12.5,0,-5.609644526332635,2.985313447267263,-0.6211844869700458,-2.033911324207824e-05,1.404071865232135e-05,-4.969475895760366e-06,4.541774041064645e-06,4.567527716025087e-06
223.2413924075169,93.7631816354308,12.5,0,-5.623738095683469,2.758257737197437,-0.5237734897453727,-2.020256809594505e-05,1.332541523557857e-05,-4.190187917962982e-06,4.163499082824788e-06,4.567136333191384e-06
222.2742812826233,96.26393860412468,12.5,0,-5.232689619436767,3.187945977146497,-0.780079994824271,-1.929496356391485e-05,1.43875788224182e-05,-6.240639958594169e-06,4.984484421840628e-06,4.868941144769725e-06
224.1473407206134,95.96743983959666,12.5,0,-5.245386248047277,2.961172743910043,-0.6830626105096521,-1.915417418887932e-05,1.367206177894996e-05,-5.464500884077217e-06,4.554765063768781e-06,4.863232254554048e-06
222.9429187145316,97.88321297777554,12.5,0,-4.92749205084589,3.205589936596769,-0.7515719816510419,-1.833244651198426e-05,1.419988143778637e-05,-6.012575853208335e-06,5.080354187788135e-06,5.142369276852407e-06
224.8105409148032,97.58106883797802,12.5,0,-4.941057407000248,2.972886298599146,-0.6561120267467271,-1.818969274128011e-05,1.346608208111747e-05,-5.248896213973816e-06,4.616067194210617e-06,5.131292548005933e-06
223.8562944324783,100.0951829079738,12.5,0,-4.549848267754031,3.411962743145128,-0.9138832068873552,-1.7289084651329e-05,1.455815939226763e-05,-7.311065655098842e-06,5.693532384776298e-06,5.587975397208069e-06
225.7164892278997,99.7853270421439,12.5,0,-4.562007750641458,3.179544742584537,-0.8188354838159788,-1.714206059612029e-05,1.382414937678368e-05,-6.55068387052783e-06,5.164137474502536e-06,5.567550967876774e-06
226.1777352546875,97.35988397644644,12.5,0,-4.978934449036918,3.168102356822935,-0.931582669430149,-1.846707212237648e-05,1.412107510106292e-05,-7.452661355441192e-06,5.056593066268994e-06,5.122069978232892e-06
228.0453574549592,97.05773983664891,12.5,0,-4.993497206839054,2.92915166619402,-0.8351154589612949,-1.832251239484019e-05,1.336808309729211e-05,-6.68092367169036e-06,4.58270938609783e-06,5.107950177882002e-06
227.0782463300655,99.55849680534281,12.5,0,-4.598672329505554,3.376438695590916,-1.09596995485751,-1.74169024108905e-05,1.448354168949537e-05,-8.767759638860081e-06,5.673718309526526e-06,5.551297205119487e-06
228.938441125487,99.24864093951288,12.5,0,-4.611812036366223,3.137769573340553,-0.9999234757534223,-1.726801417504436e-05,1.373031226378275e-05,-7.999387806027379e-06,5.133705471456739e-06,5.527315528781813e-06
312.7262845200456,237.3217754196714,12.5,0,15.32316814745967,-0.004343433029871946,0.01153615726971519,4.903761281829485e-05,-1.227243350366333e-05,9.22892581577215e-08,5.887188950729216e-05,5.837923396674904e-05
314.747173990299,237.3090386246943,12.5,0,15.31287178777059,-0.04920387104563684,0.0697390980763902,4.90405528177024e-05,-1.240774981756251e-05,5.579127846111216e-07,5.869688334379084e-05,5.844149276831392e-05
313.2369136194746,239.2823718865741,12.5,0,15.47904009526561,0.04546009990502942,-0.02004674525218995,4.949656022492591e-05,-1.223775975651639e-05,-1.603739620175196e-07,5.962174286140091e-05,5.859238308497742e-05
315.2414276200066,239.2789590726459,12.5,0,15.46791239683363,-5.391604495041946e-05,0.03884834380780185,4.949736280270359e-05,-1.237450244881075e-05,3.107867504624148e-07,5.944117984353743e-05,5.866727406266975e-05
311.8418489760273,233.9259227259169,12.5,0,15.09644900681202,-0.01495253616062886,0.04593110410549628,4.832059885072695e-05,-1.212500732116362e-05,3.674488328439703e-07,5.796863788579255e-05,5.777678039102263e-05
313.8911015918354,233.8970363220344,12.5,0,15.08928712708212,-0.05089294259424371,0.09747558692046782,4.832643316073819e-05,-1.223428711796728e-05,7.798046953637425e-07,5.78328264550946e-05,5.7792939395477e-05
312.3524780754564,235.8865191928196,12.5,0,15.23257986111414,0.02770779650849686,0.01960975028257421,4.872208931835844e-05,-1.209739894006412e-05,1.568780022605937e-07,5.862083543904216e-05,5.8160693883566e-05
314.385355221543,235.8669567699861,12.5,0,15.22472029123648,-0.008760711965550172,0.07174979660884082,4.872611350152916e-05,-1.220781051127894e-05,5.739983728707265e-07,5.848046678858949e-05,5.820721550033238e-05
308.2924393279682,233.9759554450884,12.5,0,15.08662966992357,-0.01821766080528064,0.06769234479875839,4.829178907239965e-05,-1.212760025051576e-05,5.415387583900672e-07,5.792115837482168e-05,5.773064803854365e-05
310.3416919437762,233.9470690412059,12.5,0,15.07802078825388,-0.0588584191283239,0.1114963414959114,4.829675325771507e-05,-1.225076357181374e-05,8.919707319672912e-07,5.776561713283465e-05,5.776008947223742e-05
308.8314315729518,235.9204023030858,12.5,0,15.20231245676414,0.02096801056344244,0.04113924294832979,4.863062545319447e-05,-1.209475233160829e-05,3.291139435866383e-07,5.848417623710014e-05,5.805810257083565e-05
310.8643087190385,235.9008398802523,12.5,0,15.19308252185958,-0.02023238775012803,0.08547305066692636,4.863404998015075e-05,-1.221920965828807e-05,6.837844053354108e-07,5.832429268530651e-05,5.812073919452755e-05
309.2260012811487,237.3438361956971,12.5,0,15.28188885169185,-0.004025115603037754,0.02017145506955976,4.890526441789634e-05,-1.22383914512832e-05,1.613716405564781e-07,5.871423639020592e-05,5.824801807015031e-05
311.2468907514021,237.3310994007199,12.5,0,15.27112909923865,-0.0503931561282327,0.07288156126647244,4.890792764246626e-05,-1.237816137900126e-05,5.830524901317795e-07,5.853290146406565e-05,5.832739257762186e-05
309.7649935261323,239.2882830536944,12.5,0,15.42249443557564,0.04294148829344291,-0.01116638305193214,4.931762900320727e-05,-1.220058278592149e-05,-8.933106441545713e-08,5.939679737988512e-05,5.843942233115285e-05
311.7695075266644,239.2848702397662,12.5,0,15.4109647408897,-0.004086207301559952,0.04218872397732023,4.93183561366883e-05,-1.234184765607675e-05,3.375097918185618e-07,5.921014658261659e-05,5.853133039752534e-05
247.209388029781,85.87609776698078,12.5,0,-6.581206975826277,2.352872456034437,-1.852304195846052,-2.294216028747163e-05,1.279415743997122e-05,-1.481843356676842e-05,4.122175392115725e-06,4.074281937190071e-06
249.4296960211894,85.99651608184178,12.5,0,-6.678768419277073,2.049475912675983,-1.686116297445616,-2.301163967182742e-05,1.19013376559848e-05,-1.348893037956492e-05,3.689744186725581e-06,4.080749958702676e-06
248.0026447017358,88.08015941217809,12.5,0,-6.128667692031179,2.566143479145446,-2.021068478723776,-2.166465139781613e-05,1.311459328689037e-05,-1.616854782979021e-05,4.496443838412248e-06,4.220591898899618e-06
250.2234849180835,88.20824451782042,12.5,0,-6.227924131013357,2.261685437757137,-1.854116008758616,-2.173870556944845e-05,1.221973270563352e-05,-1.483292807006893e-05,3.99911264748119e-06,4.228396875140764e-06
248.5833488890251,89.69364451940777,12.5,0,-5.874909732597601,2.493764223538307,-1.991864718094074,-2.079472252314296e-05,1.267997330140066e-05,-1.593491774475259e-05,4.391117220254209e-06,4.352748750334515e-06
250.8045787210693,89.82734210543281,12.5,0,-5.977844764415186,2.179515336755116,-1.822947983511227,-2.087271551553269e-05,1.175672488914852e-05,-1.458358386808981e-05,3.873608397121741e-06,4.361859425363408e-06
249.37660556098,91.89770616460508,12.5,0,-5.41676664033851,2.711806850713651,-2.165010146269503,-1.950309872965415e-05,1.301119523455449e-05,-1.732008117015602e-05,4.884244198365923e-06,4.567498021328787e-06
251.5983676179634,92.03907054141145,12.5,0,-5.521424953513238,2.396466640124034,-1.995309223554826,-1.958573316334158e-05,1.20858332112075e-05,-1.596247378843861e-05,4.281228929458945e-06,4.578838977056797e-06
252.4306318133443,89.92521553124827,12.5,0,-5.750809324455403,2.413450773990808,-2.159754322577075,-2.033335045744994e-05,1.232368993633491e-05,-1.72780345806166e-05,4.399280733174425e-06,4.366408761838971e-06
254.6518616453885,90.05891311727332,12.5,0,-5.854614509429334,2.096605114480281,-1.989311907636706,-2.041205052175809e-05,1.139282797388036e-05,-1.591449526109365e-05,3.867904349700976e-06,4.369727105202572e-06
253.2248103259349,92.14255644760962,12.5,0,-5.285898472633805,2.634157285013575,-2.335137278914863,-1.902220094043903e-05,1.265802209015048e-05,-1.868109823131891e-05,4.918899096908706e-06,4.584833517265761e-06
255.4465723829184,92.283920824416,12.5,0,-5.39144110234395,2.316214947465987,-2.163906039151758,-1.910558348547343e-05,1.172504071376632e-05,-1.731124831321406e-05,4.29830505055572e-06,4.589869949957349e-06
251.0550742792825,86.0846684064781,12.5,0,-6.464599649020405,2.283979571568613,-2.019018533783593,-2.251390253412019e-05,1.248041434823589e-05,-1.615214827026875e-05,4.125860173945364e-06,4.083593868190434e-06
253.2753822706909,86.20508672133909,12.5,0,-6.562879101204127,1.978526010297779,-1.851287152448663,-2.258403393209143e-05,1.158158651391619e-05,-1.48102972195893e-05,3.681963588688271e-06,4.084895551890836e-06
251.8492527918731,88.30200932283944,12.5,0,-6.00527627155194,2.49973482378697,-2.189808795006109,-2.121667192799578e-05,1.280337245335985e-05,-1.751847036004887e-05,4.520945708439654e-06,4.232102002658958e-06
254.0700930082208,88.43009442848178,12.5,0,-6.105264932360584,2.193215415631439,-2.021308817742157,-2.129142011605902e-05,1.190250127590907e-05,-1.617047054193726e-05,4.009222918285244e-06,4.234419623046469e-06
300.5092274156364,164.8402523203024,12.5,0,8.783073926612536,0.5749291428083676,-3.362714237701832,2.764589325091342e-05,-5.186685884303252e-06,-2.690171390161466e-05,3.649967363641587e-05,3.694124401444343e-05
302.7649903702634,164.8997821768064,12.5,0,8.731966941682987,0.4126405553776338,-3.201457470214066,2.761218176908345e-05,-5.665123776137961e-06,-2.561165976171253e-05,3.572541415949708e-05,3.631793005126262e-05
301.0617263681474,167.1284126403193,12.5,0,9.227235913774445,0.722794178949024,-3.463045969135064,2.8948919580919e-05,-5.068847358382679e-06,-2.770436775308052e-05,3.866862180267606e-05,3.802826579435701e-05
303.3447458369607,167.2210372952333,12.5,0,9.170374794488708,0.559810799206711,-3.30174749555638,2.889735070299849e-05,-5.544905278129491e-06,-2.641397996445104e-05,3.786976843993104e-05,3.739994428256289e-05
296.602131368461,164.737143584272,12.5,0,8.907721678094763,0.7719835496082457,-3.46359782425057,2.788712253021664e-05,-4.655829983729425e-06,-2.770878259400456e-05,3.762482300589517e-05,3.806347163039039e-05
298.857894323088,164.796673440776,12.5,0,8.851655859149204,0.5918170048987605,-3.294748333414237,2.785184514535844e-05,-5.187510271643329e-06,-2.63579866673139e-05,3.676939037759487e-05,3.740896047091112e-05
297.1074206535648,166.9679820319776,12.5,0,9.360896114624055,0.9227081670394297,-3.567344595021139,2.921670103316542e-05,-4.536050757173067e-06,-2.853875676016911e-05,3.98405129507224e-05,3.916364928073159e-05
299.3904401223782,167.0606066868916,12.5,0,9.298848109739136,0.7419428157093411,-3.398469030162416,2.916275969859776e-05,-5.064861477521417e-06,-2.718775224129933e-05,3.895995275429662e-05,3.850084912428834e-05
297.4773180827652,168.6010691191068,12.5,0,9.549905509874034,0.6277824614929437,-3.287686082000766,3.005747166240255e-05,-5.631020531121807e-06,-2.630148865600613e-05,3.949393599502433e-05,3.9947731811168e-05
299.7802907047994,168.7179208479221,12.5,0,9.485291321893362,0.454870910198931,-3.115907769122201,2.998903550189961e-05,-6.13264614487811e-06,-2.49272621529776e-05,3.863682605776898e-05,3.927896680312185e-05
297.982607367869,170.8319075668123,12.5,0,9.997099431572874,0.7741691793269501,-3.385968965255535,3.137138283757163e-05,-5.520338171412058e-06,-2.708775172204428e-05,4.167302821241069e-05,4.098970747139733e-05
300.3128365040896,170.9818540940377,12.5,0,9.926747562458534,0.6006670410133501,-3.214266613342433,3.128505856705662e-05,-6.019263518724106e-06,-2.571413290673947e-05,4.079149580551696e-05,4.031293518267572e-05
301.4661836724968,168.8034622503635,12.5,0,9.412063876149183,0.4400197681972497,-3.176110522930758,2.976658858911958e-05,-6.121587842688146e-06,-2.540888418344606e-05,3.834685449509794e-05,3.880300839455456e-05
303.7691562945309,168.9203139791789,12.5,0,9.352987456244012,0.2851245465253704,-3.012818726419062,2.970146022276054e-05,-6.569991416114024e-06,-2.41025498113525e-05,3.757340979218944e-05,3.817143084804997e-05
302.0186826250078,171.0916225703805,12.5,0,9.84853134479674,0.5829392540225422,-3.270812419535496,3.104894890013153e-05,-6.013419462965255e-06,-2.616649935628396e-05,4.047107850604883e-05,3.983262276125871e-05
304.3489117612283,171.2415690976059,12.5,0,9.783954937071194,0.4273658335306432,-3.107573625057416,3.09667631318033e-05,-6.459593282358896e-06,-2.486058900045933e-05,3.967383061766162e-05,3.919715711110682e-05
243.7821151797783,110.2700517338213,12.5,0,-2.304037494116944,3.636971123741481,-2.208793416760775,-1.02824968801674e-05,1.348153759126629e-05,-1.76703473340862e-05,9.58329977516071e-06,9.515068151447637e-06
245.4358649422705,110.5355855818328,12.5,0,-2.38920641323355,3.472246057365149,-2.089998947705601,-1.042325736823948e-05,1.302255251415532e-05,-1.671999158164481e-05,8.813065322688092e-06,9.6469572557998e-06
244.1036883270655,111.9916186142626,12.5,0,-1.938223129150766,3.761163714091855,-2.303914251594293,-9.211244984555934e-06,1.358630238841455e-05,-1.843131401275434e-05,1.075539061372444e-05,1.040698411965173e-05
245.650818365411,112.3734854019973,12.5,0,-2.059443927154298,3.573331789425205,-2.168011716002229,-9.448885998433916e-06,1.308221686788409e-05,-1.734409372801783e-05,9.779277503437329e-06,1.060815374665316e-05
243.2251341503369,107.2882104283227,12.5,0,-2.88199855123046,3.46643233844728,-2.112326504005957,-1.19955412346953e-05,1.339818232401566e-05,-1.689861203204765e-05,8.094690832704919e-06,8.176269592041951e-06
245.0635546921371,107.3522497141435,12.5,0,-2.927279971960346,3.325840866608213,-1.994160906049113,-1.202796860355968e-05,1.298451475071456e-05,-1.595328724839291e-05,7.527044039504555e-06,8.211636070886298e-06
243.5467072976242,109.009777308764,12.5,0,-2.540576183146536,3.577815926287415,-2.191492966096458,-1.099209652709885e-05,1.348147191063695e-05,-1.753194372877166e-05,8.994315613127185e-06,8.917349995248826e-06
245.2785081152776,109.1901495343079,12.5,0,-2.613005647330871,3.4195254768142,-2.059465887238999,-1.109723845291015e-05,1.303288604367014e-05,-1.6475727097912e-05,8.280874178423678e-06,9.004812279951143e-06
240.0408963663178,107.1772911316027,12.5,0,-2.964960272548755,3.569035065482005,-1.929602838806775,-1.234310092454162e-05,1.379288042758142e-05,-1.54368227104542e-05,8.102174210562315e-06,8.116849087381669e-06
241.879316908118,107.2413304174235,12.5,0,-3.032315811392056,3.342427356739861,-1.803769590880995,-1.237735248184647e-05,1.31216201906812e-05,-1.443015672704796e-05,7.268737567720157e-06,8.150871496359694e-06
240.5471402929131,108.6973634498533,12.5,0,-2.628773269596826,3.720885155329846,-2.050766860470222,-1.138878258697372e-05,1.400985111273297e-05,-1.640613488376177e-05,9.149206714858962e-06,8.773907212420039e-06
242.2789411105664,108.8777356753972,12.5,0,-2.728382015487044,3.464013411498462,-1.905184170183081,-1.150203317875731e-05,1.326754852918471e-05,-1.524147336146465e-05,8.096262894902262e-06,8.855479168877537e-06
240.9177365681882,109.8101336179444,12.5,0,-2.461753451901463,3.642922628674604,-2.022737713077788,-1.079194914902436e-05,1.36267551732799e-05,-1.618190170462231e-05,9.15136700776581e-06,9.295326098570305e-06
242.5714863306804,110.0756674659559,12.5,0,-2.546315781724861,3.480989711448062,-1.903885016658508,-1.0933002270678e-05,1.317621970201369e-05,-1.523108013326807e-05,8.411044802661084e-06,9.420848866837304e-06
241.4239804947835,111.330205936195,12.5,0,-2.123676491265239,3.779360025911307,-2.125587766129561,-9.819252792777808e-06,1.379289327592837e-05,-1.700470212903649e-05,1.027782366876828e-05,1.0062810862581e-05
242.9711105331289,111.7120727239296,12.5,0,-2.247453845154273,3.589731087603113,-1.986155827432003,-1.006363717457616e-05,1.328510255645338e-05,-1.588924661945603e-05,9.312573668183539e-06,1.026085993427108e-05
141.3529944868507,104.9822082190447,12.5,0,-3.626279594724005,0.6474447923737534,2.107736170672832,-1.212205053701582e-05,4.972847011375215e-06,1.686188936538266e-05,2.362519597835632e-06,2.374024784051161e-06
143.0935554001369,104.3900504072135,12.5,0,-3.588089024531278,0.5507377324615099,2.166604415629294,-1.19224750644693e-05,4.632831963501853e-06,1.733283532503435e-05,2.32607128044749e-06,2.427514911145678e-06
142.4927885046863,106.6068577810068,12.5,0,-3.419809299029948,0.7705099502336866,2.017692966172262,-1.155979771708278e-05,5.201479279971755e-06,1.61415437293781e-05,2.417746809059233e-06,2.454158320990001e-06
144.1996141671367,106.0345240213221,12.5,0,-3.38163140447314,0.6711070334748779,2.078266155572438,-1.135810612109395e-05,4.852847630698121e-06,1.66261292445795e-05,2.375265908067949e-06,2.508338086967906e-06
139.3788133378317,102.1682326332823,12.5,0,-4.093084279795463,0.5597565887678024,2.115766476770188,-1.354567496635972e-05,5.065688507893337e-06,1.69261318141615e-05,2.280641944094611e-06,2.278044526961602e-06
141.1778054195706,101.5417385559221,12.5,0,-4.05360581718067,0.4577321880146874,2.174821626326443,-1.333772436538989e-05,4.707627655391536e-06,1.739857301061155e-05,2.240280267296515e-06,2.330767561611555e-06
140.5186073556674,103.7928821952444,12.5,0,-3.889293212428254,0.6834284739673029,2.025789873880544,-1.299248105894425e-05,5.298405686637972e-06,1.620631899104435e-05,2.318421876386077e-06,2.326835235166739e-06
142.2838641865704,103.1862121700307,12.5,0,-3.849788165782902,0.5786917161783121,2.086489788649783,-1.278227550344794e-05,4.93164402439692e-06,1.669191830919826e-05,2.272468964362818e-06,2.379935032278354e-06
136.2628676499019,103.2533522058916,12.5,0,-3.910586789234412,0.4482475586207484,2.125689356980876,-1.287247577244672e-05,4.562861618973924e-06,1.700551485584701e-05,2.190033745024984e-06,2.186870819081468e-06
138.0618597316408,102.6268581285314,12.5,0,-3.874346337581762,0.3427860303046932,2.181646251282761,-1.267213710450539e-05,4.196392367040427e-06,1.745317001026209e-05,2.14859568900169e-06,2.239487511008396e-06
137.4610928361903,104.8436655023247,12.5,0,-3.715792187042257,0.5752078741175304,2.034999529867783,-1.235070129782925e-05,4.813298946809903e-06,1.627999623894226e-05,2.22676679563539e-06,2.234996048563172e-06
139.2263496670933,104.236995477111,12.5,0,-3.67955875731717,0.4669263248915629,2.092548195065107,-1.214812908332819e-05,4.437811245506737e-06,1.674038556052085e-05,2.179424986964153e-06,2.287998951529677e-06
138.3382545514247,106.0078556352166,12.5,0,-3.455805482601555,0.5307076891790348,2.121058548354334,-1.14831436956682e-05,4.462908991454155e-06,1.696846838683467e-05,2.272582371435961e-06,2.281423497698227e-06
140.0788154647109,105.4156978233855,12.5,0,-3.421441754565959,0.4264650934543455,2.176747101952663,-1.128978568937454e-05,4.101841702706672e-06,1.74139768156213e-05,2.230878920262135e-06,2.334879707798014e-06
139.5364797377131,107.5981689316499,12.5,0,-3.256756125586489,0.6602462797727251,2.028476601871218,-1.094981662569494e-05,4.71819299574191e-06,1.622781281496974e-05,2.327676570342097e-06,2.360140418124707e-06
141.2433054001634,107.0258351719651,12.5,0,-3.222460338635709,0.5530896054277346,2.085821389418651,-1.075434476797646e-05,4.347855008277317e-06,1.668657111534921e-05,2.278964371715535e-06,2.414448875304527e-06
263.9422307410073,90.45211722770965,12.5,0,-5.388163846995972,2.095648178667925,-2.601355167199061,-1.891864285332145e-05,1.101660524933414e-05,-2.081084133759249e-05,4.341775586317007e-06,4.335972029684656e-06
266.0980161257832,90.56374763724232,12.5,0,-5.483295698826403,1.7981670983953,-2.435308638399655,-1.898507991496073e-05,1.014077127392608e-05,-1.948246910719723e-05,3.821933618013123e-06,4.325461146908614e-06
264.7004671329848,92.68946006058847,12.5,0,-4.918430833745006,2.309389872580869,-2.771460209583919,-1.758649056604871e-05,1.132479225925478e-05,-2.217168167667136e-05,4.888821683258934e-06,4.557180955353952e-06
266.8436640588694,92.79166424386875,12.5,0,-5.012097183534968,2.011438613241869,-2.605355746219246,-1.764786187790539e-05,1.044628130920195e-05,-2.084284596975397e-05,4.284286033306915e-06,4.546389316886839e-06
267.6761605575865,90.64546676868646,12.5,0,-5.259182614740828,1.981213659944756,-2.730691766163716,-1.841435529512645e-05,1.054722980361588e-05,-2.184553412930973e-05,4.318796384017724e-06,4.317404949437353e-06
269.8319459423625,90.75709717821913,12.5,0,-5.353264212474695,1.688160778275853,-2.564292788961164,-1.84809741025397e-05,9.684725860462486e-06,-2.051434231168932e-05,3.800092007849884e-06,4.305905891405165e-06
268.4125930991758,92.86648289877284,12.5,0,-4.792600821558512,2.189974743278974,-2.896777527156816,-1.708830242361042e-05,1.084199983573952e-05,-2.317422021725453e-05,4.866500993908306e-06,4.538073003719228e-06
270.5557900250604,92.96868708205312,12.5,0,-4.885214671108409,1.896448136209927,-2.730302326705875,-1.714984545651485e-05,9.976805772758494e-06,-2.1842418613647e-05,4.2643951658374e-06,4.526144052079806e-06
266.4006219792299,86.79855398701599,12.5,0,-5.976625455566628,1.89894911735903,-2.594243820214285,-2.064436075170043e-05,1.08579375400022e-05,-2.075395056171428e-05,4.046892798116505e-06,4.028440973789869e-06
268.5782112143942,86.92651109934108,12.5,0,-6.073155885908814,1.607962582222417,-2.426069406564324,-2.072046890068613e-05,1.000400497183879e-05,-1.94085552525146e-05,3.59790094174539e-06,4.016062630858165e-06
267.1370545208191,89.01957011710235,12.5,0,-5.512003792009005,2.105391258116928,-2.757940166532992,-1.932272514092235e-05,1.114685505958137e-05,-2.206352133226393e-05,4.473254904125408e-06,4.180849458584997e-06
269.3020552970921,89.13810100317511,12.5,0,-5.607096667065225,1.813934572425502,-2.589672572462782,-1.939385699254912e-05,1.029026796541379e-05,-2.071738057970226e-05,3.956764988998165e-06,4.16922998651896e-06
262.6289267859781,86.57692576728307,12.5,0,-6.111950871321167,2.003277671252574,-2.461096738398178,-2.116086492522979e-05,1.130004924506517e-05,-1.968877390718543e-05,4.06975243056401e-06,4.04878690083755e-06
264.8065160211424,86.70488287960819,12.5,0,-6.209806690005959,1.706901439924112,-2.29295343397474,-2.123690255995836e-05,1.042992995976193e-05,-1.834362747179792e-05,3.619826716384112e-06,4.03720941550347e-06
263.3871631779557,88.8142686001619,12.5,0,-5.643320625481696,2.215156922807214,-2.629242585500005,-1.983075153978719e-05,1.160315865336844e-05,-2.103394068400004e-05,4.495111530367387e-06,4.199748253344441e-06
265.5521639542286,88.93279948623464,12.5,0,-5.739738705075619,1.918311591114785,-2.461024658390824,-1.990181312913381e-05,1.073038805562781e-05,-1.968819726712659e-05,3.97665374763954e-06,4.189026803535027e-06
283.8065654350926,133.837681921868,12.5,0,3.050434267572886,1.928536648834943,-3.912531374049863,8.21856033716528e-06,3.73096986221351e-06,-3.13002509923989e-05,2.057570695737533e-05,2.133401384837835e-05
285.1809900026159,132.6591193763551,12.5,0,3.152687093998736,1.809966633332005,-3.900442936753275,8.640625394130351e-06,3.269743551463427e-06,-3.12035434940262e-05,2.052896843569291e-05,2.036772610037234e-05
284.6498993467567,136.025518286091,12.5,0,3.369294305764877,2.107283808135515,-4.057571506253744,9.095914731939195e-06,4.047872741421744e-06,-3.246057205002996e-05,2.236318478267173e-05,2.265925038442055e-05
286.2368021174187,135.1701313838693,12.5,0,3.422211527910824,1.967977931792386,-4.025347485350772,9.376694543880728e-06,3.559760159406976e-06,-3.220277988280618e-05,2.206417917855563e-05,2.185731245690366e-05
281.4259922530143,135.8790121305573,12.5,0,3.379286272371139,2.177360994078157,-3.940345260175504,9.071827276325116e-06,4.264126163153192e-06,-3.152276208140403e-05,2.249538906646374e-05,2.307803697954671e-05
282.8004168205375,134.7004495850445,12.5,0,3.498095048369021,2.069890243895091,-3.919440908225512,9.537991959664793e-06,3.825172741769075e-06,-3.13555272658041e-05,2.253057867649781e-05,2.206023945966781e-05
281.9013031213476,137.5070918608413,12.5,0,3.644773145287686,2.29913899746369,-4.043706242432661,9.823962866949642e-06,4.441426275653658e-06,-3.234964993946128e-05,2.389059693928589e-05,2.411531756985472e-05
283.4882058920097,136.6517049586196,12.5,0,3.707335218946525,2.174321782397254,-4.004408898716154,1.012401527471107e-05,3.991961528513992e-06,-3.203527118972923e-05,2.366190023402873e-05,2.326428103092231e-05
282.2492548263425,138.6989289421316,12.5,0,4.008755984176572,2.111610329904474,-4.009567413581562,1.113873088544145e-05,3.550148268353058e-06,-3.20765393086525e-05,2.449631905938283e-05,2.487788744291742e-05
283.9917024371965,138.0801230305577,12.5,0,4.069738557692911,1.909749809805416,-3.914881520587676,1.149536353677298e-05,2.855408545223001e-06,-3.131905216470141e-05,2.396896353141162e-05,2.414811659606296e-05
282.7245656946758,140.3270086724157,12.5,0,4.386973881265828,2.274338634923284,-4.142390446058787,1.221884551211202e-05,3.768304526741845e-06,-3.31391235684703e-05,2.645148200943654e-05,2.592398649022664e-05
284.6794915086686,140.031378404133,12.5,0,4.379652395930115,2.054008560861357,-4.029274842291732,1.237168081828728e-05,3.06910547801225e-06,-3.223419873833386e-05,2.561176198163134e-05,2.535875869441174e-05
285.2672626178144,137.627125663281,12.5,0,3.854507861531766,1.866499759226107,-3.981142626858718,1.084122534952077e-05,2.88919294029813e-06,-3.184914101486974e-05,2.316030068240727e-05,2.362798361585527e-05
287.0097102286683,137.0083197517072,12.5,0,3.909146992608779,1.684605047259757,-3.896162044680752,1.116158633854029e-05,2.2634185571442e-06,-3.116929635744602e-05,2.268752358669349e-05,2.293672473402969e-05
286.1105965294784,139.814962027504,12.5,0,4.301997449350468,2.083522015206552,-4.150888651671691,1.209957422575625e-05,3.225672489180591e-06,-3.320710921337353e-05,2.555533028817985e-05,2.494937548718561e-05
288.0655223434712,139.5193317592214,12.5,0,4.295089741670284,1.879454982355855,-4.046455408374214,1.224072318746023e-05,2.578184150202507e-06,-3.237164326699371e-05,2.478093195334839e-05,2.439614756104569e-05
288.2162644321014,84.79601154179517,12.5,0,-5.76297941397671,1.203821614560846,-3.13219571664635,-1.940459141637415e-05,8.462612697776074e-06,-2.50575657331708e-05,3.733979572415695e-06,3.689446236752254e-06
290.4554719645115,85.01877729717725,12.5,0,-5.862155608958731,0.9691818532929242,-2.960939889258367,-1.953424343130228e-05,7.791106417704341e-06,-2.368751911406694e-05,3.361350496397007e-06,3.665795864310291e-06
288.8370162031741,87.16363890978238,12.5,0,-5.273531844836556,1.386146289496859,-3.270227732480105,-1.798421893507447e-05,8.654493602259193e-06,-2.616182185984084e-05,4.096906513697604e-06,3.811602765136348e-06
291.0666963537631,87.43275895237818,12.5,0,-5.38361906781805,1.145497197589264,-3.094485224254908,-1.814397877508917e-05,7.972486286540086e-06,-2.475588179403927e-05,3.660157526598671e-06,3.792195389847918e-06
287.1410908257341,80.69516064712438,12.5,0,-6.537243847373266,1.15017762741526,-3.026638540970148,-2.183932241352665e-05,8.910363485627442e-06,-2.421310832776118e-05,3.596559175206795e-06,3.527372431758052e-06
289.3968002675214,80.83763842190515,12.5,0,-6.608624462118009,0.9708068513891492,-2.854498110219924,-2.192424375988894e-05,8.393481494139684e-06,-2.283598488175939e-05,3.312840765573341e-06,3.507253395703666e-06
287.761842596807,83.06278801511162,12.5,0,-6.040415404233201,1.320179169554504,-3.14415173633748,-2.038547262918984e-05,9.056905665960971e-06,-2.515321389069984e-05,3.853428005047035e-06,3.613286948461481e-06
290.008024656773,83.25162007710608,12.5,0,-6.122402700681041,1.135680305386912,-2.968000773467881,-2.050023288648886e-05,8.53209913778295e-06,-2.374400618774305e-05,3.526737722321805e-06,3.589445887092002e-06
283.234087465516,80.44838190225917,12.5,0,-6.665878910119011,1.232712346412407,-2.911643966674825,-2.231698238951076e-05,9.277382636614911e-06,-2.32931517333986e-05,3.593550069131481e-06,3.558057019147089e-06
285.4897969073032,80.59085967703994,12.5,0,-6.755355774800498,0.9791363070365227,-2.740624864525185,-2.240044752499081e-05,8.537520802357271e-06,-2.192499891620148e-05,3.252987507716516e-06,3.540985221631868e-06
283.8713411459659,82.73572128964508,12.5,0,-6.187266619256061,1.419730069612918,-3.056488944927764,-2.093503723730973e-05,9.492949518166184e-06,-2.445191155942212e-05,3.879544890556461e-06,3.641120812169298e-06
286.117523205932,82.92455335163955,12.5,0,-6.28753468249224,1.159747053036708,-2.880761885530928,-2.104790862640453e-05,8.741218315711256e-06,-2.304609508424742e-05,3.486279993767311e-06,3.62713320290445e-06
284.3378432173456,84.41016993529385,12.5,0,-5.924236343559522,1.30471369384428,-3.044873047278954,-2.000132725446589e-05,8.914472895149312e-06,-2.435898437823164e-05,3.756663132190543e-06,3.714779806118985e-06
286.5770507497558,84.63293569067594,12.5,0,-6.026990843855401,1.057199706485204,-2.871694049494167,-2.013213046552544e-05,8.204631735836973e-06,-2.297355239595333e-05,3.375287650805948e-06,3.702571444401578e-06
284.9750968977956,86.69750932267974,12.5,0,-5.444888651323238,1.489693869492037,-3.186667377149169,-1.861539877982799e-05,9.122931303433106e-06,-2.549333901719335e-05,4.113338551427467e-06,3.832956127010288e-06
287.2047770483845,86.96662936527554,12.5,0,-5.558775776429875,1.235764433669181,-3.008739438542334,-1.877669403151094e-05,8.401466808885278e-06,-2.406991550833867e-05,3.667004560054163e-06,3.822524571741562e-06
288.130515645611,192.9131246173133,12.5,0,13.8195051095626,0.4024269688713331,-2.084527123361876,4.390047477550324e-05,-9.767837787261809e-06,-1.667621698689501e-05,5.458327044648812e-05,5.508608010166922e-05
290.4023430051694,193.4055622670179,12.5,0,13.70506811275979,0.2832093946732059,-1.920492390620582,4.362965044509275e-05,-1.005778442725357e-05,-1.536393912496465e-05,5.374394529109376e-05,5.419843560253637e-05
287.9881460774561,194.9905731619363,12.5,0,14.20377149277562,0.492741456669187,-2.108186169403909,4.505787561154663e-05,-9.786244532879098e-06,-1.686548935523127e-05,5.633473546967126e-05,5.583684004203051e-05
290.2514217912756,195.5018788019884,12.5,0,14.08522488458882,0.37226927160863,-1.943407444467615,4.477490421339733e-05,-1.007691823852344e-05,-1.554725955574092e-05,5.547547031022111e-05,5.494362712051832e-05
284.1955952329016,192.0601975884805,12.5,0,14.02707498082834,0.6799267215293696,-2.282202527872473,4.434269856142719e-05,-9.045894475768687e-06,-1.825762022297978e-05,5.627606934949272e-05,5.67725178143405e-05
286.46742259246,192.552635238185,12.5,0,13.89595503888942,0.5193292876022895,-2.103245704216267,4.405159269436432e-05,-9.454910310784212e-06,-1.682596563373014e-05,5.523764879671383e-05,5.577580335155199e-05
284.0680375496545,194.1049658151854,12.5,0,14.43339562864537,0.7742351913925196,-2.319278446856693,4.556747785855117e-05,-9.069163890460235e-06,-1.855422757485355e-05,5.812853290067753e-05,5.75420360642889e-05
286.331313263474,194.6162714552375,12.5,0,14.29782328524402,0.6121902629619478,-2.139384116532162,4.52632823024113e-05,-9.479249786716981e-06,-1.711507293225729e-05,5.706795920761643e-05,5.653308162009798e-05
283.9746588446259,195.6018400467724,12.5,0,14.46296674524353,0.570455917955726,-1.993449910138245,4.58251288504147e-05,-9.744914458736497e-06,-1.594759928110596e-05,5.753860035440036e-05,5.806361534609689e-05
286.2316743192765,196.126958014395,12.5,0,14.33430693644023,0.4196398437193598,-1.826032502174121,4.553407032163324e-05,-1.012459804925023e-05,-1.460826001739297e-05,5.654897279180604e-05,5.704720404802521e-05
283.8471011613789,197.6466082734775,12.5,0,14.84397251670359,0.6589123564093047,-2.028064455315056,4.697358216832403e-05,-9.766658472853094e-06,-1.622451564252045e-05,5.927596683803683e-05,5.871907819428377e-05
286.0955649902904,198.1905942314476,12.5,0,14.71109630944933,0.5067304967303965,-1.859765838887583,4.667012379285353e-05,-1.014733945802219e-05,-1.487812671110067e-05,5.82652500045923e-05,5.769453437394681e-05
287.8839243201195,196.5113710466457,12.5,0,14.2344280083459,0.3078392903386802,-1.795164768862852,4.530389819443594e-05,-1.040245667759294e-05,-1.436131815090282e-05,5.581901411080197e-05,5.634724820686177e-05
290.14093979477,197.0364890142683,12.5,0,14.12355796553629,0.2003829154746333,-1.643317172754164,4.503507915733641e-05,-1.06576210429102e-05,-1.314653738203331e-05,5.503773901077512e-05,5.545134458373901e-05
287.7415547519646,198.5888195912688,12.5,0,14.5922059973769,0.3921881273989234,-1.815677502424234,4.638130868968695e-05,-1.041876279022497e-05,-1.452542001939387e-05,5.745077787653172e-05,5.699094930547675e-05
289.9900185808763,199.1328055492389,12.5,0,14.47747520061161,0.2835658527648652,-1.663151069460599,4.610106795974525e-05,-1.067456943164172e-05,-1.330520855568479e-05,5.665073293328447e-05,5.609326297122496e-05
291.631326835558,160.6843269783459,12.5,0,8.322335589402304,1.166125359168544,-3.712474340833194,2.569857359875253e-05,-2.926267322182503e-06,-2.969979472666555e-05,3.681046460634679e-05,3.720193146713889e-05
293.9314619119875,160.7668244567693,12.5,0,8.246905186779845,0.9301865244420795,-3.525949193563149,2.564594737814184e-05,-3.620927271209221e-06,-2.82075935485052e-05,3.568501908318765e-05,3.654509882528834e-05
292.2206686786346,162.9297016063459,12.5,0,8.818412262471115,1.346193773938606,-3.845248426229391,2.714196422075668e-05,-2.746909733373354e-06,-3.076198740983513e-05,3.929395397391481e-05,3.838980853752322e-05
294.5297758070136,163.0330911105018,12.5,0,8.738557218774682,1.108964775318933,-3.657790989445826,2.707621127982383e-05,-3.44215849399916e-06,-2.926232791556661e-05,3.814611652125371e-05,3.771790868978985e-05
290.6105568203413,156.7952240406936,12.5,0,7.60358178802489,1.322245929892091,-3.831199077474731,2.327366497776597e-05,-1.851678454765221e-06,-3.064959261979785e-05,3.47187317698991e-05,3.50685997278471e-05
292.8951518469465,156.841535469076,12.5,0,7.532951850097963,1.076956168791579,-3.645693582643287,2.324388098528022e-05,-2.580101739945318e-06,-2.91655486611463e-05,3.357083790727146e-05,3.443891260493228e-05
291.1998986634179,159.0405986686937,12.5,0,8.104431927466258,1.506632920028295,-3.969123749260393,2.472887583186939e-05,-1.662320197882462e-06,-3.175298999408315e-05,3.723265605665067e-05,3.631201624871875e-05
293.4934657419726,159.1078021228086,12.5,0,8.029314628521787,1.260024185666389,-3.7826347141864,2.46857874627366e-05,-2.391374308684984e-06,-3.02610777134912e-05,3.606236915420681e-05,3.566649447239328e-05
286.6535221596131,156.7150102937655,12.5,0,7.662138657082386,1.60487855600297,-3.916570550140412,2.323494085786125e-05,-9.940995464564027e-07,-3.133256440112329e-05,3.587800101250635e-05,3.618062534903492e-05
288.9381171862183,156.761321722148,12.5,0,7.584759181493962,1.333989202593651,-3.723971917765376,2.320403801870575e-05,-1.799041896895486e-06,-2.979177534212301e-05,3.461350348696547e-05,3.553529025106187e-05
287.2273239528654,158.9241988717246,12.5,0,8.174361503758144,1.796608557648726,-4.062868080135921,2.472066996590707e-05,-7.903418185305905e-07,-3.250294464108737e-05,3.846563683366245e-05,3.745577740171121e-05
289.52089103142,158.9914023258395,12.5,0,8.092326617595473,1.52434999195813,-3.86920292410486,2.467596518273901e-05,-1.595941319810362e-06,-3.095362339283888e-05,3.717799621199479e-05,3.679145316464536e-05
287.6473760189823,160.5414371542227,12.5,0,8.397175889045222,1.44475533279115,-3.812787613832508,2.571515857871179e-05,-2.094523646304497e-06,-3.050230091066006e-05,3.801974183488261e-05,3.836852828869239e-05
289.9475110954118,160.6239346326462,12.5,0,8.314077158358451,1.180926249147756,-3.618130305268276,2.566030590742883e-05,-2.87229772941394e-06,-2.894504244214621e-05,3.676729943239465e-05,3.769051791929792e-05
288.2211778122346,162.7506257321818,12.5,0,8.906936208605146,1.633303625524587,-3.954960091474391,2.71955529671168e-05,-1.898977365205438e-06,-3.163968073179512e-05,4.058934242308837e-05,3.958705803400826e-05
290.5302849406135,162.8540152363377,12.5,0,8.819226174768575,1.368127693092952,-3.759280621376494,2.712702160478507e-05,-2.677372321917412e-06,-3.007424497101195e-05,3.93135648999192e-05,3.889064559482412e-05
197.6882062540157,79.06027894336313,12.5,0,-8.28825330399742,1.95279560260578,0.5530624659010969,-2.808464705487637e-05,1.287954857153643e-05,4.424499727208775e-06,3.511958711786293e-06,3.5036534556171e-06
199.742937899583,79.12459045853268,12.5,0,-8.313566188212471,1.892440639275937,0.6844020642559484,-2.811736431370066e-05,1.270666299625297e-05,5.475216514047587e-06,3.477774291678058e-06,3.525739938050068e-06
198.0572711820463,81.07723620963189,12.5,0,-7.932064026438476,2.051872905325607,0.506879306496293,-2.702410320886361e-05,1.291164451819272e-05,4.055034451970344e-06,3.536879538942706e-06,3.523851658814058e-06
200.0145492370834,81.11237842552258,12.5,0,-7.953663315641949,1.989998695326472,0.6438677064411367,-2.704372156631541e-05,1.273092647755827e-05,5.150941651529094e-06,3.498031113686188e-06,3.547364097152175e-06
201.2471058599939,79.17166975514651,12.5,0,-8.270826157962608,1.990283754230688,0.3934558918329391,-2.805887070886489e-05,1.298556893990829e-05,3.147647134663512e-06,3.527614623984701e-06,3.540944380893955e-06
203.3018375055612,79.23598127031605,12.5,0,-8.287390448505619,1.964698685755006,0.5236703586109827,-2.809140838382198e-05,1.291694815322051e-05,4.189362868887861e-06,3.519621210863169e-06,3.560397208813028e-06
201.4473762178492,81.13810431304404,12.5,0,-7.927212574779162,2.078349133127639,0.3718634219563688,-2.702975954579543e-05,1.299248728583178e-05,2.97490737565095e-06,3.548495426348203e-06,3.563665587020273e-06
203.4046542728863,81.17324652893474,12.5,0,-7.939721222739136,2.05275685912272,0.5081585017078821,-2.704931340006341e-05,1.292059892738401e-05,4.065268013663057e-06,3.539293541846816e-06,3.584689647242764e-06
200.9002274249447,75.76570519116996,12.5,0,-8.864563201526462,1.849967774027991,0.4059739219459458,-2.984657646410707e-05,1.301154743811074e-05,3.247791375567567e-06,3.515631171946074e-06,3.522920841528733e-06
203.1237536406873,75.88053941471073,12.5,0,-8.893539511981144,1.807591609902868,0.5490734680976039,-2.990539972626196e-05,1.289912476127409e-05,4.392587744780831e-06,3.497612172151899e-06,3.539225022059329e-06
201.1004977828,77.73213974906749,12.5,0,-8.517272124659689,1.94005526308159,0.3799211687031696,-2.880731500937627e-05,1.302199454158884e-05,3.039369349625357e-06,3.526533349314257e-06,3.530026859244024e-06
203.2265704080124,77.81780467332941,12.5,0,-8.543023420774695,1.896939805769919,0.529149461801667,-2.885522679109496e-05,1.29046261150835e-05,4.233195694413336e-06,3.506072980255265e-06,3.548214999211322e-06
197.0489670473863,75.56680648155321,12.5,0,-8.899242090648167,1.814286677302148,0.5608104919492247,-2.992900403191585e-05,1.292511103988541e-05,4.486483935593798e-06,3.506094534367608e-06,3.491666035916345e-06
199.2724932631289,75.68164070509397,12.5,0,-8.934824309185167,1.746567468189849,0.7064917923537242,-2.998869176394441e-05,1.273687534555565e-05,5.651934338829793e-06,3.472189479781525e-06,3.510177449599273e-06
197.418031975417,77.58376374782196,12.5,0,-8.536257076013685,1.915099657548357,0.5140813742947152,-2.884810236928248e-05,1.295732456496569e-05,4.112650994357722e-06,3.519924955386627e-06,3.495029343954033e-06
199.5441046006293,77.66942867208388,12.5,0,-8.568777230199547,1.845674144895861,0.6656059825086195,-2.889662645255524e-05,1.276117904782639e-05,5.324847860068956e-06,3.481415582808346e-06,3.515775805869358e-06
290.3574006511871,93.01507852071273,12.5,0,-4.252247425706984,1.280745424336136,-3.354376182705112,-1.463178810173126e-05,7.500183298441224e-06,-2.68350094616409e-05,4.269504685131193e-06,4.251062279468291e-06
292.5703472801821,93.38570803624458,12.5,0,-4.39204734634966,1.010417913991324,-3.166128382718739,-1.486288583951197e-05,6.746975201851963e-06,-2.532902706174991e-05,3.707530836226279e-06,4.239319755871296e-06
290.9737622129821,95.39098260881264,12.5,0,-3.727491289809643,1.479218883389255,-3.50742581277071,-1.311134723410226e-05,7.71549345869333e-06,-2.805940650216568e-05,4.924264491763613e-06,4.501748298702852e-06
293.1803953164032,95.80190743191562,12.5,0,-3.8778384482494,1.203197284697896,-3.31494556903933,-1.33716408621564e-05,6.952502069632787e-06,-2.651956455231464e-05,4.243101247605491e-06,4.495392050236398e-06
289.2898311103449,88.89989192628704,12.5,0,-5.014813591991791,1.243982255164161,-3.243928206006275,-1.704258929850506e-05,7.992594090118748e-06,-2.59514256480502e-05,3.946247088063823e-06,3.920344409054373e-06
291.5137130864085,89.20072792180036,12.5,0,-5.136068827765811,0.9871985794391791,-3.062953157708,-1.722517911240194e-05,7.267890516418022e-06,-2.4503625261664e-05,3.486939263984144e-06,3.903365025461034e-06
289.9061926721399,91.27579601438694,12.5,0,-4.50448154659818,1.435962498355257,-3.391197780363642,-1.556311094779838e-05,8.198665232015366e-06,-2.712958224290914e-05,4.436124676948822e-06,4.095275576765516e-06
292.1237611226297,91.61692731747138,12.5,0,-4.635742953743823,1.173781169282094,-3.206205958993413,-1.577340238740591e-05,7.464694104697758e-06,-2.564964767194731e-05,3.888861016368408e-06,4.080686592690274e-06
285.4379545378353,88.37882869732178,12.5,0,-5.191702488357238,1.359973398786676,-3.162929401414114,-1.77014266817725e-05,8.505276866803153e-06,-2.530343521131291e-05,3.972864355702527e-06,3.938030280312558e-06
287.6618365138988,88.6796646928351,12.5,0,-5.314003580541324,1.098855824251808,-2.981845228293244,-1.788389611713368e-05,7.767541502038842e-06,-2.385476182634595e-05,3.514649128038533e-06,3.929632936096967e-06
286.0652514466988,90.68493926540316,12.5,0,-4.695147720992791,1.550885015840264,-3.309954501346619,-1.626518071984914e-05,8.718950227483077e-06,-2.647963601077295e-05,4.442366333824799e-06,4.106921884817541e-06
288.2828198971886,91.02607056848758,12.5,0,-4.827528487315488,1.284183390742259,-3.124729615377683,-1.647543787200337e-05,7.971409640227618e-06,-2.499783692302146e-05,3.898611151086853e-06,4.102305302103993e-06
286.5244646553984,92.37312936903847,12.5,0,-4.450419487584525,1.403285681485259,-3.274027323745232,-1.536397090545869e-05,8.050849770820448e-06,-2.619221858996186e-05,4.277240887998259e-06,4.255957203731727e-06
288.7374112843934,92.74375888457031,12.5,0,-4.591734938976599,1.127481314626768,-3.085088545855274,-1.559553685642653e-05,7.281328157986936e-06,-2.468070836684219e-05,3.717622616918974e-06,4.25552027018647e-06
287.151761564262,94.67923993711983,12.5,0,-3.938410262745351,1.601308183430617,-3.427315667863993,-1.388395938752961e-05,8.274914397174253e-06,-2.741852534291194e-05,4.902138565260299e-06,4.494237662639842e-06
289.3583946676831,95.09016476022281,12.5,0,-4.090387863206882,1.319590440585535,-3.23399813308145,-1.414491351473045e-05,7.494999700439217e-06,-2.58719850646516e-05,4.226417846781733e-06,4.501438981478612e-06
217.8848238403755,86.16571832486312,12.5,0,-7.000695362606926,2.542126432805687,-0.3475162347768756,-2.443592630658671e-05,1.373536087506374e-05,-2.780129878215005e-06,3.91971607228229e-06,3.915390900508785e-06
219.7696651918748,85.83284369623925,12.5,0,-7.012296715804775,2.308318891429563,-0.2577150822843552,-2.428600460371893e-05,1.299645782521842e-05,-2.061720658274842e-06,3.637484708478081e-06,3.919374121243849e-06
218.8989251064712,88.44991428376539,12.5,0,-6.620991829569038,2.76249374386544,-0.5181820314484245,-2.339716884971327e-05,1.413677344402463e-05,-4.145456251587396e-06,4.190071768872199e-06,4.047634700289688e-06
220.7832384238976,88.13218139942521,12.5,0,-6.634948223703903,2.526511488412308,-0.4270213981867176,-2.325304350658233e-05,1.339279534188251e-05,-3.416171185493741e-06,3.87107879671194e-06,4.050366435451885e-06
219.6412987572416,90.12206178005427,12.5,0,-6.30804029956972,2.758833729370366,-0.4817806122692563,-2.23927959421194e-05,1.387470017364095e-05,-3.85424489815405e-06,4.163899295229331e-06,4.172362108712878e-06
221.5252255268986,89.8154134218445,12.5,0,-6.321950800764028,2.524295163579332,-0.386917603363694,-2.224967869330835e-05,1.313530516406508e-05,-3.095340826909552e-06,3.835820175672768e-06,4.174483889246171e-06
220.6554000233373,92.40625773895654,12.5,0,-5.915720590912136,2.982507076552005,-0.6546770259326551,-2.131631155216044e-05,1.427659911769612e-05,-5.237416207461241e-06,4.525712222564791e-06,4.380879925855013e-06
222.5387987589215,92.11475112503048,12.5,0,-5.932086357770523,2.745757423984406,-0.5584143079219851,-2.11792822840532e-05,1.353209284296652e-05,-4.467314463375881e-06,4.14914512198523e-06,4.382586764924626e-06
222.9043556399681,89.59093124358694,12.5,0,-6.366850563323704,2.736600838963433,-0.6521810725911115,-2.256320247380659e-05,1.385060313534195e-05,-5.217448580728892e-06,4.165829278891157e-06,4.175939061107867e-06
224.7882824096251,89.28428288537717,12.5,0,-6.380980870852706,2.499907804708184,-0.5566713005794144,-2.241906503049521e-05,1.310448967174836e-05,-4.453370404635315e-06,3.833872282202115e-06,4.177792884034639e-06
223.9175423242216,91.90135347290331,12.5,0,-5.967590705825316,2.963023166386304,-0.8277703185037111,-2.146670879175005e-05,1.425574669709643e-05,-6.622162548029688e-06,4.53659581379522e-06,4.383233749514275e-06
225.8009410598058,91.60984685897724,12.5,0,-5.984193362645541,2.724117970089969,-0.7308569175124545,-2.132871313653771e-05,1.350453219440433e-05,-5.846855340099636e-06,4.155557831287103e-06,4.383294505215369e-06
221.1494648253203,85.58916255554632,12.5,0,-7.078532329983685,2.516944020918553,-0.5210392987600577,-2.466485867268263e-05,1.371704673092632e-05,-4.168314390080462e-06,3.918948536022367e-06,3.922305991120118e-06
223.0343061768196,85.25628792692244,12.5,0,-7.087722831887512,2.288869259255212,-0.4286614259318912,-2.451180846944421e-05,1.299455989512669e-05,-3.42929140745513e-06,3.642007498248031e-06,3.926332787848542e-06
222.1626515095738,87.8995847848627,12.5,0,-6.688356965923972,2.737019355279855,-0.6915955868334975,-2.359235777518059e-05,1.410914750963471e-05,-5.53276469466798e-06,4.191310635225392e-06,4.052433840480909e-06
224.0469648270003,87.58185190052251,12.5,0,-6.699932568819245,2.506814537385775,-0.5978640200920667,-2.34452358501302e-05,1.338175257468988e-05,-4.782912160736534e-06,3.878391418610297e-06,4.055350360898069e-06
283.1025159664871,177.7719909582916,12.5,0,11.87321306939845,1.288294500294174,-3.298059840641172,3.69636462218397e-05,-5.376028054577403e-06,-2.638447872512937e-05,5.030270395147847e-05,5.068859143396696e-05
285.4882685492357,178.1617901658288,12.5,0,11.72084517693414,1.025886060894833,-3.070980958710321,3.668599571747338e-05,-6.093840746683845e-06,-2.456784766968257e-05,4.881758529345164e-05,4.978399788725583e-05
283.3651898669916,179.8358484775604,12.5,0,12.37622507946599,1.439063449005199,-3.400370157105462,3.845266949508699e-05,-5.295977026756153e-06,-2.72029612568437e-05,5.271904189534319e-05,5.168381597588652e-05
285.7393143871086,180.2382164980772,12.5,0,12.2193998664533,1.17409361915695,-3.171276044354964,3.816280467732499e-05,-6.018420311860399e-06,-2.537020835483971e-05,5.120696572425563e-05,5.075724565461381e-05
283.5574805079749,181.346697041184,12.5,0,12.46726211522036,1.117170967592845,-3.066866810527138,3.900150199463086e-05,-6.398862595879181e-06,-2.453493448421711e-05,5.193033996276143e-05,5.237916062712062e-05
285.9230926954525,181.7582660713922,12.5,0,12.31740225758843,0.8723602780387809,-2.848604074493942,3.871779900185195e-05,-7.062368916346644e-06,-2.278883259595153e-05,5.052340320335516e-05,5.143798740986849e-05
283.8201544084793,183.4105545604528,12.5,0,12.95387722508042,1.262147926418938,-3.163095993428955,4.044268877912219e-05,-6.324228415523735e-06,-2.530476794743164e-05,5.426399558033087e-05,5.328365300122468e-05
286.1741385333255,183.8346924036406,12.5,0,12.79964866193617,1.014892807494593,-2.942892336296298,4.014696147220005e-05,-6.992061945566234e-06,-2.354313869037039e-05,5.283069770013166e-05,5.232456070477896e-05
287.6548410076167,182.0595555123137,12.5,0,12.3262336087413,0.7904016703203474,-2.876576992223874,3.881162621171587e-05,-7.331701541967925e-06,-2.301261593779099e-05,5.031413398155628e-05,5.077744380129951e-05
290.0204531950943,182.471124542522,12.5,0,12.19317055263409,0.5903119802477899,-2.674047350865913,3.854589618423085e-05,-7.865538105314342e-06,-2.13923788069273e-05,4.912231796134881e-05,4.991397831924958e-05
287.8973745128501,184.1451828542536,12.5,0,12.78548864895149,0.9225389610617318,-2.955991091374782,4.017553250779539e-05,-7.276266243763652e-06,-2.364792873099826e-05,5.249569545350468e-05,5.165362474497772e-05
290.2513586376963,184.5693206974414,12.5,0,12.64840064323513,0.7203787680526639,-2.751753115520794,3.989857904391028e-05,-7.813508456819577e-06,-2.201402492416635e-05,5.128044436748229e-05,5.077968591054354e-05
287.234760654022,178.4471429904841,12.5,0,11.76001859801923,0.9456976734587621,-3.115490241743617,3.687550137489452e-05,-6.381782323347344e-06,-2.492392193394893e-05,4.873545959084174e-05,4.914540506850581e-05
289.6205132367705,178.8369421980212,12.5,0,11.62399068392797,0.7282571936481759,-2.903564070755337,3.661416443365097e-05,-6.968769527468215e-06,-2.32285125660427e-05,4.746586878313671e-05,4.830533058896909e-05
287.4772941592555,180.5327703324238,12.5,0,12.23708666904312,1.083849872149809,-3.201034634341604,3.829159744321814e-05,-6.321349744355109e-06,-2.560827707473283e-05,5.100532063657615e-05,5.010536836456992e-05
289.8514186793726,180.9351383529406,12.5,0,12.09693039819748,0.864219546983148,-2.987320889867497,3.801880163664543e-05,-6.912041768211913e-06,-2.389856711893998e-05,4.971158420845929e-05,4.925097680906668e-05
236.0226999946647,112.3423081952069,12.5,0,-2.197538116564227,3.957937227196124,-1.70092603682693,-1.019847175476242e-05,1.442342962027898e-05,-1.360740829461544e-05,1.034992564842052e-05,1.051526537173413e-05
237.4073406091592,111.4935986955506,12.5,0,-2.165158068831999,3.740101254407373,-1.69964943243466,-9.920586823788293e-06,1.370045046916919e-05,-1.359719545947728e-05,9.688687559542354e-06,1.009669024611874e-05
237.1682328610792,114.6703607063189,12.5,0,-1.924159933958157,4.194409353210733,-1.879770712931965,-9.51283927123469e-06,1.496143787744087e-05,-1.503816570345572e-05,1.184471451107632e-05,1.191083063738159e-05
238.359119877761,113.5471063129666,12.5,0,-1.848161612583455,4.004750252553924,-1.906156559562005,-9.117917362310194e-06,1.429373009823932e-05,-1.524925247649604e-05,1.137804795291184e-05,1.126061790467195e-05
238.4209678891495,110.8723002209622,12.5,0,-2.428428750053981,3.760481567217394,-1.850713221901444,-1.077935725394665e-05,1.397628401513884e-05,-1.480570577521155e-05,9.416434280524566e-06,9.796800624866733e-06
239.8056085036441,110.0235907213059,12.5,0,-2.380787667631329,3.575951780281574,-1.837680730348734,-1.047928196064551e-05,1.33476758310061e-05,-1.470144584278987e-05,8.903857655927497e-06,9.396062068524216e-06
239.2309096800091,112.7248270272428,12.5,0,-2.212058359412597,3.914434593710971,-1.973183592343777,-1.021013442508909e-05,1.429583738740518e-05,-1.578546873875022e-05,1.040841783155954e-05,1.080447209559648e-05
240.421796696691,111.6015726338905,12.5,0,-2.116061578649402,3.752710015899315,-1.985397094257462,-9.773565064397538e-06,1.370152131379733e-05,-1.58831767540597e-05,1.007256011652643e-05,1.020847130219935e-05
237.0181075562325,107.6636296701588,12.5,0,-3.002599957584572,3.656550095652729,-1.718507637182652,-1.253355994079281e-05,1.410304027215639e-05,-1.374806109746121e-05,8.121642116336921e-06,8.266418385731705e-06
238.738339246282,107.2904458753339,12.5,0,-3.01219897298806,3.411574457383861,-1.644332093015793,-1.236829627946888e-05,1.33267974420188e-05,-1.315465674412634e-05,7.347090382883912e-06,8.147809783075866e-06
237.8280493470922,109.5161564764393,12.5,0,-2.735669779879239,3.823594881436997,-1.849661066248592,-1.181301920076316e-05,1.442403944450178e-05,-1.479728852998873e-05,9.114450427024576e-06,9.116731182982817e-06
239.3545274393289,108.8684277879184,12.5,0,-2.693964686483032,3.599102479839104,-1.797314949130899,-1.149996898061698e-05,1.367229968467156e-05,-1.437851959304719e-05,8.448835707386373e-06,8.843909478618374e-06
234.0385788683305,108.3100029633451,12.5,0,-2.937608221487035,3.726607978823623,-1.532707731875713,-1.238163269181741e-05,1.427523210942522e-05,-1.226166185500571e-05,8.27001970860328e-06,8.47159571556529e-06
235.7588105583798,107.9368191685203,12.5,0,-2.951614487353549,3.47750354534962,-1.465017923380269,-1.222716919581105e-05,1.348930293500162e-05,-1.172014338704215e-05,7.467561253278464e-06,8.353176564860104e-06
235.184111734745,110.6380554744571,12.5,0,-2.607446110587465,3.957165295480739,-1.7066714386537,-1.150955979026448e-05,1.474888583400833e-05,-1.36533715092296e-05,9.620172158918582e-06,9.593725151881216e-06
236.7105898269816,109.9903267859363,12.5,0,-2.574029582031429,3.732463814852445,-1.661773169154375,-1.122286571438253e-05,1.400310787315296e-05,-1.3294185353235e-05,8.92847774891242e-06,9.31764368709954e-06
160.7389007949467,109.4361789758316,12.5,0,-2.765764114192299,1.317330446730197,1.906343102186885,-9.904309522799513e-06,6.428068720890469e-06,1.525074481749508e-05,3.138623157490901e-06,3.622422210010764e-06
162.3360147003575,110.2238060772912,12.5,0,-2.731859437525025,1.542992437340782,1.881759024261684,-9.976344149952704e-06,7.123063349510522e-06,1.505407219409347e-05,3.495020450534755e-06,3.835366050543624e-06
159.4524985068119,110.4627205362278,12.5,0,-2.679520558583279,1.532451811864612,1.984399563097737,-9.800427236958181e-06,7.047462244833382e-06,1.587519650478189e-05,3.619020614875596e-06,3.662215080172053e-06
160.9217921495512,111.4610507494441,12.5,0,-2.65875814627991,1.719223651616073,1.950313818128351,-9.883404989388569e-06,7.62852220219536e-06,1.56025105450268e-05,3.930215153884664e-06,3.912210777928237e-06
156.9076072663951,108.7335618842371,12.5,0,-2.948543855798047,1.384688624158084,1.992589459013024,-1.054309123788022e-05,6.789838681944306e-06,1.594071567210419e-05,3.271998253028782e-06,3.30083910829647e-06
157.97261836535,108.0719688187098,12.5,0,-3.006624975051828,1.194990419236272,1.942198871303663,-1.057719225555487e-05,6.229269321597532e-06,1.55375909704293e-05,2.923495125418598e-06,3.305305629326122e-06
158.3769009091345,109.7318920974535,12.5,0,-2.912286941896865,1.579027039700405,1.949492016664151,-1.058253984583029e-05,7.382716080558786e-06,1.55959361333132e-05,3.551239285560751e-06,3.498398535024052e-06
159.5697322707609,108.8595959201694,12.5,0,-2.957308906164385,1.436532399518162,1.905962155110585,-1.061261441934056e-05,6.962750803389626e-06,1.524769724088468e-05,3.256100717003293e-06,3.480392948210254e-06
155.0629539324136,109.8794746876451,12.5,0,-2.76867042702619,1.277282701463237,2.017411531874989,-9.881571527654395e-06,6.302240986303309e-06,1.613929225499991e-05,3.200832762682087e-06,3.294357394756824e-06
156.1279650313685,109.2178816221178,12.5,0,-2.771343490726384,1.144169988893376,2.004208178299206,-9.783635161439128e-06,5.878418757039908e-06,1.603366542639365e-05,2.987932097576084e-06,3.297905537685171e-06
156.3108563859731,111.2427533957302,12.5,0,-2.683112415877064,1.420874575117296,1.945828342795973,-9.722659390900442e-06,6.693288573076999e-06,1.556662674236778e-05,3.382887287812363e-06,3.529988815933433e-06
157.5036877475995,110.3704572184463,12.5,0,-2.680685119342339,1.318161538442007,1.930979263615554,-9.632721612649089e-06,6.362665018488293e-06,1.544783410892443e-05,3.20036838883966e-06,3.511687707727985e-06
157.2243843848296,112.240742674883,12.5,0,-2.385781642885385,1.435205184541926,1.994445878768784,-8.782665404866771e-06,6.501281904842471e-06,1.595556703015027e-05,3.622273879354605e-06,3.734081220411779e-06
158.5107866729644,111.2142011144869,12.5,0,-2.391218152527774,1.301686939859204,1.966267639307737,-8.69324763997624e-06,6.078372729571672e-06,1.57301411144619e-05,3.35081342814796e-06,3.692134021835732e-06
158.4722868383891,113.6040213829682,12.5,0,-2.324271310881849,1.557479434487635,1.936404661274263,-8.683651742412024e-06,6.84335123906591e-06,1.54912372901941e-05,3.817808295640593e-06,4.056040617732615e-06
159.8865093891953,112.3667767108153,12.5,0,-2.326413156130144,1.446610966673579,1.909487795480927,-8.601810872955324e-06,6.490285618259567e-06,1.527590236384741e-05,3.574110486894355e-06,3.971340349994774e-06
125.8311325137881,80.10575252711121,12.5,0,-7.485597785933837,0.1424195651535567,2.026122183506718,-2.406784856711112e-05,6.444220837238451e-06,1.620897746805374e-05,2.347422563166353e-06,2.375649731040527e-06
127.6468958149215,80.94954570339937,12.5,0,-7.638030014479624,0.09276441254133827,2.148791166925976,-2.451590757636786e-05,6.407270131715982e-06,1.719032933540781e-05,2.398057193370164e-06,2.378832325785575e-06
126.0744426541123,81.84232599627971,12.5,0,-7.122546326892314,0.2350075364236472,2.001862147993686,-2.298015427519432e-05,6.450061178069522e-06,1.601489718394949e-05,2.330416060709263e-06,2.33240408090078e-06
127.8731620916175,82.91438475684656,12.5,0,-7.326222296252847,0.1720049962726624,2.13086472490924,-2.358151534502724e-05,6.411393825074796e-06,1.704691779927392e-05,2.384757902643917e-06,2.330015748248662e-06
125.4097069887574,77.09791904748926,12.5,0,-8.039151224343003,0.09698159547166529,2.018328115020885,-2.580286919427494e-05,6.74166208498373e-06,1.614662492016708e-05,2.42007577864642e-06,2.452443632664238e-06
127.2549911276517,77.54634463419444,12.5,0,-8.11800555335568,0.07136724776187986,2.138156448876959,-2.603471156894767e-05,6.722779635522558e-06,1.710525159101567e-05,2.468557330798856e-06,2.46416474801631e-06
125.6530171290816,78.83449251665776,12.5,0,-7.688529102439875,0.1855480230301714,1.997318309127484,-2.475173154623173e-05,6.744576955648447e-06,1.597854647301987e-05,2.400297307168668e-06,2.407814231994338e-06
127.4812574043477,79.51118368764163,12.5,0,-7.813058498581421,0.1482552405977811,2.122733033195813,-2.512039138793877e-05,6.724863568778036e-06,1.698186426556651e-05,2.453329413354509e-06,2.414777441937641e-06
122.2135811058491,76.32122314791594,12.5,0,-8.135187964294872,0.04741674551217612,2.005853845507938,-2.607053488215333e-05,6.65988395707486e-06,1.60468307640635e-05,2.40326704465054e-06,2.433151461836172e-06
124.0588652447433,76.76964873462113,12.5,0,-8.229960203267705,-0.01318942681848911,2.140498550459061,-2.632532110900186e-05,6.541761996794998e-06,1.712398840367249e-05,2.439113486606849e-06,2.444133647677894e-06
122.4864120839341,77.66242902750147,12.5,0,-7.821805540775637,0.1324572617899742,1.968919622431271,-2.513574353991401e-05,6.681307670348426e-06,1.575135697945017e-05,2.380426596052883e-06,2.397381489672699e-06
124.3146523592001,78.33912019848535,12.5,0,-7.969415402520328,0.05641126232486426,2.113690422537939,-2.554725829792494e-05,6.556048361455827e-06,1.690952338030352e-05,2.421146347525006e-06,2.403153000633522e-06
122.6861382217625,78.64425987472646,12.5,0,-7.717238480062408,0.0352324926225478,2.038428445940601,-2.472334913029774e-05,6.286534760442078e-06,1.630742756752481e-05,2.32910115131381e-06,2.371999640470998e-06
124.5019015228959,79.48805305101462,12.5,0,-7.862907375522934,-0.01496242883710464,2.155574282571013,-2.51493336586037e-05,6.242446128139611e-06,1.724459426056811e-05,2.375718505132558e-06,2.373818918528407e-06
122.9589691998475,79.985465754312,12.5,0,-7.436130240891538,0.1080816751715106,2.011979198650812,-2.388208211099013e-05,6.294765553262064e-06,1.609583358920649e-05,2.310555463862464e-06,2.338425111022425e-06
124.7576886373528,81.05752451487884,12.5,0,-7.633963392987691,0.0439526998038211,2.137488293465053,-2.446384501740367e-05,6.247819353762379e-06,1.709990634772042e-05,2.361931805988719e-06,2.3346573628648e-06
211.0146265837257,79.04378251531385,12.5,0,-8.324103587363822,2.01849688905454,0.08583252804235116,-2.825192899080786e-05,1.311847291486559e-05,6.866602243388092e-07,3.548468735087615e-06,3.630321338486047e-06
211.9382904428567,77.31908897430864,12.5,0,-8.264150648175411,1.93346090811484,0.02852251266234265,-2.799205080065318e-05,1.279839542450782e-05,2.281801012987412e-07,3.454746049788773e-06,3.617455801226494e-06
212.1766162076399,81.36093502876776,12.5,0,-8.151128195954708,2.20690630760448,-0.05520756328594766,-2.784913527313865e-05,1.35830027410981e-05,-4.416605062875813e-07,3.702938809815369e-06,3.682340557473875e-06
213.3241335143644,80.01123494220302,12.5,0,-8.117722761030924,2.095468852273963,-0.09073042219132554,-2.765308791711813e-05,1.319967853610142e-05,-7.258433775306043e-07,3.585134743030219e-06,3.668270906474816e-06
210.3384577097555,80.30634581476185,12.5,0,-7.77132704370409,2.119748941695922,0.09836725975410042,-2.656404569320982e-05,1.300025824839022e-05,7.869380780328034e-07,3.547271330174828e-06,3.644787759497439e-06
211.3365752365886,82.34898406707126,12.5,0,-7.681733404814922,2.219779677500175,0.02219397845602681,-2.635737063740788e-05,1.32486816918525e-05,1.775518276482145e-07,3.63489713449509e-06,3.696407248415316e-06
209.4147938506245,82.03103935576706,12.5,0,-7.821399278248347,2.199442993734,0.1522452166449035,-2.678803208538191e-05,1.329533700254748e-05,1.217961733159228e-06,3.639998110371143e-06,3.671445219446371e-06
210.1890579298641,83.69868415363601,12.5,0,-7.708221862731282,2.322002532452045,0.05570377173983115,-2.652391198670174e-05,1.359698559403157e-05,4.456301739186493e-07,3.749016209270506e-06,3.720768511764274e-06
210.7558585743189,84.91948487460209,12.5,0,-7.328611128535568,2.367151714580198,0.03031231774532636,-2.534527698297797e-05,1.343777438948509e-05,2.424985419626109e-07,3.74065011763085e-06,3.766112642262748e-06
212.0672479781244,83.84429904918186,12.5,0,-7.249677243440336,2.240938106540317,0.03635243986638864,-2.499171766424133e-05,1.297074373568128e-05,2.908195189311091e-07,3.588117548316469e-06,3.747415912003662e-06
211.5301226535585,86.58712967247104,12.5,0,-7.079760575279773,2.533573278474662,-0.09795603893108205,-2.4682092463675e-05,1.377124295134273e-05,-7.836483114486564e-07,3.903079088707835e-06,3.840671818296976e-06
213.0653655049576,85.88693730149126,12.5,0,-7.05006456578436,2.378303888269494,-0.06754747343388112,-2.446284972112554e-05,1.325062409508987e-05,-5.40379787471049e-07,3.71481213617141e-06,3.835154683641261e-06
213.0272516501767,83.05720839742983,12.5,0,-7.59474361017782,2.294079231314571,-0.07067289996760985,-2.613844293762068e-05,1.341684842834888e-05,-5.653831997408788e-07,3.700863154860324e-06,3.736309739163041e-06
214.3386410539823,81.98202257200961,12.5,0,-7.521682281883062,2.171013443959674,-0.06636796526971356,-2.580619405719354e-05,1.296458884617741e-05,-5.309437221577085e-07,3.556998325232227e-06,3.724663840942617e-06
214.1892412740909,85.37436091088375,12.5,0,-7.282243406405295,2.516042044789414,-0.2369584280261005,-2.531601253632847e-05,1.387712926845036e-05,-1.895667424208804e-06,3.913509457946103e-06,3.831737066599196e-06
215.72448412549,84.67416853990399,12.5,0,-7.255219745429493,2.363120824637802,-0.2088582199155121,-2.510719984508462e-05,1.336616243518456e-05,-1.670865759324097e-06,3.731157881198619e-06,3.82791709785478e-06
148.7719679997028,119.7247461628652,12.5,0,-1.136285991484544,1.062106420896335,2.046601634032847,-4.485800309467608e-06,4.307769340055907e-06,1.637281307226278e-05,4.110047336293279e-06,4.290073080893018e-06
150.3754960214265,119.1522949293735,12.5,0,-1.101913960422905,0.9573349250580423,2.098274234728197,-4.291992613399729e-06,3.945002928524058e-06,1.678619387782558e-05,4.015218674044039e-06,4.345710980727563e-06
149.9810363030118,121.2995321429483,12.5,0,-0.9394538110609132,1.195222959618048,1.952657780600582,-3.96243056308936e-06,4.576276519626483e-06,1.562126224480465e-05,4.550075556958307e-06,4.838252845851001e-06
151.5804530205136,120.7044835444278,12.5,0,-0.9029318274679695,1.09273957300256,2.002860687712411,-3.76357350629955e-06,4.219112095582567e-06,1.602288550169929e-05,4.441762118964391e-06,4.88552171726146e-06
150.8661357308174,122.4523554913673,12.5,0,-0.6732511664034553,1.192094253065258,2.021587944324561,-3.108079134943263e-06,4.353302542931588e-06,1.617270355459649e-05,5.107833568232303e-06,5.300428666540454e-06
152.4625427647435,121.8407644735292,12.5,0,-0.6356391888456286,1.088538277056329,2.070579329912986,-2.904876025951075e-06,3.991833837656755e-06,1.656463463930389e-05,4.99296250979681e-06,5.33999024764454e-06
152.0752040341264,124.0271414714504,12.5,0,-0.4796082253752095,1.324503583322459,1.928522288494421,-2.594349187858637e-06,4.622098046932034e-06,1.542817830795537e-05,5.703400702353129e-06,6.014936725789583e-06
153.6674997638306,123.3929530885835,12.5,0,-0.4399291968779657,1.223193916986011,1.976088129536949,-2.386328563598299e-06,4.266163891857608e-06,1.580870503629559e-05,5.577684259781822e-06,6.041810626611163e-06
153.6311938230881,121.393048775038,12.5,0,-0.8380113291634792,1.335656670115191,2.006628132947456,-3.750161589415286e-06,4.944510407699394e-06,1.605302506357965e-05,5.160325880396911e-06,5.366829644321866e-06
155.2276008570143,120.7814577572,12.5,0,-0.802286812634438,1.226562501876674,2.054318053138315,-3.548567801931541e-06,4.566829456112908e-06,1.643454442510652e-05,5.017985043849296e-06,5.40059465858785e-06
154.8331411385995,122.9286949707747,12.5,0,-0.6491529592913738,1.4700867571968,1.913450599028027,-3.253358875489836e-06,5.223599990462858e-06,1.530760479222422e-05,5.743594586918167e-06,6.060065737282248e-06
156.4254368683038,122.2945065879079,12.5,0,-0.6113636404275462,1.363347320326758,1.959692106633099,-3.047041505629554e-06,4.851802337387662e-06,1.567753685306479e-05,5.589100133809961e-06,6.083065726313981e-06
151.5493600046387,118.7332315416201,12.5,0,-1.292682455546184,1.203842530858479,2.0331103937964,-5.099657882434571e-06,4.88644206318408e-06,1.62648831503712e-05,4.198853625182947e-06,4.383997303021255e-06
153.1528880263624,118.1607803081285,12.5,0,-1.260734983969985,1.091203067240959,2.083233332323229,-4.907314402496719e-06,4.500437802347056e-06,1.666586665858583e-05,4.0734300725292e-06,4.432959580932482e-06
152.7513073201501,120.2688777373567,12.5,0,-1.100254250703661,1.340672205156126,1.938232811779445,-4.593351366376615e-06,5.17035445706253e-06,1.550586249423556e-05,4.637604793382959e-06,4.917728460916315e-06
154.350724037652,119.6738291388363,12.5,0,-1.066149070087778,1.230467764198365,1.986853511374117,-4.396051235639581e-06,4.790416101504991e-06,1.589482809099293e-05,4.496287850904585e-06,4.958450049521005e-06
173.9402989022614,152.5255053462071,12.5,0,4.951016068558233,3.183516295614725,1.462281286949266,1.329643838289456e-05,6.226439291120533e-06,1.169825029559413e-05,2.983231709564387e-05,2.997795499387282e-05
175.5630621462004,151.6731100922883,12.5,0,5.070454189413957,3.13305135517953,1.545964716146823,1.371901232198104e-05,5.96940098504333e-06,1.236771772917458e-05,3.012431878612455e-05,3.00293443545781e-05
175.1469850874689,154.1057768737693,12.5,0,5.227016374999845,3.312015656224039,1.356624517336091,1.407683987502027e-05,6.416836999917049e-06,1.085299613868873e-05,3.126765521503903e-05,3.170675109101425e-05
176.7591289595031,153.2457710492423,12.5,0,5.348366531057241,3.262214782887378,1.439851868770752,1.450500107307327e-05,6.160394080393814e-06,1.151881495016602e-05,3.156677992772337e-05,3.176610517560412e-05
176.0303406837947,155.2626159216502,12.5,0,5.593458188108764,3.446953365604575,1.399872470001411,1.514150350946438e-05,6.555484219447627e-06,1.119897976001129e-05,3.310565075706025e-05,3.299856685259767e-05
177.6347106360504,154.3970387727637,12.5,0,5.698629620762522,3.37993825594705,1.470132785657061,1.553166418168243e-05,6.256898722420542e-06,1.176106228525649e-05,3.328157724663799e-05,3.306608010989913e-05
177.2370268690022,156.8428874492124,12.5,0,5.848619677606052,3.580651766889357,1.295525155373547,1.585106155482788e-05,6.7791899119611e-06,1.036420124298838e-05,3.448966440322425e-05,3.479907705027047e-05
178.830777449353,155.9696997297178,12.5,0,5.955554101487637,3.514299108478968,1.365306873202032,1.624633383797726e-05,6.481313865942589e-06,1.092245498561626e-05,3.467256369789286e-05,3.488091685808405e-05
178.8091909551884,153.7633923219351,12.5,0,5.332505643453915,3.755369379351105,1.400714914142693,1.405972255557164e-05,7.751177499160404e-06,1.120571931314155e-05,3.322416980732175e-05,3.310140914313573e-05
180.413560907444,152.8978151730487,12.5,0,5.431574803466686,3.666328766097359,1.466109439664056,1.444797635821551e-05,7.386992208738199e-06,1.172887551731245e-05,3.329425789415777e-05,3.313041659962307e-05
179.9974838487125,155.3304819545297,12.5,0,5.588286596078992,3.903278447567022,1.29005739888344,1.475989434939916e-05,8.019861755351274e-06,1.032045919106752e-05,3.465791094516409e-05,3.492364466058542e-05
181.5912344290633,154.4572942350352,12.5,0,5.689127924497467,3.814946204062758,1.354919320892362,1.515325239514169e-05,7.65652551340285e-06,1.08393545671389e-05,3.473515887187114e-05,3.49585393801063e-05
176.7510072893685,151.0491134583156,12.5,0,4.75763820279052,3.489569867791732,1.482203805309394,1.243278635469628e-05,7.360513014701125e-06,1.185763044247515e-05,3.02019966345175e-05,3.005541539335185e-05
178.3737705333075,150.1967182043966,12.5,0,4.847382851776625,3.397920161172703,1.544022468753072,1.279328899674704e-05,6.995438234331348e-06,1.235217975002458e-05,3.022879905698363e-05,3.00752534351856e-05
177.9393001828927,152.6162030909102,12.5,0,4.999892230620818,3.633349472119454,1.37573047634496,1.309297556029105e-05,7.626804526285596e-06,1.100584381075968e-05,3.156496729606836e-05,3.179697104245153e-05
179.5514440549268,151.7561972663832,12.5,0,5.091300263684215,3.542374812932302,1.437036210754752,1.345826099344365e-05,7.262559190435993e-06,1.149628968603802e-05,3.15982541104643e-05,3.182194407431205e-05
275.1743308249331,91.16328762872173,12.5,0,-4.965826656857555,1.748931968786769,-2.972785504562448,-1.728979087697359e-05,9.569243625603702e-06,-2.378228403649959e-05,4.28906063266872e-06,4.284786009397253e-06
277.3445630796677,91.33741423232733,12.5,0,-5.066851637445122,1.475194953849035,-2.802332644733405,-1.739408120290362e-05,8.774105162273008e-06,-2.241866115786724e-05,3.778489207016664e-06,4.276269791390815e-06
275.8631603278525,93.43725833807173,12.5,0,-4.478317697643184,1.951750736596135,-3.132594059431892,-1.58920172217351e-05,9.828256515222178e-06,-2.506075247545514e-05,4.858925449656492e-06,4.514417386007082e-06
278.0188998373445,93.64276180178911,12.5,0,-4.587609879910659,1.671957100434226,-2.957879901505328,-1.601791729606149e-05,9.020350625318051e-06,-2.366303921204262e-05,4.249681210644521e-06,4.509954327908582e-06
273.9812431281457,87.22465482527487,12.5,0,-5.707062204921982,1.675610665729134,-2.840069295577245,-1.960308758833365e-05,9.927603894270814e-06,-2.272055436461796e-05,3.994645297571206e-06,3.981905328817711e-06
276.1765775539812,87.34443511298585,12.5,0,-5.796220267887432,1.407361061029978,-2.672713522679015,-1.967379370606376e-05,9.140531609605875e-06,-2.138170818143212e-05,3.562611086695102e-06,3.967736128673539e-06
274.6700726310651,89.49862553462486,12.5,0,-5.226973826276737,1.874797555172511,-2.996742584696923,-1.822615428822357e-05,1.018093123757342e-05,-2.397394067757538e-05,4.430146715787609e-06,4.142099833717967e-06
276.850914311658,89.64978268244764,12.5,0,-5.324002597954802,1.600720410150356,-2.825286543507103,-1.831738464157565e-05,9.38150739084498e-06,-2.260229234805683e-05,3.922107347583355e-06,4.13098286278885e-06
270.178812363062,87.01718928121797,12.5,0,-5.840876823714179,1.791577352386654,-2.721678477747336,-2.01240677177947e-05,1.040574898660863e-05,-2.177342782197869e-05,4.025105345233524e-06,4.006367015235577e-06
272.3741467888975,87.13696956892895,12.5,0,-5.933832133514632,1.508577476709988,-2.55321742573871,-2.019512480861481e-05,9.574513632283664e-06,-2.042573940590968e-05,3.579886507934204e-06,3.992256443674585e-06
270.8927440370823,89.23681367467334,12.5,0,-5.367229347077688,1.996699071740405,-2.883852317158927,-1.877249316804093e-05,1.068322050723144e-05,-2.307081853727142e-05,4.461869057924738e-06,4.161002358661428e-06
273.0735857176751,89.38797082249611,12.5,0,-5.468204234966586,1.707468433388567,-2.711093159922778,-1.886422829860393e-05,9.83846237481668e-06,-2.168874527938222e-05,3.938022084124377e-06,4.150143533393963e-06
271.4153782955756,90.86169150433285,12.5,0,-5.113905932863092,1.868034018360935,-2.856903953238408,-1.785892619985064e-05,1.006883360504546e-05,-2.285523162590727e-05,4.307256946781731e-06,4.298781974812775e-06
273.5856105503102,91.03581810793845,12.5,0,-5.219107674290899,1.578262732983395,-2.685131494658632,-1.796375474411759e-05,9.225726884979583e-06,-2.148105195726906e-05,3.781437405314989e-06,4.290818130764841e-06
272.1293099695959,93.08131589778823,12.5,0,-4.632724114573715,2.077341657070976,-3.02277570510788,-1.648659049229267e-05,1.035367259428609e-05,-2.418220564086304e-05,4.876003777420715e-06,4.520567542975741e-06
274.2850494790878,93.28681936150562,12.5,0,-4.746361318529339,1.781073295114388,-2.846525035872993,-1.661321485538539e-05,9.49652359918951e-06,-2.277220028698394e-05,4.248100389098761e-06,4.517261188413336e-06
161.3561401302289,136.1222402613712,12.5,0,1.775804687257264,1.941377884496394,1.836444785156029,4.129472691626129e-06,4.79176548058265e-06,1.469155828124823e-05,1.426819607535865e-05,1.425798045802539e-05
162.9693040111017,135.4019337037342,12.5,0,1.836256064617048,1.851170904262639,1.891989828572731,4.395082683364442e-06,4.454742041946804e-06,1.513591862858185e-05,1.421013222078668e-05,1.426042970537375e-05
162.5658163859551,137.6930888374471,12.5,0,1.984218166653657,2.070345640192087,1.742252943586972,4.693221621138031e-06,5.037731515291754e-06,1.393802354869578e-05,1.536247648164474e-05,1.558823359325361e-05
164.1765299194986,136.9394277269831,12.5,0,2.047438169398771,1.983227394257386,1.795653549529076,4.965220226670156e-06,4.70837712610462e-06,1.436522839623261e-05,1.531832179799284e-05,1.557790810266142e-05
163.4513608658187,138.843029806083,12.5,0,2.284015576147287,2.121844426422788,1.791164363492519,5.611374302533088e-06,4.96268970363509e-06,1.432931490794016e-05,1.662255594142442e-05,1.658745652075237e-05
165.0602806206211,138.064951468287,12.5,0,2.351875064257276,2.034908373623307,1.845170654319545,5.898073506724636e-06,4.63020674418876e-06,1.476136523455636e-05,1.659719872201119e-05,1.65680560922163e-05
164.6610371215449,140.4138783821589,12.5,0,2.492169301789543,2.249949420585566,1.697400506284659,6.174982229258085e-06,5.206102704442177e-06,1.357920405027727e-05,1.774242907858463e-05,1.798713119165452e-05
166.2675065290181,139.6024454915359,12.5,0,2.562664106342725,2.16599698741831,1.749324836263261,6.467727550362069e-06,4.881059074664414e-06,1.399459869010609e-05,1.773194064123171e-05,1.795571230951974e-05
166.2380916263876,137.4953585927758,12.5,0,2.072791179855232,2.337643626839448,1.784622712872015,4.762816874065182e-06,5.822226662002047e-06,1.427698170297612e-05,1.663615472147903e-05,1.654822888700366e-05
167.8470113811901,136.7172802549798,12.5,0,2.130891951187578,2.231680094726511,1.831283088341248,5.03351016801904e-06,5.436662742174772e-06,1.465026470672998e-05,1.64986822799107e-05,1.651346038352438e-05
167.4435237560435,139.0084353886926,12.5,0,2.266940763312755,2.474015185100769,1.68951706326932,5.2749982945202e-06,6.103295981672256e-06,1.351613650615456e-05,1.773278457408703e-05,1.792606252999063e-05
169.0499931635167,138.1970024980697,12.5,0,2.327626634571831,2.371465017766895,1.734093438146564,5.551233216416341e-06,5.726586749196599e-06,1.387274750517251e-05,1.761136359852438e-05,1.787647670801521e-05
164.1502219327854,134.8746327065412,12.5,0,1.583028943362625,2.147595858397211,1.828916539178669,3.347615932042632e-06,5.605883592180974e-06,1.463133231342935e-05,1.432433987409435e-05,1.425810535829532e-05
165.7633858136583,134.1543261489042,12.5,0,1.635028473785231,2.039560129019349,1.878076131444705,3.600443012897259e-06,5.218569633833731e-06,1.502460905155764e-05,1.416359053895862e-05,1.4249305876634e-05
165.3556540624412,136.3877095024582,12.5,0,1.778641307111243,2.284453489014717,1.73332302919571,3.864089391544204e-06,5.887338119158099e-06,1.386658423356568e-05,1.539856816433748e-05,1.556540272500654e-05
166.9663675959848,135.6340483919942,12.5,0,1.833368003406804,2.1799279108186,1.780322610727818,4.122835282246892e-06,5.509074911894075e-06,1.424258088582255e-05,1.525270614806144e-05,1.554156288847631e-05
232.5492574644814,173.2631238163758,12.5,0,12.092228407787,9.229745422393655,-3.179294212075483,3.131133456700345e-05,1.98614026254301e-05,-2.543435369660387e-05,7.786340577157019e-05,7.788867515971353e-05
234.5290811305331,173.2702771722901,12.5,0,11.94806009453097,8.664099755798938,-2.873319934149904,3.130251249785994e-05,1.816667114293183e-05,-2.298655947319923e-05,7.525347624565308e-05,7.704881928886826e-05
233.0680032399984,175.3744149260509,12.5,0,13.0015793550871,9.596524311845702,-3.48666345119665,3.392783448680214e-05,2.030761431383657e-05,-2.78933076095732e-05,8.257930341411441e-05,8.17028259320441e-05
235.040856604067,175.383775644883,12.5,0,12.85589691404441,9.028335178533357,-3.179197692466907,3.391620198211543e-05,1.860595504007121e-05,-2.543358153973526e-05,7.995627947226323e-05,8.06723244984655e-05
235.9784126440485,173.2755137922638,12.5,0,12.09894102394217,8.770166492726393,-3.445035535156271,3.170047808243384e-05,1.838537995757072e-05,-2.756028428125017e-05,7.633849847476083e-05,7.635675355374894e-05
237.9582363101002,173.282667148178,12.5,0,11.94640951936919,8.170411568443685,-3.157184625465778,3.169218120722646e-05,1.658818940352444e-05,-2.525747700372622e-05,7.358354933100446e-05,7.530585067399035e-05
236.485085502387,175.3906281666632,12.5,0,12.95917832788649,9.129654481957282,-3.760019486537713,3.416564706367094e-05,1.884755167995411e-05,-3.008015589230171e-05,8.085720988881243e-05,7.983117107064298e-05
238.4579388664555,175.3999888854953,12.5,0,12.8051557092958,8.527238817472742,-3.47074066074269,3.415470721576837e-05,1.704303964847613e-05,-2.776592528594152e-05,7.808888940456737e-05,7.8563598602352e-05
235.100829510606,169.6120282320505,12.5,0,10.80198195129732,8.597443505869336,-3.366193343397737,2.768838743945595e-05,1.887023365774402e-05,-2.69295467471819e-05,7.095768709321653e-05,7.065796337465065e-05
237.0927260938364,169.6153583232404,12.5,0,10.65801992164731,8.026070786859067,-3.098138950911286,2.768480711978414e-05,1.715701058063116e-05,-2.478511160729029e-05,6.832640924929142e-05,6.98932568001283e-05
235.6075023689444,171.7271426064499,12.5,0,11.60015325253157,8.933828243253329,-3.663115190322066,2.997342781349836e-05,1.930812777638539e-05,-2.930492152257652e-05,7.515731147096585e-05,7.389879995968134e-05
237.5924286501916,171.7326800605577,12.5,0,11.45480754408847,8.359943689441163,-3.39373599332084,2.996742918953015e-05,1.758797377094095e-05,-2.714988794656672e-05,7.251406730017852e-05,7.2982639590055e-05
231.6507634250902,169.6062603449159,12.5,0,10.73234048645208,9.023918595522021,-3.068606040940093,2.712435468022904e-05,2.02906671165088e-05,-2.454884832752075e-05,7.213250216097462e-05,7.171445010884241e-05
233.6426600083205,169.6095904361057,12.5,0,10.5934601820311,8.47305117792483,-2.789893472025955,2.712063164015966e-05,1.863899562373457e-05,-2.231914777620764e-05,6.958852710146806e-05,7.114595065096638e-05
232.1695092006073,171.7175514545909,12.5,0,11.55897705596343,9.365647969085455,-3.361345709206579,2.94962082038146e-05,2.072289185630271e-05,-2.689076567365264e-05,7.644650031043146e-05,7.521229792427138e-05
234.1544354818545,171.7230889086987,12.5,0,11.4186997607968,8.812336075620021,-3.081270001135809,2.948997037405374e-05,1.906451563334663e-05,-2.465016000908647e-05,7.389057135972853e-05,7.449623510971334e-05
261.836306080486,228.6376186170285,12.5,0,16.05229788290261,0.3747125306461192,-0.3923113144990199,5.106758320077144e-05,-1.16427582082545e-05,-3.138490515992159e-06,6.283459239233258e-05,7.498025621869844e-05
263.623719695155,228.6457771912395,12.5,0,16.10633729373331,0.5842375642744382,-0.5379791060250281,5.107288928852703e-05,-1.101550962930844e-05,-4.303832848200225e-06,6.369103157606695e-05,6.976047419731229e-05
262.2272067116115,230.3522003135232,12.5,0,15.67219567991071,0.2371585591742629,-0.2861683149635872,4.996129932837486e-05,-1.177884915457093e-05,-2.289346519708697e-06,6.095072991242003e-05,7.207022456364385e-05
264.0715333507,230.3939360689124,12.5,0,15.73187287823942,0.4437186200927226,-0.4299700577585454,4.998701831429196e-05,-1.116559871829482e-05,-3.439760462068363e-06,6.181623701956141e-05,6.718430476741704e-05
258.7404148857945,228.6234875519778,12.5,0,16.38857394715571,0.5256006475741484,-0.9628041186781195,5.202295611283895e-05,-1.142893708548729e-05,-7.702432949424957e-06,6.462628529835973e-05,9.328196541647302e-05
260.5278285004635,228.6316461261889,12.5,0,16.44122129409716,0.7314833244971957,-1.066272520243398,5.202672148151314e-05,-1.08122303968867e-05,-8.530180161947184e-06,6.547134983040787e-05,8.128282079545214e-05
259.0327392670148,230.2799118646982,12.5,0,16.12749754775846,0.4290707970462462,-0.8752235938319338,5.126473551519007e-05,-1.152897148765878e-05,-7.00178875065547e-06,6.332022229707055e-05,9.005265720106566e-05
260.8770659061033,230.3216476200874,12.5,0,16.18372322577222,0.6312015871110779,-0.9775563991046201,5.128295305278224e-05,-1.092713350186233e-05,-7.820451192836961e-06,6.416541861289544e-05,7.81977811302796e-05
259.2467355663501,231.4924986204504,12.5,0,15.66903274779892,-0.1680113985193428,-0.3923855171368828,5.027531391177203e-05,-1.307286267350103e-05,-3.139084137095062e-06,5.971482031435254e-05,8.735169653455301e-05
261.1327254309243,231.5588145784358,12.5,0,15.81798101920842,0.3432370028993823,-0.6394929652371719,5.034294965914742e-05,-1.155602640608871e-05,-5.115943721897376e-06,6.185113257845031e-05,7.584118059789866e-05
259.5390599475704,233.1489229331708,12.5,0,15.09086135709497,-0.3854512236068635,-0.1901836774400212,4.859911732158937e-05,-1.330613300121793e-05,-1.52146941952017e-06,5.683404564196246e-05,8.320184297948898e-05
261.4819628365641,233.2488160723343,12.5,0,15.24653604106168,0.1164918873844671,-0.4345735561922353,4.869572182148981e-05,-1.182445479321905e-05,-3.476588449537882e-06,5.895380179084845e-05,7.248786787518895e-05
262.5133658342939,231.6073612290317,12.5,0,15.31789577437721,0.09131545402497654,-0.04914684714258559,4.894421411478708e-05,-1.196210716662184e-05,-3.931747771406847e-07,5.914166480167111e-05,6.994525172738397e-05
264.3993556988681,231.6736771870171,12.5,0,15.40662741379984,0.3701182475450455,-0.2692480521757984,4.900511312612345e-05,-1.114092353889573e-05,-2.153984417406388e-06,6.033561621237749e-05,6.534779043129516e-05
262.9042664654193,233.3219429255265,12.5,0,14.78294711738749,-0.09520780278161478,0.08799787118142456,4.738159701786525e-05,-1.213102266281116e-05,7.039829694513965e-07,5.652166154028747e-05,6.7049749628826e-05
264.8471693544129,233.42183606469,12.5,0,14.87894753609984,0.1798838371373748,-0.1289939972939349,4.746872504580958e-05,-1.132752975004027e-05,-1.031951978351479e-06,5.772477320239984e-05,6.290650938586343e-05
287.6115903504835,145.245075775758,12.5,0,5.373287660468977,1.711484134505551,-4.012670553786151,1.582533320589628e-05,1.178119102042581e-06,-3.210136443028921e-05,2.800035117436956e-05,2.827436184723357e-05
289.7535693337675,145.1635683403258,12.5,0,5.327709566496744,1.463383911435983,-3.843385918722269,1.587796348364079e-05,4.206608633977506e-07,-3.074708734977815e-05,2.69114023619287e-05,2.773821941950548e-05
288.1798786610086,147.4515304482391,12.5,0,5.866271709344465,1.897699935309797,-4.156458489600295,1.725390952165445e-05,1.379622425515779e-06,-3.325166791680236e-05,3.046893931138579e-05,2.961324306798874e-05
290.3739438118999,147.415699302834,12.5,0,5.811371597589693,1.65021693508648,-3.987250952849377,1.727621556421783e-05,6.315969142049824e-07,-3.189800762279501e-05,2.93487530017161e-05,2.906771643407184e-05
286.6272861233243,141.4233841784917,12.5,0,4.594114211455659,1.812275988902788,-4.019417964984282,1.325134468553588e-05,2.123991795324395e-06,-3.215534371987425e-05,2.558075505660193e-05,2.592991793564325e-05
288.6790492179423,141.2627630880328,12.5,0,4.568512876303593,1.580081985020101,-3.86069724321986,1.335517561615542e-05,1.401452051021448e-06,-3.088557794575888e-05,2.460982879007793e-05,2.542087257573967e-05
287.1955744338494,143.6298388509728,12.5,0,5.087604823440546,1.998362211541024,-4.162863504170123,1.468164566577692e-05,2.324675218178841e-06,-3.330290803336099e-05,2.803291769040871e-05,2.728741785259106e-05
289.2994236960749,143.5148940505409,12.5,0,5.052002491714879,1.766513713227408,-4.004034200226307,1.475319700290569e-05,1.611241888955801e-06,-3.203227360181046e-05,2.702869063219928e-05,2.676105055277339e-05
283.073528198415,141.7015880679287,12.5,0,4.650001591457697,2.060770047615158,-4.058954634933123,1.32313890545725e-05,2.874462879202348e-06,-3.247163707946498e-05,2.660245378372997e-05,2.681440593398691e-05
285.125291293033,141.5409669774697,12.5,0,4.625491645177595,1.833581726881691,-3.900903405040852,1.333470788306295e-05,2.167068209879336e-06,-3.120722724032682e-05,2.564643109994869e-05,2.630331407359981e-05
283.5516006202741,143.8289290853831,12.5,0,5.121231636343645,2.23023508662257,-4.189452548449706,1.460375316700161e-05,3.039766968117308e-06,-3.351562038759765e-05,2.891631517252625e-05,2.820097804718138e-05
285.6554498824996,143.7139842849512,12.5,0,5.086808552890109,2.003675583636678,-4.031561043633361,1.4674846902339e-05,2.342315025325283e-06,-3.225248834906689e-05,2.792923642457227e-05,2.767324526186504e-05
283.9015739227576,145.3862507951187,12.5,0,5.404936613948252,1.979293566586525,-4.058142851431334,1.571236231136518e-05,2.009790121918278e-06,-3.246514281145068e-05,2.900130966989101e-05,2.920531109881297e-05
286.0435529060416,145.3047433596865,12.5,0,5.358094720537443,1.724265173154125,-3.884036772378889,1.576649096719652e-05,1.231172777663245e-06,-3.107229417903111e-05,2.78751797937802e-05,2.86674678779142e-05
284.3796463446167,147.5135918125731,12.5,0,5.891695872728384,2.155442007532938,-4.19487227294133,1.712907318670448e-05,2.184057725922693e-06,-3.355897818353064e-05,3.141342134535325e-05,3.056262791051335e-05
286.5737114955081,147.477760667168,12.5,0,5.835343864645965,1.901397104910097,-4.021086285089636,1.715198268293901e-05,1.416195643995539e-06,-3.216869028071709e-05,3.025761347113557e-05,3.001380339084479e-05
215.8944745802633,199.872184602819,12.5,0.4433659148056417,16.98709372506888,10.62454977257221,-3.363408211562973,8.238636713407547e-05,3.666481236960155e-05,-4.833923471127114e-05,0.0001812071638590313,0.0001750408159715092
217.1899923439699,200.32216881272,12.5,0.4730897050199941,16.33044460850898,10.7141562057558,-3.365660357416764,8.29099340036273e-05,4.027430166726316e-05,-5.110031653557997e-05,0.0001874129207740699,0.0001843216017350429
215.0199194088062,201.5061319006448,12.5,0.4517387595245907,16.47756703660154,10.85034513237727,-3.052204766157543,8.034114972823572e-05,3.928610889153688e-05,-4.453650254044456e-05,0.0001818578712714015,0.0001775590190709677
216.2880186673449,202.3218504897408,12.5,0.4878548308557565,15.65034876307586,10.6669187601191,-3.049218502920243,8.112461766098542e-05,4.220260645635998e-05,-4.763053425676568e-05,0.0001874507955189636,0.0001893083006874545
213.6505719914558,199.0927890886809,12.5,0.3847904994229903,16.78227975783286,10.6092942809666,-3.156861904341193,7.349668650741509e-05,3.336085979422829e-05,-4.10508862607661e-05,0.0001625618302585847,0.0001592438616786069
214.9460897551624,199.5427732985818,12.5,0.4197955088506405,16.18307784726765,10.7714040626391,-3.260435580459314,7.44026054945384e-05,3.709387130043895e-05,-4.495567518273476e-05,0.0001695658501525976,0.0001683212557755987
212.823507064016,200.0932658596777,12.5,0.3813029742712751,16.55312280777722,11.09918429286851,-3.070346914711413,7.126371021205519e-05,3.600290702015455e-05,-3.970081363937434e-05,0.0001630260267452379,0.0001583929084371472
214.0916063225548,200.9089844487736,12.5,0.4232560864600931,15.80471425108776,10.94142410149171,-3.131263821045415,7.251389280485865e-05,3.878460647570487e-05,-4.343367997524609e-05,0.0001691503399427092,0.0001692752646840643
211.3909885885576,201.8261424588055,12.5,0.367995110826007,16.31130085346969,11.11389237616484,-3.199642337275095,6.852011680917407e-05,3.562538092130672e-05,-4.050148841673563e-05,0.0001583034796174427,0.0001552278070621612
212.2180535159975,200.8256656878087,12.5,0.376838617412945,16.67898116467514,10.72533877173939,-3.123400870673304,7.18794038931183e-05,3.366366999626351e-05,-4.00974894523342e-05,0.0001605150210441475,0.0001573168098459448
212.6115976030791,203.2753315747304,12.5,0.4187293032876305,15.80125166351455,10.8096973576184,-3.346901378077042,7.211140639675715e-05,3.776214823440305e-05,-4.606323899700302e-05,0.0001670937980723219,0.000168029491861119
213.4660810356868,201.9091204245386,12.5,0.4229739737929552,16.21866019370625,10.61587221870246,-3.340646785600079,7.522540210226668e-05,3.638633612922906e-05,-4.631537066096092e-05,0.000169811814782505,0.0001691970867788014
214.3797005893046,202.7022643394924,12.5,0.4544610942062225,16.95406346653004,10.77831343113028,-3.301130449368237,8.364270973781093e-05,3.836087946091184e-05,-4.840909294364596e-05,0.0001856303321153488,0.0001783934947521047
215.6277281089939,203.7857190762223,12.5,0.4944897291560431,16.41435550759406,10.72697138966905,-3.493890472357173,8.693069764774506e-05,4.192758340098737e-05,-5.529288995887772e-05,0.0001961072769281184,0.0001916382716505125
213.5051454178475,204.3362116373182,12.5,0.4536860491718339,16.13788048576977,11.03787384744255,-3.159270031072307,7.836321662957986e-05,4.102200188962283e-05,-4.626306944983732e-05,0.0001814560572833379,0.0001781551216112899
214.725754432369,205.7854007532432,12.5,0.4983407221215579,15.56651428905473,10.78658658090795,-3.318478857502968,8.209471702470546e-05,4.398177528176398e-05,-5.292004360468857e-05,0.0001917097076476357,0.000193017171749606
264.3112730074197,160.1870299924359,12.5,0,8.670686003173493,3.849764173219397,-4.258819349117727,2.466638387157966e-05,5.382696551763273e-06,-3.407055479294182e-05,4.710123508460629e-05,4.678975908458512e-05
266.5840984894816,160.6785039498803,12.5,0,8.388061271797113,3.304622889274619,-3.947079300689965,2.419809775833107e-05,3.864344228241088e-06,-3.157663440551972e-05,4.407089724732149e-05,4.629245549168987e-05
264.8015839575733,162.2839045674732,12.5,0,9.366347980209373,4.126391273358335,-4.493120970031029,2.667120051798332e-05,5.711373690579172e-06,-3.594496776024823e-05,5.071108648185246e-05,4.840887806846215e-05
267.0655956398776,162.7727342418797,12.5,0,9.082904473982719,3.579273963175209,-4.180279274966546,2.620187514620453e-05,4.187353102974491e-06,-3.344223419973237e-05,4.767155711493614e-05,4.784645990963485e-05
265.1605164845778,163.8189232934346,12.5,0,9.521202203474127,3.706588094945142,-4.242703998902527,2.750257657516109e-05,4.244120141045152e-06,-3.394163199122021e-05,4.974440192045137e-05,4.956990685001926e-05
267.4180760176521,164.3058172183079,12.5,0,9.238052773633781,3.164455742597482,-3.928263036821566,2.703020428155011e-05,2.735816157404918e-06,-3.142610429457252e-05,4.673649952994502e-05,4.895918135469849e-05
265.6508274347315,165.9157978684718,12.5,0,10.22905530218295,3.986275533235355,-4.478095799107071,2.954395654039717e-05,4.572837464606773e-06,-3.582476639285657e-05,5.341303264846384e-05,5.11227774865409e-05
267.8995731680482,166.4000475103073,12.5,0,9.945084209299139,3.442166713990002,-4.162535904390896,2.907053609856524e-05,3.058866117328692e-06,-3.330028723512717e-05,5.039507944619007e-05,5.044518845946811e-05
269.0707242969038,164.6622483091966,12.5,0,9.678815049025033,3.187160628830034,-4.175890019677023,2.842247965381608e-05,2.455861973036082e-06,-3.340712015741619e-05,4.857778531602874e-05,4.850574057462237e-05
271.3282838299781,165.1491422340699,12.5,0,9.411890439600983,2.691348658516384,-3.873709545238098,2.796497047991004e-05,1.082803355571642e-06,-3.098967636190478e-05,4.580517432350872e-05,4.787764282049885e-05
269.5457692980698,166.7545428516629,12.5,0,10.36058692407429,3.448205422938289,-4.391499440180747,3.039531381868708e-05,2.745787814143093e-06,-3.513199552144597e-05,5.207683092200857e-05,4.994579583898678e-05
271.7945150313865,167.2387924934984,12.5,0,10.09289266289419,2.950586653818343,-4.088238984779196,2.993678719820673e-05,1.367563161903344e-06,-3.270591187823357e-05,4.929426076459403e-05,4.92590188539216e-05
268.2479222190174,161.0382878573112,12.5,0,8.863198993495921,3.346890162598997,-4.224020880676683,2.568472464910775e-05,3.619489325520052e-06,-3.379216704541346e-05,4.61190288244314e-05,4.591748017651102e-05
270.5207477010792,161.5297618147555,12.5,0,8.594556292496774,2.843794268285149,-3.922035311589408,2.522754472136156e-05,2.224496624515055e-06,-3.137628249271526e-05,4.33008438557802e-05,4.539033215670996e-05
268.7229672201834,163.1305823997774,12.5,0,9.538579438549315,3.607164073282358,-4.440524281088789,2.763772294473192e-05,3.912061483664093e-06,-3.552419424871032e-05,4.958981031257514e-05,4.742635664603794e-05
270.9869789024877,163.6194120741839,12.5,0,9.269163234474631,3.102245238406042,-4.137466946635686,2.717952615959398e-05,2.511854175319631e-06,-3.309973557308549e-05,4.676237481465963e-05,4.684103134424422e-05
276.5340663131126,193.8115648915187,12.5,0,14.87660226444727,1.288272944854585,-2.428249671675977,4.657450889034758e-05,-7.77880838802314e-06,-1.942599737340782e-05,6.144299339240996e-05,6.193614897038492e-05
278.6690904635682,194.3273910139672,12.5,0,14.71159645011915,1.045808692195828,-2.235975027910659,4.62404616866246e-05,-8.422689345068666e-06,-1.788780022328527e-05,6.001144160822069e-05,6.073841318246811e-05
276.4416718306102,195.8060949938504,12.5,0,15.31027746780055,1.387873379078993,-2.496820472740473,4.788258919369856e-05,-7.807027161187662e-06,-1.997456378192378e-05,6.342725982318365e-05,6.26580338756941e-05
278.5663563125182,196.3359078479455,12.5,0,15.14100198658264,1.143513560359675,-2.303127436131033,4.75363955087767e-05,-8.453558196115153e-06,-1.842501948904826e-05,6.197215104932082e-05,6.143461035694665e-05
280.2320366170219,194.7050019434547,12.5,0,14.67633708494821,0.8929744666287585,-2.204151441153273,4.624989909853125e-05,-8.883551374746536e-06,-1.763321152922618e-05,5.939578250408648e-05,5.990602503745921e-05
282.3670607674775,195.2208280659032,12.5,0,14.53131276301292,0.7017097453788481,-2.028231987550509,4.593883304533826e-05,-9.379579025198021e-06,-1.622585590040407e-05,5.821109201940891e-05,5.882963412149703e-05
280.1217333032619,196.7237577756297,12.5,0,15.08506386591827,0.987047401097298,-2.255094600558342,4.748256645006063e-05,-8.909499409223264e-06,-1.804075680446673e-05,6.126161407681325e-05,6.058682767954867e-05
282.2464177851699,197.2535706297247,12.5,0,14.93611773348881,0.7941836805580653,-2.07799017110761,4.716022980271774e-05,-9.407506409005238e-06,-1.662392136886088e-05,6.005591297892158e-05,5.949406584976962e-05
280.4230875606939,191.2084142741147,12.5,0,14.21774851078431,1.013254230101763,-2.489752611077757,4.468619185042839e-05,-8.131785272301809e-06,-1.991802088862206e-05,5.808807257787406e-05,5.856250773434224e-05
282.5760205424072,191.7000146667201,12.5,0,14.06947610180821,0.8142293603424369,-2.302381953142135,4.437094003751231e-05,-8.650046928350766e-06,-1.841905562513708e-05,5.685695986128334e-05,5.751921300323018e-05
280.312784246934,193.2271701062895,12.5,0,14.65240580837369,1.113517595788817,-2.542301971216929,4.599688451016474e-05,-8.158668340174733e-06,-2.033841576973543e-05,6.007254272787475e-05,5.936361014293581e-05
282.4553775600996,193.7327572305414,12.5,0,14.50002045388966,0.9128225487523216,-2.353692398220487,4.566980741344505e-05,-8.678984207104298e-06,-1.88295391857639e-05,5.881959114685042e-05,5.830047389611295e-05
276.6940982511427,190.3569374171167,12.5,0,14.39349565249665,1.41441316661715,-2.707657279370104,4.492765555469554e-05,-6.988674388822436e-06,-2.166125823496083e-05,6.006835562177128e-05,6.051524043356143e-05
278.8470312328561,190.848537809722,12.5,0,14.2265293224222,1.167022466153872,-2.504729910330191,4.459127585882793e-05,-7.646751566245369e-06,-2.003783928264152e-05,5.860322339420889e-05,5.936529086477601e-05
276.6017037686404,192.3514675194484,12.5,0,14.85177608839502,1.520046324045917,-2.77682406441904,4.630964642362732e-05,-7.01727263376908e-06,-2.221459251535232e-05,6.216574448556393e-05,6.136198919803664e-05
278.7442970818061,192.8570546437003,12.5,0,14.68036537944038,1.270704014357094,-2.572437110102835,4.596060600272353e-05,-7.678039457609601e-06,-2.057949688082268e-05,6.067639210000597e-05,6.018394069567626e-05
240.2876814182287,176.9410564697577,12.5,0,13.35715776197499,8.293662856082991,-3.644615367645045,3.610797455345357e-05,1.585399492988557e-05,-2.915692294116036e-05,7.936078204551136e-05,7.983364406939083e-05
242.3099286716758,176.9907065923068,12.5,0,13.17333594184521,7.62591211126372,-3.363432846295307,3.60539453248937e-05,1.386425000256773e-05,-2.690746277036245e-05,7.627507060105958e-05,7.821421385389762e-05
240.7828355087545,178.969074969415,12.5,0,14.13924587875229,8.64258275204465,-3.963787673156248,3.833152061037161e-05,1.634486810354104e-05,-3.171030138524999e-05,8.356372422493679e-05,8.290052788687578e-05
242.7735448975891,179.0047481685885,12.5,0,13.9580277172621,7.967626144326511,-3.680722601598883,3.829158777977752e-05,1.432998148803515e-05,-2.944578081279106e-05,8.046272184599647e-05,8.097645691575038e-05
241.1453134605795,180.4536875497907,12.5,0,14.5256238014522,8.35226730734141,-3.466657480498075,3.980018231877389e-05,1.510675634233075e-05,-2.77332598439846e-05,8.384128274663666e-05,8.520808499779275e-05
243.1129355301566,180.4791289309201,12.5,0,14.34904231085875,7.677550029449556,-3.21893637574537,3.977489537118834e-05,1.308892624555158e-05,-2.575149100596296e-05,8.078301556699866e-05,8.302913583652671e-05
241.6404675511054,182.4817060494482,12.5,0,15.24536905505279,8.692115619780004,-3.790634762477325,4.183148848034492e-05,1.561847473925378e-05,-3.03250780998186e-05,8.778104808333841e-05,8.844556444896786e-05
243.5765517560699,182.4931705072019,12.5,0,15.07113588817266,8.009845420834118,-3.541506423043663,4.181975850548521e-05,1.357459663613105e-05,-2.83320513843493e-05,8.470458982685299e-05,8.587491587809899e-05
244.5533348551195,180.4977533145207,12.5,0,14.31980910785222,7.575033726752479,-3.66444687135017,3.976336216372512e-05,1.278426063932615e-05,-2.931557497080136e-05,8.044502770969018e-05,8.148053350347779e-05
246.5209569246965,180.5231946956501,12.5,0,14.15681631325821,6.952310097087275,-3.43523799874133,3.973996412475644e-05,1.092193926007271e-05,-2.748190398993064e-05,7.763074772394531e-05,7.942862240995464e-05
244.9938637617752,182.5015630727584,12.5,0,14.97392837150895,7.869881744589753,-3.954414852237492,4.162066539315683e-05,1.320447888548005e-05,-3.163531881789994e-05,8.398057219166938e-05,8.408025459013048e-05
246.9299479667397,182.5130275305121,12.5,0,14.81305819534818,7.239972913681923,-3.72382027010392,4.160980789416862e-05,1.131746676750361e-05,-2.979056216083137e-05,8.114880079059493e-05,8.174779733968397e-05
243.7903164066028,177.0270530046132,12.5,0,13.26308710633787,7.575708312187689,-3.832084357713862,3.638131209053103e-05,1.36317969139303e-05,-3.065667486171089e-05,7.657796162875889e-05,7.70202988400357e-05
245.81256366005,177.0767031271623,12.5,0,13.09014908910776,6.94658466434489,-3.571245191524348,3.633120935366891e-05,1.175695165461744e-05,-2.856996153219478e-05,7.368099161664815e-05,7.537789257760015e-05
244.2308453132585,179.0308627628508,12.5,0,13.97655423501129,7.882680507287077,-4.122068936358587,3.841882914620647e-05,1.404333423530961e-05,-3.29765514908687e-05,8.037739949095814e-05,7.958882406169931e-05
246.2215547020931,179.0665359620243,12.5,0,13.80594345881017,7.246541046964624,-3.859421719642,3.838178623062085e-05,1.214417658323866e-05,-3.0875373757136e-05,7.746489059298117e-05,7.772181157314424e-05
247.657107172662,198.1412988087591,12.5,0.1262433707317986,17.36960128314141,8.050151477864247,-2.963927899273606,5.624289565038217e-05,1.357907145447309e-05,-2.713733138030427e-05,0.0001067727701428427,0.0001138985186774771
249.3249148353461,198.8390412109608,12.5,0.0734670713095118,17.73257735724577,7.977800803862195,-2.555639774866354,5.435533410698705e-05,1.224230713806778e-05,-2.206626183035596e-05,0.0001018091863544206,0.0001076437698631091
247.0169875336955,199.6684003574462,12.5,0.19669446191113,17.04848301871657,7.541213908844022,-2.673608548270581,6.040313707814842e-05,1.306239979160552e-05,-2.662606862769866e-05,0.0001123989816745746,0.0001234771158476143
248.7079742187179,200.4373700580092,12.5,0.1434031751292947,17.52409194235909,7.53340633208142,-2.323602608809581,5.842931901765868e-05,1.177639983698971e-05,-2.170078189734411e-05,0.0001073894016270554,0.0001160919336585717
250.5458347816316,199.3498240999459,12.5,0.03387706942791846,17.4438406669087,7.274864727694623,-2.833126968600495,5.175366070893773e-05,9.651457697597982e-06,-2.345976379567252e-05,9.408930965513972e-05,0.0001033851599081494
252.2136424443157,200.0475665021477,12.5,0,17.48938379444055,6.899497638902732,-2.460068574881301,5.044643003108756e-05,8.086885408936303e-06,-1.968054859905041e-05,8.972923298075465e-05,9.800516995545446e-05
249.9458623870241,201.0002949482784,12.5,0.101621114413611,17.11041257089471,6.828123173880632,-2.682428729205566,5.486640712352173e-05,9.084879699031417e-06,-2.388683681010329e-05,9.806716055376215e-05,0.0001108922993720456
251.6368490720466,201.7692646488413,12.5,0.0404797821823274,17.71574111716035,6.700421978028476,-2.421084466021926,5.349552103157875e-05,7.575408314474985e-06,-2.018579219959264e-05,9.369613498096799e-05,0.0001040718165089177
251.5850174522119,196.4911247342743,12.5,0,17.16327953047066,6.69095856762269,-2.790754079293195,4.956972764340794e-05,7.680443792016083e-06,-2.232603263434556e-05,8.785862692258019e-05,9.387429609205882e-05
253.2126778705369,197.0654978368307,12.5,0,16.9622504280534,6.332609008834382,-2.620944352974561,4.921311416270337e-05,6.6945484858273e-06,-2.096755482379649e-05,8.585692964104692e-05,9.036612137968089e-05
250.9850450576044,198.1415955826067,12.5,0,17.47673718470847,6.654967661259173,-2.869699553552688,5.060158486205977e-05,7.314506768262572e-06,-2.295759642842151e-05,8.893494949488933e-05,9.882519967262871e-05
252.6358844982678,198.7871959835244,12.5,0,17.27076639451116,6.306795459676901,-2.701647914284209,5.022101609469419e-05,6.365132355357154e-06,-2.161318331427367e-05,8.695046110762787e-05,9.433274001398258e-05
248.7658269102548,195.4962813381632,12.5,0.0108610428090774,17.42879023187098,7.738513057189953,-2.906961087622548,5.012573606143493e-05,1.093901874842703e-05,-2.351104314708696e-05,9.345375608551352e-05,0.0001010608740179353
250.3934873285798,196.0706544407198,12.5,0,17.2093100629517,7.389165736682632,-2.549439410512918,4.915845961209935e-05,9.877882307023056e-06,-2.039551528410335e-05,9.035342604763259e-05,9.673994642464053e-05
248.1257072712882,197.0233828868504,12.5,0.07567920650140103,17.05250889673724,7.301434114525943,-2.706875341520714,5.271641785045732e-05,1.051862309868934e-05,-2.342801642512063e-05,9.682268199722692e-05,0.0001078921047820608
249.7765467119516,197.6689832877682,12.5,0.0248253694743461,17.57342469662063,7.288403390682994,-2.486498114054394,5.168739499454567e-05,9.499991901855951e-06,-2.039838228944969e-05,9.369545197379528e-05,0.0001024584205120012
216.1355298279845,196.8910383899689,12.5,0.3954569244626619,16.92238626472209,11.05688955136596,-3.385332705448506,7.494275633832762e-05,3.613330205325333e-05,-4.479856397249455e-05,0.000168964731109014,0.0001619042416963043
217.7260171590406,196.8658604659284,12.5,0.4207476663710927,16.28208379118072,10.82957370018313,-3.019315654326954,7.499151345579318e-05,3.733945907846416e-05,-4.169948713592927e-05,0.0001707423698597136,0.0001685826699697801
216.1934014911406,198.6355740236778,12.5,0.428869907720588,16.83413897550048,10.64718992172494,-3.083999294410643,7.940658949210895e-05,3.607531252098608e-05,-4.319855439032785e-05,0.0001756510622947807,0.0001708461310164097
217.575302878525,198.8602406919727,12.5,0.4556751767461296,16.00276149082109,10.37153441402974,-2.715098166886761,7.883456239031364e-05,3.745318982582946e-05,-3.990408742568703e-05,0.0001767339445029385,0.0001787681857217892
216.0352931670815,193.8694140368249,12.5,0.3287576677854011,16.66665294496436,11.01962742168337,-3.264424624739771,6.632118588180282e-05,3.266999761630698e-05,-3.890606379332013e-05,0.0001505324818844049,0.0001465918911872493
217.9870619503154,193.411492584871,12.5,0.3481876964161361,16.46328328392105,10.88760066631806,-2.762833260071887,6.746179188965758e-05,3.324529989068065e-05,-3.390955641531751e-05,0.0001530014254830491,0.0001507446537206174
216.0931648302376,195.6139496705338,12.5,0.3687559195108669,16.81745128953158,10.64475574462548,-3.03333331392668,7.176311181516181e-05,3.264863463781987e-05,-3.844260447180732e-05,0.0001587960452109201,0.0001554053377212523
217.8363476697996,195.4058728109153,12.5,0.3921652150432888,16.35723526635176,10.41260395677298,-2.503530327836692,7.240959348853615e-05,3.328954668172402e-05,-3.295014223991788e-05,0.0001606048192319351,0.0001610737872012321
212.6547304699542,194.6625572574706,12.5,0.2779794627445134,16.71451652153512,11.28791015816154,-3.263861365288826,6.157182856787959e-05,3.150838253903969e-05,-3.616364019444959e-05,0.0001414974252021191,0.0001367479615980206
214.6064992531881,194.2046358055167,12.5,0.3102381026610254,16.21833542633188,10.85462870846074,-2.720292410284957,6.265201160605133e-05,3.154732612798284e-05,-3.155050948194785e-05,0.0001430901321379824,0.0001428414888364091
213.073883585288,195.9743493632661,12.5,0.3154757558733984,16.78106941767998,10.93297634410381,-3.203453990270366,6.56704878563496e-05,3.149730480985066e-05,-3.743860373398716e-05,0.0001477666531376562,0.0001438825404538114
214.8170664248502,195.7662725036475,12.5,0.348434674514134,16.11607007939162,10.45164875104206,-2.607379914667196,6.631737995111721e-05,3.154314561551528e-05,-3.20137344659696e-05,0.0001486915345420049,0.0001507989570385401
213.3807249618501,196.9346478336353,12.5,0.3413385253200206,16.89336159149527,11.2173582498819,-3.339173562734099,6.84492295754576e-05,3.397930194308073e-05,-4.055708361393369e-05,0.0001557595432279547,0.0001492541665676965
214.9712122929063,196.9094699095948,12.5,0.3743580166651393,16.09217932976216,10.79683547803716,-2.91200403217596,6.850164569258241e-05,3.464622043164185e-05,-3.723540439730849e-05,0.0001567418431296422,0.000156725184818975
213.799878077184,198.2464399394308,12.5,0.374652319533198,16.85012856133822,10.8030614743205,-3.206801174028814,7.240446175962043e-05,3.372474949137451e-05,-4.102423370800756e-05,0.0001614308534822773,0.0001567951431749274
215.1817794645684,198.4711066077257,12.5,0.4072775919879114,15.87925234825825,10.37093769773369,-2.742849702360625,7.17314830374564e-05,3.455850239041992e-05,-3.702036117122381e-05,0.0001615366183123738,0.0001649584720109066
171.2251523741293,98.19631213329914,12.5,0,-4.865799820020424,1.86406541934675,1.620444215607015,-1.706181175954275e-05,9.857649197925937e-06,1.296355372485612e-05,3.348478879651038e-06,3.326786323433783e-06
173.4859326802392,98.01698653572031,12.5,0,-4.875595245016664,1.725733936901549,1.741132294172388,-1.698249193357456e-05,9.422824794098287e-06,1.39290583533791e-05,3.249799654468402e-06,3.405375750689266e-06
172.2704994274113,100.2430281518134,12.5,0,-4.52635468140425,2.015883227245541,1.506411977760251,-1.609704156229003e-05,1.007191007230913e-05,1.205129582208201e-05,3.498772265011267e-06,3.48025258270416e-06
174.348376762972,100.0489124568448,12.5,0,-4.53182886262035,1.868532535244294,1.63524689974168,-1.599667838858055e-05,9.604767202878021e-06,1.308197519793344e-05,3.375649948705144e-06,3.557851856804952e-06
169.4145581663352,94.65129600063111,12.5,0,-5.457313360614343,1.711808736911543,1.630729132861008,-1.883284974349513e-05,9.84363864660841e-06,1.304583306288806e-05,3.185384921514199e-06,3.13841131798732e-06
171.9921357102856,94.49758760317968,12.5,0,-5.473461337024674,1.562243283589644,1.769752252127082,-1.876487090535067e-05,9.377947577106599e-06,1.415801801701665e-05,3.098127146929261e-06,3.216877557205143e-06
170.4599052196171,96.69801201914534,12.5,0,-5.121550668178432,1.858170896174571,1.520722279037563,-1.787549885511064e-05,1.004338740230137e-05,1.21657782323005e-05,3.284298700230602e-06,3.235190232616123e-06
172.8545797930184,96.52951352430421,12.5,0,-5.134417073631536,1.699828366470256,1.668247986836888,-1.778999732879712e-05,9.546984431610048e-06,1.33459838946951e-05,3.177207891270957e-06,3.314011962474573e-06
164.9500628998446,94.91752675456218,12.5,0,-5.366866722288452,1.514750392276006,1.742804020211958,-1.838577382514385e-05,9.140694633113979e-06,1.394243216169567e-05,3.023621629199922e-06,3.006031297466424e-06
167.5276404437951,94.76381835711075,12.5,0,-5.392875148843251,1.329018584709598,1.875530574270332,-1.832041534406608e-05,8.567159590145313e-06,1.500424459416265e-05,2.909483397862844e-06,3.081915232964966e-06
166.3122071909671,96.98985997320383,12.5,0,-5.029903425083676,1.699045452979301,1.605435329767211,-1.74549273226512e-05,9.460868189600704e-06,1.284348263813769e-05,3.135725870093415e-06,3.096652530352332e-06
168.7068817643685,96.82136147836269,12.5,0,-5.053378599443705,1.502690972232457,1.745679741906199,-1.737296429600582e-05,8.851313990698825e-06,1.396543793524959e-05,2.994144624942917e-06,3.176948948313494e-06
167.3093660192663,98.50691317939777,12.5,0,-4.773549360887053,1.701249227071875,1.745319300869729,-1.663635733649607e-05,9.262837015339641e-06,1.396255440695783e-05,3.222937370203414e-06,3.186923345031098e-06
169.5701463253762,98.32758758181892,12.5,0,-4.797323401301265,1.514740527967454,1.854835245244672,-1.656322730653801e-05,8.685028410536865e-06,1.483868196195737e-05,3.072435091315609e-06,3.268252177754863e-06
168.671510310389,100.5792463980394,12.5,0,-4.442939350770825,1.899660315175742,1.600991976451513,-1.573713417460723e-05,9.633264489179033e-06,1.280793581161211e-05,3.401576675393851e-06,3.342926564298699e-06
170.7493876459496,100.3851307030708,12.5,0,-4.46374592786547,1.70120862031402,1.717111583447652,-1.564495386542072e-05,9.01486432729724e-06,1.373689266758122e-05,3.212198240794766e-06,3.422663524145878e-06
135.0695237268946,87.07287585576177,12.5,0,-6.57388975874857,0.3708073260592324,2.063616515792464,-2.133309308884281e-05,6.445695250388399e-06,1.650893212633971e-05,2.358633101600596e-06,2.346597698844613e-06
136.8449147034677,86.75584262190745,12.5,0,-6.553526018811715,0.2961165911340127,2.145359669433173,-2.120817653310469e-05,6.190393906678211e-06,1.716287735546539e-05,2.346168559564309e-06,2.381299533909259e-06
135.7224934792901,88.53709811859292,12.5,0,-6.372207806614983,0.4507975581099435,2.004684731849769,-2.07517030276559e-05,6.540318431243804e-06,1.603747785479815e-05,2.353055181409871e-06,2.32729413616861e-06
137.1883463870732,88.08161688368834,12.5,0,-6.315291497965505,0.3763026702881225,2.090899840711725,-2.050997492972011e-05,6.256401743294396e-06,1.67271987256938e-05,2.336521501150785e-06,2.360405074303866e-06
133.9385469399602,84.53676850301034,12.5,0,-6.954195388344978,0.3596926324251026,2.036856531035111,-2.254117934864401e-05,6.71437273443631e-06,1.629485224828089e-05,2.400682937159123e-06,2.38375907901894e-06
136.2500735785446,84.45953424117711,12.5,0,-6.962445662241499,0.2859469974296265,2.157841886534636,-2.250858371711649e-05,6.484986921568003e-06,1.726273509227709e-05,2.410979792638904e-06,2.421973747670679e-06
134.5915166923557,86.00099076584146,12.5,0,-6.741510554145651,0.4332377279410162,1.983922964917904,-2.191942395561889e-05,6.779569172727772e-06,1.587138371934323e-05,2.390319255923104e-06,2.361727434681558e-06
136.5935052621501,85.78530850295799,12.5,0,-6.724046269835876,0.3589560208211549,2.114325148520068,-2.180411288013172e-05,6.527896282496396e-06,1.691460118816054e-05,2.400224227736301e-06,2.397796810216439e-06
129.9348653589552,84.67054216858813,12.5,0,-6.897277794342279,0.2532549639009307,2.075152826302172,-2.227389291301604e-05,6.328238119956801e-06,1.660122261041738e-05,2.337642212299333e-06,2.316949995565755e-06
132.2463919975395,84.59330790675492,12.5,0,-6.921455794063762,0.1179393763063774,2.188960911522556,-2.224301004204914e-05,5.914570639431417e-06,1.751168729218045e-05,2.309354427038082e-06,2.355618049457214e-06
131.123970773362,86.37456340344038,12.5,0,-6.651159756743919,0.3816272671658933,1.977097164270531,-2.158901303531325e-05,6.542135060325993e-06,1.581677731416425e-05,2.335870342630452e-06,2.2958030109942e-06
133.1259593431564,86.1588811405569,12.5,0,-6.652510917988377,0.2448239743019673,2.09318217088416,-2.148389411700438e-05,6.105445452156996e-06,1.674545736707328e-05,2.30035154868804e-06,2.334398278547828e-06
131.9944563522261,87.62199352447544,12.5,0,-6.449403629517689,0.3007030234052412,2.117313483527746,-2.08786540331808e-05,6.121772578510922e-06,1.693850786822196e-05,2.318434878504806e-06,2.282686393014547e-06
133.769847328799,87.30496029062112,12.5,0,-6.441553947463678,0.2018316742036492,2.183062534489723,-2.077443797124669e-05,5.799104515422619e-06,1.746450027591779e-05,2.285346583544366e-06,2.320174387379601e-06
133.1835617666329,89.32601475932771,12.5,0,-6.243404430026231,0.4201582427010286,2.029196138483192,-2.031502077024476e-05,6.339229920664276e-06,1.623356910786553e-05,2.323956366420783e-06,2.267998110840692e-06
134.649414674416,88.87053352442311,12.5,0,-6.208213869403846,0.3232201356174702,2.09255206155117,-2.012486049058628e-05,6.000875529498981e-06,1.674041649240936e-05,2.284152250869869e-06,2.302533764934411e-06
264.2071486144193,237.6140697699574,12.5,0,13.61054211909121,-0.006210847934312813,0.08476706872441052,4.355870345943932e-05,-1.090830840866277e-05,6.781365497952841e-07,5.228525277240386e-05,6.054162602992416e-05
266.1919514841467,237.6583078360929,12.5,0,13.67565597569159,0.2052881319668467,-0.1366233540073145,4.359786861663959e-05,-1.028360275825936e-05,-1.092986832058516e-06,5.317835495246122e-05,5.793865331552607e-05
264.7599419693072,239.360691921683,12.5,0,13.09586220333535,-0.1876863010140104,0.2109187904770766,4.205690809148434e-05,-1.107728592591312e-05,1.687350323816613e-06,4.976220503015732e-05,5.892237199680217e-05
266.754786594371,239.3725454757783,12.5,0,13.15053987178718,0.01817504707473905,-0.005780405726882147,4.206718755205919e-05,-1.046227174679058e-05,-4.624324581505718e-08,5.059092385981251e-05,5.678988704679753e-05
263.2496824376842,234.5888314615977,12.5,0,14.4563119124018,-0.008391425833079502,0.09988007784682133,4.626691126035222e-05,-1.159190209258729e-05,7.990406227745706e-07,5.552897392151536e-05,6.496381156263073e-05
265.2170924769721,234.6891611479641,12.5,0,14.55908681774662,0.2824757181039743,-0.1412983003853669,4.636309724230601e-05,-1.074334715626458e-05,-1.130386403082936e-06,5.680846385862312e-05,6.124079811624053e-05
263.8024757925721,236.3354536133234,12.5,0,13.895228845481,-0.2209848691971135,0.2555882940209232,4.464152020089689e-05,-1.182333465781556e-05,2.044706352167386e-06,5.273489801599945e-05,6.216042488265898e-05
265.7799275871964,236.4033987876495,12.5,0,13.98608210065608,0.06270120518011124,0.01996706523331362,4.470530175795535e-05,-1.09882218239485e-05,1.597365218665089e-07,5.393677832434401e-05,5.913127134212895e-05
259.8420282903774,234.4150553473069,12.5,0,14.67227815365922,-0.3538745968446104,-0.03060117557301175,4.723438976918519e-05,-1.287022123283013e-05,-2.44809404584094e-07,5.531825953847986e-05,7.978227413226629e-05
261.8094383296655,234.5153850336732,12.5,0,14.86085897798463,0.2504540481233155,-0.3360980600348963,4.735438549105216e-05,-1.108723422839309e-05,-2.68878448027917e-06,5.787543000662549e-05,6.993198508745125e-05
260.377428814826,236.2177691192633,12.5,0,13.93470297965852,-0.6855929802875012,0.2455889069170013,4.513952391913727e-05,-1.334165992064682e-05,1.96471125533601e-06,5.150034435141521e-05,7.458969185634106e-05
262.3548806094503,236.2857142935896,12.5,0,14.10757213941771,-0.09364632223836944,-0.05162128095164212,4.521914790392738e-05,-1.158572594269695e-05,-4.129702476131369e-07,5.393073744100291e-05,6.63024961755739e-05
260.7693692011046,237.5374471917835,12.5,0,13.64051682663399,-0.118253365240478,0.1026451198586495,4.374425653742115e-05,-1.129082423007672e-05,8.211609588691963e-07,5.206215990436529e-05,7.145573840586953e-05
262.7541720708321,237.581685257919,12.5,0,13.73050504157563,0.1816339085561212,-0.16932058713383,4.379230900619711e-05,-1.040317552588091e-05,-1.35456469707064e-06,5.331767994885422e-05,6.416351806379174e-05
261.3047697255531,239.3401609637399,12.5,0,12.98661482265415,-0.3544670771056611,0.2712773297204249,4.18407410941778e-05,-1.152358650486143e-05,2.170218637763399e-06,4.884408498312015e-05,6.808620062618675e-05
263.2996143506169,239.3520145178353,12.5,0,13.06369248977068,-0.06193181941754622,0.005142101507831301,4.185336142280022e-05,-1.064913581395269e-05,4.113681206265041e-08,5.00148700819475e-05,6.194921009775403e-05
216.068907974189,207.5459917292989,12.5,0.5448568915192398,16.77875882323317,11.34989444576414,-3.781294973937083,9.801777033743809e-05,5.030649644303378e-05,-6.646340288985261e-05,0.00022572304186869,0.0002113938976790105
218.2192990793944,207.1902196709304,12.5,0.579978235190943,15.61361606871729,9.990243394898991,-2.917898452610749,9.992667099776705e-05,4.637351594757866e-05,-5.557613813536035e-05,0.00022251453110275,0.0002277742912929581
217.2591136802405,209.0801043120985,12.5,0.5811041400876458,16.54483010514845,10.97792658955152,-3.913138785343398,0.0001054226582093069,5.226478248562035e-05,-7.473244135021331e-05,0.0002401528292241768,0.0002283416293463048
219.353859907152,208.5906131008015,12.5,0.6111414526362482,15.56605795225818,9.795784353375026,-3.149943500823464,0.0001079435137766472,4.858749716852629e-05,-6.480389380001251e-05,0.0002382699333168911,0.0002445987793048175
218.1304047284916,210.2031526671908,12.5,0.605975515330351,16.61844216095183,11.25049905865538,-3.777275498084773,0.0001121214985032237,5.762800065070377e-05,-7.669118331570992e-05,0.0002583450856508259,0.0002416394431970726
220.1844160773127,209.6157722420092,12.5,0.6326811046894856,15.76859235545267,9.986795283679568,-3.024498783805221,0.0001156217658626101,5.265961340502484e-05,-6.587189109884367e-05,0.0002560314524126294,0.0002577641832244644
219.3206104345432,211.7372652499905,12.5,0.6376746367859473,16.35685610832935,10.90855363616932,-3.915163279735664,0.000120375499663687,6.02273231868301e-05,-8.644524898849398e-05,0.0002750629825253621,0.0002610220146012134
221.3189769050703,211.0161656718803,12.5,0.6603349758363095,15.6700028224554,9.817184557720111,-3.255502755054888,0.0001245057876942336,5.55811961305793e-05,-7.667560740044885e-05,0.0002742029534863626,0.0002769082476247763
221.6880567439089,209.1857799274232,12.5,0.6470885090242706,16.60699726225854,10.94198121142388,-3.554663925863058,0.0001257788635540375,6.156994776983313e-05,-8.057915974422089e-05,0.0002850999710626435,0.0002673940604553213
223.7420680927299,208.5983995022416,12.5,0.6612339592189582,16.1343148188114,9.723139996177309,-2.964197932185743,0.0001294441890401803,5.374386432223865e-05,-6.999988370384798e-05,0.0002788568727220018,0.0002775786342943995
222.7818826935761,210.4882841434097,12.5,0.6719684216503361,16.32619795256452,10.77229160380323,-3.733113824505701,0.0001329932940744531,6.526924900899763e-05,-9.104279150896633e-05,0.0003018758963227732,0.0002858429146857728
224.7802491641032,209.7671845652996,12.5,0.6824057064476809,16.06916974968582,9.77359221673931,-3.24578577817378,0.0001372898389889373,5.799902475509271e-05,-8.175929716795326e-05,0.0002974309090201713,0.0002943666460226021
219.793494624482,206.9297764483023,12.5,0.5998177438080358,16.8108387670918,11.23063261765234,-3.604907122966035,0.0001119744248207667,5.619777742475935e-05,-7.206530658844183e-05,0.0002558677287676166,0.0002382044429377221
221.9438857296875,206.5740043899337,12.5,0.6207807644705688,16.02157092915012,10.00706564073354,-2.854799390113154,0.000114085390210476,5.064445974164381e-05,-6.022478023568704e-05,0.0002505655108913122,0.0002503197535491297
220.8873205741493,208.2322806642889,12.5,0.6277550490669077,16.56161173403676,10.96792054804302,-3.758207918953408,0.0001188003248926051,5.869268693031986e-05,-8.076849202726002e-05,0.0002702173911291959,0.0002546293704221755
222.9820668010607,207.7427894529918,12.5,0.6447414041148389,15.98101569905261,9.938877869330323,-3.11420709858895,0.0001215681997332018,5.353732982934806e-05,-7.012823075156513e-05,0.0002665211396984099,0.0002657763050273993
163.2105835944573,124.2085552408896,12.5,0,-0.3271426893750746,1.946300454039331,1.901692868247196,-2.603896969231703e-06,6.489875604425918e-06,1.521354294597757e-05,7.926312253949956e-06,8.064348109278194e-06
164.7331238010224,123.4033066007877,12.5,0,-0.2838377642890189,1.835370304733173,1.929661029521646,-2.376577089511398e-06,6.100255186577367e-06,1.543728823617316e-05,7.711586169517992e-06,7.981000104034254e-06
164.4090600913646,125.7272357361221,12.5,0,-0.1613409769016421,2.082077323057828,1.812259115661059,-2.181952984531517e-06,6.791720215306362e-06,1.449807292528847e-05,8.697922816713552e-06,9.047180897597798e-06
165.918983536269,124.8995976870576,12.5,0,-0.1158747570641286,1.973263662210337,1.83893995593224,-1.949410152373481e-06,6.407143524724381e-06,1.471151964745792e-05,8.484523923068613e-06,8.939887403988182e-06
161.1347614101742,121.5781234627303,12.5,0,-0.79151592210517,1.778074867820309,1.936061731884998,-3.95531084499279e-06,6.323052314709124e-06,1.548849385507998e-05,6.385333486929431e-06,6.573894690638718e-06
162.6791544889622,120.8116544165022,12.5,0,-0.7513435580871837,1.663088000088505,1.966788480041957,-3.734769785949792e-06,5.922956446752963e-06,1.573430784033566e-05,6.172000896285369e-06,6.528816066333076e-06
162.3332379070814,123.0968039579628,12.5,0,-0.6227047364865971,1.915763378344232,1.84524125845231,-3.525265859432496e-06,6.62860659989082e-06,1.476193006761848e-05,7.050236253864973e-06,7.401633067493099e-06
163.8650142242087,122.3079455027722,12.5,0,-0.5803134721077436,1.80293756585641,1.874649815462713,-3.299353163429907e-06,6.233650988426705e-06,1.49971985237017e-05,6.831102199573591e-06,7.334955486235848e-06
158.4597941309035,122.9056867932024,12.5,0,-0.5696653845353218,1.62876465986736,1.962478615042753,-3.125940958406917e-06,5.667779219203808e-06,1.569982892034202e-05,6.446412242854716e-06,6.644416762857028e-06
160.0041872096916,122.1392177469743,12.5,0,-0.523721466750225,1.526532147083699,1.997532689877566,-2.897134411267679e-06,5.303880044068014e-06,1.598026151902053e-05,6.295308997173005e-06,6.604869803915821e-06
159.6801235000337,124.4631468823088,12.5,0,-0.3935005094228126,1.76126919469167,1.87248714172412,-2.668216985906336e-06,5.950861830551595e-06,1.497989713379296e-05,7.131579175869129e-06,7.5084623474143e-06
161.2118998171611,123.6742884271182,12.5,0,-0.3453040814968688,1.66104857006136,1.90625465520608,-2.433811916839067e-06,5.591598689393845e-06,1.525003724164864e-05,6.978059164944399e-06,7.448124090825677e-06
160.5734666001675,125.6032867982469,12.5,0,-0.09096612395763737,1.789976001020835,1.930188018725955,-1.723072397481107e-06,5.800696102432781e-06,1.544150414980764e-05,8.059070043471909e-06,8.198708099502829e-06
162.0960068067326,124.798038158145,12.5,0,-0.04187930279811802,1.690084869597632,1.962471402710271,-1.486081664632084e-06,5.441775024950918e-06,1.569977122168217e-05,7.907509234638941e-06,8.12268279084798e-06
161.7937959692977,127.1607468873533,12.5,0,0.08306768278740645,1.921995447742399,1.840802105881812,-1.271779773274219e-06,6.083931286545753e-06,1.472641684705449e-05,8.857071896513049e-06,9.220448979440181e-06
163.3037194142021,126.3331088382888,12.5,0,0.1343622972162711,1.824096259849279,1.871818567392264,-1.029317656787355e-06,5.729618193744675e-06,1.497454853913811e-05,8.70877973847068e-06,9.122357145165025e-06
259.8214752930783,79.09412079490093,12.5,0,-7.52786583947892,1.833265159055103,-2.182732780708102,-2.555578281357662e-05,1.188874118055946e-05,-1.746186224566482e-05,3.79317167533373e-06,3.732631992334146e-06
262.0725360151364,79.22025475333433,12.5,0,-7.630769416143003,1.517117940374405,-2.005847321787379,-2.563215648395713e-05,1.09593929421125e-05,-1.604677857429903e-05,3.417179503877369e-06,3.715761897410978e-06
260.638084549539,81.24509456187543,12.5,0,-7.060132072496381,2.05680807898951,-2.357600466917052,-2.423786909518002e-05,1.222989151076354e-05,-1.886080373533642e-05,4.08618541107512e-06,3.800040439897292e-06
262.8669173512852,81.37293067087003,12.5,0,-7.164774554014955,1.737032924417867,-2.178614812713739,-2.431690491238214e-05,1.129032500134914e-05,-1.742891850170991e-05,3.655961694728243e-06,3.784638952845362e-06
261.235884015174,82.81971664498163,12.5,0,-6.818634258011217,1.91878961911498,-2.317140573711375,-2.335466132092788e-05,1.159503418757691e-05,-1.8537124589691e-05,3.896605151887102e-06,3.860388993693782e-06
263.4484448499059,82.94879881466912,12.5,0,-6.922594372408234,1.599355405358085,-2.145045481130676,-2.343178631599281e-05,1.065601279507246e-05,-1.716036384904541e-05,3.475844846866572e-06,3.846153349286783e-06
262.0524932716348,84.9706904119561,12.5,0,-6.355814671830131,2.144111885270854,-2.494363598666224,-2.20538964580731e-05,1.194580977033084e-05,-1.995490878932979e-05,4.259283149674091e-06,3.957855861272962e-06
264.2428261860547,85.10147473220482,12.5,0,-6.461550029957232,1.820945054464822,-2.320177221168938,-2.2133716139435e-05,1.099626419825321e-05,-1.85614177693515e-05,3.772864469834042e-06,3.945336750334443e-06
265.0681517956978,83.04329352122758,12.5,0,-6.680383619337624,1.819313935982471,-2.454531326026918,-2.283267873066637e-05,1.1166111490614e-05,-1.963625060821535e-05,3.867971315655235e-06,3.835389581948037e-06
267.2807126304296,83.17237569091506,12.5,0,-6.781041748767432,1.512630190350546,-2.2834986568775,-2.290943774833622e-05,1.026525000813569e-05,-1.826798925502e-05,3.455492982894854e-06,3.820218067103481e-06
265.8462611648324,85.19721549945616,12.5,0,-6.221553767110774,2.034223147457043,-2.62401833679536,-2.153635057272011e-05,1.148675708555116e-05,-2.099214669436288e-05,4.223464751161687e-06,3.935875278830521e-06
268.0365940792523,85.32799981970486,12.5,0,-6.323941855077032,1.723966721633541,-2.450921994152173,-2.161578731355333e-05,1.057584699328895e-05,-1.960737595321739e-05,3.747998337351225e-06,3.922545168904862e-06
263.7204268345356,79.31259121946344,12.5,0,-7.384833766709754,1.734456826417613,-2.312237544623811,-2.50190335146053e-05,1.145812885790416e-05,-1.849790035699048e-05,3.749048221344057e-06,3.703309345322329e-06
265.9714875565937,79.43872517789684,12.5,0,-7.488075334691207,1.415793427911646,-2.137375309501193,-2.509447581334117e-05,1.052099923707023e-05,-1.709900247600954e-05,3.36845306338068e-06,3.686158435253963e-06
264.4985362036701,81.46651319769202,12.5,0,-6.922989297771514,1.952348812633434,-2.484520631247775,-2.371544480297559e-05,1.17859076386442e-05,-1.98761650499822e-05,4.042925857908234e-06,3.773073727879466e-06
266.7273690054162,81.59434930668664,12.5,0,-7.027960757548822,1.630048002789104,-2.307588114982986,-2.379351282638751e-05,1.083852221496419e-05,-1.846070491986389e-05,3.608067952829517e-06,3.756878432722263e-06
287.0302192041196,108.8255593119346,12.5,0,-1.48983387009199,1.645298247751772,-3.632049295086345,-6.083706982495783e-06,6.456821488879261e-06,-2.905639436069076e-05,7.507880368732903e-06,7.570861122994816e-06
289.2161916875652,109.082172754142,12.5,0,-1.605919159924623,1.383885208010986,-3.448271840192878,-6.246049478167583e-06,5.713167993574852e-06,-2.758617472154302e-05,6.474159248812636e-06,7.559754056159542e-06
287.6142451127357,111.3708887133506,12.5,0,-0.944217452470645,1.842926969746243,-3.784324197232594,-4.495837423703058e-06,6.652740265164492e-06,-3.027459357786075e-05,9.161455492641529e-06,8.460417093267022e-06
289.8144112484063,111.6144582974877,12.5,0,-1.056133185156248,1.584792845511768,-3.602930924086417,-4.647460468909406e-06,5.916243653762655e-06,-2.882344739269134e-05,8.023808087050814e-06,8.434326295673418e-06
286.0186566574783,104.4169194667622,12.5,0,-2.308893922677075,1.621798751877763,-3.526077447453242,-8.68589955406885e-06,7.036871144150501e-06,-2.820861957962594e-05,6.239632204933217e-06,6.300473554177134e-06
288.1800450141256,104.6961255338739,12.5,0,-2.428380912381347,1.363549423804799,-3.344203834859243,-8.861658458664148e-06,6.306062886080434e-06,-2.675363067887395e-05,5.366763015461166e-06,6.304293319022224e-06
286.6026825660943,106.9622488681783,12.5,0,-1.766111138390859,1.818333796372164,-3.677445733792973,-7.106222679948478e-06,7.23155705910361e-06,-2.941956587034378e-05,7.563613680181938e-06,6.992105996016873e-06
288.7782645749667,107.2284110772196,12.5,0,-1.88135873581207,1.56337737925618,-3.497969052647517,-7.271049858003568e-06,6.507894602269431e-06,-2.798375242118014e-05,6.569942995460725e-06,6.989013440231957e-06
282.2750222089447,103.9333203727519,12.5,0,-2.478651275921796,1.769326694127727,-3.450853696988754,-9.347145438251927e-06,7.644766441946161e-06,-2.760682957591003e-05,6.234096653194844e-06,6.290541887076939e-06
284.436410565592,104.2125264398636,12.5,0,-2.597827837396794,1.511352513199735,-3.269738528934024,-9.522131090229527e-06,6.914590312156587e-06,-2.615790823147219e-05,5.369060544488901e-06,6.296788869092737e-06
282.8344639907624,106.5012423990723,12.5,0,-1.934148468966057,1.963688879830574,-3.600994726424094,-7.76022620455584e-06,7.831123190630684e-06,-2.880795781139275e-05,7.529012831497639e-06,6.992862420752435e-06
285.0100459996347,106.7674046081136,12.5,0,-2.049121597845443,1.708958530497213,-3.422238355731253,-7.924355937503186e-06,7.107964575867433e-06,-2.737790684585002e-05,6.542791204159668e-06,6.993137327238985e-06
283.2440037989124,108.3810917921341,12.5,0,-1.648299478300213,1.806377926311519,-3.56639979421977,-6.719660671609896e-06,7.099048946837029e-06,-2.853119835375816e-05,7.525183647359972e-06,7.58461004356956e-06
285.429976282358,108.6377052343416,12.5,0,-1.76462506120452,1.543954788397472,-3.382619407309937,-6.881964026572441e-06,6.352355371835525e-06,-2.70609552584795e-05,6.489421956416563e-06,7.577521264748201e-06
283.8034455807302,110.9490138184545,12.5,0,-1.098658799761827,2.002683651349352,-3.718156307113676,-5.117855080317328e-06,7.287514724127388e-06,-2.974525045690941e-05,9.165655939986654e-06,8.498974080757285e-06
286.0036117164008,111.1925834025915,12.5,0,-1.210831666070743,1.743506412859261,-3.536732859257493,-5.269466461713785e-06,6.547885854006228e-06,-2.829386287405995e-05,8.023972044634843e-06,8.477739415072165e-06
181.5153802117354,74.6994590715899,12.5,0,-8.93355285500369,1.484299868536235,1.123443003559796,-2.977480903084079e-05,1.18966018633189e-05,8.987544028478368e-06,3.324309225142824e-06,3.2981217639528e-06
183.7620064741766,74.82794944725899,12.5,0,-8.990071482582191,1.341295004106456,1.271636754795493,-2.984126474754817e-05,1.148420119920641e-05,1.017309403836394e-05,3.253989655717671e-06,3.329230762567044e-06
182.2084310603377,76.72247550043357,12.5,0,-8.566156211554958,1.616792828003428,1.030180739109479,-2.87051341393786e-05,1.202666201885493e-05,8.241445912875829e-06,3.341997763253313e-06,3.294380287878639e-06
184.4207142334888,76.85910587827593,12.5,0,-8.625532929713829,1.470665470379881,1.181383262619586,-2.877823775138816e-05,1.160655584898668e-05,9.451066100956687e-06,3.263699339962936e-06,3.326317481932272e-06
182.7157794937216,78.20342631083074,12.5,0,-8.340646704829247,1.626978797547016,1.108266933415052,-2.79916524934912e-05,1.187884951601385e-05,8.866135467320419e-06,3.324307303063842e-06,3.296077626832711e-06
184.9029217806247,78.34601558383739,12.5,0,-8.398381189804093,1.489058394310807,1.25416453276757,-2.806606652282174e-05,1.148369181363786e-05,1.003331626214056e-05,3.252677488255568e-06,3.329052184096861e-06
183.4088303423238,80.22644273967441,12.5,0,-7.96995162736588,1.759682920255533,1.015276167254338,-2.691159154377524e-05,1.200694664671041e-05,8.122209338034701e-06,3.352174941174814e-06,3.30445631916726e-06
185.5616295399369,80.37717201485432,12.5,0,-8.030670114719834,1.618633209349887,1.164232340309106,-2.699305093458338e-05,1.160416236169551e-05,9.313858722472847e-06,3.271543130452183e-06,3.339436809989177e-06
186.5040210579521,78.45039817628813,12.5,0,-8.322538992379544,1.723793090623689,0.9758480466746355,-2.801115924811349e-05,1.217416908389944e-05,7.806784373397084e-06,3.377336398575644e-06,3.352752245373415e-06
188.6911633448551,78.5929874492948,12.5,0,-8.377575419324558,1.596837106536933,1.121741422167223,-2.808571102706813e-05,1.181193907637783e-05,8.973931377337786e-06,3.308226302933867e-06,3.384527459662058e-06
187.1375879310162,80.48751350246937,12.5,0,-7.950469848138175,1.850348689654624,0.890362460151384,-2.692178246576585e-05,1.228149168540534e-05,7.122899681211072e-06,3.406449910066226e-06,3.364607566225423e-06
189.2903871286293,80.63824277764931,12.5,0,-8.008423311021252,1.720515267213115,1.039246947177294,-2.700336680903849e-05,1.191238750389897e-05,8.313975577418356e-06,3.328740892456419e-06,3.398394860308788e-06
185.4066510438322,74.92201093052839,12.5,0,-8.921956327403757,1.57716960491611,0.988955514455954,-2.981199593162491e-05,1.218450779765456e-05,7.911644115647632e-06,3.371547648578398e-06,3.35148362139554e-06
187.6532773062734,75.0505013061975,12.5,0,-8.974711842803339,1.449109695069933,1.136640940487361,-2.987836565302663e-05,1.181692049846646e-05,9.093127523898887e-06,3.306627566996557e-06,3.381170563716988e-06
186.0402179168964,76.95912625670962,12.5,0,-8.554617640378575,1.70211574267194,0.9045573414842469,-2.873646904334899e-05,1.229046448885307e-05,7.236458731873976e-06,3.389076853471609e-06,3.349235694954847e-06
188.2525010900475,77.09575663455199,12.5,0,-8.610142030794531,1.57125221914462,1.055171027475571,-2.880945627385819e-05,1.191612072589841e-05,8.441368219804565e-06,3.316854706601308e-06,3.379912223300235e-06
310.560389560963,226.2159628439443,12.5,0,14.63874198195907,-0.08615164073335313,0.007289020613433436,4.69128956548557e-05,-1.198667883591398e-05,5.831216490746749e-08,5.599441664354019e-05,5.612910240767018e-05
312.9934504352645,225.9233394718165,12.5,0,14.64990973964772,-0.09603473973461085,0.05203910028054118,4.695653895866038e-05,-1.202723895886893e-05,4.163128022443294e-07,5.60076454343499e-05,5.589379373304459e-05
310.9136914548205,228.4729543740518,12.5,0,14.76153075620223,-0.05344910665381519,-0.005011713174400256,4.727965770517017e-05,-1.198026174625399e-05,-4.009370539520205e-08,5.656506287420146e-05,5.661438594010438e-05
313.2248010294098,228.2643586812196,12.5,0,14.7695262263884,-0.06489533070088616,0.042618495995966,4.731440018900359e-05,-1.202328603935356e-05,3.40947967967728e-07,5.656129969669098e-05,5.647055433767961e-05
306.3462045088404,226.7228013919429,12.5,0,14.75936808386213,-0.07887159402147059,0.05888083778386147,4.7293075143576e-05,-1.205988356795841e-05,4.710467022708918e-07,5.648013778202298e-05,5.650834443984858e-05
308.779265383142,226.430178019815,12.5,0,14.76385402277699,-0.09569117718440268,0.08692223038263562,4.732088581463388e-05,-1.211729498521168e-05,6.95377843061085e-07,5.644682072013603e-05,5.629377077326117e-05
306.9107322498451,228.8342527122708,12.5,0,14.83381366185987,-0.05570288393782841,0.04472051319840895,4.751276602510185e-05,-1.204530015808895e-05,3.577641055872716e-07,5.68361339455967e-05,5.684612921279405e-05
309.2218418244343,228.6256570194386,12.5,0,14.83613259315032,-0.07427201667658911,0.07487953716659498,4.753504191142227e-05,-1.210657652788534e-05,5.990362973327598e-07,5.678914170307165e-05,5.671502092458558e-05
307.323995238525,230.3799423563935,12.5,0,14.90639591092359,-0.04541833352177127,0.08565116278423938,4.77368015817729e-05,-1.207045539600854e-05,6.852093022739151e-07,5.714643574394598e-05,5.71052314031615e-05
309.5458302656795,230.2328591940452,12.5,0,14.90540884892568,-0.07351255795037615,0.1213886327759792,4.775611836292247e-05,-1.215956726458175e-05,9.711090622078339e-07,5.705815422163325e-05,5.702957798577872e-05
307.8885229795297,232.4913936767214,12.5,0,15.01071327177763,-0.01151356253667313,0.06369384490483282,4.804349331971776e-05,-1.204541401753946e-05,5.095507592386625e-07,5.764967859345651e-05,5.747532697868241e-05
309.9884067069718,232.4283381936688,12.5,0,15.00586574517301,-0.04268842854154187,0.1025797463562617,4.805292112738686e-05,-1.214129556747134e-05,8.206379708500938e-07,5.753710916632367e-05,5.746771370755009e-05
311.1723263915236,230.1251868462729,12.5,0,14.86298440056486,-0.04673382106272772,0.04362562871331789,4.759893713865773e-05,-1.203993574785261e-05,3.490050297065431e-07,5.697533671657644e-05,5.697042226803166e-05
313.3941614186781,229.9781036839246,12.5,0,14.86915587742198,-0.05239993105034069,0.08928442894441885,4.762321875259059e-05,-1.206300448129867e-05,7.142754315553508e-07,5.69822598275046e-05,5.688445925896438e-05
311.5256282853812,232.3821783763804,12.5,0,14.99987631226356,-0.01125048240679938,0.03238901743226989,4.800860458516881e-05,-1.20359025935126e-05,2.591121394581591e-07,5.760866608500049e-05,5.745784807287644e-05
313.6255120128233,232.3191228933278,12.5,0,15.00174396297198,-0.01848153659162843,0.08125624743177649,4.802036591078362e-05,-1.206053608747079e-05,6.500499794542119e-07,5.759426626529992e-05,5.743850792883025e-05
285.9556605591899,127.1860382190378,12.5,0,1.88380804341335,1.906275361312663,-3.97940662656686,4.503165449872589e-06,4.593034721469842e-06,-3.183525301253488e-05,1.686030983830569e-05,1.674355002969549e-05
288.4997027610523,127.1866908612367,12.5,0,1.815700649261456,1.634403837932926,-3.761847658329616,4.502719007290318e-06,3.777531761976196e-06,-3.009478126663693e-05,1.553521863756575e-05,1.644456921525055e-05
286.172691065109,130.1318954084315,12.5,0,2.508371312206282,2.082457911784407,-4.105328396716087,6.360821869632577e-06,4.657168267945076e-06,-3.284262717372869e-05,1.952064979932122e-05,1.859062896039121e-05
288.8203374604281,130.0216901655554,12.5,0,2.466600002678506,1.829046769313853,-3.9019784299369,6.429882593120135e-06,3.879669659661526e-06,-3.12158274394952e-05,1.834923654125915e-05,1.815034065854102e-05
290.3620709093357,127.1871686284854,12.5,0,1.939379192899375,1.602663929995256,-3.964442982424171,4.923882273281794e-06,3.577021221665318e-06,-3.171554385939337e-05,1.60910336875366e-05,1.621709477300076e-05
292.9061131111981,127.1878212706843,12.5,0,1.880008842113416,1.365709626822474,-3.75895315607871,4.923460593304952e-06,2.866263732141184e-06,-3.007162524862968e-05,1.492556148883371e-05,1.589460385376949e-05
290.7585491421959,129.941014328513,12.5,0,2.491504007980633,1.772425163828664,-4.081950984069721,6.554872694475094e-06,3.678557317867218e-06,-3.265560787255777e-05,1.847772423537577e-05,1.782785440422221e-05
293.406195537515,129.8308090856368,12.5,0,2.456988996329708,1.553323175931761,-3.890754544663233,6.619706247509657e-06,3.005042965917868e-06,-3.112603635730586e-05,1.745851949930558e-05,1.738709387449338e-05
289.6753504659392,122.4173679599184,12.5,0,1.059563338004028,1.652298558743686,-3.904273745075539,2.06876383461794e-06,4.439704717576574e-06,-3.123418996060431e-05,1.358005150638062e-05,1.354741834050287e-05
292.0399449408605,122.6100320914834,12.5,0,0.954344902336683,1.391870221521243,-3.699726360800141,1.940407510260391e-06,3.69050878699863e-06,-2.959781088640112e-05,1.223394630309348e-05,1.340822984622574e-05
290.0718286987993,125.1712136599459,12.5,0,1.62536972388413,1.829458526982489,-4.033516188501577,3.737616294843224e-06,4.553971507236659e-06,-3.226812950801261e-05,1.592083991318406e-05,1.507015538650981e-05
292.5400273671774,125.2530199064359,12.5,0,1.550117388638715,1.589967335019018,-3.844982424470631,3.688401775628672e-06,3.847801561149885e-06,-3.075985939576505e-05,1.471935711144093e-05,1.482847045063511e-05
285.5797526961524,122.0836638952576,12.5,0,0.9329113470691192,1.860460747854456,-3.871687592294778,1.496947712337617e-06,5.207145315478962e-06,-3.097350073835822e-05,1.378853186183109e-05,1.375997512024407e-05
287.9443471710737,122.2763280268227,12.5,0,0.8395077736692724,1.639369149627037,-3.67804964041671,1.374929556040042e-06,4.574375059871101e-06,-2.942439712333368e-05,1.259528962728263e-05,1.364166820261461e-05
285.7967832020714,125.0295210846513,12.5,0,1.506816020595284,2.020556461936039,-3.977654623426869,3.205366096356078e-06,5.260327861719098e-06,-3.182123698741495e-05,1.607125415592374e-05,1.544918023435405e-05
288.2649818704496,125.1113273311413,12.5,0,1.441047897935547,1.816386035677274,-3.79745075555787,3.158244444851933e-06,4.659596995818839e-06,-3.037960604446296e-05,1.500815512495773e-05,1.523647407178622e-05
202.1651923720421,178.2762380833144,12.5,0,12.25344517620949,8.285520232047109,-0.5214719880492613,3.258260837823269e-05,1.671090860158315e-05,-4.171775904394091e-06,7.469285296387193e-05,7.375139401341916e-05
204.011130676082,178.2481818976869,12.5,0,12.22061919435105,8.114220981206753,-0.2593169154379625,3.261460463695794e-05,1.618901178438077e-05,-2.0745353235037e-06,7.395757553145966e-05,7.571258464465956e-05
203.1246535974191,179.8926317599658,12.5,0,12.79617942730866,8.493421774115866,-0.6866600535605143,3.4153036748095e-05,1.694200613532384e-05,-5.493280428484114e-06,7.744730487625954e-05,7.707012324221685e-05
204.9074561224681,179.6652076622015,12.5,0,12.83793912144369,8.355881442086233,-0.4554480093670802,3.439670003495081e-05,1.6468469317521e-05,-3.643584074936642e-06,7.710638287773626e-05,7.880687248525576e-05
203.8270279622574,181.0759140562574,12.5,0,13.21962576247721,8.883065905709326,-0.9090055201291266,3.51963497153596e-05,1.785011028828808e-05,-7.272044161033013e-06,8.040642905559792e-05,7.965349482324631e-05
205.5636118893117,180.7025425174161,12.5,0,13.30653505665388,8.67158189158995,-0.6690098245874631,3.564364666802045e-05,1.710383400776473e-05,-5.352078596699704e-06,7.996779362119151e-05,8.122554867013624e-05
204.7864891876344,182.6923077329089,12.5,0,13.80357502115102,9.139728831548965,-1.107000643604393,3.685965700244407e-05,1.820427224403587e-05,-8.856005148835146e-06,8.349239670601079e-05,8.339266800895068e-05
206.4599373356978,182.1195682819306,12.5,0,13.96265338169092,8.967688848915634,-0.899810219384781,3.750633974227845e-05,1.752648161117728e-05,-7.198481755078248e-06,8.346069012622257e-05,8.473920705397137e-05
206.8348795554689,180.4292155808958,12.5,0,13.36981892221239,9.474200309185392,-1.058279595419763,3.520406030373133e-05,1.962158585162334e-05,-8.466236763358109e-06,8.306392019270188e-05,8.230423875697918e-05
208.5714634825231,180.0558440420545,12.5,0,13.41197263159632,9.028553154851158,-0.811813520295531,3.569546989722728e-05,1.816179199024665e-05,-6.494508162364248e-06,8.162590852506183e-05,8.367922103309029e-05
207.6849864038602,181.7002939043334,12.5,0,13.87862776831947,9.785502974265377,-1.283684201466216,3.658320647921e-05,2.021070730299362e-05,-1.026947361172973e-05,8.606755321435048e-05,8.561644755394696e-05
209.3584345519236,181.1275544533552,12.5,0,14.00294597862977,9.408871620388453,-1.084159924842105,3.72823298353045e-05,1.890603240233923e-05,-8.673279398736843e-06,8.517851893386026e-05,8.666657412541861e-05
205.3624513022193,178.227643344342,12.5,0,12.60879597269291,9.063144173470867,-0.723756631618565,3.309763177384062e-05,1.891502457695244e-05,-5.79005305294852e-06,7.877041164657347e-05,7.71139791296595e-05
207.2083896062593,178.1995871587146,12.5,0,12.54349750315647,8.761334957316498,-0.4582663009937768,3.313012404424751e-05,1.800147386088761e-05,-3.666130407950214e-06,7.744643977662227e-05,7.898146943304854e-05
206.2125581506106,179.4987216677796,12.5,0,13.03641533320947,9.276984481882259,-0.8878087538091555,3.429494148076448e-05,1.925721807545565e-05,-7.102470030473243e-06,8.111959449292027e-05,8.002600920909114e-05
207.9953606756597,179.2712975700153,12.5,0,13.04957935508624,9.025905906915508,-0.6626873232239855,3.453792921074357e-05,1.844323541806063e-05,-5.301498585791884e-06,8.026522489318923e-05,8.162000343708519e-05
288.6053378775615,164.3474352236082,12.5,0,9.109442338522546,1.282730514601679,-3.689294514529678,2.812403107159081e-05,-3.182816224092666e-06,-2.951435611623743e-05,4.00864908714785e-05,4.045286282907583e-05
290.9200410854598,164.466192444479,12.5,0,9.024889520779519,1.04216783893098,-3.494464045270096,2.804591219534967e-05,-3.884974532044477e-06,-2.795571236216077e-05,3.89125946925026e-05,3.97436028783026e-05
289.0810809010658,166.50081130642,12.5,0,9.598004380163896,1.450376553506953,-3.811155171317521,2.95533127737189e-05,-3.037198532908868e-06,-3.048924137054017e-05,4.250212466658784e-05,4.159975577342187e-05
291.4021008305858,166.6406618844214,12.5,0,9.508795366895932,1.20836769202083,-3.615287784482224,2.946145102045031e-05,-3.740259679050088e-06,-2.892230227585779e-05,4.130468840705279e-05,4.087379783802464e-05
289.4293489656026,168.0771920067748,12.5,0,9.783624882612243,1.119713669740989,-3.532804243587572,3.041182868856638e-05,-4.243816162918627e-06,-2.826243394870058e-05,4.201405537672967e-05,4.241708505497959e-05
291.7549930562866,168.2324839938975,12.5,0,9.694443839356813,0.888914796535222,-3.338650193152764,3.031108844871362e-05,-4.91102772257274e-06,-2.670920154522211e-05,4.086461916320098e-05,4.167916761825026e-05
289.905091989107,170.2305680895866,12.5,0,10.26494103827341,1.283079500147115,-3.6496493921485,3.182134772235722e-05,-4.106098430147961e-06,-2.9197195137188e-05,4.438814535954312e-05,4.350317723445793e-05
292.2370528014125,170.4069534338399,12.5,0,10.17118274911808,1.050870519004247,-3.45450758683797,3.170708838197444e-05,-4.774160538480871e-06,-2.763606069470376e-05,4.321529110458065e-05,4.274928381707875e-05
293.4574826909172,168.3461656184747,12.5,0,9.674040186906346,0.8553312570204574,-3.407247474927761,3.027266359248394e-05,-5.002172127059612e-06,-2.725797979942208e-05,4.071992440252804e-05,4.115198291740333e-05
295.7831267816013,168.5014576055974,12.5,0,9.593309957876908,0.6526291824435202,-3.222333406637033,3.017648851925129e-05,-5.586234582482261e-06,-2.577866725309626e-05,3.96996008038402e-05,4.044960496638458e-05
293.9441665972072,170.5360764675384,12.5,0,10.14040689490657,1.010457087677641,-3.5146141425854,3.164093639355893e-05,-4.878862835356809e-06,-2.81169131406832e-05,4.300495547687693e-05,4.221215981765153e-05
296.2761274095126,170.7124618117917,12.5,0,10.05531044340885,0.806426444365286,-3.328811936752511,3.15318522634161e-05,-5.463683732758167e-06,-2.663049549402009e-05,4.196243482618504e-05,4.149860317856855e-05
292.6145214380122,164.5531287639184,12.5,0,9.01655631587824,1.010041530408788,-3.574871773432065,2.804494698648333e-05,-3.98111215539447e-06,-2.859897418745652e-05,3.882765493373228e-05,3.923443027110835e-05
294.9292246459106,164.6718859847892,12.5,0,8.939776491723078,0.7966416639972516,-3.388217222229328,2.796997144231605e-05,-4.602567868587258e-06,-2.710573777783463e-05,3.777774256547418e-05,3.855260478914542e-05
293.1012053443021,166.743039612982,12.5,0,9.492487501535935,1.170219787166701,-3.687766384274395,2.943978417518163e-05,-3.849286682295304e-06,-2.950213107419516e-05,4.116525304416991e-05,4.035410269015362e-05
295.4222252738221,166.8828901909835,12.5,0,9.411242522457163,0.9554492924336273,-3.500171346831611,2.935161663791602e-05,-4.471556282178123e-06,-2.800137077465289e-05,4.009287147883686e-05,3.966022707705983e-05
209.6784701099121,176.1496589206539,12.5,0,12.09831498213522,9.260313282128884,-0.7491076072819336,3.130635731712959e-05,1.995435051710425e-05,-5.992860858255468e-06,7.758963383882621e-05,7.787528312389089e-05
210.5337394184882,175.1775021656245,12.5,0,12.15790268886741,8.95057380498096,-0.8484899996607219,3.174482956039094e-05,1.891551402484514e-05,-6.787919997285776e-06,7.671436251857051e-05,7.691218742087756e-05
210.8219300487682,177.1691711946783,12.5,0,12.36873214906365,9.76420186351506,-0.9695069502184563,3.176858138619164e-05,2.135046024399727e-05,-7.756055601747651e-06,8.039716078689368e-05,8.071805164135352e-05
211.8581261351264,176.2069166458463,12.5,0,12.4026178274511,9.437688241618236,-1.044183171231152,3.213822645454893e-05,2.027850811121747e-05,-8.353465369849216e-06,7.936423121659397e-05,7.983041373277628e-05
208.1971002133306,177.8334838132559,12.5,0,12.52928623029218,9.214294286378832,-0.6773829110241845,3.272228050783192e-05,1.946231273217852e-05,-5.419063288193476e-06,7.901053792308757e-05,7.936129848670291e-05
209.0523695219067,176.8613270582265,12.5,0,12.6817509398728,8.919588733471183,-0.7491255649948211,3.344593202081601e-05,1.839728319520955e-05,-5.993004519958569e-06,7.853300667653068e-05,7.853152045613249e-05
209.0271857806239,178.8358449630396,12.5,0,12.86618247574248,9.623513226406093,-0.9120695068219729,3.347297334125106e-05,2.050229634390551e-05,-7.296556054575783e-06,8.172296579189424e-05,8.195820412471467e-05
210.0633818669822,177.8735904142076,12.5,0,12.97487012578329,9.316729428689776,-0.9562680051966848,3.406620085955471e-05,1.943363807118065e-05,-7.650144041573478e-06,8.103817539441238e-05,8.128819135851836e-05
209.6348505904865,179.5696242521833,12.5,0,13.26689794068243,9.688243314232363,-1.10376353917208,3.470347875879787e-05,2.038886025299762e-05,-8.830108313376641e-06,8.344654292318499e-05,8.39815741695206e-05
210.8034942706253,178.6146186213945,12.5,0,13.4834690714049,9.316823539890244,-1.091411672239614,3.569364219658349e-05,1.902706007052485e-05,-8.731293377916912e-06,8.293024827367718e-05,8.343263602400001e-05
210.4649361577798,180.5719854019671,12.5,0,13.69616828401207,10.09942465387973,-1.35868006824243,3.574819878573482e-05,2.136122426520549e-05,-1.086944054593944e-05,8.651436854786572e-05,8.691261829666658e-05
211.8145066157008,179.6268819773757,12.5,0,13.8625008677276,9.723051825544736,-1.327006692817493,3.658156131629254e-05,2.002376514756107e-05,-1.061605354253994e-05,8.579126674554014e-05,8.653469690197914e-05
211.6590008203949,177.9155059781725,12.5,0,12.93549434037903,9.792135422795477,-1.118167792401364,3.355987355097652e-05,2.09864378806423e-05,-8.94534233921091e-06,8.259501771688357e-05,8.292471296463493e-05
212.8276445005337,176.9605003473837,12.5,0,13.01168177951824,9.296916770093599,-1.188376735807831,3.419984827838347e-05,1.934078824068492e-05,-9.507013886462644e-06,8.112421277617032e-05,8.208597950557533e-05
212.8024607592509,178.9350182521968,12.5,0,13.2990642396733,10.38851022127613,-1.394664104376226,3.424619738993367e-05,2.260398131634497e-05,-1.115731283500981e-05,8.608440117126909e-05,8.611065529773064e-05
214.152031217172,177.9899148276055,12.5,0,13.34487708921982,9.884125442985768,-1.440968787989799,3.47963063311148e-05,2.09532997461786e-05,-1.152775030391839e-05,8.446336684620438e-05,8.533007348503896e-05
284.8373646208616,237.5583208368146,12.5,0,14.53480713086887,-0.004112017897317966,0.1060313211482459,4.651467243309824e-05,-1.164100416196651e-05,8.482505691859675e-07,5.58436407036157e-05,5.612700917796027e-05
286.8190234156599,237.5499654431732,12.5,0,14.53761905939084,0.008457739523657359,0.07469627373051153,4.651361479843176e-05,-1.160303048103697e-05,5.975701898440922e-07,5.589217987861346e-05,5.636691988200771e-05
285.491923845114,239.3457540400689,12.5,0,14.45846860995506,-0.02710993306166865,0.1206456933788022,4.628878749830551e-05,-1.165352667376138e-05,9.65165547030418e-07,5.548088952472372e-05,5.604268727123973e-05
287.4859260178397,239.3435152190904,12.5,0,14.46152716463809,-0.01452504705329227,0.08941887948263252,4.628850696448451e-05,-1.1615701882281e-05,7.153510358610601e-07,5.553034336427192e-05,5.632203952351146e-05
283.7036347879141,234.462395713698,12.5,0,14.71416410457652,-0.01567350678163271,0.2462542441455636,4.709786394007016e-05,-1.182148650536244e-05,1.970033953164509e-06,5.650063361845465e-05,5.663546394761379e-05
285.6639142250056,234.4434461054367,12.5,0,14.72033692785418,0.01380880875753254,0.1968006044353364,4.709403112212736e-05,-1.173208135425924e-05,1.574404835482691e-06,5.661237726008205e-05,5.674606714627323e-05
284.3581940121664,236.2498289169524,12.5,0,14.59136844184192,-0.05568620106482713,0.2729495332054813,4.6736927974746e-05,-1.185129059688098e-05,2.18359626564385e-06,5.590856444523176e-05,5.628584320968176e-05
286.3308168271852,236.2369958813539,12.5,0,14.59793307874414,-0.02621609770914723,0.2236557028103409,4.673435873014855e-05,-1.176223797566458e-05,1.789245622482727e-06,5.60215136180509e-05,5.648053774109167e-05
280.3083312059002,234.4952173979895,12.5,0,14.63256380703285,-0.01054969285974705,0.2629512429795189,4.68326439367929e-05,-1.173981006277747e-05,2.103609943836151e-06,5.620305005614023e-05,5.648745178829996e-05
282.2686106429917,234.4762677897282,12.5,0,14.6436825672203,0.04090918980713365,0.1908937474844508,4.682705686325926e-05,-1.158403664639342e-05,1.527149979875606e-06,5.639978513945038e-05,5.656616817129673e-05
280.9415110724457,236.2720563866239,12.5,0,14.45404102408464,-0.07087789014004997,0.303868433508916,4.630963358918288e-05,-1.179004206771587e-05,2.430947468071327e-06,5.533598702569794e-05,5.597223300605352e-05
282.9141338874645,236.2592233510254,12.5,0,14.46572184582895,-0.01947342825490628,0.2320381850147413,4.630588864925657e-05,-1.163489244707886e-05,1.856305480117931e-06,5.553407928458747e-05,5.614964336642361e-05
281.405030905067,237.5727928031184,12.5,0,14.36277887963285,-0.003682472905059075,0.1187911385033022,4.596383839314917e-05,-1.150200701700247e-05,9.503291080264174e-07,5.518402815248977e-05,5.5722946582384e-05
283.3866896998653,237.564437409477,12.5,0,14.37055109220511,0.02974910348174209,0.06328152771722462,4.596196421227097e-05,-1.140124374262252e-05,5.06252221737797e-07,5.531455896752374e-05,5.595445705238426e-05
282.0382107716125,239.3496317917528,12.5,0,14.22746600865128,-0.0475553437585905,0.1477903009941182,4.556593550269095e-05,-1.153414990694851e-05,1.182322407952945e-06,5.453178999236438e-05,5.555710218949925e-05
284.0322129443381,239.3473929707742,12.5,0,14.23566382148349,-0.01414273035444902,0.09246287687472667,4.556543841303072e-05,-1.143378779432103e-05,7.397030149978133e-07,5.466357446608329e-05,5.583772293033712e-05
226.1866076677015,190.0255057753521,12.5,0.3119416311998695,17.76276832766548,10.34894785698461,-2.675280033271713,7.057787909422e-05,2.747792823621677e-05,-3.110526844328043e-05,0.0001491889042028947,0.0001431784283209989
227.4648639533888,191.2746051099635,12.5,0.3478915932470465,17.1957469619931,10.43883765736851,-2.829968331553241,7.157601354181855e-05,3.012947345950734e-05,-3.471776535615625e-05,0.0001547031953263168,0.0001506796008220245
224.9299971753643,191.2896829526367,12.5,0.3476775497789946,16.77034113364007,10.27026772232352,-2.418061918568883,6.967241037678746e-05,2.981437140164972e-05,-2.965480544475695e-05,0.0001512166042022795,0.000150632611168857
226.3354971701859,192.3604595750908,12.5,0.3794193156800753,16.2964413543487,10.44624209753779,-2.57119413644973,7.056555217131114e-05,3.285764791565761e-05,-3.314565472520205e-05,0.0001571518323478833,0.000157937074388888
223.9726028358366,187.8620022641435,12.5,0.2408320958643902,17.66791344079676,10.43138493589168,-2.716773846022535,6.348031153491406e-05,2.535157366028221e-05,-2.862896422488629e-05,0.0001351378064780402,0.0001303454652919879
225.2508591215239,189.1111015987549,12.5,0.283370980008925,17.0137008829018,10.49253673979565,-2.855479265863325,6.425892916536193e-05,2.785982189400212e-05,-3.187679188206905e-05,0.0001401000007094959,0.0001377299131271101
222.4955997743396,189.4350434390225,12.5,0.2838692622626181,16.61042956720292,10.41930349556758,-2.385414469085855,6.258344944136559e-05,2.80024672525757e-05,-2.664780988591645e-05,0.0001376351998634192,0.0001378213779110342
223.901099769161,190.5058200614766,12.5,0.3222052510358208,16.03871210257682,10.54582850907828,-2.518928273829101,6.32746358488678e-05,3.085842960417269e-05,-2.973086796766817e-05,0.0001429803110322039,0.0001452426265425942
221.414358490435,190.5865895013829,12.5,0.3100236749832939,17.50330159797582,10.36961012980368,-2.913869819037757,6.91543684611561e-05,2.779821631782324e-05,-3.378515712367035e-05,0.000147541657565913,0.0001427991898335722
222.9130073452822,191.5268248383998,12.5,0.3462846511862193,16.86277595321955,10.56770989863641,-2.989345363398912,6.961243179308705e-05,3.109373361042366e-05,-3.658283831118019e-05,0.0001531683855616877,0.0001503275390490207
219.937355428938,192.159630676262,12.5,0.3397976820449239,16.75715381532729,10.53562894996593,-2.581916676476745,6.845536257591551e-05,3.076070627945148e-05,-3.128636911756415e-05,0.0001507864008636096,0.0001489229122979999
221.5632479929193,192.9215433011216,12.5,0.3742817465789039,16.15541047045999,10.77845713684939,-2.647133425089897,6.884016497917976e-05,3.446716528347153e-05,-3.384441365572154e-05,0.0001569141804435448,0.0001567070649537264
224.0100944496886,192.2151248761386,12.5,0.370043992303689,17.4972949869856,10.18526022304881,-2.889280378618778,7.594678865731059e-05,2.951792902518356e-05,-3.66918368053617e-05,0.0001605361108173484,0.0001557068314727601
225.5087433045359,193.1553602131557,12.5,0.3992620775933433,16.91190075577554,10.383759074403,-2.946700032991492,7.62580044479837e-05,3.279051929093083e-05,-3.924107232899856e-05,0.0001658939235142533,0.0001628749824683629
222.7534839573516,193.4793020534233,12.5,0.3962896030128308,16.81637319962739,10.2350089123636,-2.610977448482712,7.557330027212769e-05,3.19671982728364e-05,-3.459907215794668e-05,0.0001635254985657722,0.0001621156763045522
224.379376521333,194.2412146782829,12.5,0.4226526274107085,16.31137977301325,10.51516544178644,-2.663112730379526,7.583698306939403e-05,3.567943074361205e-05,-3.690135757869278e-05,0.000169462815750346,0.0001691081246583034
210.3332314447271,100.2483061444313,12.5,0,-4.61360649136801,3.227139717418901,-0.05395431948905123,-1.734525254631275e-05,1.401773228883489e-05,-4.316345559124098e-07,5.097886541547222e-06,5.169264725507161e-06
212.16139657376,99.9561608682064,12.5,0,-4.613281280443582,3.055179635194441,0.0434705685823568,-1.720664380557501e-05,1.346719985697708e-05,3.477645486588544e-07,4.753165204230778e-06,5.184986463825108e-06
211.1105506509983,102.3937742417494,12.5,0,-4.255290356827839,3.389767772891921,-0.1806390755948678,-1.632874336016262e-05,1.425148915871642e-05,-1.445112604758943e-06,5.605648734128715e-06,5.642194048526372e-06
212.9661069684736,102.1188807905119,12.5,0,-4.258314745329892,3.218131008270557,-0.08307474973844151,-1.62011119916721e-05,1.370467102272969e-05,-6.645979979075321e-07,5.214151703785379e-06,5.661166510915966e-06
213.4997063327808,99.7422956828276,12.5,0,-4.684439129094617,3.248376516757243,-0.228349618868414,-1.758890642650857e-05,1.414235615689887e-05,-1.826796950947312e-06,5.128941007328241e-06,5.193943399006089e-06
215.3278714618137,99.45015040660272,12.5,0,-4.688622249033592,3.058493063315655,-0.1320671711522173,-1.745038564756002e-05,1.353807560183697e-05,-1.056537369217739e-06,4.743581232386607e-06,5.202692462683728e-06
214.3244684691131,101.9176448175466,12.5,0,-4.318406909064938,3.424960974427258,-0.3669228078055013,-1.65588708885496e-05,1.441460064541917e-05,-2.93538246244401e-06,5.677521305742263e-06,5.671777124945261e-06
216.1800247865884,101.6427513663091,12.5,0,-4.325909697586024,3.235456372185943,-0.2703818465359944,-1.643127613002403e-05,1.381418814906383e-05,-2.163054772287955e-06,5.238631184523346e-06,5.681793399184435e-06
212.07117640852,95.97448045736108,12.5,0,-5.350439822465186,3.010596410687734,-0.124482111509322,-1.952988456043878e-05,1.391426037217289e-05,-9.958568920745761e-07,4.54007894985941e-06,4.577852116842073e-06
213.8518986074917,95.65245414373533,12.5,0,-5.348037464123166,2.832379321705103,-0.03355388026870127,-1.937962334255821e-05,1.334204380075486e-05,-2.684310421496102e-07,4.241509159650557e-06,4.585877517904709e-06
212.8959385448522,98.14982959208004,12.5,0,-4.990507261105877,3.183285936374278,-0.2597775097159377,-1.851625198463823e-05,1.417892080528239e-05,-2.078220077727502e-06,4.920724578585112e-06,4.900827076513753e-06
214.7040519322664,97.84505510344165,12.5,0,-4.991499923303888,3.005365937348356,-0.1685591492893315,-1.837709250445112e-05,1.361037093815785e-05,-1.348473194314652e-06,4.583517690151723e-06,4.909042687331522e-06
208.9868750857906,96.53224639392496,12.5,0,-5.268338767988917,2.993234181312315,0.03836302930906619,-1.925327140261439e-05,1.379302039459054e-05,3.069042344725295e-07,4.517101308796834e-06,4.557983289108255e-06
210.7675972847624,96.21022008029922,12.5,0,-5.261630162526656,2.83173886876439,0.1307012378354926,-1.910260761509681e-05,1.327086851006737e-05,1.04560990268394e-06,4.24962333169525e-06,4.570377880762807e-06
209.7641942920617,98.67771449124309,12.5,0,-4.915250079818411,3.152633614678863,-0.0855594350153584,-1.8250907147162e-05,1.402062763082709e-05,-6.844754801228672e-07,4.867433119853167e-06,4.878751328104983e-06
211.5723076794759,98.37294000260469,12.5,0,-4.911974326863813,2.991384235911629,0.006950081905902341,-1.81114252346935e-05,1.350200901640826e-05,5.560065524721873e-08,4.5662345170912e-06,4.892710531271615e-06
255.30676759138,185.0775577713041,12.5,0,14.91626057346607,5.243671051013504,-3.714646354536664,4.353709699428062e-05,4.846738904470353e-06,-2.971717083629331e-05,7.47770281399091e-05,7.52023499707749e-05
257.3417099199812,185.5481041017357,12.5,0,14.6418334204477,4.710666603412661,-3.427478598995741,4.30853336627025e-05,3.360666394562357e-06,-2.741982879196593e-05,7.187831666340624e-05,7.351350749353748e-05
255.3984009591161,186.9140586633553,12.5,0,15.53483256493828,5.420116338922305,-3.900894750302644,4.537537113666465e-05,4.916506232600752e-06,-3.120715800242115e-05,7.775149417056713e-05,7.673661633734183e-05
257.3815065492744,187.4004040590461,12.5,0,15.24357502232977,4.870283741184799,-3.603249457825137,4.488321307850743e-05,3.390047953927538e-06,-2.88259956626011e-05,7.473032982247768e-05,7.496289799151919e-05
255.4654812399647,188.2584706244251,12.5,0,15.56873675580627,5.225691279111912,-3.488902822257469,4.563940459529053e-05,4.267222688513102e-06,-2.791122257805975e-05,7.710324270942058e-05,7.783732409740921e-05
257.4106397038857,188.7563817385974,12.5,0,15.28974657569739,4.687803836792187,-3.215137755734787,4.517694597279789e-05,2.769175017177088e-06,-2.572110204587829e-05,7.418430077218618e-05,7.599555231139555e-05
255.5571146077009,190.0949715164762,12.5,0,16.1688527581138,5.398758539964123,-3.684708168525503,4.742132199399285e-05,4.340945121394154e-06,-2.947766534820402e-05,7.999889627954738e-05,7.931024725575953e-05
257.4504363331788,190.6086816959078,12.5,0,15.87239694888049,4.843154425517855,-3.400179051411963,4.691714669600327e-05,2.800176602552745e-06,-2.720143241129571e-05,7.695178960659097e-05,7.736742588209151e-05
258.8345945281879,189.1208779718091,12.5,0,15.50609625888435,4.430330674744876,-3.416188774740315,4.607524348863401e-05,1.772181152076124e-06,-2.732951019792252e-05,7.420853664931538e-05,7.47034799803167e-05
260.7797529921089,189.6187890859814,12.5,0,15.24906089244233,3.951738256546972,-3.159076312490725,4.563560425057788e-05,4.463137069964443e-07,-2.52726104999258e-05,7.158825716071019e-05,7.301524451061888e-05
258.8364440312438,190.984743647601,12.5,0,16.0786032586072,4.573868489061785,-3.582104399463162,4.779243563629359e-05,1.773496558111955e-06,-2.86568351957053e-05,7.68942725198833e-05,7.601223433106855e-05
260.7297657567217,191.4984538270325,12.5,0,15.80560690452672,4.080107968765711,-3.315442448186478,4.731385571947293e-05,4.118599764289018e-07,-2.652353958549182e-05,7.41608080764098e-05,7.425260353319637e-05
258.8313910949265,185.8925679229121,12.5,0,14.87209327053143,4.461437838749064,-3.642436778484817,4.402154819470132e-05,2.37892646757186e-06,-2.913949422787853e-05,7.19888932507956e-05,7.231823675287511e-05
260.8663334235278,186.3631142533436,12.5,0,14.62241878028516,3.992238452517252,-3.375823341305765,4.359794933489871e-05,1.077228023827078e-06,-2.700658673044612e-05,6.941577092047749e-05,7.07415388376836e-05
258.8332405979824,187.7564335987038,12.5,0,15.45468256041531,4.607470199187389,-3.797864745024601,4.576900803397906e-05,2.380158589067403e-06,-3.038291796019681e-05,7.471820783431874e-05,7.371367631242805e-05
260.8163461881407,188.2427789943947,12.5,0,15.1897968732955,4.123983821887791,-3.522041195803114,4.530816293703537e-05,1.044910731404529e-06,-2.817632956642491e-05,7.203796053616233e-05,7.207445756091209e-05
173.731025673066,94.4974212730049,12.5,0,-5.481591325412362,1.849328576278138,1.49658770770031,-1.902055510234207e-05,1.030312450441993e-05,1.197270166160248e-05,3.276069794146244e-06,3.273049280657314e-06
175.9041838564051,94.65067524796801,12.5,0,-5.538362896292909,1.724136923145431,1.644206523265855,-1.910207080665365e-05,9.947928471099705e-06,1.315365218612684e-05,3.211915764391663e-06,3.348047043866055e-06
174.5169908457284,96.52035834176397,12.5,0,-5.109795447302531,1.982685892488025,1.402386327493716,-1.793749414535852e-05,1.04324312138037e-05,1.121909061994972e-05,3.378792338960148e-06,3.373229320018453e-06
176.6641077315878,96.66384441275156,12.5,0,-5.165652451322797,1.856702641017178,1.551196455665225,-1.801544995704669e-05,1.007397041231321e-05,1.24095716453218e-05,3.300553860960908e-06,3.456192419666733e-06
175.0923572850725,98.00125105654709,12.5,0,-4.882298496996406,1.999120437195969,1.480113476127338,-1.722265154014527e-05,1.030302419662422e-05,1.184090780901871e-05,3.443292277386778e-06,3.467210180351549e-06
177.2204106180826,98.13758652554148,12.5,0,-4.933737867619614,1.883385183523277,1.623265029495076,-1.729466932320138e-05,9.973822881370175e-06,1.298612023596061e-05,3.374401000349751e-06,3.557555556597648e-06
175.8783224577349,100.0241881253062,12.5,0,-4.513518542695643,2.129564992101165,1.38849016360615,-1.614691133030699e-05,1.042542280888024e-05,1.11079213088492e-05,3.594577553407582e-06,3.623790626370379e-06
177.9803344932654,100.1507556903251,12.5,0,-4.563980653639464,2.013113984280041,1.532817615975586,-1.621522927907032e-05,1.00931492726077e-05,1.226254092780469e-05,3.508669373285585e-06,3.726339420918566e-06
178.7782537789961,98.23739101571485,12.5,0,-4.861863833826584,2.161035573265881,1.365826046141507,-1.728679272685777e-05,1.080480490151209e-05,1.092660836913206e-05,3.605097850822543e-06,3.625574408980697e-06
180.9063071120062,98.37372648470921,12.5,0,-4.913165806217428,2.045048154844348,1.507733482376139,-1.735816910377125e-05,1.047468674047586e-05,1.206186785900911e-05,3.520727387384668e-06,3.721059993325516e-06
179.5191141013296,100.2434095785052,12.5,0,-4.499790849001344,2.287710478310936,1.277855867770855,-1.622949909945305e-05,1.092050620979607e-05,1.022284694216684e-05,3.775757449945693e-06,3.803711089382258e-06
181.62112613686,100.369977143524,12.5,0,-4.55013510654617,2.17098351157971,1.420949453027114,-1.629721915021151e-05,1.058725532229201e-05,1.136759562421691e-05,3.672451623229473e-06,3.912545624152237e-06
177.4950460594258,94.7628649440981,12.5,0,-5.453533646763271,2.001936034421126,1.385475794125583,-1.905285649717937e-05,1.076902222755822e-05,1.108380635300466e-05,3.405341861553755e-06,3.403702540388149e-06
179.6682042427649,94.91611891906118,12.5,0,-5.509376524960349,1.879185383627323,1.531226084312495,-1.913335318677497e-05,1.042089444757571e-05,1.224980867449996e-05,3.330938589009699e-06,3.480758421404708e-06
178.2359063817592,96.76888350688844,12.5,0,-5.090036083178423,2.13014359057082,1.2960775250701,-1.799223033862761e-05,1.088848835636936e-05,1.03686202005608e-05,3.52114276908119e-06,3.518392441315517e-06
180.3830232676186,96.91236957787602,12.5,0,-5.144982066964303,2.006600733481025,1.443027318055932,-1.806922320107059e-05,1.053710800071072e-05,1.154421854444746e-05,3.431638526824823e-06,3.605362961050823e-06
265.0053324315201,197.4508449210628,12.5,0,16.32277796320818,2.911278584515798,-2.633805891099581,4.990386661465353e-05,-3.742130900115988e-06,-2.107044712879665e-05,7.215321467487474e-05,7.257811095141461e-05
266.9835216146449,198.0560554565262,12.5,0,16.08890232135583,2.513585628108665,-2.416504506257204,4.947361892585172e-05,-4.827647847136939e-06,-1.933203605005763e-05,6.993796288102429e-05,7.08297931574913e-05
264.679666670634,199.2894320795581,12.5,0,16.75448605223001,2.961911452963849,-2.733500210503378,5.124482620476496e-05,-3.925472192299693e-06,-2.186800168402702e-05,7.398389339785876e-05,7.352743722480651e-05
266.6258961570857,199.9066908490408,12.5,0,16.51237904153335,2.557941359311412,-2.511955392703389,5.079325984545758e-05,-5.024490883430161e-06,-2.009564314162712e-05,7.171625909056782e-05,7.169810556680468e-05
265.5694020756501,194.2663185484627,12.5,0,15.86866469972821,2.910546564226254,-2.874402773854674,4.845128978774927e-05,-3.381182754258558e-06,-2.299522219083739e-05,7.048159232645625e-05,7.078908202876548e-05
267.6029470772062,194.8506609304634,12.5,0,15.63898203554979,2.534249963470477,-2.648980809238954,4.801734254298294e-05,-4.401585745334303e-06,-2.119184647391163e-05,6.834316956432964e-05,6.916351394057096e-05
265.2437363147641,196.1049057069579,12.5,0,16.32134312431479,2.971357303463884,-2.961646482380325,4.985121215503622e-05,-3.548731128367403e-06,-2.36931718590426e-05,7.242213468073039e-05,7.184437088806868e-05
267.2453216196471,196.701296322978,12.5,0,16.08345623458658,2.589123088306763,-2.732107518598544,4.939576148003163e-05,-4.581571105087621e-06,-2.185686014878835e-05,7.023266370008326e-05,7.015065137812043e-05
262.0471988135405,193.2542078538398,12.5,0,15.9956783131578,3.666937306341905,-3.067527794741847,4.825262075703143e-05,-1.062343270232143e-06,-2.454022235793478e-05,7.346287808420372e-05,7.384835644392727e-05
264.0807438150966,193.8385502358405,12.5,0,15.74491306613081,3.23402220991205,-2.826559997911639,4.779650404368896e-05,-2.247059381186092e-06,-2.261247998329311e-05,7.104210909858577e-05,7.204438179416774e-05
261.7768888710858,195.0719268588724,12.5,0,16.46736552977049,3.734377455023574,-3.176260195905537,4.97080677312467e-05,-1.223884567740953e-06,-2.541008156724429e-05,7.550169545100988e-05,7.506086809832832e-05
263.7784741759688,195.6683174748924,12.5,0,16.20772195752069,3.294526735860229,-2.930631989873846,4.9229088875378e-05,-2.423692011263817e-06,-2.344505591899077e-05,7.302392500223093e-05,7.316005949286925e-05
261.5790082594264,196.4025895243832,12.5,0,16.46312120910372,3.702188191943921,-2.836203236179823,4.972023731557675e-05,-1.323494753062426e-06,-2.268962588943858e-05,7.529361962652423e-05,7.592566918837228e-05
263.5571974425512,197.0078000598465,12.5,0,16.20776175570704,3.242943149193011,-2.60405671936925,4.927048309890812e-05,-2.588791327147997e-06,-2.0832453754954e-05,7.277764735672321e-05,7.394354681857578e-05
261.3086983169716,198.2203085294157,12.5,0,16.91051628773653,3.758577262063031,-2.959606364602216,5.110679031110647e-05,-1.500965791587528e-06,-2.367685091681773e-05,7.720724388818974e-05,7.70758380505127e-05
263.2549278034233,198.8375672988985,12.5,0,16.64626613849406,3.291962877011226,-2.722641385630891,5.063448134157199e-05,-2.782731704359322e-06,-2.178113108504713e-05,7.463265834686984e-05,7.496839630088183e-05
188.7106532078398,85.55652442217995,12.5,0,-7.099216161715512,2.038568978900129,0.9349760880974147,-2.434834690060974e-05,1.220279366185282e-05,7.479808704779318e-06,3.462033628375155e-06,3.440316289252218e-06
190.8246688821737,85.73520261520963,12.5,0,-7.160591495899901,1.911769785768402,1.079185624745719,-2.44433086154944e-05,1.184613651117881e-05,8.633484997965749e-06,3.377484668004051e-06,3.483212407204223e-06
189.3498881884702,87.61716213239393,12.5,0,-6.719776148476988,2.167617223629424,0.8478128697107248,-2.32373774540299e-05,1.231219603439575e-05,6.782502957685798e-06,3.529166833110946e-06,3.494445535024147e-06
191.4514099981801,87.80774145186174,12.5,0,-6.784088304065887,2.038985197295314,0.9937214803666292,-2.334027073084709e-05,1.195202327459771e-05,7.949771842933034e-06,3.432444236311233e-06,3.542704463477676e-06
187.6034657434325,81.98739521216108,12.5,0,-7.71453136280177,1.875517766737597,0.9589475106022184,-2.618691457435574e-05,1.217328194380173e-05,7.671580084817747e-06,3.403115446829803e-06,3.379842126539953e-06
189.7391214260779,82.14546004953299,12.5,0,-7.772677864063333,1.747750238842866,1.10392271086835,-2.627076935607695e-05,1.181094305554783e-05,8.831381686946803e-06,3.326796290560433e-06,3.415720364170968e-06
188.242700724063,84.04803292237506,12.5,0,-7.335781226932525,2.004579616763208,0.8716303855601301,-2.507816361959465e-05,1.228327975518828e-05,6.97304308448104e-06,3.448512402999776e-06,3.40960839849998e-06
190.3658625420842,84.21799888618509,12.5,0,-7.396795556077314,1.87499630612595,1.018288729713596,-2.516974282434816e-05,1.191742462446489e-05,8.146309837708766e-06,3.362375043790475e-06,3.449187120344456e-06
183.904401593684,81.71361888294776,12.5,0,-7.741489505669291,1.770613525115473,1.090230839964519,-2.618925723823411e-05,1.185915488490495e-05,8.721846719716151e-06,3.33923633827357e-06,3.316177282181955e-06
186.0400572763293,81.87168372031965,12.5,0,-7.79975756823714,1.642398675828421,1.2352709744618,-2.627314315902158e-05,1.149548181724066e-05,9.882167795694397e-06,3.269868324311563e-06,3.353169638109722e-06
184.5652765826258,83.75364323750395,12.5,0,-7.365896098085808,1.900186352318569,1.00170959227292,-2.509101659572944e-05,1.197331320588807e-05,8.013676738183361e-06,3.378178236987387e-06,3.339820856318548e-06
186.6884384006471,83.92360920131398,12.5,0,-7.427044622088495,1.770128623449227,1.148459953304525,-2.518264568944256e-05,1.160604729270832e-05,9.187679626436202e-06,3.299742741931612e-06,3.380303796375941e-06
185.0490706519622,85.24704471365351,12.5,0,-7.1347691264346,1.926305986514518,1.0704737823564,-2.437230599380233e-05,1.187199445799414e-05,8.563790258851202e-06,3.385932570975709e-06,3.365013124639707e-06
187.1630863262962,85.42572290668318,12.5,0,-7.196122793837073,1.799795974092568,1.214913327628397,-2.446742971955269e-05,1.151624535216587e-05,9.719306621027172e-06,3.310489474620373e-06,3.408644886944104e-06
185.7099456409041,87.28706906820972,12.5,0,-6.758062389074404,2.055744015666199,0.9823140099099101,-2.327039485757105e-05,1.198483076139136e-05,7.858512079279281e-06,3.444077110394683e-06,3.410196107517354e-06
187.8114674506139,87.47764838767752,12.5,0,-6.822368095845442,1.927380163516427,1.128480222845301,-2.337348203751855e-05,1.162551099992892e-05,9.027841782762412e-06,3.357558882564367e-06,3.458940028055307e-06
230.9721687597534,100.6845807029898,12.5,0,-4.311926406690914,3.336766394494965,-1.266014392229661,-1.646757761700689e-05,1.412719358773662e-05,-1.012811513783729e-05,5.81249166390697e-06,5.88592155989995e-06
232.9065011348632,100.5292604509043,12.5,0,-4.35098619620792,3.082522924130594,-1.151813779636833,-1.638917416716982e-05,1.334486231418424e-05,-9.214510237094665e-06,5.189667828676472e-06,5.883015435385715e-06
231.8266073849093,102.8708716261313,12.5,0,-3.916348542581519,3.543355992344863,-1.430005646433345,-1.536700013013675e-05,1.447181800956878e-05,-1.144004517146676e-05,6.653512376442885e-06,6.470679501488949e-06
233.7147233546038,102.6776655606681,12.5,0,-3.948489376121262,3.28891392125424,-1.31707569207449,-1.526629714059143e-05,1.368331604891058e-05,-1.053660553659592e-05,5.94618753028734e-06,6.45109665891838e-06
232.4520998704462,104.4713476619295,12.5,0,-3.626974275706828,3.52622399641222,-1.410269041150559,-1.442729687939162e-05,1.418549620908456e-05,-1.128215232920447e-05,6.840332419547497e-06,6.975530914634012e-06
234.3063830832349,104.2504072561889,12.5,0,-3.652521281145241,3.283473752385008,-1.303564811384089,-1.431484710157278e-05,1.342913303254822e-05,-1.042851849107271e-05,6.133475429466482e-06,6.942442571154983e-06
233.3065384956021,106.6576385850711,12.5,0,-3.228148829385642,3.73453708069787,-1.575633633777037,-1.331770591859235e-05,1.45330377217417e-05,-1.260506907021629e-05,7.949355751115923e-06,7.770052684088917e-06
235.1146053029755,106.3988123659527,12.5,0,-3.246285335459549,3.49180914137344,-1.470389727727627,-1.318156038656931e-05,1.377081752076265e-05,-1.176311782182101e-05,7.168268212957709e-06,7.716743344001067e-06
235.6638126065606,104.0886676537488,12.5,0,-3.638541650229736,3.461322980050558,-1.587945306803697,-1.44123916647756e-05,1.398706685634557e-05,-1.270356245442958e-05,6.788556371390342e-06,6.918681053692511e-06
237.5180958193492,103.8677272480082,12.5,0,-3.661489902354208,3.229931693310286,-1.481539675216281,-1.430071304218169e-05,1.326497334047628e-05,-1.185231740173025e-05,6.116334390570438e-06,6.886851724196373e-06
236.4382020693954,106.2093384232352,12.5,0,-3.257217656468116,3.650616755466213,-1.739658178092924,-1.334358990507094e-05,1.428774774266638e-05,-1.391726542474339e-05,7.805335368880682e-06,7.677452628683574e-06
238.2462688767688,105.9505122041167,12.5,0,-3.272805224419785,3.419058816501161,-1.634491736976311,-1.320822377134424e-05,1.355923239233954e-05,-1.307593389581049e-05,7.067267086191315e-06,7.623417738253745e-06
234.3225307121087,100.4155581349382,12.5,0,-4.304416235123314,3.281517439072353,-1.455698033885351,-1.639934590365249e-05,1.394438879313018e-05,-1.164558427108281e-05,5.808226826774498e-06,5.880747796407101e-06
236.2568630872184,100.2602378828527,12.5,0,-4.340394764317529,3.038506474331973,-1.339800764492822,-1.632006842528167e-05,1.319553652931633e-05,-1.071840611594258e-05,5.207658083612896e-06,5.877458616018278e-06
235.0969201749436,102.5362289044246,12.5,0,-3.919722428247122,3.471110911277214,-1.60729763621514,-1.532000049941256e-05,1.424333285868478e-05,-1.285838108972112e-05,6.595492991965852e-06,6.437255444861918e-06
236.985036144638,102.3430228389613,12.5,0,-3.948708326012935,3.227748182267422,-1.49244111261786,-1.521806518905533e-05,1.34877608440661e-05,-1.193952890094288e-05,5.918851383816608e-06,6.419023387390188e-06
199.2667204871749,174.4637540069003,12.5,0,10.77254908574369,7.415095520536704,0.2373185814558035,2.854008065795045e-05,1.51102663971225e-05,1.898548651646428e-06,6.612071718360696e-05,6.600678804782729e-05
200.4515219850464,172.8914125226713,12.5,0,10.96431273115197,7.194487676145935,0.1691859521094925,2.933021059876954e-05,1.425091037874542e-05,1.35348761687594e-06,6.605164874121119e-05,6.511135288128517e-05
200.9234164564512,176.3027671942944,12.5,0,11.12852192736763,7.831568079215499,0.001156902702837688,2.9346015704204e-05,1.615820031159549e-05,9.255221622701506e-09,6.890945816403018e-05,6.984495737259776e-05
202.0407290239698,174.4969330881681,12.5,0,11.33869850439571,7.657567916248388,-0.08251987489392421,3.015778088106755e-05,1.543325852847827e-05,-6.601589991513937e-07,6.907280832372546e-05,6.85271964008069e-05
202.5036583762067,170.1680371851875,12.5,0,10.21360234899461,7.313156193725293,0.1272856655302058,2.683300256180253e-05,1.523121794072524e-05,1.018285324241646e-06,6.368957578154987e-05,6.324253562878753e-05
203.9759711588126,171.3691366663728,12.5,0,10.42284102492989,7.725839807839437,-0.04231758751566345,2.71724194335041e-05,1.638441456514228e-05,-3.385407001253076e-07,6.592689505816149e-05,6.590889602411057e-05
201.3188568783352,171.7403786694164,12.5,0,10.14488909196533,7.57753034880721,0.2361119473193911,2.64016208152433e-05,1.613218584261081e-05,1.888895578555129e-06,6.437680747442548e-05,6.437067367795073e-05
202.858658591294,173.1749707724991,12.5,0,10.33997567402371,7.938334909123542,0.07479585898117472,2.673725422957705e-05,1.713069116997636e-05,5.983668718493977e-07,6.637794053568887e-05,6.747253194115323e-05
198.6518420779569,169.2555922587847,12.5,0,9.404510071440384,7.033219691265541,0.4778428949098301,2.446785647559679e-05,1.498269495489742e-05,3.822743159278641e-06,5.971948748577814e-05,5.931653220394687e-05
199.9535378321459,168.0876718588672,12.5,0,9.44880005332114,6.734472148113491,0.4196928319925903,2.484858245213685e-05,1.399127083130626e-05,3.357542655940722e-06,5.881940611511064e-05,5.884536843300968e-05
200.1916437909157,170.6901843618674,12.5,0,9.61645641786995,7.392481831528678,0.3112683566931172,2.485867507196089e-05,1.596277672659581e-05,2.490146853544937e-06,6.177247247318923e-05,6.218528013496586e-05
201.4258506147519,169.2887713400526,12.5,0,9.680344263510143,7.154651451617823,0.2394452157638552,2.52533804819382e-05,1.515060923436892e-05,1.915561726110841e-06,6.115944008361032e-05,6.1349869115096e-05
196.3972388957454,171.2784897306018,12.5,0,9.810024737855146,6.715060650701108,0.4875109989652053,2.602003064057558e-05,1.364017429195943e-05,3.900087991721643e-06,6.009077712026968e-05,5.991531151734183e-05
197.6989346499344,170.1105693306842,12.5,0,9.953791448374217,6.527064864589736,0.4921881369517451,2.66304807431257e-05,1.292357440798778e-05,3.937505095613961e-06,5.996074536230245e-05,5.960322258933201e-05
198.0539348650217,173.1175029179959,12.5,0,10.15070559175859,7.045173717427204,0.2857277227616911,2.684611891968572e-05,1.442399142236018e-05,2.285821782093528e-06,6.251112491989887e-05,6.334614745986722e-05
199.2881416888578,171.7160898961809,12.5,0,10.31648132243185,6.898935067597775,0.2717617416748486,2.74935921777037e-05,1.38234071583674e-05,2.174093933398789e-06,6.260826803719126e-05,6.272018130529839e-05
266.6574648358775,234.7144206432648,12.5,0,14.40339115514817,0.0332415511792914,0.1676580781673312,4.60642584555307e-05,-1.14163399603448e-05,1.34126462533865e-06,5.545270370985816e-05,5.938318083872667e-05
268.6252252631039,234.6831011814367,12.5,0,14.4444714425891,0.227071812000371,-0.01657513024364921,4.604065116668482e-05,-1.082894735567009e-05,-1.326010419491937e-07,5.619798359709912e-05,5.803108950171543e-05
267.2276096242611,236.4205049989192,12.5,0,13.959369569619,-0.1310909266873699,0.2853499409657327,4.477485536413068e-05,-1.158698662109478e-05,2.282799527725862e-06,5.325289903465113e-05,5.764126611131425e-05
269.2052987082703,236.3992948629087,12.5,0,14.00294862006731,0.06307810879874198,0.1010231029041565,4.47589730971764e-05,-1.100050894789787e-05,8.081848232332524e-07,5.400330694099927e-05,5.659964965754208e-05
267.6449845770107,237.6694454292035,12.5,0,13.69091413963394,-0.001919144282799934,0.1145276873836632,4.381246056225484e-05,-1.095887257341211e-05,9.162214990693059e-07,5.260745272404194e-05,5.667337439402214e-05
269.6299419422356,237.6556358333215,12.5,0,13.72947423793731,0.1653466727046449,-0.07225790309316389,4.380204022323567e-05,-1.045447003769498e-05,-5.780632247453111e-07,5.326276929858612e-05,5.58195408089786e-05
268.2151293653944,239.3755297848579,12.5,0,13.24854973999853,-0.157905563817379,0.2227830323822872,4.252168361904918e-05,-1.110413759621443e-05,1.782264259058298e-06,5.043886038245783e-05,5.577095977345501e-05
270.2100153874019,239.3718295147936,12.5,0,13.28959293060969,0.009734549402276027,0.03596832020332646,4.251890973842919e-05,-1.060052378640047e-05,2.877465616266117e-07,5.109980344783456e-05,5.511968364335189e-05
271.0830315843764,237.6455265075044,12.5,0,13.83046551384837,-0.001549044179512293,0.1303792134068243,4.425872887965838e-05,-1.106932935245313e-05,1.043033707254595e-06,5.314507265131593e-05,5.54364363138477e-05
273.0679889496013,237.6317169116224,12.5,0,13.85958983256177,0.1255072588861705,-0.02106034601333446,4.425028165708873e-05,-1.068604863761367e-05,-1.684827681066757e-07,5.364135760705642e-05,5.524360895354111e-05
271.6703733107584,239.369120729105,12.5,0,13.46863115988577,-0.1275416902711011,0.2171169489669509,4.320165306385135e-05,-1.118303833677614e-05,1.736935591735607e-06,5.137586699685222e-05,5.485321077717403e-05
273.665259332766,239.3654204590407,12.5,0,13.49977380214483,-0.0001601345895805295,0.06566004276701773,4.319940427453513e-05,-1.080033147240252e-05,5.252803421361418e-07,5.187772744115978e-05,5.47764694980098e-05
270.0657258728959,234.6601737441136,12.5,0,14.42484911578109,0.02541426327942009,0.2257786952746622,4.613918575987596e-05,-1.145855365013073e-05,1.806229562197298e-06,5.551273976900089e-05,5.735570878684515e-05
272.0334863001224,234.6288542822854,12.5,0,14.45514845246626,0.1710796772638825,0.07292821629432239,4.611961130608091e-05,-1.101666379472858e-05,5.834257303545792e-07,5.606881088042352e-05,5.68626256963001e-05
270.6530675992778,236.3837679657142,12.5,0,14.05380288164375,-0.1086736650068825,0.3202953818942341,4.505910815326549e-05,-1.159079803333702e-05,2.562363055153873e-06,5.368459228201745e-05,5.61069786345787e-05
272.6307566832872,236.3625578297037,12.5,0,14.08618215932264,0.03730592672247202,0.1673863717333544,4.504593816845445e-05,-1.11495667619462e-05,1.339090973866836e-06,5.424605655353796e-05,5.580259282214078e-05
232.9934008741124,216.6129502302196,12.5,0.7841811741834934,16.65507207593597,9.914497877835782,-3.931092055867492,0.0002101977534587106,8.5267517690842e-05,-0.000145718226053543,0.0004508162410229238,0.0004154075258581788
234.9322784580573,217.0438687292185,12.5,0.7854701557324849,16.10247102806607,9.135908855419522,-3.361883912407036,0.0002061213457570744,7.622683720637854e-05,-0.0001253675048853277,0.0004306771371078887,0.0004175881828540088
233.7144304596982,218.496010538201,12.5,0.8019832056689196,16.32058931559066,9.532135910329734,-3.932798042758371,0.0002252343152624502,8.810547367721052e-05,-0.000158887454209881,0.000478368972491856,0.0004477188056753673
235.611773606134,218.6895906405343,12.5,0.8006274879208404,16.17903392758372,9.014448234994969,-3.516838116482695,0.0002235079927296051,7.976529484467112e-05,-0.0001411162684286731,0.0004629244858236386,0.0004450805204248438
234.2422607500849,219.8745063573012,12.5,0.8143238760255996,16.21503393125824,9.784758761829536,-3.981031002850263,0.0002372965388734496,9.876983911715214e-05,-0.0001715258124797624,0.0005128595105512148,0.0004732723102317108
236.1091985780015,219.8943426946957,12.5,0.8111729180464905,16.27670591024572,9.148492953457062,-3.558957560534936,0.000237077563699483,8.607776254715318e-05,-0.0001507816579577785,0.000493217506669893,0.0004664712733923617
234.9632903356707,221.7575666652826,12.5,0.8301745432058026,15.8913566575429,9.436004271227214,-4.016278039492797,0.0002549884964515821,0.0001029417419031496,-0.0001891955712792772,0.0005465785754815574,0.0005107745031768635
236.7886937260782,221.5400646060115,12.5,0.8248073884714185,16.35486124498204,9.082209460349699,-3.756619056077488,0.0002572584997873038,9.120921902877458e-05,-0.0001715423509382242,0.0005322403169404005,0.0004974195597434248
237.4758919225507,219.9088639015039,12.5,0.8057336890633466,16.04179997901355,9.262704287450402,-3.808717849259309,0.0002260999155803484,8.651635816624408e-05,-0.0001568452226593734,0.0004772898846930437,0.0004551848732510969
239.3428297504674,219.9287002388984,12.5,0.7931916248046333,16.79606556127398,8.781642353989726,-3.611972836239489,0.0002259197475380181,7.090816834615544e-05,-0.0001397224975179018,0.0004536144943146528,0.0004311508914686472
238.1249817521082,221.3808420478809,12.5,0.8176175482711401,15.78632456041087,9.12829681809129,-3.91216029825998,0.0002369394682942717,9.091603941268657e-05,-0.0001716024874619416,0.0005007899376489172,0.0004805992422090976
239.9503851425157,221.1633399886097,12.5,0.80212686365451,17.01435174883542,8.99829397622393,-3.905080392309959,0.0002387756685313745,7.673128149309947e-05,-0.0001578821850982993,0.0004823698964527553,0.000448000223537359
236.3516353591011,217.3593229643936,12.5,0.7833718844748732,16.44435769871987,9.570473508718711,-3.810277025272648,0.0002075703133913522,8.064525247138393e-05,-0.0001407121883892561,0.0004398542296347761,0.0004140501017005113
238.2905129430461,217.7902414633926,12.5,0.7760748404877922,16.4576099319339,8.851174519299214,-3.35365026671208,0.0002035653888381578,6.76907880705741e-05,-0.0001198132545362058,0.0004140967776778783,0.000402203227231613
237.0007251886586,218.8313011107707,12.5,0.7965615450463192,16.24345381918563,9.4082359012606,-3.900825230053632,0.0002185057073428253,8.41118845135813e-05,-0.0001533957866890713,0.000462055633685674,0.0004373530847953908
238.8980683350945,219.024881213104,12.5,0.7862271376825245,16.74116989031424,9.02106959584402,-3.631222750683723,0.0002168417799612394,7.23875174177544e-05,-0.0001358908782459383,0.0004417688150172368,0.0004188796232931333
242.2720620587066,103.8611464251842,12.5,0,-3.514126630537163,3.319396829450752,-1.977328695426751,-1.390072268127952e-05,1.343337115867213e-05,-1.5818629563414e-05,6.865720303334761e-06,6.931344512967614e-06
244.2144373908002,103.8965545662212,12.5,0,-3.581011008757406,3.07618625466957,-1.84222753580888,-1.392018423175935e-05,1.270860482194855e-05,-1.473782028647104e-05,6.098179867683617e-06,6.954691989721295e-06
242.8835939879434,105.9086389409845,12.5,0,-3.112549017508532,3.492444188816981,-2.117437290441698,-1.275411220708089e-05,1.366586061822116e-05,-1.693949832353358e-05,7.879818680399164e-06,7.644121026917478e-06
244.7784378008327,105.9338352174313,12.5,0,-3.179121909107899,3.244291141055133,-1.979798215136772,-1.276862302198938e-05,1.292502917866274e-05,-1.583838572109418e-05,7.006675458894822e-06,7.662307994749649e-06
241.2128576868368,100.3147853597648,12.5,0,-4.163125330423754,3.16484181052086,-1.853132797160933,-1.58538745057727e-05,1.345799405800575e-05,-1.482506237728747e-05,5.918350516294953e-06,5.943158811003127e-06
243.2375600251518,100.3678809691115,12.5,0,-4.233370749471071,2.920019553474564,-1.712861707950451,-1.588280204108708e-05,1.273075917069546e-05,-1.370289366360361e-05,5.263792091599754e-06,5.971642922189008e-06
241.8243896160736,102.3622778755651,12.5,0,-3.765909321217366,3.334031195635206,-1.989129055810727,-1.471813478440373e-05,1.368162728300655e-05,-1.591303244648581e-05,6.693886001354081e-06,6.475573060871696e-06
243.8015604351842,102.4051616203217,12.5,0,-3.835951753265259,3.084407041463962,-1.846283797791103,-1.474257124362e-05,1.293886393529688e-05,-1.477027038232883e-05,5.938236275716391e-06,6.501679648871266e-06
237.7059703667347,100.2228210667191,12.5,0,-4.249073044307959,3.234518423929631,-1.657286655325373,-1.618464848092917e-05,1.374971739202119e-05,-1.325829324260298e-05,5.872101998277655e-06,5.888189942621082e-06
239.7306727050497,100.2759166760658,12.5,0,-4.323549144690104,2.972553986644078,-1.517683697082895,-1.621340045232359e-05,1.297101207301313e-05,-1.214146957666316e-05,5.192863386222484e-06,5.920797652522627e-06
238.3998293021929,102.2880010508292,12.5,0,-3.846954254771903,3.419942090657911,-1.806168622725025,-1.504620728779642e-05,1.402137809392284e-05,-1.44493489818002e-05,6.680545069628964e-06,6.423691246273424e-06
240.3770001213036,102.3308847955858,12.5,0,-3.921302380325994,3.152899303959796,-1.664084596128405,-1.507048706021101e-05,1.322631967693214e-05,-1.331267676902724e-05,5.890572849810339e-06,6.45467613137726e-06
238.9077692962123,103.7998177259078,12.5,0,-3.594062320386239,3.410280489415252,-1.78867484893989,-1.422922381676817e-05,1.378814742243779e-05,-1.430939879151912e-05,6.856804570525268e-06,6.88525988720702e-06
240.850144628306,103.8352258669448,12.5,0,-3.667011301789189,3.142674837051748,-1.654156561480463,-1.42485760353668e-05,1.299016851999694e-05,-1.32332524918437e-05,6.033486947869574e-06,6.912740237170698e-06
239.6016282316705,105.8649977100179,12.5,0,-3.186580848887834,3.602898177748875,-1.945004505298853,-1.307937725864017e-05,1.407853884790667e-05,-1.556003604239083e-05,7.932937657026563e-06,7.610787561819392e-06
241.4964720445598,105.8901939864647,12.5,0,-3.259335675737383,3.329908755510011,-1.808058507641339,-1.309380116676763e-05,1.326317655822194e-05,-1.446446806113071e-05,6.989663356903417e-06,7.630316168520545e-06
244.9054765961606,221.0474042669869,12.5,0.7266481291798166,15.41902103248177,7.054892992844199,-3.377411584785784,0.0001598560594392679,3.746248642963338e-05,-9.884436714193966e-05,0.0003024743915573144,0.0003369991448158016
246.6723136836435,220.5756267352072,12.5,0.6725810852785827,18.38622333762827,7.443130594439825,-3.897307722538333,0.0001615099428505909,2.782074835186357e-05,-9.52249866408442e-05,0.0002909575361619752,0.0002863295312630997
245.4198998964567,222.5140947736003,12.5,0.7357883920736028,15.46688204680676,7.213613164287837,-3.619087272875147,0.0001654852803837882,4.053590443028237e-05,-0.0001095814767951705,0.0003159179636077103,0.0003474038360610914
246.9590130205951,222.0468193730336,12.5,0.6869392167227845,18.26417294316351,7.468662337075502,-4.144138872693158,0.0001676045878349452,2.966957734813411e-05,-0.0001058999170528113,0.000303331212207054,0.0002982302103996146
241.8452249919984,221.864546921884,12.5,0.7902896628020039,15.43125791678823,7.930832509169699,-3.550959116231566,0.0002052133428489751,6.215076409708331e-05,-0.000135461481343343,0.0004090231276875813,0.0004259505497636653
243.6120620794811,221.3927693901043,12.5,0.757127500335997,17.74668044569916,8.278329444349787,-4.053358330227112,0.000206555760492273,5.061631054305001e-05,-0.000133513949445397,0.0003942382557226926,0.0003744104839682747
242.7540777669009,223.3234395084943,12.5,0.7958698689058704,15.43804421514697,8.236208623979756,-3.792886906620997,0.000209732754100591,6.861031318379637e-05,-0.0001486458421906171,0.0004258120588583265,0.0004360654284276838
244.2931908910392,222.8561641079277,12.5,0.7642116577683348,17.71398372198617,8.541290629842372,-4.331247238682612,0.0002114257004169522,5.581676733184648e-05,-0.0001469537364803932,0.0004097134184526896,0.0003843366714191308
243.4194041747012,224.3914230046332,12.5,0.7987307691485417,15.49667975530874,7.288570775364283,-3.773167549055783,0.0002174128574525701,5.428590664701468e-05,-0.0001499749378717694,0.0004167598624187001,0.0004414417072578073
244.7918117875776,223.9274433928567,12.5,0.768373622159185,17.76083361547085,7.764086162444725,-4.32622923072673,0.0002185562763250645,4.592054206691563e-05,-0.0001494209518295857,0.0004063846279673882,0.0003904196916374002
244.3282569496038,225.8503155912435,12.5,0.801109585318232,15.68115355456349,7.677714792701797,-4.036734040563329,0.0002214159974019028,6.045421802872413e-05,-0.0001623701794587638,0.0004322940663483263,0.000446015095513968
245.4729405991357,225.3908381106799,12.5,0.772804380985911,17.84990756031336,8.082155425956952,-4.610444195483089,0.0002229531540795071,5.098237089727186e-05,-0.0001623427147227582,0.0004209189856161986,0.0003971126244870313
245.7964838888547,223.5877867433746,12.5,0.7416029367889245,15.5671151823829,6.550216357007672,-3.574360185912424,0.0001725042651185541,3.29222015560183e-05,-0.0001106625637766682,0.0003156951816418642,0.0003543661141309072
247.168891501731,223.123807131598,12.5,0.6966816951356194,18.2620983272551,7.091644653799101,-4.1128266459848,0.0001739604833535168,2.665049916445816e-05,-0.0001084755276559711,0.0003088232465731857,0.0003068879242047656
246.3109071891508,225.054477249988,12.5,0.7484881897165108,15.64132604912821,6.705550395725444,-3.772932828182387,0.0001776767579632164,3.55637392014988e-05,-0.0001200081323872548,0.0003277670888288112,0.0003629827203095856
247.4555908386826,224.5949997694244,12.5,0.7090554954621209,18.11176660272826,7.098720186450235,-4.288813975206754,0.0001796860781495321,2.827512183990093e-05,-0.0001179280284264212,0.0003202758687087004,0.0003186405590623192
234.9557315589423,92.75269551275977,12.5,0,-5.607487566280186,2.871448819879245,-1.377613754469337,-2.024111926799999e-05,1.367462627663773e-05,-1.102091003575469e-05,4.627084824067809e-06,4.604290623794556e-06
237.0892624882161,92.82093493875084,12.5,0,-5.689931661362842,2.588120805823622,-1.229030092580484,-2.027827796101999e-05,1.283393190772586e-05,-9.832240740643874e-06,4.126302348715865e-06,4.629270555238496e-06
235.7614795911154,94.91991696196624,12.5,0,-5.182517748174328,3.078122705261867,-1.54118163102438,-1.904655495836734e-05,1.399600685537744e-05,-1.232945304819504e-05,5.132529492930141e-06,4.884947701891646e-06
237.8654983840782,94.98447474360557,12.5,0,-5.265527422632959,2.791224335290767,-1.3907971892837,-1.908266722065808e-05,1.314433981103682e-05,-1.11263775142696e-05,4.545642557139923e-06,4.912682029352916e-06
236.3513280887397,96.50643317397098,12.5,0,-4.926227321688767,3.052649205692805,-1.511932580461442,-1.82060467939583e-05,1.370945931556799e-05,-1.209546064369154e-05,5.136186344530682e-06,5.136555283183015e-06
238.4337424984837,96.56829580488959,12.5,0,-5.00847945120469,2.765924712389739,-1.366433709248339,-1.82398740137668e-05,1.285774264061092e-05,-1.093146967398671e-05,4.530144918572641e-06,5.166240129108462e-06
237.1570761209129,98.67365462317741,12.5,0,-4.498450693239914,3.263869370285328,-1.67988515245663,-1.700613771459599e-05,1.404314253950498e-05,-1.343908121965304e-05,5.821964827539647e-06,5.543302900772685e-06
239.2099783943457,98.73183560974434,12.5,0,-4.581275600384865,2.973447646443857,-1.532590851700301,-1.703884003838665e-05,1.318005294892823e-05,-1.226072681360241e-05,5.107515784700815e-06,5.575562266226263e-06
239.9581756487651,96.61358239380996,12.5,0,-4.841142593598084,2.997126933387325,-1.707373392753419,-1.788935784622373e-05,1.346372026171791e-05,-1.365898714202735e-05,5.182160473350383e-06,5.186834194416845e-06
242.0405900585091,96.67544502472859,12.5,0,-4.921714954597061,2.717557449374423,-1.560487112153828,-1.792353381421013e-05,1.26335558016758e-05,-1.248389689723062e-05,4.57513611908239e-06,5.213413381250684e-06
240.7128071614084,98.774427047944,12.5,0,-4.412842259249946,3.199394234197406,-1.869170735479186,-1.668061061695775e-05,1.376833535683165e-05,-1.495336588383349e-05,5.868925567609111e-06,5.597842272492697e-06
242.7657094348412,98.83260803451091,12.5,0,-4.493964663662896,2.916206563372,-1.720457394936193,-1.671365217441887e-05,1.292703273372072e-05,-1.376365915948955e-05,5.156298382899898e-06,5.626453016154559e-06
238.6511155278978,92.87088966565349,12.5,0,-5.523406635849531,2.827838498115167,-1.573992407117957,-1.993717203321063e-05,1.346780850264816e-05,-1.259193925694365e-05,4.668841586303359e-06,4.646725394579567e-06
240.7846464571717,92.93912909164456,12.5,0,-5.603773838088934,2.553153218617636,-1.424464774943526,-1.99745988567787e-05,1.265310937004758e-05,-1.139571819954821e-05,4.167732871822086e-06,4.669432971055413e-06
239.4057470405411,95.03173431978752,12.5,0,-5.09920671950185,3.025042587406634,-1.730768620507761,-1.873749557233123e-05,1.375950165530271e-05,-1.384614896406209e-05,5.174803105787217e-06,4.931983195080342e-06
241.5097658335038,95.09629210142687,12.5,0,-5.180113575180792,2.746883951240596,-1.579414503546591,-1.877387060157101e-05,1.293411950411454e-05,-1.263531602837273e-05,4.589851718505412e-06,4.956980633033951e-06
275.4251360596533,79.96439456684323,12.5,0,-6.957540635227342,1.442101518226605,-2.695041997049461,-2.341781124730877e-05,1.018075736650701e-05,-2.156033597639569e-05,3.659319135807358e-06,3.617820312682959e-06
277.6792137421716,80.10378327806914,12.5,0,-7.053494291096924,1.161826918063531,-2.521266391179201,-2.350064326596098e-05,9.360641570680837e-06,-2.017013112943361e-05,3.300755563887239e-06,3.599518208821019e-06
276.1092049351212,82.11730414085105,12.5,0,-6.496697270483762,1.637463540523627,-2.848307265982905,-2.209940209796694e-05,1.043724114606261e-05,-2.278645812786324e-05,3.943740057466341e-06,3.690548227224583e-06
278.3492971865899,82.29460766071065,12.5,0,-6.602185840840721,1.350342765644776,-2.669700291905205,-2.220726890320612e-05,9.602845522735859e-06,-2.135760233524164e-05,3.530670934959863e-06,3.675391824491742e-06
276.609978107819,83.69334333305923,12.5,0,-6.252606429312793,1.509102602589174,-2.827254807515533,-2.121562265587228e-05,9.83121347173559e-06,-2.261803846012427e-05,3.790578107070103e-06,3.755780112841098e-06
278.8398323131939,83.89840241919677,12.5,0,-6.361417984798116,1.227440156277373,-2.650884568815775,-2.133848967637587e-05,9.016942887926085e-06,-2.12070765505262e-05,3.386257498159488e-06,3.74328682822571e-06
277.294046983287,85.84625290706704,12.5,0,-5.787751437694847,1.705810986460543,-2.981419531255158,-1.988545338979194e-05,1.008879630682961e-05,-2.385135625004127e-05,4.144965818323466e-06,3.86126902408489e-06
279.5099157576121,86.08922680183827,12.5,0,-5.906523523090659,1.417119053435128,-2.800070209881651,-2.003457051663821e-05,9.259999789464936e-06,-2.240056167905321e-05,3.672733108540921e-06,3.852905812344152e-06
280.47219888493,84.04851608879672,12.5,0,-6.091065435457371,1.40341541266211,-2.936737222649288,-2.061414172359327e-05,9.363781668884647e-06,-2.34938977811943e-05,3.766659998364286e-06,3.734600405063445e-06
282.7020530903048,84.25357517493426,12.5,0,-6.19555628185836,1.137540551921113,-2.762533951816367,-2.073581254348364e-05,8.596574791634249e-06,-2.210027161453094e-05,3.373557105815206e-06,3.723361940262474e-06
281.1320442832545,86.26709603771616,12.5,0,-5.61954492713774,1.594381688912861,-3.085447216094616,-1.925804911797105e-05,9.597657346231345e-06,-2.468357772875693e-05,4.122012496956619e-06,3.847082580109434e-06
283.3479130575796,86.51006993248738,12.5,0,-5.733755230100742,1.321983423320625,-2.906544040541298,-1.940560347497887e-05,8.817351138706592e-06,-2.325235232433038e-05,3.662932142682408e-06,3.839536425519971e-06
279.329313129912,80.20582289668374,12.5,0,-6.809150323037763,1.336265007223005,-2.809309659937388,-2.285829303949925e-05,9.723368281543826e-06,-2.24744772794991e-05,3.626164003945004e-06,3.586793574331592e-06
281.5833908124304,80.34521160790965,12.5,0,-6.898535088694953,1.080761141650653,-2.638539625964109,-2.293992119714437e-05,8.977263724238051e-06,-2.110831700771287e-05,3.28707194151386e-06,3.570331330259198e-06
279.9891585282365,82.42440284560317,12.5,0,-6.34453078764929,1.522690774901729,-2.953547431533139,-2.152065114039911e-05,9.948235109804963e-06,-2.362837945226511e-05,3.902894560633296e-06,3.664856176168743e-06
282.2292507797051,82.60170636546277,12.5,0,-6.443150546299838,1.260989682619221,-2.778287924620716,-2.162687349425486e-05,9.189687421421377e-06,-2.222630339696573e-05,3.512932805083301e-06,3.651228652391251e-06
288.1051476361571,189.2960850958049,12.5,0,13.35873538896174,0.5176393369636689,-2.358099662613306,4.233384177510663e-05,-9.03054243288565e-06,-1.886479730090645e-05,5.32454407431333e-05,5.37566514682516e-05
290.409589924246,189.759220913891,12.5,0,13.23751831798241,0.3702218947275076,-2.180778240803408,4.206388110176171e-05,-9.405304591257905e-06,-1.744622592642726e-05,5.228415677638605e-05,5.287134488794994e-05
288.1618661187771,191.3872911387322,12.5,0,13.77387186616088,0.6243629118938543,-2.405664998608617,4.357689964219974e-05,-9.021136174868372e-06,-1.924531998886893e-05,5.517081637027946e-05,5.452869525323806e-05
290.4447240286659,191.8668217235418,12.5,0,13.64735326048663,0.4744655303150895,-2.226165822088999,4.329195800930512e-05,-9.399592911381012e-06,-1.780932657671199e-05,5.418048086268051e-05,5.364316925184759e-05
288.0069083425329,185.6740099804248,12.5,0,12.85978907432459,0.6449769130200993,-2.629642716272135,4.063534350742261e-05,-8.223905137795355e-06,-2.103714173017708e-05,5.18136867346676e-05,5.229126044145194e-05
290.3487358703135,186.1087492295681,12.5,0,12.73639852451216,0.4836165651978206,-2.441002793943597,4.036958202628064e-05,-8.641545810976698e-06,-1.952802235154877e-05,5.07904640895791e-05,5.141191289552362e-05
288.0636268251529,187.7652160233521,12.5,0,13.29506050853884,0.7570172178036012,-2.68158561176192,4.193857985308139e-05,-8.213593309859546e-06,-2.145268489409536e-05,5.383305567299396e-05,5.315713261733488e-05
290.3838699747333,188.2163500392189,12.5,0,13.16623730643304,0.5930336373216916,-2.490653703781439,4.165753247072838e-05,-8.635282205717021e-06,-1.992522963025151e-05,5.277985732245613e-05,5.227348154918473e-05
283.9507440819262,184.921019512878,12.5,0,13.02654999883471,0.955483798837375,-2.822799876520956,4.092057295720117e-05,-7.363691842788168e-06,-2.258239901216765e-05,5.346869289518675e-05,5.393704706091079e-05
286.292571609707,185.3557587620212,12.5,0,12.88656598953924,0.749845785689697,-2.619277461671948,4.06371345379738e-05,-7.90974627742436e-06,-2.095421969337558e-05,5.22348672024344e-05,5.296786810182661e-05
284.0448478042381,186.9838289868624,12.5,0,13.48558224815616,1.077234570902966,-2.891934473125816,4.229207553737733e-05,-7.341315171635436e-06,-2.313547578500653e-05,5.561574978532212e-05,5.481766045530876e-05
286.3650909538185,187.4349630027291,12.5,0,13.33967530417319,0.868405497518725,-2.685765982816176,4.199223657533921e-05,-7.892842651278627e-06,-2.148612786252941e-05,5.434780837759014e-05,5.383884330060989e-05
284.1137365101488,188.4939103280892,12.5,0,13.54569472853657,0.8103312702820897,-2.553631206797768,4.269795811509135e-05,-8.243495717926569e-06,-2.042904965438215e-05,5.491411644530325e-05,5.542545916995119e-05
286.4181787982376,188.9570461461753,12.5,0,13.4077834417643,0.6195962751015305,-2.361490258195978,4.240922999356454e-05,-8.743518673086544e-06,-1.889192206556783e-05,5.374620755765968e-05,5.444102432746932e-05
284.2078402324606,190.5567198020736,12.5,0,13.98472132612273,0.9265971956339252,-2.618186905876106,4.400983048708559e-05,-8.222666034869621e-06,-2.094549524700885e-05,5.696655897309877e-05,5.620538274480199e-05
286.4906981423492,191.0362503868832,12.5,0,13.84100992616793,0.7328184261855433,-2.423512779883971,4.370497702278894e-05,-8.727788977140605e-06,-1.938810223907177e-05,5.576543199589971e-05,5.521523828948995e-05
176.3216591332699,81.10780570672401,12.5,0,-7.790849632051235,1.544181518263439,1.330972033661829,-2.61660640371747e-05,1.117406056408399e-05,1.064777626929463e-05,3.207789702724037e-06,3.183223509240965e-06
178.516904751193,81.28467592970408,12.5,0,-7.854823835933836,1.40563498787835,1.480572344547264,-2.625994426529095e-05,1.078189102995779e-05,1.184457875637811e-05,3.145729373924919e-06,3.221733623718057e-06
177.0452457849736,83.10799848870548,12.5,0,-7.419763162352513,1.678059979292947,1.23666547828359,-2.50856901029624e-05,1.130560246361944e-05,9.893323826268719e-06,3.236376520699102e-06,3.195500302551907e-06
179.2217253729629,83.29631951390772,12.5,0,-7.486915078539869,1.53712081424039,1.388512488595541,-2.518782490271989e-05,1.090831866840114e-05,1.110809990876433e-05,3.16568552269803e-06,3.237323947737468e-06
177.5749479776767,84.57224122998618,12.5,0,-7.202317037162537,1.688356098663913,1.318191525083794,-2.439809939785124e-05,1.116459314545455e-05,1.054553220067035e-05,3.235847749916851e-06,3.210732939291609e-06
179.7376898782989,84.76894482420212,12.5,0,-7.269386165139594,1.551129986354403,1.466662840538759,-2.450293971753022e-05,1.077912488844576e-05,1.173330272431007e-05,3.168875699713393e-06,3.2553346383792e-06
178.2985346293804,86.57243401196763,12.5,0,-6.829639384549021,1.822550784912562,1.223756353211763,-2.331288665848692e-05,1.129587401935942e-05,9.790050825694103e-06,3.280046564530571e-06,3.240072483488543e-06
180.4425105000689,86.78058840840575,12.5,0,-6.899991666548447,1.682898821492452,1.374505628421542,-2.342629239014899e-05,1.09052695620146e-05,1.099604502737233e-05,3.202674406523612e-06,3.288950436274497e-06
181.3209268331451,84.91294184919349,12.5,0,-7.168445931389847,1.810212024029719,1.197135684965314,-2.438719659967128e-05,1.152743522200698e-05,9.577085479722509e-06,3.310934451444919e-06,3.288012902653046e-06
183.4836687337673,85.10964544340945,12.5,0,-7.234194829682265,1.67839635958681,1.345564590078195,-2.449214054265269e-05,1.11582242144236e-05,1.076451672062556e-05,3.24065103833086e-06,3.33268988186856e-06
182.0120097675479,86.93296800241083,12.5,0,-6.792830398661079,1.941637991895828,1.1063597465558,-2.329036766923211e-05,1.164750589299551e-05,8.850877972446398e-06,3.361663424678563e-06,3.324912155654207e-06
184.1559856382365,87.14112239884898,12.5,0,-6.861829545383491,1.807502339992376,1.257014814762134,-2.340385641722107e-05,1.127347112428239e-05,1.005611851809707e-05,3.280538880723328e-06,3.374283447345335e-06
180.1239360785372,81.41415391926601,12.5,0,-7.766172216683422,1.661425109768027,1.212294400557062,-2.618089118120137e-05,1.152949812460442e-05,9.698355204456493e-06,3.27472121101618e-06,3.249947460921581e-06
182.3191816964602,81.59102414224608,12.5,0,-7.828812539681316,1.528307970288308,1.361846985364409,-2.627484650321086e-05,1.115363553666764e-05,1.089477588291527e-05,3.21009440849919e-06,3.28851898316427e-06
180.81501901294,83.43418007248336,12.5,0,-7.392226461503703,1.792531839536774,1.121621221175471,-2.508915014844126e-05,1.164988305572064e-05,8.972969769403772e-06,3.308038834435917e-06,3.267926173239218e-06
182.9914986009293,83.6225010976856,12.5,0,-7.458012742945887,1.657125813649805,1.273370139257717,-2.519134142834668e-05,1.126921279803609e-05,1.018696111406174e-05,3.234500217257701e-06,3.309709362952671e-06
268.728153970141,136.552259757513,12.5,0,3.542150491749186,3.196552799582081,-3.974108265213485,8.77763933393173e-06,7.395248565263308e-06,-3.179286612170788e-05,2.642704047628969e-05,2.588469620673808e-05
270.8513249499031,137.0230675258662,12.5,0,3.394914730214992,2.991206258561718,-3.786171146013967,8.4707621298386e-06,6.855928243225504e-06,-3.028936916811174e-05,2.506459996936179e-05,2.586821678587401e-05
268.6158528185522,138.5324609846568,12.5,0,3.961227795149134,3.292590655378658,-4.026730881657677,1.00418564201743e-05,7.367307861092399e-06,-3.221384705326142e-05,2.822807307734658e-05,2.744347321739322e-05
270.7522870576401,138.9757356683988,12.5,0,3.821233347381347,3.089846823474251,-3.840634439761541,9.756069252840908e-06,6.830523157212525e-06,-3.072507551809232e-05,2.690172038388846e-05,2.73788101417975e-05
272.4055939801787,137.3677227328843,12.5,0,3.782266052086805,2.914539072022651,-4.041131931333328,9.771620109059654e-06,6.300712188803039e-06,-3.232905545066662e-05,2.636694999318772e-05,2.583948760909341e-05
274.5287649599408,137.8385305012376,12.5,0,3.632375802865308,2.704935306387855,-3.850007608192924,9.4596543240587e-06,5.74989233814889e-06,-3.080006086554339e-05,2.49815918584253e-05,2.577747745932992e-05
272.3162654676157,139.3002352585932,12.5,0,4.198216417202282,3.011437234309611,-4.09523750464748,1.102514274759961e-05,6.278026016028927e-06,-3.276190003717984e-05,2.816578167580944e-05,2.731442536519028e-05
274.4526997067036,139.7435099423352,12.5,0,4.055730925042141,2.804544860730906,-3.906045506294506,1.073470307155013e-05,5.729958814305186e-06,-3.124836405035605e-05,2.681756747964191e-05,2.720318595985363e-05
272.5603155024996,134.0205128521534,12.5,0,3.11328288781217,2.858277416878301,-3.980081926014312,7.675883307496303e-06,6.655861423760824e-06,-3.184065540811449e-05,2.38621981483388e-05,2.331372582549606e-05
274.6605138432359,134.5390093219417,12.5,0,2.959725249788896,2.662615681005697,-3.795007393265132,7.341028254519909e-06,6.152589979387113e-06,-3.036005914612105e-05,2.25162092110652e-05,2.333106940260554e-05
272.4709869899366,135.9530253778623,12.5,0,3.518699467732214,2.953084632093095,-4.029678078249431,8.897370591068608e-06,6.634911248512131e-06,-3.223742462599545e-05,2.558790852850594e-05,2.476750339830615e-05
274.5844485899987,136.4439887630393,12.5,0,3.372472908963069,2.760048270078521,-3.846448653774617,8.583874692619003e-06,6.134176137080811e-06,-3.077158923019694e-05,2.427637442728343e-05,2.473994695484841e-05
268.9226652704378,133.1224506229511,12.5,0,2.854319621777155,3.118013732371971,-3.897989181404478,6.63941180378932e-06,7.694188246168583e-06,-3.118391345123582e-05,2.378245959889719e-05,2.322482508337654e-05
271.0228636111742,133.6409470927394,12.5,0,2.702067762220983,2.920851238014423,-3.715457750180128,6.309935848695606e-06,7.185069751869367e-06,-2.972366200144102e-05,2.243617245511838e-05,2.328525774595915e-05
268.810364118849,135.102651850095,12.5,0,3.262841939065609,3.211813296114402,-3.948014063362166,7.871643568118427e-06,7.667528996313597e-06,-3.158411250689733e-05,2.550989619718047e-05,2.475431284611243e-05
270.9238257189111,135.593615235272,12.5,0,3.117765278014592,3.017198427285294,-3.767270749903623,7.563090147818459e-06,7.160822744901266e-06,-3.013816599922899e-05,2.419689923572656e-05,2.477135272726878e-05
260.2331550498196,222.6605086316854,12.5,0,17.27189209118321,1.700226335200307,-1.327733186053383,5.390987362362601e-05,-8.376789400305583e-06,-1.062186548842707e-05,7.17017245524744e-05,8.408848671294924e-05
261.5122519253633,221.8836109053275,12.5,0,17.14600749858959,1.78154780663167,-1.396622260540971,5.344198575018134e-05,-8.015853017650327e-06,-1.117297808432777e-05,7.148335091593903e-05,7.924311742657207e-05
260.7044383139293,224.3872348845985,12.5,0,16.87652772669034,1.555453876551233,-1.221206244048729,5.276052562416811e-05,-8.523769776388329e-06,-9.769649952389835e-06,6.971946773601003e-05,8.186550051904269e-05
262.1408861044064,223.8597713704949,12.5,0,16.81179876011029,1.652973525306042,-1.301574230486721,5.247537721210808e-05,-8.159923727108897e-06,-1.041259384389377e-05,6.978664060372316e-05,7.681045982975306e-05
258.0176942736152,224.0061349659977,12.5,0,17.25196327407541,1.949559403404481,-1.67401439338599,5.364663495431772e-05,-7.562980528365987e-06,-1.339211514708792e-05,7.245643706558289e-05,9.865802873843825e-05
259.2967911491588,223.2292372396399,12.5,0,17.11101220847777,1.932133785867402,-1.759643553240681,5.320953203843493e-05,-7.505981652006525e-06,-1.407714842592545e-05,7.187479024031626e-05,8.929069651992374e-05
258.2164377584477,225.3008284901484,12.5,0,16.97281841834418,1.876601053633165,-1.649728344640836,5.281173809579482e-05,-7.573131363049213e-06,-1.319782675712668e-05,7.115382696730238e-05,9.747869648650023e-05
259.6528855489248,224.7733649760448,12.5,0,16.89209998526552,1.873674194341631,-1.73432578171349,5.255578059737637e-05,-7.5179225663192e-06,-1.387460625370792e-05,7.08483864661013e-05,8.740353784002106e-05
258.3619280870121,226.2486099300169,12.5,0,16.908934338206,1.290475851461698,-1.370747258622316,5.307620920108985e-05,-9.397624745887366e-06,-1.096597806897853e-05,6.903310546408788e-05,9.650116682120002e-05
259.9135647418331,225.9037449324214,12.5,0,16.86730630808455,1.294762210359346,-1.446287611483349,5.293957041758307e-05,-9.350605973317732e-06,-1.157030089186679e-05,6.889664084068847e-05,8.580393099706871e-05
258.5606715718446,227.5433034541675,12.5,0,16.71537583696902,1.239962037861367,-1.354102584416291,5.249723304801175e-05,-9.404422148418835e-06,-1.083282067533033e-05,6.813139484744885e-05,9.500983836151856e-05
260.2696591415989,227.4478726688263,12.5,0,16.70810534070897,1.252341104290411,-1.428034502717022,5.246406420683636e-05,-9.358992738837859e-06,-1.142427602173618e-05,6.815164584096155e-05,8.332088250970494e-05
261.0494416079998,225.6512862324402,12.5,0,16.72717583087166,0.9286364459159007,-0.8674839441631927,5.278405350205657e-05,-1.041010403776644e-05,-6.939871553305542e-06,6.715949226477808e-05,7.999384808717471e-05
262.6010782628207,225.3064212348448,12.5,0,16.70862245142138,1.075580561232519,-0.9535122546698236,5.260712739556239e-05,-9.925040165193041e-06,-7.628098037358588e-06,6.755112975221869e-05,7.481764220461311e-05
261.5207248721095,227.3780124853534,12.5,0,16.39013192710909,0.7939220587242768,-0.7604222564817735,5.181328451976967e-05,-1.057155495376959e-05,-6.083378051854188e-06,6.544079052358261e-05,7.71033847428907e-05
263.2297124418639,227.2825817000122,12.5,0,16.41568276873265,0.951571852368096,-0.8563378549161695,5.176892737805e-05,-1.008751628740821e-05,-6.850702839329356e-06,6.603381244165309e-05,7.180582079909957e-05
233.8277665507946,181.3919830326347,12.5,0,15.55961818078893,9.853284033097141,-2.898908143639727,4.190815095204685e-05,1.908281436127971e-05,-2.319126514911782e-05,9.277696181422162e-05,9.579183404226116e-05
235.957264599689,181.0861133218812,12.5,0,15.55300272677261,9.284691566451604,-2.55404372551403,4.234185547251107e-05,1.726861083122704e-05,-2.043234980411224e-05,9.069666102283407e-05,9.257328398703924e-05
234.0993911828208,183.8917882815703,12.5,0.03862982646867275,16.00481053098258,9.797225441646095,-3.060818689414483,4.51206148683516e-05,1.929254047933811e-05,-2.547046932543299e-05,9.805330384121382e-05,0.0001038785096168407
236.30476635742,183.4352861110494,12.5,0,16.70223694281966,9.665676265867173,-2.869715129481256,4.571461720432918e-05,1.756837449651922e-05,-2.295772103585005e-05,9.635911736048562e-05,9.883687798665708e-05
237.5161653660322,180.8622011531229,12.5,0,14.95657577037287,9.06163432215128,-3.157144273696641,4.061173500747217e-05,1.703196921458579e-05,-2.525715418957313e-05,8.78303713828506e-05,9.025626123579771e-05
239.6456634149265,180.5563314423696,12.5,0,14.88814108041355,8.464487882643761,-2.965309754006661,4.087046115120835e-05,1.517584836012919e-05,-2.372247803205329e-05,8.545305183988632e-05,8.714458741206561e-05
237.919213034909,183.1011033284769,12.5,0,15.54900708182078,9.308204062893582,-3.414145037395944,4.231025941151163e-05,1.734704733580283e-05,-2.731316029916755e-05,9.094941248206897e-05,9.538438172154257e-05
240.1245882095082,182.6446011579561,12.5,0,15.52038671947962,8.754810944163687,-3.24733301124841,4.266138874700382e-05,1.55990856457401e-05,-2.597866408998728e-05,8.887841069226851e-05,9.09936181420906e-05
236.8180663256778,176.984308832303,12.5,0,13.48030599854535,8.935191958617898,-3.424178865357868,3.598882562845079e-05,1.780836946874099e-05,-2.739343092286294e-05,8.199519434573868e-05,8.264056829088648e-05
238.8161413377214,176.9393421951313,12.5,0,13.33806291138708,8.29850306050168,-3.128694365175439,3.604299886803729e-05,1.588475946449571e-05,-2.502955492140351e-05,7.916254536040668e-05,8.1019682166159e-05
237.2211139945546,179.223211007657,12.5,0,14.307565481895,9.249703024381461,-3.717384397293623,3.838444712255884e-05,1.815299729250467e-05,-2.973907517834899e-05,8.623113840903447e-05,8.684156671866678e-05
239.2950661323031,179.0276119107178,12.5,0,14.22836969622711,8.667346845925643,-3.457017698469268,3.859690555118624e-05,1.635281414998037e-05,-2.765614158775414e-05,8.383250258906683e-05,8.447207932203818e-05
233.3572988875464,177.0621933325286,12.5,0,13.6072776392453,9.399556994507002,-3.169830436348386,3.602364284997935e-05,1.919276027102616e-05,-2.535864349078709e-05,8.402870625691789e-05,8.515572762958214e-05
235.3553738995902,177.0172266953569,12.5,0,13.5195281751356,8.974434945207346,-2.844091937088491,3.608294220426805e-05,1.790256928455502e-05,-2.275273549670793e-05,8.213221580074848e-05,8.374881833263462e-05
233.6289235195727,179.5619985814642,12.5,0,14.608476344295,9.69913984847032,-3.39151505579445,3.898781242296775e-05,1.935046643966902e-05,-2.71321204463556e-05,8.883030980239301e-05,9.077507972886737e-05
235.7028756573212,179.366399484525,12.5,0,14.58512999687783,9.3119071799024,-3.094334674991341,3.922289024608713e-05,1.812999897818541e-05,-2.475467739993073e-05,8.731430644532026e-05,8.853045058751713e-05
199.2893730651632,86.18383421098083,12.5,0,-7.047697345289784,2.290498017716851,0.5081689635096697,-2.438502991910078e-05,1.296775153292575e-05,4.065351708077358e-06,3.648388131591455e-06,3.64127911176398e-06
201.1456371298186,86.14075533533051,12.5,0,-7.06367673091678,2.199673373100499,0.6233053396930479,-2.436350423741409e-05,1.268989617865502e-05,4.986442717544383e-06,3.566448263355001e-06,3.670053237883269e-06
199.8122400315326,88.26590367063019,12.5,0,-6.695589774799395,2.402899488847835,0.4367979124758452,-2.334820687043633e-05,1.304575018415259e-05,3.494383299806761e-06,3.726051576779668e-06,3.720170795946863e-06
201.6373596123951,88.19063130904698,12.5,0,-6.706078034924357,2.31273842488655,0.5522431785144253,-2.330964045166718e-05,1.276562538757645e-05,4.417945428115402e-06,3.636098405927455e-06,3.75087491851193e-06
202.5045167373528,86.10921940962285,12.5,0,-7.059487663991579,2.349549475510092,0.3548583698290765,-2.447000010518112e-05,1.316614845282556e-05,2.838866958632612e-06,3.699479285333008e-06,3.690038936616106e-06
204.3607808020082,86.06614053397254,12.5,0,-7.073665121586425,2.265905866343799,0.4701721747156745,-2.44484530821516e-05,1.290983086956929e-05,3.761377397725396e-06,3.619163661059745e-06,3.715866754862017e-06
202.9734398754184,88.1355281159647,12.5,0,-6.717458094646596,2.455220329216472,0.2907910309089465,-2.346004216624228e-05,1.323067152920999e-05,2.326328247271572e-06,3.776733849557449e-06,3.772199990492377e-06
204.798559456281,88.0602557543815,12.5,0,-6.726130304239119,2.372241322940162,0.4065464639245626,-2.342141003191731e-05,1.297207647679981e-05,3.252371711396501e-06,3.689029069900868e-06,3.799757048055431e-06
201.6923180373932,82.59954977848271,12.5,0,-7.663235010968516,2.173812644140207,0.3928364633886514,-2.626140215041141e-05,1.308678847002347e-05,3.142691707109211e-06,3.602415252804719e-06,3.590575285716388e-06
203.6025259303522,82.61223165613991,12.5,0,-7.688430124033946,2.081142900027762,0.5152333762922947,-2.626789071693083e-05,1.2810401379316e-05,4.121867010338357e-06,3.524440121267363e-06,3.61293431802658e-06
202.1612411754588,84.62585848482453,12.5,0,-7.313204767640636,2.282450076369808,0.3264267593329603,-2.522821531754588e-05,1.315440405849589e-05,2.611414074663683e-06,3.65749636616353e-06,3.641372743647354e-06
204.040304584625,84.60634687654886,12.5,0,-7.33302721880999,2.190363092373284,0.4493079639067041,-2.521797757409059e-05,1.28755836706425e-05,3.594463711253633e-06,3.572298598547702e-06,3.665807755224566e-06
198.3837409138284,82.57758412204548,12.5,0,-7.669372726759764,2.115797158187603,0.5444829124419076,-2.623463045218133e-05,1.290604908760814e-05,4.35586329953526e-06,3.560596141122889e-06,3.548395425521251e-06
200.2939488067875,82.59026599970267,12.5,0,-7.696317898481702,2.016168533321696,0.6675200362282714,-2.62411521017988e-05,1.260879362541479e-05,5.340160289826171e-06,3.481874065715376e-06,3.573282141589725e-06
198.9066078801977,84.65965358169483,12.5,0,-7.306904763000668,2.231756027697224,0.4706197565314957,-2.516750006375992e-05,1.298714309903165e-05,3.764958052251965e-06,3.615788998118801e-06,3.595252039980313e-06
200.785671289364,84.64014197341913,12.5,0,-7.328449473596233,2.132723516802382,0.5940179199649925,-2.515721712894985e-05,1.268747483264461e-05,4.75214335971994e-06,3.529340890003828e-06,3.622467396726844e-06
173.7113737492811,84.2862880526483,12.5,0,-7.227593723005643,1.55720338488519,1.426795398358901,-2.43740626215262e-05,1.076512581003712e-05,1.141436318687121e-05,3.153277650024127e-06,3.132991216883475e-06
175.960201437622,84.44291373783093,12.5,0,-7.287983263958179,1.420148704201501,1.580238857494769,-2.445766540802737e-05,1.037486246461134e-05,1.264191085995815e-05,3.09507792230532e-06,3.17795111830359e-06
174.4302484177587,86.28603110953115,12.5,0,-6.863589953899843,1.686956158506503,1.33599900185921,-2.33130527792847e-05,1.088913167034068e-05,1.068799201487368e-05,3.187278411846605e-06,3.154199450491754e-06
176.6875538597913,86.43991778312738,12.5,0,-6.923099552962596,1.550712435895554,1.488627309937865,-2.339448851819675e-05,1.050075943723585e-05,1.190901847950292e-05,3.121343735862971e-06,3.203966065669883e-06
172.466246299226,80.82263147610634,12.5,0,-7.812233220791999,1.421316832428393,1.437868435758696,-2.613619977247711e-05,1.079800044040445e-05,1.150294748606957e-05,3.137362994580934e-06,3.117998976825878e-06
174.7003900874393,80.98400126851908,12.5,0,-7.874687062421487,1.279677048489987,1.591277220993556,-2.622274023854075e-05,1.039471620510515e-05,1.273021776794844e-05,3.080470469555003e-06,3.155427894379942e-06
173.1851209677037,82.82237453298919,12.5,0,-7.446166494340994,1.553139645996819,1.345120332197733,-2.507024449868863e-05,1.092698006266261e-05,1.076096265758186e-05,3.158891323328539e-06,3.123291329199382e-06
175.4277425096085,82.98100531381552,12.5,0,-7.507721291528633,1.412340349017377,1.497704644376271,-2.515458041210553e-05,1.052566615007851e-05,1.198163715501017e-05,3.095196958425347e-06,3.164945354504771e-06
168.5965957466957,80.54313079684566,12.5,0,-7.834153722969967,1.298510171556716,1.53776743803901,-2.610810005074926e-05,1.042255552735746e-05,1.230213950431208e-05,3.070078811856505e-06,3.054575392725041e-06
170.830739534909,80.7045005892584,12.5,0,-7.894199538585534,1.166993096054987,1.691580390651976,-2.619503300031769e-05,1.004973753824438e-05,1.353264312521581e-05,3.027492357009907e-06,3.09097563045363e-06
169.3007865150457,82.5476179609586,12.5,0,-7.466637105484824,1.426890068040549,1.449073109233327,-2.503475079198387e-05,1.053935790211761e-05,1.159258487386662e-05,3.083765478483367e-06,3.052743314266088e-06
171.5434080569506,82.70624874178493,12.5,0,-7.525794472563366,1.296161327345801,1.602069220372682,-2.511947137407941e-05,1.016835182555726e-05,1.281655376298145e-05,3.035576449878991e-06,3.093226883129238e-06
169.8162899356769,84.01500440814655,12.5,0,-7.24670512072357,1.423329238744281,1.529609679601569,-2.432811977731085e-05,1.035201766056055e-05,1.223687743681255e-05,3.071740463008945e-06,3.056572664995223e-06
172.0651176240179,84.17163009332918,12.5,0,-7.304901612996684,1.296251956747675,1.684520880512509,-2.441268672698753e-05,9.991927551989907e-06,1.347616704410007e-05,3.029866574075086e-06,3.100467958341972e-06
170.5204807040269,86.0194915722595,12.5,0,-6.878761087714773,1.550341243643849,1.442486386127315,-2.325230847560235e-05,1.046410084983213e-05,1.153989108901852e-05,3.096399365979567e-06,3.068866724206617e-06
172.7777861460594,86.17337824585574,12.5,0,-6.936082947113781,1.42402505818451,1.596584772221223,-2.33346854773117e-05,1.010574654388145e-05,1.277267817776978e-05,3.048216077572812e-06,3.117999691049822e-06
249.7942367589799,210.7098158585343,12.5,0.3478888281157826,16.25382148277716,6.550951917057109,-2.669500727017622,7.172314971402687e-05,1.220649068986402e-05,-3.27490261429423e-05,0.000128711978982933,0.000150678993596674
251.9913584694158,211.1113394709691,12.5,0.2340633824933621,18.63924111446591,6.589008455572038,-2.679172665164913,7.099068455408068e-05,8.059980454197687e-06,-2.798323102907866e-05,0.0001215022096810562,0.000129242939495188
250.1807732968798,212.3750243819626,12.5,0.366296128220792,16.61156782800474,6.743596179248119,-2.960044243929205,7.536980951705109e-05,1.308222007215167e-05,-3.736816990710171e-05,0.0001357039734616947,0.0001548328210545824
252.0991256985184,212.7889985769255,12.5,0.2653177330520452,18.71974788805211,6.581959161922239,-2.91075140782663,7.436905499190374e-05,8.284494238569454e-06,-3.169534955477921e-05,0.0001271144053510243,0.0001344960964696577
250.4637376815923,213.594041626257,12.5,0.3781153650564776,16.42831240260847,6.172669538934885,-2.645253700350082,7.659373038139947e-05,1.062880835302378e-05,-3.402886711411117e-05,0.0001339617694125428,0.0001576230620537569
252.1780167856091,214.0171302802139,12.5,0.2870552626854385,18.45506771506716,6.193849030650871,-2.698541781553715,7.588405472698512e-05,7.092082263029822e-06,-3.028051561716576e-05,0.0001277042446811093,0.0001384090878116024
250.8502742194922,215.2592501496852,12.5,0.3922390242911556,16.82742185324046,6.418456423681947,-2.980361595077835,8.015155091951887e-05,1.164458291343182e-05,-3.923070699433148e-05,0.0001410330923420435,0.0001610923147712793
252.2857840147116,215.6947893861702,12.5,0.315295310652276,18.47046129620116,6.189325581550261,-2.946883999307612,7.909105418014983e-05,7.345462799139254e-06,-3.443100706221162e-05,0.0001331072767896814,0.000143846421993357
253.4329561880496,214.3268526710031,12.5,0.213029482765077,16.62016574405195,5.32093515209021,-2.516618973854971,6.217231927722693e-05,4.740787373529263e-06,-2.558285393152761e-05,0.0001031199765012744,0.0001259329136609188
255.1472352920663,214.74994132496,12.5,0.1030410787270118,18.46468568034799,5.12866314430635,-2.391713759744096,6.130053713455865e-05,1.828370819005219e-06,-2.133175736832818e-05,9.753447521745605e-05,0.0001110613462378792
253.3366501195303,216.0136262359534,12.5,0.2527015165018678,16.84919795489006,5.271774217976684,-2.700434776973459,6.650624239008113e-05,4.536767046205061e-06,-2.890876763814772e-05,0.0001095864590030712,0.0001323249733100144
254.7721599147497,216.4491654724385,12.5,0.1585067683896738,18.37905764118918,4.886767148688308,-2.494351642327322,6.524540979110233e-05,1.110417443362092e-06,-2.371357533135707e-05,0.000102650790759783,0.0001180936829069088
253.5997631917991,211.4052751556976,12.5,0.1431113580189145,16.55853143407027,5.539230351646731,-2.458697089235379,5.666537508940313e-05,5.226714135991763e-06,-2.295464748885913e-05,9.527076417532709e-05,0.000116053926331933
255.796884902235,211.8067987681324,12.5,0.01485749718486573,18.51751039687327,5.128124940704369,-2.287301493204768,5.598533527872843e-05,1.620061552714126e-06,-1.857438075542246e-05,8.898732101225658e-05,0.00010145692636818
253.5034571232799,213.0920487206479,12.5,0.1835750897353975,16.68568748226391,5.457103946086805,-2.657906254452224,6.005269580822191e-05,5.03926642847442e-06,-2.604434255775757e-05,0.0001002952777295034,0.0001215730997632687
255.4218095249185,213.5060229156108,12.5,0.06408876460027624,18.52396896490125,4.907353154829132,-2.449333453232966,5.914109807665744e-05,9.449132461312071e-07,-2.093645944692066e-05,9.294683222622202e-05,0.0001066035407587924
215.8563075295681,182.0834977640527,12.5,0,15.49665302361355,10.69678838821535,-2.146927945497992,4.103185896499106e-05,2.183240042339827e-05,-1.717542356398393e-05,9.537812259737653e-05,9.752675392267833e-05
217.3699928472064,181.0280239592309,12.5,0,15.81098945204124,10.03361623252863,-2.078387897311756,4.256827326050906e-05,1.945878038245861e-05,-1.662710317849405e-05,9.419781807914356e-05,9.599000349826574e-05
217.1123683772638,183.4062867576805,12.5,0.03452237320448137,15.7031575124672,11.07913887299191,-2.521608159879125,4.286665148198917e-05,2.370921681486924e-05,-2.08941820288348e-05,0.0001010396206568746,0.0001034518689923857
218.6727112292182,182.2964799221339,12.5,0.01337693714089727,16.35274421711042,10.69971590251454,-2.516196583411892,4.436244237581973e-05,2.144374717234798e-05,-2.040249556802605e-05,9.995208417231995e-05,0.0001013098398113153
213.6807463240004,179.7923600194376,12.5,0,13.92080005144236,10.23125068183153,-1.569407279992214,3.636155961915034e-05,2.160336214070699e-05,-1.255525823993771e-05,8.783413231210694e-05,8.898455388923487e-05
215.1136184216486,178.8309937843588,12.5,0,14.12533507870386,9.660789397103763,-1.529262965889556,3.747244073416932e-05,1.961425800776895e-05,-1.223410372711645e-05,8.656557295316341e-05,8.810778025555221e-05
214.936807171696,181.1151490130654,12.5,0,14.54260207160699,10.90412709490384,-1.95965369257764,3.78130249532193e-05,2.325912504640669e-05,-1.567722954062112e-05,9.256524941082494e-05,9.365024852426314e-05
216.4163368036604,180.0994497472617,12.5,0,14.74524192940175,10.36377384506527,-1.925164070363177,3.889375509803338e-05,2.136788276068747e-05,-1.540131256290542e-05,9.139252659370562e-05,9.245252230198155e-05
211.1989390501705,181.4574951832454,12.5,0,14.18723375678915,10.13962470139193,-1.602499012094601,3.728744826061173e-05,2.109701203902286e-05,-1.281999209675681e-05,8.849642121854447e-05,8.983075988101442e-05
212.6318111478187,180.4961289481666,12.5,0,14.49151703770205,9.667451875299541,-1.497850416547452,3.863889302040694e-05,1.934263237079689e-05,-1.198280333237962e-05,8.794154311968406e-05,8.944622488843838e-05
212.3741866778761,182.8743917466162,12.5,0,14.9322570791399,10.7532792686508,-2.004895123653263,3.918059923832702e-05,2.246468799637063e-05,-1.60391609892261e-05,9.347279355128427e-05,9.487222682632528e-05
213.8537163098405,181.8586924808125,12.5,0,15.23194661778233,10.30616423306534,-1.908498957250716,4.049729779045117e-05,2.079416825158322e-05,-1.526799165800573e-05,9.298660783790073e-05,9.429860639746281e-05
213.2345276527949,183.9116320200293,12.5,0,15.77392403041627,10.85385431707277,-2.283852593344955,4.179347344367384e-05,2.211319459029986e-05,-1.827082074675964e-05,9.697843529739538e-05,9.914416702321715e-05
214.7482129704331,182.8561582152075,12.5,0,16.2016847690537,10.22645303723685,-2.153308425665148,4.366422883118234e-05,1.976330190391496e-05,-1.722646740532118e-05,9.633560208972389e-05,9.837190949195848e-05
214.4097752805005,185.3285285834,12.5,0.05647633571949029,15.77309777678336,10.97638920008955,-2.63655398655029,4.418840046521591e-05,2.385310307613953e-05,-2.235495800572898e-05,0.0001033008022440853,0.0001057738577432069
215.9701181324549,184.2187217478534,12.5,0.04595330320675639,16.35041388761949,10.52962573292063,-2.550677808616389,4.601202855331423e-05,2.160740276607015e-05,-2.138828480567894e-05,0.0001027356925889673,0.0001046479989921968
302.3291146207155,156.8126649369688,12.5,0,7.321200104435186,0.666571292814613,-3.586600895192249,2.28945832999409e-05,-3.723931946541387e-06,-2.8692807161538e-05,3.149202123734248e-05,3.189074267044483e-05
304.5371626351925,156.769605200309,12.5,0,7.288469278853324,0.5060282374340725,-3.435903092227204,2.291827910238338e-05,-4.211485063293626e-06,-2.748722473781763e-05,3.078138479524061e-05,3.1308861078542e-05
302.9285006982762,159.1592653916001,12.5,0,7.768639722346071,0.8203490532795619,-3.694031800137334,2.420336786888378e-05,-3.589794807382259e-06,-2.955225440109868e-05,3.368416123263927e-05,3.307636133314572e-05
305.1392442719788,159.1434315982387,12.5,0,7.730720569911493,0.657739073533014,-3.541816761595665,2.421211456489036e-05,-4.079811420623549e-06,-2.833453409276532e-05,3.294658363138411e-05,3.248915339261287e-05
303.3672817603814,160.8770961493813,12.5,0,7.998360659532405,0.5387642692264922,-3.440991674213051,2.51637426951225e-05,-4.674642866101149e-06,-2.752793339370441e-05,3.351255980115108e-05,3.392592087881605e-05
305.5799986203918,160.8811931297976,12.5,0,7.960205998254495,0.3889358358138322,-3.290192678671986,2.516151052576332e-05,-5.123570123999333e-06,-2.632154142937588e-05,3.282397950604375e-05,3.333570922129904e-05
303.9666678379421,163.2236966040124,12.5,0,8.440577927866338,0.6878358223723888,-3.542683836309777,2.645958071127437e-05,-4.551387710701425e-06,-2.834147069047822e-05,3.567273991879341e-05,3.506134205904033e-05
306.1820802571781,163.2550195277273,12.5,0,8.397267485678801,0.536008165922583,-3.390428363830877,2.64424494214341e-05,-5.002587857590775e-06,-2.712342691064702e-05,3.495740566789295e-05,3.446825044274067e-05
307.1998197846149,160.8841923276199,12.5,0,7.868265567534737,0.3894901865364118,-3.362465144271244,2.486685766688203e-05,-5.048243857111272e-06,-2.689972115416995e-05,3.252902210640809e-05,3.289787625878657e-05
309.4125366446253,160.8882893080362,12.5,0,7.834397953979578,0.2567238290698892,-3.21632892885375,2.486469438947874e-05,-5.446002110160017e-06,-2.573063143083e-05,3.19131263515806e-05,3.229190601744028e-05
307.803874707709,163.2779494993273,12.5,0,8.30434894036871,0.5328947934441022,-3.457366517001107,2.614760077442459e-05,-4.93821581327384e-06,-2.765893213600885e-05,3.464252766991988e-05,3.402938644537709e-05
310.0192871269451,163.3092724230422,12.5,0,8.265503333263156,0.3982640086260645,-3.309887506489041,2.613099945954125e-05,-5.337957839007118e-06,-2.647910005191233e-05,3.400129588469141e-05,3.342347932321573e-05
306.1535659672726,156.7380832853148,12.5,0,7.206616508983096,0.5089261513393699,-3.520274487673388,2.265403190767441e-05,-4.136729522900492e-06,-2.81621959013871e-05,3.054690406341825e-05,3.087885448879739e-05
308.3616139817495,156.695023548655,12.5,0,7.179098688657948,0.3706348897113589,-3.376591130281202,2.267660789193634e-05,-4.55724730385001e-06,-2.701272904224962e-05,2.992994415507182e-05,3.028593622987854e-05
306.7576208903667,159.1318404570222,12.5,0,7.640216337718557,0.6537525974724514,-3.618127271856077,2.392569020272142e-05,-4.020164758263001e-06,-2.894501817484862e-05,3.265118622026031e-05,3.205369376531887e-05
308.9683644640692,159.1160066636609,12.5,0,7.607776328208214,0.5135766574258396,-3.473076870891636,2.393402292432561e-05,-4.442775758803884e-06,-2.778461496713309e-05,3.20093027324444e-05,3.14512038793889e-05
279.642488720151,180.5982556648219,12.5,0,12.57468645526174,1.491406133932387,-3.253830066325995,3.904587174969167e-05,-5.287249535625756e-06,-2.603064053060796e-05,5.357660481867894e-05,5.40048440968438e-05
281.8745977448655,181.0358731895414,12.5,0,12.39999810754823,1.202512833974701,-3.025546302971995,3.871798367697458e-05,-6.071957417319541e-06,-2.420437042377596e-05,5.192527882370067e-05,5.306694780346067e-05
279.9460672702838,182.6551708245144,12.5,0,13.10575979795114,1.65806574064229,-3.374575592269375,4.06119787609298e-05,-5.178797468305581e-06,-2.6996604738155e-05,5.615850059946677e-05,5.494483469063984e-05
282.1513477431957,183.0945027058807,12.5,0,12.92699784451671,1.364942936758614,-3.142988248604238,4.027443875304656e-05,-5.9737808779858e-06,-2.514390598883391e-05,5.447540003819988e-05,5.398575329966252e-05
279.1166752472423,177.0355741014398,12.5,0,11.95069071852398,1.679781847429608,-3.476636624400581,3.689838482133305e-05,-4.18525066304444e-06,-2.781309299520465e-05,5.189794064173617e-05,5.224328032639034e-05
281.3952526867716,177.470222273345,12.5,0,11.76771110606199,1.36887418264056,-3.235695712564088,3.656157619328591e-05,-5.033771500399797e-06,-2.588556570051271e-05,5.01297500937425e-05,5.134755417747258e-05
279.4202537973751,179.0924892611323,12.5,0,12.49997793289289,1.852991346896224,-3.603771509348838,3.851753630774025e-05,-4.070410036246391e-06,-2.88301720747907e-05,5.457247936645167e-05,5.32809647866569e-05
281.6720026851018,179.5288517896842,12.5,0,12.31284666674643,1.537650360229235,-3.359419417615201,3.817098904540517e-05,-4.929796180663587e-06,-2.687535534092161e-05,5.277164545563162e-05,5.236004447921939e-05
275.1700633530681,176.2827413842967,12.5,0,11.9959427230451,2.124926391172771,-3.652794656002905,3.668707560080609e-05,-2.79698972668321e-06,-2.922235724802324e-05,5.355415040779717e-05,5.386743981638541e-05
277.4486407925975,176.7173895562018,12.5,0,11.79268353599549,1.758107723490317,-3.394759938328752,3.633010113639331e-05,-3.808202113627377e-06,-2.715807950663001e-05,5.151393043625149e-05,5.291848164833479e-05
275.5201103180158,178.3366871911749,12.5,0,12.58035439411348,2.320349131811976,-3.805060020532173,3.840085475571354e-05,-2.639166293492458e-06,-3.044048016425738e-05,5.644506398217219e-05,5.495828878622049e-05
277.7718592057425,178.7730497197267,12.5,0,12.37254505035486,1.94829945989513,-3.543294279200186,3.803350459321946e-05,-3.663477768619475e-06,-2.834635423360149e-05,5.436762831652824e-05,5.397716225043494e-05
275.7763624813819,179.8402798777389,12.5,0,12.65405169056101,1.922123325142303,-3.441349593595795,3.895526674968139e-05,-3.972446711993441e-06,-2.753079674876636e-05,5.53075262490297e-05,5.571858937746799e-05
278.0084715060964,180.2778974024583,12.5,0,12.4587259712139,1.577161640693255,-3.19556649547542,3.860619379532988e-05,-4.920063526752706e-06,-2.556453196380336e-05,5.338423940876011e-05,5.471534931519373e-05
276.1264094463295,181.894225684617,12.5,0,13.22165406895521,2.111220492578377,-3.587593484990798,4.062031662659398e-05,-3.821417678913364e-06,-2.870074787992638e-05,5.811140690821351e-05,5.670492025203406e-05
278.3316899192414,182.3335575659832,12.5,0,13.02183844645359,1.761212555519869,-3.338174147704532,4.02609129842356e-05,-4.781590579499293e-06,-2.670539318163625e-05,5.615154656310951e-05,5.567343327959052e-05
239.4668277291034,204.0579022289219,12.5,0.5398447164958018,18.03267457457353,9.220328262963259,-3.300445544310763,0.0001093724180346296,3.276917884544083e-05,-5.73796831222198e-05,0.00021702704941869,0.0002092468692838787
241.0167016141002,205.286602735143,12.5,0.5349551261623848,17.86726659659032,9.612554132125657,-3.239874856980546,0.0001064095372023556,3.540810978013185e-05,-5.573440395537999e-05,0.0002163026060546009,0.0002071940660145416
238.0203176136635,205.4589791537809,12.5,0.5917425170711981,16.53652274614896,8.6256300990218,-2.631735825172088,0.0001127140851855109,3.520522885910491e-05,-5.157011807925245e-05,0.0002255643118485143,0.0002338455710569499
239.5878370380312,206.7130888050816,12.5,0.5912127582690867,16.24657251347779,8.889571009783737,-2.55366725010041,0.0001097817413412397,3.779317856180883e-05,-4.997547847701914e-05,0.0002248233091467877,0.0002335652024148498
236.782367415013,201.9297305248996,12.5,0.5376752084869825,17.98608865679601,9.456745783696995,-3.216621040636958,0.0001081276366581827,3.433239115395057e-05,-5.565993603951283e-05,0.0002173583414280999,0.0002083310313950899
238.3322413000099,203.1584310311208,12.5,0.5405621790312156,17.72293940998625,9.847009822595389,-3.218193768387071,0.0001062946845579736,3.77245388021589e-05,-5.603707176916504e-05,0.0002195296860571881,0.0002095515182394092
235.3052943288562,203.2867975195047,12.5,0.5830734173675243,16.60927437048382,9.042038830795502,-2.634101464772602,0.0001101298138175737,3.752964050256207e-05,-5.054321934842105e-05,0.0002249832595977682,0.0002293407832486497
236.872813753224,204.5409071708053,12.5,0.5895958764271918,16.21507397570794,9.293534046886801,-2.613105194450868,0.0001083161862453111,4.085546125487892e-05,-5.09372112872991e-05,0.0002270974152539265,0.0002327136413529112
234.2240017833428,204.2802395087882,12.5,0.6109268783849526,17.81082256554307,9.563564012067076,-3.28892220061992,0.0001268239265546217,4.203514937832617e-05,-6.762579099717941e-05,0.0002575887135407023,0.0002444744122974111
235.8044386390565,205.5529499452632,12.5,0.6199548174649685,17.4479761887,9.937545871285923,-3.351544842454368,0.0001259941957096048,4.694643336390759e-05,-7.055045024064593e-05,0.0002635988824938736,0.0002498190518241875
232.746928697186,205.6373065033932,12.5,0.6433264562576084,16.56667602119758,9.333057872484673,-2.786564437059587,0.0001276991741297777,4.657604878872448e-05,-6.250117477896687e-05,0.0002654568597908983,0.0002648105039097255
234.3450110922707,206.9354260849478,12.5,0.6555441368365873,16.04322032089649,9.543000282292182,-2.816104237045673,0.0001268780981100663,5.139417423189374e-05,-6.540412373726243e-05,0.0002713564282787846,0.0002733897792045199
236.9613987155441,206.4846386480464,12.5,0.6240451989216719,17.85656004774002,9.37215385009535,-3.399117089546371,0.0001320458441554757,4.177535234838221e-05,-7.233033502531457e-05,0.0002653352276796742,0.0002523185734922004
238.5418355712578,207.7573490845215,12.5,0.6264357529688847,17.59349423989125,9.725928168605765,-3.397095091224521,0.0001298797714673325,4.563652673700716e-05,-7.274989763014588e-05,0.0002676830944854094,0.0002538027541573446
235.5148886001042,207.8857155729054,12.5,0.6620487411814626,16.41575358753565,8.885077381691563,-2.809560582451648,0.0001344050314638725,4.527174955604947e-05,-6.650806609861427e-05,0.000273913140074377,0.0002781890529427228
237.1129709951888,209.18383515446,12.5,0.6679882724080699,15.99479809336893,9.088910583477439,-2.778370230468287,0.000132261067253535,4.906054226028059e-05,-6.694631543577604e-05,0.00027619952915179,0.0002827216373406871
194.0496954542754,168.4748521409246,12.5,0,8.986615941680254,6.202981867178538,0.6663665860750503,2.379478551963398e-05,1.266024922162712e-05,5.330932688600402e-06,5.524388064605658e-05,5.512224480467919e-05
195.4355759971433,167.4509107243741,12.5,0,9.128785421182299,6.071194140263294,0.7117210143889903,2.435515803557272e-05,1.21247929118967e-05,5.693768115111922e-06,5.530904182021312e-05,5.500331542504622e-05
195.3243061793685,170.0344952041846,12.5,0,9.303625335447128,6.43209043063687,0.5081136091899564,2.462592872892131e-05,1.313978910968028e-05,4.064908873519651e-06,5.721648235203427e-05,5.771172344232062e-05
196.6666427840838,168.9677180160601,12.5,0,9.456198811431699,6.306889552322486,0.548736712790323,2.521432455472345e-05,1.261708751828659e-05,4.389893702322584e-06,5.734208425796005e-05,5.75354946086835e-05
196.4501109677006,166.701333583517,12.5,0,8.622219463853988,6.531131796761796,0.6250600321404881,2.236619684692332e-05,1.400184617855456e-05,5.000480257123904e-06,5.505895456973375e-05,5.487479625774326e-05
197.8359915105685,165.6773921669665,12.5,0,8.741539648280419,6.365045765679081,0.6542380971690703,2.288089026195407e-05,1.337491473154872e-05,5.233904777352563e-06,5.491100287144396e-05,5.464260474254317e-05
197.6493013795531,168.1867829140307,12.5,0,8.908173791061728,6.767450646644331,0.4701276953339827,2.309219561408206e-05,1.452930303641247e-05,3.761021562671862e-06,5.694377708657311e-05,5.73576939528253e-05
198.9916379842684,167.1200057259063,12.5,0,9.037374445173279,6.608418076928851,0.4943466053756388,2.363286376301141e-05,1.39170382900337e-05,3.954772843005111e-06,5.685620133632554e-05,5.704816236101804e-05
194.37305224646,164.1284598710442,12.5,0,7.943024784613392,6.091450483720839,0.779865229903336,2.054451892378618e-05,1.313822172021597e-05,6.238921839226688e-06,5.10060359877381e-05,5.078618144552237e-05
195.8343531025685,163.1787121872399,12.5,0,8.042694547013346,5.919366190922254,0.8164688508927482,2.10011295977049e-05,1.250781617334054e-05,6.531750807141985e-06,5.076520510215626e-05,5.066991386750117e-05
195.5722426583125,165.613909201558,12.5,0,8.216458005221297,6.317029448424716,0.631879583637643,2.123904205796837e-05,1.364132783078205e-05,5.055036669101144e-06,5.280272426380279e-05,5.311396478841522e-05
196.9899995762684,164.6213257461797,12.5,0,8.32544718765554,6.151572928215245,0.6638170456125262,2.172017265792553e-05,1.302467562016435e-05,5.310536364900209e-06,5.261834430994268e-05,5.293355820963349e-05
191.8420049185816,165.7734711137346,12.5,0,8.267873752364325,5.768607399710818,0.830369939594031,2.184231008779718e-05,1.184524467718316e-05,6.642959516752248e-06,5.106411637247962e-05,5.086586032536804e-05
193.3033057746901,164.8237234299303,12.5,0,8.386825183889149,5.628624221071944,0.8809935343342953,2.233494121158772e-05,1.13021373603189e-05,7.047948274674362e-06,5.101564999022923e-05,5.08386851406659e-05
193.1166156436747,167.3331141769945,12.5,0,8.568951205657747,5.98805515492051,0.679314564361807,2.263019973416838e-05,1.230661553121943e-05,5.434516514894456e-06,5.29394174977041e-05,5.328790131105484e-05
194.5343725616306,166.3405307216162,12.5,0,8.697652736892461,5.854283641328765,0.7254818504662155,2.314906184499286e-05,1.177558546273808e-05,5.803854803729724e-06,5.294729842596417e-05,5.320891073628165e-05
157.8312248774671,126.7900419373115,12.5,0,0.1059472333543411,1.628062848893957,1.943470828961635,-9.634191323812736e-07,5.125043329777187e-06,1.554776663169308e-05,8.077402153574529e-06,8.210321946649395e-06
159.4307217263615,126.1370426021777,12.5,0,0.1515749553134632,1.525919339560407,1.994652911161659,-7.356956146452434e-07,4.761681922342532e-06,1.595722328929327e-05,7.942394436774048e-06,8.222190940524431e-06
159.0505039835418,128.3625593844453,12.5,0,0.3107132223635719,1.765344530701494,1.84619506245145,-4.179933129977654e-07,5.400531920353923e-06,1.47695604996116e-05,8.982884203563228e-06,9.242438808533098e-06
160.6541503294521,127.7045365222579,12.5,0,0.3564956046958564,1.663810658413611,1.897025955994595,-1.902625917041487e-07,5.038997623166871e-06,1.517620764795676e-05,8.837772123579422e-06,9.25262476416444e-06
155.7193715171765,124.0663618231362,12.5,0,-0.3758012875875718,1.475805220878686,1.977157121383514,-2.383208296983178e-06,5.023217736881852e-06,1.581725697106811e-05,6.444208777594892e-06,6.6347538466399e-06
157.3116812264136,123.4220634920923,12.5,0,-0.3336674541614928,1.371985392365321,2.025958220689597,-2.165324167209034e-06,4.657287218898221e-06,1.620766576551677e-05,6.30823607253983e-06,6.652424167971272e-06
156.9386506232512,125.63887927027,12.5,0,-0.1762821688152137,1.61277206420074,1.880969970337905,-1.854320591569276e-06,5.301896340494539e-06,1.504775976270324e-05,7.206609647284244e-06,7.511594867017075e-06
158.5351098295042,124.9895574121725,12.5,0,-0.1339877162562894,1.509571847995336,1.929428441482434,-1.636418170416394e-06,4.937820086590105e-06,1.543542753185947e-05,7.056469149623293e-06,7.525469290637232e-06
152.9614101994421,125.1823192677159,12.5,0,-0.2135608440344967,1.31576518553596,1.981853873106206,-1.736006849339157e-06,4.381297268942668e-06,1.585483098484964e-05,6.354236613061032e-06,6.599641755139887e-06
154.5537199086792,124.538020936672,12.5,0,-0.1639687545764338,1.225100919177028,2.036604093042689,-1.504780749986211e-06,4.051497945027638e-06,1.629283274434151e-05,6.291219493538592e-06,6.620610841747604e-06
154.1735021658595,126.7635377189396,12.5,0,-0.004624371812708361,1.446026111558028,1.887058989636286,-1.171618879047089e-06,4.630983054435857e-06,1.509647191709029e-05,7.129173351505119e-06,7.482577543584757e-06
155.7699613721126,126.1142158608421,12.5,0,0.04511452028935092,1.355918588573907,1.941447016490217,-9.403684059332024e-07,4.302847867205021e-06,1.553157613192174e-05,7.055299042670219e-06,7.500102058032762e-06
155.0608150686855,127.9210699630516,12.5,0,0.2798277493050448,1.455113066128457,1.948749147541367,-2.686416551266224e-07,4.432499612167027e-06,1.558999318033093e-05,8.007911609109068e-06,8.184076845325665e-06
156.6603119175799,127.2680706279178,12.5,0,0.3307548295090274,1.365794963413688,2.003859981769207,-3.422051630206287e-08,4.10594001931658e-06,1.603087985415365e-05,7.941650292740393e-06,8.200109305620961e-06
156.2729070351029,129.5022884142754,12.5,0,0.4885328735981979,1.584205271103543,1.854515287135341,2.959409786313989e-07,4.678630568652779e-06,1.483612229708273e-05,8.909158184192616e-06,9.217672790792533e-06
157.8765533810133,128.8442655520879,12.5,0,0.5396003451685006,1.49543325902552,1.909265839903203,5.303744973187861e-07,4.353706152746863e-06,1.527412671922562e-05,8.834577564929919e-06,9.233073455494513e-06
280.3032512322129,187.6849055771417,12.5,0,13.7113519935956,1.15401244565475,-2.755619978715294,4.295311642298213e-05,-7.276241768781281e-06,-2.204495982972236e-05,5.667067337914313e-05,5.716651364738437e-05
282.4752466071087,188.1530412899684,12.5,0,13.55352505024128,0.9222397543813941,-2.553668732566664,4.263348835726699e-05,-7.891652826172565e-06,-2.042934986053332e-05,5.528968241555275e-05,5.615575183217934e-05
280.4205331970981,189.7233689693361,12.5,0,14.18436241792537,1.282789975854788,-2.838937794431861,4.436372775667736e-05,-7.242562011604975e-06,-2.271150235545489e-05,5.889909567033081e-05,5.79737975026843e-05
282.5813444375074,190.204934286495,12.5,0,14.02194452079166,1.048717387521352,-2.635209366197628,4.403124855651623e-05,-7.861659976565001e-06,-2.108167492958102e-05,5.749164602119373e-05,5.694453645822784e-05
280.1001129102237,184.1541834125553,12.5,0,13.16684852753325,1.313256876477321,-3.017931541450384,4.108330978692455e-05,-6.331056817299174e-06,-2.414345233160307e-05,5.518050950169375e-05,5.562323898479238e-05
282.2914797742883,184.5990583683535,12.5,0,13.00632388922587,1.067527151711456,-2.805992388071091,4.076621472415363e-05,-6.98897222590404e-06,-2.244793910456872e-05,5.373346798668109e-05,5.464855154458443e-05
280.217394875109,186.1926468047496,12.5,0,13.66062691699511,1.447852423176476,-3.106046180151182,4.255572419584316e-05,-6.295373779431363e-06,-2.484836944120945e-05,5.750799933336904e-05,5.653668339077273e-05
282.3975776046872,186.65095136488,12.5,0,13.49537878874044,1.199722627649211,-2.892254487128906,4.222543402185005e-05,-6.957190622514878e-06,-2.313803589703125e-05,5.603379258140841e-05,5.55405445287537e-05
276.3045541637091,183.3836373861117,12.5,0,13.2821196615435,1.732538472433403,-3.218433952630593,4.111675213899248e-05,-5.081572617447912e-06,-2.574747162104474e-05,5.70040299830986e-05,5.741788044934704e-05
278.4959210277738,183.8285123419099,12.5,0,13.10241462157084,1.436494061650853,-2.989790848856381,4.077853153970602e-05,-5.885150699973946e-06,-2.391832679085105e-05,5.531137481244021e-05,5.636527842837659e-05
276.4412076177632,185.3988400212776,12.5,0,13.80397592051463,1.878874775798897,-3.325222682355506,4.266962312500771e-05,-5.030781453855236e-06,-2.660178145884404e-05,5.948363795193608e-05,5.837939305769718e-05
278.6213903473414,185.857144581408,12.5,0,13.61915452254305,1.580024065520712,-3.094461304902841,4.231727521972119e-05,-5.839246608368162e-06,-2.475569043922272e-05,5.776073289396022e-05,5.729735056151374e-05
276.5412448891562,186.874070737703,12.5,0,13.85739316105175,1.562940750389338,-2.966211758510681,4.309330551505413e-05,-6.084504127595522e-06,-2.372969406808545e-05,5.857053205213935e-05,5.9042819253673e-05
278.713240264052,187.3422064505297,12.5,0,13.67947416654869,1.279790727394612,-2.746813357185074,4.275048475104013e-05,-6.848249005576195e-06,-2.197450685748059e-05,5.693837496819309e-05,5.794010103144372e-05
276.6778983432102,188.8892733728689,12.5,0,14.36011244952214,1.703842576999598,-3.068682707303835,4.458928577687118e-05,-6.035793713219002e-06,-2.454946165843068e-05,6.095828344385416e-05,5.989382071987801e-05
278.8387095836197,189.3708386900277,12.5,0,14.17718950363447,1.417974798520652,-2.847231831032068,4.423262657281377e-05,-6.804232247641486e-06,-2.277785464825655e-05,5.929639973634146e-05,5.876405583881869e-05
276.2677221731356,162.6379583933534,12.5,0,9.118220425756226,2.412878281184844,-4.061767795868307,2.724800273747204e-05,4.266341591865203e-07,-3.249414236694646e-05,4.391994283603152e-05,4.392594837292086e-05
278.6103742564112,163.0804135433998,12.5,0,8.896466555232628,1.998077038068185,-3.784597101035069,2.687023134628985e-05,-7.233267223679101e-07,-3.027677680828055e-05,4.16063008696403e-05,4.331463258720492e-05
276.722488364644,164.7400424043321,12.5,0,9.738728829061216,2.63817897853184,-4.240336591409068,2.905338907017042e-05,6.51189668052915e-07,-3.392269273127255e-05,4.704934511679112e-05,4.525458933464027e-05
279.0612135480097,165.1888851327919,12.5,0,9.514260093794123,2.221603110080762,-3.961881118103418,2.866834981207658e-05,-5.0227812277686e-07,-3.169504894482734e-05,4.471822697032028e-05,4.46010680433465e-05
272.2101297405181,161.8716035934163,12.5,0,9.012721219924794,2.867384618795185,-4.15784516934092,2.654680020872319e-05,1.965453804204757e-06,-3.326276135472736e-05,4.505895930200376e-05,4.497598236572662e-05
274.5527818237937,162.3140587434627,12.5,0,8.775753532088165,2.408121673479569,-3.868922990320035,2.615591396389847e-05,6.853865294640868e-07,-3.095138392256028e-05,4.25240325217841e-05,4.437110570440752e-05
272.6716975221865,163.962623994046,12.5,0,9.653296452463147,3.106812608421965,-4.352790883942214,2.84050985611445e-05,2.219163184979771e-06,-3.482232707153771e-05,4.831954088509047e-05,4.638735788762812e-05
275.0104227055522,164.4114667225057,12.5,0,9.413489756258715,2.645608340585873,-4.06248991854653,2.800668054755919e-05,9.351548848678202e-07,-3.249991934837224e-05,4.57665669445743e-05,4.573322425584855e-05
273.0095885894902,165.4933571669048,12.5,0,9.796973358672304,2.698193400840796,-4.081452841386477,2.919176002707873e-05,7.966401957527035e-07,-3.265162273109181e-05,4.737088676430835e-05,4.739520045260057e-05
275.3454390826059,165.9468759273003,12.5,0,9.557959860435501,2.246388691559553,-3.791291406956106,2.878836060014596e-05,-4.579240753578313e-07,-3.033033125564885e-05,4.486704585016513e-05,4.670524114584613e-05
273.4711563711586,167.5843775675345,12.5,0,10.44143815786784,2.937242361887308,-4.274301440656636,3.106280821566724e-05,1.046025031745113e-06,-3.419441152525309e-05,5.06457149705916e-05,4.873730202435142e-05
275.8030799643644,168.0442839063433,12.5,0,10.19955517045682,2.483507447883148,-3.982760054334496,3.065177058715531e-05,-2.12420303139383e-07,-3.186208043467597e-05,4.812304336680957e-05,4.799872212380648e-05
277.0554003223786,166.2788747020813,12.5,0,9.871627609086177,2.238516282351481,-3.959171713436839,2.979839532319458e-05,-7.340499837442047e-07,-3.167337370749471e-05,4.610122940986746e-05,4.620240520600094e-05
279.3912508154941,166.7323934624768,12.5,0,9.649737160748506,1.834764044471463,-3.682937181818312,2.941134767881805e-05,-1.848544786290122e-06,-2.946349745454649e-05,4.383747109732668e-05,4.551859117716826e-05
277.5101665138869,168.38095871306,12.5,0,10.49136258779976,2.461659074154526,-4.134087937780523,3.160303302163561e-05,-5.157810329453269e-07,-3.307270350224418e-05,4.922080235943168e-05,4.746324536116913e-05
279.8420901070926,168.8408650518688,12.5,0,10.26674855137081,2.056158761831851,-3.856578526231693,3.120866835492112e-05,-1.633690803234727e-06,-3.085262820985354e-05,4.69390391448568e-05,4.67388755398541e-05
278.5874695071259,103.500605699588,12.5,0,-2.650189525984914,1.916117957259909,-3.361092052797226,-1.001350084895965e-05,8.251729084019638e-06,-2.688873642237781e-05,6.2174159419662e-06,6.282512452602674e-06
280.7078031758003,103.742561785326,12.5,0,-2.759327952637496,1.665729298452854,-3.187766480119969,-1.016243288720227e-05,7.537796117159127e-06,-2.550213184095975e-05,5.392593161437381e-06,6.286716532807735e-06
279.1484853568589,106.0642005367822,12.5,0,-2.105197993347126,2.111751536589244,-3.513063659020944,-8.426034807982197e-06,8.44176331176328e-06,-2.810450927216756e-05,7.492317625256857e-06,6.986573743328287e-06
281.2638635501935,106.3128194360507,12.5,0,-2.216251409630851,1.860020089816009,-3.338760707020949,-8.580020582671529e-06,7.725065415115908e-06,-2.671008565616759e-05,6.530161313636435e-06,6.991103713744164e-06
274.914943864049,103.0815254658966,12.5,0,-2.814198084425544,2.063441210958246,-3.263669617130366,-1.065618683892834e-05,8.854370342606822e-06,-2.610935693704293e-05,6.212648188497603e-06,6.27226451351385e-06
277.0352775327233,103.3234815516347,12.5,0,-2.924477194836522,1.807947024812873,-3.090599684889554,-1.080468464332717e-05,8.125012235270408e-06,-2.472479747911644e-05,5.383941334176297e-06,6.278640045703999e-06
275.4845428488462,105.6335799715351,12.5,0,-2.272518476163075,2.260459935893746,-3.418027753931355,-9.080427072436837e-06,9.051486575790448e-06,-2.734422203145084e-05,7.466099669944713e-06,6.974113870616349e-06
277.5999210421807,105.8821988708036,12.5,0,-2.384716147814215,2.003596252433653,-3.2439693808532,-9.233968674952409e-06,8.319280926039063e-06,-2.59517550468256e-05,6.498069467595008e-06,6.982021328582799e-06
275.9015182456397,107.5018135332682,12.5,0,-1.97949472235073,2.129491436289677,-3.394139003969835,-8.037976260554078e-06,8.397968374007549e-06,-2.715311203175868e-05,7.518854073124019e-06,7.57238832176789e-06
278.0132687792499,107.755309950562,12.5,0,-2.095124997096865,1.864641394043817,-3.218140139059572,-8.196113105945021e-06,7.642952458617705e-06,-2.574512111247658e-05,6.496402089808304e-06,7.579784427071402e-06
276.471117230437,110.0538680389067,12.5,0,-1.428519853914225,2.331262206028963,-3.553572746909847,-6.436273297348691e-06,8.602854942424062e-06,-2.842858197527878e-05,9.14791717766587e-06,8.505055162151279e-06
278.5779122887074,110.3140272697309,12.5,0,-1.546123055526256,2.064992004859866,-3.376556054738254,-6.599587381571912e-06,7.844872859972575e-06,-2.701244843790604e-05,7.988761430752524e-06,8.509522300222697e-06
279.5591774626976,107.9408822075499,12.5,0,-1.813070389106711,1.968018604503055,-3.4851357762898,-7.376240128743921e-06,7.748115845695146e-06,-2.78810862103184e-05,7.523332831076893e-06,7.58348759047226e-06
281.6709279963078,108.1943786248437,12.5,0,-1.927285147448705,1.709478882153098,-3.308882890088637,-7.534895577558334e-06,7.012160540848878e-06,-2.64710631207091e-05,6.512746000098319e-06,7.586208715729053e-06
280.1201933124307,110.5044770447441,12.5,0,-1.258621145998427,2.168099260085811,-3.641644665266944,-5.762067075263614e-06,7.944814549073337e-06,-2.913315732213555e-05,9.170566555503879e-06,8.51022525795472e-06
282.226988370701,110.7646362755683,12.5,0,-1.374804581488352,1.908171133088098,-3.464386791625644,-5.925911567233205e-06,7.205991291072593e-06,-2.771509433300515e-05,8.026795179104697e-06,8.507678636122839e-06
144.3718538243152,103.969796620186,12.5,0,-3.796901101078846,0.7645350794602748,2.088300940147784,-1.276171158702052e-05,5.484033135135956e-06,1.670640752118227e-05,2.452996583713881e-06,2.467038904269264e-06
146.1236691532677,103.4137997337363,12.5,0,-3.756713799538904,0.6803159265555003,2.153517326509907,-1.256573689976889e-05,5.182382004608724e-06,1.722813861207926e-05,2.429640607296618e-06,2.52153033451098e-06
145.4372021593066,105.6232111991159,12.5,0,-3.581232021211314,0.8774534321256713,2.003363878011518,-1.216190521357674e-05,5.672836599771199e-06,1.602691102409214e-05,2.506246063967936e-06,2.547601990798546e-06
147.1115297704453,105.0718174306812,12.5,0,-3.537160558613469,0.7910514074682118,2.070296999676811,-1.195175491353767e-05,5.361092950789052e-06,1.656237599741449e-05,2.478987907557058e-06,2.600693204994007e-06
147.4060869794845,103.0067817640223,12.5,0,-3.968722827933451,0.8801009021960455,2.056430331456256,-1.340399377114388e-05,5.991301149374105e-06,1.645144265165004e-05,2.536863741310393e-06,2.561209073565224e-06
149.157902308437,102.4507848775726,12.5,0,-3.920168603981671,0.8144755398686279,2.128428124477143,-1.319611996463625e-05,5.742456610764946e-06,1.702742499581714e-05,2.533611077413472e-06,2.615121974404578e-06
148.3372226502622,104.6681691772273,12.5,0,-3.744163713019212,0.9788035852429882,1.981242625080868,-1.276436674985587e-05,6.127502443192931e-06,1.584994100064694e-05,2.586415114720126e-06,2.639237143963626e-06
150.0115502614008,104.1167754087925,12.5,0,-3.691216170444928,0.9115607260365128,2.055370521943822,-1.254114032625298e-05,5.869967259672783e-06,1.644296417555057e-05,2.582341908737993e-06,2.691449929361475e-06
145.7933126889868,100.1291743533478,12.5,0,-4.448691744697935,0.7975349053425298,2.061684915523412,-1.487384150730741e-05,6.111065092854443e-06,1.649347932418729e-05,2.462844107320545e-06,2.465629224322778e-06
147.6793406821531,99.56520463262304,12.5,0,-4.399631444096375,0.7261190162431597,2.14118573788483,-1.465971583410293e-05,5.84328600725521e-06,1.712948590307864e-05,2.456815997063029e-06,2.521297502377135e-06
146.7244483597645,101.7905617665526,12.5,0,-4.221260717715031,0.8968545637212499,1.985960041012795,-1.42255179476651e-05,6.246943178080024e-06,1.588768032810236e-05,2.494803010160011e-06,2.514690971699259e-06
148.5329886351169,101.2311951638429,12.5,0,-4.168048994759355,0.8237134593195978,2.067730913346753,-1.399672755068561e-05,5.970322265630196e-06,1.654184730677402e-05,2.487442023644341e-06,2.569529769005347e-06
142.5266163803843,101.1059985635559,12.5,0,-4.274280054689189,0.6774842056358503,2.094262765758224,-1.421968353951408e-05,5.587373501786072e-06,1.675410212606579e-05,2.372392128849181e-06,2.370181057162361e-06
144.4126443735506,100.5420288428311,12.5,0,-4.234548679882899,0.5828154864290163,2.16655836728329,-1.401680816476849e-05,5.25264850047917e-06,1.733246693826632e-05,2.34458498816755e-06,2.425137694865677e-06
143.5919647153757,102.7594131424857,12.5,0,-4.054415702856044,0.7931506010515221,2.007366634390819,-1.360865072998056e-05,5.781614485649705e-06,1.605893307512655e-05,2.408500730491242e-06,2.419499108382552e-06
145.4005049907282,102.200046539776,12.5,0,-4.011027882654021,0.6960763056323218,2.081513449313288,-1.339215026899872e-05,5.436266484146646e-06,1.665210759450631e-05,2.376321761525517e-06,2.474490377346724e-06
241.3717662899467,216.2147042172566,12.5,0.721872282904384,16.12971466961219,8.035094158428418,-3.198338234442687,0.0001624685669155429,4.605269012752803e-05,-9.199624597912759e-05,0.000318747610450734,0.0003318081626660172
242.5021231776508,215.388583433663,12.5,0.6894200851048951,17.76903713228259,8.591986288701301,-3.745816760757745,0.0001609483659277385,4.275590848333826e-05,-9.648574376157853e-05,0.0003117563427956453,0.0003003879249227584
242.4516036089273,217.6013240974148,12.5,0.7243793241131296,15.81483296433967,8.203944184076077,-3.243617026612976,0.0001598004576286005,4.934591707900097e-05,-9.414727733834689e-05,0.0003195296859958882,0.0003345129012009646
243.8143088658493,216.8890466583238,12.5,0.6866332739123413,17.77289264094906,8.939565569663168,-3.842857014846297,0.0001586690604202749,4.591519938890393e-05,-9.81050429399151e-05,0.0003129166523184834,0.0002979662748253529
239.4139307297929,217.6455873876035,12.5,0.7655951692528427,15.97178572710793,8.556586740287184,-3.301861680337136,0.0001888375968764134,6.23009728113709e-05,-0.0001126892025155818,0.0003834629479817029,0.0003863374654530301
240.544287617497,216.8194666040099,12.5,0.7419889432206019,17.54318172648883,8.801026982050233,-3.747957917789618,0.0001902916896352345,5.476021507655731e-05,-0.0001162107690910055,0.000374788991170871,0.0003548382726402128
240.0913288682396,218.8350248109834,12.5,0.7737330647558001,15.67443041032943,8.661783196992062,-3.460276130425651,0.0001910520010747732,6.708077733819096e-05,-0.0001223431475461893,0.0003941430267543644,0.0003985448995052986
241.4540341251616,218.1227473718924,12.5,0.7472977295835214,17.43439816650744,9.059462574015999,-3.926307011967789,0.0001920936602334759,5.95276080379225e-05,-0.0001242982741863567,0.0003847590892139838,0.0003614628624589502
240.5872187225141,219.7057534372843,12.5,0.7791293148230938,15.65782273003032,8.276959291047651,-3.454142217534589,0.0001968729588013495,6.320445620090764e-05,-0.0001251100286040403,0.0003974631081366546,0.000407077988937887
242.1200147907521,219.0768151104691,12.5,0.7503175993623457,17.61018586980082,8.489668064175508,-3.919896398885595,0.0001984956096442946,5.238170201872277e-05,-0.0001255962419097132,0.00038419286568693,0.0003653435779178502
241.2646168609609,220.8951908606641,12.5,0.7858196238117923,15.50308672617446,8.442133751358956,-3.634616272484451,0.0002000938241186574,6.822454457997918e-05,-0.0001357590769862347,0.0004100750896186597,0.00041818338876197
243.0297612984167,220.3800958783515,12.5,0.7533466261643789,17.72834195684714,8.871788861624562,-4.161574430191508,0.0002012267758627483,5.759925587390906e-05,-0.0001349772554245273,0.0003962797837030693,0.0003693212999029961
243.2420993902964,218.6164003004326,12.5,0.7248395917626371,15.77788146318432,7.324288930272722,-3.159301019168988,0.000162195534684163,3.930587062145764e-05,-9.185336042803559e-05,0.000308510915089335,0.0003350142913902091
244.7748954585344,217.9874619736174,12.5,0.6818351884025788,17.92423597901458,7.798922683579653,-3.898134493835828,0.0001606664694606889,3.337001270171036e-05,-9.801547755741632e-05,0.0002977647499199564,0.0002938875506558934
244.3219367092771,220.0030201805908,12.5,0.7236110827557181,15.62540119240031,7.67703797740969,-3.272056566415096,0.0001586881770479552,4.365660061226781e-05,-9.470876326124586e-05,0.0003095491421044645,0.0003336793763267527
246.0870811467329,219.4879251982782,12.5,0.6711125719011699,18.30842318252026,8.447379852109133,-4.120390723161296,0.000157589028568167,3.765688780603491e-05,-0.0001002261654567866,0.0002993305658801111,0.0002851659190918026
242.0045495738651,183.8907267225155,12.5,0,15.56912293614707,8.405028486324781,-3.212993387766288,4.309717060661079e-05,1.444079280732164e-05,-2.57039471021303e-05,8.783994211255137e-05,9.079386672658382e-05
243.9026601916808,183.8892250857854,12.5,0,15.40704225147016,7.755181033538476,-3.02045810575016,4.309839037787373e-05,1.249094550614699e-05,-2.416366484600128e-05,8.494793775683463e-05,8.790612097161888e-05
242.5040860676836,185.7122242907564,12.5,0,16.11792999323429,8.706434158013071,-3.504430146933791,4.461222865193926e-05,1.496624531105439e-05,-2.803544117547033e-05,9.099783852693171e-05,9.397206840965801e-05
244.3299887806713,185.6892755484953,12.5,0,15.95670458608754,8.036502710523349,-3.308447277184897,4.463225250706145e-05,1.295144500480469e-05,-2.646757821747918e-05,8.803766790827541e-05,9.060969644637159e-05
242.869772161378,187.0456530565152,12.5,0,16.39477656859498,8.470154726810142,-2.870114271231642,4.568716123805582e-05,1.398867387091647e-05,-2.296091416985314e-05,9.106883092910729e-05,9.650786394420824e-05
244.6428150193258,187.0070039433307,12.5,0,16.24874426812401,7.858006798991845,-2.74659645496798,4.570957621880336e-05,1.214662634227469e-05,-2.197277163974384e-05,8.839003962838608e-05,9.271118743089531e-05
243.3693086551965,188.8671506247561,12.5,0.002658246768515893,16.75560920701292,8.714628393688141,-3.141479092046362,4.677057447595315e-05,1.452092369267364e-05,-2.519881741132497e-05,9.356668872639749e-05,0.0001002575844994261
245.0701436083163,188.8070544060405,12.5,0,16.65388263059608,8.105292226697744,-3.025199256640571,4.680819063654926e-05,1.261382902095591e-05,-2.420159405312457e-05,9.081456225523186e-05,9.574899209775342e-05
245.9407724752856,186.9787108288134,12.5,0,16.03039067959463,7.680077107458787,-3.164323202957994,4.515318848873577e-05,1.175193420019241e-05,-2.531458562366395e-05,8.705435648323495e-05,9.019260365663861e-05
247.7138153332334,186.9400617156289,12.5,0,15.88810996034489,7.08320874306283,-3.041933830013384,4.517538487865336e-05,9.955780009525145e-06,-2.433547064010708e-05,8.44518203361392e-05,8.710838133527112e-05
246.3152412092361,188.7630609205999,12.5,0,16.41335503597956,7.89746676824609,-3.423772025498662,4.62047627005377e-05,1.214120962960384e-05,-2.73901762039893e-05,8.929520780963397e-05,9.282697989004613e-05
248.016076162356,188.7029647018843,12.5,0,16.27055792416805,7.279635493880456,-3.299991607307506,4.62420769622334e-05,1.027838724108302e-05,-2.639993285846005e-05,8.661780309819676e-05,8.935248647958653e-05
245.2921736022489,183.8881258114046,12.5,0,15.2718269174192,7.616185396570911,-3.448562421665228,4.277689781848472e-05,1.215433173509155e-05,-2.758849937332182e-05,8.407242215491224e-05,8.591865105767244e-05
247.1902842200646,183.8866241746746,12.5,0,15.12476216926713,7.026508448662936,-3.269503893427945,4.277803218272447e-05,1.038501730030769e-05,-2.615603114742356e-05,8.1455359231118e-05,8.337652802899031e-05
245.6666423361994,185.672475903191,12.5,0,15.76194087892084,7.850466121019461,-3.697788961709483,4.415783791573112e-05,1.25119388841256e-05,-2.958231169367586e-05,8.677356952482513e-05,8.834152252501306e-05
247.4925450491872,185.6495271609299,12.5,0,15.61556986368025,7.241669152545231,-3.515177916681221,4.417648824174059e-05,1.068088539720054e-05,-2.812142333344977e-05,8.409205721650412e-05,8.550712809448176e-05
124.0985402968866,83.19216465266389,12.5,0,-7.123264146840619,0.1083806875333979,2.119488114804982,-2.28811498199167e-05,6.045429517579368e-06,1.695590491843986e-05,2.303443204137447e-06,2.270876031924977e-06
125.6101959687956,82.66932763280545,12.5,0,-7.143164240468121,-0.09186430317165395,2.127354317687196,-2.278463412696066e-05,5.420565622225203e-06,1.701883454149757e-05,2.187287386846804e-06,2.304330052835621e-06
125.661553138974,84.51633299420656,12.5,0,-7.00944897047675,0.3066503552971702,2.031607079151016,-2.267555698976334e-05,6.588840313332344e-06,1.625285663320813e-05,2.371752279773704e-06,2.258190372340456e-06
127.3411911249149,83.87010253096219,12.5,0,-7.023130502428335,0.139169519350391,2.035665007924707,-2.258535322325098e-05,6.063846863863919e-06,1.628532006339766e-05,2.266338315709445e-06,2.297689834250735e-06
121.3913226415572,80.89863780737895,12.5,0,-7.444913634677023,0.05977655474833088,2.092845150559794,-2.387154487476514e-05,6.147215882936277e-06,1.674276120447835e-05,2.317602634383261e-06,2.293365490230145e-06
122.6120244107951,80.58952450078198,12.5,0,-7.466616614733318,-0.1125756109645657,2.109717324765369,-2.380311267837496e-05,5.613051336700043e-06,1.687773859812295e-05,2.22467257200062e-06,2.317355153968537e-06
122.9543354836446,82.22280614892165,12.5,0,-7.321822533992887,0.2606008135584603,2.000806188414469,-2.363831275962401e-05,6.691380630581382e-06,1.600644950731575e-05,2.382541346575911e-06,2.280301176356896e-06
124.3430195669144,81.79029939893873,12.5,0,-7.334766788672948,0.1260771335485862,2.011018469538119,-2.35721154305923e-05,6.271260258293833e-06,1.608814775630495e-05,2.302833283226545e-06,2.309599359372741e-06
119.2770051563861,81.43403775969094,12.5,0,-7.385409374224629,-0.007946756254370912,2.109972143136843,-2.362695259251531e-05,5.882897879365715e-06,1.687977714509474e-05,2.272921387820673e-06,2.250352705665551e-06
120.4977069256239,81.12492445309394,12.5,0,-7.391871365114994,-0.1655994726235397,2.146217341868425,-2.352150879026915e-05,5.383578779696667e-06,1.71697387349474e-05,2.196420786297479e-06,2.275412238317011e-06
120.5490640958024,82.97192981449508,12.5,0,-7.208945476520539,0.1676529772339022,2.002527900894824,-2.320274790665284e-05,6.303645908364917e-06,1.602022320715859e-05,2.302631542442041e-06,2.228333280566811e-06
121.9377481790721,82.53942306451216,12.5,0,-7.207637880470108,0.04200706709680113,2.028855669364372,-2.309804687118178e-05,5.900532919085849e-06,1.623084535491497e-05,2.235128244822176e-06,2.258525996169481e-06
121.4802758696377,84.09774493512036,12.5,0,-6.983978261311229,0.06168154235353729,2.090234479210829,-2.239807567007876e-05,5.784563544580302e-06,1.672187583368663e-05,2.236076832506271e-06,2.211861842070157e-06
122.9919315415466,83.57490791526192,12.5,0,-6.96897561459801,-0.07847359179014624,2.128198408787247,-2.223794309328151e-05,5.324064997949939e-06,1.702558727029798e-05,2.165517270328188e-06,2.246099249525592e-06
122.752334809054,85.63563698992452,12.5,0,-6.823253683420321,0.2046800340033159,1.999163951452941,-2.199815581414768e-05,6.113579055546867e-06,1.599331161162353e-05,2.256710813793429e-06,2.188880460320379e-06
124.4319727949949,84.98940652668011,12.5,0,-6.805337621198944,0.08639760011988673,2.029640905709841,-2.184619846793253e-05,5.720742417342792e-06,1.623712724567873e-05,2.192035020076539e-06,2.229034988467789e-06
182.9429323837453,159.2340882848589,12.5,0,6.561785234546148,4.352168636163562,1.213795232096146,1.751597784161683e-05,8.677511448086477e-06,9.710361856769172e-06,3.981494329707351e-05,3.965825635961231e-05
184.5187967182271,158.3622315715089,12.5,0,6.674245687814847,4.263915497422995,1.285302282718879,1.794645380306911e-05,8.305133041501707e-06,1.028241826175103e-05,3.993608793075184e-05,3.973447632950973e-05
184.1395062428624,160.8212621429251,12.5,0,6.847391811636939,4.512185706418722,1.092714249053479,1.830190523210322e-05,8.961080811230359e-06,8.741713992427833e-06,4.141192842741827e-05,4.16696495676995e-05
185.7086981381334,159.9513675452992,12.5,0,6.96048518512807,4.423732575085934,1.164389964600031,1.873456653234107e-05,8.587556092172531e-06,9.31511971680025e-06,4.153315814120568e-05,4.176529138602699e-05
180.870405664783,156.4850225222923,12.5,0,5.938319120790441,4.042173202154674,1.314249666053959,1.576888262480567e-05,8.184298950262604e-06,1.051399732843167e-05,3.644330484547144e-05,3.629463811776658e-05
182.4578270029882,155.6097673248182,12.5,0,6.043826607277311,3.954483501124312,1.381538711844884,1.617665834238794e-05,7.819285917775947e-06,1.105230969475907e-05,3.654115524718739e-05,3.633846311150532e-05
182.0669795239,158.0721963803586,12.5,0,6.208506433235334,4.195948747818592,1.198614302675051,1.651046158809819e-05,8.460230846431228e-06,9.588914421400406e-06,3.795634148536455e-05,3.821802638233956e-05
183.6477284228944,157.1989032986085,12.5,0,6.314605680050867,4.10805757891025,1.266059760645283,1.692029211303457e-05,8.094099708472104e-06,1.012847808516226e-05,3.805408655291024e-05,3.828036207593451e-05
178.120911254042,158.0010089938791,12.5,0,6.199793958408698,3.734138099032265,1.326373390878645,1.685203018768202e-05,6.989406750176289e-06,1.061098712702916e-05,3.633458262136864e-05,3.615195055032868e-05
179.7083325922472,157.1257537964049,12.5,0,6.305089484749821,3.653438328328722,1.39379422582367,1.725353568853645e-05,6.646931062852051e-06,1.115035380658936e-05,3.646100489139465e-05,3.624466222762259e-05
179.3290421168825,159.5847843678212,12.5,0,6.464446730083118,3.88198700782898,1.214065186320147,1.758063993000279e-05,7.250801040986242e-06,9.712521490561174e-06,3.780726026125534e-05,3.804755949118557e-05
180.9097910158768,158.711491286071,12.5,0,6.570328218039829,3.801106927271607,1.281645255403786,1.798416475591016e-05,6.907279592837279e-06,1.025316204323029e-05,3.79335441838713e-05,3.815564711776214e-05
180.2134552906362,160.7441884092738,12.5,0,6.796263858384934,4.026997056901934,1.215297509775643,1.852644670131024e-05,7.44937949537824e-06,9.722380078205141e-06,3.954605629548432e-05,3.946566681432751e-05
181.7893196251179,159.8723316959239,12.5,0,6.917498970882058,3.951323633844161,1.293173271157895,1.897493779974725e-05,7.110236451595667e-06,1.034538616926316e-05,3.974964075929851e-05,3.958622906710367e-05
181.4215861534767,162.3279637832159,12.5,0,7.090347177380511,4.182003427083633,1.094660205654591,1.934350822595073e-05,7.710133224763218e-06,8.757281645236726e-06,4.115750800138851e-05,4.144439913104459e-05
182.9907780487476,161.4580691855899,12.5,0,7.212253031976451,4.106172475679703,1.172728068497467,1.979427172178088e-05,7.369949496593888e-06,9.381824547979737e-06,4.136127808519233e-05,4.158366674712223e-05
307.0271265515534,218.4532187952906,12.5,0,14.40958321997451,-0.1505750441275082,-0.1699167396771864,4.623112633922043e-05,-1.200950671718763e-05,-1.359333917417491e-06,5.49211202697569e-05,5.489388795777762e-05
309.0883462828972,217.9205006188955,12.5,0,14.39641406762889,-0.1999701956038846,-0.1759524953980562,4.622850117289555e-05,-1.215703588003554e-05,-1.407619963184449e-06,5.472191163055092e-05,5.446116241751201e-05
308.1258553460985,220.6922301492487,12.5,0,14.41245030620534,-0.1253550555519971,-0.1892151751882085,4.622012502429867e-05,-1.193109642273066e-05,-1.513721401505668e-06,5.500855376978888e-05,5.51959976680276e-05
310.3215063787626,220.2270824665236,12.5,0,14.39970354834405,-0.173706984133684,-0.1942863251945298,4.621801694200791e-05,-1.207562518790303e-05,-1.554290601556239e-06,5.481398646032099e-05,5.481045572706695e-05
303.4569892513666,219.3759137429058,12.5,0,14.59604218648984,-0.1508162852442636,-0.1028594612178083,4.682798802496288e-05,-1.215944586197351e-05,-8.228756897424663e-07,5.563586878538329e-05,5.561943541629165e-05
305.5182089827103,218.8431955665106,12.5,0,14.58499713941823,-0.1843499979969714,-0.1101600803373972,4.681947084453591e-05,-1.225791770512489e-05,-8.812806426991776e-07,5.549251475401112e-05,5.520424627240574e-05
304.3228762019017,221.4978895687372,12.5,0,14.58820520275488,-0.1398889972577009,-0.1137664854657995,4.679416784662176e-05,-1.211820895342854e-05,-9.101318837263957e-07,5.563881945517007e-05,5.583819278864189e-05
306.5185272345657,221.032741886012,12.5,0,14.57794858980013,-0.1724176703834113,-0.1203169063160141,4.678736962366713e-05,-1.221409541706702e-05,-9.625352505281126e-07,5.550148741213186e-05,5.547137898369956e-05
304.9567494432774,223.0512836856126,12.5,0,14.6626796618951,-0.1160139754063052,0.00106579163968942,4.701338609838936e-05,-1.210138845081626e-05,8.526333117515363e-09,5.599627918983085e-05,5.601683456692155e-05
307.2508110186312,222.6356010373443,12.5,0,14.65762525422953,-0.1568715557339586,0.009586765696692262,4.702989805812166e-05,-1.222808918173229e-05,7.669412557353809e-08,5.585368495743662e-05,5.568970157672047e-05
305.8226363938126,225.1732595114439,12.5,0,14.69466835362858,-0.09311562223583492,-0.01782807007474603,4.709743122940013e-05,-1.205370467405754e-05,-1.426245605979683e-07,5.618832383398325e-05,5.62861356092065e-05
308.2511292704867,224.8251473568455,12.5,0,14.68862550147676,-0.1331903179103726,-0.00894483219313286,4.711015385905392e-05,-1.21771094184946e-05,-7.155865754506288e-08,5.604418766609603e-05,5.601903728202526e-05
308.9301806474103,222.331300219,12.5,0,14.50714265905346,-0.1052385511900948,-0.05435582624742374,4.650704734992313e-05,-1.194247749105107e-05,-4.348466099793899e-07,5.543125258097187e-05,5.544286065093779e-05
311.2242422227642,221.9156175707317,12.5,0,14.50133088946845,-0.1580352204420441,-0.0417694352348411,4.653068702265267e-05,-1.21067774169893e-05,-3.341554818787288e-07,5.52496649919177e-05,5.509561169048459e-05
310.0289094419556,224.5703115729582,12.5,0,14.55601050739876,-0.06849779251249233,-0.08213509591236583,4.663403185768602e-05,-1.186400134195898e-05,-6.570807672989266e-07,5.573018357800613e-05,5.581519315253514e-05
312.4574023186296,224.2221994183599,12.5,0,14.54870838843574,-0.1205941547120579,-0.06905052325122076,4.6652342166764e-05,-1.202486800582717e-05,-5.52404186009766e-07,5.55447598170251e-05,5.552537896110105e-05
170.4506812973039,142.8419014041149,12.5,0,3.101380601969082,2.758241950826469,1.681454246753042,7.717824365639886e-06,6.345269761069434e-06,1.345163397402434e-05,2.169191604541229e-05,2.156563634467947e-05
172.0686766441735,141.9983687440867,12.5,0,3.17339111235786,2.658781461453317,1.73128632159204,8.027826390382499e-06,5.969387786764326e-06,1.385029057273632e-05,2.162533264292024e-05,2.152180856965841e-05
171.6736772711677,144.4050674381176,12.5,0,3.314673256123904,2.899578783294705,1.580763828014275,8.287291392960729e-06,6.626913501643931e-06,1.26461106241142e-05,2.290971468590941e-05,2.311400086497999e-05
173.2975936750036,143.5520541140257,12.5,0,3.386881193332358,2.801108379684455,1.630013300967122,8.59713311491598e-06,6.254041860324368e-06,1.304010640773698e-05,2.28445839072209e-05,2.307631136654967e-05
168.3323901331579,140.1344184126051,12.5,0,2.574411552272117,2.538133970067546,1.735434957467185,6.207609791216738e-06,6.062499462398453e-06,1.388347965973748e-05,1.906876861295556e-05,1.897317487637646e-05
169.9401299085274,139.3073067444242,12.5,0,2.642586983202237,2.44022165136158,1.783818953876606,6.504101025157892e-06,5.694639697795267e-06,1.427055163101285e-05,1.899434091700048e-05,1.892005368414097e-05
169.5553861070216,141.6975844466077,12.5,0,2.782662538631002,2.67687365414725,1.636802564519829,6.763021200301405e-06,6.339865662366396e-06,1.309442051615863e-05,2.02431940731811e-05,2.045610536506988e-05
171.1690469393574,140.8609921143632,12.5,0,2.851045278770289,2.579944804441635,1.684612570484713,7.059389048511615e-06,5.974987151197001e-06,1.347690056387771e-05,2.016984582402174e-05,2.040814268015601e-05
165.5477031569187,141.5670178454017,12.5,0,2.801541010004569,2.311365063210679,1.740338186530633,7.115839181446076e-06,5.155135394270516e-06,1.392270549224506e-05,1.908300289837722e-05,1.903737759810931e-05
167.1554429322881,140.7399061772208,12.5,0,2.878314734478279,2.229589267056136,1.7951491801279,7.426935736685582e-06,4.832033866997013e-06,1.43611934410232e-05,1.910561279398002e-05,1.900461172437616e-05
166.7604435592823,143.1466048712518,12.5,0,3.017979726481142,2.440970488732121,1.644486631509747,7.704758733753959e-06,5.396721782757871e-06,1.315589305207797e-05,2.025800672761688e-05,2.050702947023029e-05
168.3741043916181,142.3100125390072,12.5,0,3.094933097340866,2.360051915687251,1.69869691107305,8.015744378940971e-06,5.07621965232651e-06,1.35895752885844e-05,2.028112549559823e-05,2.048260200061157e-05
167.6482311501662,144.3029428291014,12.5,0,3.333845770484818,2.512352896326783,1.685189309639808,8.658424148489989e-06,5.372452651857852e-06,1.348151447711846e-05,2.166691562075009e-05,2.160536323553232e-05
169.2662264970357,143.4594101690731,12.5,0,3.416604132846278,2.434408548773678,1.743067188408864,8.985606386089144e-06,5.056824049798749e-06,1.394453750727091e-05,2.172442645845983e-05,2.158802474992354e-05
168.8609715525299,145.8825298549515,12.5,0,3.555845090262041,2.641141387905382,1.588717240862404,9.265791178514224e-06,5.60697636908759e-06,1.270973792689924e-05,2.287530814105147e-05,2.313641501401249e-05
170.4848879563658,145.0295165308595,12.5,0,3.638762552944093,2.564021026424654,1.645980845433698,9.592823348281371e-06,5.293857242203619e-06,1.316784676346958e-05,2.293354570708142e-05,2.313010558877931e-05
315.3719192838737,233.8487871163152,12.5,0,15.08992211240961,-0.01085113515358049,0.0353943632570115,4.829643166783361e-05,-1.210666132241914e-05,2.83154906056092e-07,5.79559199913463e-05,5.779165516896971e-05
317.3683358396333,233.7458542387426,12.5,0,15.08950541492092,-0.04267080076229668,0.09322275856338616,4.832055396835678e-05,-1.220815089437608e-05,7.457820685070893e-07,5.785847646070664e-05,5.777198759244885e-05
315.8604276084626,235.8342814889958,12.5,0,15.25028604323005,0.03715812133558227,0.007920067246567492,4.877118884126768e-05,-1.208132284631017e-05,6.336053797253993e-08,5.871749340477229e-05,5.82328943123722e-05
317.8575231684533,235.7645733840085,12.5,0,15.24724876585593,0.004437895292789484,0.06640885223067189,4.878764573450472e-05,-1.218359774774781e-05,5.312708178453751e-07,5.860695096051026e-05,5.825652851477959e-05
316.2180405219668,237.2877642478783,12.5,0,15.35389269496966,-0.005363727513302941,0.007315263411976402,4.913674760591356e-05,-1.23002780840183e-05,5.852210729581121e-08,5.898686784113942e-05,5.848154515280686e-05
318.2156331475531,237.2423783644923,12.5,0,15.3466767039679,-0.04851289549927085,0.06981372920492426,4.91481757690967e-05,-1.243258262877199e-05,5.585098336393941e-07,5.882887989832126e-05,5.85287115006456e-05
316.7065488465556,239.2732586205588,12.5,0,15.5267022314396,0.04815638781433496,-0.02514922824994274,4.964692203035526e-05,-1.226726134414581e-05,-2.011938259995419e-07,5.981308660246235e-05,5.871963273884543e-05
318.7048204763731,239.2610975097581,12.5,0,15.51661933409782,0.003968599642922399,0.03811306441856097,4.965000698939868e-05,-1.24005959484209e-05,3.049045153484878e-07,5.964052822889172e-05,5.878778832468817e-05
319.6779724422452,237.2091535919088,12.5,0,15.38152923287295,-0.003880550456580423,0.01019347859777548,4.922399798555871e-05,-1.231764114775942e-05,8.154782878220385e-08,5.909756331756935e-05,5.856176158850623e-05
321.6755650678316,237.1637677085228,12.5,0,15.37639545163776,-0.04028872044096232,0.07973712445939578,4.92366964215936e-05,-1.243004026672129e-05,6.378969956751662e-07,5.896802712982759e-05,5.860488975990116e-05
320.1676568366609,239.2521949587759,12.5,0,15.57819870685988,0.05406837825818922,-0.02192821891612313,4.980698115934507e-05,-1.22895401550617e-05,-1.75425751328985e-07,6.002889379186583e-05,5.883897538902689e-05
322.1659284664784,239.2400338479753,12.5,0,15.56990352388769,0.01660370512838583,0.04837786770738994,4.981040831233789e-05,-1.240279096269932e-05,3.870229416591195e-07,5.988359661455226e-05,5.891066546365378e-05
318.8298141914589,233.6705021425934,12.5,0,15.06417252717773,-0.002526258857406205,0.03344064662609862,4.820737309405466e-05,-1.205942205008588e-05,2.675251730087889e-07,5.788215514090826e-05,5.77479584561517e-05
320.8262307472185,233.5675692650209,12.5,0,15.06757252113338,-0.02496199176077152,0.1028528389185248,4.823620166103542e-05,-1.213393639054117e-05,8.228227113481982e-07,5.782784689755314e-05,5.770197721144399e-05
319.3194985858746,235.7135435094606,12.5,0,15.26022642396857,0.05231161755029134,0.00623849363997047,4.879087526265917e-05,-1.204078396301392e-05,4.990794911976376e-08,5.880161961586732e-05,5.826942448242274e-05
321.3165941458652,235.6438354044733,12.5,0,15.26052466421396,0.02892504657609329,0.07632982227257901,4.88105388882238e-05,-1.211585958232767e-05,6.10638578180632e-07,5.873220192313154e-05,5.828102271883064e-05
264.3584706534985,200.6276825123147,12.5,0,16.72113326113838,2.959584388054247,-2.41077644332142,5.11399589251994e-05,-3.906236567137109e-06,-1.928621154657136e-05,7.377728983046502e-05,7.427039708687696e-05
266.2928701193308,201.2470471860422,12.5,0,16.49638463356061,2.554261351084048,-2.211877836216162,5.074502174652671e-05,-5.023471383379537e-06,-1.76950226897293e-05,7.158019537055422e-05,7.235100053642014e-05
263.8066125763441,202.445263529517,12.5,0,17.08016795653874,2.949941537163404,-2.497833487133004,5.229658423119322e-05,-4.224321446308094e-06,-1.998266789706403e-05,7.513374157708494e-05,7.535087490473223e-05
265.7406515214616,203.0583334066181,12.5,0,16.8562949061623,2.544152843669924,-2.298991977871018,5.190482142478341e-05,-5.343746825186084e-06,-1.839193582296814e-05,7.293945868080781e-05,7.32664303561782e-05
261.0079924966029,199.5549114290245,12.5,0,16.87984502362474,3.81133818917904,-2.630668295424879,5.096643352425594e-05,-1.307593813526867e-06,-2.104534636339903e-05,7.718569943829148e-05,7.805047431366011e-05
262.9423919624353,200.1742761027521,12.5,0,16.63451161520136,3.347719903947786,-2.417453305722237,5.055226124548611e-05,-2.59490559952817e-06,-1.93396264457779e-05,7.470075225528099e-05,7.579756648272323e-05
260.456758859644,201.383395353807,12.5,0,17.25608603578881,3.790993348890456,-2.736480919782603,5.218668063541182e-05,-1.673690112181589e-06,-2.189184735826083e-05,7.857387111509917e-05,7.956306124145071e-05
262.3907978047614,201.9964652309081,12.5,0,17.01165475540265,3.326816460800289,-2.523365462211698,5.177584204864825e-05,-2.963511129761195e-06,-2.018692369769358e-05,7.609204258722261e-05,7.703805206542535e-05
260.0532278305662,202.7219384875138,12.5,0,17.21953097212885,3.983753313851124,-2.426997281669525,5.191549645973143e-05,-1.027614173379487e-06,-1.94159782533562e-05,7.89975047441145e-05,8.075309888900955e-05
261.9870028562032,203.3304002536612,12.5,0,16.97980909767675,3.458837723526889,-2.230552076742392,5.15683189337441e-05,-2.515566562855359e-06,-1.784441661393913e-05,7.633927120650711e-05,7.796660505285365e-05
259.5019941936072,204.5504224122962,12.5,0,17.53131995141215,3.929422065031968,-2.563272438335044,5.295668619249329e-05,-1.450905353027419e-06,-2.050617950668035e-05,8.003418156316026e-05,8.249175527740765e-05
261.4354086985293,205.1525893818172,12.5,0,17.29230805000304,3.403775805481059,-2.36703936302117,5.261236511562486e-05,-2.94176386246304e-06,-1.893631490416936e-05,7.737820414589946e-05,7.926297340943337e-05
263.402624425317,203.7758251809253,12.5,0,17.04401124863851,3.052012773940097,-2.198840269169506,5.209922577649115e-05,-3.868768122302496e-06,-1.759072215335605e-05,7.526407469104373e-05,7.613180895631314e-05
265.336399450954,204.3842869470727,12.5,0,16.8209999434585,2.593959673803657,-2.010278148119259,5.175203208002425e-05,-5.156128998595093e-06,-1.608222518495407e-05,7.290912134707097e-05,7.39055466349782e-05
262.8507663481627,205.5934061981276,12.5,0,17.35846415912333,3.01605163490642,-2.310501742952033,5.313424400126953e-05,-4.235406095598124e-06,-1.848401394361626e-05,7.636948109312312e-05,7.718488264482824e-05
264.7841808530848,206.1955731676487,12.5,0,17.13619295920947,2.557393185679161,-2.122084656853052,5.278990292092696e-05,-5.525296173194258e-06,-1.697667725482441e-05,7.401666987154652e-05,7.473621496092032e-05
248.5905369512699,183.9937711118295,12.5,0,15.07033994780286,6.816521020607754,-3.641209772513462,4.277187101648294e-05,9.756595307702527e-06,-2.912967818010769e-05,8.063883996990491e-05,8.17165195419075e-05
250.5179879387067,184.2880036247547,12.5,0,14.82965032313426,6.217181103114822,-3.370220072317903,4.248113615153777e-05,8.031259271460019e-06,-2.696176057854322e-05,7.76233385240076e-05,7.972341504269103e-05
248.8489098861829,185.7568188851089,12.5,0,15.69738439041966,7.048818525884483,-3.880736295469903,4.459257522863532e-05,9.998311770494615e-06,-3.104589036375923e-05,8.384555282576004e-05,8.36826983656219e-05
250.728664821625,186.072894069071,12.5,0,15.43942377619787,6.429159412474521,-3.598263580587317,4.426282855385356e-05,8.221771098960171e-06,-2.878610864469854e-05,8.069283791311174e-05,8.153265808185704e-05
249.0380520018319,187.0474594312657,12.5,0,15.76687148436069,6.837695742374329,-3.39755729626348,4.498383215605474e-05,9.267129188109298e-06,-2.718045837010784e-05,8.32505168150022e-05,8.514432130967992e-05
250.8828910038948,187.3795245601993,12.5,0,15.52323204893703,6.240741098903396,-3.149179535626092,4.468174967747578e-05,7.55178587734124e-06,-2.519343628500873e-05,8.024731275242954e-05,8.286263185178912e-05
249.296424936745,188.8105072045452,12.5,0,16.34780427574304,7.061561903038939,-3.642956297956177,4.666372415994659e-05,9.518754669130165e-06,-2.914365038364942e-05,8.625505403952519e-05,8.717137063081026e-05
251.093567886813,189.1644150045157,12.5,0,16.08677876796608,6.44349947597785,-3.383068290322918,4.632289247670919e-05,7.749775308756252e-06,-2.706454632258335e-05,8.311122470783486e-05,8.468694472496596e-05
252.2334068851321,187.6226131059902,12.5,0,15.65043713760925,6.027727169374215,-3.472667396757864,4.525921710485023e-05,6.768377231910084e-06,-2.778133917406291e-05,8.009346221334606e-05,8.128445389908913e-05
254.078245887195,187.9546782349238,12.5,0,15.4208721513322,5.475138638618247,-3.233859434840678,4.496667997336843e-05,5.183745922512635e-06,-2.587087547872543e-05,7.730766335160231e-05,7.925448100663528e-05
252.4091678346712,189.423493495278,12.5,0,16.21673462391082,6.21864785242998,-3.695156399190322,4.691863251457063e-05,6.926285428647278e-06,-2.956125119352258e-05,8.29277097835829e-05,8.298380062948522e-05
254.2063107847393,189.7774012952485,12.5,0,15.97095213310275,5.647391747946483,-3.445848566413403,4.65891334275716e-05,5.294891886946547e-06,-2.756678853130723e-05,8.001475314030961e-05,8.081515033366738e-05
251.9289799905492,184.5033967734454,12.5,0,14.97539209542876,6.017206506143374,-3.698528058289916,4.310748950045733e-05,7.274747143315788e-06,-2.958822446631933e-05,7.759087877684164e-05,7.832327428557597e-05
253.8564309779861,184.7976292863706,12.5,0,14.75741953292893,5.481192187060932,-3.449100898809816,4.283878875572383e-05,5.733879372251836e-06,-2.759280719047852e-05,7.489287623762113e-05,7.649112309844353e-05
252.1047409400884,186.3042771627332,12.5,0,15.55983380467424,6.209149627910019,-3.907314934915103,4.482414847262954e-05,7.421411765572671e-06,-3.125851947932082e-05,8.049449017064456e-05,8.003566962897354e-05
253.9844958755304,186.6203523466953,12.5,0,15.32639461169059,5.655746980221375,-3.647815629217771,4.451986517323278e-05,5.837274647355929e-06,-2.918252503374217e-05,7.767683801200348e-05,7.809586140094293e-05
277.592222301263,120.5167958737315,12.5,0,0.5660347297064457,2.298115711227193,-3.775245717247192,-2.718143392112823e-08,6.901142492161862e-06,-3.020196573797753e-05,1.39536510619488e-05,1.366198479401015e-05
279.8910775461612,120.9997885288241,12.5,0,0.4211396167159042,2.103071696719521,-3.578874143282158,-3.348105838847231e-07,6.392917736129742e-06,-2.863099314625727e-05,1.268812039784669e-05,1.372486405448982e-05
277.511193279213,122.84009840329,12.5,0,1.078819755610368,2.420474627109098,-3.835467172147585,1.515843516265898e-06,6.882463002260818e-06,-3.068373737718068e-05,1.58608937656577e-05,1.506791373386218e-05
279.8940160392671,123.5371372653677,12.5,0,0.90071059944092,2.223145152439112,-3.641498655152788,1.103757796259655e-06,6.39349600825242e-06,-2.913198924122231e-05,1.446899867975959e-05,1.523879673996348e-05
277.4518759181873,124.5408738962078,12.5,0,1.406959013230272,2.372046835537991,-3.857606245554179,2.604631373906476e-06,6.464982663137355e-06,-3.086084996443343e-05,1.670566882721445e-05,1.614123474844092e-05
279.8961671655181,125.3946054569593,12.5,0,1.184829092745131,2.139044556283556,-3.645132819947162,2.080217451757576e-06,5.897079305911272e-06,-2.91610625595773e-05,1.503559063120259e-05,1.639513129996333e-05
277.3708468961372,126.8641764257663,12.5,0,1.900112929620653,2.48921615407579,-3.921315658107229,4.088988451525456e-06,6.445401349346007e-06,-3.137052526485783e-05,1.866622278005488e-05,1.766767335337406e-05
279.899105658624,127.9319541935028,12.5,0,1.650615990801069,2.255682540779161,-3.711395237208785,3.477425137940091e-06,5.897691337852459e-06,-2.969116189767028e-05,1.688963033510413e-05,1.804036338309134e-05
281.6855125469842,126.0195803354278,12.5,0,1.761111932317019,2.161200501981863,-3.937120009361416,3.90659778182897e-06,5.506952060488346e-06,-3.149696007489133e-05,1.721830584821684e-05,1.656518070878637e-05
284.1298037943151,126.8733118961792,12.5,0,1.525062916397164,1.908657373421747,-3.712056838806483,3.353275433733526e-06,4.887653261831859e-06,-2.969645471045186e-05,1.542376264518668e-05,1.677586778198532e-05
281.7499195273668,128.7136217706451,12.5,0,2.365180513713027,2.317498001735322,-4.030870507339959,5.714579242493427e-06,5.523849194582608e-06,-3.224696405871967e-05,1.971597534437356e-05,1.829829094530227e-05
284.2781782898537,129.7813995383816,12.5,0,2.098189266236641,2.062602556485107,-3.806569138310452,5.064123606769166e-06,4.921776767763029e-06,-3.045255310648361e-05,1.779107858746997e-05,1.863027212024761e-05
281.5739563846013,121.3533636920195,12.5,0,0.7945255397194964,2.083292485717497,-3.834103825306023,8.758477385283905e-07,6.030915522520393e-06,-3.067283060244818e-05,1.401449477674181e-05,1.375958664664094e-05
283.8728116294996,121.8363563471121,12.5,0,0.6417777463849614,1.862287303990064,-3.633121672796334,5.638589452398258e-07,5.445897175660234e-06,-2.906497338237067e-05,1.264262624792497e-05,1.379157127209268e-05
281.638363364984,124.0474051272368,12.5,0,1.397769926328228,2.239417700603,-3.928411768372051,2.681329603767928e-06,6.047920700867019e-06,-3.142729414697641e-05,1.635598659812107e-05,1.534903855731425e-05
284.0211861250381,124.7444439893144,12.5,0,1.209874259265938,2.014963345365373,-3.727446207299598,2.259626953358702e-06,5.479983297756444e-06,-2.981956965839678e-05,1.483731325777668e-05,1.547934179734677e-05
139.3972865822778,91.46613328288979,12.5,0,-5.827045411205998,0.5433842336588153,2.135433828641518,-1.908125270278624e-05,6.400465876673007e-06,1.708347062913214e-05,2.416788055159945e-06,2.351167609212777e-06
141.1674684427277,90.6514712634128,12.5,0,-5.881447859450918,0.266875568411771,2.099834424868638,-1.903413360497235e-05,5.559160106478401e-06,1.67986753989491e-05,2.201810900112191e-06,2.396747567304447e-06
141.0348770411956,92.60674610068935,12.5,0,-5.753061271149238,0.7690707917155113,2.067623106218872,-1.902505270104997e-05,7.063475550409025e-06,1.654098484975097e-05,2.546858583751298e-06,2.371425547086944e-06
143.0041116086096,91.64504209225865,12.5,0,-5.798677097218356,0.533258454019474,2.034709905047803,-1.898237347431432e-05,6.345368730637001e-06,1.627767924038243e-05,2.346458758525149e-06,2.422373430010123e-06
136.560896705493,89.49053393073213,12.5,0,-6.108437663462681,0.4501672996767285,2.108192216884769,-1.990713436282196e-05,6.327285489735675e-06,1.686553773507815e-05,2.368795941130283e-06,2.325199779145156e-06
137.9863091641033,88.93055610696436,12.5,0,-6.154244825008686,0.2225552714421353,2.085522223742043,-1.98716276571815e-05,5.635572728621781e-06,1.668417778993634e-05,2.203271069699694e-06,2.36007126842849e-06
138.1984871644108,90.63114674853171,12.5,0,-6.035087738152765,0.6701576159541387,2.04147074029456,-1.984840685485215e-05,6.972574561575455e-06,1.633176592235648e-05,2.487788796353384e-06,2.338781452023652e-06
139.8229523299852,89.92412693581022,12.5,0,-6.071065717895598,0.4865181712106825,2.020194175333741,-1.981662483423446e-05,6.413710722190662e-06,1.616155340266993e-05,2.341540369544887e-06,2.380053753422454e-06
134.0920099054829,90.4604439725923,12.5,0,-5.955506097875321,0.3459873582057293,2.123860328758284,-1.933440939976561e-05,5.87156442455859e-06,1.699088263006628e-05,2.281307822081493e-06,2.263043782839302e-06
135.5174223640931,89.90046614882453,12.5,0,-5.964238526466947,0.1586313735007763,2.133561832092039,-1.921246838349485e-05,5.279011216376042e-06,1.706849465673631e-05,2.159040599080925e-06,2.299201342738719e-06
135.384830962561,91.8557409861011,12.5,0,-5.835430808576806,0.5140696370435522,2.03532865222299,-1.908463429708062e-05,6.313367485400812e-06,1.628262921778392e-05,2.337259515652869e-06,2.264196589195421e-06
137.0092961281352,91.14872117337963,12.5,0,-5.839015394931727,0.3604995140910818,2.040739407049966,-1.897324887505439e-05,5.824810761036843e-06,1.632591525639973e-05,2.22825308931794e-06,2.307737618432625e-06
136.3312416613968,92.87716929159524,12.5,0,-5.595858033496389,0.4462948754361233,2.117870788457221,-1.826378160753734e-05,5.904830028192706e-06,1.694296630765777e-05,2.304237486624137e-06,2.268018306348592e-06
138.1014235218467,92.06250727211824,12.5,0,-5.593326723631468,0.2644745517468627,2.125991725830501,-1.811022515701819e-05,5.320979944495134e-06,1.700793380664401e-05,2.176933236045915e-06,2.316674707698474e-06
137.6240627184749,94.27246630510403,12.5,0,-5.490128631713688,0.5870820633007874,2.042362133412368,-1.803807727212443e-05,6.27076550793347e-06,1.633889706729895e-05,2.353726633431664e-06,2.277306625427538e-06
139.5932972858889,93.31076229667333,12.5,0,-5.485236318483407,0.4306615778247485,2.047603696793306,-1.78972854814067e-05,5.76630610382592e-06,1.638082957434645e-05,2.23638438532641e-06,2.332555013951687e-06
210.3727915191956,185.2571674460031,12.5,0,15.74759615881405,10.85499461018605,-2.340955286425323,4.170831202005612e-05,2.213790582554411e-05,-1.872764229140258e-05,9.689411662160258e-05,9.779896303971254e-05
212.0621370084264,184.5549805044206,12.5,0,16.00894150442306,10.16520677084232,-2.049051129409927,4.309644739747991e-05,1.972150846315699e-05,-1.639240903527942e-05,9.539018301410308e-05,9.899064648403636e-05
211.5055646759087,186.7307204887623,12.5,0.04348796185357739,16.09211928940555,11.11150825831944,-2.744865116051147,4.454264391905139e-05,2.371442291416873e-05,-2.295728652925507e-05,0.0001036488206069312,0.0001043876911105874
213.2135017872906,186.0016166173937,12.5,0.05583092972095838,16.13685387074921,10.33527930303698,-2.443546255192026,4.593426146775844e-05,2.135572039778833e-05,-2.070431097235461e-05,0.0001022301042848937,0.0001057041084565484
208.4107708583537,182.7048987083423,12.5,0,14.31475499673551,9.974336034681171,-1.544617900844549,3.78277471618087e-05,2.046607131359133e-05,-1.235694320675639e-05,8.837592398163322e-05,8.8637428429581e-05
210.0679147134243,182.0493332567324,12.5,0,14.46991286552234,9.401672961340399,-1.339732055536929,3.878238280059917e-05,1.85094231838714e-05,-1.071785644429543e-05,8.690855421115733e-05,8.961404352302919e-05
209.5435440150667,184.1784517511014,12.5,0,15.11845225602403,10.58158980890076,-1.956495833680991,3.991377537215627e-05,2.176632558366321e-05,-1.565196666944793e-05,9.354598034441686e-05,9.357869287389018e-05
211.2192794922884,183.4959693697054,12.5,0,15.27892858234073,10.02538639386683,-1.759464295863916,4.087226234839687e-05,1.985809359450127e-05,-1.407571436691133e-05,9.215194587412713e-05,9.467932657906976e-05
205.5405135059725,183.840371378197,12.5,0,14.20890118438568,9.558850387637744,-1.396207993631604,3.782140347992398e-05,1.922120029293223e-05,-1.116966394905283e-05,8.650041426574976e-05,8.643244684048066e-05
207.197657361043,183.1848059265871,12.5,0,14.38030128197449,9.145923931507175,-1.190643452606464,3.870022495711264e-05,1.776271555524336e-05,-9.525147620851715e-06,8.566224306205699e-05,8.778492216787711e-05
206.6410850285253,185.3605459109288,12.5,0,14.94810639082051,10.03806302592145,-1.738244494340886,3.980349002988845e-05,2.016331657029224e-05,-1.390595595472709e-05,9.096808003158539e-05,9.099810386664159e-05
208.316820505747,184.6780635295327,12.5,0,15.12380554491756,9.637211349670309,-1.53971806702419,4.068640866399995e-05,1.874003188301093e-05,-1.231774453619352e-05,9.018528139558112e-05,9.259231222096665e-05
207.4467593003631,186.4733909052134,12.5,0,15.37633797001768,10.45580324577001,-2.213519866412597,4.083963890744058e-05,2.115750001044987e-05,-1.770815893130078e-05,9.409291528711753e-05,9.487467080701691e-05
209.136104789594,185.7712039636309,12.5,0,15.63060864817163,9.925866236128194,-1.940010104066101,4.207725468524667e-05,1.925828503707291e-05,-1.552008083252881e-05,9.313054147421908e-05,9.669609068102337e-05
208.5473308229159,187.9935654379452,12.5,0.009228657059728418,16.1952354123811,10.97241891976023,-2.632976743784552,4.344778287194203e-05,2.236192272939358e-05,-2.126001534094254e-05,9.993424560272437e-05,0.0001008999916213534
210.2552679342978,187.2644615665766,12.5,0.03111338645880646,16.0886767386019,10.23120757256599,-2.318517284289554,4.468923287857189e-05,2.05069639353469e-05,-1.914376565336645e-05,9.903965749843943e-05,0.0001031004318842922
296.7402020603891,220.7738935302964,12.5,0,14.90324157915387,-0.139148259962238,-0.001214576978502226,4.780169166126216e-05,-1.236786769520225e-05,-9.716615828017812e-09,5.685095152498382e-05,5.691893243152998e-05
298.6647281210444,220.3855908160539,12.5,0,14.89540442641356,-0.1479023485943021,-0.01296137354663365,4.778361604339883e-05,-1.238961105663261e-05,-1.036909883730692e-07,5.679445620954733e-05,5.654732686400757e-05
297.402062155952,222.7143545133739,12.5,0,14.87336728958173,-0.1442493177011679,-8.916936774464729e-05,4.771017478082248e-05,-1.236029164830912e-05,-7.133549419571783e-10,5.672077296559507e-05,5.693286542894327e-05
299.3765616753178,222.3766581479853,12.5,0,14.86648578966333,-0.1527273878081252,-0.01168873531916682,4.769493643716916e-05,-1.238191627271666e-05,-9.350988255333453e-08,5.666878443479203e-05,5.662405083739236e-05
297.8865773733859,224.1348705430312,12.5,0,14.90655176845233,-0.1149341625312079,0.1007936335537139,4.779291298907242e-05,-1.229303073486173e-05,8.063490684297116e-07,5.693725562478639e-05,5.695790957140032e-05
299.897660003556,223.8342205961877,12.5,0,14.90088503256135,-0.130623739440193,0.09527289206535461,4.778733109574846e-05,-1.233870399225769e-05,7.621831365228369e-07,5.686809760350573e-05,5.669575947055274e-05
298.5484374689487,226.0753315261087,12.5,0,14.89565775159496,-0.1129002298637727,0.09677011984516715,4.775642498899488e-05,-1.227780693684004e-05,7.741609587613371e-07,5.690148464299649e-05,5.701239844361457e-05
300.6094935578292,225.8252879281191,12.5,0,14.89037219893831,-0.1284126871699467,0.0914409802241483,4.775192118633854e-05,-1.232321835809447e-05,7.315278417931864e-07,5.683432713128366e-05,5.681494712631174e-05
301.3698746669971,223.6141295598147,12.5,0,14.79231326298126,-0.1190591574871172,0.0538039077312445,4.743064976752971e-05,-1.221483991434378e-05,4.30431261849956e-07,5.64854140433527e-05,5.650191336588383e-05
303.3809572971672,223.3134796129712,12.5,0,14.78851630458491,-0.1412173608990979,0.05719820266641344,4.743622606339097e-05,-1.228270859854504e-05,4.575856213313075e-07,5.640402727327084e-05,5.623446605990413e-05
302.1182913320748,225.6422433102912,12.5,0,14.80713560082614,-0.1073643718865989,0.04338768143532069,4.746872542015293e-05,-1.218927447069803e-05,3.471014514825656e-07,5.657760039423351e-05,5.666685694554742e-05
304.1793474209553,225.3921997123016,12.5,0,14.80300630456188,-0.129513517990254,0.04700524503084471,4.747323098899022e-05,-1.225684830121832e-05,3.760419602467577e-07,5.649493747237278e-05,5.645971836488287e-05
300.0735789778746,220.1013335005236,12.5,0,14.74457352028041,-0.1487254518795118,-0.04696208479527313,4.73016156264009e-05,-1.227158026223876e-05,-3.75696678362185e-07,5.621247459539434e-05,5.627608203353837e-05
301.99810503853,219.7130307862811,12.5,0,14.73895010417874,-0.1661766240919644,-0.0507562267709294,4.729758163264555e-05,-1.232292528043728e-05,-4.060498141674352e-07,5.613830633951923e-05,5.5906632942897e-05
300.8219956429523,222.129447251,12.5,0,14.7391471200433,-0.143764139201759,-0.05282631478125333,4.728028209549998e-05,-1.225136294148027e-05,-4.226105182500266e-07,5.620660773987024e-05,5.639720554379192e-05
302.796495162318,221.7917508856115,12.5,0,14.73375021094779,-0.1610945352894686,-0.05640880546703159,4.72768763032645e-05,-1.230250268168453e-05,-4.512704437362527e-07,5.613366718329611e-05,5.60862672677422e-05
141.763553307508,85.00721451715306,12.5,0,-6.879764690954873,0.4874858341902715,1.967486945318394,-2.240523567840781e-05,7.063766422172766e-06,1.573989556254715e-05,2.444190853217034e-06,2.504863989468978e-06
143.9881637542594,85.28172789028243,12.5,0,-6.904940857342614,0.5534562119899153,2.098990686257963,-2.253857571308829e-05,7.295012564241819e-06,1.67919254900637e-05,2.559573075261098e-06,2.538563390043938e-06
141.7802884237218,86.73282402028107,12.5,0,-6.548203146675708,0.5697307585245164,1.992902722688339,-2.141003467618187e-05,7.061700944619017e-06,1.594322178150671e-05,2.461415226004824e-06,2.474056519223431e-06
143.9031877078227,87.22206301891663,12.5,0,-6.614753840157742,0.6285467261386808,2.126978861660361,-2.167004966941572e-05,7.303152595769971e-06,1.701583089328289e-05,2.584827760880291e-06,2.505851421516999e-06
137.9104149867555,84.53174340754445,12.5,0,-6.92261335067687,0.400908753936577,1.990662327583376,-2.247308972531524e-05,6.820998693138542e-06,1.592529862066701e-05,2.401779860870234e-06,2.447915483771992e-06
140.1350254335068,84.80625678067381,12.5,0,-6.965676646630686,0.4075827036969986,2.134801066905077,-2.261623143217579e-05,6.876805969134944e-06,1.707840853524062e-05,2.483349205106251e-06,2.480574956188593e-06
138.1033190043735,85.88543721761535,12.5,0,-6.629862591077418,0.4722116263766925,1.98028202797063,-2.159332959254909e-05,6.81496727726735e-06,1.584225622376504e-05,2.397576062478947e-06,2.421865370543593e-06
140.2262182884744,86.37467621625093,12.5,0,-6.720332030649669,0.4682750081558924,2.133877316039689,-2.187968250460365e-05,6.874745650618591e-06,1.707101852831751e-05,2.486626418745595e-06,2.451552524690328e-06
138.244534546248,86.87640986443661,12.5,0,-6.477678667362186,0.3910459941923767,2.022128224260767,-2.104140853091289e-05,6.433490115305353e-06,1.617702579408614e-05,2.336311390221428e-06,2.403984039372385e-06
140.2929760915951,87.52283893062307,12.5,0,-6.570991673325485,0.4038449051382649,2.139901985167872,-2.135024927875216e-05,6.549097035102834e-06,1.711921588134298e-05,2.420868515318585e-06,2.431257425780209e-06
138.437438563866,88.23010367450752,12.5,0,-6.203473286720659,0.4552517757098089,2.019611153663439,-2.021531593807396e-05,6.419584311647916e-06,1.615688922930751e-05,2.338067322693963e-06,2.381181447332003e-06
140.3841689465627,89.09125836620018,12.5,0,-6.349009624256898,0.4579086231531933,2.144903765034244,-2.068315769614463e-05,6.544515293495736e-06,1.715923012027395e-05,2.429150990706352e-06,2.404832615909034e-06
141.7925393790603,87.99605785054074,12.5,0,-6.309076632510926,0.5340081332582822,1.996832218482921,-2.061625173064159e-05,6.756087332435243e-06,1.597465774786337e-05,2.399738137187207e-06,2.452351486773403e-06
143.8409809244073,88.64248691672718,12.5,0,-6.392429676294715,0.5943391186914246,2.111357943066545,-2.093124625909622e-05,7.015828920848329e-06,1.689086354453236e-05,2.51807556011498e-06,2.482708146739395e-06
141.809274495274,89.72166735366872,12.5,0,-5.971626628515585,0.6175717630122184,2.028553843286935,-1.960326262165964e-05,6.753530944451566e-06,1.622843074629548e-05,2.430948353253253e-06,2.423859705583022e-06
143.7560048779706,90.5828220453614,12.5,0,-6.10316695750347,0.6697364514491391,2.144241464446201,-2.006592342517041e-05,7.02569021064002e-06,1.715393171556961e-05,2.555028588948198e-06,2.452191512717705e-06
155.5499298802698,106.5723786256887,12.5,0,-3.386550859939469,1.246817026576158,1.977430021910606,-1.183441637306723e-05,6.69905517299528e-06,1.581944017528484e-05,2.946750228392195e-06,3.058662582920393e-06
156.7989403448974,106.0847336675624,12.5,0,-3.341658517561605,1.199980433577303,2.026352452462998,-1.165329160305898e-05,6.513264201496655e-06,1.621081961970398e-05,2.941733365296781e-06,3.091191428154757e-06
156.1501226622082,107.8869728010289,12.5,0,-3.215514600762455,1.317613066249334,1.924863278858762,-1.134373717543932e-05,6.788773492607831e-06,1.539890623087009e-05,3.026270583520806e-06,3.183012215051031e-06
157.2301869064434,107.3284467190393,12.5,0,-3.147080595735329,1.273106161218176,1.973659228946608,-1.108914283532759e-05,6.591604192486425e-06,1.578927383157286e-05,3.029636637787503e-06,3.201019396337532e-06
154.510365487635,104.2954347227063,12.5,0,-3.759298609683219,1.187780730280177,1.976867756746362,-1.297998013521044e-05,6.808337224643141e-06,1.58149420539709e-05,2.821640523058272e-06,2.889942362195856e-06
156.0519993897238,103.9305594724066,12.5,0,-3.722671592858251,1.154125576400229,2.048935389923295,-1.283584955826659e-05,6.671339118767333e-06,1.639148311938636e-05,2.849820437229673e-06,2.942101376810994e-06
155.1105582695735,105.6100288980465,12.5,0,-3.581017716171164,1.249088265471765,1.932444557555123,-1.245852730412514e-05,6.861896622446578e-06,1.545955646044099e-05,2.87728764644617e-06,2.980134752524385e-06
156.4832459512698,105.1742725238835,12.5,0,-3.524841964150909,1.217773617816345,2.007333767366768,-1.225371317953598e-05,6.71674914833303e-06,1.605867013893415e-05,2.914991711901817e-06,3.021814553918914e-06
151.8401772425947,104.9274171946386,12.5,0,-3.634312864645818,1.091501643426572,2.028715694821983,-1.250300248160787e-05,6.400255550681683e-06,1.622972555857586e-05,2.766398998061522e-06,2.79834254603556e-06
153.3818111446834,104.5625419443388,12.5,0,-3.611932676777095,1.016722652217606,2.090524756927865,-1.237156268746079e-05,6.143058628518014e-06,1.672419805542292e-05,2.739215955237516e-06,2.851422299585935e-06
152.7329934619943,106.3647810778053,12.5,0,-3.448628872776977,1.184640355403987,1.958281329928995,-1.198332467720951e-05,6.549752235514338e-06,1.566625063943196e-05,2.838004170948404e-06,2.905785803030168e-06
154.1056811436906,105.9290247036422,12.5,0,-3.409931032150029,1.110998726971353,2.019661214625921,-1.180057828445717e-05,6.283140752028353e-06,1.615728971700737e-05,2.810415115446411e-06,2.94904494242592e-06
153.3865802963886,107.4170044692031,12.5,0,-3.222897150408564,1.173803377992287,2.026861559452939,-1.125231358370124e-05,6.334488529902171e-06,1.621489247562351e-05,2.931844463776622e-06,3.000690685166854e-06
154.6355907610161,106.9293595110767,12.5,0,-3.187202402035191,1.123704478363817,2.067046030858618,-1.109801126920366e-05,6.145616252392367e-06,1.653636824686894e-05,2.915251466085795e-06,3.034412981923122e-06
154.2793965157882,108.8543683523698,12.5,0,-3.059355416943732,1.257056914846986,1.964115641847061,-1.079558286609753e-05,6.47006646106534e-06,1.571292513477649e-05,3.019634047927263e-06,3.15253238806703e-06
155.3594607600233,108.2958422703802,12.5,0,-3.005385286021871,1.209741788557463,2.002433764731652,-1.058502634611596e-05,6.275481952201377e-06,1.601947011785321e-05,3.008145562907662e-06,3.170020160341953e-06
162.6867836735983,128.2899360121302,12.5,0,0.3925041326376854,1.962546531243292,1.894743427838163,-3.140240005540406e-07,5.966145593868386e-06,1.51579474227053e-05,9.94397275349529e-06,1.001065842466029e-05
164.1919787247693,127.446823995403,12.5,0,0.4428886157173165,1.85992862632638,1.923229755871851,-7.069933076569144e-08,5.597460711670563e-06,1.538583804697481e-05,9.776654991595008e-06,9.898255619300579e-06
163.9061420832553,129.8174779833997,12.5,0,0.5615767336171965,2.096646244428214,1.805446609094373,1.197285520324576e-07,6.260006595276528e-06,1.444357287275498e-05,1.082054523750544e-05,1.114780989777687e-05
165.4110356841688,128.9544797097842,12.5,0,0.6131371681493119,1.995982361559952,1.832917183286167,3.652530488298361e-07,5.896633822472398e-06,1.466333746628933e-05,1.065706463508445e-05,1.101837531792716e-05
164.7987743917226,130.9357163170154,12.5,0,0.8730997123099322,2.14582600083837,1.855937581676222,1.077258278721087e-06,6.168163432834837e-06,1.484750065340978e-05,1.201222094586132e-05,1.201871933704529e-05
166.3034473157316,130.0581602929859,12.5,0,0.9270189008500073,2.043776133284377,1.883463839205904,1.331439576092522e-06,5.798468505829998e-06,1.506771071364723e-05,1.185448622889496e-05,1.18773792729741e-05
166.0181328013796,132.4632582882849,12.5,0,1.042804574843386,2.280385628535917,1.766324339083487,1.512666136670101e-06,6.462990351440226e-06,1.413059471266789e-05,1.295036594465135e-05,1.326093670090249e-05
167.522504275131,131.5658160073672,12.5,0,1.097865971373084,2.180265947161876,1.792851242432105,1.768958350664368e-06,6.098558253819536e-06,1.434280993945684e-05,1.279867698505485e-05,1.310410202353817e-05
167.4049443448326,129.4157446969356,12.5,0,0.6131520120446469,2.316922321309054,1.82680330441005,1.085485814956268e-07,6.923629818553255e-06,1.46144264352804e-05,1.177168704816832e-05,1.176798717558714e-05
168.9096172688417,128.5381886729062,12.5,0,0.6585476189797654,2.199761189871884,1.848046526246267,3.475434288377423e-07,6.512397712406216e-06,1.478437220997013e-05,1.152079930859817e-05,1.16104624716379e-05
168.6237806273276,130.9088426609028,12.5,0,0.7738164831806922,2.459503715055643,1.735797101054069,5.086097741337005e-07,7.251358701633502e-06,1.388637680843256e-05,1.269957844230189e-05,1.298211370484275e-05
170.1281521010791,130.0114003799852,12.5,0,0.8203511494482472,2.344485028517791,1.756057634358279,7.495356554201585e-07,6.846071171698331e-06,1.404846107486623e-05,1.245459842242394e-05,1.28056700975871e-05
165.2938579774809,126.8296231627131,12.5,0,0.1444501862833013,2.125537467864154,1.867081527209874,-1.238189378184759e-06,6.686159748138651e-06,1.493665221767899e-05,9.751768909479892e-06,9.811961291653641e-06
166.7990530286521,125.986511145986,12.5,0,0.187448834449329,2.008835960909505,1.890066072253724,-1.007232498489751e-06,6.278316007350953e-06,1.512052857802979e-05,9.501604600382054e-06,9.6886036094669e-06
166.5126942599759,128.3227211266804,12.5,0,0.3056268842261271,2.267346999021197,1.77628602795534,-8.358715696933511e-07,7.011008889486929e-06,1.421028822364272e-05,1.061765625242234e-05,1.091854739661598e-05
168.0175878608894,127.459722853065,12.5,0,0.349801124846903,2.152804469754392,1.798264770480035,-6.02879976293424e-07,6.609133403336531e-06,1.438611816384028e-05,1.037042564696278e-05,1.077524702341797e-05
172.4066734389204,126.2293536291314,12.5,0,0.05348880065090289,2.609055340371012,1.7437234706249,-1.91608011021392e-06,8.306186048666515e-06,1.39497877649992e-05,1.105800316923844e-05,1.106598433502492e-05
173.810963540324,125.2819966003265,12.5,0,0.08557994443762496,2.474139587459951,1.744178677896699,-1.705455847767561e-06,7.848782724321742e-06,1.395342942317359e-05,1.067208343221987e-05,1.082425734514649e-05
173.6096219177814,127.6074889384787,12.5,0,0.1836902447405908,2.759886628606067,1.657226562830167,-1.620100519714963e-06,8.684685015746939e-06,1.325781250264134e-05,1.190338809573361e-05,1.21699229178921e-05
175.0065357309257,126.6182852302961,12.5,0,0.2181661276794334,2.630000703180295,1.655810644620546,-1.405868953970049e-06,8.241469348033398e-06,1.324648515696437e-05,1.153613587007164e-05,1.188578341754617e-05
170.3231055546831,123.84235325368,12.5,0,-0.3778039992201419,2.415679784115762,1.78962158934415,-3.141516624797063e-06,8.032418508546551e-06,1.43169727147532e-05,9.24040491998706e-06,9.295751012404255e-06
171.7401717621225,122.9674767996842,12.5,0,-0.3509809700126182,2.279437133299121,1.793765994883818,-2.946688810679674e-06,7.57498360256728e-06,1.435012795907054e-05,8.848268866792846e-06,9.122459114218357e-06
171.526054033544,125.2204885630274,12.5,0,-0.2478280783103509,2.565302098677424,1.70362607303114,-2.845291529535061e-06,8.407229178416034e-06,1.362900858424912e-05,1.002016668115134e-05,1.02958522940652e-05
172.9357439527243,124.3037654296538,12.5,0,-0.2184985721601502,2.434197943320156,1.705816983954594,-2.646553785568605e-06,7.964232276352619e-06,1.364653587163675e-05,9.641633130317547e-06,1.008382682966755e-05
167.8686748857531,125.3576837223193,12.5,0,-0.110327350035143,2.273040520837099,1.83220048406313,-2.171479936782136e-06,7.361991546706828e-06,1.465760387250504e-05,9.509463767280872e-06,9.583377966735475e-06
169.2857410931926,124.4828072683235,12.5,0,-0.07408751153630144,2.151878300845747,1.843146145763783,-1.958582677592762e-06,6.945280571935431e-06,1.474516916611026e-05,9.205614508299e-06,9.419253846708653e-06
169.0843994706499,126.8082996064757,12.5,0,0.03218761953128568,2.416643348402796,1.744925850057681,-1.830314296222123e-06,7.70750861926392e-06,1.395940680046145e-05,1.031692198109096e-05,1.064897196899021e-05
170.4940893898302,125.8915764731021,12.5,0,0.07098588420657492,2.300106686771428,1.75387442451791,-1.612930519956103e-06,7.303552690303308e-06,1.403099539614328e-05,1.00275037680332e-05,1.044728247774837e-05
169.9743716347671,127.8702241358994,12.5,0,0.3445772998724693,2.468761517179734,1.789018807310289,-8.723618541518851e-07,7.624375015077172e-06,1.431215045848231e-05,1.145654966822348e-05,1.146862488532824e-05
171.3786617361707,126.9228671070945,12.5,0,0.3815120555705779,2.34771603940669,1.793705998961027,-6.573342536995024e-07,7.207481681644943e-06,1.434964799168822e-05,1.114357875743824e-05,1.123864209704007e-05
171.1900962196639,129.3208400200558,12.5,0,0.4798181990927981,2.611657334414433,1.703592901457806,-5.539076304345921e-07,7.973448910851945e-06,1.362874321166245e-05,1.23013176746147e-05,1.264236429517622e-05
172.5870100328083,128.3316363118731,12.5,0,0.5190950731111628,2.495119485273575,1.706444849799196,-3.349913542631392e-07,7.569106294386509e-06,1.365155879839357e-05,1.200631965283038e-05,1.237264815305559e-05
258.2016834634593,209.0571971250388,12.5,0,17.55572532174972,4.23928214104786,-2.127176801551334,5.278689531676081e-05,-4.78877406046626e-07,-1.701741441241067e-05,8.105722912586851e-05,8.78248575313048e-05
260.1400699790263,209.6670419410638,12.5,0,17.33261649608899,3.587292005132983,-1.975720580173906,5.259453918337838e-05,-2.386758780445648e-06,-1.580576464139125e-05,7.805613765767383e-05,8.289934205923103e-05
257.6780870327439,210.8862551569676,12.5,0,17.70511578299563,4.115547691321505,-2.331609128680332,5.33639323525288e-05,-9.943400141676842e-07,-1.865287302944265e-05,8.125733462373941e-05,9.082370546175505e-05
259.6189062389624,211.5008576180806,12.5,0,17.4821081173474,3.464970847767473,-2.180016077744018,5.317076929729769e-05,-2.897779781022006e-06,-1.744012862195214e-05,7.826460399184277e-05,8.478628674255262e-05
261.5590673930675,210.1134793311076,12.5,0,17.39221612225555,3.179005242564231,-1.852044668596182,5.311188739716638e-05,-3.740956121598901e-06,-1.481635734876946e-05,7.694293851189566e-05,7.989505581719624e-05
263.4974539086346,210.7233241471327,12.5,0,17.17128531111747,2.592096579925337,-1.690793187689011,5.287443573163562e-05,-5.442319193132896e-06,-1.352634550151209e-05,7.419057592173044e-05,7.661270863520178e-05
261.0396845061594,211.9507778460531,12.5,0,17.59272719554508,3.086643310823574,-2.028381747744203,5.382741237708539e-05,-4.196923161800623e-06,-1.622705398195362e-05,7.743949463355973e-05,8.118821453542729e-05
262.980503712378,212.565380307166,12.5,0,17.37179168939963,2.500964672735349,-1.867067223645393,5.358896166789053e-05,-5.894346398766586e-06,-1.493653778916314e-05,7.469345611880865e-05,7.739551717504393e-05
262.4586649417579,206.9311849546086,12.5,0,17.26577079111594,3.115674994335929,-1.996954994205419,5.275792653610225e-05,-3.842456651017775e-06,-1.597563995364335e-05,7.627948068896004e-05,7.796157963949564e-05
264.3928379135178,207.5327892876171,12.5,0,17.05054727407686,2.60899699222824,-1.826729182893895,5.247455368326335e-05,-5.291647444131118e-06,-1.461383346315116e-05,7.380365816777314e-05,7.53120075735715e-05
261.9392820548499,208.768483469554,12.5,0,17.52186770231974,3.058064551621076,-2.138479499411313,5.362352500612629e-05,-4.231687596668345e-06,-1.71078359952905e-05,7.709612436950045e-05,7.903048160258818e-05
263.8758877172611,209.3748454476504,12.5,0,17.30651842625667,2.552407598545005,-1.968275918616763,5.333893288518533e-05,-5.677510425661317e-06,-1.574620734893411e-05,7.462456623381217e-05,7.605443392008213e-05
259.1085790841038,205.889175683803,12.5,0,17.468288133115,4.187706762538745,-2.269126542296147,5.2548356615937e-05,-5.739688663680166e-07,-1.815301233836918e-05,8.058058974179386e-05,8.388871756563029e-05
261.0427520558635,206.4907800168115,12.5,0,17.20866235516601,3.541753544521196,-2.070629354140456,5.223431670091426e-05,-2.433318541664978e-06,-1.656503483312365e-05,7.745166447638643e-05,8.025970215551223e-05
258.5849826533884,207.7182337157319,12.5,0,17.74465874781919,4.099472785809664,-2.454787622409337,5.350332976437368e-05,-1.077414083664428e-06,-1.96383009792747e-05,8.137870870655682e-05,8.59666331250764e-05
260.5215883157995,208.3245956938283,12.5,0,17.48494589418228,3.454855383208037,-2.256275162464604,5.318794255481686e-05,-2.932419489080107e-06,-1.805020129971684e-05,7.825658633082335e-05,8.168644737470014e-05
269.653658025654,126.2334337841262,12.5,0,1.496350064024982,2.910342118116451,-3.752836724659164,2.460046510386783e-06,8.116014726752656e-06,-3.002269379727331e-05,1.858435742253204e-05,1.812023273949916e-05
271.800337333439,126.8059830212334,12.5,0,1.358861671325491,2.771548347157007,-3.587538826965026,2.131118670515967e-06,7.781865373842028e-06,-2.87003106157202e-05,1.75117538431758e-05,1.826655696620739e-05
269.4309754207703,128.2231243096915,12.5,0,1.875798185936346,2.994334511713995,-3.775638391491333,3.607086585625112e-06,8.081231888735704e-06,-3.020510713193066e-05,2.007021710197639e-05,1.954905562028099e-05
271.5610845561653,128.7814792675402,12.5,0,1.738999533146245,2.854791658016705,-3.609075107746532,3.28096517965462e-06,7.744133679136458e-06,-2.887260086197226e-05,1.898981698538808e-05,1.967587910533848e-05
269.2679604400405,129.6796788656818,12.5,0,2.170523545301291,3.013153486771309,-3.826759733194826,4.535152555547082e-06,7.905672321427155e-06,-3.061407786555861e-05,2.11269415268627e-05,2.061999645455618e-05
271.3859393673563,130.227642889937,12.5,0,2.032613224250819,2.864072530142169,-3.659302883599942,4.213104293488887e-06,7.538941517054283e-06,-2.927442306879953e-05,2.000762321336811e-05,2.073051697209384e-05
269.0452778351568,131.669369391247,12.5,0,2.558464381758137,3.098046944590076,-3.853559172818297,5.708648465953977e-06,7.866978717281734e-06,-3.082847338254638e-05,2.269610482035435e-05,2.211703834503877e-05
271.1466865900826,132.2031391362439,12.5,0,2.421291971479956,2.94812350804748,-3.684819806097086,5.389635502297874e-06,7.49696164856797e-06,-2.947855844877669e-05,2.157232440110359e-05,2.220251906864691e-05
272.9364075514459,130.6287803963947,12.5,0,2.453147189144169,2.761239534601656,-3.920132687830914,5.641079377580015e-06,6.873448759409963e-06,-3.136106150264731e-05,2.130723673359466e-05,2.080153351484037e-05
275.0543864787617,131.17674442065,12.5,0,2.319852051002462,2.621046312887596,-3.757176343282002,5.3266895128978e-06,6.531466560438337e-06,-3.005741074625602e-05,2.023681973874844e-05,2.08850338002724e-05
272.685024566093,132.5938857091081,12.5,0,2.826908833792215,2.841950546852715,-3.941843210251495,6.772547830652914e-06,6.832714682894914e-06,-3.153474568201196e-05,2.281856209748205e-05,2.225104739804833e-05
274.7864333210188,133.127655454105,12.5,0,2.694327103144083,2.700962630030551,-3.777606519441118,6.461076626036623e-06,6.487618733582497e-06,-3.022085215552894e-05,2.174450574081264e-05,2.229814853597693e-05
273.3718156542275,127.2251181526128,12.5,0,1.780870218722979,2.670502195777584,-3.842559933684727,3.562382943291465e-06,7.120910851509885e-06,-3.074047946947781e-05,1.878552289609618e-05,1.837213450584793e-05
275.5184949620124,127.79766738972,12.5,0,1.638006136126887,2.518081032726488,-3.672998827426233,3.227154809424846e-06,6.74745439582325e-06,-2.938399061940987e-05,1.764499049307771e-05,1.851425348158804e-05
273.1204326688747,129.1902234653261,12.5,0,2.162079524394098,2.752090129124201,-3.866980531391643,4.716982374761752e-06,7.077024793682163e-06,-3.093584425113314e-05,2.028200457687801e-05,1.976218193789695e-05
275.2505418042697,129.748578423175,12.5,0,2.019874474677729,2.598787477915147,-3.69611547003547,4.384568336636614e-06,6.700220349586288e-06,-2.956892376028376e-05,1.913330685643793e-05,1.987114217623633e-05
161.970828484049,100.5305912498849,12.5,0,-4.445312161473932,1.434899459790147,1.852763488532218,-1.53729184845487e-05,8.147928000507617e-06,1.482210790825774e-05,2.979225803366326e-06,3.049192146781635e-06
163.4269045141924,99.89857311583086,12.5,0,-4.380958878220315,1.355928372403667,1.913756991077989,-1.510381110822794e-05,7.843737894267986e-06,1.531005592862392e-05,2.933418131082805e-06,3.081775053417112e-06
162.6198839329364,101.905512903288,12.5,0,-4.215900686385279,1.539340189057728,1.774475453851406,-1.472235434767907e-05,8.298609154092952e-06,1.419580363081125e-05,3.057862446144658e-06,3.132159677636505e-06
164.3277407207752,101.5003533319906,12.5,0,-4.191890752031657,1.448949112347335,1.84391398255605,-1.457320969637917e-05,7.990149761136797e-06,1.47513118604484e-05,2.998626820138077e-06,3.189208524396585e-06
164.4928261478951,99.43590373041809,12.5,0,-4.607279292086382,1.54307193161059,1.808500850903644,-1.597775127996489e-05,8.623653614822993e-06,1.446800680722915e-05,3.074271516021055e-06,3.107110569843987e-06
165.9489021780384,98.80388559636404,12.5,0,-4.56440860475683,1.435668658786181,1.852243624720622,-1.57546424622508e-05,8.245666591921242e-06,1.481794899776498e-05,2.978287785948913e-06,3.14374558132567e-06
165.5779786614714,101.2037559406406,12.5,0,-4.356337320419527,1.701231847677674,1.694411854338544,-1.530126490348463e-05,8.929011768904179e-06,1.355529483470835e-05,3.201693533473743e-06,3.231993876696676e-06
167.2858354493101,100.7985963693431,12.5,0,-4.346734405179382,1.579633886071018,1.750093602292016,-1.517325720543083e-05,8.532215959570762e-06,1.400074881833613e-05,3.084689387710473e-06,3.291836786245148e-06
162.6132868604538,96.37389388209473,12.5,0,-5.137015840075547,1.327839943312813,1.869157836072092,-1.7500722642892e-05,8.358700490661438e-06,1.495326268857673e-05,2.887079020352198e-06,2.961386282268823e-06
163.6332658259083,95.34894519122133,12.5,0,-5.088774980229059,1.233916272814088,1.855107330818036,-1.727121295498426e-05,8.019552057188326e-06,1.484085864654429e-05,2.778128987990544e-06,2.973735662463827e-06
163.69843937403,98.14174609231728,12.5,0,-4.959879117334665,1.49539841292941,1.755618762774145,-1.706793190581446e-05,8.753178215241842e-06,1.404495010219316e-05,2.988285101628763e-06,3.034601483453571e-06
164.9701990971799,97.34365596420044,12.5,0,-4.938359309228136,1.383902295022129,1.757764339361379,-1.690987162554774e-05,8.37917479145332e-06,1.406211471489103e-05,2.865170507849158e-06,3.058510642099685e-06
160.8466314696668,98.14915708980681,12.5,0,-4.853464814977617,1.346282059169642,1.903681822461614,-1.660811305526409e-05,8.190874441324947e-06,1.522945457969291e-05,2.917141492379942e-06,2.94353605371383e-06
161.8666104351213,97.12420839893338,12.5,0,-4.779996450866286,1.289082179026116,1.90824486437241,-1.632725438599301e-05,7.9490601335766e-06,1.526595891497928e-05,2.856155267305262e-06,2.953294321492778e-06
161.4956869185542,99.52407874320997,12.5,0,-4.697314796355861,1.439569481624227,1.832632333932244,-1.618306293363814e-05,8.364474178282214e-06,1.466105867145795e-05,2.969350291477922e-06,2.998650599079696e-06
162.7674466417042,98.72598861509312,12.5,0,-4.656880775381792,1.369931129079283,1.849483951499997,-1.599796338448516e-05,8.109284233359139e-06,1.479587161199998e-05,2.901456194858614e-06,3.018562033267972e-06
269.118372842984,209.1291541686758,12.5,0,16.80513505029891,1.61469515382181,-1.437410310848767,5.248467603789905e-05,-8.277083548009333e-06,-1.149928248679014e-05,6.965787690306579e-05,7.015284316201712e-05
271.0332596640004,209.7850704813168,12.5,0,16.63084593465656,1.278317847394818,-1.291965761391484,5.219605271298514e-05,-9.214059636061833e-06,-1.033572609113187e-05,6.791909517042906e-05,6.846202636957378e-05
268.5638564497806,210.8919110111298,12.5,0,17.04055403655574,1.588947844713808,-1.514554625248166,5.325861464120733e-05,-8.547810126160408e-06,-1.211643700198533e-05,7.048960688990829e-05,7.050285409153892e-05
270.4604138014872,211.5092011117643,12.5,0,16.86770494146136,1.247142632375015,-1.368272179423928,5.297894170677633e-05,-9.503307529569037e-06,-1.094617743539143e-05,6.873968566643081e-05,6.874150724599085e-05
265.8016915782993,207.9930737896887,12.5,0,17.04157298343838,2.285020892252845,-1.725631393128347,5.270501683320053e-05,-6.321191531541599e-06,-1.380505114502678e-05,7.272121294456665e-05,7.358766741003854e-05
267.7165783993156,208.6489901023297,12.5,0,16.83947804070188,1.866879835114458,-1.561336058805642,5.239282586215444e-05,-7.497566960195236e-06,-1.249068847044513e-05,7.059978365603096e-05,7.152625453945873e-05
265.2789227572155,209.8227331938405,12.5,0,17.30452209906793,2.250615060435463,-1.83479445172791,5.357397866866901e-05,-6.641649485860865e-06,-1.467835561382328e-05,7.363491903406252e-05,7.415837674741104e-05
267.1754801089221,210.4400232944752,12.5,0,17.10388240017302,1.825880911232481,-1.669945440398808,5.327171895156768e-05,-7.840287004194478e-06,-1.335956352319046e-05,7.149888786243495e-05,7.195429989990406e-05
264.8962294195856,211.162136838169,12.5,0,17.17431533780102,2.270442622579449,-1.540073458673242,5.31414549828997e-05,-6.474035877986582e-06,-1.232058766938594e-05,7.315632165167028e-05,7.455785543834647e-05
266.7793686684823,211.7511505891122,12.5,0,16.98715360275313,1.816991928259182,-1.394817547359503,5.290529798620267e-05,-7.77534871177312e-06,-1.115854037887602e-05,7.098605863199085e-05,7.222623928419825e-05
264.373460598502,212.9917962423209,12.5,0,17.38826072681115,2.211288665995306,-1.671625707491806,5.387340339299941e-05,-6.834484850263937e-06,-1.337300565993444e-05,7.380583116247826e-05,7.507854218119709e-05
266.2382703780888,213.5421837812576,12.5,0,17.20197760938427,1.750133291411904,-1.526464400205207,5.364622171690012e-05,-8.161155554989319e-06,-1.221171520164165e-05,7.161586275341793e-05,7.254114613825519e-05
268.1579222763431,212.1823385811409,12.5,0,16.91359494604734,1.583106129439462,-1.229307973418467,5.285701892379993e-05,-8.464936342631596e-06,-9.834463787347734e-06,6.994920894862555e-05,7.070660405104277e-05
270.0410615252397,212.771352332084,12.5,0,16.76041437264607,1.23285706250954,-1.106362966383741,5.26470403424598e-05,-9.463188898086328e-06,-8.850903731069931e-06,6.825366615724815e-05,6.8886499539062e-05
267.6034058831397,213.9450954235949,12.5,0,17.09814574876611,1.537594691903239,-1.321192083750039,5.348399064252895e-05,-8.758213584922521e-06,-1.056953667000031e-05,7.052469789018114e-05,7.09132483629493e-05
269.4682156627265,214.4954829625315,12.5,0,16.94587191424088,1.18121676723542,-1.197988119588467,5.328181671178248e-05,-9.776803876239361e-06,-9.583904956707735e-06,6.88141792344195e-05,6.900314497403807e-05
249.3496958214641,190.0350156692089,12.5,0,16.39233840092077,6.963019305583449,-3.195887502803642,4.68850674384797e-05,9.16779105713042e-06,-2.556710002242914e-05,8.597162846509588e-05,8.890193362718432e-05
251.1124210676603,190.4166138482693,12.5,0,16.17199731682885,6.501706528268999,-2.966675752632194,4.654902619123712e-05,7.867863036997713e-06,-2.373340602105755e-05,8.352508574654074e-05,8.623574929834209e-05
249.2368616501741,191.617387235831,12.5,0,16.87964001502332,7.057150944412661,-3.338009004956531,4.836912729254449e-05,9.079171010101857e-06,-2.670407203965225e-05,8.815576066622091e-05,9.160287033804757e-05
250.953252032703,192.0527942664122,12.5,0,16.63509351391616,6.58137663504181,-3.097883033670139,4.796719793649824e-05,7.752330421000866e-06,-2.478306426936111e-05,8.556745984611572e-05,8.864284921080375e-05
249.1542613039634,192.7757636190016,12.5,0,16.853363933343,7.223234848625316,-2.9064175448614,4.815217670779736e-05,9.631660368926605e-06,-2.32513403588912e-05,8.852174202913413e-05,9.385287742269893e-05
250.8367322121275,193.2505614627911,12.5,0,16.63304317644238,6.760764981106515,-2.712022330618634,4.781712617973042e-05,8.328013398386938e-06,-2.169617864494907e-05,8.608179030141484e-05,9.060651157085501e-05
249.0414271326733,194.3581351856237,12.5,0,17.24305868582061,7.291482645999068,-3.059452554398875,4.93446016778267e-05,9.538297518540528e-06,-2.4475620435191e-05,9.025146236340417e-05,9.729907438475445e-05
250.6775631771703,194.886741880934,12.5,0,17.00148992416896,6.814967925511811,-2.854085884063909,4.895279341693122e-05,8.206705422302625e-06,-2.283268707251127e-05,8.768203440850308e-05,9.356423699519204e-05
252.0683863991079,193.5981376077545,12.5,0,16.76812955127344,6.363522218423857,-3.033952141443132,4.856719678933592e-05,6.948767457937589e-06,-2.427161713154506e-05,8.531811739453086e-05,8.842926035365955e-05
253.7508573072722,194.072935451544,12.5,0,16.52523293671098,5.888045047980961,-2.811335459815847,4.817030935909037e-05,5.621557804170291e-06,-2.249068367852678e-05,8.275267300207032e-05,8.572726525903144e-05
251.875297889786,195.2737088391058,12.5,0,17.25102618367411,6.433637914321579,-3.18816779403512,5.005637345629988e-05,6.786820378889766e-06,-2.550534235228096e-05,8.740977345079659e-05,9.108871254706477e-05
253.511433934283,195.802315534416,12.5,0,16.98422097598262,5.944674938976965,-2.954616112729356,4.95937671719628e-05,5.435583023940193e-06,-2.363692890183485e-05,8.470716840512341e-05,8.806029136867709e-05
252.4028255076053,190.6959631034053,12.5,0,16.26267866396899,6.113706149109818,-3.264258867229656,4.71496068054129e-05,6.553716745976226e-06,-2.611407093783724e-05,8.262959653264206e-05,8.441941147579715e-05
254.1655507538015,191.0775612824658,12.5,0,16.06148254940511,5.686077054363704,-3.05736456488938,4.684788251460537e-05,5.346260534439765e-06,-2.445891651911504e-05,8.038322776790997e-05,8.212326858952665e-05
252.2097369982833,192.3715343347567,12.5,0,16.7194260756729,6.184049974731176,-3.396199031336137,4.855492346236834e-05,6.41341905860144e-06,-2.716959225068909e-05,8.461986237347066e-05,8.664222651758898e-05
253.9261273808123,192.8069413653378,12.5,0,16.49709810984071,5.744485182867137,-3.179944209796522,4.819512580519656e-05,5.184674097302266e-06,-2.543955367837218e-05,8.225232461239581e-05,8.413644479996242e-05
276.0478496680867,141.3792814037006,12.5,0,4.578836945673818,2.635978224746787,-4.083856339501582,1.254349564635879e-05,4.772060762650663e-06,-3.267085071601266e-05,2.823782858807055e-05,2.808660637603039e-05
278.073197234516,141.5022926008837,12.5,0,4.481504140133281,2.357533328209812,-3.895111395004416,1.245478658585865e-05,3.958903338164774e-06,-3.116089116003533e-05,2.682070343065381e-05,2.774979308640038e-05
276.3355486006562,143.3979666359582,12.5,0,5.067790557958871,2.793880610023187,-4.209576615360684,1.398182529744983e-05,4.886185505707102e-06,-3.367661292288547e-05,3.057688749364473e-05,2.953367038367175e-05
278.416191329979,143.5506533790046,12.5,0,4.966650146070193,2.520255087731018,-4.023861904993041,1.38770763972398e-05,4.091496163883103e-06,-3.219089523994433e-05,2.916652069527556e-05,2.917814580673575e-05
276.5461588365715,144.8757467903969,12.5,0,5.317580254842438,2.593705290297386,-4.121589050335497,1.494129258325789e-05,4.045792725077685e-06,-3.297271240268397e-05,3.072830472404601e-05,3.05872654002289e-05
278.6672804345434,145.0501575407568,12.5,0,5.202279061601558,2.293588585615425,-3.91675661080635,1.481242212863265e-05,3.177660224688112e-06,-3.13340528864508e-05,2.917234316245472e-05,3.021627300229554e-05
276.8338577691411,146.8944320226544,12.5,0,5.818765581246032,2.755375703168881,-4.249945929810345,1.641574929745219e-05,4.162189785143593e-06,-3.399956743848275e-05,3.314138485771082e-05,3.201867650854548e-05
279.0102745300063,147.0985183188777,12.5,0,5.700085252855948,2.460345623066539,-4.048366329654585,1.62719963106858e-05,3.313037791528167e-06,-3.238693063723668e-05,3.159432038592107e-05,3.16241365250691e-05
280.2200492132243,145.177835071401,12.5,0,5.398102282175831,2.283063288090038,-4.100104940020911,1.544747667249063e-05,2.987320696147457e-06,-3.280083952016729e-05,2.998728617211719e-05,2.993713765162989e-05
282.3411708111962,145.3522458217609,12.5,0,5.282469237882536,1.9810663505577,-3.895885718318529,1.531904848077795e-05,2.113436931478613e-06,-3.116708574654823e-05,2.843311442214063e-05,2.95455180893237e-05
280.6035221773363,147.2479198568354,12.5,0,5.91351162875839,2.460731535646802,-4.240412827149174,1.69546519835094e-05,3.143531611063052e-06,-3.39233026171934e-05,3.251209257149428e-05,3.132837120147956e-05
282.7799389382014,147.4520061530587,12.5,0,5.794407496388532,2.163569352351023,-4.039223133958854,1.681124850656248e-05,2.287895930412447e-06,-3.231378507167083e-05,3.096440002806927e-05,3.091486529375791e-05
279.5558545560653,141.5923430471177,12.5,0,4.655728578979115,2.345586024024007,-4.075045964149212,1.302186263351396e-05,3.781292413693529e-06,-3.260036771319369e-05,2.755303935102145e-05,2.749442599358486e-05
281.5812021224947,141.7153542443007,12.5,0,4.556097832908019,2.057258579115012,-3.887212248120391,1.293370620201365e-05,2.938349186841624e-06,-3.109769798496313e-05,2.610446035389555e-05,2.713356341103205e-05
279.9393275201773,143.6624278325521,12.5,0,5.157589387188605,2.520341862373322,-4.215428957782068,1.448801254910488e-05,3.939022449843746e-06,-3.372343166225655e-05,3.000435378151354e-05,2.89098351293813e-05
282.0199702495001,143.8151145755986,12.5,0,5.054127890081876,2.236758361817351,-4.03035693347266,1.438380255880812e-05,3.114324445750022e-06,-3.224285546778128e-05,2.856074360209822e-05,2.853232130354056e-05
265.952062215954,187.6824219994935,12.5,0,14.7634347742137,3.037035073875775,-3.345612391754686,4.481336321838321e-05,-2.092235582968477e-06,-2.676489913403749e-05,6.682882811668844e-05,6.710910483276624e-05
268.0210472135248,188.2291494393167,12.5,0,14.51787404740278,2.639147430706197,-3.088906702949912,4.434587900712392e-05,-3.169027459662388e-06,-2.47112536235993e-05,6.453626268964824e-05,6.573151069105062e-05
265.8670229268234,189.5903566462734,12.5,0,15.30898352863048,3.159452312322626,-3.461803147933264,4.646118544175942e-05,-2.136939423471977e-06,-2.769442518346611e-05,6.932885202128657e-05,6.823701784630046e-05
267.9283444798834,190.1478020220644,12.5,0,15.05899264158416,2.759397629517945,-3.203454488199912,4.598125834945495e-05,-3.217121698809904e-06,-2.56276359055993e-05,6.701174455261092e-05,6.678895062198597e-05
262.3684750801281,186.7354622958446,12.5,0,14.82882782524188,3.725971568901553,-3.523500325642556,4.447147178565278e-05,6.004676029146283e-08,-2.818800260514045e-05,6.937098843052187e-05,6.962531900534175e-05
264.4374600776988,187.2821897356678,12.5,0,14.56333336137204,3.280681985658295,-3.250075209923966,4.39781211678639e-05,-1.152484334991091e-06,-2.600060167939173e-05,6.682915230418431e-05,6.815244762602969e-05
262.296709266251,188.6248329329766,12.5,0,15.39937957801471,3.855332377170836,-3.655141171096112,4.619374874791039e-05,1.755994453490894e-08,-2.92411293687689e-05,7.199310334928516e-05,7.090231782563187e-05
264.3580308193108,189.1822783087675,12.5,0,15.12916845815641,3.407640482935906,-3.379893433635257,4.568722667975178e-05,-1.198885221130228e-06,-2.703914746908205e-05,6.9425152133467e-05,6.933919126665575e-05
262.2441730442486,190.0079482336271,12.5,0,15.43927068759103,3.674683768207281,-3.292307384538784,4.646591918572546e-05,-5.924284918095227e-07,-2.633845907631027e-05,7.144181409861173e-05,7.179973874356057e-05
264.2998845665659,190.5732396830984,12.5,0,15.17033966952762,3.2121611045439,-3.025833885880153,4.597535805885326e-05,-1.857356201081617e-06,-2.420667108704122e-05,6.884218591546166e-05,7.016715070062089e-05
262.1724072303714,191.8973188707591,12.5,0,15.98768671826693,3.797846619950044,-3.431253704424522,4.812232020249413e-05,-6.37040190773399e-07,-2.745002963539618e-05,7.39620282717852e-05,7.297453946693102e-05
264.220455308178,192.473328256198,12.5,0,15.71414685924214,3.332888652444316,-3.162921877724407,4.761895902761939e-05,-1.9060737995719e-06,-2.530337502179526e-05,7.133614063927418e-05,7.124243430028975e-05
265.8047698465429,190.987061745178,12.5,0,15.33901292654886,2.953187782274433,-3.104639080461216,4.67222911391368e-05,-2.821009437960903e-06,-2.483711264368972e-05,6.866880345741464e-05,6.902030602979913e-05
267.8604813688603,191.5523531946492,12.5,0,15.0919161949119,2.544153213634393,-2.855757938233618,4.625880925281057e-05,-3.932242672299467e-06,-2.284606350586894e-05,6.634600407148148e-05,6.751965616353094e-05
265.7197305574124,192.8949963919579,12.5,0,15.86186284643269,3.069389525590028,-3.226060037652312,4.83024494881126e-05,-2.867443795258069e-06,-2.58084803012185e-05,7.106404073838521e-05,7.003237613064259e-05
267.7677786352189,193.4710057773968,12.5,0,15.61045451118495,2.658177771305923,-2.97551844091336,4.78269122187471e-05,-3.982194740769006e-06,-2.380414752730688e-05,6.871671528427785e-05,6.845854089755349e-05
273.476159377542,234.6052143283823,12.5,0,14.47886447041213,0.009557293969613578,0.2581326212705023,4.632472047014311e-05,-1.155250823562694e-05,2.065060970164018e-06,5.567316242986805e-05,5.663035968976169e-05
275.4498550967052,234.5719482350559,12.5,0,14.50089916545942,0.1187019749736793,0.1342021521856659,4.63079157494912e-05,-1.122087301245176e-05,1.073617217485327e-06,5.608610542845225e-05,5.648888024954568e-05
274.0799968107455,236.3465484027117,12.5,0,14.17597332632502,-0.09800019202758969,0.333137662574738,4.544151479786212e-05,-1.16543792755483e-05,2.665101300597904e-06,5.418671033013531e-05,5.569045721694382e-05
276.0617053874884,236.3240199707783,12.5,0,14.19982543619614,0.01157275753500553,0.2090110029103723,4.543018318979965e-05,-1.13228275248449e-05,1.672088023282978e-06,5.460570878652936e-05,5.568848285863311e-05
274.5220364913436,237.6212934180176,12.5,0,13.99935824977837,-0.003357771704236789,0.1336113510796576,4.480063261665416e-05,-1.121023146927625e-05,1.068890808637261e-06,5.378866948619213e-05,5.520158281779542e-05
276.5096108869484,237.6066254997779,12.5,0,14.01998687482698,0.08771817570247986,0.01785319519434156,4.479378345888436e-05,-1.093529133761365e-05,1.428255615547325e-07,5.414296640863032e-05,5.527959263999411e-05
275.1258739245471,239.3626274923471,12.5,0,13.72024149768909,-0.09934463830025209,0.199229116472474,4.398424850324528e-05,-1.129409604071208e-05,1.593832931779792e-06,5.242730491047499e-05,5.480585559356339e-05
277.1214611777316,239.3586972355002,12.5,0,13.74253800277616,-0.007874399373799967,0.08331562457048478,4.398242112838274e-05,-1.101922848021708e-05,6.665249965638782e-07,5.278744342276847e-05,5.496288117881952e-05
277.9646163282922,237.5958878383856,12.5,0,14.181402189276,-0.003714435614575073,0.128790041407589,4.538345855417485e-05,-1.135700794538744e-05,1.030320331260712e-06,5.448707604838463e-05,5.53778964509428e-05
279.9521907238969,237.5812199201458,12.5,0,14.19463437558136,0.05537993508476635,0.04540748873877332,4.537852605379254e-05,-1.117849170819384e-05,3.632599099101866e-07,5.471610983966595e-05,5.556845763484497e-05
278.5823324379373,239.3558200878016,12.5,0,13.97869950412671,-0.07179689456978844,0.1746963962681548,4.47892759288613e-05,-1.141270966592469e-05,1.397571170145238e-06,5.350310064392078e-05,5.511207814603374e-05
280.5779196911216,239.3518898309547,12.5,0,13.99313391536055,-0.01241416869771861,0.09121137757947149,4.478795986411193e-05,-1.123423247212114e-05,7.296910206357719e-07,5.373678767460881e-05,5.536266625555935e-05
276.8947006417523,234.5475957645726,12.5,0,14.55196474579098,-0.002654991829278863,0.268855183267752,4.656841117999454e-05,-1.165006777048647e-05,2.150841466142016e-06,5.591740682780178e-05,5.64416480503059e-05
278.8683963609154,234.5143296712462,12.5,0,14.56717485175641,0.07455102780974299,0.1722520764117845,4.655531870337271e-05,-1.141517659241395e-05,1.378016611294276e-06,5.620741391281234e-05,5.645408672244008e-05
277.5124167513974,236.3075280139888,12.5,0,14.31400709732744,-0.08520960102844732,0.3256517576484693,4.587299039227055e-05,-1.172387640115298e-05,2.605214061187754e-06,5.475541506696161e-05,5.573415363306216e-05
279.4941253281402,236.2849995820552,12.5,0,14.33063439298285,-0.007664413969012074,0.2289075035579358,4.586416158872033e-05,-1.148903363908712e-05,1.831260028463486e-06,5.505063171825949e-05,5.586090286753936e-05
159.2463870723026,100.9456081707215,12.5,0,-4.322535538223111,1.349242734573045,1.879871815563857,-1.491150790997239e-05,7.775605181212231e-06,1.503897452451085e-05,2.9012402251538e-06,2.959225242369355e-06
160.8506622115853,100.8111434472812,12.5,0,-4.316618422527863,1.288492614318167,1.978503813010883,-1.48439730435437e-05,7.576471103840424e-06,1.582803050408706e-05,2.90735897337396e-06,3.016355023879824e-06
159.7570479777916,102.3410697512341,12.5,0,-4.103897909057999,1.422030058723935,1.830716807694907,-1.427009735596474e-05,7.83361451516299e-06,1.464573446155926e-05,2.959888906269938e-06,3.032032284006037e-06
161.3951705036413,102.1307821888809,12.5,0,-4.086957511245393,1.367318093427134,1.923095844673101,-1.417211851072696e-05,7.644983907963143e-06,1.538476675738481e-05,2.967409487827399e-06,3.090044430955808e-06
158.3618964385723,98.52859781330679,12.5,0,-4.716727465642101,1.282961102458143,1.864264875072326,-1.611989677202124e-05,7.878857500379739e-06,1.491411900057861e-05,2.817180466709814e-06,2.864761288238762e-06
159.9075461846187,98.52546209923526,12.5,0,-4.71948341554894,1.269835359900673,1.96786332233186,-1.611821521767715e-05,7.839059884121307e-06,1.574290657865488e-05,2.87623535751712e-06,2.919813698950677e-06
158.8725573440614,99.92405939381936,12.5,0,-4.488853622175904,1.343666781713858,1.829045713981333,-1.543926501633398e-05,7.890816599225069e-06,1.463236571185066e-05,2.855717877673765e-06,2.914405114137759e-06
160.4520544766747,99.84510084083499,12.5,0,-4.478956092567835,1.334412591627392,1.926519979091707,-1.540018956951899e-05,7.853285167261923e-06,1.541215983273366e-05,2.916597099917843e-06,2.97074183671351e-06
155.6847525477621,98.53402902939659,12.5,0,-4.693785910974759,1.146019138377039,1.9202990321179,-1.593693022582086e-05,7.422289971586332e-06,1.53623922569432e-05,2.71077788112902e-06,2.773942644806688e-06
157.2304022938085,98.53089331532505,12.5,0,-4.705354622159503,1.097692482383858,2.021399621648364,-1.59352887768175e-05,7.276899641355948e-06,1.617119697318691e-05,2.734110597787926e-06,2.82567525708302e-06
156.1367880600148,100.0608196192779,12.5,0,-4.446230603882923,1.220093142519848,1.87671213101302,-1.520401244644123e-05,7.461282539169851e-06,1.501369704810416e-05,2.752105245026068e-06,2.818894548011664e-06
157.7162851926282,99.98186106629356,12.5,0,-4.444933068028382,1.177271282795012,1.971893217950598,-1.516560284392683e-05,7.323214559366745e-06,1.577514574360478e-05,2.776484973993051e-06,2.87371775575851e-06
156.4677010217952,101.1785079035416,12.5,0,-4.268468538594134,1.22228262792027,1.913278697545643,-1.463692542583744e-05,7.32607924022017e-06,1.530622958036514e-05,2.78238034293202e-06,2.860713492996288e-06
158.0719761610779,101.0440431801013,12.5,0,-4.25241845833143,1.200584073770957,2.014901140968884,-1.456820632567734e-05,7.243803802732204e-06,1.611920912775107e-05,2.838574735745597e-06,2.917521219861665e-06
156.9197365340478,102.7052984934229,12.5,0,-4.026937231582148,1.289343450426454,1.877637966359532,-1.391767390140404e-05,7.347448826630371e-06,1.502110373087626e-05,2.839941183221216e-06,2.930013072213085e-06
158.5578590598976,102.4950109310698,12.5,0,-4.000035678121896,1.271564625178363,1.974053610328855,-1.381736587013275e-05,7.269035343068276e-06,1.579242888263084e-05,2.899825874794399e-06,2.989152010668604e-06
290.8159131551139,175.442540543816,12.5,0,11.04245319691022,0.8048784044979667,-3.159805924664056,3.469194750651433e-05,-6.258351663134681e-06,-2.527844739731245e-05,4.56032161367257e-05,4.604084069348058e-05
293.2004158584826,175.7018832753229,12.5,0,10.94123202440118,0.6055889590113153,-2.9632041533076,3.452747131087473e-05,-6.815100950684737e-06,-2.37056332264608e-05,4.452475004256018e-05,4.52523732963073e-05
291.1670382142365,177.5510350209051,12.5,0,11.49879111970813,0.9447958387127575,-3.249923675242882,3.604029491209582e-05,-6.175686211885682e-06,-2.599938940194306e-05,4.779934853897198e-05,4.700523417056256e-05
293.5754818069829,177.8462375950084,12.5,0,11.39116845789641,0.7448050161384265,-3.053381777158918,3.585589505235775e-05,-6.729558714674158e-06,-2.442705421727134e-05,4.66933710210644e-05,4.620315918633671e-05
294.9459929880595,175.8917353313515,12.5,0,10.89612956689939,0.558508885608795,-3.008174807477557,3.4420807505591e-05,-6.929675219571364e-06,-2.406539845982046e-05,4.422888310566628e-05,4.469473712727554e-05
297.3304956914281,176.1510780628584,12.5,0,10.80488217377426,0.3874422390600825,-2.823424389274994,3.426566916482957e-05,-7.404090574027146e-06,-2.258739511419995e-05,4.328500139186896e-05,4.395971417845121e-05
295.338584883962,178.0623408777681,12.5,0,11.33901502566522,0.6938371152711782,-3.09218825008306,3.572977838991174e-05,-6.850933251664401e-06,-2.473750600066448e-05,4.63553568408148e-05,4.563772426817592e-05
297.7470284767084,178.3575434518715,12.5,0,11.2416682177128,0.5219517676841958,-2.907502871314594,3.555577688253361e-05,-7.323088917580815e-06,-2.326002297051676e-05,4.538481023567376e-05,4.489500232754727e-05
294.2660038777288,172.1321362418348,12.5,0,10.3039398046611,0.7017740605843803,-3.221023927119565,3.2411188126448e-05,-5.99747484985886e-06,-2.576819141695652e-05,4.252545444947901e-05,4.296989653362927e-05
296.6090397443174,172.3293679040142,12.5,0,10.22122304249006,0.5212314845623034,-3.037061486645641,3.229092854831834e-05,-6.509037683392676e-06,-2.429649189316513e-05,4.15758441844267e-05,4.224917203933666e-05
294.6585957736314,174.3027417882514,12.5,0,10.75592842191012,0.8417772481645889,-3.3109173159236,3.374554915158072e-05,-5.911055543401413e-06,-2.64873385273888e-05,4.470238756040151e-05,4.397989484028066e-05
297.0255725295978,174.5358332930273,12.5,0,10.66683025701922,0.6604032071777532,-3.126923952617862,3.36055342567193e-05,-6.420173942646564e-06,-2.50153916209429e-05,4.372518234800839e-05,4.325076608943744e-05
290.2077467129141,171.790520982085,12.5,0,10.43273158274987,0.9573358051357805,-3.360204486850001,3.261887242069097e-05,-5.282710689765401e-06,-2.688163589480001e-05,4.38637821181464e-05,4.42783803343964e-05
292.5507825795027,171.9877526442644,12.5,0,10.34139142774676,0.7506041617816339,-3.16556739116659,3.249196923936433e-05,-5.87117982449618e-06,-2.532453912933272e-05,4.279067632929818e-05,4.351362125754814e-05
290.5588717720366,173.8990154591741,12.5,0,10.89617459472854,1.100987604131658,-3.455436642787167,3.398696861982601e-05,-5.19377934256153e-06,-2.764349314229734e-05,4.609975889088567e-05,4.531018241022489e-05
292.925848528003,174.13210696395,12.5,0,10.7981607310052,0.8935425174706015,-3.260763980246245,3.383928032524015e-05,-5.779192528898233e-06,-2.608611184196996e-05,4.499832435868252e-05,4.453171378029797e-05
272.0279478126535,179.0235067990973,12.5,0,12.69798777043405,2.40181210771349,-3.622129251767926,3.871211117921817e-05,-2.472591471664072e-06,-2.897703401414341e-05,5.707294809600129e-05,5.743570588452297e-05
274.1738859874585,179.5041669285856,12.5,0,12.46479736827192,1.998463669442991,-3.354854700323763,3.828858064291573e-05,-3.57675415239996e-06,-2.68388376025901e-05,5.479992256617284e-05,5.644750672332177e-05
272.4071918702103,181.0740510284174,12.5,0,13.32258358712351,2.619538115598216,-3.797486559948084,4.053663698631665e-05,-2.275544899784515e-06,-3.037989247958468e-05,6.019818152188674e-05,5.849317297662894e-05
274.5389449785813,181.5567419250251,12.5,0,13.08607293407206,2.21274244630453,-3.527845012792183,4.010523943198696e-05,-3.388082519083149e-06,-2.822276010233746e-05,5.789821853642335e-05,5.746046722669797e-05
271.3710778365082,175.4718600108115,12.5,0,12.00138773094683,2.611630452781607,-3.816538400792149,3.631513637680458e-05,-1.243892735856324e-06,-3.053230720633719e-05,5.520415797834513e-05,5.54539331298146e-05
273.5415852670853,175.9490027484706,12.5,0,11.76122271161732,2.189586500465357,-3.539691978434345,3.588424347680314e-05,-2.402301367804716e-06,-2.831753582747476e-05,5.282716405644859e-05,5.454681199327507e-05
271.7503218940651,177.5224042401316,12.5,0,12.64165285369513,2.835560151301668,-3.997885055548648,3.818484101078307e-05,-1.039529798790764e-06,-3.198308044438918e-05,5.841202672497099e-05,5.662134402198993e-05
273.9066442582081,178.0015777449102,12.5,0,12.39811779380442,2.409963287035444,-3.71861745842477,3.77460063105458e-05,-2.206611716530117e-06,-2.974893966739816e-05,5.600797334451725e-05,5.56667951565277e-05
267.6116486886104,174.6454245467382,12.5,0,11.967059618944,3.147632217226409,-3.962718462607049,3.577648500683965e-05,4.987753999693111e-07,-3.170174770085639e-05,5.687460251543735e-05,5.706059793099838e-05
269.7821561191875,175.1225672843973,12.5,0,11.70535348399987,2.668370616851982,-3.668146499933027,3.532243465531799e-05,-8.254968132735511e-07,-2.934517199946422e-05,5.420934259405413e-05,5.612750004175131e-05
268.0154620019394,176.6924513842293,12.5,0,12.64342213558409,3.39446357013962,-4.16885376591531,3.77433799777574e-05,7.475457159795106e-07,-3.335083012732248e-05,6.030563095949537e-05,5.832312941665962e-05
270.1717843660824,177.1716248890078,12.5,0,12.3780832252874,2.911168618478961,-3.871659021885583,3.728093142613652e-05,-5.86727001097246e-07,-3.097327217508467e-05,5.761076582972909e-05,5.733310664179724e-05
268.3110738640563,178.190979033666,12.5,0,12.70633437219662,2.93759055478078,-3.789146699190935,3.831019754720456e-05,-7.647777224588023e-07,-3.031317359352748e-05,5.889649796455577e-05,5.920560697544192e-05
270.4570120388613,178.6716391631543,12.5,0,12.45023568275757,2.474233751757921,-3.502889758543978,3.786136718341788e-05,-2.042640540580705e-06,-2.802311806835182e-05,5.632226445935819e-05,5.817473661969964e-05
268.7148871773852,180.238005871157,12.5,0,13.36999855272299,3.179390822355996,-3.990614837904758,4.024048271082875e-05,-5.219482106392018e-07,-3.192491870323807e-05,6.226030277266771e-05,6.035404901701581e-05
270.8466402857562,180.7206967677647,12.5,0,13.11029614868546,2.712077825591423,-3.701774539012134,3.978328541532033e-05,-1.809587877055815e-06,-2.961419631209708e-05,5.965625054997631e-05,5.926850588055387e-05
208.476101255985,76.17157371790222,12.5,0,-8.824158498750073,1.819373869728072,0.04746112686316954,-2.969280629178269e-05,1.288132318212989e-05,3.796890149053564e-07,3.462980407365614e-06,3.578959764703677e-06
210.6392641143843,76.29025485008017,12.5,0,-8.80446935761683,1.968774270837591,0.1730506822644697,-2.974932136104393e-05,1.334365315277375e-05,1.384405458115757e-06,3.598166423287256e-06,3.593524952914561e-06
207.9927766422751,78.05901353481821,12.5,0,-8.473996583029786,1.943590471540134,0.1374370714444552,-2.867166144292742e-05,1.299868677535226e-05,1.099496571555642e-06,3.507656622260296e-06,3.589484055060691e-06
209.8935701509598,78.15903531756663,12.5,0,-8.450679409803424,2.114077867237425,0.2807161213781435,-2.873343640516089e-05,1.35255927030025e-05,2.245728971025148e-06,3.67339475516593e-06,3.60544051365323e-06
204.7293932802587,75.96601196707391,12.5,0,-8.850354716153467,1.867360173555419,0.2164555147902544,-2.981502323053543e-05,1.305583632830011e-05,1.731644118322035e-06,3.516233335044874e-06,3.551201951480474e-06
206.8925561386581,76.08469309925187,12.5,0,-8.85075725193246,1.934510578050274,0.3403072739572213,-2.987003166862409e-05,1.327103965130684e-05,2.72245819165777e-06,3.584750251559983e-06,3.567619350648505e-06
204.7005057105953,77.88577072523739,12.5,0,-8.513278992022533,1.952648927331591,0.2454654621810142,-2.880461191633737e-05,1.305909976107912e-05,1.963723697448114e-06,3.528439090030846e-06,3.560952404269412e-06
206.60129921928,77.98579250798583,12.5,0,-8.512883629376354,2.029310245845353,0.3865341883814151,-2.886467581068061e-05,1.330409969020621e-05,3.092273507051321e-06,3.610809398425536e-06,3.577563502078881e-06
204.6793585418955,79.29113167442866,12.5,0,-8.263398766546747,2.013136214800164,0.2441813084257311,-2.805338502478972e-05,1.305275490059792e-05,1.953450467405849e-06,3.537535151187321e-06,3.573672308985822e-06
206.3880843562483,79.3774938653591,12.5,0,-8.262564037090469,2.065058564083638,0.3392609507561119,-2.809225176995641e-05,1.321823863474001e-05,2.714087606048895e-06,3.594197584719326e-06,3.590487729215933e-06
204.6504709722321,81.21089043259215,12.5,0,-7.923827710327302,2.099058993188534,0.2734762390053328,-2.703549586759819e-05,1.305605094646515e-05,2.187809912042663e-06,3.561216375135183e-06,3.598673282151031e-06
206.0968274368702,81.27859327409307,12.5,0,-7.921709878114317,2.160721107099576,0.3859647072383459,-2.707804849564547e-05,1.32516754452101e-05,3.087717657906767e-06,3.632411048975695e-06,3.615853222974045e-06
207.6389584685059,79.44071537697045,12.5,0,-8.227066322108387,1.966606909961127,0.07611259957487752,-2.789989775871574e-05,1.287479516956232e-05,6.089007965990201e-07,3.479674976217959e-06,3.602824088141448e-06
209.3476842828588,79.52707756790089,12.5,0,-8.206132344080606,2.095018071072746,0.162014907694968,-2.793563795791613e-05,1.326896370269727e-05,1.296119261559744e-06,3.603110904328631e-06,3.619712227277684e-06
207.155633854796,81.32815519388642,12.5,0,-7.909092266733633,2.087184871642219,0.1697707405558008,-2.69788431508614e-05,1.300626540264201e-05,1.358165924446406e-06,3.541124738357161e-06,3.628745445937261e-06
208.6019903194342,81.39585803538735,12.5,0,-7.883259372046242,2.239515632385006,0.2717179155894826,-2.701804249645597e-05,1.347305752126901e-05,2.173743324715861e-06,3.698537857131189e-06,3.646787713273754e-06
250.8699029547758,207.2745605451557,12.5,0.2147349805429249,17.03126868426537,7.235846978987253,-3.004582338278067,6.20317739864918e-05,1.213564229810677e-05,-3.060961345615937e-05,0.00011366152324922,0.0001261949661357692
253.0074494029536,207.7779109402072,12.5,0.1070643099967176,18.53104380100381,6.80518183361416,-2.487284124539153,6.031251219908444e-05,7.785271553807768e-06,-2.228410536064482e-05,0.0001045388778261671,0.0001115431253250581
249.9788884942877,209.3431506924803,12.5,0.3110683464568934,16.339598864628,6.338241526028918,-2.728467152502889,6.853527908488258e-05,1.046648641342906e-05,-3.168345815984103e-05,0.0001212753940694733,0.0001430055034984572
252.2347430724777,209.7686225855507,12.5,0.1940784874028143,18.46435660958361,6.176582323042512,-2.38867098449531,6.718355875343909e-05,6.196109755125784e-06,-2.371120211741226e-05,0.0001128734347952449,0.000123092709413289
254.5722420064917,208.1463890033792,12.5,0.02702638119498957,17.62028160399875,5.851009155513526,-2.561294654029027,5.314028336337348e-05,4.755528747148446e-06,-2.105951984330071e-05,8.912397317917732e-05,0.0001026822334057172
256.7097884546696,208.6497393984309,12.5,0,17.65983593102863,4.951153402933008,-2.229919298940745,5.25505522569452e-05,1.715822144562722e-06,-1.783935439152596e-05,8.381319831125966e-05,9.312566729138343e-05
253.8861432381294,210.0800896284575,12.5,0.1024602308109539,16.80686652358828,5.285495763700126,-2.562216488752978,5.521045191044351e-05,3.863999506231687e-06,-2.283768654456854e-05,9.108271197992092e-05,0.0001109921339472604
256.1419978163194,210.505561521528,12.5,0,18.32484260424638,4.862195680666384,-2.479474318732838,5.474973978905531e-05,8.991520947353244e-07,-1.98357945498627e-05,8.609028849684567e-05,9.784554105701135e-05
255.7605999322843,204.7971212741762,12.5,0,17.55970711349486,5.377595410370336,-2.429971123787261,5.188898643488727e-05,3.160539622389189e-06,-1.943976899029809e-05,8.488295008008355e-05,9.246652125054089e-05
257.6932306883365,205.4353611914741,12.5,0,17.3225519243857,4.731327258839681,-2.260878257575181,5.164710435096248e-05,1.28220568877842e-06,-1.808702606060145e-05,8.181163216001552e-05,8.715952488419425e-05
255.074501163922,206.7308218992544,12.5,0,17.73100814361261,5.231263579633488,-2.613715410548453,5.255421519585355e-05,2.555236939937077e-06,-2.090972328438762e-05,8.508188376837854e-05,9.771831044449398e-05
257.1254400499863,207.2911833145712,12.5,0,17.51332275248188,4.604451346756297,-2.461880684430536,5.235907173053696e-05,7.235861076346477e-07,-1.969504547544429e-05,8.215564378360679e-05,9.026235788766029e-05
252.4131852705919,203.6916573100174,12.5,0.0509181901881578,17.52941941396476,6.828903757314644,-2.845386483024086,5.334737068543463e-05,8.248979604600325e-06,-2.398433056967505e-05,9.45289290448889e-05,0.000105176188607079
254.345816026644,204.3298972273154,12.5,0,17.82751212345888,6.264774228711283,-2.40005693247801,5.203621941209937e-05,5.785267833109003e-06,-1.920045545982408e-05,8.88554581844998e-05,9.729407174524071e-05
251.5221708101039,205.760247457342,12.5,0.1431474962866269,16.86272807021102,6.146079372533244,-2.64795899346852,5.723723291243881e-05,7.209258897146117e-06,-2.47226586325461e-05,9.903552088839014e-05,0.0001160586317607172
253.5731096961681,206.3206088726588,12.5,0.04578702368190968,18.24740616408279,5.989941422036975,-2.404793864964637,5.617168066007067e-05,4.78916943352141e-06,-2.016148532579158e-05,9.382028274077729e-05,0.0001046304011962965
306.407981462831,173.0551241809092,12.5,0,9.860514733412893,0.1630960073116841,-2.868990964690135,3.142317034107191e-05,-7.366504563332925e-06,-2.295192771752108e-05,3.905163127722638e-05,3.948997519286762e-05
308.658526648034,173.2056187593528,12.5,0,9.806947395621146,0.04733137981587099,-2.718945497918941,3.134436656213497e-05,-7.694097501086128e-06,-2.175156398335153e-05,3.843443966806993e-05,3.890561753047679e-05
306.8790991800903,175.3876654713057,12.5,0,10.27155391318853,0.2871922238559206,-2.941947890168386,3.263921874311856e-05,-7.298228014211879e-06,-2.353558312134709e-05,4.101235694441298e-05,4.048425831056241e-05
309.1737425084299,175.5699240235144,12.5,0,10.21386989251423,0.1718266824410351,-2.79348874001684,3.254692231009272e-05,-7.621250530200074e-06,-2.234790992013472e-05,4.038088151447673e-05,3.989653762127474e-05
307.2239812854554,177.0952042065556,12.5,0,10.41675263247913,0.05842672462679932,-2.644302168016517,3.328686704423176e-05,-8.146436587177543e-06,-2.115441734413213e-05,4.074635609473485e-05,4.119056070337486e-05
309.550906695089,177.3007156014096,12.5,0,10.35742738083995,-0.04875599497326677,-2.493711755773655,3.318277241466644e-05,-8.44196108858641e-06,-1.994969404618924e-05,4.014050262737873e-05,4.060116233792836e-05
307.6950990027146,179.427745496952,12.5,0,10.81386501516106,0.1763230956133852,-2.710876059848748,3.446330957202468e-05,-8.086858106166016e-06,-2.168700847878999e-05,4.26343473227446e-05,4.212593160843317e-05
310.066122555485,179.6650208655711,12.5,0,10.75079436648685,0.06946414341686369,-2.561912145083415,3.434697065802443e-05,-8.378350234255517e-06,-2.049529716066732e-05,4.201521392770436e-05,4.153531277337877e-05
311.2543343202915,177.4511603839707,12.5,0,10.25551761063664,-0.04762819296351228,-2.549002608860277,3.285575890840805e-05,-8.35682430599255e-06,-2.039202087088222e-05,3.977870323021792e-05,4.018098490366276e-05
313.5812597299251,177.6566717788247,12.5,0,10.19775029195556,-0.1559480492747736,-2.40670174747685,3.27575593736776e-05,-8.657233991243721e-06,-1.92536139798148e-05,3.918067252013219e-05,3.962243717045292e-05
311.8018322619815,179.8387184907776,12.5,0,10.64008115917745,0.07050904348751974,-2.619936866124538,3.399185247457783e-05,-8.286435988181899e-06,-2.095949492899631e-05,4.162031827625322e-05,4.111886453128431e-05
314.1728558147518,180.0759938593968,12.5,0,10.57876457754912,-0.03747847425550077,-2.479049117113481,3.388202942756157e-05,-8.582942779656894e-06,-1.983239293690785e-05,4.100936963671339e-05,4.057172561016553e-05
310.306040068262,173.3157884370324,12.5,0,9.713288471143411,0.04589399976717701,-2.774338778902593,3.104580790784517e-05,-7.623769977659761e-06,-2.219471023122074e-05,3.810056375187013e-05,3.84801794338202e-05
312.556585253465,173.466283015476,12.5,0,9.662398592634412,-0.06348285689685262,-2.630909628099237,3.09704617819476e-05,-7.933064016177457e-06,-2.10472770247939e-05,3.751774581091987e-05,3.790221860062037e-05
310.853538009952,175.7033465438394,12.5,0,10.11627365767274,0.1700529972701488,-2.849295277741574,3.223603330673665e-05,-7.548849334873715e-06,-2.27943622219326e-05,4.003055559129966e-05,3.947395136273922e-05
313.1481813382916,175.885605096048,12.5,0,10.06140475355747,0.06096310383061443,-2.707289060678727,3.214772472831941e-05,-7.854041870588007e-06,-2.165831248542981e-05,3.943339968443649e-05,3.890714492307834e-05
284.9387479867264,100.1594965852309,12.5,0,-3.107178684714111,1.595008809195864,-3.411428060206054,-1.121897883844185e-05,7.589771137198054e-06,-2.729142448164843e-05,5.331427309915398e-06,5.376848989603661e-06
287.1009083825644,100.4227350342549,12.5,0,-3.224716862181238,1.329848481312568,-3.231571484062651,-1.138297274403001e-05,6.835288629945206e-06,-2.585257187250121e-05,4.59483990049442e-06,5.378449100813621e-06
285.5728067306923,102.5941274862942,12.5,0,-2.577561604263771,1.797293635246079,-3.568661557438297,-9.68603204184093e-06,7.813388916198469e-06,-2.854929245950637e-05,6.369482956797426e-06,5.867666743753471e-06
287.730598776966,102.8725501342704,12.5,0,-2.699087042391104,1.52973710156933,-3.387046510205016,-9.860868216906996e-06,7.054428358934739e-06,-2.709637208164013e-05,5.491894046449681e-06,5.872743904930147e-06
283.8405260272138,95.94259216698781,12.5,0,-3.896285803392035,1.553591511170904,-3.294579038019667,-1.371098777979123e-05,8.088521478460519e-06,-2.635663230415733e-05,4.686123982658784e-06,4.714150717682292e-06
286.0102526264423,96.17953081195486,12.5,0,-4.006513355851258,1.29444210263403,-3.118018425795862,-1.385639642083124e-05,7.3474254131099e-06,-2.494414740636689e-05,4.084364907185855e-06,4.710222550410335e-06
284.4745847711797,98.37722306805114,12.5,0,-3.37471976251702,1.752379392033498,-3.448785340294178,-1.220100675368126e-05,8.307389864520807e-06,-2.759028272235342e-05,5.466941672110085e-06,5.067765301971151e-06
286.6399430208439,98.62934591197038,12.5,0,-3.488825431301928,1.49089688069844,-3.270511218046723,-1.235695888472492e-05,7.561930363276549e-06,-2.616408974437379e-05,4.749484068439497e-06,5.066952442695798e-06
280.0824493188838,95.53220239563575,12.5,0,-4.056946841197681,1.684008737633345,-3.204317875467463,-1.432943688193925e-05,8.634385433384847e-06,-2.56345430037397e-05,4.70080557830201e-06,4.720028635334088e-06
282.2521759181124,95.76914104060278,12.5,0,-4.169165036927875,1.416866334249046,-3.027457719063698,-1.447482118556844e-05,7.869304299139247e-06,-2.421966175250958e-05,4.09330633063102e-06,4.71677825021844e-06
280.7240742662403,97.94053349264206,12.5,0,-3.540023069565221,1.884700977937635,-3.361349991057522,-1.283583460495881e-05,8.863061585052609e-06,-2.689079992846018e-05,5.466583628791328e-06,5.067774614273028e-06
282.8894325159044,98.19265633656131,12.5,0,-3.656141170050813,1.615153920229575,-3.182736431069945,-1.299177488034626e-05,8.093405480775291e-06,-2.546189144855956e-05,4.742585386087085e-06,5.067985602181302e-06
281.193776327089,99.70355421702382,12.5,0,-3.274543766911631,1.733699703255076,-3.326830021271225,-1.186549981672128e-05,8.167474063945548e-06,-2.66146401701698e-05,5.333578760789842e-06,5.372236678551677e-06
283.355936722927,99.96679266604785,12.5,0,-3.394375671326573,1.459343352184978,-3.146570875771446,-1.202947682999301e-05,7.385399264053186e-06,-2.517256700617157e-05,4.587984997571543e-06,5.375184376075583e-06
281.8354012744454,102.1118853140301,12.5,0,-2.74952148782441,1.938264908451371,-3.487397077298927,-1.034908068779921e-05,8.402064897303912e-06,-2.789917661839142e-05,6.353266727333732e-06,5.856296528234672e-06
283.9931933207191,102.3903079620064,12.5,0,-2.873365399134803,1.661432213481744,-3.305334937819012,-1.052391504801676e-05,7.615275402449422e-06,-2.64426795025521e-05,5.464474510127865e-06,5.863259682450446e-06
273.7882232398876,169.1085273093971,12.5,0,10.56299592563138,2.517815393118299,-3.976645926203113,3.178733464752575e-05,-3.933874825265415e-07,-3.18131674096249e-05,4.958677897222574e-05,4.969266805563142e-05
276.1142622748301,169.5677894813843,12.5,0,10.3318593123915,2.094767435999562,-3.693802822767229,3.138613585085314e-05,-1.562231654714599e-06,-2.955042258213783e-05,4.722329485806337e-05,4.891647288650336e-05
274.1928982530206,171.1815614420562,12.5,0,11.1847361302339,2.736914911079569,-4.151370558218423,3.360162368788483e-05,-1.896611887325025e-07,-3.321096446574738e-05,5.270408102096454e-05,5.096067502127394e-05
276.5067872757169,171.6326761391447,12.5,0,10.95430674033398,2.312490901234748,-3.867689515781503,3.320378884808092e-05,-1.363474508315988e-06,-3.094151612625202e-05,5.033708831500874e-05,5.013033362102253e-05
274.4891409231749,172.6991277529225,12.5,0,11.29398500257817,2.324205403430801,-3.829714187474466,3.428138768550549e-05,-1.597730711083972e-06,-3.063771349979573e-05,5.163022111549461e-05,5.185661132035489e-05
276.7941355195948,173.1442780844321,12.5,0,11.0739472422355,1.92106389901352,-3.55582489077407,3.389978005594279e-05,-2.711753316945141e-06,-2.844659912619256e-05,4.939076835100183e-05,5.098806080896087e-05
274.8938159363079,174.7721618855816,12.5,0,11.9037900314558,2.537890037747218,-3.998631070825708,3.606181607046077e-05,-1.401783904373538e-06,-3.198904856660566e-05,5.468292354742004e-05,5.303634784425078e-05
277.1866605204816,175.2091647421923,12.5,0,11.68448364186536,2.133440678271951,-3.723922808432931,3.568359511135159e-05,-2.520576743022043e-06,-2.979138246746345e-05,5.24397838133249e-05,5.211755433102205e-05
278.4815086752741,173.4701507440893,12.5,0,11.29072762107562,1.87009726443606,-3.666665949460821,3.463425057589312e-05,-3.0482708506651e-06,-2.933332759568657e-05,5.009564324078738e-05,5.036594843352366e-05
280.786503271694,173.9153010755988,12.5,0,11.08988357479826,1.518848365013077,-3.409298727841245,3.427254874734396e-05,-4.011592091796761e-06,-2.727438982272996e-05,4.81137486431794e-05,4.953485632713362e-05
278.8651392498845,175.5290730362706,12.5,0,11.8628080982158,2.063314211475372,-3.813464529749925,3.631033454511027e-05,-2.887641001851453e-06,-3.05077162379994e-05,5.292829215062969e-05,5.146220404866908e-05
281.1579838340581,175.9660758928815,12.5,0,11.66268059117009,1.710940720897664,-3.555288685637545,3.595182531502617e-05,-3.85513416606355e-06,-2.844230948510036e-05,5.094326800155512e-05,5.059054729367879e-05
277.8170410287241,169.9039927252591,12.5,0,10.60279920584412,2.058755910215747,-3.832339876584911,3.228195273052858e-05,-1.894220451984906e-06,-3.065871901267929e-05,4.819243352467371e-05,4.835583623178681e-05
280.1430800636666,170.3632548972462,12.5,0,10.38993942987904,1.686135624814062,-3.564605207154447,3.189889767576167e-05,-2.916317544498235e-06,-2.851684165723557e-05,4.607955893123914e-05,4.76003435755787e-05
278.2006716033345,171.9629150174405,12.5,0,11.19036103855406,2.258423222981897,-3.98571084065779,3.400241674498747e-05,-1.725334517301176e-06,-3.188568672526232e-05,5.110654999031656e-05,4.953359968562194e-05
280.5145606260307,172.4140297145289,12.5,0,10.97819962891745,1.884604305189306,-3.717143867269801,3.362255536838439e-05,-2.75182592652818e-06,-2.973715093815841e-05,4.899058254422316e-05,4.87336336556891e-05
251.5842921370245,233.3575638611546,12.5,0.6220811275349498,12.83424352398199,0.4842542871430253,-1.049794589123798,0.0001076479075566416,-2.306786386047479e-05,-2.222264439510641e-05,0.0001345958241798651,0.0002511121482036796
254.0172904189372,233.6870484194959,12.5,0.4352138639029541,20.23730004953496,3.169255825174828,-3.003200450451871,0.0001101725972389666,-1.070887015900345e-05,-4.25392942001797e-05,0.0001557883224495921,0.0001726568265834703
252.5504952432188,235.5016157455477,12.5,0.5597523394389554,12.36801649938771,-0.7547503684863686,-0.2192844382115744,9.127011155862395e-05,-2.79606582417255e-05,-3.984746911447467e-06,0.0001028479876943529,0.0002180434876625007
254.8432522625984,235.7247489632929,12.5,0.3509773705032666,19.32105468847504,1.729496022755322,-1.974138064511098,9.31304633118653e-05,-1.528830587256579e-05,-2.433367312374779e-05,0.0001228539185395987,0.0001513603083871178
253.2578050073537,237.0711706589206,12.5,0.50138162684559,12.26487766933524,-0.2825831907091487,0.09878623543754558,7.91661062241203e-05,-2.149172377653025e-05,1.58495941194616e-06,9.282044911145717e-05,0.0001941201401310376
255.4478982972459,237.2164492918997,12.5,0.2779852248872421,18.6079505805844,1.860989319025057,-1.602903955053226,8.040922762776325e-05,-1.236982254579561e-05,-1.776034519296809e-05,0.0001071468421241687,0.0001367490035689133
254.2240081135479,239.2152225433136,12.5,0.3951600784092999,10.98909036491322,-2.073023940594116,1.415704647528557,6.088141176818079e-05,-2.550253108502638e-05,1.87250159520598e-05,6.018995768587483e-05,0.000161828999726353
256.2738601409071,239.2541498356966,12.5,0.1587515545072808,16.04221182152547,-0.2353082967521711,-0.06994423358009036,6.124626409990692e-05,-1.615070563235283e-05,-6.651469867655947e-07,7.243813091991255e-05,0.0001181266946353582
257.0511578586945,237.32280063249,12.5,0.06726286224250311,13.62244940059681,-0.5902518255257809,0.1339612624081013,4.724164800414183e-05,-1.370886270584456e-05,1.148973334375199e-06,5.422847644264868e-05,0.0001069533477348851
259.2412511485867,237.4680792654691,12.5,0,14.97465776070619,0.3973823644146517,-0.558417512823241,4.760099894272809e-05,-1.070810264243807e-05,-4.467340102585929e-06,5.877212500402937e-05,8.292123871014745e-05
257.7744559728682,239.2826465915209,12.5,0,12.91253683699986,-1.364446863268873,0.7008703931119854,4.241167536901463e-05,-1.469625943206028e-05,5.606963144895883e-06,4.562435758814054e-05,9.5410823039884e-05
259.8243080002273,239.321573883904,12.5,0,13.20652857698354,-0.3214320712831156,-0.006600071740113685,4.251803710337383e-05,-1.15938054896928e-05,-5.280057392090948e-08,4.978324971800618e-05,7.705221279119423e-05
255.7983687759493,233.9282478565009,12.5,0.2456630651258982,13.11103363173129,-0.4794570611862361,-0.2069429295817062,5.612727060428963e-05,-1.593861966097104e-05,-2.194700219643837e-06,6.488767340624237e-05,0.000131143946269216
258.231367057862,234.2577324148422,12.5,0,18.0127642816107,0.7324977379941817,-1.196072324549067,5.705484751075891e-05,-1.206621866370718e-05,-9.568578596392532e-06,7.152024887121268e-05,9.618396969753493e-05
256.521666890123,235.8880938155318,12.5,0.1467376950990875,13.18488543540583,-1.259652340403748,0.3139452959279354,5.062845858477046e-05,-1.708594854581049e-05,2.943482154312612e-06,5.501772111773994e-05,0.0001165280092469284
258.8144239095027,236.111227033277,12.5,0,16.01507334723578,-0.08582197751932608,-0.5649476027421948,5.131689229316994e-05,-1.308668900585046e-05,-4.519580821937558e-06,6.13007582734877e-05,8.804757752283044e-05
281.0673804101188,116.8480269487912,12.5,0,-0.09990839066260848,2.051978766656584,-3.723169492079759,-1.961289863445614e-06,6.646258765831154e-06,-2.978535593663807e-05,1.143794412148683e-05,1.133344448852458e-05
283.2711692702225,117.1966582672084,12.5,0,-0.2355483366662524,1.794166970493691,-3.52900473573497,-2.189088253726961e-06,5.929772974912813e-06,-2.823203788587976e-05,1.008975899831076e-05,1.133489723475536e-05
281.420961962958,119.4242961231587,12.5,0,0.4674746492259007,2.229539268270243,-3.855970910188601,-2.877125370933124e-07,6.760545939084057e-06,-3.084776728150881e-05,1.35978678392162e-05,1.268361145881103e-05
283.6718452189482,119.8139332582936,12.5,0,0.3270453103285131,1.974240302082112,-3.663710545722353,-5.328472486144475e-07,6.055932718399947e-06,-2.930968436577882e-05,1.218547044351965e-05,1.268107069850531e-05
280.4549591959932,112.3857978448932,12.5,0,-0.9596724225506217,2.006618862832839,-3.613751799288372,-4.67624684242826e-06,7.18891829910558e-06,-2.891001439430697e-05,9.268570773779752e-06,9.269932024138958e-06
282.577178169671,112.663405005351,12.5,0,-1.073508403299467,1.771824296033919,-3.434352498697977,-4.852686327385427e-06,6.528644469948114e-06,-2.747481998958382e-05,8.162880970274748e-06,9.267018799430414e-06
280.8085407488324,114.9620670192608,12.5,0,-0.4080352691416927,2.178699181200653,-3.741264886811247,-3.048672206213939e-06,7.298265595155444e-06,-2.993011909448997e-05,1.11058458179084e-05,1.041875184081394e-05
282.9778541183967,115.2806799964361,12.5,0,-0.5270302064800437,1.946131195045377,-3.563619720773714,-3.243401616772441e-06,6.649243989329239e-06,-2.850895776618971e-05,9.913391442460333e-06,1.042010478550877e-05
276.7791681088626,111.904968138444,12.5,0,-1.131259343200841,2.184220976494274,-3.536014484799754,-5.367406679438109e-06,7.894514599342348e-06,-2.828811587839803e-05,9.280579482344155e-06,9.261710794891839e-06
278.9013870825404,112.1825752989018,12.5,0,-1.240939392927595,1.962403159628215,-3.360027811695758,-5.540928585070874e-06,7.272441625152362e-06,-2.688022249356607e-05,8.221254641848131e-06,9.268509748609471e-06
277.051179775276,114.4102131548522,12.5,0,-0.6058864021306806,2.340327620097708,-3.648365903920637,-3.811098582896344e-06,7.973757506017209e-06,-2.91869272313651e-05,1.097375525027696e-05,1.039626558707672e-05
279.2204931448404,114.7288261320275,12.5,0,-0.7205709487796893,2.120751165365789,-3.474314353748328,-4.002427968387637e-06,7.362860488194277e-06,-2.779451482998662e-05,9.835531586639699e-06,1.041236414684606e-05
277.2503061353336,116.2441797921937,12.5,0,-0.2913902479996427,2.255574607982394,-3.65259138021838,-2.736908479984771e-06,7.450950943943373e-06,-2.922073104174704e-05,1.145787118199218e-05,1.130516203429177e-05
279.4540949954372,116.5928111106109,12.5,0,-0.4242027143231144,2.005935003726943,-3.460882456888132,-2.96219668881552e-06,6.758354183384707e-06,-2.768705965510506e-05,1.014119990806317e-05,1.132547696557383e-05
277.522317801747,118.7494248086019,12.5,0,0.252120704813216,2.418008158082959,-3.772265112223655,-1.127620271064076e-06,7.535929542014895e-06,-3.017812089778924e-05,1.347547325908458e-05,1.265375851482281e-05
279.7732010577372,119.1390619437366,12.5,0,0.1146704116519079,2.170982589753252,-3.582630432665673,-1.369840754516496e-06,6.85540795788888e-06,-2.866104346132539e-05,1.209897684343536e-05,1.267629318125e-05
207.4278459201714,196.5100053129791,12.5,0.1654367146878921,16.44127752073551,11.27709043832716,-3.159706054908484,5.223140831002419e-05,2.747984219972225e-05,-3.028847408475991e-05,0.0001211353782925642,0.0001190354474169059
208.8843909775097,195.9677858656227,12.5,0.2015101308550141,16.00359937842653,10.55602764022243,-2.71199961139545,5.355947213780062e-05,2.627010029373556e-05,-2.717128636133535e-05,0.000121293320276689,0.0001241910781065732
208.5628627890815,198.0547372008089,12.5,0.2281045805991575,16.21583550785281,10.90447181631967,-3.304993963528656,5.592350347872284e-05,2.839975578940038e-05,-3.425328230183353e-05,0.0001282318129619448,0.000128287674450607
209.8129842610382,197.4078110814089,12.5,0.2555286594462309,16.02263390301313,10.33146567058539,-2.913961106771013,5.776885369580928e-05,2.719054706445175e-05,-3.131307759520721e-05,0.000129181485714378,0.0001328053737875371
209.393752804536,199.1855594267241,12.5,0.2719228918508909,16.33229919829624,11.21052774177087,-3.166219941977103,5.946476651517594e-05,3.132614548617121e-05,-3.478994086245784e-05,0.0001379792937293695,0.0001356614684675476
210.4927617241194,198.4619827035,12.5,0.2931796406097175,16.22962730916834,10.70698830074691,-2.890740706272607,6.135818836083373e-05,3.010476485625123e-05,-3.271825060349102e-05,0.0001390063190138294,0.000139553040059651
210.5287696734461,200.730291314554,12.5,0.3285792597518138,16.00953463683545,10.83251734397461,-3.302261286026526,6.339467104778454e-05,3.255250617246542e-05,-3.934655083554157e-05,0.0001459083347094505,0.000146554821333532
211.4213550076479,199.9020079192862,12.5,0.3418929131634476,16.19399238479829,10.50001625058631,-3.098010385758555,6.597826326351273e-05,3.1370058926542e-05,-3.765965081033054e-05,0.0001480540200382342,0.0001493737114674052
211.2972920911916,197.9322877789483,12.5,0.3067097494409575,16.31460571985287,11.13859980161582,-3.170893655472312,6.244983025121789e-05,3.258640197387913e-05,-3.658950810764093e-05,0.0001444442381262085,0.0001421486439934693
212.3963010107749,197.2087110557242,12.5,0.3227232890103956,16.30164580070364,10.69989259026022,-2.920765457397415,6.43833632287893e-05,3.12993777938943e-05,-3.450011388260769e-05,0.0001454352496916976,0.0001453483942251845
212.0747728223467,199.2956623909104,12.5,0.3499108886966676,16.10774882338577,10.82552382364882,-3.261539680415157,6.596692119629349e-05,3.346537697478287e-05,-4.013652434665461e-05,0.0001512024445268885,0.0001511243523299431
212.9673581565485,198.4673789956427,12.5,0.3586872831772625,16.41032693116859,10.54831378726605,-3.076126073985895,6.872527862582375e-05,3.216269073301058e-05,-3.837286856528876e-05,0.0001534372338651645,0.0001530883019785331
209.9506559629494,195.5708536813228,12.5,0.2254182164308886,16.52196933724177,11.24987497843978,-3.167094539507499,5.663753373372164e-05,2.941203233083932e-05,-3.271024035617453e-05,0.0001307786434883689,0.0001278616262312821
211.4072010202877,195.0286342339664,12.5,0.2551106239599739,16.15313751837772,10.62666312167858,-2.748333086509489,5.798003160021592e-05,2.830327918858168e-05,-2.95166844893952e-05,0.0001311067938374719,0.0001327341195103725
210.7281366941044,196.9342282932849,12.5,0.2733471792844457,16.32820430827192,10.89137778520678,-3.23238812625212,5.99146529362296e-05,2.998659723716084e-05,-3.558660239501006e-05,0.0001367020862551215,0.0001359154153217807
211.9782581660612,196.287302173885,12.5,0.2949883220561433,16.22745626271506,10.41119973347286,-2.860210188670746,6.18413873385256e-05,2.88418969118982e-05,-3.245574821696519e-05,0.0001378697882361715,0.0001398945074704149
272.7561223486928,83.46107852161187,12.5,0,-6.411274018444242,1.612015798905648,-2.708590024216797,-2.180568949814609e-05,1.028746977125346e-05,-2.166872019373437e-05,3.812425247505259e-06,3.782268778204796e-06
274.9798529358965,83.57616274787418,12.5,0,-6.504443479377177,1.324987431946302,-2.53763303197499,-2.187420907956401e-05,9.443514565729907e-06,-2.030106425579992e-05,3.410815605902546e-06,3.766225294857059e-06
273.4684016956467,85.60689897892345,12.5,0,-5.960607831862628,1.809587771698975,-2.86418395413268,-2.052161527931959e-05,1.055916713492682e-05,-2.291347163306144e-05,4.156169545181775e-06,3.885488888084319e-06
275.6752281693725,85.71701355643398,12.5,0,-6.053550544908947,1.520925043007425,-2.69232780510082,-2.058810177811457e-05,9.709800573550918e-06,-2.153862244080656e-05,3.698446344010842e-06,3.869999632916118e-06
271.5224183306086,79.74440846569431,12.5,0,-7.106735577002463,1.541863531157974,-2.579511269461368,-2.397504467133426e-05,1.061935176130749e-05,-2.063609015569095e-05,3.692520570312564e-06,3.647439227724583e-06
273.7754277012127,79.8681003760903,12.5,0,-7.200556831735501,1.258658021883549,-2.406087136794881,-2.404870827906044e-05,9.788151135415755e-06,-1.924869709435905e-05,3.335002186866988e-06,3.630660710998246e-06
272.2346976775626,81.89022892300589,12.5,0,-6.656617511835497,1.736923592586121,-2.732253965452103,-2.269071491194249e-05,1.088344950574398e-05,-2.185803172361682e-05,3.967719595470538e-06,3.718483563954887e-06
274.4708029346887,82.00895118465012,12.5,0,-6.750220347145308,1.452125154118211,-2.55791882760849,-2.276240523415955e-05,1.004697677089452e-05,-2.046335062086792e-05,3.564155425797097e-06,3.702094624013826e-06
267.6200916308637,79.53016779240703,12.5,0,-7.244480365973815,1.634886548056128,-2.456757516677537,-2.449024640956111e-05,1.102722124655866e-05,-1.96540601334203e-05,3.720248766076232e-06,3.674322885447488e-06
269.8731010014678,79.65385970280303,12.5,0,-7.339883678360681,1.345056853459729,-2.283735672743052,-2.456367325352196e-05,1.017608887375968e-05,-1.826988538194442e-05,3.361169354869652e-06,3.65913847210768e-06
268.361649761218,81.68459593385231,12.5,0,-6.792579927280427,1.83584360848918,-2.614303125165064,-2.320493065408871e-05,1.130876348898972e-05,-2.091442500132051e-05,3.996283569094415e-06,3.745357152154895e-06
270.5977550183441,81.80331819549653,12.5,0,-6.887773082521104,1.544391747153278,-2.440385374514455,-2.327638726179015e-05,1.045227205690737e-05,-1.952308299611565e-05,3.590478487758233e-06,3.730075723432455e-06
268.90450798938,83.26174679457939,12.5,0,-6.545704424244629,1.717984889868822,-2.587940433287147,-2.232064206947787e-05,1.073411518697593e-05,-2.070352346629717e-05,3.843162640185455e-06,3.809059767400943e-06
271.1282385765838,83.37683102084169,12.5,0,-6.640658118330101,1.423769634944673,-2.416940425304699,-2.238912168661206e-05,9.868589326487032e-06,-1.933552340243759e-05,3.438070423003568e-06,3.793746240530785e-06
269.6460661197343,85.41617493602467,12.5,0,-6.09204647470943,1.92205266255709,-2.748725327354014,-2.103219084911585e-05,1.102420569995023e-05,-2.198980261883211e-05,4.189559626007546e-06,3.912064282128148e-06
271.8528925934601,85.52628951353519,12.5,0,-6.186780869509591,1.626170812692095,-2.576839036691426,-2.109863543258437e-05,1.015317129622237e-05,-2.061471229353141e-05,3.727064811840902e-06,3.896760076870231e-06
214.9630205185262,87.03290351740144,12.5,0,-6.918040300983522,2.551006576395937,-0.2007927244878979,-2.417853422426402e-05,1.369765328525382e-05,-1.606341795903183e-06,3.910113789344954e-06,3.916447233068354e-06
216.5968872818885,86.48727338480256,12.5,0,-6.885946953072439,2.380746572925588,-0.1351832979092245,-2.393962750817227e-05,1.312714659581983e-05,-1.081466383273796e-06,3.697950276476086e-06,3.914606643185849e-06
215.9150351043412,89.24697367166419,12.5,0,-6.563326643351955,2.744710732276002,-0.3511742415891717,-2.319841384454705e-05,1.403373565796477e-05,-2.809393932713374e-06,4.140782408680909e-06,4.052452384353396e-06
217.5944939584462,88.74862197283099,12.5,0,-6.540085347420892,2.572062304155707,-0.2828436038235379,-2.298592295507142e-05,1.346266765123497e-05,-2.262748830588303e-06,3.905133969131797e-06,4.048193628613283e-06
212.1330802716353,87.97796262918624,12.5,0,-6.774627180224391,2.56802760853584,-0.07861856216665095,-2.373322906354672e-05,1.36373900914942e-05,-6.289484973332076e-07,3.911228696228611e-06,3.918616326798917e-06
213.7669470349977,87.43233249658738,12.5,0,-6.737528178787776,2.416774237143126,-0.01033316045688591,-2.349350956183538e-05,1.312370010188822e-05,-8.266528365508726e-08,3.720011370935064e-06,3.917521624554346e-06
213.0061270398623,90.11014413406605,12.5,0,-6.435644934766492,2.739536936159265,-0.2118748653556312,-2.278569334018018e-05,1.391503414352284e-05,-1.69499892284505e-06,4.114176435103877e-06,4.057005508172031e-06
214.6855858939673,89.61179243523284,12.5,0,-6.407456074818098,2.586084792457322,-0.1412123960744399,-2.257272727338377e-05,1.340143619571791e-05,-1.129699168595519e-06,3.903172714035248e-06,4.054813520364889e-06
213.6452416315611,91.67100932653038,12.5,0,-6.101593445457681,2.785108744567768,-0.1764349692258493,-2.175318602111879e-05,1.3793622738983e-05,-1.411479753806794e-06,4.162080924076083e-06,4.184150484230787e-06
215.3580762125115,91.20726784331445,12.5,0,-6.081646691221302,2.60743950810012,-0.1011244765073601,-2.154722101838826e-05,1.320912377889743e-05,-8.089958120588805e-07,3.908397132987296e-06,4.181594571898288e-06
214.518288399788,93.80319083141018,12.5,0,-5.757282036955826,2.965333473218866,-0.3174197484812568,-2.079556929683373e-05,1.409489274386503e-05,-2.539357987850054e-06,4.449456474792767e-06,4.39312783739209e-06
216.2767150714811,93.38672778195995,12.5,0,-5.745942128049184,2.785655388436478,-0.239692800498687,-2.061553912050657e-05,1.351085094543607e-05,-1.917542403989496e-06,4.164545194291759e-06,4.390674950328726e-06
216.6119581506748,90.86778551603749,12.5,0,-6.220166871515746,2.768186940656508,-0.3224452310631056,-2.211908354137559e-05,1.383433170731342e-05,-2.579561848504845e-06,4.153332162135031e-06,4.17874157422635e-06
218.3247927316253,90.40404403282156,12.5,0,-6.204066179726744,2.575017798114402,-0.2486664994582732,-2.19130260136171e-05,1.320330989774748e-05,-1.989331995666185e-06,3.880270050348662e-06,4.173502951964908e-06
217.5639727364899,93.08185567030024,12.5,0,-5.859162651147239,2.969221147732353,-0.4789494349701959,-2.112469740185704e-05,1.418883779366132e-05,-3.831595479761567e-06,4.473349963208899e-06,4.387764906135602e-06
219.3223994081829,92.66539262084999,12.5,0,-5.851661335292903,2.773837590935046,-0.402471193783929,-2.094438634568532e-05,1.355760935922647e-05,-3.219769550271432e-06,4.16453615368608e-06,4.382267404610745e-06
154.7420833454114,113.651109485711,12.5,0,-2.154172206493484,1.323016932766876,2.026686751076665,-7.951764606992648e-06,5.956991950048789e-06,1.621349400861332e-05,3.610265644771414e-06,3.738433423276097e-06
156.2145633717307,112.8937103049609,12.5,0,-2.115518210991028,1.217823711214828,2.05356542501051,-7.743917244143151e-06,5.589450444680271e-06,1.642852340008408e-05,3.483968957954566e-06,3.746487107637383e-06
155.9456448559211,115.1471230487618,12.5,0,-1.99780283338553,1.45279315524804,1.941719346583934,-7.555203591032126e-06,6.247180363502152e-06,1.553375477267148e-05,3.864809257075654e-06,4.098214821377052e-06
157.4163353692507,114.3490129388766,12.5,0,-1.956633817022256,1.351738775424213,1.966515820248752,-7.342619234810589e-06,5.890871134975285e-06,1.573212656199002e-05,3.731354723524955e-06,4.090036529878563e-06
152.6574536592117,111.0599379857415,12.5,0,-2.598481637922217,1.193740874133429,2.048050908729468,-9.270133940657838e-06,5.898756107564746e-06,1.638440726983575e-05,3.177328061239993e-06,3.256393671200818e-06
154.1330332129501,110.3730522026753,12.5,0,-2.567037865059583,1.08317175876614,2.076770978133901,-9.081058575203576e-06,5.519779920099314e-06,1.661416782507121e-05,3.059168781844122e-06,3.283234323656379e-06
153.8610151697214,112.5559515487923,12.5,0,-2.441151210380687,1.326296575099558,1.961735358307501,-8.872721133297844e-06,6.197070008623134e-06,1.569388286646001e-05,3.360528947677958e-06,3.512868125921956e-06
155.33480521047,111.828354836591,12.5,0,-2.406995451833267,1.220115194884322,1.988262273478633,-8.678477601773912e-06,5.829964985096443e-06,1.590609818782906e-05,3.23444110044088e-06,3.530305108035229e-06
150.1016749015729,112.2496590609876,12.5,0,-2.398083501143967,1.073229539624246,2.065563383555205,-8.532450835360091e-06,5.352801327712761e-06,1.652450706844164e-05,3.103997634621454e-06,3.204829635115846e-06
151.5772544553113,111.5627732779214,12.5,0,-2.360463678258802,0.9749341118624542,2.098951672175415,-8.33343105991813e-06,5.008160100566895e-06,1.679161337740332e-05,3.016765803656937e-06,3.235385198224222e-06
151.3083359395017,113.8161860217222,12.5,0,-2.229204038317704,1.200547403007019,1.979145946733312,-8.093890845022267e-06,5.625114920276625e-06,1.583316757386649e-05,3.285902289861891e-06,3.478518551734469e-06
152.7821259802503,113.088589309521,12.5,0,-2.18882937416148,1.106206007135745,2.010344402505662,-7.889218803025332e-06,5.290922722163568e-06,1.60827552200453e-05,3.192701538227389e-06,3.49899195998281e-06
152.1916731267418,114.9629633483577,12.5,0,-1.935789392737616,1.200207286083057,2.044502939002375,-7.154691885626814e-06,5.389294829655873e-06,1.6356023512019e-05,3.568404727441363e-06,3.721499329540498e-06
153.6641531530611,114.2055641676076,12.5,0,-1.894250342316976,1.104370700698456,2.0735828389914,-6.945097655973086e-06,5.049386516088638e-06,1.65886627119312e-05,3.467963751418533e-06,3.731737968314596e-06
153.3983341646706,116.5294903090924,12.5,0,-1.773601083912876,1.324932585283677,1.960425055010633,-6.735469536748142e-06,5.658665140038065e-06,1.568340044008507e-05,3.827498335970532e-06,4.111646243178773e-06
154.8690246780001,115.7313801992073,12.5,0,-1.72956072832698,1.232865962480222,1.987476924543877,-6.520887100630514e-06,5.328819662598293e-06,1.589981539635102e-05,3.721613264545392e-06,4.10400512660433e-06
270.6357831530947,171.8817103594109,12.5,0,11.25526553626462,2.815649489399263,-3.972491846840798,3.376433012452736e-05,5.865937065946403e-09,-3.177993477472638e-05,5.313498531052978e-05,5.329426362828143e-05
272.8390153799163,172.3608237506241,12.5,0,11.00389408290677,2.363410088644565,-3.6842069377654,3.3321732994386e-05,-1.240202982662805e-06,-2.94736555021232e-05,5.059919333723699e-05,5.247455650335497e-05
271.0724380809413,173.9604406407682,12.5,0,11.92301073559707,3.06058507505001,-4.171981689282624,3.570516629387063e-05,2.554636516823722e-07,-3.337585351426099e-05,5.652260652069213e-05,5.456244462519473e-05
273.2555149713398,174.4375672710461,12.5,0,11.6684468578483,2.603766981600358,-3.880725244905143,3.525601635983428e-05,-1.002703145157498e-06,-3.104580195924115e-05,5.395692363807862e-05,5.369145422413664e-05
269.8794746327027,168.2812438969329,12.5,0,10.48146343749542,3.010450772935269,-4.095580448432152,3.113232238163713e-05,1.248271723396522e-06,-3.276464358745721e-05,5.093901874997457e-05,5.097102434961929e-05
272.117616926252,168.7637984590283,12.5,0,10.22402272366709,2.54093287306033,-3.800790937023379,3.068412641728642e-05,-4.823298514061714e-08,-3.040632749618704e-05,4.830633192829538e-05,5.024318346096438e-05
270.3161295605493,170.3599741782901,12.5,0,11.15311016904819,3.258239321961045,-4.298913529712832,3.308336108338535e-05,1.503877695036796e-06,-3.439130823770266e-05,5.43520226357114e-05,5.233194546579018e-05
272.5341165176756,170.8405419794503,12.5,0,10.89246732901829,2.784052260504117,-4.001135234263354,3.262865364445523e-05,1.949933703985444e-07,-3.200908187410683e-05,5.168969300399213e-05,5.155059513710787e-05
266.0028984657761,167.4454348779745,12.5,0,10.36182219549774,3.540319931508759,-4.1900294111487,3.032557508038576e-05,3.039566024429837e-06,-3.35202352891896e-05,5.227857679476554e-05,5.222706971098837e-05
268.2410407593255,167.9279894400699,12.5,0,10.0846966084756,3.015774954614692,-3.879920586298538,2.985840918343015e-05,1.582722567986536e-06,-3.103936469038831e-05,4.936922206830136e-05,5.150260506817189e-05
266.4744634603504,169.5276063302141,12.5,0,11.06668012036343,3.81346758294116,-4.418898426735308,3.236260231881003e-05,3.349752169120972e-06,-3.535118741388246e-05,5.591276761077803e-05,5.369118153818876e-05
268.6924504174767,170.0081741313742,12.5,0,10.78612217943379,3.283699794847226,-4.105620987218802,3.188863113831033e-05,1.878941599964094e-06,-3.284496789775042e-05,5.297128283286887e-05,5.290551386327099e-05
266.8196729954351,171.0518616232582,12.5,0,11.17670138745702,3.349726545856096,-4.093831206763212,3.308566320317757e-05,1.777763836773895e-06,-3.275064965410569e-05,5.463817034991548e-05,5.472821853236982e-05
269.0229052222567,171.5309750144712,12.5,0,10.9038210461946,2.83893489141008,-3.788282572492923,3.262107943469465e-05,3.61534815556579e-07,-3.030626057994338e-05,5.180804240996234e-05,5.389813054894986e-05
267.2912379900096,173.1340330754977,12.5,0,11.88245486483647,3.6219052567057,-4.320696545666183,3.512633136211214e-05,2.084132929589064e-06,-3.456557236532947e-05,5.827196548757448e-05,5.609734446272106e-05
269.4743148804081,173.6111597057755,12.5,0,11.60612495460403,3.105936620393287,-4.011972940004657,3.465485055841825e-05,6.540972215752974e-07,-3.209578352003726e-05,5.540904495685056e-05,5.520710097168129e-05
207.7212072219792,92.93461210488564,12.5,0,-5.900323407734534,2.774092935471629,0.1191285895627752,-2.110030925312781e-05,1.359735611969684e-05,9.530287165022012e-07,4.139835693196415e-06,4.159476604447685e-06
209.4310081045942,92.58153440759573,12.5,0,-5.885616695547184,2.626932300106309,0.2064200233138703,-2.093551926583603e-05,1.311467671677793e-05,1.651360186510963e-06,3.932138528526614e-06,4.169294226035751e-06
208.4394583502318,94.99338674749913,12.5,0,-5.565939847773736,2.920524929997046,0.005529583737998254,-2.014742745687359e-05,1.379843165420953e-05,4.423666990398603e-08,4.370141220344658e-06,4.365254207774161e-06
210.1938377929376,94.65841762812379,12.5,0,-5.55553527603108,2.774583354185109,0.09241817891780238,-1.999737956664754e-05,1.332309495421721e-05,7.39345431342419e-07,4.142248408972181e-06,4.376539065989384e-06
210.6826692214411,92.32306359417109,12.5,0,-5.992626347181886,2.786964165249276,-0.02914426860863841,-2.140597564318145e-05,1.371238640654319e-05,-2.331541488691073e-07,4.157568978205066e-06,4.175465526539329e-06
212.392470104056,91.96998589688118,12.5,0,-5.983933114023817,2.617768843660208,0.05547343534416307,-2.124280103980438e-05,1.316400679093172e-05,4.437874827533045e-07,3.916586610098327e-06,4.182508211476532e-06
211.4781326806979,94.41320321378484,12.5,0,-5.652178790595662,2.95115314298827,-0.1578348506858481,-2.044789464429673e-05,1.396543309003899e-05,-1.262678805486785e-06,4.418872653978515e-06,4.383492075311887e-06
213.2325121234036,94.0782340944095,12.5,0,-5.647652401771505,2.783379841914694,-0.07338179760352616,-2.029919155920057e-05,1.342493741554422e-05,-5.870543808282093e-07,4.153188782414186e-06,4.391203191832055e-06
209.3048860944687,88.70283557815242,12.5,0,-6.628180917064141,2.572854168842027,0.0614721301301522,-2.326846226967887e-05,1.35356780739458e-05,4.917770410412176e-07,3.902685456655751e-06,3.909706104989348e-06
210.9374746460794,88.31839290386225,12.5,0,-6.613786107155205,2.4134522293691,0.1382627789319805,-2.309487732639193e-05,1.301407601970528e-05,1.106102231455844e-06,3.704408600637659e-06,3.916522164643111e-06
210.1003495537254,90.79297519776618,12.5,0,-6.295255501969935,2.734835267223104,-0.06581332297759049,-2.233268582008227e-05,1.378767725668988e-05,-5.265065838207239e-07,4.093953991605987e-06,4.04851495841016e-06
211.777516665427,90.42664110139057,12.5,0,-6.28520089450422,2.576731947278288,0.01095016420699329,-2.217402842023613e-05,1.32737029468939e-05,8.760131365594635e-08,3.878426838459831e-06,4.055317813582837e-06
206.4771597752745,89.36870982260868,12.5,0,-6.521875862000472,2.569883737533281,0.1962367630632966,-2.292590974842814e-05,1.344112864970688e-05,1.569894104506373e-06,3.894468747210462e-06,3.894816015587807e-06
208.1097483268852,88.98426714831851,12.5,0,-6.501135533778323,2.43386986272685,0.2759277431431525,-2.275072959827211e-05,1.298929198774858e-05,2.20742194514522e-06,3.72588458213696e-06,3.903889959879371e-06
207.195410903527,91.42748446522218,12.5,0,-6.195442804308665,2.713075857692749,0.08506997749903886,-2.199587765994192e-05,1.363819698806373e-05,6.805598199923109e-07,4.059526947205806e-06,4.033423070766517e-06
208.8725780152286,91.06115036884655,12.5,0,-6.179188241592996,2.578132105895583,0.1644724356883692,-2.183590805781405e-05,1.319337333214026e-05,1.315779485506954e-06,3.877219464137019e-06,4.042648279754223e-06
115.3658793869666,76.07321891338944,12.5,0,-8.197614554864531,-0.06841047767950492,2.017827002116651,-2.617763819342289e-05,6.339178115317208e-06,1.614261601693321e-05,2.350647181991696e-06,2.352251382928418e-06
117.3581740969383,76.1002902545612,12.5,0,-8.231633515467143,-0.1889227552654349,2.132974654905421,-2.619008904528251e-05,5.980753995524322e-06,1.706379723924337e-05,2.332866465216437e-06,2.376840572555926e-06
116.4780275871713,77.62189330315383,12.5,0,-7.931279204671674,0.06370960547343696,1.91430578247624,-2.543106113932811e-05,6.548894101252338e-06,1.531444625980992e-05,2.337581657973449e-06,2.318347283151355e-06
118.2014203469544,77.55502908787643,12.5,0,-7.950750611879035,-0.06219857307373777,2.036203128479957,-2.539264309955392e-05,6.161565055667266e-06,1.628962502783966e-05,2.31381376900617e-06,2.344089874433619e-06
117.2921765752329,78.75560164079388,12.5,0,-7.77543073324914,-0.05395328523715603,2.103390414601549,-2.483821571820752e-05,6.047694073840412e-06,1.682712331681239e-05,2.313568540919547e-06,2.295894276108804e-06
118.8187194452318,78.61997182556138,12.5,0,-7.782715646061148,-0.1319450380052354,2.15566747998248,-2.479913403699148e-05,5.803948395232165e-06,1.724533983985984e-05,2.291222621440673e-06,2.321428425412721e-06
118.4043247754376,80.30427603055827,12.5,0,-7.602075260781838,0.04820658138403067,2.028166700202045,-2.43652060996091e-05,6.235921269054367e-06,1.622533360161636e-05,2.311145501627896e-06,2.268455619860307e-06
119.6619656952479,80.0747106588766,12.5,0,-7.595071159298589,-0.03272910109919036,2.081817200232135,-2.427804442887613e-05,5.971323803921462e-06,1.665453760185708e-05,2.283608262535431e-06,2.292266893434168e-06
119.9362263859556,78.52068390979423,12.5,0,-7.865910818843709,0.009326174052312286,2.063641457392534,-2.517837555954171e-05,6.322572412042365e-06,1.650913165914027e-05,2.351884080363969e-06,2.339345732967371e-06
121.4627692559546,78.38505409456174,12.5,0,-7.866331743979428,-0.06075948843748646,2.138142303221943,-2.512365398998418e-05,6.098635032183585e-06,1.710513842577554e-05,2.341274767582795e-06,2.362762578239678e-06
120.5826227461876,79.90665714315433,12.5,0,-7.658042407677165,0.0929952570121424,2.001575446767111,-2.458013191017664e-05,6.424018748580587e-06,1.601260357413689e-05,2.338114354584785e-06,2.309186431490883e-06
121.8402636659979,79.67709177147269,12.5,0,-7.636695415531459,0.01892769053134913,2.083133197375886,-2.445256748212575e-05,6.169924942125483e-06,1.666506557900709e-05,2.323208245185288e-06,2.331600195530528e-06
118.8166350482263,76.12010785172714,12.5,0,-8.215499960099953,0.01255484495490133,2.019935450761778,-2.629964374828376e-05,6.612575471935645e-06,1.615948360609422e-05,2.403316487559942e-06,2.394989276247581e-06
120.8089297581981,76.14717919289892,12.5,0,-8.235581852183586,-0.05368834379535325,2.123921126496101,-2.631091125195119e-05,6.416662781601738e-06,1.699136901196881e-05,2.409104677513582e-06,2.419983267199294e-06
119.4630314084583,77.50608108508725,12.5,0,-8.007181817437308,0.08557703685166063,1.966516844849729,-2.569144344528071e-05,6.67959197187516e-06,1.573213475879783e-05,2.386218573666545e-06,2.362336535927506e-06
121.1864241682414,77.43921686980987,12.5,0,-8.013406814600829,0.01598932263466679,2.080641498542885,-2.565569326483039e-05,6.461891284111597e-06,1.664513198834308e-05,2.390917949781314e-06,2.386444750917169e-06
253.7783246442313,222.8369002900178,12.5,0.3387533052261622,16.41216754355782,4.073847141104389,-2.643320296078204,7.449543236408849e-05,-1.412834030787256e-07,-3.197983828994149e-05,0.0001153407085994809,0.0001486992254681594
254.9955922070145,223.3060943578242,12.5,0.2451231892811823,18.1933382816961,3.818785066247979,-2.56286793707518,7.307636645494586e-05,-3.092634957404909e-06,-2.7160648208385e-05,0.0001088845802941398,0.0001310542278429394
253.4779068392407,224.136595958405,12.5,0.382403079077278,15.98648156473265,3.849549403879687,-2.616374718642176,7.784543584221735e-05,-7.620296400894996e-07,-3.389103319664452e-05,0.0001196761578632371,0.000158660348093789
254.8377037742967,224.5747057674901,12.5,0.2774147086622628,18.28042973884231,3.788754117408596,-2.678610688339045,7.676100321345105e-05,-3.460256727254199e-06,-2.965585622015723e-05,0.0001141074687793789,0.0001366459139312876
253.2579857424986,225.0880392220012,12.5,0.4137643420110869,15.91105245258355,3.884432326766988,-2.774445594537795,8.155051869560264e-05,-5.094512971746436e-07,-3.786116462523698e-05,0.0001258477841642297,0.0001666840813487717
254.7221214196249,225.5033937743876,12.5,0.3004046423088851,18.31401285649832,3.48423923350181,-2.65526628583318,7.978533468004753e-05,-5.005242958657408e-06,-3.036345232016856e-05,0.0001166250661908146,0.0001409271540723369
252.9575679375081,226.3877348903883,12.5,0.4552740183717952,15.62310458960446,3.682022001710817,-2.739268427089945,8.637061324803449e-05,-1.314446694958022e-06,-4.022967171717681e-05,0.0001322010755775125,0.0001786442056430669
254.5642329869072,226.7720051840535,12.5,0.3308690804260329,18.65212085845039,3.518479243740003,-2.800187005038068,8.499383556847054e-05,-5.473612113342848e-06,-3.347849484308316e-05,0.0001240713785375192,0.0001470320335692358
255.79394312441,225.8074544098766,12.5,0.2064420227408512,15.65585652439312,2.285026819748791,-1.927123678252587,6.082822025049771e-05,-6.568643433365814e-06,-1.942767871765221e-05,8.500507247456684e-05,0.0001249308879187478
257.2580788015362,226.222808962263,12.5,0.0675508834191203,18.14794862420312,2.158186812791683,-2.047615855632928,6.042891257576643e-05,-8.163620902276693e-06,-1.756763618923174e-05,8.215370156724829e-05,0.000106985203330325
255.7403934337625,227.0533105628438,12.5,0.2251354555438566,15.55024522716392,2.28483059369305,-1.990646580433956,6.18597412862824e-05,-6.61888367277548e-06,-2.055220200409234e-05,8.654953338397697e-05,0.0001278169460228556
257.3470584831616,227.4375808565088,12.5,0.06707448015430439,18.51416221040546,2.275734904953062,-2.206858499231052,6.155339298557615e-05,-8.070288476747694e-06,-1.892419879002613e-05,8.404165791396469e-05,0.0001069325226458601
255.8866939093393,223.6495682540538,12.5,0.1712634403017255,16.16232379975012,2.891314067425212,-2.046278215679957,5.961651423131136e-05,-4.437663550620197e-06,-1.97532322351022e-05,8.610019466002492e-05,0.0001198389990321488
257.1039614721224,224.1187623218602,12.5,0.06626765056182327,17.89678844647793,2.601187948257799,-2.061671340500071,5.910555921440444e-05,-6.419001469065233e-06,-1.766391700354451e-05,8.252064088689821e-05,0.0001068434217264758
255.8331442186918,224.895424407021,12.5,0.1920289182124593,16.05814147064961,2.875653332738452,-2.161423648674021,6.075159265761347e-05,-4.510585333937674e-06,-2.140100008423199e-05,8.778577447714955e-05,0.0001227932034653961
257.1929411537478,225.3335342161061,12.5,0.0673350389610784,18.28020740973288,2.739532773510428,-2.290454239117398,6.037005767817964e-05,-6.280563007350377e-06,-1.964653404854834e-05,8.470282292084367e-05,0.0001069613288109318
272.6353232317591,94.76585595944081,12.5,0,-4.378095482519674,1.93433168743466,-2.99380426222617,-1.555737089401068e-05,9.692337785806651e-06,-2.395043409780936e-05,4.713236734781881e-06,4.72600948327999e-06
274.7827691235979,94.98522463427267,12.5,0,-4.488573863686996,1.659080371769796,-2.82053657754294,-1.569070066121422e-05,8.899916280612945e-06,-2.256429262034352e-05,4.113073849182814e-06,4.725256248340176e-06
273.3038454993309,97.14848060200119,12.5,0,-3.870802016784476,2.138861994158288,-3.15578006672109,-1.409765604903695e-05,9.940999994734103e-06,-2.524624053376872e-05,5.444776215736075e-06,5.065501734057625e-06
275.4431255516045,97.37435287794526,12.5,0,-3.983421425870629,1.8616406620701,-2.981166761210192,-1.423626109244209e-05,9.143987259320821e-06,-2.384933408968153e-05,4.732527585360886e-06,5.0670662621593e-06
273.7932377651638,98.89268289564686,12.5,0,-3.60449545441645,2.004923481688859,-3.127080540357409,-1.313832423948373e-05,9.299351504937509e-06,-2.501664432285927e-05,5.328270563272135e-06,5.364235450480745e-06
275.9265400079896,99.12331613803703,12.5,0,-3.719391780192699,1.723324744462009,-2.951511827219204,-1.328071349218624e-05,8.490152606432586e-06,-2.361209461775363e-05,4.594385553327631e-06,5.367367249060626e-06
274.4617600327357,101.2753075382072,12.5,0,-3.088906905293028,2.21370422211883,-3.292971131858315,-1.165546547463275e-05,9.554979035014677e-06,-2.634376905486652e-05,6.307260564568585e-06,5.840898890939649e-06
276.5868964359962,101.5124443817096,12.5,0,-3.206010134246335,1.930074644396851,-3.116021855188614,-1.180329214510575e-05,8.741046969466988e-06,-2.492817484150891e-05,5.435463758386978e-06,5.845994789053881e-06
277.4882256375722,99.29215138937379,12.5,0,-3.442970247545414,1.869135946113995,-3.230561933434335,-1.251281354903652e-05,8.735611225601115e-06,-2.584449546747468e-05,5.326591154201047e-06,5.369072347771986e-06
279.621527880398,99.52278463176393,12.5,0,-3.556262808080447,1.594275851227795,-3.054967985120338,-1.265546166683967e-05,7.946692970393302e-06,-2.44397438809627e-05,4.596986646608721e-06,5.370598965503663e-06
278.1426042561309,101.6860405994925,12.5,0,-2.925138155185908,2.074824397881886,-3.393108290577541,-1.102030161490041e-05,8.979548597370761e-06,-2.714486632462033e-05,6.319639498672612e-06,5.849104259920639e-06
280.2677406593914,101.9231774429948,12.5,0,-3.040624875006572,1.797986931413254,-3.216151922772381,-1.116838914515163e-05,8.186058080527671e-06,-2.572921538217905e-05,5.453947713516049e-06,5.852503594199407e-06
276.3548086228622,95.14581364983181,12.5,0,-4.218668264295072,1.809760742690034,-3.103619720590207,-1.494754703989626e-05,9.166168988044166e-06,-2.482895776472166e-05,4.706926282223702e-06,4.724185501691325e-06
278.502254514701,95.36518232466365,12.5,0,-4.327273651633008,1.542218570434088,-2.930435318027801,-1.508105054157289e-05,8.396918346695488e-06,-2.344348254422241e-05,4.110564266702031e-06,4.72201340238432e-06
277.0091872414209,97.53970285995049,12.5,0,-3.70949104156089,2.010890635696476,-3.261839967200783,-1.347908384155203e-05,9.402442867477434e-06,-2.609471973760626e-05,5.449664635796479e-06,5.067651274963202e-06
279.1484672936946,97.76557513589454,12.5,0,-3.8202227577486,1.741436744899108,-3.087329563612924,-1.36178622207148e-05,8.628775789876024e-06,-2.469863650890339e-05,4.742435504009863e-06,5.067685031564933e-06
235.6221718523945,223.0381872724998,12.5,0.8401103912448848,15.80746987701301,9.550029572596683,-3.918951374533099,0.0002685845583257168,0.0001120405439113683,-0.0001960828551671705,0.0005809118455970841,0.0005375187694442929
237.4221101046921,222.7150971608351,12.5,0.8333019307145862,16.37762847445995,8.864256838948929,-3.783256356869238,0.0002718508129180712,9.156386256000976e-05,-0.0001815620959780499,0.0005553899917167769,0.0005188968792871337
236.7012400467426,224.6538475288043,12.5,0.8518664200394861,15.57071102223344,9.628194186674307,-4.154718786300346,0.0002843630723907162,0.0001238993385865874,-0.0002243768786203812,0.0006233930675235532,0.0005730832707560138
238.4731406854084,224.2796238899812,12.5,0.8432687280817458,16.40920879380493,9.189470216716559,-4.129967883675674,0.0002881230491790774,0.000103865281377539,-0.0002108050465298196,0.0005992474080403756,0.0005466257211423699
237.4911727898034,225.8365929241386,12.5,0.8596250919587798,15.48833653184414,9.287747120440599,-4.039604584493847,0.0003001425239984971,0.0001234559780074493,-0.0002302180434302485,0.0006469923906186673,0.0005992995644726418
239.2425484707686,225.4249369454671,12.5,0.8496098862315579,16.48172006004815,8.723078243319586,-4.108428009010264,0.0003042955447720482,9.793512327054823e-05,-0.0002185477705182707,0.0006155537385628032,0.0005658905204775602
238.5702409841516,227.452253180443,12.5,0.8692329221051514,15.2802873618503,9.48590880747115,-4.306878738385092,0.0003158913786018866,0.0001386486460224073,-0.0002634839782440228,0.0006945365265783987,0.0006353593095839423
240.2935790514849,226.9894636746133,12.5,0.8571846731508658,16.61200133926414,9.226942884404616,-4.514867662789215,0.0003205317733612641,0.0001136895914248428,-0.0002529066179323223,0.0006646225021393327,0.0005907940892059211
240.5246444523212,225.1235838538529,12.5,0.8388227320650526,15.31102166586257,8.241619440267886,-3.888072092045743,0.0002630766380508432,8.763248724297712e-05,-0.0001929836454910009,0.000536644784476144,0.0005338935981456598
242.2760201332864,224.7119278751813,12.5,0.8173011404081194,17.16993140438757,8.199837495251138,-4.340033644353783,0.0002648287493743588,6.843794695393526e-05,-0.0001900409736130246,0.0005112795859280292,0.0004798854246404374
241.5551500753369,226.6506782431506,12.5,0.8447871300720211,15.20957493949214,8.581171533971304,-4.139375412654057,0.0002693443050089614,9.852333098544098e-05,-0.0002133521744466056,0.0005628872280259299,0.0005511164361585289
243.2784881426703,226.1878887373208,12.5,0.8205335206318261,17.4226552385609,8.828749125307127,-4.735757958899984,0.0002713013462712615,7.97579194762566e-05,-0.0002111038440414097,0.0005384228031137876,0.0004872802924813762
238.7397563558047,222.4785787836834,12.5,0.8249915067327147,15.64143897103663,8.797206575617238,-3.77457364054041,0.0002457871537761777,8.935514827421859e-05,-0.0001725435638041002,0.0005120392266321439,0.0004978659700268853
240.5396946081023,222.1554886720186,12.5,0.807617304110815,17.02019673032035,8.554715962079408,-3.99254624947181,0.0002475319131341825,7.151856163988446e-05,-0.000166025171069297,0.0004884367703580686,0.0004590303475532322
239.7702619788204,224.0056731729811,12.5,0.8335775091057899,15.45165658956088,9.022033891248324,-4.004507466688726,0.000253737783557386,9.920043313641023e-05,-0.0001924983790434563,0.0005393024407679918,0.0005196251787495491
241.5421626174862,223.631449534158,12.5,0.8138863005378423,17.1339041452972,9.038425036341893,-4.342873013494527,0.0002557455650681723,8.17555980243685e-05,-0.000186676124371062,0.0005166443626784765,0.0004723158747109531
259.8045476804114,216.73908755653,12.5,0,17.40327769272559,2.910551057853838,-1.669873417541268,5.33620477704388e-05,-4.60885876904819e-06,-1.335898734033014e-05,7.609444785641116e-05,8.570186786360727e-05
261.7252799519121,217.6133575312288,12.5,0,17.11757273834465,2.206769011420952,-1.458285661590179,5.301081755356611e-05,-6.632397354128673e-06,-1.166628529272143e-05,7.272619294128233e-05,7.973369197802828e-05
259.3064582929881,218.7007950281269,12.5,0,17.63273224054957,2.79607907540877,-1.914370354644517,5.418787990943159e-05,-5.158732751131588e-06,-1.531496283715614e-05,7.66411450090255e-05,8.828901521385987e-05
261.2171921854106,219.6979995717568,12.5,0,17.33716174626558,2.105063701576855,-1.691409660640108,5.379486662678836e-05,-7.133525551966527e-06,-1.353127728512087e-05,7.327662656113665e-05,8.087648455673551e-05
260.6672638061237,213.3413105461976,12.5,0,17.4597611374578,3.123852401548927,-1.764198149197888,5.337215371862582e-05,-3.971481225009676e-06,-1.41135851935831e-05,7.700985951877493e-05,8.231524794052973e-05
262.6053137781811,214.0026516015051,12.5,0,17.18691888967717,2.451784887166865,-1.558898316244946,5.303671253723344e-05,-5.903823472807766e-06,-1.247118652995957e-05,7.378410435708578e-05,7.802721369757407e-05
260.1691744187005,215.3030180177946,12.5,0,17.76418278664951,3.037204339316415,-1.987479829540907,5.441562144582529e-05,-4.492292343507079e-06,-1.589983863632726e-05,7.792849113805414e-05,8.410120174699682e-05
262.0972260116796,216.0872936420331,12.5,0,17.47703761966865,2.376270834278506,-1.771738153646734,5.402550371551686e-05,-6.3775634260437e-06,-1.417390522917387e-05,7.468421514906105e-05,7.89702321523222e-05
257.3104627869733,212.1958342372945,12.5,0,17.57911117010162,4.263231022402517,-2.131557494970487,5.284257092640315e-05,-4.209496643932387e-07,-1.705245995976389e-05,8.122541530000728e-05,9.352970342482603e-05
259.2485127590306,212.8571752926019,12.5,0,17.31671820365953,3.543813301803602,-1.945562458736483,5.25784476102676e-05,-2.513171997156095e-06,-1.556449966989186e-05,7.784953788785503e-05,8.64691275434894e-05
256.8296911001066,213.9446127895,12.5,0,17.7789431282952,4.142202576449523,-2.355036407505808,5.357885594938503e-05,-9.68106257997689e-07,-1.884029126004647e-05,8.162971955897985e-05,9.792377941497789e-05
258.7577426930857,214.7288884137386,12.5,0,17.5070321763091,3.437702707698298,-2.157277351042767,5.327234079803046e-05,-3.004977076412726e-06,-1.725821880834214e-05,7.82673472951504e-05,8.917978942957246e-05
256.4777417984946,215.2248075408468,12.5,0.01900101787139263,17.62308360298904,4.41868437713065,-2.332865930182774,5.388274706785647e-05,4.212351407050993e-08,-1.902441060740623e-05,8.352503305795957e-05,0.0001018708461677841
258.3984740699954,216.0990775155457,12.5,0,17.36593737547879,3.465928581133395,-1.918419937913698,5.27982567366254e-05,-2.801778440756166e-06,-1.534735950330958e-05,7.778043989778326e-05,9.163350045129098e-05
255.9969701116279,216.9735860930524,12.5,0.07894085460441036,17.19019304228788,4.093882114446634,-2.431981723799765,5.61674158520457e-05,-7.075893777930622e-07,-2.112334901364227e-05,8.603866703512794e-05,0.0001082603570876232
257.9077040040504,217.9707906366823,12.5,0,18.0290407412903,3.420626606503375,-2.169690727145293,5.495642908692625e-05,-3.477227452221439e-06,-1.735752581716234e-05,8.020539379813639e-05,9.562650174391966e-05
208.2112487225278,85.60379199718375,12.5,0,-7.1509266122212,2.412819156141125,0.1148670682896301,-2.481322048402074e-05,1.344176258942856e-05,9.189365463170411e-07,3.769679186442317e-06,3.756078208561092e-06
209.722646687799,85.39093958909278,12.5,0,-7.157149299860547,2.258845162341986,0.1979388981003511,-2.470995388942734e-05,1.295402395938279e-05,1.583511184802809e-06,3.598898787509797e-06,3.768433697629838e-06
208.7987030523441,87.31239813022248,12.5,0,-6.897759506912073,2.527455113022734,0.02425719177517253,-2.409479451253682e-05,1.36060639672024e-05,1.940575342013803e-07,3.87329847606645e-06,3.831347914032546e-06
210.3868738950401,86.96908075035986,12.5,0,-6.886765710376021,2.392764891867659,0.09502287692957664,-2.395186218669739e-05,1.316626022227732e-05,7.601830154366131e-07,3.710948805214333e-06,3.839651797454581e-06
207.1937479761782,82.64439936469003,12.5,0,-7.626884052742016,2.269277147790848,0.1517138816682357,-2.622145068700713e-05,1.336319411512433e-05,1.213711053345886e-06,3.681481906557645e-06,3.657314744330419e-06
208.5721714171084,82.65751891631155,12.5,0,-7.654487382681149,2.167644034589556,0.2443249667110855,-2.622847485225132e-05,1.30600508168315e-05,1.954599733688684e-06,3.58277091754511e-06,3.674801814915861e-06
207.7812023059944,84.35300549772879,12.5,0,-7.359207554612283,2.370428414622175,0.07855301058408426,-2.544580690645704e-05,1.347273697048079e-05,6.284240846726741e-07,3.749496179552805e-06,3.709446161284629e-06
209.2363986243495,84.23566007757863,12.5,0,-7.364008160275635,2.285394346362766,0.157486486906781,-2.539314158997224e-05,1.320446843658136e-05,1.259891895254248e-06,3.657797159579932e-06,3.724262277937678e-06
204.806248542186,82.62167563470946,12.5,0,-7.638668665040012,2.200722459896518,0.2739498881406944,-2.620431769604525e-05,1.315324680370086e-05,2.191599105125556e-06,3.616802293612034e-06,3.627414872685924e-06
206.1846719831162,82.63479518633096,12.5,0,-7.66551958067982,2.102140866134947,0.3669899031305654,-2.621137535108338e-05,1.285926643617569e-05,2.935919225044523e-06,3.525953228481115e-06,3.644617451428523e-06
205.2607283476613,84.55625372746067,12.5,0,-7.331786204159606,2.303629102419315,0.2029434484986147,-2.530461913524619e-05,1.323704209106949e-05,1.623547587988917e-06,3.67522435192405e-06,3.680937385155722e-06
206.7159246660165,84.43890830731054,12.5,0,-7.335912053995251,2.219594216973162,0.2840116789271118,-2.525059394636333e-05,1.297143113751032e-05,2.272093431416895e-06,3.588653629954229e-06,3.697837291251901e-06
205.5934306562691,85.97246318250404,12.5,0,-7.094517735464135,2.376839808474622,0.2234692491589942,-2.460392860026493e-05,1.32815015754901e-05,1.787753993271954e-06,3.725350037146066e-06,3.730864583405299e-06
207.1048286215402,85.75961077441309,12.5,0,-7.081914635846553,2.294363006616843,0.3130060650434415,-2.449761724000244e-05,1.300749332985114e-05,2.504048520347532e-06,3.635745717395642e-06,3.746011594744587e-06
206.0479104617444,87.90704127525527,12.5,0,-6.805170211501262,2.471825320721787,0.1599475118446562,-2.375400493338147e-05,1.335397719551073e-05,1.27958009475725e-06,3.79837783142939e-06,3.81374571323871e-06
207.6360813044405,87.56372389539266,12.5,0,-6.776256921092641,2.400608931683889,0.2396095236225693,-2.360450929284356e-05,1.310295411826256e-05,1.916876188980555e-06,3.713468477533303e-06,3.824406399688067e-06
281.4464909798417,130.268045771126,12.5,0,2.570422228913115,2.097520539579168,-4.002386388816416,6.547334700858634e-06,4.655727943522845e-06,-3.201909111053133e-05,1.96433539778037e-05,1.935052659061168e-05
283.8974300018482,131.3456094952332,12.5,0,2.484873069205598,2.173984724779581,-3.924369488749965,6.212406041634246e-06,4.968852663930182e-06,-3.139495590999972e-05,1.951748079628562e-05,1.969603485192256e-05
280.5531017911182,131.8207696819074,12.5,0,2.760743534948737,2.184942205634408,-3.935916429232897,7.08642554732843e-06,4.783220230071116e-06,-3.148733143386317e-05,2.046123983454291e-05,2.049217759873833e-05
282.7088318385397,132.7110229290361,12.5,0,2.668522511220028,2.276442770851678,-3.843358501426906,6.718117819222747e-06,5.149798857749348e-06,-3.074686801141525e-05,2.034814205042592e-05,2.075334844553341e-05
277.2013400675495,128.4016506526127,12.5,0,2.169684884701074,2.452736722661006,-3.95468733731003,4.980802252914633e-06,6.113009604754357e-06,-3.163749869848024e-05,1.943629745094798e-05,1.870527984122104e-05
279.652279089556,129.4792143767199,12.5,0,2.022639700200524,2.398688011345679,-3.830157811550281,4.553496631565132e-06,6.057689876145752e-06,-3.064126249240225e-05,1.864994718706607e-05,1.908505458560538e-05
276.8192678216485,130.2788058263048,12.5,0,2.444432199944583,2.518430862419852,-3.939537203861152,5.807438349886781e-06,6.103432999787859e-06,-3.151629763088921e-05,2.050909439672725e-05,2.001363487946944e-05
278.9749978690699,131.1690590734336,12.5,0,2.284839300902386,2.458598141864331,-3.796152252552175,5.344607249396168e-06,6.03964261324395e-06,-3.03692180204174e-05,1.963828347402008e-05,2.029397194608731e-05
276.5395715254988,131.6529787870798,12.5,0,2.720585038717114,2.546728988402436,-3.990461478406806,6.668488933172816e-06,5.973064731914102e-06,-3.192369182725445e-05,2.155476725981905e-05,2.099271484728793e-05
278.4791936046829,132.4061112482763,12.5,0,2.602270449714964,2.493107495738518,-3.878653714850148,6.33277944249707e-06,5.896127626591288e-06,-3.102922971880118e-05,2.087094844755077e-05,2.120340465332705e-05
276.1574992795977,133.5301339607719,12.5,0,3.03898398654147,2.620897652071435,-3.976721928854849,7.628030635275555e-06,5.955685297395416e-06,-3.181377543083879e-05,2.283116197109584e-05,2.235925602590625e-05
277.8019123841967,134.09595594499,12.5,0,2.91145257728754,2.559972072622718,-3.842176425107916,7.268670589221954e-06,5.862748570562666e-06,-3.073741140086333e-05,2.20673600720045e-05,2.247910365519466e-05
279.8990955140677,132.9574424746781,12.5,0,3.044557582780948,2.223429362046088,-4.028105669088656,7.963840775262161e-06,4.679327892322723e-06,-3.222484535270924e-05,2.16206803096819e-05,2.135216312191517e-05
281.8387175932518,133.7105749358745,12.5,0,2.986562477979939,2.276384046225987,-3.965199857698296,7.735892692555015e-06,4.895178965539206e-06,-3.172159886158637e-05,2.152915087687197e-05,2.154788901013221e-05
279.0057063253441,134.5101663854594,12.5,0,3.235633351472818,2.307190935037576,-3.963927126905253,8.508273976682955e-06,4.794504310941987e-06,-3.171141701524202e-05,2.245542512127672e-05,2.256003625698127e-05
280.6501194299432,135.0759883696775,12.5,0,3.174433554915514,2.375548620983194,-3.884430518800682,8.257748478943089e-06,5.062208743213809e-06,-3.107544415040546e-05,2.238786973860561e-05,2.266130060777202e-05
155.3892313606097,95.67967090331183,12.5,0,-5.178122280090312,1.077888021302507,1.86975005617985,-1.7432301713331e-05,7.591739492240272e-06,1.49580004494388e-05,2.640562416292164e-06,2.730502236531109e-06
157.3735757469199,95.95669612371165,12.5,0,-5.197736497390407,1.155314117803445,1.976812274969531,-1.755700808589206e-05,7.855194374883348e-06,1.581449819975625e-05,2.78546141385358e-06,2.790607037980026e-06
155.4844453338662,97.36010376906937,12.5,0,-4.903264636431715,1.142278323087416,1.89441198532184,-1.660426949505142e-05,7.577902343025101e-06,1.515529588257472e-05,2.699360020058046e-06,2.75025799632909e-06
157.1385735745953,97.45235361959173,12.5,0,-4.896795350723201,1.243473793390717,2.027243597565783,-1.666452415702681e-05,7.896552419428852e-06,1.621794878052627e-05,2.894854722112941e-06,2.803405807372597e-06
158.8262166573513,96.15949266001368,12.5,0,-5.119832959646216,1.096585200062381,1.789320403333618,-1.72607336309178e-05,7.604939007916593e-06,1.431456322666894e-05,2.603903294191138e-06,2.837289192843224e-06
160.8105610436615,96.4365178804135,12.5,0,-5.108151001737677,1.276947625372316,1.875134734997835,-1.736764130585842e-05,8.172753202581552e-06,1.500107787998268e-05,2.836269406416392e-06,2.904722410292782e-06
158.349479488992,97.51988519716187,12.5,0,-4.912173505026826,1.196001153406619,1.869164068812537,-1.667575613881114e-05,7.75694249492264e-06,1.49533125505003e-05,2.737604719041004e-06,2.844098139404952e-06
160.0036077297211,97.61213504768425,12.5,0,-4.869080664687631,1.437911097611231,1.988697264088436,-1.673138700508941e-05,8.496580044106044e-06,1.590957811270749e-05,3.078810148760845e-06,2.902123846957028e-06
159.6519496547914,93.80322366747779,12.5,0,-5.475979229199339,1.103984817771311,1.767078981274502,-1.840632138765493e-05,7.913534800227666e-06,1.413663185019601e-05,2.634255356047182e-06,2.835133641940175e-06
162.2082451827174,94.40028921648695,12.5,0,-5.49326573965533,1.322117618850115,1.869292283361148,-1.863614446197715e-05,8.62538897204463e-06,1.495433826688918e-05,2.906668912723588e-06,2.913881975665263e-06
159.175212486432,95.163616204626,12.5,0,-5.275280972343389,1.199018307641622,1.843084613787198,-1.784011375761214e-05,8.057083362327899e-06,1.474467691029758e-05,2.749907653354827e-06,2.834887162987061e-06
161.4012918687769,95.5759063837577,12.5,0,-5.276993158301092,1.465751330302738,1.971007419092113,-1.805897917080568e-05,8.911998783609634e-06,1.576805935273691e-05,3.107339130376312e-06,2.907872991384556e-06
155.2243159213419,92.76907580116348,12.5,0,-5.617562683207842,1.039118623427453,1.832464724351922,-1.880749548500705e-05,7.81922974153412e-06,1.465971779481538e-05,2.627712520206504e-06,2.712782601736883e-06
157.780611449268,93.36614135017265,12.5,0,-5.67591941226348,1.128966003427229,1.961115253038494,-1.906611492198492e-05,8.153426740777916e-06,1.568892202430795e-05,2.791040437873581e-06,2.781249227099338e-06
155.3195298945984,94.44950866692103,12.5,0,-5.358864220872983,1.099627829307199,1.85635054179644,-1.80280677702393e-05,7.805900430481422e-06,1.485080433437152e-05,2.669647098576133e-06,2.720460734814402e-06
157.5456092769433,94.86179884605275,12.5,0,-5.405595499734709,1.208424594348253,2.007094163135727,-1.826464527462967e-05,8.191435101702175e-06,1.605675330508581e-05,2.872035430314075e-06,2.784670200188956e-06
154.2369112603022,86.22029955635685,12.5,0,-6.745535114997882,0.9209989027511103,1.828171564565631,-2.232251149019411e-05,8.343624580801857e-06,1.462537251652505e-05,2.685164362266035e-06,2.723900756958594e-06
156.7289746625879,86.46076301931902,12.5,0,-6.791425917491802,0.9015349091442473,1.998545610459594,-2.245379086328916e-05,8.318052443255031e-06,1.598836488367675e-05,2.75857947439705e-06,2.775022821161576e-06
154.5443775274514,88.13558333954973,12.5,0,-6.378117929202356,1.013891750977833,1.803482008129654,-2.12210907742298e-05,8.346947946490948e-06,1.442785606503723e-05,2.692889910241482e-06,2.712697980840959e-06
157.0961875631421,88.51298164093346,12.5,0,-6.446915124283119,0.9887479428231345,1.973021977088609,-2.142112675196449e-05,8.321525516460525e-06,1.578417581670887e-05,2.767149356175667e-06,2.768890255012792e-06
154.7694584566085,89.53766837970005,12.5,0,-6.154736350546316,0.9921122006149492,1.839400454583136,-2.048884608224017e-05,8.098548122404889e-06,1.471520363666509e-05,2.659805438824121e-06,2.708887994776542e-06
157.365006063531,90.01530994013034,12.5,0,-6.240871467121321,0.9659787475258581,2.012764295645046,-2.074357169280891e-05,8.083829165779802e-06,1.610211436516037e-05,2.741229740907996e-06,2.769467080577761e-06
155.0769247237577,91.45295216289293,12.5,0,-5.796411214383289,1.082266683252617,1.816410288213395,-1.941432923262861e-05,8.100382357915004e-06,1.453128230570716e-05,2.679384980738466e-06,2.709681695389619e-06
157.7322189640852,92.06752856174477,12.5,0,-5.903777139550896,1.050853348160787,1.988812311944904,-1.97327695250915e-05,8.085752425755234e-06,1.591049849555923e-05,2.760417641069854e-06,2.777175563477211e-06
159.2650787851814,90.36496783015691,12.5,0,-6.04438298328186,1.181458684348683,1.772471750527371,-2.02871924939809e-05,8.616174176541273e-06,1.417977400421897e-05,2.777899414412075e-06,2.816060553272373e-06
161.8606263921039,90.84260939058719,12.5,0,-6.128935236740742,1.170892689519834,1.94973773859129,-2.054930690918624e-05,8.650004795856061e-06,1.559790190873032e-05,2.873099768631324e-06,2.882777202179321e-06
159.6760292569673,92.51742971081789,12.5,0,-5.632769116172804,1.282610288428003,1.746638971141196,-1.905094940249537e-05,8.610568215907852e-06,1.397311176912957e-05,2.810550536428056e-06,2.830089067071066e-06
162.3313234972947,93.13200610966973,12.5,0,-5.739504423997602,1.266465365946799,1.923148941260992,-1.937958644954976e-05,8.644292710227835e-06,1.538519153008793e-05,2.905663163944144e-06,2.907157579214508e-06
158.5532916886665,86.6367944915638,12.5,0,-6.711485235263557,1.077143715342423,1.765489525278126,-2.233846772511732e-05,8.816048077306599e-06,1.412391620222501e-05,2.780012837200348e-06,2.813132288353645e-06
161.0453550909523,86.87725795452599,12.5,0,-6.758381894738609,1.053093094880119,1.93544721810868,-2.246929653906764e-05,8.776603419407268e-06,1.548357774486944e-05,2.847431287304279e-06,2.866127224773205e-06
158.9642421604524,88.78925637222481,12.5,0,-6.301937661649413,1.181660227271383,1.731746674580551,-2.111152869909523e-05,8.822862856587956e-06,1.385397339664441e-05,2.793194433933716e-06,2.811516998108948e-06
161.5160521961432,89.16665467360852,12.5,0,-6.371869562824346,1.151885296052466,1.901481420135765,-2.131149083787988e-05,8.783528597627367e-06,1.521185136108612e-05,2.861030982299781e-06,2.871783151841954e-06
148.1485657797828,109.5279715966374,12.5,0,-2.866529093892262,0.9635329298854258,2.074352768787134,-9.943719444363577e-06,5.376528650747172e-06,1.659482215029707e-05,2.792587554027496e-06,2.856259893160668e-06
149.6917314835608,108.9042049256667,12.5,0,-2.826160113539699,0.878973537013697,2.119916857046542,-9.746891192937993e-06,5.073643409275589e-06,1.695933485637234e-05,2.746793063449423e-06,2.900353666819177e-06
149.2550170390347,111.1006354688504,12.5,0,-2.685817967038315,1.075539372589151,1.993382123816258,-9.455048992593928e-06,5.590380365915935e-06,1.594705699053007e-05,2.906315036767853e-06,3.038095930072911e-06
150.7491857456556,110.4415708614811,12.5,0,-2.639804227646157,0.9930878468718803,2.037224862509385,-9.241843805965206e-06,5.289724492106942e-06,1.629779890007508e-05,2.857399380289163e-06,3.074980551017673e-06
150.8214071831761,108.4475760304674,12.5,0,-3.054163626478722,1.082069100751148,2.048411127764307,-1.063897888533283e-05,5.905952023586652e-06,1.638728902211446e-05,2.871573765984519e-06,2.931677721029728e-06
152.3645728869541,107.8238093594967,12.5,0,-3.013790168096102,0.997726068373267,2.093960922175232,-1.044230939260614e-05,5.603755553271336e-06,1.675168737740185e-05,2.8210070213107e-06,2.973162854977124e-06
151.842993153935,109.9591020834368,12.5,0,-2.881450174192842,1.186762049176213,1.972388138285185,-1.017005019675807e-05,6.102798696718155e-06,1.577910510628148e-05,2.978845282391795e-06,3.100664171566075e-06
153.337161860556,109.3000374760676,12.5,0,-2.835378747418099,1.10442036965684,2.016275123369239,-9.956748287463389e-06,5.802448180836366e-06,1.613020098695391e-05,2.92528567134333e-06,3.13394850688485e-06
149.0519683775538,105.8295361098074,12.5,0,-3.48743980778878,0.9812607352295531,2.057458460912482,-1.194481597310774e-05,5.929986198965594e-06,1.645966768729985e-05,2.681241021373143e-06,2.710490725835733e-06
150.6799993698247,105.2669072580802,12.5,0,-3.452330072135809,0.8871455906961494,2.111105972869986,-1.175717270339151e-05,5.600729947936325e-06,1.688884778295989e-05,2.630181840010923e-06,2.760580044662322e-06
150.0735543483127,107.3410621627768,12.5,0,-3.305092023677945,1.090399514515648,1.977925635294695,-1.144861408738194e-05,6.133352065392427e-06,1.582340508235756e-05,2.760656574384728e-06,2.827131061341468e-06
151.6525883434265,106.7431353746511,12.5,0,-3.264200481382085,0.9982427960579054,2.029951095007361,-1.124403577726899e-05,5.805737332490964e-06,1.623960876005889e-05,2.705500763810393e-06,2.873119077048461e-06
146.2321359826946,106.8040378667855,12.5,0,-3.320088340005854,0.8615265130725971,2.084350795782103,-1.131350389847681e-05,5.412955513836993e-06,1.667480636625682e-05,2.59187223691987e-06,2.622020573913653e-06
147.8601669749654,106.2414090150583,12.5,0,-3.28568531690612,0.7658505825276406,2.137440624841996,-1.11268734801217e-05,5.079270117613346e-06,1.709952499873597e-05,2.543545398763106e-06,2.673363827546098e-06
147.3385872419464,108.3767017389985,12.5,0,-3.130182965779153,0.9788120649966824,1.999469539743321,-1.079963514249063e-05,5.636344980612705e-06,1.599575631794657e-05,2.673920412935023e-06,2.744772837490773e-06
148.9176212370601,107.7787749508727,12.5,0,-3.090075187431864,0.8852073102745316,2.050859832715508,-1.059640644800159e-05,5.304723542823991e-06,1.640687866172406e-05,2.62112286025488e-06,2.792740790101484e-06
258.2963775342726,195.4182827561577,12.5,0,16.57716228307992,4.554993407921609,-2.975766850135913,4.940292457951845e-05,1.314249078885211e-06,-2.380613480108731e-05,7.855330659402218e-05,7.959210075517728e-05
260.1693758135215,195.9766796465177,12.5,0,16.32007843921311,4.066790358818294,-2.744038657371046,4.897081871842732e-05,-4.233360315194969e-08,-2.195230925896836e-05,7.591887624320832e-05,7.743919465404118e-05
258.0386445409905,197.2062620973217,12.5,0,17.02681524867513,4.608546787222581,-3.113944406710341,5.079897136598234e-05,1.125897520172156e-06,-2.491155525368273e-05,8.046776370448122e-05,8.109812915926693e-05
259.9109994293543,197.7832016180581,12.5,0,16.76552775609221,4.120313259995977,-2.881081368823722,5.035343821149828e-05,-2.274197728866401e-07,-2.304865095058978e-05,7.781752858528976e-05,7.871829501968438e-05
258.7427841734159,192.3214116944336,12.5,0,16.08980992967352,4.450727344038921,-3.199428168634697,4.792680989972411e-05,1.370479557185732e-06,-2.559542534907758e-05,7.642172517990684e-05,7.703006225717882e-05
260.6168968383668,192.8476918068763,12.5,0,15.84488560000474,4.009564199004686,-2.964976819702579,4.749598256081141e-05,1.546969568112051e-07,-2.371981455762064e-05,7.398273981850072e-05,7.518426549766914e-05
258.4850511801338,194.1093910355977,12.5,0,16.56804551052328,4.517565978146257,-3.319112202291782,4.940369285115747e-05,1.201774721649399e-06,-2.655289761833426e-05,7.848444828857422e-05,7.850206551404093e-05
260.3585204541997,194.6542137784168,12.5,0,16.31861301461214,4.076191641171476,-3.083710869475667,4.895860833382167e-05,-1.107715994099054e-08,-2.466968695580534e-05,7.602811361384451e-05,7.649225429761892e-05
255.4967258186711,191.4098678006862,12.5,0,16.17286985078518,5.28584361994058,-3.281933117339769,4.75245086265601e-05,3.976403703181714e-06,-2.625546493871815e-05,7.952396010128758e-05,8.052688096637742e-05
257.3708384836219,191.9361479131289,12.5,0,15.91563436693841,4.822615296981617,-3.035670237315315,4.707193773661762e-05,2.699861456790446e-06,-2.428536189852252e-05,7.6948484004811e-05,7.846161175744468e-05
255.240107211091,193.1657303639329,12.5,0,16.66610130040412,5.354027104281804,-3.404966489293148,4.904830247786773e-05,3.800005693378478e-06,-2.723973191434519e-05,8.164578736530769e-05,8.237786291977759e-05
257.1135764851568,193.7105531067521,12.5,0,16.4041395733224,4.890593374300847,-3.157715407621595,4.858077193519101e-05,2.526587139104787e-06,-2.526172326097276e-05,7.905252971174899e-05,8.007910959126491e-05
255.0522493521829,194.451110971283,12.5,0,16.6767565863229,5.465121535282758,-3.044674644579791,4.899352384800707e-05,4.146983643846507e-06,-2.435739715663833e-05,8.196392960565584e-05,8.381728151491105e-05
256.9252476314317,195.009507861643,12.5,0,16.41427050438329,4.959732331226404,-2.809574512440665,4.855787974904538e-05,2.739727056417867e-06,-2.247659609952532e-05,7.923501110547565e-05,8.130110397874974e-05
254.7956307446028,196.2069735345297,12.5,0,17.12134688717398,5.515465006149896,-3.185835805069419,5.03759380340368e-05,3.952410509940486e-06,-2.548668644055535e-05,8.384592305037087e-05,8.589886429694209e-05
256.6679856329666,196.7839130552661,12.5,0,16.85464037764244,5.010095211014121,-2.949554316082864,4.99267730396445e-05,2.548592373131237e-06,-2.359643452866291e-05,8.110164129192609e-05,8.302215689824397e-05
136.5332776217987,168.0497935968334,12.5,0,6.117594908076696,0.0017730950489383,0.4883494994376807,1.957488522980627e-05,-4.888402022304754e-06,3.906795995501446e-06,2.354628266759233e-05,2.317219241119459e-05
138.9539359054433,168.3524450996083,12.5,0,6.099789703630217,0.06194948088523211,0.5902110980394354,1.946976746690851e-05,-4.68159342407143e-06,4.721688784315483e-06,2.367488678460884e-05,2.422501064432392e-05
136.7998093709815,170.5220708723837,12.5,0,6.398712555264384,0.06501689590954629,0.5030127837694638,2.042386666011839e-05,-4.910915977300958e-06,4.02410227015571e-06,2.481871813631631e-05,2.434041290554736e-05
139.1653027055582,170.7434277757107,12.5,0,6.389569067114615,0.1284545700228545,0.6074284298274928,2.034385735874848e-05,-4.700600629618557e-06,4.859427438619942e-06,2.499128248271825e-05,2.53685310775226e-05
136.0716310903924,163.7676837452595,12.5,0,5.569758134362061,0.01724378713641195,0.7081692051271408,1.780943100024947e-05,-4.40062638865313e-06,5.665353641017126e-06,2.152920855856569e-05,2.109036737883172e-05
138.5878378686178,164.2111416246564,12.5,0,5.533641581494507,0.06909553540019608,0.8152693261788378,1.765237663246226e-05,-4.205807551914978e-06,6.522154609430703e-06,2.15716578579728e-05,2.218849223720007e-05
136.3381628395751,166.2399610208097,12.5,0,5.856730016172907,0.08260829671959424,0.7201646792918975,1.867544941437763e-05,-4.421037463435624e-06,5.76131743433518e-06,2.282892083497717e-05,2.230134533697386e-05
138.7992046687326,166.6021243007588,12.5,0,5.828798692209971,0.1375110904017192,0.8297522163119457,1.854214694275053e-05,-4.223003464482475e-06,6.638017730495565e-06,2.291231977103639e-05,2.337292180518642e-05
131.7134331082351,162.999592167141,12.5,0,5.26014360652015,-0.1878268489896302,0.7031131217053079,1.698272102005618e-05,-4.809160801982936e-06,5.624904973642464e-06,1.972802956325879e-05,1.930118051191281e-05
134.2296398864605,163.443050046538,12.5,0,5.218103876746181,-0.1564389030549014,0.8133835740723583,1.68230835280317e-05,-4.675087591172629e-06,6.507068592578866e-06,1.968687875750658e-05,2.031671453376817e-05
132.0755133519986,165.6126758193133,12.5,0,5.568854261429533,-0.1166156920894628,0.7042131235637448,1.791362619024608e-05,-4.828253623829907e-06,5.633704988509958e-06,2.112235869284109e-05,2.055640923922566e-05
134.5365551811561,165.9748390992624,12.5,0,5.53511125046734,-0.08254376026251031,0.8165830017851339,1.777839100970549e-05,-4.692229033213905e-06,6.532664014281071e-06,2.112042361509155e-05,2.154666306947605e-05
132.3405744868392,167.5255858170497,12.5,0,5.830639292226569,-0.207000068601537,0.4875583657641853,1.882364579000625e-05,-5.326911653306173e-06,3.900466926113483e-06,2.181865202915015e-05,2.145941174113603e-05
134.7612327704838,167.8282373198246,12.5,0,5.809643800460301,-0.1626366586099062,0.5877300034265361,1.872096948836089e-05,-5.16815234791994e-06,4.701840027412289e-06,2.188567776994364e-05,2.243115241852006e-05
132.7026547306028,170.1386694692219,12.5,0,6.121016503031766,-0.1417472155724904,0.4935610613618499,1.970065058215964e-05,-5.350404292257382e-06,3.948488490894799e-06,2.312828328469851e-05,2.267123172850902e-05
135.0681480651795,170.360026372549,12.5,0,6.108446241772483,-0.09453958633434789,0.595856036507586,1.962265964273942e-05,-5.189283669687899e-06,4.766848292060688e-06,2.323655869134849e-05,2.361767372325668e-05
147.2206888101864,248.5325512394871,12.5,0,7.683379345295095,2.20610519715621,-4.82593376422201,2.282192974721934e-05,9.128331546637974e-07,-3.860747011377608e-05,3.852043090483785e-05,3.817599951666706e-05
149.7813376076466,249.0320487655828,12.5,0,7.809889467029607,2.452992850245749,-4.975583193362311,2.302925201429814e-05,1.601665547162711e-06,-3.980466554689849e-05,3.987943345469494e-05,3.893619926561046e-05
147.3866302888145,251.0244354043625,12.5,0,7.33815148608459,2.105978671168044,-4.734395288159314,2.179730181853625e-05,8.686105588700697e-07,-3.787516230527451e-05,3.688482589977121e-05,3.771134613825947e-05
149.9174542450196,251.4698674849027,12.5,0,7.459033243460627,2.353482384840664,-4.88379430319406,2.198612047120147e-05,1.563917036721623e-06,-3.907035442555248e-05,3.82251486775679e-05,3.842395807048228e-05
146.9332697381246,244.2164812594242,12.5,0,8.082715805925552,2.015591238919486,-4.718788462281509,2.425221758782617e-05,-1.628068019808582e-08,-3.775030769825207e-05,3.928378393601807e-05,3.888639376265253e-05
149.5455766759654,244.8096228841538,12.5,0,8.225154896932787,2.268378232006329,-4.878112328473291,2.450579308457986e-05,6.786864248740226e-07,-3.902489862778633e-05,4.072117367525243e-05,3.973604029705785e-05
147.0992112167527,246.7083654242995,12.5,0,7.727223385760996,1.913048913039804,-4.627895698473868,2.319667570400334e-05,-6.002218688142425e-08,-3.702316558779094e-05,3.760008717582285e-05,3.849085257868149e-05
149.6816933133384,247.2474416034739,12.5,0,7.864099980998112,2.166454750567865,-4.787088131178333,2.343195613873966e-05,6.413752170186793e-07,-3.829670504942667e-05,3.901889826145337e-05,3.928777063861367e-05
142.4086213969007,243.189129829327,12.5,0,8.045761788314632,1.668156395780916,-4.516673569329448,2.441191260598208e-05,-1.098508964152774e-06,-3.613338855463558e-05,3.790709938564135e-05,3.743197971102801e-05
145.0209283347416,243.7822714540566,12.5,0,8.176295812147291,1.897001120524198,-4.663665012258351,2.464654570245197e-05,-4.706330640403991e-07,-3.73093200980668e-05,3.920970220762265e-05,3.826902258933268e-05
142.6262210159095,245.7746580928363,12.5,0,7.703541625830513,1.566402377415305,-4.429018568123013,2.339821130072539e-05,-1.150345692935433e-06,-3.54321485449841e-05,3.627639889698483e-05,3.712261135218155e-05
145.2087031124952,246.3137342720106,12.5,0,7.828831981129395,1.795617412926595,-4.575819883517167,2.361576840927279e-05,-5.17089863538413e-07,-3.660655906813733e-05,3.756041140904449e-05,3.791069989641531e-05
142.7855149927248,247.6673961460501,12.5,0,7.676718116833241,1.866816833401106,-4.642590469404454,2.307204450714549e-05,-1.675606265830534e-07,-3.714072375523563e-05,3.728258002694566e-05,3.686754195535794e-05
145.346163790185,248.1668936721456,12.5,0,7.793658637878411,2.092923213636037,-4.781835260116986,2.326536907030209e-05,4.624273733325884e-07,-3.825468208093588e-05,3.852672652620177e-05,3.762170446098541e-05
143.0031146117335,250.2529244095594,12.5,0,7.34174242903312,1.7664941532,-4.553362274227485,2.208038045034598e-05,-2.206126529864967e-07,-3.642689819381988e-05,3.568472803041399e-05,3.648004776259672e-05
145.5339385679386,250.6983564900997,12.5,0,7.453346477163451,1.992977139093429,-4.692302734314548,2.22563270156483e-05,4.148496633682138e-07,-3.753842187451638e-05,3.691011222470464e-05,3.719047694111921e-05
189.8999797354117,222.2745879385799,12.5,0,13.34604586824844,6.548952342190563,-5.016366617752548,3.746818490464254e-05,1.027981080041105e-05,-4.013093294202039e-05,7.381612882487998e-05,7.33695590315237e-05
192.2645285960746,222.2010266460736,12.5,0,13.4694268197426,7.087306119653347,-5.154152302038034,3.743232092745364e-05,1.190383812709663e-05,-4.123321841630428e-05,7.616728132702169e-05,7.631886293134031e-05
189.9634823144263,224.6234737034918,12.5,0,12.9491704730755,6.435696461468939,-4.804695640633804,3.628878834466645e-05,1.02348922982402e-05,-3.843756512507044e-05,7.187097064452889e-05,7.225838967262885e-05
192.3098012277612,224.6006811733777,12.5,0,13.08192597714267,6.980839315634915,-4.948069724638912,3.627749167434862e-05,1.187314502831759e-05,-3.958455779711129e-05,7.428404666866433e-05,7.49832614910339e-05
185.8044609718381,222.4019998346693,12.5,0,12.91063126643633,5.701150641562973,-4.975819339120922,3.675309953934589e-05,7.915177039852445e-06,-3.980655471296738e-05,6.931761608635866e-05,6.884152274679908e-05
188.169009832501,222.3284385421628,12.5,0,13.01079034426126,6.139986116038727,-5.093457166506017,3.672254020880506e-05,9.239323295914912e-06,-4.074765733204814e-05,7.122424001685071e-05,7.136601176760545e-05
185.8995387458435,224.6629515236818,12.5,0,12.58325076949567,5.602150407241888,-4.807549272947923,3.578468213659262e-05,7.860280687577506e-06,-3.846039418358338e-05,6.76940360903768e-05,6.801471488828731e-05
188.2458576591784,224.6401589935676,12.5,0,12.69142217477997,6.046875810882336,-4.929866769961516,3.577505031059005e-05,9.19686485499949e-06,-3.943893415969213e-05,6.965327870107595e-05,7.039117323806237e-05
185.969140507083,226.3180830334272,12.5,0,12.37459392562291,5.817160759623426,-5.302045217430096,3.494497195429458e-05,8.71523929029663e-06,-4.241636173944076e-05,6.788601189696749e-05,6.734616834429506e-05
188.3021141727551,226.3324558168201,12.5,0,12.48395121258815,6.24453354998158,-5.466264652225131,3.49530170402968e-05,9.995346389870538e-06,-4.373011721780105e-05,6.981624394350558e-05,6.960397504448063e-05
186.0642182810884,228.5790347224398,12.5,0,11.93496235256961,5.69043612823545,-5.135222177898025,3.363953062563438e-05,8.661425728297752e-06,-4.10817774231842e-05,6.575488995682013e-05,6.634647307731779e-05
188.3789619994325,228.6441762682249,12.5,0,12.05502315513102,6.124303583789287,-5.304560157576426,3.367663122938783e-05,9.953752944020898e-06,-4.243648126061141e-05,6.775044331927538e-05,6.842814811344047e-05
190.0099694286747,226.3429774245094,12.5,0,12.68983247510805,6.580352431692615,-5.337009101068057,3.534318197499165e-05,1.090526180132993e-05,-4.269607280854446e-05,7.165019810552787e-05,7.136739376377539e-05
192.3429430943469,226.3573502079023,12.5,0,12.80665482199788,7.037399274601181,-5.504319230559762,3.535137601071227e-05,1.227435382112547e-05,-4.40345538444781e-05,7.371899329358471e-05,7.392733659992599e-05
190.0734720076894,228.6918631894212,12.5,0,12.22672430183583,6.452576583171461,-5.154817777036489,3.396345649933749e-05,1.086686562468001e-05,-4.123854221629191e-05,6.942412978295496e-05,7.004431703024306e-05
192.3882157260336,228.7570047352065,12.5,0,12.35441765211714,6.916146151840788,-5.327411124730721,3.400121956530222e-05,1.224813356419681e-05,-4.261928899784576e-05,7.155944006461445e-05,7.23780975886263e-05
180.2078108697205,176.0759922276505,12.5,0,9.710877873208116,3.945494289887372,0.3684556059534234,2.791841376235607e-05,4.856879429073098e-06,2.947644847627387e-06,5.009716947128808e-05,5.126732305573952e-05
181.3208856703435,174.9872124971337,12.5,0,10.10803223133547,4.054868644148902,0.5236269512550531,2.910180822495439e-05,4.889153876208108e-06,4.189015610040424e-06,5.197739564799323e-05,5.133441936108537e-05
180.9428821477096,177.7564216093566,12.5,0,10.25289649674801,4.075051801354385,0.2847228812834235,2.954922734851011e-05,4.837848566935626e-06,2.277783050267388e-06,5.258105890294265e-05,5.309171123274523e-05
182.2884965840221,176.5600572175896,12.5,0,10.57096655016175,4.163450082528881,0.421038656328533,3.04963328944945e-05,4.866267023963017e-06,3.368309250628265e-06,5.408876063449926e-05,5.33088845712488e-05
178.2799087624515,177.9618140391231,12.5,0,9.859945034911712,3.597162284727744,0.1803474521890988,2.867409428393528e-05,3.622963283199409e-06,1.44277961751279e-06,4.947447194477306e-05,5.1036773698929e-05
179.3929835630745,176.8730343086062,12.5,0,10.33895453205422,3.794682953217802,0.3864622285701821,3.004890813999924e-05,3.871821824653595e-06,3.091697828561457e-06,5.196195948044826e-05,5.118756914093658e-05
178.61220957666,179.8285855202263,12.5,0,10.54934969043161,3.748980766323196,0.1801007555402449,3.07587343963226e-05,3.557258699888937e-06,1.440806044321959e-06,5.259743480565299e-05,5.254373838141873e-05
179.9578240129725,178.6322211284592,12.5,0,10.92416643154472,3.909345716166155,0.3544009712162083,3.182985600801017e-05,3.770573146495921e-06,2.835207769729666e-06,5.456313032060066e-05,5.28866909290949e-05
178.8554706560467,181.1951570904564,12.5,0,10.37153184592988,3.69964835356624,-0.1171013503240538,3.022918322412261e-05,3.541649254668066e-06,-9.368108025924302e-07,5.175642138763035e-05,5.363952712366661e-05
180.3713159204503,179.9200352605424,12.5,0,10.93197154305141,3.943596579806232,0.1553346180154397,3.182743167391951e-05,3.873931820938818e-06,1.242676944123518e-06,5.470203904595343e-05,5.412819336944335e-05
179.1877714702552,183.0619285715597,12.5,0,11.07548193510037,3.854929373320091,-0.117931504971779,3.235759869366512e-05,3.47538844654399e-06,-9.434520397742319e-07,5.494674163464376e-05,5.512631295948738e-05
180.9361563703483,181.6792220803954,12.5,0,11.543290837816,4.063786172206596,0.1213436048409176,3.368750174324593e-05,3.769483080808304e-06,9.707488387273406e-07,5.742239691510137e-05,5.582091932618196e-05
181.4809916703592,178.9865812952448,12.5,0,10.36633826787868,4.172379938952776,0.1212016557684465,2.983437850604954e-05,5.058545190345944e-06,9.696132461475718e-07,5.333604285936346e-05,5.443259058132162e-05
182.9968369347628,177.7114594653308,12.5,0,10.80584667240328,4.293385350493413,0.3195534896361891,3.114400107129576e-05,5.094155783656295e-06,2.556427917089513e-06,5.541264405172136e-05,5.477555298411399e-05
182.2160629483483,180.667010676951,12.5,0,10.89137816652245,4.298702604304259,0.03937481049434864,3.141344804942843e-05,5.042745800555668e-06,3.149984839547891e-07,5.574798788459622e-05,5.627155291160221e-05
183.9644478484414,179.2843041857867,12.5,0,11.26323233538052,4.401676557690302,0.2175995259195382,3.252100222706541e-05,5.074779116304553e-06,1.740796207356306e-06,5.750541775871855e-05,5.6808100395925e-05
199.6206633839678,291.2339502357625,12.5,0,1.138926949198833,5.709993678420802,-2.746051541154415,-9.234287053003763e-07,1.73608382115875e-05,-2.196841232923532e-05,2.644260097544802e-05,2.68159367597368e-05
201.4121374271736,291.0432635054555,12.5,0,1.137399503458302,5.733813511094109,-2.773139555495634,-9.473723978087193e-07,1.74382836327345e-05,-2.218511644396507e-05,2.654329882399777e-05,2.652396356550857e-05
199.769908343988,292.844056944644,12.5,0,1.051870490094743,5.685645633529922,-2.731898898136167,-1.182530938520759e-06,1.735256963521995e-05,-2.185519118508934e-05,2.606982258291802e-05,2.607639672331004e-05
201.3196407853086,292.8387142602888,12.5,0,1.05906215156444,5.715537563060775,-2.764500838076621,-1.183431165442412e-06,1.744247048054293e-05,-2.211600670461297e-05,2.622404105643942e-05,2.574518322967969e-05
202.7235874471854,290.9036711305476,12.5,0,0.9706778312608055,5.745380835896653,-2.519264394948935,-1.490135608682745e-06,1.760867640986064e-05,-2.015411515959148e-05,2.590217245928784e-05,2.628030615969945e-05
204.5150614903912,290.7129844002407,12.5,0,0.9534004537657584,5.689004150416664,-2.533443117328032,-1.500321868282904e-06,1.744209291832072e-05,-2.026754493862426e-05,2.564753086593757e-05,2.590659494158845e-05
202.4541236704447,292.8348031438923,12.5,0,0.9256335386627924,5.724449806124162,-2.549206645642728,-1.617532521178393e-06,1.757773254866708e-05,-2.039365316514182e-05,2.570183822498253e-05,2.548248664713152e-05
204.0038561117653,292.8294604595373,12.5,0,0.9100884937324285,5.662727801973757,-2.562576528058468,-1.617899061635234e-06,1.739265817133008e-05,-2.050061222446775e-05,2.543279955602565e-05,2.509599973023501e-05
203.1903123992911,287.5588523673719,12.5,0,1.107186249275141,6.016988339405092,-2.68692830585701,-1.270594673843622e-06,1.836861368667618e-05,-2.149542644685608e-05,2.744103939316692e-05,2.775892880497044e-05
205.4004951792579,287.0471403326017,12.5,0,1.083850082328099,6.002335045909148,-2.721733375234283,-1.333547773277403e-06,1.834039208104679e-05,-2.177386700187426e-05,2.733483070804004e-05,2.742322335659475e-05
202.9208486225505,289.4899843807166,12.5,0,1.012664324524378,5.992079111001592,-2.695522135935779,-1.553137450323262e-06,1.836452169558559e-05,-2.156417708748623e-05,2.70572019560526e-05,2.689027699748957e-05
204.889289800632,289.1636163918982,12.5,0,0.9936536836651303,5.977679302064667,-2.733340868824583,-1.602451653923316e-06,1.833365081967483e-05,-2.186672695059667e-05,2.696807156495188e-05,2.653017263285876e-05
199.3621635304436,288.4451636104225,12.5,0,1.319250049100636,5.883628594132076,-2.938033081302382,-4.853027181836259e-07,1.777221146194213e-05,-2.350426465041906e-05,2.77779883037859e-05,2.8162888827461e-05
201.5723463104104,287.9334515756523,12.5,0,1.309574453364309,5.963575545492671,-2.981652119279279,-5.802221856283463e-07,1.80357821828851e-05,-2.385321695423423e-05,2.807052357741792e-05,2.795712157055207e-05
199.511408490464,290.0552703193039,12.5,0,1.196145206144194,5.846075837283298,-2.904573707202525,-8.491960101652163e-07,1.775052651439119e-05,-2.32365896576202e-05,2.722868351307358e-05,2.737501063404057e-05
201.4798496685454,289.7289023304855,12.5,0,1.195364225785471,5.938598836133424,-2.956112677358306,-9.257135463932318e-07,1.804722489499858e-05,-2.364890141886644e-05,2.760127282312599e-05,2.711665065763431e-05
192.4883834050236,182.3853163192496,12.5,0,12.02218401673612,6.280583374106181,-0.2113172978551742,3.344652215427063e-05,1.048011958375088e-05,-1.690538382841393e-06,6.680486774376419e-05,6.781452311974037e-05
193.8248774820009,180.8271770551671,12.5,0,12.48313147091405,6.262302783691441,-0.1138622297043393,3.493617847997179e-05,1.005286373108137e-05,-9.108978376347145e-07,6.846842329627292e-05,6.786985706921426e-05
193.7395955453302,183.9867662402893,12.5,0,12.56137694942469,6.539346026455368,-0.4230744216595444,3.49649294169947e-05,1.087680572511743e-05,-3.384595373276355e-06,6.972780806922138e-05,7.071458761557526e-05
195.046339813045,182.4151625624067,12.5,0,13.03456350709273,6.525092793024641,-0.3282791549111291,3.649052898827704e-05,1.045264613200466e-05,-2.626233239289033e-06,7.144946377502491e-05,7.080904328332757e-05
190.1735077597256,185.0840926898599,12.5,0,12.31144842534928,5.868945415147564,-0.4427972332644511,3.470147862899965e-05,8.931466588192778e-06,-3.542377866115609e-06,6.647676900762661e-05,6.747313838847324e-05
191.5100018367029,183.5259534257774,12.5,0,12.8024632636629,5.880348749728341,-0.3272348699355774,3.626360344393861e-05,8.575145388200372e-06,-2.617878959484619e-06,6.835809559246518e-05,6.770822266961678e-05
191.4762480811894,186.7088636596953,12.5,0,12.87876631187003,6.118439832874964,-0.658454498731723,3.631730033168413e-05,9.275994415703856e-06,-5.267635989853784e-06,6.947834185227744e-05,7.027274360897081e-05
192.7829923489042,185.1372599818126,12.5,0,13.38235429772584,6.133838588564881,-0.5454050584202658,3.791646288187078e-05,8.922400045226946e-06,-4.363240467362126e-06,7.141856066041045e-05,7.057088655093477e-05
192.429920185529,187.8982785602272,12.5,0,13.04354285960518,6.442205209899714,-0.8341617042689655,3.65855729828168e-05,1.018022238399494e-05,-6.673293634151724e-06,7.122422853840948e-05,7.239612626451318e-05
193.7148860813491,186.3168182473491,12.5,0,13.59659938890436,6.446926631675527,-0.7205404449555028,3.835157673915354e-05,9.752885710238195e-06,-5.764323559644022e-06,7.330939381320757e-05,7.27492573378372e-05
193.7326605069928,189.5230495300627,12.5,0,13.67921331788835,6.73540940995813,-1.081517289681104,3.838515508927621e-05,1.060993945755533e-05,-8.652138317448835e-06,7.464154151467448e-05,7.539771034311451e-05
194.9878765935504,187.9281248033844,12.5,0,14.24656517049541,6.744822067610678,-0.9709600670770934,4.019315089149678e-05,1.018617847995784e-05,-7.767680536616747e-06,7.67943949841684e-05,7.583801312431349e-05
194.6555464030427,185.1591089482178,12.5,0,12.78527953462413,6.848577350680566,-0.588487484632944,3.543403263025276e-05,1.16872238944785e-05,-4.707899877063552e-06,7.164598815702316e-05,7.292632801522142e-05
195.9405122988628,183.5776486353398,12.5,0,13.32567215174756,6.835581791084295,-0.4847059602705892,3.717368545272477e-05,1.121332401007169e-05,-3.877647682164713e-06,7.362007335859295e-05,7.305696302906227e-05
195.9067585433493,186.7605588692577,12.5,0,13.40570701508101,7.146679883347272,-0.8323017706271617,3.718091854158141e-05,1.214481001464646e-05,-6.658414165017294e-06,7.501763026636856e-05,7.606885066462941e-05
197.161974629907,185.1656341425795,12.5,0,13.96045139020879,7.138449762061926,-0.73168999414803,3.896268463901857e-05,1.167467812643113e-05,-5.85351995318424e-06,7.706017734115464e-05,7.625920777189457e-05
218.7970956024683,286.6669901916425,12.5,0,0.2449276786644474,5.393496178137889,-1.209704836529157,-3.531028370784079e-06,1.706324562710968e-05,-9.677638692233252e-06,2.168834326823782e-05,2.225153424746301e-05
221.1903159021883,286.8290896541326,12.5,0,0.1802507493746417,5.141477538300561,-1.193439255122777,-3.536379632641595e-06,1.630852752306208e-05,-9.54751404098222e-06,2.052675009088913e-05,2.091862938535396e-05
218.8358313496294,288.859182862835,12.5,0,0.2703038106173568,5.403693280116252,-1.297089685793336,-3.45798243011746e-06,1.707557544787812e-05,-1.037671748634669e-05,2.183631380477306e-05,2.129328480537273e-05
221.1391403049668,288.953645523694,12.5,0,0.2038220294733606,5.141975162989617,-1.282805996756267,-3.46134963607694e-06,1.629126289798808e-05,-1.026244797405014e-05,2.06340503032695e-05,2.010293556323926e-05
218.8641878846193,290.4639792780598,12.5,0,0.1703459359252348,5.020058822324474,-1.096492798955601,-3.470940062898827e-06,1.592791148269813e-05,-8.771942391644811e-06,2.000050671187001e-05,2.063757745482615e-05
221.1016771676946,290.5089283636655,12.5,0,0.1216170501570311,4.826714111882754,-1.087217705819289,-3.472196729003703e-06,1.534819151789919e-05,-8.697741646554311e-06,1.911345479691562e-05,1.953983630387547e-05
218.9029236317803,292.6561719492521,12.5,0,0.1918248374500495,5.028596289382421,-1.168338998594834,-3.409037551665777e-06,1.59380482560637e-05,-9.346711988758669e-06,2.01238222616091e-05,1.980440110025064e-05
221.0505015704731,292.6334842332268,12.5,0,0.1417119291632611,4.827283842334706,-1.160988442067869,-3.408348900545328e-06,1.533393875214045e-05,-9.287907536542953e-06,1.920364358166171e-05,1.881711433963846e-05
222.739633004227,290.5418333780812,12.5,0,0.09394987703206592,4.68615894958808,-0.7725833693574752,-3.448287553167853e-06,1.49205487370562e-05,-6.180666954859801e-06,1.839605863459853e-05,1.869548415365868e-05
224.9771222873024,290.5867824636869,12.5,0,0.02099821929973911,4.396073431529254,-0.7618314947094792,-3.449664443464238e-06,1.405063640545382e-05,-6.094651957675834e-06,1.706396085800043e-05,1.748641233063899e-05
222.6226377347434,292.6168756723893,12.5,0,0.1115313784851717,4.676189176495114,-0.8740434511509131,-3.384050930043542e-06,1.487458026199623e-05,-6.992347609207305e-06,1.843983555366619e-05,1.805914496124782e-05
224.7702156734362,292.594187956364,12.5,0,0.03588645452958339,4.372661880350781,-0.8662763497305085,-3.383292849785957e-06,1.396380885349883e-05,-6.930210797844068e-06,1.705067768906449e-05,1.697562086942734e-05
222.9422747552141,286.9477546965499,12.5,0,0.1089142391214666,4.956664818515362,-0.8337951293739404,-3.616806289623596e-06,1.577419602795198e-05,-6.670361034991524e-06,1.949138246508071e-05,1.989937184573744e-05
225.3354950549341,287.1098541590399,12.5,0,0.0204008198439527,4.617029688302408,-0.8039054839727738,-3.628341127141278e-06,1.475817434669254e-05,-6.431243871782191e-06,1.791770042228669e-05,1.844761332349811e-05
222.8252794857305,289.022796990858,12.5,0,0.1544384969065495,4.952371314067103,-0.9439466424144481,-3.467693861152724e-06,1.572403740748949e-05,-7.551573139315585e-06,1.96449766009742e-05,1.918857146123236e-05
225.128588441068,289.1172596517169,12.5,0,0.06366180907868801,4.598374236505861,-0.9162993544434039,-3.474981600152887e-06,1.46638681095558e-05,-7.330394835547232e-06,1.801084901545597e-05,1.788083151995968e-05
135.6772005390756,126.6455319449728,12.5,0,-0.1314381820013766,0.3424789610951439,1.873680406689129,-6.945853512805204e-07,1.201083221105562e-06,1.498944325351303e-05,3.849495602365267e-06,4.336774309852487e-06
138.0260045157245,126.4385803264245,12.5,0,-0.09175048897229836,0.3607612927551787,2.033400162032212,-5.822105989154976e-07,1.22783652799441e-06,1.62672012962577e-05,4.251823901415939e-06,4.615277172995289e-06
136.2031152735189,128.7124104579816,12.5,0,0.229975772838683,0.4310215799088259,1.841995559424712,3.911052091567249e-07,1.195288437437297e-06,1.47359644753977e-05,4.767909803493005e-06,5.024223595433509e-06
138.7043740466518,128.5444068405101,12.5,0,0.2592274100742208,0.4462785642508458,1.993695011838269,4.7250486083683e-07,1.22070947754333e-06,1.594956009470615e-05,5.13528394791029e-06,5.373703488942242e-06
139.7454483635782,126.2870812269449,12.5,0,-0.1286740655139495,0.5675554074124941,1.920201662873719,-8.658013355746336e-07,1.91911655613114e-06,1.536161330298975e-05,4.44210492155938e-06,4.822616538894869e-06
142.0942523402272,126.0801296083966,12.5,0,-0.09104602823792804,0.574497171629623,2.083060443346876,-7.509450276650681e-07,1.911227771805136e-06,1.666448354677501e-05,4.821627779732676e-06,5.110575357822915e-06
140.5354225513847,128.4214196566708,12.5,0,0.2540031558536812,0.6640278461135762,1.866248883471116,2.815878218409188e-07,1.921686582880499e-06,1.492999106776893e-05,5.468828357295084e-06,5.639251882144412e-06
143.0366813245176,128.2534160391992,12.5,0,0.2812335081859246,0.6684823580457053,2.021717280696969,3.651613397583943e-07,1.914156739197517e-06,1.617373824557575e-05,5.803642335494891e-06,6.015263690763133e-06
138.3771729336541,122.5902986261795,12.5,0,-0.7539812794153427,0.5086544375301758,1.96542729837345,-2.819663644153237e-06,2.230879223628836e-06,1.57234183869876e-05,3.353938191634118e-06,3.721030889032175e-06
140.4619174569399,122.3158870909142,12.5,0,-0.7123218723565521,0.4942856563515785,2.101635620261012,-2.674858516622229e-06,2.151571598210292e-06,1.68130849620881e-05,3.619400894739396e-06,3.897064262340924e-06
139.1671471214605,124.7246370559053,12.5,0,-0.3891234751876745,0.6089353463306737,1.905323370276048,-1.732343397665097e-06,2.259891888408295e-06,1.524258696220838e-05,4.014009258661448e-06,4.308630772902016e-06
141.4043464412304,124.4891735217168,12.5,0,-0.358707805960936,0.5929724610889436,2.0350927850019,-1.62224294794615e-06,2.184478120253368e-06,1.62807422800152e-05,4.261403419061217e-06,4.543005531586784e-06
134.766289498587,123.0655933474334,12.5,0,-0.7267087640704731,0.3193498393259628,1.929853843751968,-2.580947916486284e-06,1.603286497099459e-06,1.543883075001575e-05,2.992430924422333e-06,3.417186715684699e-06
136.8510340218728,122.7911818121681,12.5,0,-0.675574471755177,0.3366914698320198,2.072309017236633,-2.431191485482182e-06,1.617872280866605e-06,1.657847213789306e-05,3.333673467550083e-06,3.592448087943813e-06
135.2922042330303,125.1324718604423,12.5,0,-0.3646023787983662,0.4087681390997155,1.897016339582003,-1.493742123434544e-06,1.599739948157783e-06,1.517613071665602e-05,3.615117590018517e-06,3.906170075730163e-06
137.5294035528001,124.8970083262537,12.5,0,-0.3257073340311399,0.4228022513844155,2.031684345855417,-1.38050527000718e-06,1.613533071655041e-06,1.625347476684333e-05,3.950698266501588e-06,4.137991226799039e-06
186.4727926179143,235.0676379620699,12.5,0,10.84978428442857,6.02962185118959,-5.857757297084126,2.989561222921974e-05,1.061496249626383e-05,-4.6862058376673e-05,6.332765148964644e-05,6.300106391350084e-05
188.9102240871362,234.8232569216894,12.5,0,10.91714012437747,6.490028068891315,-6.030452519454174,2.974282594289483e-05,1.203437772095023e-05,-4.824362015563339e-05,6.5238758399816e-05,6.500079005486812e-05
186.6509431799348,237.7658418949154,12.5,0,10.32578314150589,5.868867268856974,-5.664720568029946,2.834741223773328e-05,1.05197487471376e-05,-4.531776454423956e-05,6.076506555979619e-05,6.140696089981261e-05
189.1500313106316,237.3650770010072,12.5,0,10.36135985228913,6.306279272306456,-5.821254516271662,2.811132810948006e-05,1.189100578954935e-05,-4.65700361301733e-05,6.247554030700226e-05,6.34242573846508e-05
190.694547762498,234.6443575837319,12.5,0,11.16205860815375,6.801197999278333,-5.909303113092228,3.027762914666933e-05,1.283418671116766e-05,-4.727442490473783e-05,6.711884330543884e-05,6.655991385955643e-05
193.1319792317199,234.3999765433515,12.5,0,11.22525712779515,7.237522644776293,-6.075489598578996,3.013080469312345e-05,1.417986676104801e-05,-4.860391678863197e-05,6.89375072631347e-05,6.881979316806876e-05
190.9794907948162,237.0716967367889,12.5,0,10.70809437971387,6.643003376640726,-5.737517785112599,2.895149931377179e-05,1.269113530147923e-05,-4.59001422809008e-05,6.483323758184617e-05,6.49876465441832e-05
193.478578925513,236.6709318428806,12.5,0,10.74059676959357,7.054791621954593,-5.8873359704504,2.872607636513575e-05,1.398285577457984e-05,-4.709868776360321e-05,6.64490685029036e-05,6.724160867537153e-05
190.201011953269,230.4400828435117,12.5,0,12.00024024704186,6.639400008877399,-5.651570246599721,3.308924878343201e-05,1.164588783077419e-05,-4.521256197279776e-05,6.947981638081732e-05,6.90476519451544e-05
192.5316509521932,230.46656658292,12.5,0,12.13174131269707,7.143844264422221,-5.843447432933963,3.310649678909283e-05,1.315490859599345e-05,-4.67475794634717e-05,7.178411882965478e-05,7.130098560114219e-05
190.4859549855872,232.8674219965686,12.5,0,11.50991589272151,6.464693060846061,-5.452980177596194,3.165997640803197e-05,1.147908508053019e-05,-4.362384142076955e-05,6.698721242783845e-05,6.764778902797879e-05
192.8782506459863,232.7375218824491,12.5,0,11.60398387350858,6.939575244451489,-5.624781484836938,3.158108819966625e-05,1.29234536834379e-05,-4.49982518786955e-05,6.904487221209032e-05,6.990749993706869e-05
186.1642267931034,230.3942116612831,12.5,0,11.72823205085888,5.933443363324928,-5.624995031495623,3.278358787208848e-05,9.604433121952662e-06,-4.499996025196499e-05,6.607388348966567e-05,6.547422206754465e-05
188.4948657920275,230.4206954006913,12.5,0,11.83925449751272,6.358142192198239,-5.797444813070832,3.279910063828213e-05,1.087465141702418e-05,-4.637955850456666e-05,6.801288814997034e-05,6.748637536188842e-05
186.3423773551238,233.0924155941287,12.5,0,11.23958762905403,5.783564972277603,-5.445161003932787,3.133982843515079e-05,9.515737808045107e-06,-4.35612880314623e-05,6.368001051555758e-05,6.409088325876718e-05
188.734673015523,232.9625154800091,12.5,0,11.31781207932743,6.185790159057186,-5.601358636730125,3.126836652660202e-05,1.074027884552105e-05,-4.4810869093841e-05,6.541562004159566e-05,6.608923128639501e-05
165.8626902261795,165.5043070165238,12.5,0,7.4477247544726,2.143444797294687,0.9353717892730306,2.211796337647657e-05,9.008435477649186e-07,7.482974314184244e-06,3.55291324890408e-05,3.502455303325573e-05
167.8480818031076,166.472149107277,12.5,0,7.472559094614695,2.34043825106446,0.9182029057783443,2.203983850191545e-05,1.511355127714514e-06,7.345623246226754e-06,3.62748031877133e-05,3.671023896080559e-05
165.0392706719076,167.3642269472468,12.5,0,7.516361943843302,2.236940993464253,1.012358474702,2.226280542552716e-05,1.145121624010969e-06,8.098867797615996e-06,3.611308226742628e-05,3.574347941676182e-05
167.0864380876677,168.3424692641801,12.5,0,7.541113295442923,2.429417179519314,0.996311824642891,2.21880288018019e-05,1.741244338107468e-06,7.970494597143128e-06,3.684451920540609e-05,3.747975968268338e-05
162.4238911420823,163.8279553416656,12.5,0,6.986802955770383,1.807058831610591,0.9949108814889807,2.091212239317675e-05,1.931458965375842e-07,7.959287051911845e-06,3.267967170077828e-05,3.222307846727563e-05
164.4092827190105,164.7957974324189,12.5,0,7.021030061490415,2.004803839630058,0.970500327660625,2.086345312506528e-05,7.985482376238521e-07,7.764002621285e-06,3.345707806452444e-05,3.382222200274297e-05
161.4934726962752,165.6698615522349,12.5,0,7.039426011824313,1.90579445885492,1.068323534919786,2.100152767075386e-05,4.670014588762945e-07,8.546588279358287e-06,3.321931559300974e-05,3.28609884539477e-05
163.5406401120354,166.6481038691682,12.5,0,7.073186472613543,2.099112365949435,1.045181302363951,2.095490681960379e-05,1.058610392947357e-06,8.361450418911611e-06,3.398174953025354e-05,3.450588339603651e-05
160.812359121674,167.018230481091,12.5,0,7.447488695519073,1.637795968142,0.815302051982335,2.252172705114743e-05,-7.170438583608586e-07,6.52241641585868e-06,3.384736128309641e-05,3.330256722195372e-05
162.9047495901375,168.004086291998,12.5,0,7.484563238850575,1.830513792698985,0.7901559768630352,2.248619133016265e-05,-1.300064544437101e-07,6.321247814904281e-06,3.461470678551421e-05,3.497969227158182e-05
159.8819406758669,168.8601366916603,12.5,0,7.48991476083371,1.727266519368384,0.8818043563724496,2.258591401917316e-05,-4.646789466881377e-07,7.054434850979597e-06,3.431153993667061e-05,3.387107286506904e-05
162.0361069831623,169.8563927287474,12.5,0,7.526388611172997,1.915805355064093,0.8578337425171731,2.255179927170231e-05,1.094662472667015e-07,6.862669940137386e-06,3.506424245833457e-05,3.559050079941018e-05
164.4364857222604,168.7257828344882,12.5,0,7.940382962212353,1.97536025404542,0.7535178900208573,2.382893727584319e-05,-3.115355682453691e-08,6.028143120166858e-06,3.682041112071783e-05,3.624181018677824e-05
166.5288761907238,169.7116386453952,12.5,0,7.981932658220078,2.182560008040131,0.7251277463585529,2.379613649987214e-05,5.986458991523561e-07,5.801021970868424e-06,3.765735675462188e-05,3.801285540675624e-05
163.6130661679885,170.5857027652113,12.5,0,7.980273478194782,2.060175457968476,0.8244480965361177,2.388873476384852e-05,2.083426829432963e-07,6.595584772288942e-06,3.72608200198863e-05,3.688434878598979e-05
165.7672324752839,171.5819588022983,12.5,0,8.021077846699193,2.262725547258472,0.7973699116361658,2.385726867163064e-05,8.238594738677562e-07,6.378959293089326e-06,3.808069335196033e-05,3.869977928840514e-05
130.6833184440151,153.6812329140557,12.5,0,4.061041531616218,-0.1319403522939688,1.098949820150803,1.310088518300707e-05,-3.671042352633674e-06,8.791598561206423e-06,1.545325822161679e-05,1.475238878834587e-05
133.1246835830867,154.5966225079981,12.5,0,3.965382282935406,-0.1203553163879318,1.198765478396257,1.278550755850364e-05,-3.557442838789706e-06,9.590123827170056e-06,1.517214965298615e-05,1.587744970733226e-05
130.9730414965094,156.3802963598482,12.5,0,4.345906295961347,-0.06460991863501131,1.101921274958978,1.395858808198432e-05,-3.683476776401113e-06,8.815370199671824e-06,1.673288773170451e-05,1.609158930921945e-05
133.4450816110911,157.1529600181456,12.5,0,4.269867968771957,-0.04908644914342486,1.199880360332119,1.3702846659385e-05,-3.572971012276525e-06,9.599042882656953e-06,1.653305340561881e-05,1.717973399114769e-05
131.1851334910502,158.3561479349363,12.5,0,4.678725921039668,-0.1667764266892873,0.9078805838121672,1.510534408867837e-05,-4.276665302237453e-06,7.263044670497337e-06,1.762456692377393e-05,1.705935734877069e-05
133.6796292462252,159.0243289567881,12.5,0,4.60917458491795,-0.1455831528768949,1.015520206702494,1.486582519403896e-05,-4.153205757140424e-06,8.124161653619953e-06,1.745903629084368e-05,1.812345622265699e-05
131.4748565435444,161.0552113807288,12.5,0,4.975894153273802,-0.09662867633250327,0.9113174713926518,1.600016423154217e-05,-4.289927086883051e-06,7.290539771141215e-06,1.896731193378188e-05,1.836414828200484e-05
134.0000272742296,161.5806664669356,12.5,0,4.925513977347757,-0.07165267228733407,1.017037397919926,1.581896686534269e-05,-4.169699733197674e-06,8.136299183359407e-06,1.888328582558937e-05,1.939946902366686e-05
135.5057268782006,159.5134714134162,12.5,0,5.013334382100687,0.03828305746650829,0.9086251644466848,1.601204357674899e-05,-3.888161721787723e-06,7.269001315573479e-06,1.951457508997732e-05,1.893007013120513e-05
138.0002226333756,160.1816524352681,12.5,0,4.9377307341695,0.05642123209833416,1.024327407667495,1.575560136366373e-05,-3.76963664462093e-06,8.194619261339957e-06,1.931703234344996e-05,2.006968143765776e-05
135.8485805467984,161.9653262871182,12.5,0,5.299631736601675,0.105190604030863,0.9068965556121008,1.687466907390067e-05,-3.903095456382578e-06,7.255172444896806e-06,2.080998764659282e-05,2.018703691001104e-05
138.3737512774835,162.490781373325,12.5,0,5.244825056355231,0.1274001158938254,1.019934103354425,1.668152008762168e-05,-3.788179674223943e-06,8.159472826835398e-06,2.07011532728613e-05,2.130339164834243e-05
134.9118869046385,155.2667341994554,12.5,0,4.475919003928315,0.06986342197149997,1.09850441439952,1.42670500749934e-05,-3.357172252833852e-06,8.788035315196159e-06,1.762796516604755e-05,1.672088129549609e-05
137.3532520437101,156.1821237933978,12.5,0,4.378539591736931,0.04744258074331253,1.196121415609775,1.397337262896353e-05,-3.351015415010945e-06,9.568971324878196e-06,1.723119040765326e-05,1.790011832817977e-05
135.2547405732363,157.7185890731573,12.5,0,4.715407478530806,0.1294886812352647,1.086648837059238,1.498571298631037e-05,-3.357962202871797e-06,8.693190696473904e-06,1.871389243892932e-05,1.800131653348416e-05
137.7267806878179,158.4912527314547,12.5,0,4.6368969504459,0.1117238384588861,1.181206125817066,1.474869117065977e-05,-3.352001277288284e-06,9.449649006536525e-06,1.839791530689342e-05,1.915777709992617e-05
121.7214922548871,106.7881527674579,12.5,0,-3.243294373362136,-0.1735922744236309,2.078540967332757,-1.023966817521993e-05,2.039140220534089e-06,1.662832773866206e-05,1.675761264775107e-06,1.777042427534529e-06
122.9645511512919,107.3843538259045,12.5,0,-3.237911413920837,-0.03874651288819542,2.076554600999863,-1.033031931423612e-05,2.466340289894444e-06,1.661243680799891e-05,1.767688286124024e-06,1.804724183840166e-06
120.0223343883634,107.952433035992,12.5,0,-3.174950336891896,-0.04067519560377297,2.130787102229288,-1.012730092157105e-05,2.409799643581443e-06,1.704629681783431e-05,1.818266167382264e-06,1.728475438133655e-06
121.9576391721167,108.7046843606018,12.5,0,-3.166795120999374,0.05934624680624034,2.13289283253202,-1.018122138464299e-05,2.723344086579468e-06,1.706314266025616e-05,1.895882018700606e-06,1.777219339702975e-06
118.7784645000406,108.8047453467726,12.5,0,-2.969992165673741,-0.3734805499652835,1.987862867912121,-9.205190490183744e-06,1.180855972650086e-06,1.590290294329697e-05,1.47358514038193e-06,1.693554238779624e-06
121.2205284446421,109.6712333947437,12.5,0,-2.97281022805881,-0.1132950735499293,2.027341695562822,-9.422356670948248e-06,2.015703947087274e-06,1.621873356450258e-05,1.678604912861032e-06,1.757610139611413e-06
117.0793066335169,109.9690256153066,12.5,0,-2.859200797188012,-0.2077253638747774,2.066187616925515,-8.983262259901816e-06,1.622639473351122e-06,1.652950093540412e-05,1.656256949742574e-06,1.646714737279989e-06
120.2136164654669,110.9915639294411,12.5,0,-2.856745418811652,0.005548981842906087,2.100799110347332,-9.146024525671611e-06,2.303153076946621e-06,1.680639288277865e-05,1.845709653450562e-06,1.731541652800393e-06
123.0082433273464,110.3055466699828,12.5,0,-2.640200051715213,-0.1381705577943192,1.990338233814535,-8.338103719253225e-06,1.670014256430349e-06,1.592270587051628e-05,1.647569900264649e-06,1.813696867553055e-06
125.4503072719479,111.172034717954,12.5,0,-2.748479338173819,-0.02881791768411202,2.123862986705745,-8.77207954800893e-06,2.106566133949897e-06,1.699090389364596e-05,1.853794504003051e-06,1.902872757094641e-06
122.5080905090194,111.7401139280416,12.5,0,-2.456857603323689,-0.07159120644358941,2.037384819005696,-7.804671365480931e-06,1.736394222039465e-06,1.629907855204557e-05,1.76786286996964e-06,1.809456163236021e-06
125.6424003409694,112.762652242176,12.5,0,-2.532545077895244,0.01634460258625436,2.143194257995607,-8.117219931333782e-06,2.078338790592209e-06,1.714555406396486e-05,1.941663383380843e-06,1.937495648881656e-06
123.874533420222,107.8208032921951,12.5,0,-3.041820571412482,-0.09987355579180346,2.020542882521344,-9.653926983886499e-06,2.113861078596214e-06,1.616434306017076e-05,1.678978889627309e-06,1.828359929651597e-06
125.1175923166267,108.4170043506416,12.5,0,-3.14686476813005,-0.05160112420259666,2.103913725980939,-1.002868635865408e-05,2.35236821705573e-06,1.683130980784751e-05,1.786482554133145e-06,1.865252231780316e-06
123.374380601895,109.2553705502537,12.5,0,-2.85949691586238,-0.03657351084598004,2.064091577878269,-9.121131322082829e-06,2.170562297982767e-06,1.651273262302615e-05,1.776767688366323e-06,1.818762116497857e-06
125.3096853856483,110.0076218748635,12.5,0,-2.912596578123181,-0.001205569409600815,2.120271111944316,-9.319344594466497e-06,2.326219440387822e-06,1.696216889555453e-05,1.854892604873532e-06,1.883515191824475e-06
152.5261954728002,287.9556548173503,12.5,0,3.811459576643433,3.469805551076802,-4.343398616572648,9.420826204397542e-06,8.05421010213102e-06,-3.474718893258118e-05,2.860007306274526e-05,2.914871262172598e-05
154.3931539523405,289.7149020438253,12.5,0,3.786088619169392,3.473080933601547,-4.33590658681355,9.337018834460815e-06,8.084988092189435e-06,-3.46872526945084e-05,2.851811528444793e-05,2.880373531762162e-05
151.7363846489987,289.5388212858161,12.5,0,3.837023755283075,3.480163016025732,-4.33563368548575,9.494345604085254e-06,8.066902647055883e-06,-3.4685069483886e-05,2.871421180072081e-05,2.866848552880043e-05
153.4937643497282,290.8684206533011,12.5,0,3.812449250749109,3.485917797510037,-4.325481491315009,9.411103364389119e-06,8.104977551432829e-06,-3.460385193052007e-05,2.864074867810475e-05,2.843694651998241e-05
149.2925285306729,284.9085492380755,12.5,0,4.137406905750531,3.248048000005634,-4.415634017817919,1.064126369839719e-05,7.083828075417603e-06,-3.532507214254335e-05,2.903651748759062e-05,2.969716354442009e-05
151.1594870102132,286.6677964645506,12.5,0,4.188875419740666,3.323271729207973,-4.453002580697134,1.074578395980375e-05,7.283369197672981e-06,-3.562402064557707e-05,2.949704797547274e-05,2.938810599358435e-05
148.6925137191997,287.235887627662,12.5,0,4.097465266761726,3.257707333633307,-4.389522789085407,1.050572298673088e-05,7.146691254217199e-06,-3.511618231268325e-05,2.890787137927267e-05,2.903073402621288e-05
150.4498934199292,288.565486995147,12.5,0,4.149414191097748,3.343323261826305,-4.427651517196574,1.060346680205175e-05,7.379103084965977e-06,-3.542121213757259e-05,2.940548178618954e-05,2.882759041156562e-05
148.2532723919261,288.9396175751724,12.5,0,3.914180753503469,3.201533099047047,-4.287668141575319,9.96415193197346e-06,7.113561314147775e-06,-3.430134513260255e-05,2.800103270025231e-05,2.855452899956563e-05
149.9304348591382,289.9546928805269,12.5,0,3.961028332569119,3.270251491269339,-4.32107666259014,1.005908947120571e-05,7.29598210600659e-06,-3.456861330072112e-05,2.842054014234314e-05,2.842718335273576e-05
147.653257580453,291.2669559647588,12.5,0,3.848682504744966,3.205060693674138,-4.263634963323399,9.75173546024458e-06,7.177248215961269e-06,-3.410907970658719e-05,2.776736119629261e-05,2.791994219009757e-05
149.2208412688542,291.8523834111232,12.5,0,3.890843802848189,3.284807881984523,-4.297777304762781,9.822853863526585e-06,7.398710180071922e-06,-3.438221843810225e-05,2.820841807838534e-05,2.789376650627557e-05
151.1582029976328,290.6977795775232,12.5,0,3.704569427161045,3.395323276009391,-4.245262984047514,9.138363546107829e-06,7.901378941501216e-06,-3.396210387238011e-05,2.789664250415016e-05,2.832555332412366e-05
152.8353654648448,291.7128548828777,12.5,0,3.717233699981527,3.422111694021051,-4.25492551289289,9.157458484724044e-06,7.976970460882139e-06,-3.403940410314312e-05,2.803837316560323e-05,2.817524056919881e-05
150.3683921738313,292.280946045989,12.5,0,3.697836967214956,3.40439965894697,-4.238432349553846,9.109558567930282e-06,7.935809334858339e-06,-3.390745879643076e-05,2.789788708852251e-05,2.786887221028085e-05
151.9359758622326,292.8663734923534,12.5,0,3.711525769741784,3.43944092755101,-4.248434463688825,9.125329721132902e-06,8.036990352369803e-06,-3.39874757095106e-05,2.807113226908743e-05,2.78270354126237e-05
186.7782830691257,194.1550476902511,12.5,0,13.69528137802705,5.17182773669828,-1.482850262350541,3.968743822032792e-05,5.593623655012858e-06,-1.186280209880433e-05,6.941222565252824e-05,6.926221120076906e-05
188.1639221632321,195.6038418043119,12.5,0,14.17505389687239,5.41082616348329,-1.693328318162234,4.1031511539205e-05,5.974600605648617e-06,-1.354662654529787e-05,7.206239408133266e-05,7.165384815678793e-05
185.5373953304172,195.520582463392,12.5,0,13.34679038895354,5.17904509586049,-1.568651682327211,3.856649316796293e-05,5.895511995590737e-06,-1.254921345861769e-05,6.813308715530189e-05,6.839407659245393e-05
187.0615398726044,196.7715363297957,12.5,0,13.78274127703035,5.423392957386689,-1.795782416620444,3.976605772058775e-05,6.328664442013126e-06,-1.436625933296356e-05,7.064079386540523e-05,7.076632179333963e-05
184.3782857572228,191.645662675036,12.5,0,13.20353719236313,4.638147627301313,-1.131310619878749,3.854080091372097e-05,4.279242653473694e-06,-9.050484959029995e-06,6.570987058870741e-05,6.526041037425123e-05
185.7639248513292,193.0944567890969,12.5,0,13.64116154013161,4.853457796050079,-1.322429642391907,3.97689506915811e-05,4.618135715254961e-06,-1.057943713913526e-05,6.811320245304339e-05,6.754909471013303e-05
182.8974995453176,193.3538668088949,12.5,0,12.79352578770848,4.638193073274485,-1.226165710271627,3.722872806204754e-05,4.607397204311568e-06,-9.809325682173017e-06,6.416955321189192e-05,6.447344625628775e-05
184.4216440875048,194.6048206752986,12.5,0,13.18844688547379,4.85655694186398,-1.431303175208768,3.831778448002495e-05,4.9902247055857e-06,-1.145042540167014e-05,6.642593125802885e-05,6.670790567428379e-05
181.8134888031016,194.6043590245256,12.5,0,13.1139563625155,4.173093771850856,-1.478310539081553,3.862618534256892e-05,2.862734979910335e-06,-1.182648431265242e-05,6.385862022225853e-05,6.385611249679405e-05
183.4390263704047,195.7104837778685,12.5,0,13.43358607940698,4.420195470909286,-1.675393503625985,3.94513190773749e-05,3.397756643384132e-06,-1.340314802900788e-05,6.592598346371952e-05,6.607306036476838e-05
180.3327025911965,196.3125631583844,12.5,0,12.76669691603118,4.223962094220544,-1.539599901824695,3.747426045592334e-05,3.303321168680794e-06,-1.231679921459756e-05,6.272220923875629e-05,6.295648941852155e-05
182.0967456065804,197.2208476640702,12.5,0,13.04850947083772,4.480869294719264,-1.747036501627291,3.817053487090529e-05,3.899974166431466e-06,-1.397629201301833e-05,6.468379253135837e-05,6.517981976000099e-05
184.6290024592319,196.5202232967906,12.5,0,13.62622619957855,4.755455892075606,-1.786042944123192,3.979955912499086e-05,4.3164778949791e-06,-1.428834355298554e-05,6.779653001078286e-05,6.774770115282613e-05
186.2545400265351,197.6263480501336,12.5,0,13.97909960667478,5.025004361969152,-2.003216460145355,4.071311525178397e-05,4.896734272961459e-06,-1.602573168116284e-05,7.007452113915582e-05,7.010595700244731e-05
183.3881147205235,197.8857580699316,12.5,0,13.3273232211685,4.802771599467176,-1.845269969155341,3.880521702816545e-05,4.707010541360164e-06,-1.476215975324273e-05,6.683602280499893e-05,6.684990521923839e-05
185.1521577359074,198.7940425756173,12.5,0,13.64033231161207,5.084622103975105,-2.075628677288881,3.958136571397854e-05,5.358524883430677e-06,-1.660502941831104e-05,6.900995580446718e-05,6.918933320557148e-05
231.5569362891989,257.027800334985,12.5,0,0.353406424472104,7.665348001089437,-1.023628706596719,-5.001377842560816e-06,2.424638846390851e-05,-8.189029652773752e-06,3.064518318199959e-05,3.928219962053569e-05
233.3292562704374,257.2363154510799,12.5,0,0.09655907256026497,6.719320223754001,-0.9129750131627543,-5.066467146810352e-06,2.142457745796459e-05,-7.303800105302034e-06,2.621466859210481e-05,3.562684462858043e-05
231.5158381151156,258.9158663076898,12.5,0,0.5420524290497495,7.692313623927148,-1.393167451214155,-4.419283126182519e-06,2.418176165332707e-05,-1.114533960971324e-05,3.142135710582801e-05,3.405889132321893e-05
233.2987832216941,259.1131827043492,12.5,0,0.287948371793822,6.751994577944028,-1.285592809059747,-4.480160872614991e-06,2.137602395198583e-05,-1.028474247247797e-05,2.701980647462033e-05,3.062296285875217e-05
231.6281204148079,253.757574142277,12.5,0,0.7669773699653868,8.756344970939837,-1.650689522404058,-4.550748392862631e-06,2.740672201103516e-05,-1.320551617923246e-05,3.62519690096778e-05,5.545783042332043e-05
233.3820371391214,253.9854860094138,12.5,0,0.5292857736487264,7.860479396498104,-1.564963641923002,-4.594669041522558e-06,2.473010544987495e-05,-1.251970913538402e-05,3.207359261507434e-05,5.174550722113292e-05
231.5870222407248,255.6456401149819,12.5,0,0.8815856625829315,8.765641786027903,-2.005387081090371,-4.19143930855694e-06,2.734478518522294e-05,-1.604309664872297e-05,3.675714499991535e-05,4.501602807111221e-05
233.3515640903781,255.862353262683,12.5,0,0.6460600241945951,7.875129581526795,-1.922525837855571,-4.232711587798732e-06,2.468356664153006e-05,-1.538020670284457e-05,3.261211134343105e-05,4.128661333239476e-05
228.5902475361068,253.3628192087551,12.5,0,1.907863982385629,9.640486754258804,-2.927263959843926,-1.60722465977303e-06,2.932326642771967e-05,-2.341811167875141e-05,4.367433433549014e-05,5.947186152124685e-05
230.3441642604203,253.590731075892,12.5,0,1.866858578659737,9.355262197387541,-3.006244293470365,-1.510262306198874e-06,2.844335216871234e-05,-2.404995434776292e-05,4.250412440397363e-05,5.752810081840825e-05
228.5307461050985,255.2702819325018,12.5,0,1.638240406325946,9.563867457006522,-3.048532407917234,-2.40872466536219e-06,2.929378353736011e-05,-2.438825926333787e-05,4.25792550384044e-05,4.99377624669991e-05
230.2952879547519,255.4869950802031,12.5,0,1.595702206520986,9.279804818840104,-3.127848644753414,-2.317596794204927e-06,2.841881365507154e-05,-2.502278915802732e-05,4.14130542850071e-05,4.733409649525851e-05
228.4871880344793,256.6666415597688,12.5,0,1.012436363968583,8.74111809766967,-2.061985858940781,-3.753098113436269e-06,2.716162882136807e-05,-1.649588687152625e-05,3.709330162509299e-05,4.45324503244454e-05
230.2595080157179,256.8751566758638,12.5,0,0.8880500418123938,8.235756966786509,-2.046310037037066,-3.746845439629547e-06,2.564398226026691e-05,-1.637048029629653e-05,3.477996636151871e-05,4.166844947477846e-05
228.427686603471,258.5741042835156,12.5,0,0.9894088750284484,8.719633310929636,-2.263884749632378,-3.809598248652674e-06,2.711129949495208e-05,-1.811107799705902e-05,3.701414351914235e-05,3.929896197383962e-05
230.2106317100494,258.771420680175,12.5,0,0.8655917764710286,8.217053830184982,-2.249613347341881,-3.803749379440694e-06,2.560209883541512e-05,-1.799690677873505e-05,3.471824469090163e-05,3.638361827956739e-05
177.5146806744437,259.231257181802,12.5,0,6.111194606847245,5.325277456840045,-5.631673090241605,1.529560077643914e-05,1.215193217641035e-05,-4.505338472193284e-05,4.388979266809837e-05,4.426430613909761e-05
179.8468707583485,259.5711935082377,12.5,0,6.249741753032777,5.651732128284786,-5.804927719230099,1.547778790707705e-05,1.30857494080851e-05,-4.643942175384079e-05,4.562425518537386e-05,4.469178796569744e-05
177.4190832020057,261.4106967248922,12.5,0,5.730642014647398,5.241927251078089,-5.530487393856037,1.41445126460092e-05,1.218965359173197e-05,-4.42438991508483e-05,4.220682992694602e-05,4.30735582038544e-05
179.8132381361419,261.7863021992219,12.5,0,5.870027785682378,5.560853167197783,-5.700411927258474,1.433540638042538e-05,1.3098707906487e-05,-4.560329541806779e-05,4.391691203586867e-05,4.342434347524522e-05
177.3491009951089,263.0061572023911,12.5,0,5.506657321708686,5.336760019380768,-5.470207968642714,1.335189541396318e-05,1.267230620465151e-05,-4.376166374914171e-05,4.171015564409322e-05,4.221085951170971e-05
179.788617347896,263.4078743052408,12.5,0,5.647079865523948,5.65842577615045,-5.634843362597769,1.354391494875627e-05,1.358929859126228e-05,-4.507874690078215e-05,4.343106143482076e-05,4.250744382998473e-05
177.2535035226709,265.1855967454812,12.5,0,5.167180297735839,5.26296417611198,-5.374859459425198,1.23246056118651e-05,1.270774112536966e-05,-4.299887567540159e-05,4.021387717167788e-05,4.10446707882902e-05
179.7549847256894,265.622982996225,12.5,0,5.307899232293744,5.577438672896845,-5.536458038191451,1.25233266050225e-05,1.360148436743491e-05,-4.42916643055316e-05,4.190939985477785e-05,4.126987190403693e-05
181.5744672639554,263.7019516347837,12.5,0,5.19145383557162,5.767064786493405,-5.433733894332547,1.199900044463446e-05,1.43014442483216e-05,-4.346987115466037e-05,4.208138194550176e-05,4.269848673544926e-05
184.0139836167425,264.1036687376333,12.5,0,5.340347259649844,6.114451752555183,-5.604880755594277,1.219754982883535e-05,1.529396780045671e-05,-4.483904604475421e-05,4.393098309070838e-05,4.292384134135108e-05
181.5861960603997,265.9431719542879,12.5,0,4.826851382890108,5.674443280052902,-5.32059172486882,1.090636980120602e-05,1.42967373898572e-05,-4.256473379895057e-05,4.04264484672819e-05,4.140215668207003e-05
184.0876772634183,266.3805582050316,12.5,0,4.976104077816959,6.0143532850632,-5.488795459483451,1.111205042096371e-05,1.526504724994867e-05,-4.391036367586761e-05,4.224971529919091e-05,4.153836430099309e-05
181.5541523926025,259.8200441705163,12.5,0,5.842954679492612,5.774832602385618,-5.63127156887748,1.407758889246787e-05,1.380510058403988e-05,-4.505017255101984e-05,4.450266447867136e-05,4.498715070387245e-05
183.8863424765073,260.159980496952,12.5,0,5.989008558732801,6.123155465510657,-5.811289210635755,1.426630301553644e-05,1.480289064264786e-05,-4.649031368508604e-05,4.634938750771088e-05,4.536661488466371e-05
181.5658811890468,262.0612644900206,12.5,0,5.43371295446208,5.670976379977874,-5.51231703200301,1.285110035029635e-05,1.380015405235953e-05,-4.409853625602408e-05,4.264241313964357e-05,4.365908298843172e-05
183.960036123183,262.4368699643502,12.5,0,5.580725795152883,6.011596460976705,-5.689101521915677,1.304904537570786e-05,1.477252803900315e-05,-4.551281217532541e-05,4.446443417864684e-05,4.394961799363766e-05
189.7109907334128,264.3042207389692,12.5,0,4.655026938301256,6.632483218303018,-5.311572648672391,9.590099627921603e-06,1.749992474792865e-05,-4.249258118937913e-05,4.318331171111738e-05,4.368391810222678e-05
192.0007465262439,264.329726645893,12.5,0,4.759257237124806,7.030350196242354,-5.484285775368756,9.605343001805493e-06,1.868971483827569e-05,-4.387428620295005e-05,4.507081983843003e-05,4.397688694959162e-05
189.9818189847829,266.5100236309494,12.5,0,4.228698072702816,6.48434384309245,-5.157066154708236,8.34435875817505e-06,1.736694183973359e-05,-4.125652923766588e-05,4.110596933977535e-05,4.218658375643239e-05
192.3547242334961,266.4954249938987,12.5,0,4.321205791530723,6.864479570822759,-5.320434828444759,8.336274876240106e-06,1.850936999340825e-05,-4.256347862755807e-05,4.28860945800701e-05,4.244518872538428e-05
189.2419024419231,260.4836580586459,12.5,0,5.38598673474468,6.650664038824615,-5.583415442193261,1.191462632012328e-05,1.697333553644302e-05,-4.466732353754609e-05,4.593841058491999e-05,4.634072306435215e-05
191.3876391525477,260.5786270733466,12.5,0,5.505177253266527,7.049070787511516,-5.766977791881186,1.197731058044367e-05,1.815288471742363e-05,-4.613582233504949e-05,4.788127790285245e-05,4.670729027781595e-05
189.5127306932932,262.689460950626,12.5,0,4.917533733900211,6.489761810633469,-5.419725892027243,1.05442984999739e-05,1.683321080690693e-05,-4.335780713621794e-05,4.365442949357974e-05,4.479701637499562e-05
191.7416168597997,262.7443254213522,12.5,0,5.022753500731386,6.86892507450797,-5.59267191017417,1.057767114273406e-05,1.79623574378404e-05,-4.474137528139336e-05,4.547611065186799e-05,4.511891361858958e-05
185.5253774395223,260.3191669000426,12.5,0,5.628399822080589,6.227191720753796,-5.624478043523446,1.302912605405485e-05,1.542429364874767e-05,-4.499582434818757e-05,4.532345066935971e-05,4.565365596544569e-05
187.6711141501469,260.4141359147432,12.5,0,5.732823321212586,6.572938376034022,-5.792695224314097,1.308668392705306e-05,1.64471441463388e-05,-4.634156179451277e-05,4.701444868906588e-05,4.60584026012436e-05
185.6521866086859,262.5944328997996,12.5,0,5.190152347795536,6.09981474025936,-5.487559252850597,1.172863572073822e-05,1.536728529059352e-05,-4.390047402280477e-05,4.327397296237296e-05,4.418766573580591e-05
187.8810727751924,262.6492973705258,12.5,0,5.282210613171328,6.429639888998007,-5.646613472667719,1.175936205094984e-05,1.634907915425656e-05,-4.517290778134175e-05,4.486195746505935e-05,4.454748925685831e-05
185.7450173633753,264.260043212285,12.5,0,4.931395384709711,6.206775926977687,-5.383692295836792,1.081504448948893e-05,1.591656665856083e-05,-4.306953836669434e-05,4.268334512326848e-05,4.312685751251841e-05
188.0347731562065,264.2855491192087,12.5,0,5.024074450436402,6.559756054923335,-5.544385395800528,1.082923339745781e-05,1.697195981540555e-05,-4.435508316640423e-05,4.435859373313618e-05,4.345615340102742e-05
185.8718265325389,266.5353092120421,12.5,0,4.52739101521604,6.088484327574281,-5.251251344814964,9.6168637866319e-06,1.586123703606486e-05,-4.201001075851971e-05,4.079631018501657e-05,4.169466577892664e-05
188.2447317812519,266.5207105749913,12.5,0,4.609525038599706,6.426448515050897,-5.403717185266757,9.609321311478342e-06,1.68770152172831e-05,-4.322973748213405e-05,4.237860215500086e-05,4.19854817390343e-05
139.6578383020422,199.389389830821,12.5,0,9.14318304570917,0.1827585965022713,-1.716753847019542,2.911197886906752e-05,-6.729718927760066e-06,-1.373403077615634e-05,3.594975701711195e-05,3.507539360057516e-05
141.9450289373328,200.0142700383416,12.5,0,9.179861721338543,0.2671702030131828,-1.747780765607852,2.916182134587279e-05,-6.488944727428648e-06,-1.398224612486282e-05,3.635570092089212e-05,3.630424009433592e-05
139.7864515979962,201.9682275994164,12.5,0,9.074648792668901,0.1614644209569374,-1.682122917084296,2.890970459977493e-05,-6.74303288707292e-06,-1.345698333667436e-05,3.56133644552213e-05,3.566106326756368e-05
142.0472852969915,202.5184895618999,12.5,0,9.109824144487277,0.2461693019684019,-1.712520292620951,2.895450182078456e-05,-6.500117549290934e-06,-1.370016234096761e-05,3.601400774201065e-05,3.685182202685878e-05
139.4350735389249,194.9227117912167,12.5,0,8.92140703029883,0.1267978256161473,-1.360620902346343,2.844706423646334e-05,-6.731372582267393e-06,-1.088496721877075e-05,3.483593918857853e-05,3.391787412591958e-05
141.7679157270101,195.6768345903105,12.5,0,8.954645173809952,0.2063798097932623,-1.386346747926315,2.848976070835723e-05,-6.503300747709521e-06,-1.109077398341052e-05,3.521125963523135e-05,3.521768421000858e-05
139.563686834879,197.501549559812,12.5,0,8.872503050568087,0.1107067132085402,-1.328725626482293,2.830344439125104e-05,-6.74374095818714e-06,-1.062980501185834e-05,3.459235623613291e-05,3.460830747783146e-05
141.8701720866688,198.1810541138689,12.5,0,8.904759747609663,0.1906679655721062,-1.353852777619948,2.834269681989323e-05,-6.51367030825699e-06,-1.083082222095959e-05,3.496470864416008e-05,3.586637418600339e-05
135.3944723431938,193.6165327880635,12.5,0,8.539463518705997,-0.08714472014500796,-1.237364141443793,2.739599903597519e-05,-7.110433919428822e-06,-9.898913131550346e-06,3.269944546194589e-05,3.177421343594951e-05
137.727314531279,194.3706555871574,12.5,0,8.563412539968386,-0.02158411327520726,-1.254420496262754,2.7420187418519e-05,-6.919799194455371e-06,-1.003536397010203e-05,3.299233298426287e-05,3.2995198912879e-05
135.5687371919424,196.3246131482321,12.5,0,8.509794365518601,-0.09894258724091465,-1.209446653024213,2.731049603945225e-05,-7.124451771585807e-06,-9.675573224193702e-06,3.254398077226969e-05,3.253214050582068e-05
137.8752224437323,197.004117702289,12.5,0,8.533211560125869,-0.03304586351160177,-1.22594904220601,2.733271368321206e-05,-6.932316011337819e-06,-9.807592337648084e-06,3.28355618908884e-05,3.371490225587766e-05
135.6963079151942,198.3070655627706,12.5,0,8.786638344762885,-0.0296479376912302,-1.590349151986247,2.814096105339421e-05,-7.124184076422245e-06,-1.272279321588998e-05,3.39100693559648e-05,3.304787758198101e-05
137.9834985504849,198.9319457702912,12.5,0,8.81424500660512,0.03975553041749613,-1.612194895586649,2.817377959680239e-05,-6.924178307948108e-06,-1.289755916469319e-05,3.423086057181647e-05,3.420285389515383e-05
135.8705727639428,201.0151459229393,12.5,0,8.738733219215781,-0.04631061787782009,-1.560092594656828,2.800099479579276e-05,-7.139180552581648e-06,-1.248074075725462e-05,3.366835250439264e-05,3.369897040758677e-05
138.1314064629381,201.5654078854229,12.5,0,8.76535642209031,0.02334521443457627,-1.581361024217456,2.803046437914133e-05,-6.937580451481603e-06,-1.265088819373965e-05,3.398578003915282e-05,3.481625922235089e-05
167.0869352888259,162.4564282591214,12.5,0,6.95667751753553,2.302218833390122,1.084827028856401,2.04195929894016e-05,1.801758252819967e-06,8.678616230851205e-06,3.422463290766597e-05,3.371000721766417e-05
168.9104024561358,163.3500786280719,12.5,0,6.972992694874776,2.489762750677611,1.073813296509073,2.032176642305719e-05,2.388846646268533e-06,8.59050637207258e-06,3.491225990912669e-05,3.524216626143175e-05
166.4113603066355,164.189266321467,12.5,0,7.033762021163175,2.385892859863088,1.159662845557217,2.059932417983168e-05,2.00784753463134e-06,9.277302764457737e-06,3.481155633344485e-05,3.447968579969334e-05
168.3368115826466,165.1344420680727,12.5,0,7.049155018501362,2.56340445210208,1.149181802638508,2.050657249752269e-05,2.563570231925568e-06,9.193454421108061e-06,3.54627542116626e-05,3.611067761061068e-05
168.2570654822812,159.4550646939037,12.5,0,6.47065704919006,2.426556901736521,1.21926596578999,1.876485703601897e-05,2.588456446204817e-06,9.75412772631992e-06,3.283700406675562e-05,3.229889710513421e-05
169.9038909917591,160.2594704908777,12.5,0,6.490528924840638,2.614466085420608,1.205719000678798,1.867811969115355e-05,3.173868333473435e-06,9.645752005430386e-06,3.354285566287365e-05,3.365587892628818e-05
167.5814905000908,161.1879027562492,12.5,0,6.548192761947646,2.516647998023852,1.300390101671457,1.894089843981338e-05,2.814719384118211e-06,1.040312081337165e-05,3.345245565787165e-05,3.312566664811232e-05
169.3303001182699,162.0438339308785,12.5,0,6.56684022731466,2.693480679268868,1.287573339591762,1.885910418399181e-05,3.36566599180865e-06,1.03005867167341e-05,3.411694793596664e-05,3.458440493640702e-05
165.4046800287163,158.0617929836666,12.5,0,6.078145408912524,2.124928052825231,1.279865227004829,1.775012286625989e-05,1.93725344191072e-06,1.023892181603863e-05,3.036148175042211e-05,3.00069433770033e-05
167.0515055381942,158.8661987806407,12.5,0,6.097712438073234,2.303972303697504,1.266470191826125,1.766950195887634e-05,2.494541421373426e-06,1.0131761534609e-05,3.103231750438868e-05,3.132116777150054e-05
164.5524633886938,159.7053864740358,12.5,0,6.152515316604837,2.228423315506868,1.355421217736664,1.790531036072998e-05,2.208942356338108e-06,1.084336974189332e-05,3.100920110169667e-05,3.06779740575515e-05
166.3012730068729,160.5613176486651,12.5,0,6.170876631319246,2.396885552377476,1.342752811096448,1.782929677831961e-05,2.733332462552526e-06,1.074202248877159e-05,3.16410100997541e-05,3.207894164886756e-05
163.9285975091682,160.9085804159243,12.5,0,6.533257181385771,1.969607761880264,1.149771892896306,1.933073677093026e-05,1.076139092908227e-06,9.19817514317045e-06,3.152983754814418e-05,3.114886040179841e-05
165.7520646764781,161.8022307848748,12.5,0,6.564234413598801,2.165086086203794,1.127573312074262,1.927348125455313e-05,1.676887944973099e-06,9.020586496594093e-06,3.229218719287598e-05,3.261320921823597e-05
163.0763808691457,162.5521739062933,12.5,0,6.588680330549558,2.066590482409635,1.220365973941885,1.943050467183088e-05,1.342145279271186e-06,9.762927791535079e-06,3.207850039568116e-05,3.176431513837783e-05
165.0018321451569,163.4973496528991,12.5,0,6.61796896184648,2.251592278631994,1.199299254127744,1.937622685500314e-05,1.910720122145197e-06,9.594394033021953e-06,3.280080282566937e-05,3.331508148528186e-05
230.7691280781588,283.9161990371664,12.5,0,0.02989461505764823,4.068714205653659,-0.2599513756231947,-3.159308596338453e-06,1.299596976604559e-05,-2.079611004985558e-06,1.573967647191088e-05,1.603934792447778e-05
232.7785054807665,284.0280305060515,12.5,0,-0.07525643394985948,3.657688473461995,-0.2341758774163886,-3.166971367409146e-06,1.176480826223827e-05,-1.873407019331108e-06,1.384163498368803e-05,1.466878734415841e-05
230.6535672776016,285.9016933780752,12.5,0,0.06834219417595833,4.05676107607617,-0.4071934814500977,-3.026713839497869e-06,1.292696168810298e-05,-3.257547851600782e-06,1.583018935568023e-05,1.555014174253092e-05
232.6965064087473,285.9961896600346,12.5,0,-0.03475358603403333,3.652215234849604,-0.3832418200628478,-3.032983663188589e-06,1.171489162034596e-05,-3.065934560502782e-06,1.396295014306966e-05,1.424445561507401e-05
230.9692852560835,280.4772219606338,12.5,0,0.03599880967115632,4.285565021474911,-0.2633735741861634,-3.313255826232228e-06,1.368500902098279e-05,-2.106988593489307e-06,1.659118798092477e-05,1.697515900191646e-05
232.9205320396746,280.6190788540322,12.5,0,-0.07976595283044419,3.838431991559025,-0.2293061489668385,-3.325996642304641e-06,1.234679513525323e-05,-1.834449191734708e-06,1.452156649472963e-05,1.547181571025464e-05
230.8537244555263,282.4627163015425,12.5,0,0.08745747092209788,4.274309005634162,-0.4278807132151671,-3.139583297556616e-06,1.360782284129164e-05,-3.423045705721337e-06,1.672597754242605e-05,1.642118014831866e-05
232.8385329676555,282.5872380080153,12.5,0,-0.02588994317537119,3.834443801061534,-0.3959961840988468,-3.150402859010415e-06,1.22909321179372e-05,-3.167969472790775e-06,1.46904643392504e-05,1.499765749047401e-05
227.589626688859,280.2315186138682,12.5,0,0.0768301584450739,4.939714160945251,-0.5535382745802392,-3.705914821731964e-06,1.574562118826874e-05,-4.428306196641913e-06,1.926605822548919e-05,1.962506252088039e-05
229.5408734724502,280.3733755072667,12.5,0,-0.03062787953215795,4.526669818920453,-0.5192163717057828,-3.719345069639268e-06,1.450984572417118e-05,-4.153730973646263e-06,1.735151050040433e-05,1.808801813075613e-05
227.4159352692852,282.2470383792903,12.5,0,0.1298723102907757,4.91948087279772,-0.7070007979712185,-3.519993305307694e-06,1.563844094472008e-05,-5.656006383769748e-06,1.938154401829078e-05,1.892878074459098e-05
229.4007437814144,282.3715600857631,12.5,0,0.02467162178293414,4.512942356484599,-0.6747223115744042,-3.531404695482289e-06,1.442167824332437e-05,-5.397778492595233e-06,1.749911504264957e-05,1.747452144957373e-05
227.2887843253238,283.7225012511759,12.5,0,0.06036740064897161,4.667935489737728,-0.5209498693578264,-3.541172709713473e-06,1.488909964664155e-05,-4.167598954862612e-06,1.816848484901868e-05,1.845245793685305e-05
229.2981617279316,283.834332720061,12.5,0,-0.03684581597894443,4.288276881117141,-0.4965188231944013,-3.548528116026334e-06,1.375196267235801e-05,-3.97215058555521e-06,1.641500740730631e-05,1.705317940418414e-05
227.11509290575,285.7380210165981,12.5,0,0.09546580706319197,4.646759988485841,-0.6585742253589598,-3.411917408186458e-06,1.479325931750413e-05,-5.268593802871678e-06,1.822208284684608e-05,1.784740160154323e-05
229.1580320368958,285.8325172985575,12.5,0,0.0001174898694953352,4.272893601003504,-0.6358254180975973,-3.417938913220417e-06,1.367316553131561e-05,-5.086603344780778e-06,1.649740524746595e-05,1.651554820994825e-05
119.4851297103515,100.9929189972691,12.5,0,-4.302875554968548,-0.1548970101706865,1.990796235920041,-1.36452841677628e-05,2.946630011428641e-06,1.592636988736033e-05,1.667285830634222e-06,1.786593653135042e-06
122.0752480475281,100.9625553101029,12.5,0,-4.280764813029121,-0.08586194320246454,2.156649550574714,-1.362975784713122e-05,3.14985363217541e-06,1.725319640459771e-05,1.82787875817235e-06,1.841827032394735e-06
119.4298805734024,103.1504420819184,12.5,0,-3.966617127821642,-0.06959495061356646,2.013351524068137,-1.26374988485384e-05,2.9505898602939e-06,1.61068121925451e-05,1.71144280852931e-06,1.753007330992253e-06
121.8141999415601,102.7725084364157,12.5,0,-3.869792020305313,0.02536098299737599,2.202272470217314,-1.24036232513749e-05,3.176988761835853e-06,1.761817976173851e-05,1.921656760187318e-06,1.81111590765447e-06
114.9989131528264,101.0455104461451,12.5,0,-4.30515111347683,-0.2173115707264912,1.967940278956601,-1.360263430654466e-05,2.748723864456692e-06,1.574352223165281e-05,1.613889347626504e-06,1.700850137455336e-06
117.589031490003,101.0151467589789,12.5,0,-4.293381222667105,-0.187947305886636,2.119181260870643,-1.358846206782543e-05,2.833273599296449e-06,1.695345008696514e-05,1.73617983777633e-06,1.748819007985759e-06
115.3001182863569,103.805042357807,12.5,0,-3.905012496602165,-0.1201460251639422,1.962044959741797,-1.239992316899577e-05,2.739542716757116e-06,1.569635967793438e-05,1.636398479997709e-06,1.662740474383333e-06
117.6844376545147,103.4271087123043,12.5,0,-3.829620753457875,-0.07321078293737093,2.124468631226353,-1.21962177847153e-05,2.829422097366712e-06,1.699574904981082e-05,1.788462316016574e-06,1.713250253471872e-06
115.5206157475924,105.8251599221653,12.5,0,-3.653975248396495,-0.2449933418852658,1.943049330291023,-1.149672612136057e-05,2.139201504684345e-06,1.554439464232818e-05,1.528424500545741e-06,1.641791140781167e-06
117.7542798142894,105.1927874079865,12.5,0,-3.545393563653889,-0.2002177005405072,2.082642954187055,-1.118508524326004e-05,2.195618209193488e-06,1.666114363349644e-05,1.662794223109849e-06,1.693865439649629e-06
115.8218208811229,108.5846918338272,12.5,0,-3.235360515154404,-0.1425381711829918,1.933947571699278,-1.02391231115477e-05,2.132166264337949e-06,1.547158057359422e-05,1.571495124475849e-06,1.622666160064906e-06
117.849685978801,107.6047493613119,12.5,0,-3.040559777358319,-0.07496921644946819,2.084858334541337,-9.669815914387043e-06,2.192546329248356e-06,1.66788666763307e-05,1.75667153179364e-06,1.676473897903632e-06
119.3894353980831,104.7298585983173,12.5,0,-3.813788810663698,-0.2289232459124974,1.958025947723312,-1.202098559739383e-05,2.318476661610966e-06,1.566420758178649e-05,1.559208874338854e-06,1.73435724206365e-06
121.6230994647801,104.0974860841385,12.5,0,-3.686264611146735,-0.1057607994456554,2.105035837713132,-1.171143811611303e-05,2.610577130691291e-06,1.684028670170506e-05,1.74649089325538e-06,1.792908604685039e-06
119.3341862611339,106.8873816829666,12.5,0,-3.497325473521215,-0.1477812098190692,1.992709639140752,-1.107321654741263e-05,2.32496050739595e-06,1.594167711312601e-05,1.621958775719792e-06,1.716990573685651e-06
121.362051358812,105.9074392104513,12.5,0,-3.268485849048347,0.01363135461308185,2.168870961714832,-1.047005980064518e-05,2.658409014000539e-06,1.735096769371866e-05,1.889896679637357e-06,1.773876452641905e-06
206.8004865469571,287.1207472042374,12.5,0,0.8280945756761927,6.114250805292232,-2.400378087921042,-2.241498002069969e-06,1.890312691639419e-05,-1.920302470336834e-05,2.676043589962737e-05,2.696483508207449e-05
208.4151513138651,287.8335569521112,12.5,0,0.7459503071039058,5.911029803549448,-2.339723058217357,-2.341782860107059e-06,1.831853512567511e-05,-1.871778446573886e-05,2.571184413763149e-05,2.604820047481376e-05
206.2334155126624,289.221940412875,12.5,0,0.8992029155514288,6.076001018090557,-2.47470903167127,-1.983351484707873e-06,1.872384092544864e-05,-1.979767225337016e-05,2.688190254969619e-05,2.611428843581595e-05
207.9371940717639,289.7076525903104,12.5,0,0.8273920486976072,5.871444597939827,-2.424425364702516,-2.049501122519518e-06,1.812670907444936e-05,-1.939540291762013e-05,2.58664449645754e-05,2.533817604401251e-05
205.8182907040757,290.7601205980511,12.5,0,0.7418384020716841,5.762914985978705,-2.287207153663086,-2.236449102153575e-06,1.784785723347451e-05,-1.829765722930469e-05,2.511634758696893e-05,2.5518443048662e-05
207.5873050867152,291.0795858156572,12.5,0,0.7005661466252729,5.62374086029975,-2.263548962008933,-2.257181019038926e-06,1.743551783565898e-05,-1.810839169607146e-05,2.445535263166764e-05,2.483170357419883e-05
205.2512196697809,292.8613138066888,12.5,0,0.7720230265974959,5.73425686903847,-2.336834943856064,-2.116931810118789e-06,1.77320035596451e-05,-1.869467955084852e-05,2.51318332678733e-05,2.474110982369119e-05
207.1093478446139,292.9536814538565,12.5,0,0.735117371525232,5.59389397329619,-2.319623285282953,-2.122739589756209e-06,1.731236681732762e-05,-1.855698628226363e-05,2.448409792142433e-05,2.415801948477539e-05
208.8823134940723,291.313450586186,12.5,0,0.5834919665371335,5.655367986219546,-1.992425674350136,-2.657120096056809e-06,1.763038398267284e-05,-1.593940539480109e-05,2.406246578458283e-05,2.43001069349063e-05
210.6513278767118,291.6329158037922,12.5,0,0.5341639881961516,5.481630177275339,-1.967712422413004,-2.675979379592586e-06,1.711388537672416e-05,-1.574169937930403e-05,2.324528567753043e-05,2.353449738162767e-05
208.4695920755091,293.021299264556,12.5,0,0.6034713952587729,5.628435880669647,-2.042689263838556,-2.571640239707644e-06,1.752821770193585e-05,-1.634151411070844e-05,2.404962974973158e-05,2.370005986348299e-05
210.3277202503421,293.1136669117238,12.5,0,0.5582706912166956,5.454184342355284,-2.026270155364778,-2.576881261990801e-06,1.700677334256355e-05,-1.621016124291822e-05,2.324823460525054e-05,2.303198124915975e-05
209.5971679603828,288.3553699036629,12.5,0,0.6336946148676332,5.879879065232809,-2.084559541701678,-2.676080484609821e-06,1.830865731685088e-05,-1.667647633361342e-05,2.510820347614759e-05,2.536897445469574e-05
211.2118327272907,289.0681796515366,12.5,0,0.5418873785118333,5.66120017611066,-2.016347550664947,-2.794920529650661e-06,1.768233066074465e-05,-1.613078040531957e-05,2.396827141226086e-05,2.442992906509233e-05
209.1844465418196,290.063218582033,12.5,0,0.7024486268075454,5.854898576368033,-2.147108197566065,-2.436083255310281e-06,1.817371654293167e-05,-1.717686558052852e-05,2.526080139143251e-05,2.474729125184436e-05
210.888225100921,290.5489307594683,12.5,0,0.6236806873248305,5.636980205894948,-2.090424680653222,-2.5138059652765e-06,1.753939210900397e-05,-1.672339744522577e-05,2.416977480939221e-05,2.3909076369956e-05
220.0518450030653,251.4244027925343,12.5,0,5.073556550295828,10.253090296866,-4.919283429811005,8.032908723453846e-06,2.875104370973455e-05,-3.935426743848804e-05,5.738071855210505e-05,6.424901661164342e-05
221.4474453668531,251.8922648244093,12.5,0,5.19252919373618,10.16009992823058,-5.072518605248631,8.488013477371309e-06,2.835829641534892e-05,-4.058014884198905e-05,5.752757291775819e-05,6.349876160591097e-05
219.4859432504664,253.0175932508683,12.5,0,4.617836717417367,10.09635629584878,-5.02666767258355,6.699992459056545e-06,2.861407077278221e-05,-4.021334138066841e-05,5.533641322234776e-05,5.910108081692274e-05
221.1468785022075,253.639034844338,12.5,0,4.730485221208259,10.02329053581727,-5.151477090030125,7.118920279212612e-06,2.829014153764866e-05,-4.121181672024101e-05,5.551945799744202e-05,5.758652805361745e-05
217.6345942659667,250.6140419824088,12.5,0,5.866731760377939,10.23966481507104,-5.241414559227996,1.058180978115257e-05,2.807354199992496e-05,-4.193131647382397e-05,6.019985809436406e-05,6.515694961244132e-05
219.0301946297545,251.0819040142839,12.5,0,5.881726024985536,9.92006148350699,-5.311280501510416,1.088547409314812e-05,2.703881592723393e-05,-4.249024401208333e-05,5.912887858285785e-05,6.469332674887837e-05
216.6091190064203,251.9412248370617,12.5,0,5.567973361289095,9.962449756473626,-5.417176093887213,9.847554950946202e-06,2.742546053168432e-05,-4.33374087510977e-05,5.827804277271935e-05,6.103406131710399e-05
218.2700542581614,252.5626664305314,12.5,0,5.589552245888754,9.706931308491061,-5.469490087648725,1.012102214005117e-05,2.659053839046039e-05,-4.37559207011898e-05,5.74560270194702e-05,6.002484457072464e-05
215.8584190145593,252.9127901175606,12.5,0,4.983889339887359,10.04149882048756,-5.07232046489817,7.915246831249499e-06,2.81456847536503e-05,-4.057856371918536e-05,5.63906251911738e-05,5.852083378411562e-05
217.7135928852946,253.6466597531168,12.5,0,4.94350843575427,9.626806725564437,-5.072299612850732,8.117781613962115e-06,2.685097477320278e-05,-4.057839690280586e-05,5.474150587767367e-05,5.716686539889664e-05
214.8329437550128,254.2399729722135,12.5,0,4.822624297527902,9.802723098468093,-5.206452355165577,7.59021927331481e-06,2.751061447707557e-05,-4.165161884132462e-05,5.505635206807406e-05,5.577745676805584e-05
216.9534525137015,255.1274221693643,12.5,0,4.791451573400139,9.449081410366578,-5.203262726276428,7.773379906587182e-06,2.640389925445294e-05,-4.162610181021142e-05,5.366246738127511e-05,5.402720327231066e-05
219.0716744154893,254.1838896124532,12.5,0,3.863223562900641,9.941092471000115,-4.548242111443969,4.40944142448196e-06,2.872091705687985e-05,-3.638593689155175e-05,5.198090809908749e-05,5.594429354313632e-05
220.9268482862245,254.9177592480094,12.5,0,3.882433648175196,9.739484393143098,-4.585971269006477,4.632200159646147e-06,2.806040313951775e-05,-3.668777015205182e-05,5.132339740522341e-05,5.395813350237234e-05
218.5057726628904,255.7770800707872,12.5,0,3.70447283572267,9.845246943932054,-4.630633759293866,3.9781155191669e-06,2.854121195200443e-05,-3.704507007435093e-05,5.11496919540065e-05,5.246772611681896e-05
220.6262814215789,256.6645292679381,12.5,0,3.724823348541909,9.671691894276606,-4.661648957625689,4.182081199912823e-06,2.796955538285161e-05,-3.729319166100552e-05,5.059630812210814e-05,4.995740879033667e-05
153.2123064061512,279.4996707186943,12.5,0,4.602094882898765,3.447256105104024,-4.659861333085589,1.196889874119283e-05,7.349543630013862e-06,-3.727889066468471e-05,3.151523756048726e-05,3.162077489665772e-05
155.4521395657831,279.3925408262775,12.5,0,4.636334468810155,3.623065083648711,-4.737889069794747,1.193781823327353e-05,7.88474069262775e-06,-3.790311255835797e-05,3.228899196480499e-05,3.194359996917419e-05
153.1504911262833,281.464856470394,12.5,0,4.434829830228125,3.409528786957561,-4.609850113505154,1.146383242716395e-05,7.362628254081694e-06,-3.687880090804123e-05,3.077024546027896e-05,3.105883892813519e-05
155.2557861566002,281.0275612797754,12.5,0,4.434402340520977,3.591781399530738,-4.683264950789602,1.131666237004253e-05,7.946178606081579e-06,-3.746611960631682e-05,3.144312341039492e-05,3.143803915859504e-05
153.3193736115647,276.0958691505014,12.5,0,4.849479461756009,3.384618015644681,-4.745683435398294,1.281063986510348e-05,6.951194080658169e-06,-3.796546748318635e-05,3.223728090604585e-05,3.263146755032634e-05
155.7922336467212,276.5606023294557,12.5,0,4.941249345720854,3.593219366252948,-4.843966789465871,1.293742241330437e-05,7.545302495432752e-06,-3.875173431572697e-05,3.333436961146396e-05,3.284955440214871e-05
153.2575583316968,278.061054902201,12.5,0,4.690096393097518,3.348940310522214,-4.694573399235759,1.232915620949428e-05,6.964531879193069e-06,-3.755658719388608e-05,3.152354073488736e-05,3.204215946595479e-05
155.5958802375382,278.1956227829536,12.5,0,4.757441266695865,3.565987046791525,-4.790118296917522,1.237102241599355e-05,7.605205536376187e-06,-3.832094637534018e-05,3.256230605321617e-05,3.232181433877685e-05
149.0362543907442,275.2909276726039,12.5,0,5.0549939700992,3.087909413128104,-4.712979870733271,1.370565317381495e-05,5.837314945930574e-06,-3.770383896586617e-05,3.194105526479473e-05,3.224749947935725e-05
151.5091144259007,275.7556608515582,12.5,0,5.154624813143386,3.31533387218303,-4.8192460174006,1.384253230431241e-05,6.485368540470985e-06,-3.85539681392048e-05,3.313025492710525e-05,3.24701474199702e-05
149.2074659864008,277.8279764956746,12.5,0,4.822244132550722,3.016813568803915,-4.630665203962404,1.301773036911918e-05,5.796008114131949e-06,-3.704532163169923e-05,3.082675037673605e-05,3.158506732530134e-05
151.5457878922423,277.9625443764273,12.5,0,4.893341850195355,3.246404601295264,-4.730764195902132,1.306157023958892e-05,6.473821243988562e-06,-3.784611356721706e-05,3.191870068991921e-05,3.184474869867413e-05
149.3328015732611,279.6852251353663,12.5,0,4.707282679237972,3.17151427431333,-4.605756652160728,1.252609315411084e-05,6.383019534412279e-06,-3.684605321728582e-05,3.091527629472988e-05,3.110184125413911e-05
151.5726347328929,279.5780952429495,12.5,0,4.743807654517645,3.355615544156391,-4.681861058506826,1.249569205913135e-05,6.942923617686336e-06,-3.74548884680546e-05,3.171893887986535e-05,3.139522632874923e-05
149.5040131689177,282.222273958437,12.5,0,4.484825783200638,3.103683907153263,-4.527800907036749,1.186849538051943e-05,6.343927876329932e-06,-3.622240725629399e-05,2.985383309834706e-05,3.044407523018178e-05
151.6093081992346,281.7849787678186,12.5,0,4.487608125747253,3.2880625410961,-4.595948007848132,1.172989596951433e-05,6.931713630909715e-06,-3.676758406278506e-05,3.053551676787866e-05,3.079250709621948e-05
159.2220142577994,170.2583189464042,12.5,0,7.876785193179821,1.47847738752807,0.6141907177807654,2.402293070815297e-05,-1.570300514454033e-06,4.913525742246123e-06,3.494176547069901e-05,3.42944275405724e-05
161.4028297051664,171.2531682672244,12.5,0,7.925699733964282,1.662604901108929,0.5802961892687507,2.403215522779855e-05,-1.020224103622853e-06,4.642369514150005e-06,3.572178426165873e-05,3.602779427142538e-05
158.3494802001125,172.2363176941987,12.5,0,7.888890795140215,1.549598364786254,0.6749364789692688,2.400477185261968e-05,-1.35239786879616e-06,5.39949183175415e-06,3.522528421267099e-05,3.488254838060329e-05
160.5413266133045,173.2169235685259,12.5,0,7.937814950048923,1.733970675300239,0.6415996952391693,2.401383129991636e-05,-8.015457990783722e-07,5.132797561913354e-06,3.600708119789728e-05,3.661169372701154e-05
157.7107409385787,173.6843132748303,12.5,0,8.271822470384883,1.312770784935574,0.3746042830541442,2.541961527728316e-05,-2.41659146451407e-06,2.996834264433154e-06,3.589770565828385e-05,3.528482624365246e-05
159.9106625792107,174.6544922226503,12.5,0,8.333138665627695,1.496378528116795,0.3309385150753154,2.546894090751518e-05,-1.878099642528411e-06,2.647508120602523e-06,3.672009490529975e-05,3.700736064382008e-05
156.8382068808918,175.6623120226249,12.5,0,8.25625416921903,1.37496233992071,0.4290374447910614,2.532004346956433e-05,-2.205123847628953e-06,3.432299558328491e-06,3.604163348622629e-05,3.579574896427888e-05
159.0491594873487,176.6182475239518,12.5,0,8.31733218364899,1.558742384491935,0.3858940574520724,2.536846908008321e-05,-1.665890116544998e-06,3.087152459616579e-06,3.686450319413829e-05,3.750444330787493e-05
161.5211169927551,175.3647125048579,12.5,0,8.790105452778908,1.647321784364126,0.2851489319801126,2.68104800214012e-05,-1.760654652257923e-06,2.281191455840901e-06,3.895285484520052e-05,3.830577543963099e-05
163.721038633387,176.3348914526778,12.5,0,8.858152691198233,1.845340372835593,0.2364004489296372,2.686981631356587e-05,-1.181432959884688e-06,1.891203591437098e-06,3.985307850094397e-05,4.013057623106876e-05
160.6676891283331,177.3180408796521,12.5,0,8.769219865155973,1.711616039039088,0.3423328658019024,2.669221073726784e-05,-1.538204567199698e-06,2.738662926415219e-06,3.908409168223568e-05,3.879535208700865e-05
162.87864173479,178.273976380979,12.5,0,8.836969212365171,1.909800173482697,0.2941463118238973,2.675046134078239e-05,-9.582148147475059e-07,2.353170494591179e-06,3.998452585545229e-05,4.06134861160926e-05
162.9992974145023,171.9814485159092,12.5,0,8.390765207605517,1.812214633666926,0.5364081432382509,2.540067695740411e-05,-9.135253383502507e-07,4.291265145906008e-06,3.797965940960832e-05,3.73323476133885e-05
165.1801128618693,172.9762978367295,12.5,0,8.450375794932764,2.016507938218525,0.4943636463260801,2.542799619321002e-05,-3.074752336469319e-07,3.954909170608641e-06,3.887102864806669e-05,3.91630868941141e-05
162.1458695500804,173.9347768907035,12.5,0,8.392630385413767,1.886051286916642,0.6006802377990462,2.534757620379074e-05,-6.787401901977587e-07,4.80544190239237e-06,3.823378537061946e-05,3.791376457241355e-05
164.3377159632723,174.9153827650306,12.5,0,8.452146135132628,2.090578080230591,0.5592457651181421,2.537440516823993e-05,-7.186705136820958e-08,4.473966120945136e-06,3.912647636401553e-05,3.974194293084899e-05
167.5457592697374,181.8824047263516,12.5,0,10.18747797449487,2.238992219738506,-0.2258834048752851,3.080873574259278e-05,-9.852072764326763e-07,-1.807067239002281e-06,4.621240743721141e-05,4.549200785627312e-05
169.6807843321271,182.7624988876595,12.5,0,10.26845383818072,2.447602134365088,-0.284911602907916,3.090097057468623e-05,-3.824362405762934e-07,-2.279292823263328e-06,4.720585247902566e-05,4.744353632360278e-05
166.8064281245738,184.0652427384865,12.5,0,10.12865688328225,2.289472154060415,-0.1585798749909278,3.058012430325486e-05,-7.7661461363247e-07,-1.268638999927423e-06,4.615087174302224e-05,4.604082229161793e-05
168.9989020432784,185.068773717689,12.5,0,10.20875887354816,2.488336087132522,-0.2178772274138659,3.067735952564808e-05,-2.043316200144553e-07,-1.743017819310928e-06,4.710949649280791e-05,4.808502520060712e-05
163.8477873863119,180.358036923549,12.5,0,9.653881727432587,1.841076193310665,-0.09795263475498468,2.941956057313575e-05,-1.831661563351942e-06,-7.836210780398775e-07,4.287711041605732e-05,4.226227606535503e-05
165.9828124487017,181.2381310848569,12.5,0,9.739559291780694,2.054037030342578,-0.1610112902881902,2.952336010942415e-05,-1.218728936328305e-06,-1.288090322305521e-06,4.389709938613472e-05,4.410369335434338e-05
163.0089519031758,182.3270760955695,12.5,0,9.596580298214613,1.901952336491792,-0.03970083701711365,2.918749508509333e-05,-1.591016761797956e-06,-3.176066961369092e-07,4.285469285105444e-05,4.265860278214205e-05
165.2014258218805,183.3306070747721,12.5,0,9.681074094753333,2.103910251391412,-0.1025256913329462,2.929630890209753e-05,-1.012346471350148e-06,-8.202055306635696e-07,4.383505841184561e-05,4.458681678684534e-05
162.3948817103547,183.7685128115205,12.5,0,9.984037842060271,1.697880305844214,-0.3834020751196515,3.059061684991749e-05,-2.55401329494673e-06,-3.067216600957212e-06,4.368816875644638e-05,4.29100758032382e-05
164.6294111107169,184.8624058129428,12.5,0,10.12048626525902,1.89619966300054,-0.4865361935518104,3.086859631842842e-05,-2.028550090605487e-06,-3.892289548414483e-06,4.485618042690285e-05,4.489106898143901e-05
161.5560462272186,185.737551983541,12.5,0,9.833785607536543,1.721919133861543,-0.3521894597884197,3.00905786370277e-05,-2.356887257672297e-06,-2.817515678307358e-06,4.31889693437097e-05,4.320078615684791e-05
163.8480244838957,186.954881802858,12.5,0,9.970658164549747,1.911871142609036,-0.452592190920272,3.037660921247195e-05,-1.858538875290881e-06,-3.620737527362176e-06,4.433180949003228e-05,4.523917800291665e-05
166.2652001627189,185.6631910679939,12.5,0,10.60808587944868,2.10085939059077,-0.5619371530912103,3.226518730176315e-05,-1.763718653668479e-06,-4.495497224729682e-06,4.738797000521624e-05,4.638774181351807e-05
168.499729563081,186.7570840694161,12.5,0,10.74122460130299,2.327155030997258,-0.6622923712644716,3.251019469937175e-05,-1.146083581851163e-06,-5.298338970115773e-06,4.864027998803637e-05,4.84957348550391e-05
165.5258690175552,187.8460290801287,12.5,0,10.4622376229064,2.128218374150418,-0.5072520600191383,3.177658569398015e-05,-1.559491301043783e-06,-4.058016480153106e-06,4.691552334206076e-05,4.678672913818223e-05
167.8178472742323,189.0633588994456,12.5,0,10.59573878258608,2.345544659362665,-0.6059564727796661,3.202992837678532e-05,-9.708481161083344e-07,-4.847651782237329e-06,4.814020583489761e-05,4.897632562114967e-05
190.777441381421,210.1651876011218,12.5,0,14.46517104050004,6.606018497607899,-3.58300850269251,4.100373253151381e-05,9.56712235994524e-06,-2.866406802154008e-05,7.764223904354771e-05,7.819325832290776e-05
192.5619331499616,211.5972756955441,12.5,0,14.92011279811531,6.877887163134744,-3.826650480088894,4.224205122346119e-05,1.007314868353893e-05,-3.061320384071116e-05,8.034260670572857e-05,8.073010261494078e-05
189.9993987535481,211.7643171815705,12.5,0,14.0333327542417,6.565339033810564,-3.60975918334275,3.965439358652499e-05,9.782418704800441e-06,-2.8878073466742e-05,7.589887922702632e-05,7.68662936019116e-05
191.6955689227114,212.8450708925118,12.5,0,14.47926409136278,6.867460404763026,-3.890874835937543,4.083967676855047e-05,1.039246202215146e-05,-3.112699868750035e-05,7.868236014860224e-05,7.91395460027019e-05
187.6866109726758,207.6847382607124,12.5,0,14.31663536095465,5.770214028820938,-3.351413976643292,4.119706193199814e-05,7.011376603463276e-06,-2.681131181314633e-05,7.418180804640874e-05,7.392161133835278e-05
189.4711027412164,209.1168263551347,12.5,0,14.81148670891098,6.139030678831414,-3.630785867039491,4.248553292545001e-05,7.795708805131738e-06,-2.904628693631593e-05,7.736728294589944e-05,7.636892858372844e-05
187.0615458423272,209.8923968437853,12.5,0,13.68986088347704,5.697706402730095,-3.301411595829049,3.924938970494246e-05,7.280771781954668e-06,-2.641129276663239e-05,7.157176176850637e-05,7.308395453994178e-05
188.7577160114906,210.9731505547265,12.5,0,14.1570258983502,6.09627585161469,-3.603948992196755,4.042546219342889e-05,8.182462006486844e-06,-2.883159193757404e-05,7.476387651941388e-05,7.524370275982272e-05
186.6039664088918,211.5085150922914,12.5,0,14.08979237142522,5.580791835447059,-3.775276829418408,4.062270212020305e-05,6.586699976290412e-06,-3.020221463534726e-05,7.282627952478106e-05,7.241552262327977e-05
188.2354806799081,212.3320741840895,12.5,0,14.33485877152528,5.859853032837184,-3.958164663195268,4.118366564261116e-05,7.283642687858761e-06,-3.166531730556214e-05,7.474604967989777e-05,7.44007621828043e-05
185.9789012785432,213.7161736753641,12.5,0,13.62190944861248,5.545326840515493,-3.712114703913341,3.915384876314754e-05,6.847518330759591e-06,-2.969691763130672e-05,7.093386920069858e-05,7.14269894638919e-05
187.5220939501823,214.1883983836814,12.5,0,13.82557126619264,5.854981730899219,-3.908812411514774,3.955784266709709e-05,7.675484525923381e-06,-3.127049929211819e-05,7.280861683991336e-05,7.322303152243637e-05
189.4298320195149,212.9349612822955,12.5,0,14.21233636613507,6.2496991769423,-3.909039562501312,4.047971703007838e-05,8.629168273307304e-06,-3.127231650001049e-05,7.559006633345229e-05,7.589943751403207e-05
191.0613462905311,213.7585203740937,12.5,0,14.47288567846765,6.512137701255233,-4.103351544111229,4.110352401009228e-05,9.260532101242627e-06,-3.282681235288983e-05,7.751945436519024e-05,7.800865510364602e-05
188.651789391642,214.5340908627442,12.5,0,13.84514184446091,6.249140277248296,-3.905463615266766,3.930514168047627e-05,8.921135411625819e-06,-3.124370892213413e-05,7.421641265511339e-05,7.45849022792218e-05
190.194982063281,215.0063155710614,12.5,0,14.07324677447352,6.558062102573434,-4.133514439048865,3.978793999625651e-05,9.72720130865617e-06,-3.306811551239091e-05,7.619648063170476e-05,7.650956032171559e-05
129.8681507502111,136.6547440542723,12.5,0,1.204471383832627,0.003582621810644171,1.653723790218381,3.851442330815889e-06,-9.521127172720399e-07,1.322979032174705e-05,6.072220567655646e-06,6.734080963248098e-06
132.1304756890277,135.7423296029681,12.5,0,1.362496084260892,0.05272437593527735,1.799822006170383,4.317807968886631e-06,-9.212788644158258e-07,1.439857604936306e-05,6.896771960215587e-06,6.846598960512234e-06
130.7457077815414,139.7106736301824,12.5,0,1.665579530499986,0.1155431839073606,1.608592802796721,5.237419950474065e-06,-9.627254358964346e-07,1.286874242237377e-05,7.812897326408428e-06,8.229257934019926e-06
132.9428265956677,138.473832309903,12.5,0,1.873897910459552,0.1767652632848943,1.747798299626933,5.855061102842652e-06,-9.334694858559799e-07,1.398238639701546e-05,8.851466574040895e-06,8.199133738588814e-06
133.7866124874012,135.0743958670818,12.5,0,1.050082623417044,0.1741492134123086,1.712487060173898,3.220945024204693e-06,-2.827886158142476e-07,1.369989648139118e-05,6.130530088005478e-06,6.922031213348079e-06
136.0489374262178,134.1619814157775,12.5,0,1.210646604365201,0.2395010469064486,1.859597102408608,3.682468296443485e-06,-2.021139333915255e-07,1.487677681926887e-05,7.007631055198098e-06,7.015597963369619e-06
134.5512291978052,137.5684016225964,12.5,0,1.411112738620331,0.2570515351799453,1.680350997703949,4.309919535441103e-06,-3.063252783204397e-07,1.344280798163159e-05,7.454252461542959e-06,8.168636785361744e-06
136.7483480119316,136.3315603023169,12.5,0,1.620105032011169,0.3330917424859842,1.820701801039096,4.917862708446951e-06,-2.301904496537853e-07,1.456561440831277e-05,8.532956001672462e-06,8.115441755096905e-06
132.462257496689,130.7546511842389,12.5,0,0.439511020293556,0.1687141962527107,1.793389665314911,1.27146390793721e-06,1.882766117738293e-07,1.434711732251929e-05,4.561447846554044e-06,5.080458644601244e-06
134.8375227564318,130.4041605533302,12.5,0,0.5003102125936056,0.1838496674914087,1.947942375995113,1.453912946306411e-06,1.880707658976234e-07,1.55835390079609e-05,5.012386213018203e-06,5.359351678043136e-06
133.2268742070931,133.2486569397535,12.5,0,0.8116801532934572,0.261774287591318,1.75057937443669,2.387957060466008e-06,1.883335976574519e-07,1.400463499549352e-05,5.715850157085883e-06,6.094556374473611e-06
135.5369333421456,132.5737394398696,12.5,0,0.9253804825480011,0.2901386218792426,1.896530062152716,2.729106646650209e-06,1.881392039751754e-07,1.517224049722173e-05,6.342522588549608e-06,6.277105852978614e-06
128.3481773854351,131.3617187645388,12.5,0,0.4496236793622463,-0.03188225883994274,1.748586314430831,1.464301581031142e-06,-4.617221717776137e-07,1.398869051544665e-05,4.063730629247561e-06,4.614909234623872e-06
130.7234426451779,131.0112281336301,12.5,0,0.5134659128559587,0.0003412769913702096,1.900771226629276,1.642817899545972e-06,-4.096806439123822e-07,1.520616981303421e-05,4.550369363038323e-06,4.880985893081809e-06
129.2257344167653,134.4176483404489,12.5,0,0.9074395550118722,0.07725339798234018,1.706540787093119,2.842003857652119e-06,-4.787407704660092e-07,1.365232629674495e-05,5.449478764498908e-06,5.765619148110589e-06
131.5357935518179,133.7427308405649,12.5,0,1.023453082287725,0.1217018595342676,1.851965396055008,3.177688375693305e-06,-4.293165153205233e-07,1.481572316844006e-05,6.122106653602074e-06,5.957503924969233e-06
183.6817046739603,206.6494546838373,12.5,0,13.93035251674655,4.881569649988043,-3.239291967914364,4.067187233359852e-05,4.476740866564497e-06,-2.591433574331491e-05,6.971113006934358e-05,6.895751067295054e-05
186.1353464359405,207.0236080139815,12.5,0,14.10140886103841,5.361381842898635,-3.400001094899648,4.0835402881004e-05,5.875294808444902e-06,-2.720000875919718e-05,7.201117826488045e-05,7.193572789445209e-05
183.1977307111476,208.8957917677134,12.5,0,13.60751210003253,4.89232472595925,-3.097533978201121,3.963017893933668e-05,4.76942944304358e-06,-2.478027182560897e-05,6.849024008998181e-05,6.852298078373373e-05
185.5717522712178,209.3357702344327,12.5,0,13.79371626963656,5.384072074340036,-3.267087679015518,3.983263440336497e-05,6.194057622178864e-06,-2.613670143212414e-05,7.089207087115387e-05,7.128314251395067e-05
179.4318724787141,206.0014021062184,12.5,0,13.35842331764019,4.088438372148967,-3.059806334023591,3.947620391872944e-05,2.396264136764539e-06,-2.447845067218873e-05,6.486316446107162e-05,6.425808382150793e-05
181.8855142406944,206.3755554363624,12.5,0,13.48990743095206,4.475901332841388,-3.17224373100649,3.958698271277347e-05,3.530958320330794e-06,-2.537794984805192e-05,6.667950761049073e-05,6.690029214389558e-05
179.085804750916,208.1337267091332,12.5,0,13.1485269540588,4.089221470295562,-2.942185768403021,3.880390907675172e-05,2.566687141698754e-06,-2.353748614722416e-05,6.403848923996481e-05,6.410214824110478e-05
181.4598263109862,208.5737051758524,12.5,0,13.29101438047872,4.487192829707949,-3.061843044961562,3.894149175376555e-05,3.726205550682457e-06,-2.44947443596925e-05,6.593447245673606e-05,6.659883916753205e-05
178.8324655913187,209.6946966566296,12.5,0,13.25777651347514,4.087544770463643,-3.46663680183675,3.915484902674952e-05,2.473922054703546e-06,-2.7733094414694e-05,6.461334803499212e-05,6.391831499659982e-05
181.1482011182843,210.1828624677349,12.5,0,13.41789942985988,4.451996363805735,-3.624938910583322,3.937568108450701e-05,3.512068820290452e-06,-2.899951128466658e-05,6.647855161377568e-05,6.630081322922128e-05
178.4863978635207,211.8270212595444,12.5,0,12.92812196597597,4.056920008584293,-3.359899863177726,3.812445428425567e-05,2.63964645468896e-06,-2.687919890542181e-05,6.323459390317584e-05,6.357200881287379e-05
180.7225131885762,212.3810122072249,12.5,0,13.10505684873366,4.43290914610595,-3.52668333814233,3.838985459906296e-05,3.701263788552109e-06,-2.821346670513864e-05,6.520536042272247e-05,6.578804420011179e-05
182.8434371808433,210.540224643967,12.5,0,13.66167555741605,4.811037060323249,-3.651763651919772,3.986853213547276e-05,4.465978147101556e-06,-2.921410921535817e-05,6.859880896652311e-05,6.812721255250517e-05
185.1591727078089,211.0283904550724,12.5,0,13.8397357885179,5.222292030690753,-3.825467864259072,4.010932089870467e-05,5.639545867396089e-06,-3.060374291407258e-05,7.070245787914248e-05,7.073453006621688e-05
182.3594632180306,212.7865617278431,12.5,0,13.29047066808696,4.799782605151069,-3.532113817476514,3.86896800537574e-05,4.726927802013855e-06,-2.825691053981211e-05,6.712693064621284e-05,6.74804835259379e-05
184.5955785430861,213.3405526755236,12.5,0,13.48625756275981,5.222456825610139,-3.71465034209349,3.897805874034327e-05,5.922855791744597e-06,-2.971720273674792e-05,6.934021472193775e-05,6.988827836578106e-05
134.5962863057603,150.4316072536979,12.5,0,3.763490667829155,0.1033314971562203,1.27202362165356,1.196050493932832e-05,-2.680131743363419e-06,1.017618897322848e-05,1.51149303068281e-05,1.423364168188849e-05
136.8261113030187,151.5924822750026,12.5,0,3.636503248570108,0.1505568966726084,1.362216847083778,1.151636487808626e-05,-2.427420529503739e-06,1.089773477667023e-05,1.483005983117944e-05,1.539925273900201e-05
134.735454615421,153.3141933057317,12.5,0,4.079118729332504,0.1779915371737933,1.3014757455667,1.291078670412498e-05,-2.693722064509864e-06,1.04118059645336e-05,1.654307993045017e-05,1.57113358616994e-05
137.1119184094132,154.3336038208813,12.5,0,3.985792682623591,0.2276866044311165,1.387555688095546,1.25723873008506e-05,-2.4600370119193e-06,1.110044550476437e-05,1.638674599116403e-05,1.689302476096878e-05
134.3552397226289,145.4388217544757,12.5,0,3.052847783424104,0.1481244760745367,1.418309838705235,9.650613326097501e-06,-1.968279903300765e-06,1.134647870964188e-05,1.268699577905031e-05,1.174523564625363e-05
136.3310788735882,146.8447204879043,12.5,0,2.923295798644379,0.1444940418128201,1.482443239918297,9.238951322211757e-06,-1.876255705114479e-06,1.185954591934637e-05,1.224468616923387e-05,1.291580859530147e-05
134.4944080322895,148.3214078065095,12.5,0,3.289801449498832,0.2056536997620569,1.428172600891832,1.036284167858662e-05,-1.973749320360483e-06,1.142538080713465e-05,1.374396665518518e-05,1.317092833209197e-05
136.6168859799826,149.585842033783,12.5,0,3.191843105581999,0.2074380610178889,1.487984309178037,1.004794748904808e-05,-1.889672689208354e-06,1.190387447342429e-05,1.342601446108394e-05,1.433356087932061e-05
130.9329859256451,143.0037337179242,12.5,0,2.597635533150771,-0.04343671449356612,1.455608858801347,8.34718307767732e-06,-2.217105912900028e-06,1.164487087041078e-05,1.048529222538774e-05,9.755599997982451e-06
132.9088250766044,144.4096324513529,12.5,0,2.483790585218058,-0.02986121783323226,1.509551057171901,7.972018846964372e-06,-2.08258836524079e-06,1.207640845737521e-05,1.015937232283799e-05,1.089846030471446e-05
130.8181683890066,146.1313434820819,12.5,0,2.83833768239404,0.01884740806369489,1.481889768426575,9.06760265720997e-06,-2.210358440111408e-06,1.18551181474126e-05,1.156249901476312e-05,1.120081870929433e-05
132.9406463366997,147.3957777093555,12.5,0,2.751052101754599,0.03627249880417449,1.53406953456306,8.774348726571377e-06,-2.084769685230321e-06,1.227255627650448e-05,1.133663273462246e-05,1.233151259756463e-05
130.734116118591,148.4209127355966,12.5,0,3.364398223727324,-0.1014053400509022,1.286844884073186,1.084719858796816e-05,-3.016015667144746e-06,1.029475907258549e-05,1.302120153535184e-05,1.226496496341896e-05
132.9639411158494,149.5817877569013,12.5,0,3.260812541004669,-0.07835030679284782,1.360666961357701,1.049728037664922e-05,-2.859371014540848e-06,1.088533569086161e-05,1.274918180508174e-05,1.339381180360041e-05
130.6192985819525,151.5485224997543,12.5,0,3.640606310695531,-0.03014257099216699,1.314727365784717,1.167405425101943e-05,-3.008941275731359e-06,1.051781892627774e-05,1.427886699411489e-05,1.372704788518327e-05
132.9957623759448,152.567933014904,12.5,0,3.562497736128722,-0.003631862080513915,1.385843312294733,1.140289824527632e-05,-2.861620147560622e-06,1.108674649835786e-05,1.410677735332618e-05,1.486301491460347e-05
136.0948366774791,202.9779766004971,12.5,0,8.974926421673855,0.06347588124966075,-1.950680203944334,2.86689838443566e-05,-6.976818317340169e-06,-1.560544163155467e-05,3.502323049017769e-05,3.417563916427781e-05
138.3398649372567,203.4656165997196,12.5,0,8.996262462692986,0.1253789569982309,-1.966387082910363,2.868773671501896e-05,-6.795797307760048e-06,-1.57310966632829e-05,3.529669990670895e-05,3.526917284655063e-05
136.5332722348419,205.6324493782994,12.5,0,8.93927948948506,0.04391294034277982,-1.922853468597417,2.857056401407796e-05,-7.010902182491151e-06,-1.538282774877933e-05,3.481901811084298e-05,3.482682960038799e-05
138.7614761679346,206.0236212372523,12.5,0,8.959282648398474,0.1051059783746218,-1.937519466899866,2.858561969217542e-05,-6.83108698791999e-06,-1.550015573519893e-05,3.508473600554047e-05,3.589315055216004e-05
136.8542293386627,207.5756583188766,12.5,0,9.106020234117153,0.1852735509418237,-2.308380411214037,2.899104590842143e-05,-6.691940824279886e-06,-1.846704328971229e-05,3.602239170873172e-05,3.526738793534539e-05
139.0701170098193,207.8962105978435,12.5,0,9.129923372283606,0.2563982990810962,-2.329077943946948,2.901063615204266e-05,-6.483464140767377e-06,-1.863262355157559e-05,3.633665198486682e-05,3.631232633560219e-05
137.2926648960255,210.230131096679,12.5,0,9.050572030022593,0.158983824352636,-2.275054369616286,2.883464343659018e-05,-6.731709386089638e-06,-1.820043495693029e-05,3.571936415173408e-05,3.581982525408792e-05
139.491728240497,210.4542152353763,12.5,0,9.072396387477371,0.2291485213137374,-2.294505199313138,2.884834962287659e-05,-6.524641841777935e-06,-1.83560415945051e-05,3.602208811673278e-05,3.683355816770794e-05
140.6922593689024,208.1308711525193,12.5,0,9.41657854228515,0.406552579132164,-2.436148229836647,2.980780927200674e-05,-6.232294580605193e-06,-1.948918583869318e-05,3.792326688159692e-05,3.710290839769823e-05
142.908147040059,208.4514234314862,12.5,0,9.439924452330033,0.476129626016105,-2.456293364597539,2.982685454664321e-05,-6.028324758612489e-06,-1.965034691678031e-05,3.82323709427497e-05,3.821788035873218e-05
141.1015543376441,210.6182562100661,12.5,0,9.366184330320621,0.3826315200778287,-2.40570108502993,2.966568464096372e-05,-6.268526600007444e-06,-1.924560868023944e-05,3.764705365575415e-05,3.760210746442561e-05
143.3006176821156,210.8423403487635,12.5,0,9.38750978545346,0.4512762554727887,-2.424628265224732,2.967901030907283e-05,-6.065923810849843e-06,-1.939702612179786e-05,3.794496859240514e-05,3.868809027764884e-05
139.9833396877721,203.8225938549381,12.5,0,9.301837043008042,0.2788930369371827,-2.07453822729176,2.954276410807599e-05,-6.549011916207449e-06,-1.659630581833408e-05,3.696258892344142e-05,3.609621608336896e-05
142.2283679475498,204.3102338541605,12.5,0,9.330431414989832,0.3546019303869512,-2.098297483991643,2.95736989836579e-05,-6.329618954753621e-06,-1.678637987193314e-05,3.731034358643893e-05,3.726220654423611e-05
140.3926346565138,206.3099789124848,12.5,0,9.24804643750805,0.2534244456282928,-2.042195177567974,2.939100904352312e-05,-6.587478923995903e-06,-1.633756142054379e-05,3.666920826648248e-05,3.669940601826767e-05
142.6208385896065,206.7011507714377,12.5,0,9.274487569790358,0.3281422443218407,-2.064662741860915,2.941584642787167e-05,-6.369534874002395e-06,-1.651730193488732e-05,3.700504828097871e-05,3.783581596387546e-05
127.4870645950239,126.9057659689805,12.5,0,-0.2050257147032307,-0.04358989342926751,1.806555466668813,-6.212103723069241e-07,2.45329127889285e-08,1.44524437333505e-05,2.885217292286091e-06,3.372345881525483e-06
129.8531826373664,126.8462178940834,12.5,0,-0.1836118390717247,0.003640197519901495,1.959658808286924,-5.904700430454403e-07,1.585381033210645e-07,1.56772704662954e-05,3.273046943427992e-06,3.6356484465951e-06
127.8823022108096,129.3489159495289,12.5,0,0.1848005395919226,0.04735149350971973,1.798910543646069,5.534805318863764e-07,3.684347557565085e-09,1.439128434916855e-05,3.731899659816269e-06,3.973633595595356e-06
130.2725884094889,129.1633130590871,12.5,0,0.2264014081147042,0.09847226978747786,1.948642088413094,6.45706690137071e-07,1.339901368281658e-07,1.558913670730475e-05,4.193596012485384e-06,4.258846592729044e-06
131.5853012609929,126.8026256777676,12.5,0,-0.1532129576284479,0.14562467204507,1.845292497897105,-6.067812020470892e-07,5.885693166469822e-07,1.476233998317684e-05,3.366437485818673e-06,3.838280407251592e-06
133.9514193033355,126.7430776028705,12.5,0,-0.1346901638132592,0.1805206377789385,2.001337710570241,-5.754250344255803e-07,6.854181719432104e-07,1.601070168456193e-05,3.74870496230186e-06,4.128578653956348e-06
132.0223993514784,129.0274423132578,12.5,0,0.2065717366104726,0.2303999858697713,1.82921183773736,4.767095684576951e-07,5.720225654948902e-07,1.463369470189888e-05,4.220454012559804e-06,4.475891321301169e-06
134.4126855501577,128.8418394228159,12.5,0,0.2456296240536429,0.2694831350771527,1.980991990120884,5.704282889099351e-07,6.65842333003974e-07,1.584793592096707e-05,4.664570493096719e-06,4.783655550166735e-06
130.8282251603943,122.9491302276434,12.5,0,-0.7364006635796128,0.149636359573856,1.900616374649834,-2.476191211113845e-06,1.067956881500029e-06,1.520493099719867e-05,2.664764765542303e-06,3.016396251987514e-06
133.152482728037,123.1079154978045,12.5,0,-0.7587495233744841,0.1646201783552032,2.052841886145679,-2.559694617482511e-06,1.133784189436237e-06,1.642273508916543e-05,2.922660978891058e-06,3.262834091446546e-06
131.2653232508798,125.1739468631336,12.5,0,-0.37771535646079,0.2357403199939049,1.88138352009359,-1.397281396669652e-06,1.056541309149128e-06,1.505106816074872e-05,3.234388685362906e-06,3.447209882083964e-06
133.6137489748593,125.20667731775,12.5,0,-0.377901934861516,0.25559344179948,2.029074512563962,-1.413760944996435e-06,1.120220561647548e-06,1.62325961005117e-05,3.535948857822748e-06,3.721075772273034e-06
126.802492963433,122.6741060722357,12.5,0,-0.8367745290678748,-0.02482503889095275,1.867214155703539,-2.657818461904437e-06,5.899794988032509e-07,1.493771324562831e-05,2.276727562008879e-06,2.635142238933953e-06
129.1267505310757,122.8328913423968,12.5,0,-0.8567753784698781,-0.001872711345522832,2.017154225198496,-2.740183042027191e-06,6.794276264702293e-07,1.613723380158796e-05,2.532999810633952e-06,2.848206727016404e-06
127.1977305792187,125.1172560527842,12.5,0,-0.4454548276833828,0.06858844020010398,1.85432328776891,-1.480326200746908e-06,5.758468707870389e-07,1.483458630215128e-05,2.80824122392312e-06,3.013698203443185e-06
129.5461563031982,125.1499865074006,12.5,0,-0.4436550306250756,0.09618875627832293,2.000550992818931,-1.4966471030229e-06,6.627280445906938e-07,1.600440794255145e-05,3.114466681080425e-06,3.257668633778014e-06
228.3913395886536,259.985134775754,12.5,0,0.5644085295538173,7.8877597286017,-1.506997985297262,-4.504100488309144e-06,2.478930430788238e-05,-1.20559838823781e-05,3.226882202418965e-05,3.618481501765907e-05
230.1808064908081,260.1742426489008,12.5,0,0.4135984775165205,7.314729972779936,-1.455781811645105,-4.528268850171083e-06,2.307625713088258e-05,-1.164625449316084e-05,2.96030641518747e-05,3.329845147543346e-05
228.3515391284732,261.9326790479955,12.5,0,0.6434033390389398,7.895720839166574,-1.73708802471542,-4.257685986408652e-06,2.475158401410188e-05,-1.389670419772336e-05,3.261659449024992e-05,3.291029566138193e-05
230.1481987821588,262.1105595372853,12.5,0,0.4936664700542175,7.324970138893712,-1.687487563197009,-4.280243406941473e-06,2.30449712684165e-05,-1.349990050557607e-05,2.996565747128077e-05,3.015445021156738e-05
228.3224031694577,263.3583804052054,12.5,0,0.3407114895165317,7.146319998006332,-1.143730503650875,-4.626779231952163e-06,2.259565480200703e-05,-9.149844029207003e-06,2.86484577774723e-05,3.090333594109787e-05
230.1243282827102,263.5280418790762,12.5,0,0.189903753819447,6.575710051065988,-1.08901416849606,-4.652876028630559e-06,2.08903491603556e-05,-8.712113347968483e-06,2.599183734260224e-05,2.825744913896018e-05
228.2826027092773,265.3059246774467,12.5,0,0.4364682963952853,7.158605224872057,-1.371077063430396,-4.330185631432732e-06,2.255836208247435e-05,-1.096861650744317e-05,2.905264341161297e-05,2.869473937258161e-05
230.091720574061,265.4643587674607,12.5,0,0.2868290424909563,6.59027616039774,-1.317962377466632,-4.354367992347131e-06,2.085942047928e-05,-1.054369901973306e-05,2.640966675019228e-05,2.621874709023037e-05
231.4434290169893,263.6522426980314,12.5,0,0.1180650944710158,6.121781302440592,-0.5040001761489147,-4.519616739645223e-06,1.949524809223308e-05,-4.032001409191318e-06,2.391751689957479e-05,2.626002583023169e-05
233.2453541302418,263.8219041719022,12.5,0,-0.08587261631531873,5.354265181997077,-0.4257852717865377,-4.558204517806681e-06,1.72023466754429e-05,-3.406282174292302e-06,2.03445993582367e-05,2.344885066846881e-05
231.4160867679069,265.580340570997,12.5,0,0.2599048020425376,6.146477640981153,-0.8068377211238391,-4.085486746248802e-06,1.946080460950566e-05,-6.454701768990713e-06,2.449783276725233e-05,2.436977618889233e-05
233.2252046326906,265.738774661011,12.5,0,0.05764045495995651,5.38211283221369,-0.7307999585226836,-4.12124080989909e-06,1.717664869911584e-05,-5.846399668181469e-06,2.093781625162558e-05,2.179428602685688e-05
231.4907871815923,260.3126792201496,12.5,0,0.1929741480400351,6.79700043280675,-0.6892941850919292,-4.820083072517287e-06,2.159602206654957e-05,-5.514353480735434e-06,2.676363070377093e-05,3.104916921552014e-05
233.2802540837468,260.5017870932963,12.5,0,-0.03930319887218658,5.932589495825119,-0.5939869914427947,-4.871841833051091e-06,1.901572894573813e-05,-4.751895931542357e-06,2.272801759547326e-05,2.779037934283799e-05
231.4634449325099,262.2407770931151,12.5,0,0.3638529852961436,6.827523956376202,-1.032384354970742,-4.297689612153301e-06,2.155699427216693e-05,-8.259074839765939e-06,2.747376118896731e-05,2.804976379759098e-05
233.2601045861956,262.418657582405,12.5,0,0.1335525669503939,5.966703206905403,-0.9395868298019816,-4.345994351283061e-06,1.898660820853697e-05,-7.516694638415853e-06,2.345401452429397e-05,2.505549903017759e-05
140.8161389442192,129.8768606541232,12.5,0,0.4260427641584815,0.5222623232890642,1.821868624148658,9.455269866758895e-07,1.33040522319822e-06,1.457494899318926e-05,5.458672195553203e-06,6.206538194894026e-06
143.2513263480409,129.686680992221,12.5,0,0.4877954184472241,0.6538741843538644,1.973262003031754,1.037845991548025e-06,1.702161055174586e-06,1.578609602425403e-05,6.221021083835863e-06,6.590523690547375e-06
140.7930962041867,131.7188609770253,12.5,0,0.7483089073429597,0.6040162721068585,1.861346895143844,1.911375485811984e-06,1.334204944867579e-06,1.489077516115075e-05,6.638265289903047e-06,6.939757880580726e-06
142.8953184736326,131.4291472339483,12.5,0,0.8484150520335725,0.7654083930237499,2.042310928230725,2.102601452088432e-06,1.770574816049141e-06,1.63384874258458e-05,7.659678174673742e-06,7.257474904646587e-06
136.5982706349241,130.2062614910982,12.5,0,0.4292259868693026,0.3927872950333198,1.825775682648311,1.059293321955112e-06,9.135385546111814e-07,1.460620546118649e-05,5.136067018651286e-06,5.589191357197139e-06
139.0334580387458,130.016081829196,12.5,0,0.4690661267424229,0.4446799627645253,1.964694665656317,1.145267635364133e-06,1.047722979452542e-06,1.571755732525054e-05,5.601512123869017e-06,5.938232004826009e-06
137.151940424769,132.2206598996767,12.5,0,0.7514571212317225,0.4631389259773238,1.807135539457314,2.034151647159653e-06,8.808788661420581e-07,1.445708431565851e-05,6.171554721364637e-06,6.445262701458445e-06
139.254162694215,131.9309461565997,12.5,0,0.821383405174855,0.52810265173625,1.96557377062964,2.205944775170536e-06,1.032821761416116e-06,1.572459016503712e-05,6.79170790245305e-06,6.722126276660534e-06
137.5572548415342,133.6953018813793,12.5,0,0.9587327796475431,0.3900420051579986,1.781541966103762,2.755911290745739e-06,4.811481927875609e-07,1.42523357288301e-05,6.541836565832092e-06,7.128033324651654e-06
139.4157297154786,133.3327241338008,12.5,0,1.026640063046547,0.4502782870125338,1.893272058456089,2.925025572138922e-06,6.195784680028708e-07,1.514617646764871e-05,7.075543914252875e-06,7.34164569423306e-06
138.1109246313792,135.7097002899578,12.5,0,1.297319779727296,0.4606012435758354,1.766757892777579,3.782942300266677e-06,4.36068155660837e-07,1.413406314222063e-05,7.780516044945242e-06,8.137326012948966e-06
139.6364343709477,135.2475884612044,12.5,0,1.413294162170038,0.5402388662309936,1.899745117491528,4.090350225959328e-06,5.981290422031485e-07,1.519796093993222e-05,8.557372274992213e-06,8.250309947554112e-06
140.7762277477381,133.0672988008907,12.5,0,0.8940979002343059,0.4940941504746786,1.763890419236168,2.465837960370035e-06,8.65822961331527e-07,1.411112335388935e-05,6.614676998606795e-06,7.512138992196298e-06
142.6347026216823,132.7047210533121,12.5,0,0.9770532725989305,0.6099385769385892,1.882016205523201,2.638619610765706e-06,1.170160828124341e-06,1.50561296441856e-05,7.365571809679033e-06,7.76432297502024e-06
140.7531850077055,134.9092991237928,12.5,0,1.219433143718812,0.57673769548732,1.807294197720003,3.440795903510342e-06,8.700141105843747e-07,1.445835358176002e-05,7.924335690481918e-06,8.342693584802573e-06
142.278694747274,134.4471872950394,12.5,0,1.362752623814329,0.7313128909818547,1.959903359386941,3.775758083420369e-06,1.249999152090472e-06,1.567922687509553e-05,9.040248708709927e-06,8.482106440958967e-06
193.6661987112809,295.9817027150999,12.5,0,1.446807460521839,5.329574413070646,-2.93458856162972,3.661243432133681e-07,1.58971921534086e-05,-2.347670849303776e-05,2.614884093812794e-05,2.593245982712889e-05
195.3765309630644,294.4717475129615,12.5,0,1.316457066313717,5.471674494003125,-2.948054925663646,-1.646769829986044e-07,1.645619272775902e-05,-2.358443940530917e-05,2.62636226839263e-05,2.625511446499665e-05
194.2189933487702,298.4136025183437,12.5,0,1.180797958617557,5.213012126416309,-2.824960433251445,-3.918562335568653e-07,1.573700043763814e-05,-2.259968346601156e-05,2.480143307462033e-05,2.487317615686812e-05
195.8276282604814,296.616490492764,12.5,0,1.007488183689084,5.340429524662406,-2.822119095962992,-1.048381431924858e-06,1.628338393196843e-05,-2.257695276770393e-05,2.472220535005776e-05,2.529558003362703e-05
196.6285810691404,293.3663835878904,12.5,0,1.393680321486642,5.571743805001732,-2.880584050991191,2.381984755869381e-09,1.671463591881622e-05,-2.304467240792953e-05,2.682949746755239e-05,2.648935673712489e-05
198.3389133209239,291.8564283857521,12.5,0,1.252657670934832,5.71130310263555,-2.898553074752299,-5.605379351169778e-07,1.727404379168589e-05,-2.318842459801839e-05,2.690701763125814e-05,2.680666388801908e-05
197.005230746633,295.3009131832026,12.5,0,1.179805175071265,5.485427819123784,-2.798124886069921,-6.12965695070981e-07,1.66095248811391e-05,-2.238499908855937e-05,2.57788551359702e-05,2.560814296433856e-05
198.6138656583442,293.5038011576229,12.5,0,0.9909554021219793,5.611220177727615,-2.799692266889346,-1.317918855391759e-06,1.716314024703078e-05,-2.239753813511477e-05,2.564993751346809e-05,2.603967689488247e-05
195.9762046910805,290.0156800401242,12.5,0,1.514659646153234,5.760506828231235,-3.08900467053624,2.385054051053602e-07,1.722189413341736e-05,-2.471203736428992e-05,2.804887033619834e-05,2.809009893619382e-05
197.8626819028607,289.0030950459175,12.5,0,1.44015952716176,5.897944324968002,-3.13662088206021,-1.098449730567696e-07,1.77212942181682e-05,-2.509296705648168e-05,2.834815396186474e-05,2.819852000519522e-05
196.3528543685731,291.9502096354364,12.5,0,1.316976864056148,5.68432249422913,-3.020107729152311,-3.331320304036304e-07,1.713625049028829e-05,-2.416086183321849e-05,2.709438604662098e-05,2.715439483541241e-05
198.137634240281,290.6504678177883,12.5,0,1.201827459388954,5.810557373730821,-3.055533274658783,-8.025980289400048e-07,1.763232162842746e-05,-2.444426619727027e-05,2.721891314762223e-05,2.738512415599487e-05
192.7087303130151,291.7695286970405,12.5,0,1.621622778288605,5.567956204394378,-3.207367628338907,7.348279270080353e-07,1.652016163143112e-05,-2.565894102671126e-05,2.77707337167902e-05,2.784030893061187e-05
194.5952075247953,290.7569437028338,12.5,0,1.56709279694434,5.738661390215031,-3.240228933641295,4.23767838049862e-07,1.711004221113262e-05,-2.592183146913036e-05,2.824235360683377e-05,2.799411656804232e-05
193.2615249505044,294.2014285002843,12.5,0,1.387154498466846,5.461260553100009,-3.103869645041825,6.988595261389965e-08,1.636631017114655e-05,-2.48309571603346e-05,2.656071113822606e-05,2.67275006576647e-05
195.0463048222122,292.9016866826362,12.5,0,1.297286315364025,5.619808407955344,-3.122274550207182,-3.445305171993936e-07,1.694555785316588e-05,-2.497819640165746e-05,2.68685449866831e-05,2.69781851501166e-05
137.6780939168603,141.9963975277945,12.5,0,2.273249730452266,0.3760524658837494,1.688066227584677,6.973557164740251e-06,-6.152318935338146e-07,1.350452982067741e-05,1.076381925607827e-05,1.095034263784202e-05
139.2861352800792,140.85853395057,12.5,0,2.384739738971097,0.3751381545153502,1.743071086767555,7.331056641095229e-06,-7.07349696727757e-07,1.394456869414044e-05,1.120746916845882e-05,1.082524687233882e-05
139.0350491902476,143.6718020829726,12.5,0,2.477770256458263,0.4544893737420805,1.61467432668948,7.565273321672776e-06,-5.278502091919527e-07,1.291739461351584e-05,1.166711095191754e-05,1.213460126473856e-05
140.3736959767856,142.6377127240495,12.5,0,2.616235411586816,0.4565448824197653,1.676045332517676,8.006717411141999e-06,-6.320447055262039e-07,1.340836266014141e-05,1.222331118497419e-05,1.199726977622693e-05
135.3277784397972,139.0945117150458,12.5,0,1.749141229423927,0.2958137301843711,1.729641314495215,5.360600950009068e-06,-4.527090469491537e-07,1.383713051596172e-05,8.750413613308682e-06,9.024741707919845e-06
137.4024248971027,137.7769059192107,12.5,0,1.871579631102069,0.2810549837643347,1.797554343730768,5.764210832515153e-06,-5.978877568357842e-07,1.438043474984614e-05,9.199771026580253e-06,8.914932224250944e-06
136.6847337131845,140.7699162702239,12.5,0,1.945461153382558,0.3774418424016331,1.65657607632708,5.92352221690288e-06,-3.485550270208209e-07,1.325260861061664e-05,9.586658981981273e-06,1.011705828104417e-05
138.4899855938091,139.5560846926903,12.5,0,2.089947659583517,0.3632701902373422,1.731111184765307,6.397216358477378e-06,-5.094935189073183e-07,1.384888947812246e-05,1.012322747324703e-05,9.999337014512431e-06
131.7343853680658,141.3766718977382,12.5,0,2.037280540538064,0.1055181797921698,1.64758924871911,6.434883185888067e-06,-1.292166257095507e-06,1.318071398975288e-05,9.100534175551009e-06,9.192446555337385e-06
133.8090318253713,140.0590661019032,12.5,0,2.11926194964215,0.03679371292343692,1.687378733799605,6.752203268516128e-06,-1.577669678358721e-06,1.349902987039684e-05,9.231701135660173e-06,9.099101448820206e-06
133.5579457355397,142.8723342343058,12.5,0,2.191243429010815,0.2296528824072869,1.559539858175983,6.828256666908777e-06,-1.018105519505334e-06,1.247631886540786e-05,9.915374578128876e-06,1.032874983538895e-05
135.3631976161643,141.6585026567722,12.5,0,2.287898198599561,0.1560352844625256,1.601689005262963,7.196446007948574e-06,-1.331005648599567e-06,1.281351204210371e-05,1.008133483336657e-05,1.020532418037175e-05
134.8928845751428,143.967235055594,12.5,0,2.548638459447252,0.1883139518555204,1.608201766540147,8.004991908746789e-06,-1.436306121620136e-06,1.286561413232118e-05,1.111387237009993e-05,1.117536915141872e-05
136.5009259383617,142.8293714783695,12.5,0,2.621771070252264,0.1560075190056694,1.639789026022531,8.26486140960271e-06,-1.598192795383669e-06,1.311831220818025e-05,1.130883839635662e-05,1.104415761977071e-05
136.7164449426166,145.4628973921616,12.5,0,2.692831351108787,0.2884091970474064,1.52907159292912,8.386332965910192e-06,-1.231355650335329e-06,1.223257274343296e-05,1.186981523199355e-05,1.235207285752802e-05
138.0550917291546,144.4288080332385,12.5,0,2.782890491374741,0.2547284526192466,1.562700716071697,8.701466810303774e-06,-1.411181344718204e-06,1.250160572857358e-05,1.212242470951547e-05,1.22296704638423e-05
140.204326715865,185.8689685820108,12.5,0,8.424450432603724,0.1269020097082008,-0.6359443555082513,2.685671977656535e-05,-6.333473915016736e-06,-5.08755484406601e-06,3.279825631631876e-05,3.165524414649581e-05
142.7145690345538,187.3446459381263,12.5,0,8.530241737783541,0.2259604302540428,-0.7081514695221538,2.711600521670409e-05,-6.101120013413895e-06,-5.66521175617723e-06,3.351563089041709e-05,3.33048289649192e-05
139.9408312900447,188.4866650234683,12.5,0,8.279475676881971,0.09796232405925265,-0.6124656114394461,2.64159523067749e-05,-6.310101104515966e-06,-4.899724891515569e-06,3.215094256098893e-05,3.234183818153702e-05
142.39692619243,189.7382541595394,12.5,0,8.377503896734673,0.1979644390079245,-0.6851773368713409,2.664964091834461e-05,-6.068516912562379e-06,-5.481418694970727e-06,3.284097386897167e-05,3.388209056631416e-05
135.8564594806645,183.3130204256861,12.5,0,7.879263956346339,-0.1054611247926016,-0.4838080528957902,2.529801356014236e-05,-6.640886764413395e-06,-3.870464423166322e-06,2.998513983104332e-05,2.889093100725011e-05
138.3667017993534,184.7886977818014,12.5,0,7.942258030340724,-0.02534479967257441,-0.5281785430383681,2.543550153682837e-05,-6.434909783224817e-06,-4.225428344306945e-06,3.047312964497422e-05,3.047254375330181e-05
135.6867501309791,186.318849049631,12.5,0,7.790494835262434,-0.1234631824040826,-0.4560249145219263,2.502835401876305e-05,-6.627478051903011e-06,-3.648199316175411e-06,2.958743664958762e-05,2.978817742383399e-05
138.1428450333643,187.570438185702,12.5,0,7.849243845244484,-0.0423066490291486,-0.499762788547268,2.515142562400566e-05,-6.414776353088861e-06,-3.998102308378144e-06,3.006177709432977e-05,3.124487746116043e-05
135.5625142644952,188.5192683211099,12.5,0,8.266682123699283,-0.1156919303142052,-0.8544085902487717,2.654593634008907e-05,-6.983559875964882e-06,-6.835268721990174e-06,3.149119013227124e-05,3.04082630839599e-05
137.9789705070492,189.6068134947378,12.5,0,8.310091921357998,-0.04108980835271447,-0.8878904143383208,2.662516599502776e-05,-6.779560923815084e-06,-7.103123314706566e-06,3.18878523723604e-05,3.178204819609789e-05
135.3928049148099,191.5250969450548,12.5,0,8.197674741259135,-0.1286406981528168,-0.8254081439509615,2.633547173055148e-05,-6.969790027096321e-06,-6.603265151607692e-06,3.118287962211155e-05,3.120512219595694e-05
137.7551137410603,192.3885538986384,12.5,0,8.237449802896815,-0.0527480434746419,-0.8578147838427804,2.640203780404952e-05,-6.758753581436305e-06,-6.862518270742243e-06,3.156904756738756e-05,3.247729222848991e-05
139.7479392507906,190.4029518173259,12.5,0,8.698264448405176,0.09146846511562234,-0.9908236325771141,2.776127146280407e-05,-6.665912470354149e-06,-7.926589060616913e-06,3.379511689902357e-05,3.281969118519531e-05
142.1643954933446,191.4904969909539,12.5,0,8.76474301148923,0.1957043630729252,-1.042520489945541,2.789061414630719e-05,-6.385540447358023e-06,-8.340163919564328e-06,3.437657463736221e-05,3.428079943950964e-05
139.4844438249704,193.0206482587834,12.5,0,8.601486848371616,0.07640796347892076,-0.9582723588113937,2.746363154400603e-05,-6.636683995564746e-06,-7.66617887049115e-06,3.337259728660661e-05,3.343861583475349e-05
141.8467526512208,193.884105212367,12.5,0,8.662338909322232,0.1829480572740407,-1.009070280951743,2.757312606401191e-05,-6.344437344180855e-06,-8.072562247613945e-06,3.393900717028905e-05,3.479283073715962e-05
122.9500097374219,126.584118603479,12.5,0,-0.2767415470864999,-0.1989638389318525,1.762508490027732,-7.264018795313176e-07,-4.15291046912728e-07,1.410006792022186e-05,2.477757721473876e-06,2.885504684373815e-06
125.637364991329,126.8355366757285,12.5,0,-0.3116081686586195,-0.1836988349113713,1.927000296965393,-8.501870717784853e-07,-3.385497367894925e-07,1.541600237572314e-05,2.743127493207912e-06,3.171345466237301e-06
123.3325135491574,129.2301420866661,12.5,0,0.1344960149101689,-0.0993937347294287,1.749132072677057,5.099022354960832e-07,-4.256567630623069e-07,1.399305658141646e-05,3.264432991471725e-06,3.430656556875292e-06
126.0227147566301,129.3668227334991,12.5,0,0.1187041487892929,-0.07969069279447452,1.911760346364012,4.436058303613168e-07,-3.499735359737527e-07,1.529408277091209e-05,3.56604179887693e-06,3.751720744315747e-06
122.2874937014192,122.0010714926609,12.5,0,-0.9471266883183022,-0.178593077798333,1.832533666313177,-2.8879309403799e-06,1.862035016999761e-07,1.466026933050542e-05,1.963545039556584e-06,2.257130977049378e-06
124.9699196191545,122.4512206152577,12.5,0,-1.01460466463651,-0.1756118314733843,1.993817430869703,-3.106245461658124e-06,2.497258709943781e-07,1.595053944695763e-05,2.166812584168726e-06,2.476763969069598e-06
122.6699975131547,124.647094975848,12.5,0,-0.5421846040614213,-0.08004194942247883,1.817971121892733,-1.670957173458565e-06,1.776134450972048e-07,1.454376897514186e-05,2.41381927655751e-06,2.571059452971982e-06
125.3552693844557,124.9825066730284,12.5,0,-0.5903733770922036,-0.0725158959986691,1.977336224945903,-1.831182089896116e-06,2.402478344780217e-07,1.581868979956723e-05,2.644001237187202e-06,2.82972182793614e-06
117.6413957244453,121.2213903413546,12.5,0,-1.132168310858408,-0.3429235674863321,1.805611082766571,-3.348599740757839e-06,-1.916207672695365e-07,1.444488866213257e-05,1.663875365095421e-06,1.968883279469762e-06
120.3238216421807,121.6715394639515,12.5,0,-1.198129892281201,-0.3389304178549756,1.963840898458407,-3.562871321015861e-06,-1.260734233109612e-07,1.571072718766726e-05,1.855173962723489e-06,2.121044756423976e-06
118.0189702000092,124.0661448748892,12.5,0,-0.7031900112200251,-0.2384238768272199,1.792495644535423,-2.059468934442304e-06,-2.004043968710837e-07,1.433996515628339e-05,2.026868262709531e-06,2.226977805296228e-06
120.7042420713103,124.4015565720695,12.5,0,-0.7502753916453301,-0.2299756615174141,1.949033269610897,-2.216900724051125e-06,-1.35701803539461e-07,1.559226615688717e-05,2.247718635622697e-06,2.409554678867958e-06
118.2953738997514,126.1486497284098,12.5,0,-0.4218469921200262,-0.3714184457760228,1.729150681879617,-1.052775618163265e-06,-8.51061432787252e-07,1.383320545503694e-05,2.046384968638894e-06,2.50058121260461e-06
120.9827291536584,126.4000678006592,12.5,0,-0.4538886883609247,-0.347875283843588,1.890129464670098,-1.174143575680088e-06,-7.500899576107418e-07,1.512103571736078e-05,2.307175491073664e-06,2.705773944306864e-06
118.6729483753152,128.9934042619443,12.5,0,0.01307205651010857,-0.2669117380690708,1.720174722238522,2.55359971287604e-07,-8.645752070291131e-07,1.376139777790818e-05,2.728045979341132e-06,2.989985096700383e-06
121.3631495827879,129.1300849087773,12.5,0,-0.0003113611350039069,-0.2391054683951795,1.879638033348882,1.902880190841311e-07,-7.648884099565711e-07,1.503710426679105e-05,3.03543987724929e-06,3.22655010525711e-06
223.5083518280504,231.3077940060044,12.5,0.7228960757713482,15.02348350077444,9.621232865027816,-4.46657001246016,0.0001457148650018322,6.773328244886968e-05,-0.0001289500327328336,0.0003262225773091088,0.0003329073554439503
225.3230040465298,232.4558801406443,12.5,0.7578406044478205,14.23696267867408,9.280243366553313,-4.616622726564756,0.0001574751447969213,7.559982790792262e-05,-0.0001525151717871706,0.000356633098019852,0.0003753862276849408
223.3327326998615,233.6586277546209,12.5,0.6877841444863283,14.58158370716048,10.32403374819413,-4.723559919760126,0.0001229977279698937,6.84514916557688e-05,-0.0001210331848647138,0.0002924878261941445,0.0002989615727453679
225.1118612605338,234.5808145823724,12.5,0.7272987119083627,13.83232014003791,9.988295379891392,-4.928850159625377,0.0001330128962647923,7.662849431279583e-05,-0.0001445933811055299,0.0003207520868498093,0.0003377189534516202
223.2041705752518,235.3795574986827,12.5,0.6524740398803388,13.93422732795402,9.457614474637779,-4.744959154369472,0.0001065343028100538,5.50087954577415e-05,-0.0001092283097984547,0.000247220154451945,0.0002711818695513403
224.9572940135397,236.1363745564042,12.5,0.6965916883259826,13.11583385387223,9.132285682940012,-4.9306863081684,0.0001142514507752943,6.173412652727358e-05,-0.0001300079429192682,0.0002697673086026448,0.0003068056273026852
223.0285514470629,237.7303912472993,12.5,0.5828600269318035,13.61281373070492,10.65653661615694,-5.341014885859145,8.399045142480827e-05,5.564239268755875e-05,-0.0001024311306648325,0.0002137845788949355,0.0002292320917014293
224.7461512275437,238.2613089981323,12.5,0.6361462328403772,12.78468786668325,10.319759817028,-5.604448667686808,8.97481248433472e-05,6.265011710361818e-05,-0.0001232241999072805,0.0002338666661608631,0.0002600161238625772
226.2406694422517,236.6904030946675,12.5,0.7258709685317454,13.80308124192332,9.234400724354785,-4.934223701580733,0.0001341789273382026,6.751425496697133e-05,-0.0001439971147937941,0.0003090680855589672,0.0003361433259196504
227.9937928805397,237.4472201523891,12.5,0.7616393460379143,13.06306768430495,8.930181222266212,-5.174603540586024,0.000145400136456563,7.604495734724368e-05,-0.0001736730774839747,0.0003400283315507107,0.0003806716513704057
226.0035215338714,238.6499677663657,12.5,0.6716160714579384,13.60802811784998,10.44039613341182,-5.681125127193001,0.0001071714234817758,6.858692882027865e-05,-0.0001384020260045175,0.000269614641679834,0.0002855638074507193
227.7211213143522,239.1808855171988,12.5,0.7149635864030177,12.83022177120767,10.11799410082239,-6.006688009998093,0.0001156424681718476,7.758097790597382e-05,-0.0001685872463576825,0.0002972496328646005,0.0003245773448710363
226.6514216684678,233.2963375226304,12.5,0.7813348620701089,15.06571102665045,9.40028621453158,-4.565609787878317,0.0001860838298179124,8.244728554288787e-05,-0.0001670356722100677,0.0004107444212897723,0.0004106726922593111
228.4660738869472,234.4444236572703,12.5,0.810288740470265,14.38452459239249,9.061441558674147,-4.79458572951229,0.0002044228979600345,9.218742923954964e-05,-0.000202184551044459,0.0004544061234912125,0.0004645982340590781
226.4142737600874,235.2559021943285,12.5,0.7536061362846472,14.60043176475387,10.08989447194869,-4.951056374474967,0.0001568605057238898,8.363567415071418e-05,-0.0001607525869295086,0.000367891300626467,0.0003696661505690277
228.1934023207598,236.17808902208,12.5,0.7858235793539684,14.00069072864918,9.782702993872618,-5.260818506167315,0.0001726429446577101,9.386699496065901e-05,-0.0001965041152634387,0.0004084981091280284,0.0004181901355506615
137.3808029084866,237.4070103089917,12.5,0,8.297018699475926,1.14788835052894,-4.131641150298141,2.56321491578998e-05,-2.964372237888131e-06,-3.305312920238513e-05,3.693680659785489e-05,3.629349715434367e-05
140.1077025238716,238.0506408762296,12.5,0,8.416027891845493,1.343576430721587,-4.266084125862539,2.585642810932831e-05,-2.433377735167318e-06,-3.412867300690031e-05,3.80729789392122e-05,3.721935009331786e-05
137.6458876886518,240.2001255085514,12.5,0,7.966083431581751,1.048915547874921,-4.051575263790982,2.465233454276166e-05,-3.016336992065654e-06,-3.241260211032785e-05,3.535900089275759e-05,3.613713316765776e-05
140.3196681639908,240.7991265499715,12.5,0,8.083332510083912,1.24710401503691,-4.187589827458792,2.486898082023898e-05,-2.475933159949017e-06,-3.350071861967034e-05,3.649680155257133e-05,3.700277266258212e-05
136.9216626009352,232.5691928720482,12.5,0,8.569498788602257,0.9442468891328772,-3.902592569949016,2.666699861222091e-05,-3.834008985656597e-06,-3.122074055959213e-05,3.716295444784463e-05,3.642674599777082e-05
139.7405672657326,233.2901240455189,12.5,0,8.693816190848295,1.133324943533285,-4.039261378751488,2.691355185588791e-05,-3.328413133372123e-06,-3.23140910300119e-05,3.82940318512324e-05,3.745239860266179e-05
137.1867473811006,235.3623080716079,12.5,0,8.245033818235827,0.8481761965230907,-3.828158669622381,2.570556726113617e-05,-3.881863225714771e-06,-3.062526935697905e-05,3.561920760882327e-05,3.637109867828773e-05
139.952532905852,236.0386097192608,12.5,0,8.367820009199658,1.039588400055406,-3.966456063790962,2.594535330939458e-05,-3.367573127182428e-06,-3.17316485103277e-05,3.675210607801383e-05,3.733982700085454e-05
132.0391764999011,231.3205034508591,12.5,0,8.391720431950212,0.6492853283547568,-3.672183729128623,2.633407711955687e-05,-4.635663294824948e-06,-2.937746983302898e-05,3.545494439738267e-05,3.47037977004305e-05
134.8580811646984,232.0414346243298,12.5,0,8.501386907941747,0.8148723712325465,-3.793094741508332,2.655254020842755e-05,-4.193517938409248e-06,-3.034475793206666e-05,3.644367652638827e-05,3.569026060572541e-05
132.3962663294787,234.1909192566516,12.5,0,8.095236782897837,0.5575499496750345,-3.601934952538324,2.545871774553305e-05,-4.692029587358159e-06,-2.881547962030659e-05,3.403206636788294e-05,3.473559406977177e-05
135.1620518542301,234.8672209043046,12.5,0,8.203461453155153,0.7250530300038227,-3.724207513809128,2.567103422609343e-05,-4.242599466511889e-06,-2.979366011047303e-05,3.502120903351789e-05,3.567329656752329e-05
132.6576742275846,236.2922094652512,12.5,0,8.170532836832091,0.8642325163088116,-3.915457897580278,2.545431906481564e-05,-3.770882217277475e-06,-3.132366318064222e-05,3.545170690185022e-05,3.472342480796261e-05
135.3845738429696,236.9358400324892,12.5,0,8.275052058986962,1.029568790402504,-4.035680461747416,2.565651155643628e-05,-3.325421517901556e-06,-3.228544369397932e-05,3.642574545138637e-05,3.562471598978512e-05
133.0147640571623,239.1626252710437,12.5,0,7.863090340300632,0.7690229019867769,-3.842345268074888,2.45466707673726e-05,-3.829598985882819e-06,-3.07387621445991e-05,3.397758942718794e-05,3.465838139706669e-05
135.6885445325013,239.7616263124639,12.5,0,7.965896135685059,0.936290789560916,-3.963926312576817,2.474183500254345e-05,-3.376586381953115e-06,-3.171141050061453e-05,3.495136128679377e-05,3.550895542133988e-05
174.6986920862817,194.6167942705397,12.5,0,12.23162928553513,3.30560295434762,-1.568861639753095,3.649673135023433e-05,7.926260254842747e-07,-1.255089311802476e-05,5.764689040259516e-05,5.68509705870229e-05
176.8886461422371,194.332184362083,12.5,0,12.33857905962042,3.480959678840881,-1.366891887307098,3.669868524771262e-05,1.268207724594485e-06,-1.093513509845678e-05,5.859942917454629e-05,5.873323584766589e-05
175.6529559290018,196.5930989699986,12.5,0,12.62486220309895,3.347343028253261,-1.595933986804821,3.772168462731404e-05,6.116079279312736e-07,-1.276747189443857e-05,5.928338893123088e-05,5.843170391538946e-05
177.9140145050323,196.149952795467,12.5,0,12.753141635516,3.514478893065772,-1.408815474251437,3.799847011919859e-05,1.043819149397669e-06,-1.127052379401149e-05,6.029182186749649e-05,6.043778282267724e-05
173.0458586268941,191.1937341199012,12.5,0,11.68999873416222,3.084596547594485,-1.146793239151839,3.49403187112435e-05,5.187099649725784e-07,-9.174345913214716e-06,5.479319734479806e-05,5.40605035663369e-05
175.1126560414339,191.1837170791237,12.5,0,11.7272280774631,3.225787698550415,-0.9871238530480084,3.494649968904158e-05,9.407381733908494e-07,-7.896990824384067e-06,5.538079377278843e-05,5.580257118122651e-05
174.0001224696143,193.1700388193601,12.5,0,12.02519586130986,3.116094034590004,-1.166685356101564,3.598775152851956e-05,3.513442216401211e-07,-9.333482848812515e-06,5.617499378766598e-05,5.567971098357607e-05
176.1380244042292,193.0014855125077,12.5,0,12.08674840726375,3.249671850520151,-1.020097091258156,3.607785742282786e-05,7.295511958534855e-07,-8.160776730065252e-06,5.683114442222887e-05,5.749123463163049e-05
169.4660604960233,191.2110841434688,12.5,0,11.30904469716665,2.558626720926698,-1.185277907955972,3.414204165419192e-05,-8.596302507678883e-07,-9.482223263647778e-06,5.162292150281773e-05,5.113614727085978e-05
171.5328579105633,191.2010671026914,12.5,0,11.34994016790198,2.715660621101474,-1.049889981324744,3.414728004040514e-05,-3.898381467968659e-07,-8.399119850597951e-06,5.227341348421379e-05,5.281013904805178e-05
170.297167697328,193.461981710607,12.5,0,11.63861185593224,2.589358967028365,-1.176854024643312,3.517207076536046e-05,-1.024940790255021e-06,-9.414832197146496e-06,5.297805822141625e-05,5.267701962645066e-05
172.4350696319429,193.2934284037546,12.5,0,11.70022330496011,2.738658054448918,-1.049412185838165,3.524978813231321e-05,-5.9647286973155e-07,-8.395297486705317e-06,5.368337650283415e-05,5.43897459607885e-05
170.9055803951935,195.1097530923153,12.5,0,11.80759421577795,2.783026889366749,-1.627920151010157,3.555787997899604e-05,-5.40389326648765e-07,-1.302336120808125e-05,5.43298871737709e-05,5.375581288619918e-05
173.0955344511489,194.8251431838586,12.5,0,11.88841068271803,2.915603836714291,-1.475351351828205,3.571043111532627e-05,-1.807962686886959e-07,-1.180281081462564e-05,5.504334511290376e-05,5.551727412415127e-05
171.7366875964982,197.3606506594535,12.5,0,12.15407773354895,2.831836251921963,-1.636329145984606,3.662757974581907e-05,-6.613861806888804e-07,-1.309063316787685e-05,5.580926799537469e-05,5.516225852722939e-05
173.9977461725286,196.9175044849218,12.5,0,12.25237693968691,2.959983253251005,-1.492973472463655,3.683961960439729e-05,-3.299551413463078e-07,-1.194378777970924e-05,5.657671673938299e-05,5.701813144081743e-05
141.7719886948765,233.8597306569121,12.5,0,8.717905097565726,1.265071962338974,-4.141333393109736,2.688523874233914e-05,-2.926093798567863e-06,-3.313066714487789e-05,3.885765252372376e-05,3.821009595743064e-05
144.5030305863206,234.694993686161,12.5,0,8.882711985897284,1.497353833905931,-4.304306935356609,2.722679528774656e-05,-2.314637320218848e-06,-3.443445548285287e-05,4.029618902821961e-05,3.925451102261669e-05
141.951773075772,236.5656131381801,12.5,0,8.350173560134431,1.160710794239543,-4.057431860092072,2.579198675703854e-05,-2.965864306541006e-06,-3.245945488073658e-05,3.712150331719223e-05,3.805235161217379e-05
144.6480132720069,237.3291116068386,12.5,0,8.508116472163357,1.393200998075069,-4.220296593653348,2.611141191246268e-05,-2.348249983890466e-06,-3.376237274922678e-05,3.853459295700362e-05,3.90302767294572e-05
142.0833843769891,238.5464565936947,12.5,0,8.400348870824331,1.46675672002796,-4.350245555888097,2.570771101061549e-05,-2.026657592569994e-06,-3.480196444710477e-05,3.845685044743873e-05,3.789964445940319e-05
144.7541479641426,239.2574197578204,12.5,0,8.546634288237149,1.696511702110775,-4.504318451028012,2.599202036067025e-05,-1.40846998383524e-06,-3.603454760822409e-05,3.981928220752617e-05,3.883239029275598e-05
142.2631687578844,241.2523390749628,12.5,0,8.040637842854048,1.363983395064032,-4.264034463072815,2.463885438108173e-05,-2.067763410078336e-06,-3.411227570458252e-05,3.675678840160287e-05,3.764018510459382e-05
144.8991306498289,241.8915376784982,12.5,0,8.179893967846729,1.593959703555486,-4.417834455992995,2.490049293426514e-05,-1.443244122899826e-06,-3.534267564794395e-05,3.809337820125031e-05,3.851598878669599e-05
146.7092826048607,239.7778809162483,12.5,0,8.46951435189604,1.820885830805606,-4.571338072002007,2.564573726142284e-05,-9.487768229388929e-07,-3.657070457601606e-05,3.997441790451128e-05,3.952085256757573e-05
149.3800461920142,240.488844080374,12.5,0,8.630496453220001,2.077575738167683,-4.73985306183679,2.595552805976985e-05,-2.561548004394133e-07,-3.791882449469432e-05,4.149267780674449e-05,4.04690206482049e-05
146.8287886814656,242.3594635323932,12.5,0,8.096776827002582,1.718139714838367,-4.482290394668926,2.453517407453756e-05,-9.793743741192892e-07,-3.58583231573514e-05,3.822475151262805e-05,3.916238142787222e-05
149.46475057341,242.9986621359286,12.5,0,8.250270546761998,1.975394986940994,-4.650627164979934,2.48205497600856e-05,-2.789524791984178e-07,-3.720501731983947e-05,3.971703165302649e-05,4.005255528317722e-05
146.5022920083716,235.306448661229,12.5,0,8.825809617797779,1.627479449824324,-4.385155350815246,2.694060721709343e-05,-1.852713454800388e-06,-3.508124280652197e-05,4.054713100146315e-05,4.002713195064536e-05
149.2333338998157,236.1417116904778,12.5,0,9.008874612253132,1.891605413530377,-4.564933432771425,2.731511442838572e-05,-1.1539623665053e-06,-3.65194674621714e-05,4.217161419774582e-05,4.109355651591436e-05
146.6217980849764,237.888031277374,12.5,0,8.4422694295992,1.522158472769271,-4.297006621917142,2.579753539650202e-05,-1.882908430817691e-06,-3.437605297533714e-05,3.87466181567046e-05,3.975256177179997e-05
149.3180382812114,238.6515297460324,12.5,0,8.618002024182321,1.786863963652721,-4.476769181419278,2.614811530646125e-05,-1.176436935657147e-06,-3.581415345135422e-05,4.034554334047151e-05,4.074795608782793e-05
175.2123348989306,184.2012490940199,12.5,0,11.23692024636749,3.09577816256256,-0.4187719319669034,3.348152225832591e-05,9.16953923106199e-07,-3.350175455735227e-06,5.303744483615707e-05,5.247170468972854e-05
177.4763504435935,184.7334573043774,12.5,0,11.31524865769375,3.412728810585523,-0.4451860385724833,3.347861265615159e-05,1.868533267718669e-06,-3.561488308579866e-06,5.438854512535226e-05,5.466094998855509e-05
174.4002951333532,186.2247975391523,12.5,0,11.26876013080512,3.209433919246367,-0.3128672924488295,3.349248528317929e-05,1.255180436944277e-06,-2.502938339590637e-06,5.353034404760122e-05,5.286987892247081e-05
176.5922517047803,186.600716195184,12.5,0,11.35418581964775,3.55402084360383,-0.3333590533931627,3.349017794798974e-05,2.289518043814055e-06,-2.666872427145302e-06,5.500219305395853e-05,5.491481916870524e-05
171.2909449465193,183.279437433492,12.5,0,10.68514470863089,2.62490557359487,-0.3695639376124918,3.209253860874295e-05,-1.484179314011286e-07,-2.956511500899935e-06,4.938054568515236e-05,4.89001323565596e-05
173.5549604911821,183.8116456438495,12.5,0,10.73299263013656,2.882642374444982,-0.3644506817726039,3.203946251688101e-05,6.380614941146944e-07,-2.915605454180832e-06,5.041157138532732e-05,5.092809825754042e-05
170.6037149837254,185.5736873274044,12.5,0,10.78052828705275,2.722751719083778,-0.2622491795257597,3.231948914330176e-05,8.838287142589165e-08,-2.097993436206078e-06,5.006143012810423e-05,4.952811764069669e-05
172.7956715551524,185.949605983436,12.5,0,10.83705368001829,3.000835838079261,-0.2500455722926769,3.227790310559512e-05,9.330317378390001e-07,-2.000364578341415e-06,5.119409280233103e-05,5.142651659821834e-05
170.1006277344981,187.2531948149364,12.5,0,11.00109023629411,2.468018326662977,-0.7743629542420361,3.322907409481076e-05,-9.032135437137597e-07,-6.194903633936289e-06,5.010188177311873e-05,4.993003113078162e-05
172.2398334763774,187.514701576514,12.5,0,11.05677974349797,2.73140251115699,-0.7533276720961429,3.319657317026791e-05,-1.049357590960081e-07,-6.026621376769144e-06,5.117461707236615e-05,5.174060838786258e-05
169.4133977717043,189.5474447088487,12.5,0,11.11647280542762,2.576292979700588,-0.6577149880560018,3.351167859360791e-05,-6.490407093002158e-07,-5.261719904448015e-06,5.088519924427659e-05,5.040009392185059e-05
171.4805445403478,189.6526619161004,12.5,0,11.18362844022152,2.863234256056554,-0.6272254076758883,3.349702360386361e-05,2.154468672037601e-07,-5.017803261407106e-06,5.208048571042297e-05,5.210030477476942e-05
173.8058407672096,187.7061378125034,12.5,0,11.42885776083432,2.895767381727766,-0.8183853667057277,3.42557309292876e-05,1.233694128613969e-07,-6.547082933645821e-06,5.31387056456757e-05,5.311118438571378e-05
175.9450465090889,187.967644574081,12.5,0,11.49569904599039,3.183455526225568,-0.8150107755435076,3.423947252618879e-05,9.904984471295072e-07,-6.520086204348061e-06,5.434178576530573e-05,5.50450903905559e-05
172.9938010016322,189.7296862576359,12.5,0,11.49752893009991,3.014767469428274,-0.7106341321127445,3.438027860077708e-05,4.492327580905473e-07,-5.685073056901956e-06,5.37821208745848e-05,5.337226893872326e-05
175.0609477702756,189.8349034648876,12.5,0,11.57446267143432,3.331802063791341,-0.6984268424296597,3.437283889755674e-05,1.402196466984836e-06,-5.587414739437278e-06,5.5122292674197e-05,5.514712880728093e-05
122.217496026343,117.5752611753514,12.5,0,-1.586723747445356,-0.1606037963510705,1.871971213272505,-4.949032954744283e-06,7.554468496328594e-07,1.497576970618004e-05,1.710056188736243e-06,1.955434528265695e-06
125.177402921571,118.2990846666848,12.5,0,-1.664173119738381,-0.1025459705779834,2.014824028232106,-5.243317206700431e-06,1.003191389941158e-06,1.611859222585685e-05,1.917866910450497e-06,2.137996623520532e-06
122.1662462934578,120.1061793368697,12.5,0,-1.235019077672581,-0.0713045287132768,1.901762805789807,-3.895017425581637e-06,7.598407702555788e-07,1.521410244631846e-05,1.994184612391649e-06,2.092174775638992e-06
124.9222604440655,120.6604030860373,12.5,0,-1.299833863869087,-0.003905213308305844,2.057476877324631,-4.156344193734433e-06,1.027370408508691e-06,1.645981501859704e-05,2.256254762284456e-06,2.291416759167951e-06
122.3062631675728,113.1915823298818,12.5,0,-2.198210521999798,-0.09993687806191287,1.925281222444223,-6.954324167949823e-06,1.438770407801717e-06,1.540224977955378e-05,1.665483712441441e-06,1.828503940745105e-06
125.6193226557717,114.2091611915916,12.5,0,-2.313014080916716,-0.06315288049291601,2.078724348824533,-7.351122754539157e-06,1.648322047156041e-06,1.662979479059626e-05,1.845010104592677e-06,1.977994169515463e-06
122.2550134346877,115.7225004914,12.5,0,-1.861881741079132,-0.0148198930408468,1.948273890502311,-5.946165657020545e-06,1.442081735132596e-06,1.558619112401849e-05,1.842975140649905e-06,1.884784140990437e-06
125.3641801782662,116.570479610944,12.5,0,-1.968884378960928,0.02850921203696422,2.11344814055614,-6.323237382304542e-06,1.666336981687028e-06,1.690758512444912e-05,2.056105000417454e-06,2.054015293736091e-06
116.5678758056174,111.4290840407239,12.5,0,-2.546123019265053,-0.266047387243223,1.889061729231629,-7.934755751853591e-06,1.185546776233729e-06,1.511249383385303e-05,1.468126520556237e-06,1.640012473323668e-06
119.8809352938163,112.4466629024338,12.5,0,-2.685994384526395,-0.2645155396516804,2.067234959508604,-8.383569598763119e-06,1.302345780735739e-06,1.653787967606883e-05,1.63226060201475e-06,1.737942018196831e-06
116.8697786657031,114.2537575726186,12.5,0,-2.12344857892015,-0.1637712509633133,1.884780890609087,-6.66401845177383e-06,1.174690860053517e-06,1.50782471248727e-05,1.585155206743458e-06,1.668541049168121e-06
119.9789454092815,115.1017366921627,12.5,0,-2.253969839249893,-0.1577053345775201,2.0742091052016,-7.086539217937641e-06,1.29851880075185e-06,1.65936728416128e-05,1.776930620213722e-06,1.781496628458667e-06
117.0907868982267,116.3215621126726,12.5,0,-1.838447890278379,-0.2989087579042476,1.854657498699582,-5.643906242567412e-06,5.142502869291102e-07,1.483725998959666e-05,1.509922396909731e-06,1.720282639984243e-06
120.0506937934547,117.045385604006,12.5,0,-1.933885201568835,-0.291627943553,2.010696206502171,-5.95513029017787e-06,6.138987418854676e-07,1.608556965201737e-05,1.674453369329735e-06,1.843508403713443e-06
117.3926897583124,119.1462356445673,12.5,0,-1.425418627569073,-0.1988986693716392,1.850221208797672,-4.402220672723722e-06,5.038591600660131e-07,1.480176967038138e-05,1.710564792914992e-06,1.833114719119887e-06
120.1487039089201,119.7004593937349,12.5,0,-1.507596311379937,-0.1862116617410619,2.017316563781249,-4.675338867022948e-06,6.101997315325513e-07,1.613853251024999e-05,1.911266824485874e-06,1.969373114122399e-06
173.7202469317459,168.6795279873432,12.5,0,8.446243469122203,2.933046212189383,0.7907946269790895,2.468154213143954e-05,2.628753103708263e-06,6.326357015832716e-06,4.192811713497718e-05,4.156886116353911e-05
176.1727133137223,169.5627771648646,12.5,0,8.508385124257655,3.260311707035092,0.7677389831389989,2.461858303199642e-05,3.626289363106171e-06,6.141911865111991e-06,4.326338213220488e-05,4.369271654534801e-05
172.6743462789962,170.5518818889657,12.5,0,8.532312275414757,3.097700069179043,0.9033246538397559,2.482523922598399e-05,3.08679040104113e-06,7.226597230718048e-06,4.282218854042604e-05,4.222213093634586e-05
174.9805508321565,171.4342860055412,12.5,0,8.595596278283537,3.437816133501354,0.8764243554623328,2.475565518370623e-05,4.124534604577502e-06,7.011394843698662e-06,4.420724178955577e-05,4.427370183860804e-05
169.4724505543846,167.1496955361603,12.5,0,7.911160800075309,2.49110884586151,0.8407739929174994,2.332282748355178e-05,1.642619666696586e-06,6.726191943339996e-06,3.842813404114976e-05,3.805932147033851e-05
171.9249169363609,168.0329447136817,12.5,0,7.946658538981898,2.781923827334938,0.8414810384520466,2.320376826287412e-05,2.544829416286284e-06,6.731848307616373e-06,3.953597814157115e-05,4.005939750259183e-05
168.6798828203479,169.0235131262763,12.5,0,8.028336572977924,2.618810644977418,0.9482610874863255,2.359562851754742e-05,1.957524805545397e-06,7.586088699890604e-06,3.931459634506944e-05,3.882447202744071e-05
170.986087373508,169.9059172428519,12.5,0,8.062835452471537,2.921992895427217,0.9463517629644878,2.346347913156715e-05,2.900108903389862e-06,7.570814103715902e-06,4.046169961612186e-05,4.076201420911742e-05
168.0996829706179,170.3952428062992,12.5,0,8.424609441725407,2.341061361912451,0.6591237414418994,2.508590112399134e-05,7.517088047395183e-07,5.272989931535195e-06,3.985733551351543e-05,3.935100571253701e-05
170.2988164338813,171.2770282953269,12.5,0,8.470606266217507,2.576841122458858,0.6360686828349443,2.504446715392893e-05,1.46940657889434e-06,5.088549462679555e-06,4.081218146920278e-05,4.123585511627131e-05
167.3071152365812,172.2690603964153,12.5,0,8.480014570925043,2.442890229893922,0.7473904919006537,2.5181734443045e-05,1.033237078920516e-06,5.979123935205229e-06,4.041525516709284e-05,4.002437193507554e-05
169.3599868710285,173.1500008244972,12.5,0,8.527208808392942,2.689764497076101,0.7205781845710824,2.513525658919653e-05,1.785479343929171e-06,5.764625476568658e-06,4.141242789269945e-05,4.182779584284973e-05
171.9086938615466,171.9225400746448,12.5,0,8.925682251066998,2.715478959099201,0.5878046560813284,2.638980003613503e-05,1.548986868263845e-06,4.702437248650627e-06,4.299760400562712e-05,4.265448639978862e-05
174.10782732481,172.8043255636725,12.5,0,8.99527655866626,2.988248475201198,0.5454477321271869,2.639428620757108e-05,2.366173873710823e-06,4.363581857017495e-06,4.416907664949812e-05,4.464540973999504e-05
170.862793208797,173.7948939762672,12.5,0,8.957358161023741,2.855093999074668,0.6813874603571495,2.637947091601624e-05,1.970414268219944e-06,5.451099682857196e-06,4.359228189876628e-05,4.318243372008771e-05
172.9156648432441,174.675834404349,12.5,0,9.030037744180101,3.139554221842684,0.6342202889559484,2.638447740390217e-05,2.822543314552508e-06,5.073762311647587e-06,4.481610424898055e-05,4.507994931894231e-05
158.112139828672,157.0800762066176,12.5,0,5.638499440018633,1.476593326644762,1.311885560590164,1.686192354674381e-05,2.142990932483321e-07,1.049508448472132e-05,2.656425776714426e-05,2.618136080925814e-05
159.7741461910496,158.2102632108639,12.5,0,5.715980885510253,1.633439256416205,1.251980164393041,1.698438742849984e-05,6.542209121236542e-07,1.001584131514433e-05,2.735414700144056e-05,2.757594226712483e-05
156.9502276830437,158.5384779680481,12.5,0,5.612834781639024,1.561374865967336,1.342739747411332,1.671197140847101e-05,5.061317457842563e-07,1.074191797929066e-05,2.675539975680972e-05,2.656275366344173e-05
158.7001488391396,159.7223538167364,12.5,0,5.686480209209345,1.710809067442731,1.285828669442255,1.682808941551572e-05,9.254048484492615e-07,1.028662935553804e-05,2.750833879856948e-05,2.80184686794439e-05
160.990819290761,159.0376175199911,12.5,0,6.105093872343859,1.729173616446443,1.243647992806048,1.81529614983432e-05,6.492804747535298e-07,9.949183942448386e-06,2.913856877212371e-05,2.862030192592722e-05
162.6528256531386,160.1678045242373,12.5,0,6.17550416709171,1.876569875439807,1.188601898128963,1.826035743434162e-05,1.064620267734014e-06,9.508815185031705e-06,2.987755762627404e-05,3.007896411740523e-05
159.9811800345869,160.589011087793,12.5,0,6.078422736465885,1.797305543512056,1.278245381035299,1.801310832188119e-05,8.886395500658695e-07,1.022596304828239e-05,2.927234979994617e-05,2.9110335711973e-05
161.7311011906828,161.7728869364811,12.5,0,6.145322719386331,1.937675308355754,1.225979315846735,1.811489245535165e-05,1.284302811229348e-06,9.80783452677388e-06,2.997607133584349e-05,3.06376569040766e-05
162.7395657797393,156.350525038071,12.5,0,5.686583209643692,1.896925456840377,1.353690877841412,1.667952590538751e-05,1.520894894174252e-06,1.08295270227313e-05,2.814715842271081e-05,2.770465068966577e-05
164.2492992526627,157.3877202359459,12.5,0,5.735830009455114,2.038264287243574,1.310133804174039,1.672404460046151e-05,1.933781711615343e-06,1.048107043339231e-05,2.879110823818367e-05,2.903790054554247e-05
161.7299265235651,157.9019186058728,12.5,0,5.687351141077523,1.978566720390813,1.398639012598494,1.661667027513542e-05,1.781532592388583e-06,1.118911210078795e-05,2.843637147129369e-05,2.824364975939919e-05
163.3275747902068,158.9928026481896,12.5,0,5.73397079960469,2.112591020078803,1.357535014825093,1.665863374267196e-05,2.173114624568417e-06,1.086028011860075e-05,2.904730778224822e-05,2.96503106930628e-05
160.1246306987955,154.5540502580174,12.5,0,5.27193851757168,1.655237058275391,1.408617068966261,1.554601360960906e-05,1.079207772423907e-06,1.126893655173009e-05,2.580259781628702e-05,2.546720230597187e-05
161.6343641717189,155.5912454558924,12.5,0,5.334722459950363,1.804706991628775,1.35705729177833,1.562734627853814e-05,1.507284405251788e-06,1.085645833422664e-05,2.651727030248689e-05,2.674788497998737e-05
158.9627185531671,156.0124520194479,12.5,0,5.261867462933935,1.749929219000935,1.446669611482215,1.543803250618784e-05,1.390279530455842e-06,1.157335689185772e-05,2.60921851231071e-05,2.588780870776641e-05
160.5603668198088,157.1033360617648,12.5,0,5.321287285463002,1.891725239696395,1.397956624283423,1.551473912172449e-05,1.796490938658061e-06,1.118365299426739e-05,2.677066460838841e-05,2.72354903909499e-05
127.9349208321458,166.8792249597495,12.5,0,5.552331127963274,-0.3884570092408781,0.4739852278012524,1.807822521687518e-05,-5.684927331941429e-06,3.791881822410019e-06,2.021390327697989e-05,1.978470357604914e-05
130.5114697157355,167.2712987215683,12.5,0,5.514751076331279,-0.369993656602877,0.5832072158913957,1.794319836954239e-05,-5.595780562194229e-06,4.665657727131165e-06,2.014162183637843e-05,2.075029791100774e-05
128.3149296537786,169.6182480884232,12.5,0,5.85603367088367,-0.3165138071284284,0.4696110422905761,1.899251879253048e-05,-5.697671119517906e-06,3.756888338324609e-06,2.158913304837946e-05,2.101963768250262e-05
130.8931353110132,169.9399105770336,12.5,0,5.826810376430179,-0.2961975810636461,0.5782093520458379,1.888275126942749e-05,-5.60928056054781e-06,4.625674816366703e-06,2.155338895571437e-05,2.197509006950369e-05
127.2767262457652,162.1350977378656,12.5,0,4.966281270363019,-0.3695574182946475,0.6974694892803724,1.618774599979738e-05,-5.155608754833286e-06,5.579755914242979e-06,1.806805568258244e-05,1.75870887293002e-05
129.8504055132254,162.6491274023047,12.5,0,4.912996186195357,-0.3584878708592625,0.8077798559457602,1.600837809251255e-05,-5.077558135705925e-06,6.462238847566081e-06,1.792518084906469e-05,1.856977948198923e-05
127.656735067398,164.8741208665393,12.5,0,5.274067393254759,-0.296100641317937,0.6914692296302731,1.711389617146958e-05,-5.166775966821205e-06,5.531753837042185e-06,1.945869046739159e-05,1.886495485608688e-05
130.2320711085031,165.3177392577701,12.5,0,5.229390876089309,-0.2830876086009062,0.8011016276195427,1.696052089036651e-05,-5.089393048394346e-06,6.408813020956341e-06,1.935219561172546e-05,1.983784768913448e-05
122.8189829922176,161.2447722424754,12.5,0,4.650013930260723,-0.5414536036990114,0.6949571616106422,1.531320745979352e-05,-5.452662676045414e-06,5.559657292885138e-06,1.636478046401336e-05,1.601573217628716e-05
125.3926622596778,161.7588019069146,12.5,0,4.595262193470266,-0.5360915748328368,0.8057738657641215,1.513371227897112e-05,-5.39170279424129e-06,6.446190926112972e-06,1.620254575447307e-05,1.690273381632774e-05
123.1961221977208,164.1057512737694,12.5,0,4.972434757775134,-0.4635572056429347,0.6872027893098555,1.628263698939477e-05,-5.461330864277498e-06,5.497622314478844e-06,1.781657310164229e-05,1.730225714114426e-05
125.771458238826,164.5493696650002,12.5,0,4.926290973865457,-0.4561983976848698,0.7973242257431969,1.612908983451736e-05,-5.400867651683949e-06,6.378593805945576e-06,1.768986627270402e-05,1.818554541643806e-05
123.4722072576636,166.2001332839768,12.5,0,5.256301985936399,-0.5554566093006228,0.4717596849389921,1.726453164243697e-05,-5.982502738511111e-06,3.774077479511937e-06,1.85954431761027e-05,1.822491991382655e-05
126.0487561412534,166.5922070457956,12.5,0,5.217517899272276,-0.54612162682328,0.57868515556524,1.71329545791299e-05,-5.921603525252316e-06,4.62948124452192e-06,1.849239862491473e-05,1.910803058114218e-05
123.8493464631668,169.0611123152709,12.5,0,5.566209895870911,-0.4806833475577521,0.4646084782395428,1.819641834483311e-05,-5.991154628881535e-06,3.716867825916343e-06,1.999699118050967e-05,1.945915652229705e-05
126.4275521204015,169.3827748038813,12.5,0,5.535575035053114,-0.4694648632708545,0.5708767535474041,1.808941200278665e-05,-5.930747590509225e-06,4.567014028379233e-06,1.992916488485362e-05,2.034549532033921e-05
172.1964895943184,198.7890922930571,12.5,0,12.13886333276683,2.973081538674674,-2.031234538329023,3.646589743391413e-05,-1.972297424545104e-07,-1.624987630663218e-05,5.629655636895651e-05,5.59668682214685e-05
174.4170934687796,198.3813455268479,12.5,0,12.23056051335834,3.174227228561741,-1.927934745666223,3.659841185989728e-05,3.730787207109035e-07,-1.542347796532978e-05,5.728103332420988e-05,5.783549631867133e-05
172.6215848125337,200.4407698447365,12.5,0,12.35328282848603,2.983611296541954,-1.986091611647146,3.714361601392174e-05,-3.350701138545714e-07,-1.588873289317717e-05,5.713511137642609e-05,5.675865714545544e-05
174.660559866823,200.2882723267014,12.5,0,12.42760634802946,3.204367945703742,-1.877708499000471,3.720484595713127e-05,3.118923478284056e-07,-1.502166799200377e-05,5.811757015149509e-05,5.856772137671926e-05
172.9327761103086,201.6498817302354,12.5,0,12.46116586303511,3.122958306070739,-2.396992902444053,3.737736411685576e-05,2.453388899827623e-08,-1.917594321955242e-05,5.810121771862611e-05,5.730404087150928e-05
174.8387896401189,201.6842396304495,12.5,0,12.50720510294931,3.310493208254313,-2.379522892671299,3.737466176283435e-05,5.878141840543502e-07,-1.903618314137039e-05,5.888606746245133e-05,5.904492457501352e-05
173.3578713285239,203.3015592819149,12.5,0,12.50485934296302,3.081639055459459,-2.32136052101588,3.755023865311411e-05,-1.426424969001513e-07,-1.857088416812704e-05,5.811192631140752e-05,5.8002267996786e-05
175.0822560381623,203.591166430303,12.5,0,12.5500523432533,3.29930901291466,-2.313254560712017,3.752072028807884e-05,5.177469667242687e-07,-1.850603648569614e-05,5.899468616261242e-05,5.96164429002953e-05
176.2340883837944,201.7093913590465,12.5,0,12.84246675800748,3.55645576304255,-2.476133422942011,3.825072901518988e-05,1.106685035330178e-06,-1.980906738353609e-05,6.099035163131486e-05,6.036704798206061e-05
178.1401019136047,201.7437492592605,12.5,0,12.89879435159009,3.779553117069201,-2.489917300588311,3.825249943143291e-05,1.775534493349376e-06,-1.991933840470649e-05,6.194352116106847e-05,6.223827260063867e-05
176.3445932573588,203.8031735771491,12.5,0,12.79340075587411,3.529019224314089,-2.360269159277492,3.811566703934587e-05,1.058140913105798e-06,-1.888215327421994e-05,6.068438013366397e-05,6.084392213689824e-05
178.0689779669971,204.0927807255371,12.5,0,12.86131867383281,3.77782231868966,-2.389459348625441,3.813396190131325e-05,1.799976480740668e-06,-1.911567478900353e-05,6.177036393855956e-05,6.258328287316658e-05
176.0426883283004,198.0828541773735,12.5,0,12.58178264719058,3.455404081449576,-2.045824083036097,3.749738120585019e-05,9.918669428861772e-07,-1.636659266428878e-05,5.956514970161383e-05,5.926012230184596e-05
178.2632922027616,197.6751074111644,12.5,0,12.6798183746242,3.713565476070536,-1.955695973174444,3.760456641794101e-05,1.739554823726355e-06,-1.564556778539555e-05,6.077063217620542e-05,6.128364477262448e-05
176.1531932018648,200.1766363954763,12.5,0,12.80007397759254,3.495904615688652,-1.943565193586192,3.81635130357452e-05,9.468355881296544e-07,-1.554852154868954e-05,6.050484517425106e-05,5.994267009529902e-05
178.192168256154,200.0241388774411,12.5,0,12.88398149593356,3.771957994894339,-1.856276904252122,3.821117439107191e-05,1.763080386915037e-06,-1.485021523401698e-05,6.171807325781948e-05,6.189003562115654e-05
166.620717495865,192.6357339843884,12.5,0,10.84581925133569,2.158312876088303,-1.246100561340066,3.297997130340358e-05,-1.770054197585986e-06,-9.968804490720524e-06,4.856473164313249e-05,4.941427735106248e-05
168.1498564388376,191.5955019758153,12.5,0,11.12596625035555,2.281249466313113,-1.085051472734384,3.377809242808725e-05,-1.600774708082473e-06,-8.680411781875069e-06,5.00075407565581e-05,5.022622887157204e-05
167.2740448257591,194.638745826656,12.5,0,11.40267896264853,2.272666544786921,-1.28453510145104,3.467043944464576e-05,-1.849610226800679e-06,-1.027628081160832e-05,5.106548907182664e-05,5.06232884259188e-05
168.9142752684371,193.8224584276257,12.5,0,11.61819839354143,2.38116605324871,-1.122239762915719,3.527330201673362e-05,-1.674827344437275e-06,-8.977918103325751e-06,5.221517889612666e-05,5.166780037168762e-05
163.9721711548518,194.4374686748641,12.5,0,10.7408480351205,1.90555852909296,-1.392700132012617,3.284626688911124e-05,-2.49489113499893e-06,-1.114160105610093e-05,4.737429308188591e-05,4.803833361993896e-05
165.5013100978244,193.397236666291,12.5,0,11.0098832621082,2.023868922597957,-1.238007633242148,3.361253130066785e-05,-2.331526057373093e-06,-9.904061065937184e-06,4.875491954833931e-05,4.882803258528174e-05
164.4330823629706,196.0525970753291,12.5,0,11.18285698563747,1.998730971214144,-1.416205038746305,3.41861575770686e-05,-2.550346480624716e-06,-1.132964030997044e-05,4.936502488462658e-05,4.887163788282111e-05
166.0733128056486,195.2363096762989,12.5,0,11.3878906837969,2.102202639576823,-1.261806374658412,3.475948807648861e-05,-2.383264100391683e-06,-1.00944509972673e-05,5.045435219298168e-05,4.987405894514415e-05
164.7704927850772,197.2349531251667,12.5,0,11.1071324944388,2.034095723448934,-1.722509546122892,3.391554740344502e-05,-2.376599680514453e-06,-1.378007636898314e-05,4.925268280737445e-05,4.946106244549805e-05
166.4920478498251,196.5826045583961,12.5,0,11.24470050587272,2.16622009055698,-1.597346429171481,3.425006554634712e-05,-2.06385611491584e-06,-1.277877143337185e-05,5.017610220459719e-05,5.060468866737537e-05
165.2314039931959,198.8500815256317,12.5,0,11.4087682766289,2.080174848989606,-1.714514745016621,3.484391860602079e-05,-2.470455104536381e-06,-1.371611796013297e-05,5.054864381701553e-05,5.023809603514682e-05
167.0640505576492,198.421677568404,12.5,0,11.50522513488596,2.20367687172017,-1.593002694066578,3.505377893425895e-05,-2.15241411840423e-06,-1.274402155253263e-05,5.128914432733931e-05,5.155477983025347e-05
167.7523136251945,196.1050522632956,12.5,0,11.34969545015813,2.377526380817186,-1.652323368739604,3.441700433585225e-05,-1.471671941511506e-06,-1.321858694991683e-05,5.127143188190347e-05,5.146448652137816e-05
169.4738686899424,195.452703696525,12.5,0,11.49061828646443,2.491679111456977,-1.521727269133907,3.47766352275206e-05,-1.219121472509219e-06,-1.217381815307126e-05,5.215311617991809e-05,5.266987172097505e-05
168.4056409550885,198.1080641055632,12.5,0,11.7445854091387,2.4434036555717,-1.661415960649141,3.562795038478648e-05,-1.576776629481523e-06,-1.329132768519313e-05,5.299077387838999e-05,5.255367138264469e-05
170.2382875195419,197.6796601483355,12.5,0,11.84204866354481,2.548739415266179,-1.532132738764694,3.585556419113045e-05,-1.317672801984075e-06,-1.225706191011755e-05,5.367918989214057e-05,5.396601006003823e-05
124.9295071878549,136.6211541617452,12.5,0,1.282598732022005,-0.1951929982819695,1.578676002527333,4.260470341095991e-06,-1.650696580119906e-06,1.262940802021866e-05,5.709230169250184e-06,5.875875189070074e-06
127.9386570556599,136.8902243850779,12.5,0,1.243549385627606,-0.1761650019817251,1.773609763184623,4.12029003559372e-06,-1.558567514843605e-06,1.418887810547698e-05,5.917626185513785e-06,6.473976312624573e-06
125.6239469411451,139.6822918967104,12.5,0,1.801369718459575,-0.07200574181820663,1.545866566367766,5.821987692525204e-06,-1.671514148585921e-06,1.236693253094212e-05,7.682244381364731e-06,7.201274208763032e-06
128.7846198886725,140.034479400543,12.5,0,1.752699845599914,-0.05645447799132625,1.733300682442041,5.653803088312785e-06,-1.582814206052175e-06,1.386640545953633e-05,7.78104073120356e-06,7.96188227885173e-06
123.7267022523822,131.3191080759144,12.5,0,0.4384727085915788,-0.205535408970534,1.689225020443027,1.567540994669479e-06,-1.008491475578972e-06,1.351380016354422e-05,3.587651469721762e-06,4.002243874410709e-06
126.4734064475936,131.4442149464371,12.5,0,0.4177899487440984,-0.2082983984682058,1.864749911569556,1.503566554755679e-06,-1.000786834093537e-06,1.491799929255644e-05,3.850455863497399e-06,4.379451020372984e-06
124.4211420056724,134.3802458108796,12.5,0,0.9483290683765089,-0.07866632477724184,1.646886519196192,3.097586078626622e-06,-1.010395493988381e-06,1.317509215356953e-05,5.093265288075833e-06,5.018697594444382e-06
127.3193692806061,134.5884699619021,12.5,0,0.9166427232750277,-0.08427568732829316,1.815426693963042,3.000677264342723e-06,-1.00299637807056e-06,1.452341355170434e-05,5.257907184333734e-06,5.514066750005058e-06
118.969271032999,131.1024166197972,12.5,0,0.3119802941618882,-0.3980511448991516,1.643778460087835,1.316777857237363e-06,-1.523347899006795e-06,1.315022768070268e-05,2.919423034684171e-06,3.466011787971153e-06
121.7159752282104,131.2275234903198,12.5,0,0.2966402863720586,-0.3799267652037373,1.817885312381206,1.253190328553577e-06,-1.453077877749606e-06,1.454308249904964e-05,3.229492875322133e-06,3.75748856976135e-06
119.4012651136955,134.0195910019523,12.5,0,0.7936878194215794,-0.2809967295142433,1.626087579334912,2.764598405760448e-06,-1.534139789982842e-06,1.30087006346793e-05,4.186941039556301e-06,4.277137010241318e-06
122.2994923886292,134.2278151529748,12.5,0,0.7673131057701288,-0.2665888020562899,1.792379709106807,2.668672980109444e-06,-1.46693465119623e-06,1.433903767285446e-05,4.427925117268182e-06,4.687263269590964e-06
119.7175067293209,136.1551108641374,12.5,0,1.099244770079686,-0.4008248087863483,1.53666477931194,3.838243111284074e-06,-2.162035204180063e-06,1.229331823449552e-05,4.629929448147646e-06,4.968715505721759e-06
122.726656597126,136.4241810874701,12.5,0,1.059775558054544,-0.3998403100176221,1.71393940942483,3.71115403378864e-06,-2.127309438500026e-06,1.371151527539864e-05,4.79649414247915e-06,5.472541771474797e-06
120.1495008100175,139.0722852462926,12.5,0,1.548158706805725,-0.2901204061437,1.515829662087517,5.186204186693281e-06,-2.16691226510442e-06,1.212663729670014e-05,6.234526999415541e-06,6.047017870606529e-06
123.3101737575449,139.4244727501251,12.5,0,1.500287647152446,-0.291677008861797,1.685814357809199,5.034262077977263e-06,-2.133596546079707e-06,1.348651486247359e-05,6.302017069256072e-06,6.6881878369746e-06
222.2644391282035,255.3347184801364,12.5,0,2.882950025373695,9.638611609351454,-3.821072924301786,1.51455079371466e-06,2.853719712962569e-05,-3.056858339441429e-05,4.724465840473575e-05,5.256782138918681e-05
224.0636313976488,255.7400026514841,12.5,0,2.939171404122678,9.591417988229439,-3.936339220455169,1.732214102609017e-06,2.834120043903606e-05,-3.149071376364136e-05,4.731307742747814e-05,5.0755578098188e-05
222.0757903425568,257.149175104877,12.5,0,2.560160136940567,9.551565792246681,-3.85801586867614,5.512598044124691e-07,2.851688242563692e-05,-3.086412694940912e-05,4.589064586394179e-05,4.82457740092948e-05
223.9154136021723,257.5858029579764,12.5,0,2.618825554841205,9.506459756086365,-3.970214356172736,7.750739706227638e-07,2.83256107756034e-05,-3.176171484938189e-05,4.597362069603926e-05,4.607981814976988e-05
225.3807315514119,256.0366912564016,12.5,0,1.863652227529279,9.380481704295782,-3.05191622393212,-1.540698235342932e-06,2.852661967172308e-05,-2.441532979145696e-05,4.260932416582577e-05,4.913885811977222e-05
227.1799238208572,256.4419754277495,12.5,0,1.817249935256722,9.120325595787536,-3.062614364696146,-1.481060683808518e-06,2.773124195831474e-05,-2.450091491756917e-05,4.148850484567481e-05,4.653414028793967e-05
225.262111294939,257.9054367304313,12.5,0,1.768700947727831,9.340541079941222,-3.156177242565414,-1.812589831223918e-06,2.847477069762964e-05,-2.524941794052331e-05,4.220451401585947e-05,4.424709965135946e-05
227.1017345545545,258.3420645835307,12.5,0,1.724417090017198,9.086680700655775,-3.165453326403665,-1.751209872469586e-06,2.769784457008472e-05,-2.532362661122932e-05,4.111520155562544e-05,4.140597545704291e-05
225.5861878624261,252.7999291490261,12.5,0,3.146954180839534,10.00274060023045,-3.857896384260181,2.068060898502151e-06,2.94912065760658e-05,-3.086317107408145e-05,4.948252046854518e-05,6.194905650921263e-05
227.3153516026976,253.150924471085,12.5,0,3.229772071890198,9.984682076686667,-4.026845055713595,2.347524968699299e-06,2.936716498788518e-05,-3.221476044570876e-05,4.977280823559456e-05,6.065645302833479e-05
225.4675676059533,254.6686746230557,12.5,0,2.656094889005422,9.877397791182034,-3.886124383720876,5.975854118717237e-07,2.948279702057817e-05,-3.108899506976701e-05,4.742938713511099e-05,5.388208316413693e-05
227.2371623363949,255.0510136268662,12.5,0,2.742766438590631,9.861239516463565,-4.05079203464195,8.878609903191677e-07,2.93617533018109e-05,-3.24063362771356e-05,4.773756265531921e-05,5.169229020692023e-05
222.5911884097239,252.1919874180121,12.5,0,4.275277787359892,10.11139023154271,-4.467901445869274,5.591776734317484e-06,2.893622651104876e-05,-3.57432115669542e-05,5.393571487053337e-05,6.305467364738368e-05
224.3203521499954,252.542982740071,12.5,0,4.397462038876228,10.14609760954754,-4.691915113627087,5.955000436765891e-06,2.894954271945115e-05,-3.75353209090167e-05,5.45928532609991e-05,6.259165778733846e-05
222.4025396240771,254.0064440427527,12.5,0,3.656993085364569,9.957267618399863,-4.490286482680114,3.736563778446731e-06,2.89376619105879e-05,-3.592229186144091e-05,5.132637727168455e-05,5.653585408788277e-05
224.1721343545189,254.3887830465631,12.5,0,3.783706376193842,9.993002583380214,-4.708686572980485,4.113458337116124e-06,2.895064316586161e-05,-3.766949258384388e-05,5.200029259955016e-05,5.5179912194489e-05
178.2982873242721,213.4141271877837,12.5,0,13.04883876198538,4.121011531983283,-3.849342005412105,3.84594748127666e-05,2.748165892758198e-06,-3.079473604329684e-05,6.407889608892116e-05,6.329815997713754e-05
180.5150179760162,213.9777428218707,12.5,0,13.24659258387028,4.494592514870463,-4.046487155293554,3.879342225648853e-05,3.785421980489253e-06,-3.237189724234843e-05,6.613466642564667e-05,6.54358226661102e-05
178.130427501382,215.6178566179966,12.5,0,12.63332694352989,4.040923985629983,-3.736460003372829,3.719390703079166e-05,2.824295199192034e-06,-2.989168002698263e-05,6.221124536707004e-05,6.289629722800671e-05
180.3738184426591,216.141942247779,12.5,0,12.82033650996963,4.408887154267211,-3.929169848705327,3.749796710848905e-05,3.85216968567937e-06,-3.143335878964262e-05,6.420731464385003e-05,6.498630456876657e-05
178.0075455824822,217.2310985269786,12.5,0,12.71455901724356,4.188656179708288,-4.253077522897452,3.733566391141276e-05,3.232052561271672e-06,-3.402462018317962e-05,6.321561825988557e-05,6.254933245087858e-05
180.270453210241,217.7262461851879,12.5,0,12.89743783379401,4.556767394042849,-4.447376296147539,3.762638715290654e-05,4.26370539390191e-06,-3.557901036918031e-05,6.520266478977682e-05,6.460223743014904e-05
177.8396857595922,219.4348279571915,12.5,0,12.30247336960849,4.108826778262209,-4.143235497671484,3.60808533601374e-05,3.306266994752274e-06,-3.314588398137188e-05,6.136381859250155e-05,6.200326980041821e-05
180.1292536768838,219.8904456110963,12.5,0,12.47502567085383,4.471483280419089,-4.333270455729929,3.634289552239699e-05,4.328725960658019e-06,-3.466616364583943e-05,6.329346485401752e-05,6.400246459122736e-05
181.9270165665251,218.0887194282305,12.5,0,13.03765645577168,4.867591830339548,-4.437711921719336,3.782642719419774e-05,5.146168692469208e-06,-3.550169537375468e-05,6.675577774165465e-05,6.616444004655037e-05
184.189924194284,218.5838670864399,12.5,0,13.24119207668395,5.284359688933784,-4.651342454240824,3.814432689424159e-05,6.316997343240951e-06,-3.721073963392659e-05,6.899921297028245e-05,6.837955198718681e-05
181.8053337196498,220.2239808825657,12.5,0,12.60007583090869,4.777255400722696,-4.3133965509974,3.649843833832965e-05,5.207156617585674e-06,-3.45071724079792e-05,6.476951558445624e-05,6.552274910006951e-05
184.0949016369415,220.6795985364706,12.5,0,12.79214280132294,5.187621702723847,-4.522091724419165,3.678475960205432e-05,6.36667520765796e-06,-3.617673379535332e-05,6.694802980015499e-05,6.767704882955358e-05
182.1377774397191,214.390338101945,12.5,0,13.40752812042547,4.812807536087103,-4.055969411351683,3.905384395649182e-05,4.674961619138352e-06,-3.244775529081346e-05,6.779961096048791e-05,6.706531119345533e-05
184.3545080914633,214.953953736032,12.5,0,13.62935200449482,5.245881404817473,-4.273021788896958,3.941722129052944e-05,5.883338891820054e-06,-3.418417431117567e-05,7.016090144725356e-05,6.937949395172943e-05
182.0160945928438,216.5255995562802,12.5,0,12.96862530423232,4.723149454501696,-3.924606500416822,3.772108140994205e-05,4.739178011019577e-06,-3.139685200333458e-05,6.580716989097824e-05,6.65777683137351e-05
184.2594855341208,217.0496851860626,12.5,0,13.17853348387973,5.149535944917697,-4.136439957606102,3.805167839248096e-05,5.935688236632849e-06,-3.309151966084882e-05,6.810066821510508e-05,6.883572078281794e-05
191.8451228408558,251.0412060403447,12.5,0,7.326870137605424,7.190374834840639,-6.177067377413543,1.769368457246484e-05,1.71477033614057e-05,-4.941653901930834e-05,5.496002390083352e-05,5.436859855735394e-05
193.2445377282647,250.0003598249188,12.5,0,7.31539174730837,7.348861087816239,-6.156544063065484,1.753016472113379e-05,1.766404208316527e-05,-4.925235250452387e-05,5.545731722136737e-05,5.577169011675695e-05
193.2525061015834,252.4198286860974,12.5,0,7.189481280041358,6.962946856508403,-6.068528591942343,1.743598261092562e-05,1.65298449167938e-05,-4.854822873553874e-05,5.361283874705927e-05,5.370633687989208e-05
194.4997588083989,251.558919102535,12.5,0,7.180489669959822,7.152720295073873,-6.048216231737845,1.725539070781233e-05,1.714431320826854e-05,-4.838572985390276e-05,5.422706787957094e-05,5.487265910340577e-05
189.4074635275975,248.6533615734789,12.5,0,7.941072639992083,6.86986193217199,-6.212373291807635,1.991554290223707e-05,1.56307000709567e-05,-4.969898633446108e-05,5.602424869866154e-05,5.52743868670598e-05
191.0704310427799,247.300855969528,12.5,0,7.962087342518952,7.03980172467746,-6.16935650446251,1.984683811631868e-05,1.615769564495271e-05,-4.935485203570008e-05,5.665587416421044e-05,5.708330910016363e-05
190.814846788325,250.0319842192316,12.5,0,7.87154255755409,6.692329315886235,-6.139353738115244,1.98350727314641e-05,1.511821976479268e-05,-4.911482990492196e-05,5.511538645008546e-05,5.478875628509408e-05
192.325652122914,248.8594152471443,12.5,0,7.896797726162384,6.887166744478513,-6.092914706114342,1.976001932813682e-05,1.572149540140133e-05,-4.874331764891473e-05,5.584476602241902e-05,5.636403199811763e-05
188.1900868151992,249.6434643930505,12.5,0,7.48932563208627,6.624055945617421,-6.061910005371657,1.866659726618212e-05,1.520551852030673e-05,-4.849528004297326e-05,5.34825592421777e-05,5.401831862037195e-05
189.7088605231068,250.8903642821418,12.5,0,7.472959113941408,6.492160612731533,-6.028031066091666,1.871974067442728e-05,1.479654666958778e-05,-4.822424852873332e-05,5.294564393682441e-05,5.36893210338756e-05
186.5271193000169,250.9959699970013,12.5,0,7.437973097590726,6.484100170133607,-6.111312261787103,1.861423377618344e-05,1.479874206635496e-05,-4.889049809429682e-05,5.285587822116989e-05,5.239559858560472e-05
188.1980551885179,252.0629332542291,12.5,0,7.414520555235034,6.330609027620492,-6.082952010453909,1.866197855465571e-05,1.432633244419755e-05,-4.866361608363127e-05,5.222473189508074e-05,5.226088378081028e-05
189.4212651550389,252.8440045682958,12.5,0,6.994779789387588,6.944373463331655,-6.099365045924618,1.682779655537496e-05,1.662617125115123e-05,-4.879492036739694e-05,5.289286345066204e-05,5.210878761249868e-05
190.8206800424477,251.8031583528699,12.5,0,7.004924080178376,7.06874817332672,-6.074383515284373,1.676075851790942e-05,1.70160548905028e-05,-4.859506812227498e-05,5.334236332188676e-05,5.338712678941455e-05
191.0922010435399,253.9109678255237,12.5,0,6.92068110329559,6.751139089735672,-6.038585626763843,1.674526825875735e-05,1.606710020451768e-05,-4.830868501411074e-05,5.192011325974001e-05,5.182796795781163e-05
192.3394537503555,253.0500582419613,12.5,0,6.934884421378182,6.901936462858353,-6.011547222817224,1.66700809781235e-05,1.653828914404418e-05,-4.80923777825378e-05,5.247315589830395e-05,5.289051434625332e-05
184.8151605409258,241.9014407067718,12.5,0,9.190974529137975,6.029423935923283,-6.068737719124609,2.458757934450289e-05,1.194137697164413e-05,-4.854990175299687e-05,5.747731168834802e-05,5.76012259444744e-05
185.9524256274244,240.2835695559442,12.5,0,9.383894131861295,6.126060643843973,-5.993741017443794,2.512761270688096e-05,1.209627875481167e-05,-4.794992813955035e-05,5.844760262358449e-05,5.930157933837891e-05
186.1311917429751,243.917953384333,12.5,0,9.404095999662795,6.025700583800604,-6.089678276885031,2.527254673188046e-05,1.175896506843169e-05,-4.871742621508025e-05,5.82417990342504e-05,5.70557351242517e-05
187.4561209192569,242.3644783796744,12.5,0,9.570121529617918,6.117040407155117,-6.017456657250649,2.573075656905324e-05,1.191843207920204e-05,-4.813965325800519e-05,5.910058770294297e-05,5.88378333444301e-05
182.8453596294714,244.7036757400548,12.5,0,8.697989010208431,5.78339990552565,-6.070117064317754,2.320684490824646e-05,1.154848848951534e-05,-4.856093651454203e-05,5.488203040125126e-05,5.484494738787837e-05
183.98262471597,243.0858045892272,12.5,0,8.81628627375777,5.847570615820774,-6.021678854737126,2.353405958336824e-05,1.165919695162026e-05,-4.817343083789701e-05,5.548807160088617e-05,5.64070750124122e-05
183.836347093266,246.6086510206416,12.5,0,8.820841269177508,5.783349390267336,-6.072028555758298,2.360001254915416e-05,1.145004503351347e-05,-4.857622844606639e-05,5.532116933521828e-05,5.417720308346228e-05
185.1612762695478,245.055176015983,12.5,0,8.920887761135761,5.843280146678792,-6.02663181169484,2.38722167182914e-05,1.156178626046352e-05,-4.821305449355872e-05,5.585035977941027e-05,5.580692300964418e-05
184.5618002663966,248.0031897131346,12.5,0,8.089414895951414,6.077671889545821,-6.115699566254017,2.102399015540787e-05,1.29770181297855e-05,-4.892559653003214e-05,5.375682782263154e-05,5.361836480222517e-05
186.0241090911499,246.4968559592814,12.5,0,8.107496659689748,6.219553832732941,-6.065852982339909,2.096834624482084e-05,1.341657493699361e-05,-4.852682385871928e-05,5.427031711249512e-05,5.528114551953372e-05
185.5527877301911,249.9081649937214,12.5,0,8.040256562044942,5.970600835105346,-6.038161073867148,2.095234033045953e-05,1.267371742270115e-05,-4.830528859093718e-05,5.31615868138297e-05,5.275933452902211e-05
187.2027606447276,248.4662273860372,12.5,0,8.061008620752965,6.112216474761162,-5.997176862008278,2.090545440660055e-05,1.311028582263334e-05,-4.797741489606623e-05,5.368969199738387e-05,5.444484670578285e-05
187.0945934471802,245.3941431183517,12.5,0,8.594463597282187,6.449205228645779,-6.147267221586229,2.234291932838638e-05,1.376188585384074e-05,-4.917813777268983e-05,5.683900202349076e-05,5.655938596386697e-05
188.5569022719336,243.8878093644985,12.5,0,8.658830434867703,6.564714202191666,-6.092522133115438,2.245648602982331e-05,1.408002109911917e-05,-4.874017706492351e-05,5.742655626786695e-05,5.838882308491474e-05
188.4106246492296,247.4106557959129,12.5,0,8.621708037698458,6.36511970042962,-6.104155849689099,2.249736996029136e-05,1.347101661121602e-05,-4.883324679751279e-05,5.661794666411178e-05,5.57488256595668e-05
190.0605975637662,245.9687181882287,12.5,0,8.680867444797205,6.480229712256493,-6.055181196147282,2.259459205354586e-05,1.379204112338301e-05,-4.844144956917825e-05,5.718952135856451e-05,5.762585023669576e-05
179.61117634387,278.5983177218198,12.5,0,3.346913908148117,5.423608148907477,-4.579317060247501,6.37123798694799e-06,1.467801494998543e-05,-3.663453648198e-05,3.396425208160154e-05,3.46488159303686e-05
182.0733054678641,279.1578192263498,12.5,0,3.394803097351764,5.522700456764359,-4.627925711113557,6.445209546114154e-06,1.495679898376454e-05,-3.702340568890845e-05,3.451144464579778e-05,3.446369589392935e-05
178.9940961772588,280.5802914464812,12.5,0,3.263079877262844,5.425103441359628,-4.560956816454569,6.101772854153397e-06,1.474986711054053e-05,-3.648765453163655e-05,3.367633937488256e-05,3.37045983794147e-05
181.3996785146305,281.1404745140496,12.5,0,3.312550638548129,5.526335761057586,-4.610738823945002,6.179093434507943e-06,1.503423392454577e-05,-3.688591059156001e-05,3.423725089470572e-05,3.350835971462625e-05
180.6799905447645,275.1654385315015,12.5,0,3.668977594144346,5.575870934474542,-4.775301549756933,7.280031553682273e-06,1.490760491500306e-05,-3.820241239805547e-05,3.573269201576985e-05,3.63676668045356e-05
183.2400615761917,275.7237595342205,12.5,0,3.733871470067876,5.701254462335994,-4.846355241718868,7.387385134348406e-06,1.525691710342088e-05,-3.877084193375094e-05,3.644726785303269e-05,3.620880057585871e-05
180.0629103781533,277.1474122561628,12.5,0,3.545684790533282,5.57207847583846,-4.755810615997834,6.888528549035735e-06,1.499410329025645e-05,-3.804648492798266e-05,3.529268588575086e-05,3.536238296424636e-05
182.5664346229581,277.7064148219202,12.5,0,3.612704674460118,5.700107208150329,-4.828471512135219,7.000569191752115e-06,1.535017932651296e-05,-3.862777209708175e-05,3.602490515745183e-05,3.518727684188207e-05
176.2458174474269,274.1983981878765,12.5,0,4.046458738203349,5.20358985178012,-4.894169168174346,8.785796080826617e-06,1.34143205351337e-05,-3.915335334539477e-05,3.58005766203316e-05,3.64579115187089e-05
178.8058884788541,274.7567191905957,12.5,0,4.123103263846308,5.358822608617127,-4.975435837040024,8.906872357414481e-06,1.384974973649776e-05,-3.980348669632019e-05,3.666539733722813e-05,3.643441588049598e-05
175.7266791882489,276.179191410727,12.5,0,3.906882181467986,5.197050746179067,-4.865354299045711,8.344382383754299e-06,1.350505664259863e-05,-3.892283439236568e-05,3.528464319753197e-05,3.550236149338492e-05
178.2302034330536,276.7381939764844,12.5,0,3.986027008299057,5.355605837479533,-4.948520401816767,8.470801756573355e-06,1.394911707329526e-05,-3.958816321453413e-05,3.617104476907036e-05,3.544680964216136e-05
175.3466436063939,277.6292326890799,12.5,0,3.718955917962989,5.091761899625686,-4.715805330019378,7.827249417781016e-06,1.33184733444318e-05,-3.772644264015502e-05,3.416176688111364e-05,3.482122097012248e-05
177.8087727303879,278.18873419361,12.5,0,3.784500373544943,5.227282181389072,-4.782370908846479,7.928575450232559e-06,1.369970268160907e-05,-3.825896727077183e-05,3.490866715944488e-05,3.474461448580544e-05
174.8275053472158,279.6100259119303,12.5,0,3.602843552566008,5.08857344200769,-4.688457466199639,7.458240614605072e-06,1.34011601723718e-05,-3.750765972959712e-05,3.373925432441952e-05,3.391586047872031e-05
177.2330876845873,280.1702089794988,12.5,0,3.670586179421119,5.227087886583089,-4.756662516073489,7.564205464881109e-06,1.379021229352899e-05,-3.805330012858791e-05,3.450532913434458e-05,3.381378788006537e-05
218.1001918805774,268.7668554628953,12.5,0,1.004272696605627,7.650543513160075,-2.451068434279057,-2.906762181390053e-06,2.367832108482774e-05,-1.960854747423246e-05,3.310072909343515e-05,3.452162419506966e-05
220.2027579205791,268.9574473163758,12.5,0,0.9716187146350262,7.502434489872191,-2.465292148286605,-2.892767705065668e-06,2.323049539588299e-05,-1.972233718629284e-05,3.244766520269834e-05,3.289321728634723e-05
218.0539477864298,270.9335876314956,12.5,0,0.9536514017589655,7.63499489691018,-2.50569262519429,-3.056311431899454e-06,2.36690625487054e-05,-2.004554100155432e-05,3.290959823760416e-05,3.25969737406651e-05
220.1983662012385,271.0364401637164,12.5,0,0.9194468211444067,7.489092268184784,-2.521997791011028,-3.049043986885725e-06,2.322953780127578e-05,-2.017598232808822e-05,3.226192129123795e-05,3.105339839434403e-05
218.1802890011896,265.0139652605529,12.5,0,1.399035165519151,8.206406399177066,-2.881008460501202,-2.088212589680368e-06,2.514127234495129e-05,-2.304806768400962e-05,3.66404626276299e-05,3.842901323400077e-05
220.2103646016093,265.3565260762743,12.5,0,1.387101372439779,8.104650810691005,-2.906355070152834,-2.044996256745513e-06,2.48252014962594e-05,-2.325084056122267e-05,3.623386955942513e-05,3.664226637769539e-05
218.134044907042,267.1806974291533,12.5,0,1.313005891687656,8.182788606044261,-2.921246375138466,-2.344612031434908e-06,2.513451882599151e-05,-2.336997100110772e-05,3.630031013575346e-05,3.608431446748673e-05
220.2059728822688,267.4355189236149,12.5,0,1.297469352468849,8.082023880836132,-2.947880699765635,-2.313717176768591e-06,2.482450093670055e-05,-2.358304559812508e-05,3.588734799600149e-05,3.439074994904378e-05
214.6640949181198,264.4206325230519,12.5,0,1.964570278047338,8.356475437286621,-3.475669061048673,-3.98555460077814e-07,2.516906517687932e-05,-2.780535248838938e-05,3.931686529555829e-05,4.09800763351126e-05
216.6941705185396,264.7631933387732,12.5,0,1.986124131437239,8.345416515138085,-3.532205390306741,-3.207359915113038e-07,2.511643354329208e-05,-2.825764312245393e-05,3.937665483911122e-05,3.959132590897421e-05
214.5453603843903,266.7393336538931,12.5,0,1.798884713138527,8.314147607778764,-3.485926571777364,-8.94887004179723e-07,2.516616457438122e-05,-2.788741257421891e-05,3.863562423480662e-05,3.852156374670591e-05
216.6172883596171,266.9941551483547,12.5,0,1.813167098292352,8.301540167721228,-3.541833130983255,-8.390974196414557e-07,2.511439485807404e-05,-2.833466504786604e-05,3.866630812144992e-05,3.719116268861919e-05
214.458440673091,268.4367406891641,12.5,0,1.455471084564764,7.823308578919205,-3.016325507477339,-1.60113939252812e-06,2.387021058488964e-05,-2.413060405981871e-05,3.545490769291117e-05,3.687256719849945e-05
216.5610067130927,268.6273325426447,12.5,0,1.455067311263103,7.782898597871048,-3.057661585074879,-1.57010348225491e-06,2.374122166417687e-05,-2.446129268059903e-05,3.532508755991687e-05,3.558788779039852e-05
214.3397061393615,270.7554418200053,12.5,0,1.336086042683252,7.791313466358975,-3.03539252375856,-1.957575436500772e-06,2.386333425820212e-05,-2.428314019006848e-05,3.49682255682433e-05,3.482593743550883e-05
216.4841245541702,270.8582943522261,12.5,0,1.330894895934311,7.750349007980158,-3.076747126960961,-1.941415539394331e-06,2.373640090878905e-05,-2.461397701568769e-05,3.482170270402581e-05,3.360782253012864e-05
168.8667283300815,178.4795377826317,12.5,0,9.80140759278491,2.380996612785644,0.09526333867733282,2.94597070066832e-05,-2.219369133138688e-07,7.621067094186625e-07,4.520081775839537e-05,4.460170311131107e-05
170.9355104203276,179.3324792435788,12.5,0,9.872276921954812,2.605583295255841,0.04686340722494343,2.950681951405072e-05,4.400450072548429e-07,3.749072577995474e-07,4.62096703392194e-05,4.650100502926795e-05
168.0978150459517,180.3857195943184,12.5,0,9.787155146231269,2.452528655544065,0.1645443776625977,2.935687354350481e-05,1.836758075599325e-08,1.316355021300781e-06,4.538279656647654e-05,4.510639703410976e-05
170.1996969827967,181.2254634158224,12.5,0,9.857035989827988,2.675392692929321,0.1175389496740187,2.94022010131061e-05,6.756278255114372e-07,9.403115973921497e-07,4.638299815270859e-05,4.701909939791105e-05
170.1985252047853,175.1779340363862,12.5,0,9.40108602016273,2.545931693976592,0.3553027605530503,2.804672990933945e-05,6.261126045949096e-07,2.842422084424403e-06,4.422696665683039e-05,4.359572768611093e-05
172.2099766790001,176.0537344793882,12.5,0,9.467528342138658,2.778615062219331,0.3100720566125574,2.807319864506824e-05,1.317545525390934e-06,2.480576452900459e-06,4.524863400076258e-05,4.546561975821015e-05
169.4296119206553,177.0841158480727,12.5,0,9.403841830624215,2.627253583477143,0.4324246028527,2.799049099121576e-05,8.841380026274872e-07,3.4593968228216e-06,4.451090611862e-05,4.419692047949693e-05
171.4741632414692,177.9467186516317,12.5,0,9.469537242660765,2.858204764797406,0.3886761991439032,2.801595536467652e-05,1.570625453223088e-06,3.109409593151226e-06,4.552487315501734e-05,4.608475141436485e-05
166.7145890545482,173.6610031718426,12.5,0,8.901565156065047,2.173333835174523,0.4483575873007528,2.674634143126853e-05,-1.665838522935635e-07,3.586860698406023e-06,4.110217628797494e-05,4.048366636597913e-05
168.7260405287632,174.5368036148446,12.5,0,8.957991962525458,2.377832868348032,0.4103274238800428,2.676330798540304e-05,4.426716086933349e-07,3.282619391040343e-06,4.198773725016176e-05,4.226081729797468e-05
165.8883451543873,175.5900439655842,12.5,0,8.909767968532714,2.251770102460903,0.5177386727034031,2.670984141733596e-05,7.78499530487177e-08,4.141909381627225e-06,4.139644069158163e-05,4.1065115864356e-05
167.9328964752012,176.4526467691431,12.5,0,8.965644472617331,2.454862651570124,0.480983535535115,2.672617219111936e-05,6.830449069305302e-07,3.84786828428092e-06,4.2276172480608e-05,4.285191318761537e-05
165.2834926400513,177.002199836416,12.5,0,9.301760233900797,1.99991932319762,0.1865176854834986,2.816569728992445e-05,-1.041666352888252e-06,1.492141483867989e-06,4.204920997967284e-05,4.145529961666389e-05
167.3522747302973,177.855141297363,12.5,0,9.363845603027945,2.207230241547111,0.1449365636827651,2.819852173645173e-05,-4.279397094716014e-07,1.159492509462121e-06,4.296260036037048e-05,4.324971042080055e-05
164.4572487398904,178.9312406301576,12.5,0,9.297539478796084,2.073712385123716,0.2525334772170428,2.80931564240485e-05,-8.02151950640977e-07,2.020267817736342e-06,4.227603546973269e-05,4.193985195392538e-05
166.5591306767354,179.7709844516615,12.5,0,9.358874439347812,2.279557632711573,0.2122027041880336,2.812475209974373e-05,-1.925151268012147e-07,1.697621633504269e-06,4.318266238689418e-05,4.374541678337831e-05
179.4477473913536,191.7797840396272,12.5,0,12.62325357471511,3.833138081732262,-1.118013814300288,3.732790097370252e-05,2.167439001771155e-06,-8.944110514402305e-06,6.081558396111834e-05,6.015119646084949e-05
180.7440288239309,193.5511312040074,12.5,0,13.17513503374968,4.01211593296735,-1.288878473819917,3.895073936162509e-05,2.298662958495776e-06,-1.031102779055934e-05,6.352764795909151e-05,6.226935384610134e-05
178.1611516760022,193.5720097618148,12.5,0,12.00653378749855,3.725747760631712,-1.261324690285658,3.544030991149e-05,2.317165804022637e-06,-1.009059752228527e-05,5.813609328396803e-05,5.961752870537051e-05
179.2781633757941,195.3348599891934,12.5,0,12.63978535441871,3.924911040938873,-1.43499399753928,3.730738430138877e-05,2.447887047469426e-06,-1.147995198031424e-05,6.122688944073976e-05,6.146607802241284e-05
181.6761965391028,188.6755580302222,12.5,0,12.55281664461041,4.147947328388974,-0.8093932659612713,3.685065540004213e-05,3.231178135156389e-06,-6.47514612769017e-06,6.156741353006485e-05,6.083137270579529e-05
183.282982257118,190.4616223211975,12.5,0,13.0750858677291,4.357064229986396,-1.01344445247611,3.835462339274399e-05,3.482536841773189e-06,-8.107555619808878e-06,6.426737685487586e-05,6.346040218826817e-05
180.3896008237513,190.4677837524098,12.5,0,12.00243238775968,4.081539465544334,-0.9230030312949733,3.51425520683955e-05,3.458980379534126e-06,-7.384024250359786e-06,5.926884516029342e-05,6.047644498049055e-05
181.8171168089811,192.2453511063836,12.5,0,12.59112702089619,4.308092385094706,-1.133452806938216,3.684513255879204e-05,3.712994015586104e-06,-9.067622455505731e-06,6.228246583813083e-05,6.280373139577153e-05
178.8931620386744,185.582003932724,12.5,0,11.83253885324149,3.683585418573819,-0.4922845134234355,3.491725599551372e-05,2.321442256843025e-06,-3.938276107387484e-06,5.725907140687669e-05,5.639353828185097e-05
180.4999477566896,187.3680682236994,12.5,0,12.32189655278615,3.901440080520941,-0.6912498752581977,3.630891690449892e-05,2.627091015438093e-06,-5.529999002065581e-06,5.985746232262595e-05,5.893781222910908e-05
177.9170706087609,187.3889467815068,12.5,0,11.31151210906267,3.619942746957312,-0.5521014490726575,3.33008845514347e-05,2.534607103013261e-06,-4.41681159258126e-06,5.507173007213442e-05,5.650043616489353e-05
179.3445865939908,189.1665141354806,12.5,0,11.87061359925859,3.857681495644825,-0.7614032452411146,3.489981832111163e-05,2.848089906656566e-06,-6.091225961928916e-06,5.800412470485328e-05,5.878748211377442e-05
177.2025220892621,188.7117207531328,12.5,0,12.10305847972117,3.494270806998137,-0.790086550884648,3.593437048950924e-05,1.499219798617099e-06,-6.320692407077184e-06,5.767899252283422e-05,5.651856810087602e-05
178.4988035218393,190.483067917513,12.5,0,12.63069931110313,3.674467787881481,-0.9577450348192298,3.747866356522482e-05,1.653737472338238e-06,-7.661960278553838e-06,6.029878752526684e-05,5.861027806461992e-05
176.2264306593488,190.5186636019156,12.5,0,11.49959613956907,3.385976272642881,-0.883107132562585,3.408992662850673e-05,1.635447160801958e-06,-7.06485706050068e-06,5.503473398613411e-05,5.646120758817935e-05
177.3434423591405,192.2815138292942,12.5,0,12.11629068955857,3.589176379637806,-1.057485522634128,3.590078910287718e-05,1.792331863194124e-06,-8.459884181073025e-06,5.807204579207035e-05,5.827647771433698e-05
194.1728942505225,206.4973485409567,12.5,0,14.66316864486692,7.919423534756884,-3.296196501087175,4.058660083576862e-05,1.36116203953285e-05,-2.63695720086974e-05,8.280821022275524e-05,8.384555051254139e-05
195.6555236637542,205.0281373687453,12.5,0,15.14346108359377,8.006754324839438,-3.124116164256516,4.205367200762852e-05,1.350684497261118e-05,-2.499292931405213e-05,8.485595224545829e-05,8.65500583488626e-05
195.6632839616413,208.040130913561,12.5,0,15.18374632802112,8.082373826541696,-3.495198072510375,4.212208918843423e-05,1.371659918251653e-05,-2.7961584580083e-05,8.536154467231415e-05,8.674430523667412e-05
196.9903279844395,206.5623866712481,12.5,0,15.72260465086348,8.184463632904459,-3.325335569959718,4.376476397643957e-05,1.361219990460348e-05,-2.660268455967774e-05,8.767780842563612e-05,8.960733011657874e-05
191.5914635478331,203.8251710866324,12.5,0,14.49422072158578,7.058885098194656,-2.930281193616786,4.073439823051877e-05,1.099305573695427e-05,-2.344224954893429e-05,7.912231179869012e-05,7.92221016723039e-05
193.3435747622063,202.3707396253812,12.5,0,14.92104039081522,7.131065185089945,-2.744769285214395,4.204247710253675e-05,1.088257627963565e-05,-2.195815428171516e-05,8.092375229125753e-05,8.174803497326275e-05
193.081853258952,205.3679534592367,12.5,0,14.96315503649288,7.205398310869191,-3.109454747154636,4.211777746808185e-05,1.108675056558711e-05,-2.487563797723709e-05,8.14221616166463e-05,8.182998214222861e-05
194.6783790828916,203.9049889278839,12.5,0,15.43771145045011,7.289334338514489,-2.92418219579918,4.356920917062876e-05,1.097570072288627e-05,-2.339345756639344e-05,8.34410946325258e-05,8.444416656219877e-05
188.5567179040823,206.3443202736007,12.5,0,14.02302654160007,6.268760014293856,-3.155571806852125,3.985867692168514e-05,8.841610812460282e-06,-2.5244574454817e-05,7.471641065603323e-05,7.508816581297476e-05
190.3088291184554,204.8898888123496,12.5,0,14.47265476508913,6.341606661948299,-2.960821494504216,4.123920991872658e-05,8.715017506163254e-06,-2.368657195603373e-05,7.659772059514451e-05,7.743759510916333e-05
190.3165894163426,207.9018823571653,12.5,0,14.52504585318927,6.433891165477045,-3.37783257093818,4.133303379782402e-05,8.968415046975127e-06,-2.702266056750544e-05,7.722006809891547e-05,7.764560183949208e-05
191.9131152402821,206.4389178258126,12.5,0,15.02100418760976,6.518437906625786,-3.185021643154538,4.28524630750506e-05,8.842197951114709e-06,-2.54801731452363e-05,7.931289052718588e-05,8.000831221514532e-05
191.6049047780553,209.0420969382289,12.5,0,14.39367595915807,7.178805031482707,-3.514299868778253,4.031671904411964e-05,1.145723533341821e-05,-2.811439895022603e-05,7.931366759812875e-05,7.956159551935505e-05
193.087534191287,207.5728857660175,12.5,0,14.80166600182839,7.252276879210383,-3.368334674804379,4.156350970248253e-05,1.136595321201051e-05,-2.694667739843503e-05,8.104696491594043e-05,8.197299754109821e-05
193.3647762903155,210.5996590217934,12.5,0,14.84195289989418,7.324633047784241,-3.71237530582303,4.163454284143398e-05,1.156526343299422e-05,-2.969900244658424e-05,8.154317524632836e-05,8.223875157342675e-05
194.6918203131137,209.1219147794804,12.5,0,15.29532678146539,7.40982578639519,-3.569709263596842,4.30171850715731e-05,1.147518109129229e-05,-2.855767410877473e-05,8.348552569999892e-05,8.476990056673271e-05
206.3206608656433,256.5460022888593,12.5,0,5.111297734873408,8.652534920102442,-5.356378492150895,9.434124815512951e-06,2.359907355642908e-05,-4.285102793720715e-05,5.195627453258388e-05,5.211641536671086e-05
208.6961615808868,256.1557802825878,12.5,0,5.11222196823582,9.082128179522687,-5.587433104171758,9.093407754736472e-06,2.497303259988394e-05,-4.469946483337406e-05,5.365927781332221e-05,5.274782230048297e-05
206.852044073667,258.763496637129,12.5,0,4.357295656879088,8.356108913237,-5.111056682382677,7.25845897142348e-06,2.325371199685513e-05,-4.088845345906142e-05,4.818727191139068e-05,4.950600520086397e-05
209.0862345846505,258.5011916127827,12.5,0,4.393389619495766,8.830165996787414,-5.370024712834113,6.99471398495652e-06,2.474181949412311e-05,-4.29601977026729e-05,5.019500460308505e-05,4.972409755012913e-05
207.2410435802127,260.3868151654903,12.5,0,3.935558911156185,8.467028067562516,-4.869454739985203,5.820166061649778e-06,2.394604268727511e-05,-3.895563791988163e-05,4.702129752187165e-05,4.762966439366065e-05
209.3717878420545,260.2181518710601,12.5,0,3.995172322458387,8.858214797641491,-5.050490152117018,5.697979593753644e-06,2.515014949448606e-05,-4.040392121693615e-05,4.87590043335962e-05,4.759030164012858e-05
207.7724267882363,262.60430951376,12.5,0,3.295394560442191,8.199809479485372,-4.63559326146968,3.985415009826712e-06,2.360307468599943e-05,-3.708474609175744e-05,4.37786143570481e-05,4.511381614169533e-05
209.7618608458182,262.5635632012549,12.5,0,3.393871561969469,8.637052823302225,-4.843797112407988,3.950746739660518e-06,2.492347178499154e-05,-3.875037689926391e-05,4.583334045455395e-05,4.478438755113043e-05
210.9316008995922,260.0946817701705,12.5,0,3.531005297478497,8.747436134688291,-4.527014365856109,4.301268044180559e-06,2.516699139301973e-05,-3.621611492684887e-05,4.648414938553007e-05,4.746671182105918e-05
213.0623451614339,259.9260184757403,12.5,0,3.560810729898616,9.008806061970219,-4.698552170745391,4.187549486099395e-06,2.59795308143858e-05,-3.758841736596313e-05,4.764584089546991e-05,4.716842090958106e-05
211.2182276542142,262.5337348302814,12.5,0,2.901547029445952,8.551490084558564,-4.368404776807026,2.443758426580196e-06,2.504353064703064e-05,-3.494723821445621e-05,4.360082994984565e-05,4.444863066418986e-05
213.2076617117961,262.4929885177764,12.5,0,2.964197352307137,8.841886359928607,-4.560452563895604,2.411922439439951e-06,2.592267846992583e-05,-3.648362051116483e-05,4.499241815836364e-05,4.386075438060297e-05
210.4351487977872,255.8701179477779,12.5,0,4.923790646828547,9.117146718474245,-5.141324817873831,8.462412695071952e-06,2.523583698165474e-05,-4.113059854299065e-05,5.286425276818499e-05,5.318505476157026e-05
212.8106495130306,255.4798959415066,12.5,0,4.902034048438333,9.509669543476951,-5.407104199880703,8.078773320221105e-06,2.650931530037557e-05,-4.325683359904562e-05,5.438148799692058e-05,5.374818912625785e-05
210.7217755524092,258.3091710078888,12.5,0,4.019064454306339,8.837470974139537,-4.91999992563639,5.791029474468655e-06,2.506465555380144e-05,-3.935999940509111e-05,4.867814459022117e-05,4.980762960261521e-05
212.9559660633927,258.0468659835426,12.5,0,4.034848657526418,9.267969499308585,-5.212869561015306,5.497140104637668e-06,2.642962347176633e-05,-4.170295648812244e-05,5.04868393270181e-05,4.981775106481225e-05
217.11565304066,245.5152931073313,12.5,0,8.817402226008264,10.2148821337445,-5.537292010115738,2.004378141623085e-05,2.563370104717577e-05,-4.429833608092591e-05,7.050276571118105e-05,8.300798095621764e-05
218.762091354767,245.630805393266,12.5,0,8.947856768467949,10.50398436208949,-5.876188425195696,2.022995416942584e-05,2.645446454391199e-05,-4.700950740156557e-05,7.217360723375129e-05,8.781113630888358e-05
217.4043132156336,247.004270756749,12.5,0,7.87211880490463,9.92620671393861,-5.361562675157937,1.724981480454393e-05,2.546616644067985e-05,-4.289250140126349e-05,6.605734454941429e-05,7.719051257350671e-05
218.9384375529099,247.2153700149525,12.5,0,8.080464076495829,10.25938341278248,-5.740548338390545,1.764997831456066e-05,2.636565565970728e-05,-4.592438670712436e-05,6.818576313094803e-05,7.993086850013272e-05
217.615627129827,248.0942780474108,12.5,0,7.36932966139591,10.21458346219992,-5.448173205397459,1.541018814670697e-05,2.679120334992302e-05,-4.358538564317967e-05,6.539118663598233e-05,7.328706955161905e-05
219.0675319296666,248.3753518258539,12.5,0,7.564177913574939,10.4245296945661,-5.754809932616085,1.586574556778692e-05,2.730715269175156e-05,-4.603847946092868e-05,6.699202158865903e-05,7.479706802343238e-05
217.9042873048005,249.5832556968284,12.5,0,6.398926429164266,9.933719769741062,-5.299419782379597,1.25295887575328e-05,2.666876211983998e-05,-4.239535825903678e-05,6.094220924032294e-05,6.844013327362934e-05
219.2438781278095,249.9599164475404,12.5,0,6.692630180487592,10.18682641863547,-5.647433351095604,1.326695544265192e-05,2.724374039524342e-05,-4.517946680876483e-05,6.306492769959807e-05,6.865153209332031e-05
220.1304000108572,248.5811121123408,12.5,0,6.926464696667033,10.23850238664659,-5.268480450453636,1.397388512001723e-05,2.722203587993545e-05,-4.214784360362909e-05,6.384765983872371e-05,7.599332313207397e-05
221.5823048106969,248.8621858907839,12.5,0,7.12396154793398,10.44758326870669,-5.5809185007036,1.443861033842338e-05,2.773309722151423e-05,-4.46473480056288e-05,6.545605357379172e-05,7.775155439602219e-05
220.2245266715634,250.2356512542669,12.5,0,5.858691602918586,9.95947174243179,-5.160781898374536,1.078023573539404e-05,2.718335629344685e-05,-4.128625518699629e-05,5.910779350994947e-05,6.877527929819815e-05
221.5641174945725,250.6123120049789,12.5,0,6.149912777540955,10.20609246792174,-5.506910804769697,1.151484691379366e-05,2.77395656753168e-05,-4.405528643815757e-05,6.119473309203677e-05,6.890196412954247e-05
219.9673678521701,245.7153662554649,12.5,0,8.772152089153185,10.41447245586248,-5.358574254440751,1.97393087206002e-05,2.630859018743739e-05,-4.286859403552601e-05,7.097087809896685e-05,9.229798305733282e-05
221.613806166277,245.8308785413995,12.5,0,8.860436667326281,10.51099545821562,-5.726426704595654,1.99446009688716e-05,2.654683613242896e-05,-4.581141363676523e-05,7.181341481701204e-05,9.975312098772657e-05
220.0614945128764,247.369905397391,12.5,0,7.648557505319183,10.12870021334342,-5.300364680040174,1.637242384634665e-05,2.629299467844359e-05,-4.240291744032139e-05,6.597429552806207e-05,8.229621260793447e-05
221.5956188501527,247.5810046555945,12.5,0,7.814426935475622,10.25032294066493,-5.698559481800541,1.680590784099005e-05,2.654949186174727e-05,-4.558847585440433e-05,6.720301139848887e-05,8.601809696148123e-05
177.7784642295679,221.0865231358077,12.5,0,12.32717494365855,4.292695890575742,-4.641175692558021,3.601280310724675e-05,3.874886894915538e-06,-3.712940554046417e-05,6.229125409797267e-05,6.158952543364701e-05
180.0897410679755,221.5198249363747,12.5,0,12.50318245831398,4.676583225269741,-4.837430875375569,3.626891728638894e-05,4.962520354211987e-06,-3.869944700300455e-05,6.431268172022662e-05,6.354730646443199e-05
177.7790637219074,223.3953088523826,12.5,0,11.88395510930244,4.181805039437268,-4.508815590148225,3.4683212318218e-05,3.874612038757305e-06,-3.60705247211858e-05,6.021189297777561e-05,6.100521745269503e-05
180.1229901462511,223.8071726121185,12.5,0,12.0522019955452,4.558959352218545,-4.700727343682115,3.491987890396979e-05,4.946908330663184e-06,-3.760581874945692e-05,6.218098812451573e-05,6.2903564175418e-05
177.7795025807587,225.0854573006329,12.5,0,11.86557677765068,4.411949503760692,-4.97709828898994,3.444028608547362e-05,4.62577698991367e-06,-3.981678631191952e-05,6.114023394609923e-05,6.052177615946265e-05
180.1473301608526,225.4816273252663,12.5,0,12.03865692495356,4.798749779373672,-5.182692488210202,3.468470233635246e-05,5.7250737540329e-06,-4.146153990568162e-05,6.317220764983397e-05,6.237748058066026e-05
177.7801020730983,227.3942430172078,12.5,0,11.40267038410041,4.296138112439477,-4.846430221059868,3.305163473916973e-05,4.625505652525999e-06,-3.877144176847895e-05,5.897481193362612e-05,5.978529796477081e-05
180.1805792391281,227.7689750010102,12.5,0,11.56798628336361,4.676268561130255,-5.047675672379857,3.327654125785933e-05,5.709670368925934e-06,-4.038140537903885e-05,6.095489702504363e-05,6.158393575970649e-05
181.8807002529704,225.7716439117215,12.5,0,12.1124693533284,5.078627127564131,-5.143439834811525,3.469700022859957e-05,6.561631325542497e-06,-4.11475186784922e-05,6.43579904239531e-05,6.378854162103739e-05
184.2485278330643,226.167813936355,12.5,0,12.30866732297474,5.526005993911111,-5.371763109410792,3.496693063839029e-05,7.836285322135761e-06,-4.297410487528634e-05,6.669861047246211e-05,6.578792765489498e-05
181.9378504869961,228.0432978523629,12.5,0,11.60725247116399,4.942954963836103,-4.989751216122012,3.318884393665588e-05,6.531653907344338e-06,-3.991800972897609e-05,6.195963257735415e-05,6.294858220043629e-05
184.3383276530259,228.4180298361652,12.5,0,11.79469986350754,5.382440413579749,-5.213043966903379,3.343708723236032e-05,7.788049432649164e-06,-4.170435173522704e-05,6.424050322131555e-05,6.48782278161009e-05
181.7817131439752,221.8370238693873,12.5,0,12.61224506393901,4.960543105546017,-4.811657518974867,3.639074972016802e-05,5.783941886596043e-06,-3.849326015179893e-05,6.565111325906574e-05,6.503599880493789e-05
184.0929899823829,222.2703256699544,12.5,0,12.80762653125537,5.395351429144668,-5.025543301213338,3.666812375670146e-05,7.019023348258638e-06,-4.02043464097067e-05,6.793177593204448e-05,6.714540088542656e-05
181.8388633780009,224.1086778100287,12.5,0,12.13775931826303,4.832628488073395,-4.659447319650638,3.497472702798296e-05,5.754203707224442e-06,-3.72755785572051e-05,6.339087984921339e-05,6.43478632144635e-05
184.1827898023446,224.5205415697646,12.5,0,12.32455752934724,5.259621888835927,-4.868402963019339,3.523088658284243e-05,6.971144020797172e-06,-3.894722370415471e-05,6.561237357518289e-05,6.639541484790347e-05
135.1320220580142,216.9834020867384,12.5,0,9.045458992674334,0.3746361656182855,-2.97899701186305,2.864575984406323e-05,-6.037531464160952e-06,-2.38319760949044e-05,3.666962922250475e-05,3.559483847497064e-05
138.0304668249824,217.4251294914647,12.5,0,9.086203529271783,0.4697615686166963,-3.028697313302209,2.870004203877634e-05,-5.765725803843997e-06,-2.422957850641767e-05,3.713672817297536e-05,3.683147925739369e-05
135.9851264084087,219.9849160178322,12.5,0,8.924191541110323,0.3209290561317331,-2.933818652747284,2.830066968664765e-05,-6.112380253266712e-06,-2.347054922197827e-05,3.60280476570536e-05,3.613652578048459e-05
139.110718103389,220.4813423817647,12.5,0,8.962848798758312,0.4097003357336306,-2.980309612747579,2.835335588743969e-05,-5.859237964659031e-06,-2.384247690198063e-05,3.646582065401879e-05,3.747096973426252e-05
133.6544019789995,211.7846274585516,12.5,0,8.926234597411099,0.1560781903222193,-2.573262488673959,2.843908815945774e-05,-6.641537468897777e-06,-2.058609990939167e-05,3.536606683459865e-05,3.447843118491423e-05
136.1594167258745,212.1316134868133,12.5,0,8.942783020526315,0.2008087057797132,-2.591006658367315,2.845625870106044e-05,-6.51163855792597e-06,-2.072805326693852e-05,3.557142328117728e-05,3.55536199101e-05
134.507506329394,214.7861413896454,12.5,0,8.876943864392567,0.1309460366990347,-2.550345703866271,2.830146353669698e-05,-6.682527774077142e-06,-2.040276563093017e-05,3.509381797572743e-05,3.515055336712698e-05
137.2396680042811,215.1878263771133,12.5,0,8.892527009169147,0.1722725648089547,-2.566834740044003,2.831826837749411e-05,-6.562749399946662e-06,-2.053467792035202e-05,3.528455134731281e-05,3.631772692041738e-05
129.3155891637806,211.1836300280966,12.5,0,8.616732613382734,-0.07014047845619675,-2.428960003157133,2.76296567455897e-05,-7.117835621766016e-06,-1.943168002525706e-05,3.345371448393413e-05,3.271406894276226e-05
131.8206039106557,211.5306160563583,12.5,0,8.638786007153751,-0.006324373727218724,-2.449803758021951,2.764917472187378e-05,-6.931266801650101e-06,-1.959843006417561e-05,3.373684386001124e-05,3.371757579637276e-05
129.775263494082,214.0904025827258,12.5,0,8.563643245754506,-0.09331578825849896,-2.400919537972422,2.747831101702122e-05,-7.149525119030801e-06,-1.920735630377938e-05,3.317146068374565e-05,3.32211082697611e-05
132.5074251689691,214.4920875701937,12.5,0,8.584299833150595,-0.03451316343711142,-2.420278236632973,2.749736999683159e-05,-6.977881989519232e-06,-1.936222589306378e-05,3.343345095315504e-05,3.432081690044231e-05
130.1117684587834,216.2183077786707,12.5,0,8.700234971336812,0.09812655509957757,-2.777570685420616,2.776225066419813e-05,-6.646183000750801e-06,-2.222056548336493e-05,3.443635023126392e-05,3.354756279360787e-05
133.0102132257516,216.660035183397,12.5,0,8.737586973776654,0.1806062805341537,-2.825945207011536,2.781579329165797e-05,-6.412129481312031e-06,-2.260756165609229e-05,3.484857316038172e-05,3.471491571051534e-05
130.5714427890848,219.1250803332998,12.5,0,8.587547839388805,0.05911053077394879,-2.743629954638229,2.743286466142501e-05,-6.680884573034406e-06,-2.194903963710583e-05,3.387841654022761e-05,3.393241381215701e-05
133.6970344840651,219.6215066972324,12.5,0,8.62297462252713,0.1359692305646019,-2.788779925075709,2.748474340763513e-05,-6.463278160214977e-06,-2.231023940060567e-05,3.426451048063337e-05,3.518837257881356e-05
214.5106546637238,272.2194385231762,12.5,0,1.107720619551337,7.290972231896993,-2.640536590718451,-2.288071802953315e-06,2.244493464642931e-05,-2.112429272574761e-05,3.216755920298739e-05,3.346763469546197e-05
216.5858018246751,272.3168782091442,12.5,0,1.13845782978651,7.393526097920509,-2.685753089321795,-2.271755823019574e-06,2.274851724951642e-05,-2.148602471457436e-05,3.267184572859929e-05,3.229694570249584e-05
215.0964292515102,273.9004507676811,12.5,0,0.986386684060823,7.228457222575495,-2.588861894474624,-2.626328389065762e-06,2.234195376499292e-05,-2.071089515579699e-05,3.152607809299732e-05,3.180331236042676e-05
216.9404714526038,274.0708416039325,12.5,0,1.027947931547071,7.34836963646195,-2.643052950286864,-2.589262328218933e-06,2.269242449144058e-05,-2.114442360229491e-05,3.213373265894118e-05,3.069562886705599e-05
215.5252460115343,275.1310371387518,12.5,0,0.7670885810342236,6.864045230429766,-2.286917237919845,-3.036552725034297e-06,2.135127387254787e-05,-1.829533790335876e-05,2.932171936860162e-05,3.065318824895225e-05
217.2001076401381,275.3548319234789,12.5,0,0.7792724067993841,6.90021766573481,-2.298089726324533,-3.026502430829818e-06,2.145727860491188e-05,-1.838471781059626e-05,2.950113019691088e-05,2.959612308939452e-05
216.1110205993206,276.8120493832568,12.5,0,0.7312470775763702,6.840387433747954,-2.265874795811981,-3.132319298753978e-06,2.130424212593235e-05,-1.812699836649585e-05,2.911108511485616e-05,2.917531307629549e-05
217.5547772680668,277.1087953182672,12.5,0,0.7481637688637501,6.884681894724323,-2.280540077926268,-3.113621455415458e-06,2.143245104802683e-05,-1.824432062341014e-05,2.933741924011697e-05,2.819353427692001e-05
218.4261914478715,275.5186610763611,12.5,0,0.5427174091070783,6.644560760534144,-1.865196083837958,-3.578952899284664e-06,2.08284205064236e-05,-1.492156867070367e-05,2.760537436196745e-05,2.876215991269916e-05
220.1010530764754,275.7424558610883,12.5,0,0.5062173425141017,6.512606856718735,-1.848118950738734,-3.590189989329863e-06,2.043536806748867e-05,-1.478495160590987e-05,2.69862648514332e-05,2.754079530178672e-05
218.6116805033104,277.3260284196251,12.5,0,0.5846208134612914,6.671862360392835,-1.932214757026081,-3.466703285238135e-06,2.088226290248804e-05,-1.545771805620865e-05,2.786696820623552e-05,2.743772595519665e-05
220.0554371720565,277.6227743546356,12.5,0,0.5396806344411065,6.517311838811827,-1.908166578450899,-3.486871440837921e-06,2.042365337664496e-05,-1.526533262760719e-05,2.7133453368906e-05,2.635459801875276e-05
218.1049149796092,272.3882090099435,12.5,0,0.7571948949348732,7.072978451566253,-2.122888582855423,-3.235359097461407e-06,2.202777512906411e-05,-1.698310866284338e-05,3.000167979575237e-05,3.133342881881273e-05
220.1800621405604,272.4856486959116,12.5,0,0.727537575799474,6.950999277939805,-2.127870987556247,-3.232679179793527e-06,2.166116762876779e-05,-1.702296790044997e-05,2.945132472181708e-05,2.987174073149424e-05
218.2904040350481,274.1955763532073,12.5,0,0.7408194715829,7.081002187104647,-2.169362526498105,-3.294179440618437e-06,2.206655142146855e-05,-1.735490021198484e-05,3.000190456107552e-05,2.980601034892421e-05
220.1344462361417,274.3659671894588,12.5,0,0.7083015105415826,6.943485422424476,-2.172637545382825,-3.288223504206516e-06,2.165251214332505e-05,-1.73811003630626e-05,2.938376911008984e-05,2.848321085130148e-05
155.4505791312643,154.8053121308822,12.5,0,5.178602484702027,1.293749834041414,1.398672746680455,1.553652808381335e-05,-2.882518829096931e-09,1.118938197344364e-05,2.426034765419887e-05,2.373944538907368e-05
156.9536435266168,156.1677223144974,12.5,0,5.301091560045561,1.418851691438355,1.324165232510813,1.582841163899511e-05,2.994521645662889e-07,1.05933218600865e-05,2.510478811392777e-05,2.515337456905181e-05
154.1789558806446,156.2201444030805,12.5,0,5.101969983300791,1.351424735475323,1.400133086467147,1.524516415818227e-05,2.429831668804028e-07,1.120106469173717e-05,2.416025519537126e-05,2.406438445140199e-05
155.7387776810274,157.6000637839636,12.5,0,5.220246842205416,1.473997732415259,1.327598798417964,1.552559170912512e-05,5.40595269964497e-07,1.062079038734371e-05,2.498199028337527e-05,2.550325998776624e-05
157.653095209384,152.3547507512907,12.5,0,4.835107326440613,1.485046185070854,1.490421653654715,1.428430649655328e-05,8.840619310742422e-07,1.192337322923772e-05,2.363071266184696e-05,2.312718624071882e-05
159.05785289552,153.6868341156388,12.5,0,4.955654626178797,1.601500538615863,1.419112057054626,1.457689437287946e-05,1.160278022627722e-06,1.135289645643701e-05,2.443996648672288e-05,2.449703900277867e-05
156.3814719587643,153.769583023489,12.5,0,4.755714576926461,1.540163600826088,1.490288420176713,1.398615576550381e-05,1.123951861102311e-06,1.19223073614137e-05,2.35149871254777e-05,2.348832388538105e-05
157.8429870499305,155.1191755851049,12.5,0,4.871864835510729,1.654171398186464,1.420936313700425,1.426663035508516e-05,1.395856605788102e-06,1.13674905096034e-05,2.430099097995496e-05,2.488375846872553e-05
155.2199835247173,150.047514684364,12.5,0,4.359755476580721,1.297816798200094,1.553051494776207,1.291296408649823e-05,6.652093729757249e-07,1.242441195820965e-05,2.1263344604174e-05,2.081603338127185e-05
156.6247412108532,151.3795980487121,12.5,0,4.483569001354791,1.414628764439801,1.480575922580838,1.321571779278349e-05,9.3995684512353e-07,1.18446073806467e-05,2.207756785893331e-05,2.214086375713234e-05
153.8500535648811,151.4320201372952,12.5,0,4.280468477798533,1.358404230735184,1.548181497219902,1.261077574436716e-05,9.225187561137615e-07,1.238545197775921e-05,2.116390203719947e-05,2.11358803038388e-05
155.3115686560474,152.7816126989111,12.5,0,4.399900366830075,1.472889625300555,1.477586223208661,1.29013694736158e-05,1.193326507497715e-06,1.182068978566929e-05,2.195577692565377e-05,2.248408295780066e-05
152.8471952315129,152.4455484721538,12.5,0,4.693535877255818,1.098069787806492,1.46152705791413,1.414085897697342e-05,-2.410053808238788e-07,1.169221646331304e-05,2.182338980693534e-05,2.135575696528097e-05
154.3502596268653,153.807958655769,12.5,0,4.815365567324545,1.220186415909144,1.388003767949902,1.443302068271123e-05,5.230407704962404e-08,1.110403014359921e-05,2.264797652212951e-05,2.272187681901274e-05
151.4772652716767,153.8300539250849,12.5,0,4.619754779131316,1.159997084784518,1.458688859106176,1.38552176253926e-05,1.618684800540544e-08,1.166951087284941e-05,2.174560573613509e-05,2.163662425319814e-05
153.0370870720594,155.209973305968,12.5,0,4.737518598843314,1.27977153228286,1.387015125402767,1.413624229047231e-05,3.052540242305017e-07,1.109612100322213e-05,2.254906556065398e-05,2.302832252893139e-05
219.7239873021281,242.2396926172209,12.5,0.1751981365290959,11.04424354851991,9.890801599569699,-5.101480574837277,3.325518441505744e-05,2.766139516683079e-05,-4.948078612111175e-05,9.344636275803139e-05,0.0001203877946918283
221.5939825497218,242.4602932002966,12.5,0.2737686849640043,10.14506608962567,9.572818758026427,-5.221662564090108,3.415710114228757e-05,3.100522751882156e-05,-5.752065443590844e-05,0.000100204082923022,0.00013599075133101
219.8769330676132,244.3407298840613,12.5,0.02528021181995543,10.15896690294376,10.8797404567395,-5.479703877506064,2.442230270965971e-05,2.738017249966996e-05,-4.497459839396538e-05,7.961779605735997e-05,0.0001025045917148183
221.613367720898,244.4587880423223,12.5,0.1201805747561417,9.596290781147289,10.91305603997206,-5.87475112316576,2.497976861740936e-05,3.096629367491105e-05,-5.341778964734691e-05,8.629270727165709e-05,0.0001131432533692647
219.4590774655102,238.6005893225231,12.5,0.3742859442055386,12.89618593340604,10.0151716222918,-5.029237430340265,5.314833090466791e-05,3.473088105239474e-05,-6.430077616146506e-05,0.000134547144686604,0.0001567080620957406
221.5604064483317,238.9987985953059,12.5,0.4679869211389605,11.56500699789338,9.476177818232607,-5.097097286085813,5.531270058561661e-05,3.960760413097576e-05,-7.664619519501942e-05,0.0001456435081567446,0.0001826588632558108
219.6120232309953,240.7016265893635,12.5,0.2676856842108599,12.21347977771059,10.91820091447883,-5.350486985647902,4.144200639364434e-05,3.436701777029087e-05,-5.845016950004295e-05,0.0001161274563975144,0.0001349115708069086
221.5797916195079,240.9972934373316,12.5,0.365365870868418,11.24529911996028,10.65653719073387,-5.663054564848325,4.326859551165491e-05,3.955772083788308e-05,-7.13867005242534e-05,0.0001272665144163904,0.0001546174028608873
215.8194689039116,237.9108706300307,12.5,0.1930406172046517,12.8796720094157,10.19545405550581,-5.070221619948716,4.096685395888074e-05,2.766151041303031e-05,-5.026494991492841e-05,0.0001050611453323769,0.000122940861687695
217.9207978867332,238.3090799028134,12.5,0.2992548765114806,11.76459360922724,9.892002927257746,-5.147209552664374,4.243068729426283e-05,3.174154729627227e-05,-5.876270136040358e-05,0.0001137318223036737,0.0001407066718024615
216.2037484046246,240.1895165865781,12.5,0.09053354488379928,11.85889355236177,10.60931514719482,-5.035136986029467,3.239372610619007e-05,2.6897851472717e-05,-4.429090887479638e-05,9.075304519562829e-05,0.0001095898249279922
218.1715167931373,240.4851834345462,12.5,0.192394145269148,11.15045414306981,10.66311212343094,-5.359804980525106,3.361907717735297e-05,3.120531548018806e-05,-5.309327513294316e-05,9.944954626863179e-05,0.0001228464676630354
216.4850605234418,241.8576011991613,12.5,0.005846575020247102,11.2556196469384,10.49359234121625,-5.505109965980508,2.778555935447534e-05,2.471952432778852e-05,-4.429988231317616e-05,8.062508556206307e-05,0.0001005682907404988
218.3550557710354,242.078201782237,12.5,0.1016553998018698,10.42876745906002,9.981917539994493,-5.445980758891292,2.825922461313559e-05,2.626956532663475e-05,-4.84979216900969e-05,8.387173306585457e-05,0.0001108963749829729
216.8693400241548,244.1362471557088,12.5,0,9.62090097827971,10.02792392197354,-5.189347739315486,2.276454399291624e-05,2.439263576769156e-05,-4.151478191452389e-05,7.250813827066527e-05,8.927203773670215e-05
218.6057746774395,244.2543053139699,12.5,0,9.8546153355306,10.60054820895214,-5.73611488906758,2.30543305065362e-05,2.603806200022238e-05,-4.588891911254064e-05,7.564767857696498e-05,9.610831876392306e-05
171.0217293628903,276.6619293647296,12.5,0,4.05524348853262,4.753732661064723,-4.812390776173343,9.173793034452602e-06,1.196774972458102e-05,-3.849912620938674e-05,3.42077726713202e-05,3.482134304886298e-05
173.5280608171344,277.2201265681942,12.5,0,4.134828732848826,4.921377921920068,-4.89321620840565,9.294349607580186e-06,1.244054636386516e-05,-3.91457296672452e-05,3.512291038307685e-05,3.48417803266295e-05
170.5300678048978,278.64196167694,12.5,0,3.920082380598233,4.748999995703741,-4.778889364022776,8.74506362135135e-06,1.206073408177338e-05,-3.823111491218221e-05,3.370711574491845e-05,3.395705080969238e-05
173.0314365836591,279.2005332813874,12.5,0,3.999910139252515,4.916957620727623,-4.859887526527181,8.866146349025949e-06,1.253433627492638e-05,-3.887910021221745e-05,3.462440408899248e-05,3.395424766501799e-05
171.8733121614466,273.2324127994148,12.5,0,4.392577091356725,4.835160950447296,-4.978695757336488,1.018811793198368e-05,1.195845336834597e-05,-3.98295660586919e-05,3.577222238424327e-05,3.637277974193483e-05
174.3882392217682,273.7899615213548,12.5,0,4.482072369678741,5.018962664584073,-5.071577763592201,1.032746145130471e-05,1.247502263092604e-05,-4.05726221087376e-05,3.678632375816478e-05,3.644139616515739e-05
171.381650603454,275.2124451116252,12.5,0,4.235643229056194,4.827566552879254,-4.943127397915564,9.692005090676417e-06,1.205969838596866e-05,-3.954501918332451e-05,3.518424596085344e-05,3.546863566536969e-05
173.8916149882929,275.7703682345479,12.5,0,4.32541384461614,5.011711344747211,-5.036205197744468,9.831955226973876e-06,1.257714522749816e-05,-4.028964158195574e-05,3.62007770824388e-05,3.550820975867739e-05
167.517330715718,272.2667100853372,12.5,0,4.706226183442094,4.460974494564176,-5.019258861626444,1.149114419136336e-05,1.051013743585169e-05,-4.015407089301155e-05,3.559841845587499e-05,3.614169752382108e-05
170.0322577760396,272.8242588072771,12.5,0,4.801573498986468,4.655905886046305,-5.118536524325514,1.164031048791965e-05,1.1057640036159e-05,-4.094829219460411e-05,3.667270004275371e-05,3.629247573301856e-05
167.034264763803,274.2460939160229,12.5,0,4.538041136213716,4.4518757606919,-4.981453368015138,1.096023102733037e-05,1.061556952524311e-05,-3.985162694412111e-05,3.496102280752962e-05,3.52909984652253e-05
169.5442291486418,274.8040170389456,12.5,0,4.63368285263898,4.647172189078176,-5.080940412663621,1.111004737718219e-05,1.116400472293898e-05,-4.064752330130896e-05,3.60379614973498e-05,3.54104340747041e-05
166.6806359436095,275.6951034477035,12.5,0,4.369757188813267,4.40643124225997,-4.872517704616613,1.045807801039448e-05,1.060477422418129e-05,-3.89801416369329e-05,3.413812240948892e-05,3.467950289164893e-05
169.1869673978536,276.253300651168,12.5,0,4.45433576796598,4.585113607655211,-4.958227589721059,1.058578357136697e-05,1.110889493012389e-05,-3.966582071776847e-05,3.510923076354017e-05,3.477786094121149e-05
166.1975699916945,277.6744872783892,12.5,0,4.226539609092198,4.401068035933601,-4.836473999292391,1.000407232034815e-05,1.070218602771376e-05,-3.869179199433913e-05,3.360212080244013e-05,3.385956497455954e-05
168.6989387704558,278.2330588828366,12.5,0,4.31137593445118,4.580083966035168,-4.922367645806829,1.013233581741564e-05,1.120716794375159e-05,-3.937894116645463e-05,3.45755856563681e-05,3.393168065924762e-05
212.7939544234174,250.7079321834848,12.5,0,6.672273153956763,9.673467252315579,-5.671149526460303,1.361250029080918e-05,2.561727668424444e-05,-4.536919621168242e-05,6.115725901014909e-05,6.231523119614096e-05
214.1787617597111,249.8310866528928,12.5,0,6.480188511637369,9.927521243823026,-5.756108257173666,1.279458624218116e-05,2.658391717092379e-05,-4.604886605738933e-05,6.146377612683228e-05,6.485135346046036e-05
213.7184096008371,253.0557741995765,12.5,0,5.966074559844563,9.315224572677813,-5.389451285376594,1.163925893336035e-05,2.503585898469335e-05,-4.311561028301275e-05,5.727409710688169e-05,5.799822715702366e-05
214.9112638691083,251.8904103867255,12.5,0,5.642165290768037,9.521939881555092,-5.430805520755452,1.043737702521364e-05,2.595647538836186e-05,-4.344644416604362e-05,5.694147496603395e-05,6.057988615439414e-05
215.192511088529,249.1891911741371,12.5,0,7.266612988377355,10.01476954779918,-5.583870914547237,1.524134592456819e-05,2.62339721622555e-05,-4.467096731637789e-05,6.438869184015244e-05,6.724934667568923e-05
216.5773184248227,248.3123456435452,12.5,0,7.025846293279301,10.20844082071578,-5.702257894217404,1.431595548192114e-05,2.704633359166706e-05,-4.561806315373923e-05,6.432151747399833e-05,7.126466371185907e-05
215.784493799471,251.0373048664527,12.5,0,6.677600825009085,9.77338816409655,-5.398590580561761,1.354961210875183e-05,2.593276146510169e-05,-4.318872464449409e-05,6.137745248789361e-05,6.296986082178595e-05
216.9773480677422,249.8719410536016,12.5,0,6.274033609178698,9.923456995054554,-5.481115546565829,1.213814195332819e-05,2.673583549683161e-05,-4.384892437252663e-05,6.058031136181595e-05,6.691773404480999e-05
214.1671669559935,245.9881643609405,12.5,0,8.806511402928502,9.98014275781016,-5.758095984972575,2.019672228312308e-05,2.489124770264971e-05,-4.60647678797806e-05,6.973925805691062e-05,7.503757348943355e-05
215.8844467587649,245.6110471541248,12.5,0,8.740777895120255,10.33490896519828,-6.006771942583968,1.970256209222619e-05,2.607908637253828e-05,-4.805417554067174e-05,7.091157396621292e-05,7.958531511438431e-05
214.7591496669355,247.836278053256,12.5,0,8.065683641075326,9.682264574432836,-5.53201801068241,1.806437599189477e-05,2.453069972532481e-05,-4.425614408545928e-05,6.595005793349137e-05,7.048288053937559e-05
216.2844764016844,247.1706425641812,12.5,0,7.836340411411975,9.997754863968568,-5.749454025118624,1.707808542534346e-05,2.572374323556983e-05,-4.599563220094899e-05,6.639984396032022e-05,7.465893182940166e-05
211.192751086835,246.6413505235421,12.5,0,8.433366781961567,9.707223570746594,-5.899687298221086,1.922099484567974e-05,2.431642200081984e-05,-4.719749838576869e-05,6.753149575398047e-05,6.957643357022582e-05
212.9100308896064,246.2642333167264,12.5,0,8.403399488397358,10.07838151820954,-6.090025650187707,1.882817314830391e-05,2.552810126755264e-05,-4.872020520150166e-05,6.885978788321941e-05,7.235570176262099e-05
212.1172062642548,248.9891925396339,12.5,0,7.643352834507167,9.324530284796342,-5.60219868093972,1.699910484258586e-05,2.372381464374256e-05,-4.481758944751776e-05,6.323145497607138e-05,6.541760225426276e-05
213.6425329990037,248.323557050559,12.5,0,7.488237784240046,9.654616254992728,-5.755632248343769,1.623866790557396e-05,2.490418178858469e-05,-4.604505798675015e-05,6.396132360874793e-05,6.800667374280434e-05
129.8718110956542,176.9039986808799,12.5,0,6.776041910125996,-0.338996937912512,-0.08314193511680104,2.195453166273319e-05,-6.505623729420834e-06,-6.651354809344084e-07,2.502560294932193e-05,2.434437203268325e-05
132.7498468527963,177.3078802697914,12.5,0,6.743206685606235,-0.311574028360905,0.02799207996908716,2.182752061662867e-05,-6.391602239239882e-06,2.239366397526973e-07,2.497992429573586e-05,2.549962395097931e-05
130.5475675585802,179.898741441887,12.5,0,7.076971200374271,-0.2718419294824417,-0.09446972627351899,2.286378138478362e-05,-6.53147113464323e-06,-7.557578101881519e-07,2.638107749425385e-05,2.566527151231875e-05
133.5682214327634,180.3540946667786,12.5,0,7.042509154677071,-0.2463262304471132,0.01184208831128274,2.273309027932431e-05,-6.422251261172418e-06,9.47367064902619e-08,2.632361262860158e-05,2.694914585200904e-05
128.7013665683444,171.7169520633098,12.5,0,6.138682005150621,-0.3779142665032851,0.2198907125296552,1.994611382968461e-05,-6.120271256931009e-06,1.759125700237242e-06,2.246866149207408e-05,2.197655956061327e-05
131.332380500696,172.0316821635565,12.5,0,6.104127240362387,-0.3780536881146781,0.3349129153494683,1.983565011965138e-05,-6.09307359425688e-06,2.679303322795747e-06,2.234443227627791e-05,2.296135784956266e-05
129.3771230312703,174.7116948243169,12.5,0,6.475365439503374,-0.2958446349270867,0.1950786669686308,2.095784511435246e-05,-6.126995183369376e-06,1.560629335749047e-06,2.400249155355315e-05,2.33559846441435e-05
132.1507550806631,175.0778965605438,12.5,0,6.438733770925714,-0.2968891047691995,0.3048392007991527,2.084145935077764e-05,-6.101032152002009e-06,2.438713606393221e-06,2.386584755037799e-05,2.443109937617054e-05
124.1443167621714,171.171823539021,12.5,0,5.834241177296708,-0.5639007706157926,0.2213791234953829,1.912069238384209e-05,-6.471875407807902e-06,1.771032987963063e-06,2.075828721897074e-05,2.035821966981922e-05
126.7753306945232,171.4865536392677,12.5,0,5.803682144415394,-0.5563986713650195,0.3291104111829884,1.901690179922127e-05,-6.423421463900376e-06,2.632883289463908e-06,2.067158355476296e-05,2.12790507875861e-05
124.573051400307,174.0774148113632,12.5,0,6.140808762128848,-0.489632069609192,0.210814141582946,2.004229369449966e-05,-6.479469632452491e-06,1.686513132663568e-06,2.214916478321846e-05,2.158026925969651e-05
127.3466834496998,174.4436165475902,12.5,0,6.108277082042563,-0.4833395005705441,0.3133770230588252,1.993315826299264e-05,-6.433308067459791e-06,2.507016184470601e-06,2.205019062962307e-05,2.259210701669973e-05
124.8869069383736,176.2044552486561,12.5,0,6.409850452221382,-0.5590963824837332,-0.06159220495433218,2.095879855309541e-05,-6.91698878572505e-06,-4.927376396346575e-07,2.297392402284747e-05,2.244972468355035e-05
127.7649426955157,176.6083368375676,12.5,0,6.378154051093418,-0.5460017245972593,0.03690577849878638,2.084689434317674e-05,-6.849728759585963e-06,2.95246227990291e-07,2.2890005852731e-05,2.352715398700483e-05
125.3156415765091,179.1100465209984,12.5,0,6.667960249393655,-0.4975899398620087,-0.06772930253281167,2.17355447499493e-05,-6.926656007073351e-06,-5.418344202624934e-07,2.414386886413474e-05,2.360307148665908e-05
128.3362954506923,179.5653997458901,12.5,0,6.635003124074419,-0.4857298043217315,0.02637674127545394,2.162059384049552e-05,-6.862337873089075e-06,2.110139302036315e-07,2.405152744758053e-05,2.476869358833665e-05
192.1568498126865,246.4614882284185,12.5,0,8.372968138508796,7.207334005137351,-6.212441913275105,2.102763083911826e-05,1.636509430563249e-05,-4.969953530620084e-05,5.871297423400474e-05,5.827606811792152e-05
193.4620335753119,245.5207985173262,12.5,0,8.422191628665086,7.41021748612394,-6.158330674839342,2.102283922282912e-05,1.697494265266453e-05,-4.926664539871474e-05,5.955462583725949e-05,5.972582412265679e-05
193.4197520926816,248.027083108405,12.5,0,8.328422461327857,7.037718274605345,-6.133165387544969,2.102077725656487e-05,1.585796050967482e-05,-4.906532310035975e-05,5.791480074562926e-05,5.754559417141134e-05
194.8980834641841,246.9256783885872,12.5,0,8.370697101536077,7.212140066632069,-6.085049529527635,2.101651867160979e-05,1.638229053199376e-05,-4.868039623622108e-05,5.863637072283616e-05,5.919840634826495e-05
194.3442607265932,249.1731781045761,12.5,0,7.740884449162694,7.506700185319769,-6.206244322475677,1.87654700890648e-05,1.78287330336931e-05,-4.964995457980542e-05,5.752805905343661e-05,5.694163528433455e-05
195.9493449449975,247.9541218328375,12.5,0,7.754370075041299,7.751697166369524,-6.157994189284659,1.861262650703653e-05,1.860193487234944e-05,-4.926395351427727e-05,5.839809062172926e-05,5.873489336495915e-05
195.6071630065882,250.7387729845626,12.5,0,7.638121110903105,7.312774246127223,-6.10530644177472,1.859176815798816e-05,1.729038069888463e-05,-4.884245153419776e-05,5.642307336920336e-05,5.602206286559804e-05
197.3853948338697,249.3590017040985,12.5,0,7.649104112055935,7.529815291693692,-6.061105842555391,1.845328092522404e-05,1.797612564377507e-05,-4.848884674044313e-05,5.718849675057435e-05,5.79959701189379e-05
197.1243481432465,247.0617107046773,12.5,0,8.252857576285509,7.934692468490147,-6.252688685591092,2.006139026932151e-05,1.878872983814006e-05,-5.002150948472874e-05,6.084892606228705e-05,6.013850529611916e-05
198.7294323616508,245.8426544329387,12.5,0,8.387017787350423,8.243757054512926,-6.139020603639569,2.024345127591101e-05,1.967040834456103e-05,-4.911216482911655e-05,6.23302970914595e-05,6.217998632569659e-05
198.6871508790205,248.3489390240175,12.5,0,8.246274419667868,7.696217393781215,-6.200417208276603,2.023110422791221e-05,1.803087612436559e-05,-4.960333766621282e-05,5.995841923709855e-05,5.956193006109797e-05
200.4653827063019,246.9691677435534,12.5,0,8.365905126518394,7.969430049268242,-6.098442703832938,2.039535236544426e-05,1.880945205644366e-05,-4.87875416306635e-05,6.126829250232256e-05,6.18663049325389e-05
194.417494402727,244.8321658546786,12.5,0,8.761309601911389,7.481769966240781,-6.185531473193128,2.205077475312382e-05,1.693261621044139e-05,-4.948425178554503e-05,6.101991710257707e-05,6.082904028911722e-05
195.7226781653524,243.8914761435864,12.5,0,8.880405848625818,7.691285516951313,-6.096685709695408,2.226427030204157e-05,1.750778897534355e-05,-4.877348567756327e-05,6.211390371397265e-05,6.239332690301136e-05
195.9802971385009,246.1193941740188,12.5,0,8.795551445946687,7.306045973570635,-6.162779242895719,2.230092784817289e-05,1.634290595866868e-05,-4.930223394316575e-05,6.051671101740753e-05,6.047802645842757e-05
197.4586285100035,245.0179894542011,12.5,0,8.899314603514123,7.485494857436104,-6.085408553265343,2.248941084529631e-05,1.683413186098423e-05,-4.868326842612274e-05,6.145780411987556e-05,6.232120143707374e-05
130.8631911220628,221.2541974682755,12.5,0,8.686422201860863,0.2620466427061032,-3.09903658178929,2.758691373178987e-05,-6.110588504829159e-06,-2.479229265431432e-05,3.504415993697214e-05,3.415811045151704e-05
134.0327885172745,221.7939773284743,12.5,0,8.75070272429015,0.3842212266650542,-3.185505809444526,2.769487173639643e-05,-5.771054254103945e-06,-2.548404647555621e-05,3.570084162178881e-05,3.541795986430688e-05
131.2005880605146,224.1642811019126,12.5,0,8.475999042504395,0.1973779619262679,-3.048410242003754,2.696529456647304e-05,-6.149189755839458e-06,-2.438728193603003e-05,3.403351990328617e-05,3.438987411882326e-05
134.2632643365743,224.7678059573954,12.5,0,8.548758183655568,0.3259570457499266,-3.139552934690017,2.709526055109788e-05,-5.79594400052469e-06,-2.511642347752014e-05,3.474314318061424e-05,3.55717471247749e-05
131.4475797617691,226.294610175919,12.5,0,8.569560465503871,0.4454831357295863,-3.405332677215171,2.706620698102871e-05,-5.43010233806842e-06,-2.724266141772137e-05,3.533469007102472e-05,3.452065892757606e-05
134.4319843462107,226.9447996066761,12.5,0,8.664143218251855,0.6050986315589439,-3.517573360662588,2.724117939315878e-05,-4.994998953612863e-06,-2.81405868853007e-05,3.623809230644869e-05,3.564249870121922e-05
131.7849767002209,229.2046938095561,12.5,0,8.285103494228661,0.3578773264910522,-3.336259746769012,2.622602932033887e-05,-5.482875350611561e-06,-2.66900779741521e-05,3.396855864286019e-05,3.464620600265589e-05
134.6624601655105,229.9186282355972,12.5,0,8.39223946210654,0.5265309824382407,-3.455087186226208,2.643394149279033e-05,-5.02889242588286e-06,-2.764069748980967e-05,3.49490034295825e-05,3.568200834232089e-05
136.6167201322705,227.4207713045143,12.5,0,8.799506003700081,0.7493274195407396,-3.639077574540433,2.755895727620767e-05,-4.641757060429698e-06,-2.911262059632346e-05,3.725504304301415e-05,3.647826836509115e-05
139.6011247167121,228.0709607352713,12.5,0,8.902349863098388,0.9250704380983337,-3.760308661838148,2.774746321143617e-05,-4.161654488564042e-06,-3.008246929470519e-05,3.824989947568441e-05,3.763979377666794e-05
136.7689242599522,230.4412645087096,12.5,0,8.485271126608396,0.6625889458573033,-3.568249934631487,2.662279644846102e-05,-4.667932274543345e-06,-2.854599947705189e-05,3.577779846958647e-05,3.645546202880199e-05
139.6464077252418,231.1551989347507,12.5,0,8.601215026215019,0.8474914934569502,-3.696122403419045,2.68458948891225e-05,-4.168999241909775e-06,-2.956897922735236e-05,3.685275844380381e-05,3.753277445799466e-05
136.3530948500088,222.1891236110255,12.5,0,9.026391778449559,0.5619535956939694,-3.339411708642574,2.843489081448341e-05,-5.422861916538945e-06,-2.671529366914059e-05,3.735743316264899e-05,3.636688021825101e-05
139.5226922452205,222.7289034712242,12.5,0,9.117323548622476,0.7419832610439883,-3.457994174778513,2.858184874675673e-05,-4.919512403557218e-06,-2.76639533982281e-05,3.831330332610654e-05,3.769952942488302e-05
136.5052989776905,225.2096168152208,12.5,0,8.732401886812134,0.4804141639479831,-3.270059754483968,2.755935470664044e-05,-5.448596184816162e-06,-2.616047803587174e-05,3.597061556390594e-05,3.645453294049066e-05
139.5679752537502,225.8131416707036,12.5,0,8.83465325585855,0.6690510478671448,-3.394743078501754,2.773564958045364e-05,-4.926759251511976e-06,-2.715794462801403e-05,3.699760613019484e-05,3.768447563537816e-05
208.9687740335943,251.5418606054412,12.5,0,6.501447705819054,9.23731875967316,-5.701436905556772,1.341477765088244e-05,2.435826186629887e-05,-4.561149524445418e-05,5.902082894437678e-05,5.941468086265908e-05
211.3979424196718,251.1663326824881,12.5,0,6.520750313637938,9.864093069926479,-6.018472859644549,1.297512654770022e-05,2.634849757285438e-05,-4.81477828771564e-05,6.153523652094694e-05,6.085847916409303e-05
209.9654334565049,254.0568225905677,12.5,0,5.476256940340677,8.731757077592761,-5.307365674545475,1.053861654701596e-05,2.356061709602429e-05,-4.245892539636381e-05,5.344851076810603e-05,5.575925638826331e-05
212.39317833592,253.6362626000509,12.5,0,5.477867755587084,9.345832757035634,-5.615607689977921,1.005251061225016e-05,2.552437061804436e-05,-4.492486151982337e-05,5.586354816439338e-05,5.670654330421966e-05
207.242509275302,247.1858186681759,12.5,0,8.135535026756896,9.202769050595446,-5.980425613065381,1.867149684514571e-05,2.29404329404999e-05,-4.784340490452305e-05,6.473846766754781e-05,6.542723758052492e-05
209.6741432472435,246.8882885742117,12.5,0,8.207535030890131,9.894958629782849,-6.27776192433048,1.834814519502214e-05,2.509783959059301e-05,-5.022209539464384e-05,6.763103959842837e-05,6.7719957187903e-05
208.2391686982125,249.7007806533025,12.5,0,7.173848060347563,8.692491221958713,-5.575822930393493,1.600232081554523e-05,2.207689346198983e-05,-4.460658344314795e-05,5.932253192109147e-05,6.200520861548425e-05
210.6693791634917,249.3582184917746,12.5,0,7.228714107840828,9.371331320062069,-5.864211894094987,1.563482008904099e-05,2.420528893792596e-05,-4.691369515275989e-05,6.21110019619426e-05,6.380951452004385e-05
203.0307956905646,247.7011559076933,12.5,0,7.999539088853765,8.695926799541422,-6.068891785579741,1.864178364469891e-05,2.142733448744953e-05,-4.855113428463792e-05,6.251972567633252e-05,6.225356086196728e-05
205.462429662506,247.4036258137291,12.5,0,8.060429687041632,9.301095783682383,-6.335549309074643,1.835249837158732e-05,2.331516275815032e-05,-5.068439447259714e-05,6.50417607514606e-05,6.396252109952758e-05
204.0299206993391,250.2941157218089,12.5,0,7.115130176004753,8.237941349980286,-5.70431938748556,1.617806348323098e-05,2.066930817913311e-05,-4.563455509988448e-05,5.758231456248523e-05,5.940888473509467e-05
206.4601311646182,249.9515535602809,12.5,0,7.160756465791313,8.831579711628851,-5.963157693672801,1.584915692122912e-05,2.253244990457927e-05,-4.77052615493824e-05,6.00124675567244e-05,6.082606341845546e-05
204.7613309688437,252.192294047645,12.5,0,6.515270913407011,8.76996993232628,-5.823971552361941,1.383289097704141e-05,2.285168705271848e-05,-4.659177241889553e-05,5.747428375705409e-05,5.724853329262331e-05
207.1904993549211,251.816766124692,12.5,0,6.55581365606033,9.397645103390378,-6.086904673291059,1.346048761668075e-05,2.482781340600095e-05,-4.869523738632847e-05,6.002605679583924e-05,5.844739878170881e-05
205.7604559776182,254.7852538617605,12.5,0,5.611238022846662,8.295685643394986,-5.445175738948702,1.131941315839333e-05,2.205720364058662e-05,-4.356140591158962e-05,5.243326140291504e-05,5.419101951620849e-05
208.1882008570333,254.3646938712437,12.5,0,5.636482421722707,8.911543099993546,-5.700160908745451,1.090750926951783e-05,2.400775198260118e-05,-4.560128726996361e-05,5.489428510381789e-05,5.508522382074542e-05
181.8719153076244,238.4017336347169,12.5,0,9.921526239725861,5.381301180561474,-5.774633392658875,2.744384302267358e-05,9.282942786016028e-06,-4.6197067141271e-05,5.77193082653012e-05,5.780799618836552e-05
184.4561422434647,239.2217553017553,12.5,0,10.15344808638527,5.638699650134612,-6.011180680523532,2.798007415632516e-05,9.921080411322541e-06,-4.808944544418826e-05,5.95771706186485e-05,5.902563530408442e-05
181.1752440360189,240.2330595808351,12.5,0,9.499126177336889,5.334707489608199,-5.775092989781204,2.612943777579148e-05,9.471763024876726e-06,-4.620074391824963e-05,5.603633739640803e-05,5.642135977321984e-05
183.4872183551573,240.9140763879608,12.5,0,9.74868828720569,5.624238800118491,-6.042457065277357,2.669641147896341e-05,1.019861353061462e-05,-4.833965652221886e-05,5.808858740496338e-05,5.743124558147249e-05
177.3959029565414,236.9814144441247,12.5,0,9.98551938076568,4.715202674233415,-5.613370953809298,2.818149987906344e-05,7.100233052934383e-06,-4.490696763047438e-05,5.561593363065725e-05,5.565755455708221e-05
179.9801298923817,237.801436111163,12.5,0,10.22755597389258,5.039175434792922,-5.849817359170426,2.869683876862192e-05,7.943316612223284e-06,-4.679853887336341e-05,5.772852166769911e-05,5.690552167219155e-05
177.1707870495484,239.0535038701061,12.5,0,9.517804040434957,4.623357444901048,-5.54034527005707,2.675828697347102e-05,7.180500591335388e-06,-4.432276216045656e-05,5.356441274570994e-05,5.460526628613892e-05
179.482761368687,239.7345206772318,12.5,0,9.776587973615845,4.98485408051761,-5.804008378512497,2.729719825115661e-05,8.130262678763674e-06,-4.643206702809998e-05,5.588288158882935e-05,5.566414090323171e-05
177.0059907680446,240.5703786076862,12.5,0,9.403197764299192,4.777904360453752,-5.742966603733151,2.626790935739441e-05,7.76673574201265e-06,-4.594373282986521e-05,5.380060258838688e-05,5.382285907318584e-05
179.1186623392723,241.1496367948613,12.5,0,9.575109064062231,5.031328631631927,-5.924416061393545,2.661528609969359e-05,8.440164369972379e-06,-4.739532849114836e-05,5.539114582773514e-05,5.475393987187245e-05
176.7808748610516,242.6424680336676,12.5,0,8.947034378481344,4.688920908292927,-5.669566505801175,2.487937328450596e-05,7.846919403752288e-06,-4.53565320464094e-05,5.180814801918938e-05,5.273757108604207e-05
178.6212938155775,243.0827213609302,12.5,0,9.129626275245354,4.979096251207337,-5.876980579602186,2.523152707981926e-05,8.629406983667194e-06,-4.701584463681749e-05,5.357962903961651e-05,5.350860517795148e-05
180.6652452690516,241.5736832185557,12.5,0,9.257184524295782,5.304598711691487,-5.845829675242858,2.537931150839331e-05,9.568968257976131e-06,-4.676663740194286e-05,5.511042756758962e-05,5.541849022677055e-05
182.7779168402793,242.1529414057308,12.5,0,9.41449132512116,5.51823682138366,-6.016520684649769,2.571178278328078e-05,1.012676476833078e-05,-4.813216547719815e-05,5.651146241804355e-05,5.630299476193068e-05
179.968573997446,243.4050091646739,12.5,0,8.880279658693494,5.275035375445672,-5.834066533643814,2.419686660746264e-05,9.775889474471352e-06,-4.667253226915051e-05,5.36492798089713e-05,5.406523608753672e-05
181.8089929519719,243.8452624919364,12.5,0,9.049564933528808,5.52346036247941,-6.033006577765556,2.453983949730865e-05,1.043542121311107e-05,-4.826405262212444e-05,5.523165824198974e-05,5.481494592174211e-05
120.4243633116338,141.2079873192396,12.5,0,1.841651811483878,-0.4217149870611482,1.379320839702206,6.230657786397328e-06,-2.822809407782776e-06,1.103456671761765e-05,6.72062407935192e-06,6.907443837052252e-06
123.5829090101826,141.6215187044417,12.5,0,1.796553047036015,-0.3885731756907504,1.540093852362868,6.059828291067848e-06,-2.680676599839213e-06,1.232075081890294e-05,6.83629525694736e-06,7.616261690986592e-06
120.7433075504804,144.125659510454,12.5,0,2.280323610033273,-0.3169587941285998,1.379257598127973,7.550602587409354e-06,-2.838527029238138e-06,1.103406078502379e-05,8.517817341248139e-06,8.179868928748693e-06
123.7445184170168,144.6236682157984,12.5,0,2.216466130081045,-0.2859067297596437,1.548783059390242,7.321417000067058e-06,-2.688074439295696e-06,1.239026447512193e-05,8.540821357534855e-06,8.936160547931612e-06
120.9767909380876,146.2615437941629,12.5,0,2.605299958847137,-0.4664184243640993,1.239866156559473,8.710094607802118e-06,-3.576778925042828e-06,9.918929252475785e-06,9.166667323164707e-06,9.140622894029647e-06
123.8628247137954,146.8213941899361,12.5,0,2.543435255302023,-0.4468197632064292,1.374813686716755,8.496448627531616e-06,-3.464571446502191e-06,1.099850949373404e-05,9.106243557874803e-06,9.92806622516641e-06
121.2957351769342,149.1792159853773,12.5,0,3.014435449557543,-0.3684183128203325,1.238722623293801,9.940928088840402e-06,-3.590486960671098e-06,9.909780986350409e-06,1.093016548824423e-05,1.049302644916563e-05
124.0244341206296,149.8235437012927,12.5,0,2.932064233053662,-0.3516634598784538,1.381826028407156,9.66393631367448e-06,-3.470974458053981e-06,1.105460822725725e-05,1.07757853529248e-05,1.131810407485809e-05
125.9755480698836,147.2312331242622,12.5,0,2.906697012137933,-0.2999879189275465,1.253565036779658,9.541420773983421e-06,-3.285318950278494e-06,1.002852029423727e-05,1.073378950569982e-05,1.056190973911854e-05
128.8615818455914,147.7910835200353,12.5,0,2.857866691776853,-0.2452136258100458,1.377292107615196,9.341344314333966e-06,-3.070976956013629e-06,1.101833686092157e-05,1.07975422468857e-05,1.150615909222063e-05
126.0219803858892,150.2952243260476,12.5,0,3.307213246868497,-0.2010423054464231,1.282524611791114,1.074391623433633e-05,-3.289105974923351e-06,1.026019689432891e-05,1.251677691333496e-05,1.19774858404603e-05
128.7506793295846,150.939552041963,12.5,0,3.240298688569883,-0.1469859038222615,1.412083525926064,1.048654452648144e-05,-3.062593843087144e-06,1.129666820740851e-05,1.250822392493242e-05,1.295387270005415e-05
125.8951249394502,141.924244688921,12.5,0,2.109452946905015,-0.2478214832878981,1.416033026791034,6.948506616726365e-06,-2.480591104045285e-06,1.132826421432827e-05,8.135274364353234e-06,8.184574607771973e-06
129.053670637999,142.3377760741231,12.5,0,2.073089073815533,-0.1867394491077908,1.57011108948488,6.783276595495937e-06,-2.256037496197357e-06,1.256088871587904e-05,8.330817656936507e-06,9.02841651715897e-06
125.9415572554558,144.9882358907065,12.5,0,2.553621785131115,-0.1379028367659081,1.443164012759645,8.281911981832294e-06,-2.484186505755798e-06,1.154531210207716e-05,1.004659810907286e-05,9.545602237388405e-06
128.9427681219922,145.4862445960509,12.5,0,2.499888452456982,-0.07753574736953928,1.604173220726493,8.061671645757975e-06,-2.248025153548111e-06,1.283338576581194e-05,1.016647119835092e-05,1.045433627812284e-05
193.9986672276165,253.5511449290206,12.5,0,6.733776072425405,7.395970598705195,-6.009305792386468,1.563130695279714e-05,1.82800850579163e-05,-4.807444633909175e-05,5.349720732695842e-05,5.298277653086447e-05
195.2618269547814,252.7912316687537,12.5,0,6.638278052601867,7.577481398932567,-6.053549923315471,1.518050464917992e-05,1.893731803450272e-05,-4.842839938652376e-05,5.383480208293121e-05,5.403070577298475e-05
194.6298340739309,255.2633357384933,12.5,0,6.368393811718528,7.20215604463729,-5.851385247103365,1.461713536178946e-05,1.79521842934645e-05,-4.681108197682692e-05,5.144185982714678e-05,5.166823457235661e-05
196.0886147694824,254.5994129329954,12.5,0,6.312065057866655,7.384455590280238,-5.90519586370376,1.42910437129491e-05,1.858060584260344e-05,-4.724156690963008e-05,5.192576417032526e-05,5.262947750992606e-05
191.8108104021315,254.8673533051245,12.5,0,6.598315943859791,7.049534846548925,-5.966186263193336,1.547498314311219e-05,1.727985875386872e-05,-4.772949010554669e-05,5.178640370185711e-05,5.129814601304367e-05
193.0739701292963,254.1074400448576,12.5,0,6.48244643176583,7.251057385531507,-6.021260624351726,1.494298267322545e-05,1.801742648828815e-05,-4.817008499481381e-05,5.213015619895911e-05,5.225058934994125e-05
192.1031517921803,256.4132837698985,12.5,0,6.22401334838989,6.902712274734122,-5.828019892527579,1.439467289506035e-05,1.710946860043728e-05,-4.662415914022063e-05,4.987925437360234e-05,5.013146519559817e-05
193.5619324877318,255.7493609644007,12.5,0,6.156988090317187,7.098475607103611,-5.891251910561192,1.402358140333211e-05,1.77895314704778e-05,-4.713001528448954e-05,5.037948163807645e-05,5.099889419007028e-05
192.3171605428423,257.5449834150335,12.5,0,5.918666381983257,7.092692871091936,-5.78421850792826,1.326557812547287e-05,1.796168408190759e-05,-4.627374806342607e-05,4.946119292579494e-05,4.927414116216405e-05
193.9191457262726,256.9513304994653,12.5,0,5.855414559644724,7.352842149307845,-5.881789220471755,1.285505287141684e-05,1.884476323006933e-05,-4.705431376377404e-05,5.023006328361908e-05,5.007196347275136e-05
192.6095019328912,259.0909138798075,12.5,0,5.549450270908614,6.950105935173067,-5.652626391754079,1.219815611876911e-05,1.780077877582692e-05,-4.522101113403263e-05,4.759862509497349e-05,4.809856916161808e-05
194.4071080847082,258.5932514190083,12.5,0,5.522827654389791,7.199959591182625,-5.752935854918363,1.191308082110123e-05,1.862160856827257e-05,-4.60234868393469e-05,4.846093533905655e-05,4.879123681770309e-05
195.0918802734663,256.5167464032264,12.5,0,5.985403942471202,7.486003597131913,-5.828444469200512,1.316448973820231e-05,1.916688835684516e-05,-4.662755575360409e-05,5.110468204957345e-05,5.068504636218085e-05
196.6938654568967,255.9230934876581,12.5,0,5.930081815523588,7.806449830498107,-5.925083140436506,1.273110194527699e-05,2.023657400517507e-05,-4.740066512349205e-05,5.211534250789721e-05,5.156219765483725e-05
195.7230471197807,258.228937212699,12.5,0,5.534222458652954,7.241679089653749,-5.628201535675593,1.191616859596645e-05,1.874599511996963e-05,-4.502561228540475e-05,4.855413379470038e-05,4.93134681769716e-05
197.5206532715977,257.7312747518998,12.5,0,5.516300616572133,7.556125328530918,-5.732359221240568,1.160726171020609e-05,1.976656055804123e-05,-4.585887376992454e-05,4.967933560374514e-05,5.004756312777456e-05
127.48811629327,114.9455711878902,12.5,0,-1.869727839692308,0.01098096289938161,1.964254765218101,-5.991913857334889e-06,1.530921353031867e-06,1.571403812174481e-05,1.883803653327329e-06,2.081965661624259e-06
129.2806959717952,115.9399018513554,12.5,0,-1.992738419599202,0.04565530887202784,2.044694517870504,-6.413287189815069e-06,1.740287724069851e-06,1.635755614296403e-05,1.978040289975482e-06,2.216530831845956e-06
127.2201143846309,117.1515465933064,12.5,0,-1.619988259039002,0.08119027514258081,2.001135141559127,-5.248914649038869e-06,1.555799487687459e-06,1.600908113247302e-05,2.095249233726459e-06,2.173568176744891e-06
129.1814541885616,117.8910719922444,12.5,0,-1.693420041320941,0.1244048213894758,2.081211079321904,-5.51846798933859e-06,1.752831461503075e-06,1.664968863457524e-05,2.217047440837663e-06,2.330961574584506e-06
127.02392337099,118.7664326702497,12.5,0,-1.350891453157383,-0.04269449054070351,1.908371873853166,-4.288697057671062e-06,9.440907927956549e-07,1.526697499082532e-05,1.969538528272011e-06,2.268272215933684e-06
129.108804161004,119.3194276695258,12.5,0,-1.411017664975318,0.03750110803005219,2.019177898489861,-4.545257414345059e-06,1.248817677676421e-06,1.615342318791889e-05,2.179547645789042e-06,2.441629658152844e-06
126.7559214623509,120.9724080756659,12.5,0,-1.069786407384416,0.03757262452205867,1.953951850077022,-3.453374603247777e-06,9.760615243781202e-07,1.563161480061618e-05,2.302190793930753e-06,2.435405947569827e-06
129.0095623777704,121.2705978104148,12.5,0,-1.086123839970157,0.1235856925654587,2.063579455289812,-3.574464841956868e-06,1.264373288185593e-06,1.65086356423185e-05,2.569593317202942e-06,2.629549742512124e-06
130.6350428269537,119.7242481053102,12.5,0,-1.176451237047216,0.1454150006347611,1.931845579737888,-3.8809759590589e-06,1.406488991669008e-06,1.54547646379031e-05,2.321077567848807e-06,2.584321558929375e-06
132.7199236169676,120.2772431045862,12.5,0,-1.260955023365679,0.1792973233076635,2.066220783568657,-4.178493933416303e-06,1.582515453277066e-06,1.652976626854925e-05,2.51029930434558e-06,2.800805639476848e-06
130.6593420298034,121.4888878465372,12.5,0,-0.9341425895429352,0.205501010901973,1.944860903956414,-3.153657095258971e-06,1.404917306520662e-06,1.555888723165131e-05,2.620871971428538e-06,2.785186022647192e-06
132.912982945223,121.787077581286,12.5,0,-0.9657249049499455,0.24752295017409,2.069454460910829,-3.288338055979097e-06,1.564653364517044e-06,1.655563568728663e-05,2.857544646702459e-06,3.016248452553001e-06
130.5929553730352,116.6678024165047,12.5,0,-1.569997894652361,0.1871907438787077,1.972461872423487,-5.173745857990522e-06,1.855008696133754e-06,1.577969497938789e-05,2.193735294739905e-06,2.333110562466067e-06
132.3855350515604,117.66213307997,12.5,0,-1.711104729550842,0.1988371774347916,2.065905305296394,-5.634604876510527e-06,2.005162751432006e-06,1.652724244237115e-05,2.268410464859934e-06,2.517047139444748e-06
130.617254575885,118.4324421577317,12.5,0,-1.371017130417588,0.2364714090060491,1.984927532164261,-4.576431944541121e-06,1.853522213153427e-06,1.587942025731408e-05,2.38340524718439e-06,2.463188304459684e-06
132.5785943798156,119.1719675566698,12.5,0,-1.452812382435367,0.2577819035405071,2.071054902543301,-4.85522514662558e-06,1.987151997277916e-06,1.656843922034641e-05,2.486399958069984e-06,2.667045050773099e-06
214.4840052479744,255.6604638132484,12.5,0,3.964746055328627,9.379161655247961,-4.668003009820234,5.183858052853238e-06,2.684152045253057e-05,-3.734402407856187e-05,5.032083955814122e-05,5.327599491861695e-05
216.6801974199284,256.5440064193542,12.5,0,4.168812083571252,9.56218683926673,-4.846648267731285,5.690449196014621e-06,2.726394821879653e-05,-3.877318614185028e-05,5.177621353423191e-05,5.142280198755992e-05
214.5561627775339,258.2141341081542,12.5,0,3.491026898588913,9.256532022537304,-4.60354193609551,3.76606045745468e-06,2.682808095324824e-05,-3.682833548876408e-05,4.826545299532034e-05,4.918525106852395e-05
216.6937909918746,258.9334241474455,12.5,0,3.671892687726333,9.437068314019841,-4.783105615392054,4.200401949508393e-06,2.726110445468242e-05,-3.826484492313643e-05,4.96330427559076e-05,4.744710748060669e-05
214.6089857553179,260.0835505097251,12.5,0,2.757059135572322,8.86188662682904,-4.059675346818747,1.733079932368198e-06,2.615238989739507e-05,-3.247740277454998e-05,4.408508514622003e-05,4.646056420143285e-05
216.7037421771952,260.6825993248398,12.5,0,2.852177306682232,8.978445639271836,-4.162573849438188,1.944210869965675e-06,2.644928420032409e-05,-3.33005907955055e-05,4.488562969136324e-05,4.482495462168937e-05
214.6811432848775,262.6372208046309,12.5,0,2.466169417592039,8.786074163968237,-4.012858992232746,8.628828051199331e-07,2.614250179062473e-05,-3.210287193786197e-05,4.283388100428802e-05,4.31073250956008e-05
216.7173357491415,263.0720170529311,12.5,0,2.545486655732271,8.90111555538998,-4.115696500828959,1.024664854031281e-06,2.644718045266212e-05,-3.292557200663168e-05,4.357665494146717e-05,4.163679429256393e-05
218.2372103074254,261.121133493699,12.5,0,1.981977949632555,8.777693558427684,-3.402013233828996,-6.798254079179705e-07,2.650303702726254e-05,-2.721610587063197e-05,4.090198683616508e-05,4.342855643161054e-05
220.3319667293027,261.7201823088137,12.5,0,1.99297325099053,8.699859124623648,-3.43539184585385,-5.823728965292224e-07,2.624517059800324e-05,-2.74831347668308e-05,4.066461805371013e-05,4.124913520829919e-05
218.2079320869083,263.3903099976137,12.5,0,1.863188778701255,8.746911599235323,-3.436212947374278,-1.035325187544243e-06,2.649956609459202e-05,-2.748970357899423e-05,4.042528113383303e-05,4.039689693724526e-05
220.2441245511723,263.825106245914,12.5,0,1.866046161486744,8.664399080433231,-3.473098203981553,-9.601715475890046e-07,2.623324012819694e-05,-2.778478563185242e-05,4.014670907590198e-05,3.84799651692372e-05
218.2879216729154,257.1908044976479,12.5,0,2.832618857598805,9.285654124395519,-4.00700278453476,1.63585704479976e-06,2.744799811198661e-05,-3.205602227627808e-05,4.586928202763922e-05,4.97884259080452e-05
220.4841138448694,258.0743471037537,12.5,0,2.901743794072594,9.295054904439519,-4.07212653363946,1.849536217480685e-06,2.742278065894838e-05,-3.257701226911568e-05,4.616583912183272e-05,4.717642035100297e-05
218.2586434523982,259.4599810015625,12.5,0,2.656094800864114,9.241421746792133,-4.010999183797588,1.106365965331457e-06,2.744767374904353e-05,-3.20879934703807e-05,4.513359592466699e-05,4.594500903495155e-05
220.396271666739,260.1792710408539,12.5,0,2.715351745596482,9.248110836258208,-4.078358971401145,1.290636916902177e-06,2.742167327954908e-05,-3.262687177120916e-05,4.538887481072311e-05,4.357934335119426e-05
183.4941155491774,202.8927122396408,12.5,0,13.93581853834378,4.86514475304662,-2.762386209905573,4.07025035202628e-05,4.419808379074156e-06,-2.209908967924459e-05,6.954343985306365e-05,6.8231308745573e-05
185.7134649887456,203.4343451459947,12.5,0,14.09869418262848,5.376421011315037,-2.865780032395799,4.081468457535909e-05,5.925591890105337e-06,-2.292624025916639e-05,7.19004326588868e-05,7.098615337235327e-05
183.7611207519568,205.0409343722405,12.5,0,13.80034238284716,4.784340540982458,-2.605606127041332,4.033362319232493e-05,4.269615824866141e-06,-2.084484901633066e-05,6.872247205817e-05,6.887935738587305e-05
186.1733182441582,205.4423259273909,12.5,0,13.93533857273934,5.238835730508174,-2.684986823604145,4.040201484835934e-05,5.616003479434685e-06,-2.147989458883316e-05,7.077648843368239e-05,7.185614989380273e-05
183.0316489720866,199.1718823601009,12.5,0,13.68322491790893,4.705510615002261,-2.266586593200373,4.002191124530675e-05,4.111054033680093e-06,-1.813269274560298e-05,6.793789375674565e-05,6.683253203477451e-05
184.9169757863595,199.956420412057,12.5,0,13.87169545251201,5.120826566891535,-2.409234693624124,4.029276419452519e-05,5.289288652043304e-06,-1.927387754899299e-05,7.007462721180239e-05,6.923714502241458e-05
183.2986541748659,201.3201044927007,12.5,0,13.47487202226997,4.611814942607642,-2.123489500849881,3.943013851717778e-05,3.977910198528479e-06,-1.698791600679905e-05,6.680660472709172e-05,6.768286354571567e-05
185.376829041772,201.9644011934532,12.5,0,13.61903920578962,4.96868927182601,-2.234171138046991,3.960597404106597e-05,5.004574305211536e-06,-1.787336910437593e-05,6.857170669382564e-05,7.028439313211349e-05
179.7661671409526,197.8130225936664,12.5,0,13.22515106026982,4.015740238018831,-2.070783654350693,3.910789120244835e-05,2.270247913444402e-06,-1.656626923480554e-05,6.386319269673878e-05,6.285440578612639e-05
181.6514939552255,198.5975606456224,12.5,0,13.40130604289119,4.390918242323364,-2.205070568756151,3.937144474339311e-05,3.329893541121812e-06,-1.764056455004921e-05,6.580744620507604e-05,6.512228221096588e-05
179.6991497184366,200.2041498718684,12.5,0,13.00632926599251,3.970768701495818,-1.934191590387393,3.844363868997936e-05,2.301396431992611e-06,-1.547353272309915e-05,6.285686695997738e-05,6.347513119406222e-05
181.7773245853427,200.8484465726208,12.5,0,13.14538398699023,4.30501003093965,-2.042929138617002,3.862122073361701e-05,3.259724909414699e-06,-1.634343310893602e-05,6.451847061067159e-05,6.585832730841964e-05
179.6500895601647,201.9545765268016,12.5,0,13.399818618327,4.08004258224394,-2.563926439131799,3.961538551285125e-05,2.336281368519005e-06,-2.051141151305439e-05,6.485263121692744e-05,6.383183820246724e-05
181.8694389997329,202.4962094331554,12.5,0,13.54087616170555,4.468686967544842,-2.670369993411356,3.975585414342189e-05,3.467097366779054e-06,-2.136295994729085e-05,6.67052281775287e-05,6.631431577346398e-05
179.5830721376487,204.3457038050035,12.5,0,13.22647312777578,4.045779837374736,-2.436277916647434,3.908809013898271e-05,2.365316977378531e-06,-1.949022333317947e-05,6.405136619311197e-05,6.418565446495122e-05
181.9952696298502,204.7470953601539,12.5,0,13.34228867253592,4.399138677024121,-2.52391778067843,3.917601281049564e-05,3.40341282844845e-06,-2.019134224542744e-05,6.568626999009944e-05,6.682405433022964e-05
180.9537654352556,248.2228637418411,12.5,0,8.074507132562358,5.581504930832737,-5.986986875487797,2.137321887953335e-05,1.140121007261487e-05,-4.789589500390237e-05,5.192174096147605e-05,5.174932658574748e-05
183.2032057784937,248.465672104587,12.5,0,8.265108684187133,6.090308537664882,-6.241842034653135,2.157610095926692e-05,1.287690037317791e-05,-4.993473627722507e-05,5.451224427125607e-05,5.267201677113366e-05
181.5448740015745,250.1996950580515,12.5,0,7.580609371406432,5.355352568763031,-5.797322070791192,1.997366793349015e-05,1.107264072291655e-05,-4.637857656632953e-05,4.926684031283293e-05,5.080785795009874e-05
184.0367615733386,250.3726462565287,12.5,0,7.726524252534623,5.79607189891852,-6.014493497719577,2.008802008897598e-05,1.236621067451156e-05,-4.811594798175662e-05,5.144125499921192e-05,5.178480632908579e-05
179.9299353656205,244.7988914642331,12.5,0,8.646870833534646,5.361874507079464,-5.938526990575022,2.338048706164729e-05,1.024050175582657e-05,-4.750821592460017e-05,5.318010523028903e-05,5.325799885541839e-05
181.7594447909048,245.1626959847627,12.5,0,8.849550348237543,5.792841168879069,-6.159746691422004,2.368428817925688e-05,1.145745146182299e-05,-4.927797353137603e-05,5.551718888156768e-05,5.400115497473403e-05
180.5210439319393,246.7757227804434,12.5,0,8.173334995156516,5.14369330118318,-5.754912779830479,2.203971734355431e-05,9.921150567660962e-06,-4.603930223864383e-05,5.062347806955402e-05,5.240583986264991e-05
182.5930005857497,247.0696701367044,12.5,0,8.319946466301975,5.501409390724334,-5.934357948064419,2.222270117958685e-05,1.094855287727629e-05,-4.747486358451535e-05,5.248368901811378e-05,5.326588560086243e-05
176.7611320881588,244.1687635506638,12.5,0,8.761646464568399,4.930780426740526,-5.855543676841168,2.409264434522645e-05,8.769180193914962e-06,-4.684434941472934e-05,5.208199872513564e-05,5.197595046843988e-05
178.5906415134431,244.5325680711935,12.5,0,8.955561233613302,5.331636010908439,-6.072054374376914,2.439248713883581e-05,9.896786248016361e-06,-4.857643499501531e-05,5.427599775043727e-05,5.271534694346589e-05
176.932309736524,246.266591024658,12.5,0,8.276837691734588,4.782260725149384,-5.707018548598751,2.266007203343117e-05,8.681764167090358e-06,-4.565614838879001e-05,4.974277268769242e-05,5.0980452232114e-05
179.0042663903343,246.560538380919,12.5,0,8.42034694680607,5.124111824861703,-5.888043555706088,2.284582076989006e-05,9.660880282112596e-06,-4.710434844564871e-05,5.153421267698633e-05,5.179345983715769e-05
177.0576204722421,247.8023073210703,12.5,0,8.114455434536756,5.068677335259125,-5.859460548269245,2.191131552231032e-05,9.728203125199792e-06,-4.687568438615396e-05,5.023720919429191e-05,5.023568436261287e-05
179.3070608154802,248.0451156838162,12.5,0,8.270028257024366,5.475316629271926,-6.075124264052775,2.208383711906043e-05,1.090499060805067e-05,-4.86009941124222e-05,5.232014319784556e-05,5.109651328441089e-05
177.2287981206073,249.9001347950646,12.5,0,7.681603800521957,4.936445317996607,-5.728667452037633,2.063197590727297e-05,9.651341977171576e-06,-4.582933961630106e-05,4.815756090674675e-05,4.919643893953029e-05
179.7206856923713,250.0730859935417,12.5,0,7.802152913923919,5.294860892689121,-5.91612517602596,2.073100061040524e-05,1.070183252546605e-05,-4.732900140820768e-05,4.993414769503091e-05,5.011430699837389e-05
176.1286412689369,205.2198392949421,12.5,0,12.93211203572709,3.510784384537501,-2.805174666014004,3.857413100669669e-05,8.888204019383283e-07,-2.244139732811203e-05,6.127103262527662e-05,6.085328176885144e-05
177.8893230150511,205.6917288994548,12.5,0,13.09392170818675,3.806262838843271,-2.963761353508442,3.885553919512298e-05,1.704903717749068e-06,-2.371009082806754e-05,6.290298471992562e-05,6.263779227494265e-05
175.4281445909835,206.9964597953556,12.5,0,12.63555900013537,3.528915832845797,-2.759053383793932,3.761065613415654e-05,1.184083464998253e-06,-2.207242707035146e-05,6.019579905033074e-05,6.040197860405121e-05
177.46962050509,207.7111050831765,12.5,0,12.79266995045418,3.778492787255213,-2.896728751585235,3.791374961164922e-05,1.857040958853333e-06,-2.317383001268188e-05,6.165354510246806e-05,6.24417044575635e-05
173.0790510287628,204.4025025243772,12.5,0,12.52860262884992,3.007691308434288,-2.5435236952801,3.768537536557231e-05,-3.982699160902164e-07,-2.03481895622408e-05,5.802033000362636e-05,5.794374258935432e-05
174.839732774877,204.87439212889,12.5,0,12.69322326857748,3.263370707811087,-2.716813124274366,3.800761789319907e-05,2.88207650133492e-07,-2.173450499419493e-05,5.95295531822993e-05,5.959551494640563e-05
171.8922045853863,205.7586578474824,12.5,0,12.28640308518906,3.076794979159502,-2.575096536272854,3.68550538892774e-05,1.662146515915433e-08,-2.060077229018283e-05,5.733739579973505e-05,5.708562107743379e-05
173.9336804994929,206.4733031353033,12.5,0,12.44113284085757,3.283541742955935,-2.716372072069097,3.718479169637946e-05,5.544273047729405e-07,-2.173097657655278e-05,5.864164404954751e-05,5.896682038779637e-05
171.0233726880892,206.7514324469082,12.5,0,12.20852838547659,2.812222403914878,-2.772932081732211,3.681751291039316e-05,-7.677110158536577e-07,-2.218345665385769e-05,5.623987906744582e-05,5.64543744060482e-05
173.2704041996265,207.6437872287292,12.5,0,12.50284112075846,3.113640442625406,-3.029667329510584,3.751817923232674e-05,-3.862348020546773e-08,-2.423733863608467e-05,5.841812053900327e-05,5.849418394286149e-05
169.8365262447126,208.1075877700134,12.5,0,11.91095967751609,2.848746514210214,-2.829600440603524,3.58360737566833e-05,-4.127788965401836e-07,-2.26368035248282e-05,5.525094320434059e-05,5.558789793956124e-05
172.3643519242423,209.2426982351426,12.5,0,12.18375202221134,3.108274170038098,-3.049168591105937,3.650138713504579e-05,1.994757263528449e-07,-2.43933487288475e-05,5.720181918602998e-05,5.783161172034503e-05
174.9153454322101,208.2970362673715,12.5,0,12.76449212179888,3.448066221682388,-3.139400499671335,3.808792181241049e-05,8.222182119445396e-07,-2.511520399737068e-05,6.053691578217087e-05,6.004499312064618e-05
177.1623769437473,209.1893910491925,12.5,0,13.05416862964752,3.795475900871744,-3.387374758188864,3.873695889417466e-05,1.702187979071563e-06,-2.709899806551091e-05,6.285544346972081e-05,6.224207305056491e-05
174.2148487542566,210.073656767785,12.5,0,12.38547974298606,3.432974257057281,-3.11776559135697,3.688715577190957e-05,1.077133828194447e-06,-2.494212473085576e-05,5.904998032389367e-05,5.952099380717785e-05
176.7426744337863,211.2087672329142,12.5,0,12.66046479999488,3.739542714369032,-3.337162177719346,3.752185318848839e-05,1.838164845984998e-06,-2.669729742175476e-05,6.117075569136933e-05,6.189275772121426e-05
213.3584766426575,285.3821977828768,12.5,0,0.5826200224126731,5.932594531211884,-1.963722038338171,-2.881691553248953e-06,1.851820648194789e-05,-1.570977630670537e-05,2.508712372610532e-05,2.540422268963043e-05
215.0792159270293,284.2630505821909,12.5,0,0.5527128664997552,6.243804798200619,-1.947057438355239,-3.226362665761279e-06,1.953800506104218e-05,-1.557645950684191e-05,2.615892579569484e-05,2.524822521631898e-05
214.9514862539201,286.5574471299843,12.5,0,0.3494183041117238,5.529119870807659,-1.790111418629683,-3.305157323488611e-06,1.741364894329513e-05,-1.432089134903747e-05,2.276581769098663e-05,2.410427310858339e-05
216.6774506850546,285.619092274817,12.5,0,0.3365629581774212,5.896472563482364,-1.78655234965786,-3.640176584618143e-06,1.859946183660163e-05,-1.429241879726288e-05,2.410982829436038e-05,2.37842327086091e-05
212.3109921237565,281.9143174734232,12.5,0,0.7949977851713509,6.642464049326025,-2.338236944738627,-2.769978326912497e-06,2.06198867297062e-05,-1.870589555790902e-05,2.860169687253633e-05,2.779425964216067e-05
213.9092268817818,283.2703591660492,12.5,0,0.5693763218356442,6.280499120596355,-2.170828699374087,-3.202395066603022e-06,1.964209612843982e-05,-1.73666295949927e-05,2.645793650545547e-05,2.632270869475773e-05
210.5993030590548,283.3466062021612,12.5,0,0.8605054493523445,6.328916568168423,-2.379879409169589,-2.309515816607236e-06,1.956412865865708e-05,-1.903903527335671e-05,2.765274494013825e-05,2.76463856053482e-05
212.1923126703173,284.5218555492687,12.5,0,0.6216605264929238,5.916321506877615,-2.202170245600525,-2.743743520724736e-06,1.843490040081403e-05,-1.76173619648042e-05,2.527006102594691e-05,2.635332887260921e-05
209.3462596969864,284.3951143226612,12.5,0,0.8884084325390422,6.503299977589195,-2.453568370708915,-2.35973299794642e-06,2.009983318225419e-05,-1.962854696567132e-05,2.843214819386788e-05,2.752545948731772e-05
210.9354442353417,285.438014487235,12.5,0,0.6954391166053984,6.153855101475346,-2.310132083384906,-2.697678908043002e-06,1.913598503143679e-05,-1.848105666707925e-05,2.64463376286626e-05,2.635260751982764e-05
207.6345706322847,285.8274030513994,12.5,0,0.9572434137776563,6.193048024603699,-2.493189501500244,-1.891259495594459e-06,1.905195894770971e-05,-1.994551601200195e-05,2.751047497445618e-05,2.73429572256948e-05
209.2185300238772,286.6895108704546,12.5,0,0.7522138378714327,5.786360121053676,-2.339848891534302,-2.222003815654356e-06,1.791458131707461e-05,-1.871879113227442e-05,2.526623646310369e-05,2.632001656952668e-05
212.0988080599712,286.2014703948926,12.5,0,0.6788970196118471,6.279083937212292,-2.096630492283885,-2.850796687011922e-06,1.954995098338985e-05,-1.677304393827108e-05,2.675424254337258e-05,2.548989381581828e-05
213.6879925983266,287.2443705594664,12.5,0,0.5002972188830059,5.931271925466086,-1.96118959558104,-3.144066439947249e-06,1.857983238638507e-05,-1.568951676464832e-05,2.482673612070006e-05,2.430576811146862e-05
210.3780687755996,287.3206175955785,12.5,0,0.6964522430163299,5.951677943214928,-2.121811632229716,-2.532695176919687e-06,1.848820762387471e-05,-1.697449305783773e-05,2.559168063417139e-05,2.556795421200363e-05
211.962028167192,288.1827254146336,12.5,0,0.5004842247801038,5.53577535714754,-1.974324280105622,-2.827070766421699e-06,1.731409376304804e-05,-1.579459424084497e-05,2.334804054997761e-05,2.453622229687143e-05
126.7043914098282,157.3012317843247,12.5,0,4.336933504539799,-0.3501047433643993,0.904206305903835,1.415827100921887e-05,-4.589881982397916e-06,7.23365044723068e-06,1.578565070834161e-05,1.531642403611732e-05
129.3161241458307,157.8944454391087,12.5,0,4.277065880144348,-0.333972730463088,1.0139145840385,1.395378900083238e-05,-4.490365441597359e-06,8.111316672307996e-06,1.564597416501439e-05,1.630721534128263e-05
127.0215465318104,160.1059482239789,12.5,0,4.657356319559721,-0.2737657248821446,0.9039003371318218,1.512255280249682e-05,-4.601935375270639e-06,7.231202697054575e-06,1.72268408456483e-05,1.6636262761802e-05
129.6049782642753,160.6600618184774,12.5,0,4.600829147057734,-0.2565464124629073,1.014656854234769,1.492789040055507e-05,-4.50161183752749e-06,8.117254833878151e-06,1.710027120414972e-05,1.762374939564057e-05
126.1550626246841,152.4433204101071,12.5,0,3.678679288206704,-0.3251513381482343,1.095659005338007,1.203189479278004e-05,-3.983427712639712e-06,8.765272042704053e-06,1.344733763805381e-05,1.298963824609402e-05
128.8158141367182,153.1042573558835,12.5,0,3.606614266932038,-0.312684834797115,1.213694515464636,1.179131352202021e-05,-3.885882884896398e-06,9.709556123717089e-06,1.32741386447615e-05,1.397860203943783e-05
126.4722177466663,155.2480368497613,12.5,0,4.017149526682611,-0.2441579686467512,1.094085297942015,1.305020486030176e-05,-3.995025121015692e-06,8.752682383536125e-06,1.495649218677337e-05,1.433931394206425e-05
129.1046682551628,155.8698737352522,12.5,0,3.948472214056954,-0.2306005709403127,1.213215231460282,1.28195915417345e-05,-3.896699598254563e-06,9.705721851682259e-06,1.479326317363382e-05,1.533050105092606e-05
121.5465058196079,151.2985440394435,12.5,0,3.353296840814963,-0.498920500833981,1.097746862221753,1.112968629127507e-05,-4.279183075320709e-06,8.781974897774023e-06,1.174058980387975e-05,1.147216655179416e-05
124.2072573316421,151.9594809852199,12.5,0,3.278237688181878,-0.4983222515381376,1.216930825427956,1.088901840341252e-05,-4.217221355467542e-06,9.73544660342365e-06,1.153325556918313e-05,1.23180408813201e-05
121.9126797176218,154.1709837700901,12.5,0,3.700363925833,-0.4148118108477792,1.08946214351658,1.217301401134382e-05,-4.287688935379294e-06,8.715697148132639e-06,1.327086904022996e-05,1.279482350488122e-05
124.5451302261183,154.792820655581,12.5,0,3.628696944414835,-0.4132178977867392,1.209649823820989,1.194240454035686e-05,-4.225254828449433e-06,9.677198590567909e-06,1.306970100916142e-05,1.365988119135695e-05
122.1807376153621,156.2737555945135,12.5,0,4.015867937088648,-0.5092583403533384,0.9118219933430974,1.325818407096634e-05,-4.8423210388016e-06,7.294575946744779e-06,1.41160767838248e-05,1.375778671792903e-05
124.7924703513647,156.8669692492976,12.5,0,3.95154679977083,-0.5141145275946499,1.021938494155779,1.305624138134238e-05,-4.806403928119544e-06,8.175507953246233e-06,1.390521773594143e-05,1.46333066953502e-05
122.5469115133761,159.1461953251601,12.5,0,4.340567245012728,-0.4296531685457334,0.9012051776876353,1.423353771887732e-05,-4.84734393535653e-06,7.209641421501082e-06,1.556936134704748e-05,1.50659941888202e-05
125.1303432458409,159.7003089196586,12.5,0,4.279526683304637,-0.4336025944819526,1.012228675166384,1.40413674621604e-05,-4.811149648985957e-06,8.097829401331076e-06,1.53683277946059e-05,1.595091431971931e-05
159.1406721351538,161.8052332823918,12.5,0,6.514858179646292,1.510034914209707,1.109362011615149,1.963951824350037e-05,-3.797748182459717e-07,8.874896092921189e-06,2.99389495196109e-05,2.944829198248196e-05
161.0121711909478,163.0266360927774,12.5,0,6.598747502832155,1.6920186273917,1.043798079047001,1.976237710714954e-05,1.354616053877143e-07,8.350384632376011e-06,3.083803281544556e-05,3.105108745063291e-05
157.8540011058161,163.5766205436683,12.5,0,6.488882454243271,1.599791097249048,1.1482991513259,1.948459097577922e-05,-7.177445219766357e-08,9.186393210607199e-06,3.014293271442771e-05,2.988157189824243e-05
159.9697423669588,164.8468600756271,12.5,0,6.563701552426432,1.767940192598434,1.090569183505996,1.958949281368583e-05,4.064473743738432e-07,8.72455346804797e-06,3.096508295326055e-05,3.162190792260239e-05
155.8991406842596,159.6897015583347,12.5,0,6.003180880075922,1.225502669172091,1.194996899081211,1.822977668090528e-05,-8.809361627100474e-07,9.55997519264969e-06,2.709389027652378e-05,2.678578903606528e-05
157.7706397400536,160.9111043687202,12.5,0,6.108772078052129,1.414269470839079,1.116816784838953,1.841665507309555e-05,-3.613553557566499e-07,8.934534278711624e-06,2.808638025416207e-05,2.830540871685638e-05
154.1894297459128,161.3765011365725,12.5,0,5.962394054011481,1.345488774510841,1.217674292672911,1.800326995322806e-05,-4.643511647744927e-07,9.741394341383292e-06,2.733442337736891e-05,2.701374015180016e-05
156.3051710070555,162.6467406685314,12.5,0,6.057005453261972,1.521840010912709,1.147342416796111,1.816494544170814e-05,2.428367231108977e-08,9.178739334368886e-06,2.824924509449128e-05,2.864681706550728e-05
152.9378344728398,162.6113241299758,12.5,0,6.313048901578115,0.9633510084618727,1.022003031893704,1.943107567828047e-05,-1.967715894184499e-06,8.176024255149631e-06,2.738635849250552e-05,2.714669151844752e-05
155.2323734376429,163.9173146234,12.5,0,6.432009018938285,1.179846101120897,0.93391935949359,1.963855197970579e-05,-1.370099691563756e-06,7.471354875948719e-06,2.851403695578519e-05,2.887157670848875e-05
151.2281235344929,164.2981237082136,12.5,0,6.266390609635173,1.076029366654951,1.040735990709123,1.919162645750859e-05,-1.569818514412293e-06,8.325887925672982e-06,2.757336617467808e-05,2.728197029134435e-05
153.7669047046448,165.6529509232111,12.5,0,6.374618726708808,1.279389859540591,0.9600868247915217,1.937526803783571e-05,-1.005647430837154e-06,7.680694598332174e-06,2.86223262669575e-05,2.914422312398041e-05
156.9120925397539,164.8733660187478,12.5,0,6.907412823964107,1.288509679898078,0.9289123258016856,2.107291329276668e-05,-1.402699283497438e-06,7.431298606413485e-06,3.067575425932338e-05,3.017616057266858e-05
159.2066315045571,166.1793565121719,12.5,0,6.996727699166909,1.505262676859356,0.8599618126275482,2.118531849584662e-05,-7.805415933835873e-07,6.879694501020386e-06,3.17055208706003e-05,3.201546478245268e-05
155.6254215104162,166.6447532800242,12.5,0,6.888113293286764,1.380437383558525,0.9699081773229467,2.093761263167082e-05,-1.093091007242132e-06,7.759265418583574e-06,3.09073418457983e-05,3.054771188280892e-05
158.1642026805681,167.9995804950218,12.5,0,6.969431500952767,1.582542733716484,0.9080260396095814,2.103614661607566e-05,-5.114084528694637e-07,7.264208316876651e-06,3.186188403355597e-05,3.251986164730717e-05
147.8982494355608,152.3300075917695,12.5,0,4.500090182344409,0.7362208383744846,1.45162920793138,1.381131191280252e-05,-1.244165463077176e-06,1.161303366345104e-05,1.993293619131029e-05,1.949813947932865e-05
149.418902066727,153.7290658859523,12.5,0,4.615048490253869,0.8656057954119269,1.378673370991232,1.407567053248284e-05,-9.221002468849295e-07,1.102938696792986e-05,2.074528455615566e-05,2.081223881234557e-05
146.3599944465498,153.8128019094543,12.5,0,4.445969944057844,0.8058679173068635,1.454017504303837,1.358240948713961e-05,-9.779986198643124e-07,1.163214003443069e-05,1.995152500724888e-05,1.975791801855375e-05
148.1631317041606,154.9499194392547,12.5,0,4.548590402539898,0.9499127748191893,1.381904175997155,1.379555906827232e-05,-5.991514426105125e-07,1.105523340797724e-05,2.07664258950467e-05,2.101510129754869e-05
145.2644018177649,149.9067675435376,12.5,0,4.077610168151049,0.5729462806625143,1.490073925989612,1.258999551355334e-05,-1.428660036400793e-06,1.19205914079169e-05,1.785115028790309e-05,1.73141194442935e-05
146.7850544489311,151.3058258377205,12.5,0,4.171746846235713,0.6850328391475864,1.428740818985784,1.280156363663621e-05,-1.145292391716294e-06,1.142992655188627e-05,1.852588471184641e-05,1.85608212196606e-05
143.2368691034034,151.8432565736981,12.5,0,4.020715615312326,0.6603063674647582,1.495908316109527,1.233804487502763e-05,-1.103592116362634e-06,1.196726652887622e-05,1.791559997180757e-05,1.768209948924966e-05
145.0400063610143,152.9803741034986,12.5,0,4.105529756328888,0.7858901731294973,1.4356957894547,1.250898308174884e-05,-7.695752510487191e-07,1.14855663156376e-05,1.860083226027717e-05,1.886484287567635e-05
141.7526121425459,153.2608649320152,12.5,0,4.380826181634919,0.2617514569678259,1.285069006971485,1.380924261565748e-05,-2.667056283010892e-06,1.028055205577188e-05,1.792913211073551e-05,1.791689229743736e-05
143.7625424990626,154.2062285137224,12.5,0,4.435278027907763,0.4553071399238732,1.246058703790255,1.382864397736574e-05,-2.091239574569815e-06,9.968469630322041e-06,1.87157409855469e-05,1.907141603246148e-05
139.7250794281845,155.1973539621757,12.5,0,4.411098096952858,0.4256129571748707,1.340300669361388,1.377502354450925e-05,-2.1669170146027e-06,1.07224053548911e-05,1.857320409124281e-05,1.819037813372905e-05
142.0174944111458,155.8807767795004,12.5,0,4.470151892938428,0.6443994215933415,1.310124905342023,1.378896652012829e-05,-1.514043365252049e-06,1.048099924273618e-05,1.946720668608503e-05,1.933176273628659e-05
145.2339136396453,154.8982826871279,12.5,0,4.750365568434503,0.4675600779174397,1.274725723317522,1.482712175665646e-05,-2.304100205411796e-06,1.019780578654018e-05,1.99582160580585e-05,1.993879316793324e-05
147.2438439961619,155.8436462688351,12.5,0,4.790238270256735,0.6483930287051015,1.247117004983817,1.481004804185747e-05,-1.757332924349063e-06,9.976936039870533e-06,2.066488200363872e-05,2.115398783644228e-05
143.6956586506342,156.3810770048127,12.5,0,4.786197396468979,0.5835009970320231,1.318817102926549,1.484903087107511e-05,-1.961754726672709e-06,1.05505368234124e-05,2.047383767245884e-05,2.017317472666051e-05
145.9880736335955,157.0644998221375,12.5,0,4.833671671369657,0.7887045403619415,1.300896284313401,1.483678571609335e-05,-1.343082807937513e-06,1.040717027450721e-05,2.129422922129887e-05,2.133057043199994e-05
211.3753078003475,267.6638069385421,12.5,0,1.865137051628746,7.903998309223135,-3.532118552084111,-3.547600821665218e-07,2.380068494821103e-05,-2.825694841667288e-05,3.735141071965341e-05,3.897945603057879e-05
213.0689368372732,268.1785647816661,12.5,0,1.864205993499838,7.871488320191911,-3.537665382350377,-3.317314769540479e-07,2.369739782981424e-05,-2.830132305880302e-05,3.723130796692447e-05,3.778133516950251e-05
211.4001722319923,269.6834269620115,12.5,0,1.828408033960882,7.895396389722881,-3.550803410157986,-4.654114031034818e-07,2.380254201994451e-05,-2.840642728126389e-05,3.721341756159833e-05,3.71318792277412e-05
212.9774652203179,270.4406370515934,12.5,0,1.83216654495284,7.861845198462003,-3.554300676397097,-4.265432149205134e-07,2.369217139911614e-05,-2.843440541117678e-05,3.710325526224905e-05,3.577020558168622e-05
211.332241341438,264.1657224459724,12.5,0,2.532026778995638,8.337303343984665,-3.960878091334486,1.43264301759831e-06,2.465374927755441e-05,-3.168702473067589e-05,4.135873126170237e-05,4.25645236497853e-05
213.2273703252873,264.2605406798298,12.5,0,2.557736383822191,8.403929291607652,-4.03446059772611,1.461612994944889e-06,2.484638462608673e-05,-3.227568478180888e-05,4.173251507339744e-05,4.177674226867618e-05
211.3571057730829,266.1853424694418,12.5,0,2.285256922589956,8.274664275111951,-3.928984683131264,6.930907321982998e-07,2.465072014228627e-05,-3.143187746505011e-05,4.031046772419247e-05,4.043512871618564e-05
213.1358987083321,266.522612949757,12.5,0,2.341130480652315,8.35251891953277,-4.010641525550941,8.096024024611915e-07,2.485515615798301e-05,-3.208513220440753e-05,4.082807442570061e-05,3.939078182403929e-05
208.0497816545736,264.0014924474504,12.5,0,2.972967407310259,8.219373044283987,-4.364643761394657,2.937997267965639e-06,2.392361981586055e-05,-3.491715009115725e-05,4.26147513693833e-05,4.358588408385613e-05
209.9449106384229,264.0963106813077,12.5,0,3.038572639232709,8.429397256676477,-4.473243890442211,2.979914640203487e-06,2.454321310997856e-05,-3.578595112353769e-05,4.366789469372669e-05,4.304928173814106e-05
208.276146033142,265.6011728616531,12.5,0,2.668918750391065,8.114291297405055,-4.266748833685113,2.049106963327363e-06,2.383059715138332e-05,-3.41339906694809e-05,4.117585055202278e-05,4.1927344323114e-05
210.0549389683912,265.9384433419684,12.5,0,2.783562225985837,8.355199642271204,-4.397644872811284,2.223239409337714e-06,2.450978907447918e-05,-3.518115898249027e-05,4.25160774580999e-05,4.111479858934262e-05
208.4418562592708,266.7722202006726,12.5,0,2.360845087046247,7.980762711756651,-3.992507165171918,1.17009410914267e-06,2.364976460798428e-05,-3.194005732137534e-05,3.951138081709844e-05,4.076321015694423e-05
210.1354852961966,267.2869780437967,12.5,0,2.405803419178444,8.073556153052731,-4.031059487961157,1.239726018928834e-06,2.391073695442598e-05,-3.224847590368925e-05,4.00223311127584e-05,3.977844702536949e-05
208.6682206378391,268.3719006148754,12.5,0,2.263106753788044,7.94213022957335,-3.947387912650916,8.88237428463062e-07,2.360433133160428e-05,-3.157910330120733e-05,3.902534323701269e-05,3.924127622874851e-05
210.2455136261648,269.1291107044573,12.5,0,2.328198170285561,8.049287499561547,-3.996754045248937,1.010804145264556e-06,2.38951614623685e-05,-3.197403236199149e-05,3.96607810463659e-05,3.806194980446397e-05
181.2568427362519,285.8775254055292,12.5,0,2.61471934762631,5.344946794137422,-4.093354783170632,4.091144477094254e-06,1.50120542631387e-05,-3.274683826536505e-05,3.087049939691461e-05,3.134104154137843e-05
182.8675762923333,286.4335837144918,12.5,0,2.607278035739188,5.314964359648978,-4.089534364164585,4.091318226646218e-06,1.492206352228538e-05,-3.271627491331668e-05,3.07367668291695e-05,3.105224961105105e-05
180.5597258497088,287.5218037582172,12.5,0,2.611154737505783,5.331358346521296,-4.105362750562284,4.090608482801468e-06,1.497142291886352e-05,-3.284290200449827e-05,3.082061970621145e-05,3.063938403196473e-05
182.035248192998,287.8788080391802,12.5,0,2.602247399951114,5.295547213351975,-4.102187579201638,4.090753909161983e-06,1.486395316276543e-05,-3.281750063361311e-05,3.066205141148696e-05,3.044291447965419e-05
184.0467150927909,286.8406466486059,12.5,0,2.385643378538076,5.537050105115539,-3.949216140760087,3.204418727229409e-06,1.581004563353926e-05,-3.15937291260807e-05,3.068987939369205e-05,3.082234050401291e-05
185.6574486488722,287.3967049575685,12.5,0,2.342720856285581,5.435996249845699,-3.916282376903301,3.147909740237301e-06,1.552101131447777e-05,-3.133025901522641e-05,3.016326753697609e-05,3.048300907276263e-05
183.1154055159428,288.1401533113535,12.5,0,2.417284331514194,5.490051966060374,-3.967424233817059,3.343268287997123e-06,1.563433882618184e-05,-3.173939387053648e-05,3.063971922050305e-05,3.028690536241726e-05
184.5909278592319,288.4971575923165,12.5,0,2.37050399976998,5.365039692002529,-3.930787262355117,3.293581045661913e-06,1.527172381459211e-05,-3.144629809884094e-05,3.001241847933973e-05,3.005715007997438e-05
185.6597905974382,284.5898350839931,12.5,0,2.440192250051068,5.736324002955299,-4.025739299193305,3.219555997799176e-06,1.64040830094161e-05,-3.220591439354644e-05,3.164029745459728e-05,3.18048505360804e-05
187.5047168438245,285.490665082896,12.5,0,2.364106315775649,5.583284409498396,-3.968576729605689,3.09851268288336e-06,1.597522505777435e-05,-3.174861383684551e-05,3.080054316623958e-05,3.126252335275159e-05
184.7284810205901,285.8893417467408,12.5,0,2.48197157477343,5.676396109408643,-4.048745737555325,3.401192151748062e-06,1.617889029028891e-05,-3.23899659004426e-05,3.158039430262489e-05,3.122907268743801e-05
186.4381960541841,286.5911177176441,12.5,0,2.399338078733996,5.496751345340535,-3.985881807599091,3.28048077567636e-06,1.567013384210251e-05,-3.188705446079273e-05,3.06201577500187e-05,3.080598786777129e-05
182.4642846025372,283.0295517569391,12.5,0,2.747316387284429,5.52498485085593,-4.224317865704494,4.371424558625428e-06,1.548209841291143e-05,-3.379454292563595e-05,3.205034097237213e-05,3.262847177549183e-05
184.3092108489235,283.930381755842,12.5,0,2.723471476103828,5.481990272210092,-4.206356277798164,4.329516505764176e-06,1.536359169018923e-05,-3.365085022238531e-05,3.180511064338664e-05,3.217085531284483e-05
181.767167715994,284.6738301096271,12.5,0,2.769845718637438,5.516133564925765,-4.23378685163883,4.450599447699188e-06,1.543575083285249e-05,-3.387029481311064e-05,3.210055314838729e-05,3.187401599591458e-05
183.4768827495881,285.3756060805304,12.5,0,2.744992442985458,5.46734614564567,-4.214463024189557,4.41009890103693e-06,1.529951371167777e-05,-3.371570419351646e-05,3.183038279370644e-05,3.151524996185883e-05
164.8271274572342,189.1614306899361,12.5,0,10.80011782898038,1.892346672100204,-0.7953483126557921,3.304649971505705e-05,-2.584584912463652e-06,-6.362786501246337e-06,4.746964537874842e-05,4.682593606846855e-05
167.0547084835133,190.3465833576412,12.5,0,11.01570748695218,2.092703649304321,-0.9509450476043607,3.357610103880352e-05,-2.115914311787918e-06,-7.607560380834885e-06,4.895807934463272e-05,4.892885524170378e-05
163.6574611581599,190.5723367083058,12.5,0,10.59212166993145,1.924689163572771,-0.8263079011552914,3.235503801292242e-05,-2.314692012512294e-06,-6.610463209242331e-06,4.678226760762233e-05,4.653406406935998e-05
165.6516568228024,191.5461429450659,12.5,0,10.83003261256495,2.157448915157453,-1.007370423807702,3.293014522808186e-05,-1.760189561548109e-06,-8.058963390461613e-06,4.846600642982809e-05,4.831857298708696e-05
160.9688439418118,187.1086860547821,12.5,0,10.21592283353125,1.562113015545061,-0.6598565702254294,3.144126265486395e-05,-3.173976617080803e-06,-5.278852561803435e-06,4.416110302535614e-05,4.337665902043387e-05
163.1964249680908,188.2938387224872,12.5,0,10.35986249047355,1.72684544402778,-0.7645112577448915,3.177008361429312e-05,-2.761984571489939e-06,-6.116090061959132e-06,4.525058412310056e-05,4.533822957480644e-05
160.2034129468275,188.8856548295402,12.5,0,10.04978315208074,1.568760963503144,-0.6440257284930285,3.090429731585586e-05,-3.019791438454533e-06,-5.152205827944228e-06,4.354502624396138e-05,4.356644226583406e-05
162.19760861147,189.8594610663002,12.5,0,10.20610833452171,1.757000588688097,-0.7626635001481787,3.125394619951898e-05,-2.542484783815457e-06,-6.10130800118543e-06,4.47593647877966e-05,4.526073448031277e-05
159.6430785688348,190.1864862560712,12.5,0,10.35107936055505,1.43110069553217,-0.9690793358608555,3.197857339735043e-05,-3.701341262741099e-06,-7.752634686886844e-06,4.429675444341313e-05,4.367952864687209e-05
161.4664242910238,191.0055761673878,12.5,0,10.44817874887727,1.571119368141224,-1.045167981522031,3.217727650189428e-05,-3.330961021049899e-06,-8.361343852176248e-06,4.512555589652418e-05,4.518230460255497e-05
158.8776475738505,191.9634550308293,12.5,0,10.20515566726177,1.448853540110041,-0.9446246852672286,3.149741530314963e-05,-3.527793205457285e-06,-7.556997482137829e-06,4.379155987437615e-05,4.379870314012503e-05
160.4676079344029,192.5711985112009,12.5,0,10.31118160217234,1.616055225556398,-1.03334626269861,3.170293694650637e-05,-3.0775685599574e-06,-8.266770101588881e-06,4.474367633177904e-05,4.504552528617381e-05
162.8012059993728,191.6051915984131,12.5,0,10.73316315133602,1.677921755856683,-1.079122457644015,3.30037846795899e-05,-3.217180902327426e-06,-8.632979661152122e-06,4.65616485739644e-05,4.630564120853735e-05
164.6245517215617,192.4242815097298,12.5,0,10.86402645674701,1.830400646019084,-1.183223837319813,3.330056414477516e-05,-2.833939098136539e-06,-9.4657906985585e-06,4.756653590005492e-05,4.787187793453082e-05
161.6315397002984,193.0160976167828,12.5,0,10.56384602028688,1.722362053223556,-1.097087203431806,3.242641762233917e-05,-2.939518245914126e-06,-8.776697627454447e-06,4.605952479571325e-05,4.597345034624175e-05
163.2215000608508,193.6238410971544,12.5,0,10.7101302564224,1.909817162609703,-1.224196993716844,3.274456309046393e-05,-2.456689284786873e-06,-9.793575949734756e-06,4.724084776159666e-05,4.726176661002273e-05
201.0435414430951,193.3557120963836,12.5,0,14.84635820859312,9.355375890706473,-2.224796636286232,4.002404555493281e-05,1.806011628338621e-05,-1.779837309028986e-05,8.826148315073161e-05,9.170033587270414e-05
202.2570061361282,191.7956300853779,12.5,0,15.51936858097371,9.224187795415013,-2.15918937722187,4.228262922278385e-05,1.710190608054908e-05,-1.727351501777496e-05,9.029273667673178e-05,9.270857706627894e-05
202.2622012222716,194.919964566971,12.5,0,15.68883967988142,9.869389178007633,-2.603063928539494,4.230877563321444e-05,1.903097362571929e-05,-2.082451142831595e-05,9.325493469684572e-05,9.665393140884313e-05
203.469746088296,193.3736485658087,12.5,0,16.36482031790111,9.736282211920752,-2.536257587348428,4.457839924774693e-05,1.806424682382552e-05,-2.029006069878742e-05,9.528820820805181e-05,9.806724587813042e-05
200.1552236346417,194.4977713923653,12.5,0,15.47886869828482,8.861935895682766,-2.249570275731814,4.244283111796521e-05,1.597509990755699e-05,-1.799656220585451e-05,8.889361776077606e-05,9.083241261340992e-05
201.3782170279603,196.0519464443304,12.5,0,16.24505988767204,9.268481878890498,-2.568035271853844,4.456940613743813e-05,1.666309410231196e-05,-2.054428217483075e-05,9.321799584779963e-05,9.547445375073093e-05
198.9417589416086,196.057853403371,12.5,0,14.82741254822704,8.911348886918649,-2.346935291933739,4.031864104479159e-05,1.665438639955805e-05,-1.877548233546991e-05,8.665827913032341e-05,8.946944336542131e-05
200.170672161936,197.5982624454927,12.5,0,15.59061505759841,9.319044502591556,-2.666706977605139,4.243473258224166e-05,1.734845036221425e-05,-2.133365582084111e-05,9.09776401179242e-05,9.366537533152638e-05
201.0702990772704,198.7259201287163,12.5,0,15.29175903363504,10.15984798057472,-2.895562006349762,4.080575052317235e-05,2.027810631093107e-05,-2.316449605079809e-05,9.286068926251614e-05,9.726487049662371e-05
202.2735103291526,197.1896815461765,12.5,0,16.1037905255946,10.07454678912302,-2.781724797015301,4.34724922506043e-05,1.935551730471798e-05,-2.225379837612241e-05,9.554628266692376e-05,9.949923632174938e-05
202.2992122975976,200.266329170838,12.5,0.02918748486927192,15.79546631766057,10.38926735059902,-3.216882830331892,4.350384618841407e-05,2.122890068533283e-05,-2.650878747601404e-05,9.847201770460002e-05,0.0001029029422035812
203.4965037224712,198.7438565981414,12.5,0.05720860183025755,16.10863222248519,10.00738751204275,-3.015166014866926,4.618382516731348e-05,2.029795169716136e-05,-2.558501081550231e-05,0.0001011631849914706,0.0001058531056583359
203.1543220977315,196.0650768512575,12.5,0.009846923641368188,15.63438299563866,10.6426981836771,-2.82931248360257,4.192873610187628e-05,2.1763430630852e-05,-2.285959657072497e-05,9.67662148686259e-05,0.0001009608655405697
204.3575333496138,194.5288382687175,12.5,0.02739433716588435,16.25775528458673,10.29615550830887,-2.680329920928825,4.502121895572259e-05,2.050316398612227e-05,-2.204659111787198e-05,9.960344011523254e-05,0.0001027197450032581
204.372981876908,197.6293293218448,12.5,0.07462870942073552,15.69082620171771,10.58866192295439,-3.121738345350645,4.510591017039756e-05,2.305134966822564e-05,-2.698798527364295e-05,0.0001036247391444446,0.0001077740328776604
205.5702733017816,196.1068567491483,12.5,0.09466825500827047,16.19292199714694,10.21006674258892,-2.960554681107149,4.821359378842703e-05,2.177972449065853e-05,-2.616105928006927e-05,0.0001064655120360971,0.0001100719401839654
192.3620555922697,193.2610941450274,12.5,0,13.82851184121894,6.684945334407093,-1.559987145862031,3.890328162437493e-05,1.032901559712754e-05,-1.247989716689625e-05,7.508331738360723e-05,7.609582735842778e-05
193.7131208618956,191.8035633637257,12.5,0,14.367979592705,6.691918198225815,-1.415797503288419,4.062400013807536e-05,9.919754560158602e-06,-1.132638002630735e-05,7.711417333478771e-05,7.707867288322301e-05
193.6204675065849,194.8300412277775,12.5,0,14.47147952187967,6.963669929541047,-1.802753257506245,4.073779852638209e-05,1.070656015702762e-05,-1.442202606004996e-05,7.848842877920146e-05,7.892156521549406e-05
194.9575188576853,193.357413935964,12.5,0,15.01807238945739,6.973558045903323,-1.660987885213771,4.247898520954099e-05,1.030092783532472e-05,-1.328790308171017e-05,8.055389758500805e-05,8.006561454710206e-05
190.0219419009779,195.7856115117922,12.5,0,13.77490576344454,6.184371553551221,-1.808845987659937,3.913220120018156e-05,8.770064360608273e-06,-1.44707679012795e-05,7.320250498531213e-05,7.418636593684921e-05
191.3730071706038,194.3280807304905,12.5,0,14.31074350601584,6.222844480098701,-1.65493767308253,4.081610363517172e-05,8.464507531503172e-06,-1.323950138466024e-05,7.532555068339537e-05,7.532083604790811e-05
191.304626634192,197.3807065177651,12.5,0,14.40735133980106,6.432283860634953,-2.037010119566192,4.095769719885544e-05,9.057427282190998e-06,-1.629608095652954e-05,7.646469478945884e-05,7.674134201830177e-05
192.6416779852924,195.9080792259516,12.5,0,14.95007701757581,6.473327944858774,-1.885325978912672,4.266158410035558e-05,8.754587809487423e-06,-1.508260783130138e-05,7.862036819303791e-05,7.803082907600878e-05
192.2436170289578,198.548397104987,12.5,0,14.25042479378234,6.917310862298253,-2.260296160155091,4.006751065026488e-05,1.073505492432854e-05,-1.808236928124073e-05,7.757858452365549e-05,7.865560472184103e-05
193.5704094796848,197.0647184004624,12.5,0,14.80847308400364,6.947621178896901,-2.112236608281383,4.182901692569411e-05,1.038560930526717e-05,-1.689789286625107e-05,7.974768167711872e-05,8.008433535172691e-05
193.526301762172,200.1434921109598,12.5,0,14.90362788328639,7.185188682860949,-2.500881586149009,4.194345828022768e-05,1.106970147852593e-05,-2.000705268919207e-05,8.099253970762844e-05,8.133049160571421e-05
194.8390802943734,198.6447168959236,12.5,0,15.46880292001148,7.218272374949343,-2.355181045449425,4.372555144407724e-05,1.072342926382872e-05,-1.88414483635954e-05,8.319622040275946e-05,8.298462580278826e-05
194.5416889646745,195.9785902066887,12.5,0,14.34966914990854,7.451611549138983,-2.040473055623903,3.995765204039615e-05,1.236542163731791e-05,-1.632378444499122e-05,7.975181049270147e-05,8.10801868250586e-05
195.8684814154015,194.4949115021641,12.5,0,14.92463708732416,7.452693524374515,-1.898713324619564,4.17966838599377e-05,1.190890960813912e-05,-1.518970659695651e-05,8.188485470310785e-05,8.237217301722289e-05
195.8001008789897,197.5475372894387,12.5,0,15.0274306458783,7.755062134537242,-2.300411892208412,4.188372835918076e-05,1.279425431381653e-05,-1.84032951376673e-05,8.337962752669547e-05,8.415191287988949e-05
197.1128794111911,196.0487620744024,12.5,0,15.60992405848824,7.759317202966193,-2.161261029533581,4.374430322478943e-05,1.234187580270122e-05,-1.729008823626865e-05,8.554999686347614e-05,8.568686628461019e-05
160.0549286628918,178.7490424350433,12.5,0,9.139475454665327,1.492844075757713,0.01363041507198008,2.805204619432287e-05,-2.53447932130758e-06,1.090433205758407e-07,3.978523981765964e-05,3.912902300691868e-05
162.259415713128,179.6910876299628,12.5,0,9.215987787292326,1.680822595445441,-0.04286142046643253,2.814650284297909e-05,-1.994157924408449e-06,-3.428913637314602e-07,4.068355825478018e-05,4.092931716319302e-05
159.2342638027872,180.7052830154544,12.5,0,9.09036629230666,1.54405664437507,0.06377823679678564,2.785392681988125e-05,-2.331311771845105e-06,5.102258943742851e-07,3.976218106788753e-05,3.955105226578221e-05
161.4100556591038,181.6236226340272,12.5,0,9.167790326002335,1.73514482605911,0.006683545751860536,2.794881318236018e-05,-1.781768817412716e-06,5.346836601488429e-08,4.067466817289565e-05,4.130927374549188e-05
156.2366450873235,177.1173722944462,12.5,0,8.627953041295903,1.175895027586281,0.107300219924466,2.666873371007787e-05,-3.139498344760625e-06,8.584017593957281e-07,3.681309529041145e-05,3.616394457610502e-05
158.4411321375598,178.0594174893656,12.5,0,8.688836982517119,1.343475068315386,0.06348267748435552,2.672949828940246e-05,-2.651949367404459e-06,5.078614198748442e-07,3.758091143077393e-05,3.785214527061478e-05
155.4656817610197,179.1146721375114,12.5,0,8.598931844793329,1.222454432817689,0.1567882375408885,2.65386183570845e-05,-2.967291290818059e-06,1.254305900327108e-06,3.685142475300814e-05,3.665895097415428e-05
157.6414736173364,180.0330117560842,12.5,0,8.660585412166173,1.392787138337198,0.1125602898639175,2.659964360826199e-05,-2.471549487053905e-06,9.004823189113402e-07,3.76315479756224e-05,3.830500203469701e-05
154.901297435417,180.5767971005224,12.5,0,8.945986808815199,1.048716580470483,-0.167111102073776,2.778818452383225e-05,-3.800896389546612e-06,-1.336888816590208e-06,3.763002467930212e-05,3.699363886656202e-05
157.0560829518525,181.4777830327876,12.5,0,9.014609877627072,1.208332950782185,-0.2184116301948552,2.788008524778088e-05,-3.345022459598664e-06,-1.747293041558842e-06,3.840129026092921e-05,3.860806407787693e-05
154.1303341091132,182.5740969435876,12.5,0,8.89111512458636,1.08649127151511,-0.1236816320414856,2.758237538146426e-05,-3.636120030820736e-06,-9.894530563318849e-07,3.753818447607165e-05,3.741301679528773e-05
156.2564244316291,183.4513772995062,12.5,0,8.9605146881285,1.248765732374028,-0.1755502354737113,2.767463441611198e-05,-3.172361406905911e-06,-1.40440188378969e-06,3.832134443744108e-05,3.898318821364307e-05
158.6334954292297,182.1373505120824,12.5,0,9.4333530318215,1.348620309268362,-0.2710624172742686,2.91078334544141e-05,-3.23109743579844e-06,-2.168499338194149e-06,4.04549438454849e-05,3.983000018625459e-05
160.7882809456651,183.0383364443476,12.5,0,9.514735534380925,1.522321601741972,-0.3330227613432609,2.922929642862538e-05,-2.74035930193043e-06,-2.664182090746087e-06,4.132526723039051e-05,4.155396650677239e-05
157.8128305691251,184.0935910924935,12.5,0,9.360273790535226,1.389359936511094,-0.2287695706088157,2.884138818050384e-05,-3.042267235592679e-06,-1.830156564870526e-06,4.030342481118533e-05,4.017007081881974e-05
159.9389208916409,184.9708714484121,12.5,0,9.442543851505294,1.565978000063383,-0.2914750155922236,2.896335792476623e-05,-2.542905481001407e-06,-2.331800124737789e-06,4.118705837116734e-05,4.184252298056461e-05
137.4828307499294,271.4860575010406,12.5,0,5.498297966268497,2.305068707145864,-4.525927112375852,1.57504985263425e-05,2.977581489851965e-06,-3.620741689900681e-05,3.078401188648071e-05,3.106152360996788e-05
140.9198972782224,272.6592907510254,12.5,0,5.707196126976109,2.649521883711976,-4.709710334369455,1.614341009935397e-05,3.912713126297433e-06,-3.767768267495564e-05,3.27897056550305e-05,3.144771833957888e-05
137.8428720781765,274.3486276150923,12.5,0,5.173009223476837,2.193361744837081,-4.414335020944514,1.479894011925621e-05,2.880350204697191e-06,-3.531468016755612e-05,2.918408842995272e-05,3.048673700177807e-05
141.2348831107473,275.4557965108016,12.5,0,5.378110325746185,2.53965057376599,-4.59810639909453,1.5178232583375e-05,3.824393575454219e-06,-3.678485119275625e-05,3.118057615122773e-05,3.083671954958155e-05
138.1064406232668,276.4441743787172,12.5,0,5.109094596846862,2.455944230244477,-4.469271205009555,1.438434732571438e-05,3.771745859304835e-06,-3.575416964007644e-05,2.985269394101835e-05,3.007090456917174e-05
141.4654687438101,277.5029808105297,12.5,0,5.287986966771394,2.774100455969301,-4.629825012358329,1.470227792889302e-05,4.646731885684649e-06,-3.703860009886663e-05,3.165260854869745e-05,3.039449896627132e-05
138.4664819515139,279.3067444927688,12.5,0,4.8169871450404,2.353830698634216,-4.363356141367921,1.353129430522191e-05,3.678668519597171e-06,-3.490684913094337e-05,2.840793537263595e-05,2.950961584399779e-05
141.780454576335,280.2994865703059,12.5,0,4.992298244867307,2.673737655516407,-4.523735438716562,1.383636425916226e-05,4.562121901758654e-06,-3.61898835097325e-05,3.019946870806069e-05,2.979732865446098e-05
143.9244479919958,278.2780809139642,12.5,0,4.847237151911154,2.812981477526975,-4.536547290259812,1.326077370409411e-05,5.123751006557396e-06,-3.62923783220785e-05,3.016024994422861e-05,3.06146982216844e-05
147.2834761125391,279.3368873457766,12.5,0,5.021726836168483,3.12761668961516,-4.692326009529422,1.356743252404702e-05,5.990991937833727e-06,-3.753860807623538e-05,3.193725385266349e-05,3.08926993781878e-05
144.2064509124932,281.0262242098436,12.5,0,4.577979580363777,2.723092447333858,-4.438420929905942,1.2471060699297e-05,5.051512167177324e-06,-3.550736743924754e-05,2.884460174204494e-05,2.999010652317476e-05
147.5204235373142,282.0189662873805,12.5,0,4.749169615905797,3.039742744169785,-4.594117811732493,1.276554857556272e-05,5.927841088618674e-06,-3.675294249385995e-05,3.061573775849059e-05,3.022907264463487e-05
143.4360046058203,273.5181570991069,12.5,0,5.224595425036234,2.692497089645857,-4.621508744306084,1.456470768839926e-05,4.436314346837754e-06,-3.697206995444867e-05,3.11590620146982e-05,3.171099491869849e-05
146.8730711341132,274.6913903490916,12.5,0,5.42752178867843,3.041630494189653,-4.797765826454703,1.493476532841925e-05,5.391200150464144e-06,-3.838212661163762e-05,3.316205229947108e-05,3.204408517971576e-05
143.7180075263176,276.2663003949863,12.5,0,4.931393055304538,2.594900912536878,-4.51577031214396,1.370453704694502e-05,4.35856847587438e-06,-3.612616249715168e-05,2.972504623880433e-05,3.107580887751473e-05
147.1100185588884,277.3734692906955,12.5,0,5.130954241485162,2.946266603952556,-4.692040961052884,1.406204028959047e-05,5.323289739460048e-06,-3.753632768842307e-05,3.17223852653235e-05,3.137903052119996e-05
189.7314077299465,243.0748470571457,12.5,0,9.244854172632298,6.864406337633786,-6.258668347913458,2.409200828231632e-05,1.457021694232228e-05,-5.006934678330767e-05,6.065185491706061e-05,5.964030894345874e-05
191.4779074903876,242.3601264825784,12.5,0,9.255756174584128,7.076746424635699,-6.265587667151143,2.395702261896065e-05,1.524098361916693e-05,-5.012470133720914e-05,6.142605218071798e-05,6.122999477305249e-05
191.1685609193146,245.1345405777966,12.5,0,9.064520261897979,6.642251015074359,-6.122327941368296,2.369266402601404e-05,1.400358703871956e-05,-4.897862353094636e-05,5.915617479529393e-05,5.88373452494477e-05
192.5456001851894,244.2974625711468,12.5,0,9.053022638953887,6.859675941828155,-6.112094784091639,2.348193169118991e-05,1.470854490268699e-05,-4.889675827273311e-05,5.985616488591835e-05,6.027018660041408e-05
192.756434050383,241.8369147088026,12.5,0,9.608986464079086,7.206346235714247,-6.24076939548083,2.498367969648168e-05,1.537311878302232e-05,-4.992615516384664e-05,6.311632731198155e-05,6.244455141873438e-05
194.5029338108241,241.1221941342352,12.5,0,9.608024708047534,7.473923703560793,-6.263255331480467,2.476654010290347e-05,1.623013608495651e-05,-5.010604265184374e-05,6.405135599492394e-05,6.417309605395512e-05
193.5536628917842,243.6846789404067,12.5,0,9.38191728318467,7.02324057761915,-6.092353982064372,2.440354284409562e-05,1.496883602183354e-05,-4.873883185651498e-05,6.158004864848424e-05,6.135596906411068e-05
194.930702157659,242.847600933757,12.5,0,9.341070453280588,7.316087388874852,-6.093717418444974,2.4038555539398e-05,1.593862328177505e-05,-4.87497393475598e-05,6.244695308095491e-05,6.288954057005683e-05
191.3755931918417,238.6364931793131,12.5,0,10.33657887144937,6.943798092715213,-6.116927709299904,2.752201391446582e-05,1.395089079952918e-05,-4.893542167439923e-05,6.474511005555446e-05,6.408055496838983e-05
193.7620173002496,238.1337018937923,12.5,0,10.37937772563138,7.338699260684379,-6.190727641470653,2.734304931347291e-05,1.51803354536849e-05,-4.952582113176523e-05,6.630160003430417e-05,6.623685640003675e-05
192.1728220332429,240.4842574109173,12.5,0,10.07667913755821,6.747212028443052,-5.958539592273403,2.684760361743184e-05,1.352973518097119e-05,-4.766831673818722e-05,6.303893519575001e-05,6.317460201147248e-05
194.1897856470845,239.8591086933141,12.5,0,10.09302666488201,7.178710250631177,-6.023670082574138,2.655471712711749e-05,1.489745147011416e-05,-4.81893606605931e-05,6.462109189551495e-05,6.507000662738224e-05
187.2421853877461,239.5073532314223,12.5,0,9.94421723686259,6.408356856951041,-6.123170180783359,2.669480967239945e-05,1.255136815275326e-05,-4.898536144626687e-05,6.15054234121406e-05,6.063555496878666e-05
189.6286094961541,239.0045619459016,12.5,0,9.996510842551231,6.791458213118414,-6.174537812301657,2.65556681256692e-05,1.373545760793794e-05,-4.939630249841325e-05,6.303566583389804e-05,6.257969077336979e-05
188.6793385771142,241.5670467520731,12.5,0,9.68949485667104,6.117102595901819,-5.941938108211185,2.611270146462587e-05,1.182313242154899e-05,-4.753550486568948e-05,5.948120095850966e-05,6.012213778556242e-05
190.6963021909558,240.9418980344699,12.5,0,9.721876517267095,6.518786364427214,-5.980949808259272,2.589497576371293e-05,1.308261515235341e-05,-4.784759846607417e-05,6.099395127703075e-05,6.184882455109301e-05
228.0083873908576,230.3276856050875,12.5,0.8207432409475872,15.21651045501033,9.249984758761995,-3.981650296781485,0.0002303558642212753,9.721665702398829e-05,-0.0001776959627220435,0.0005002164579792879,0.0004877680576352928
229.5927036999255,231.6973762960479,12.5,0.8416301502338827,14.89593927403574,9.068157223459153,-4.270361148505721,0.000255177863449569,0.000107983632750149,-0.0002157158653525148,0.0005552630152655886,0.0005418621852197522
227.0785631284628,231.9758258674587,12.5,0.7991904173966206,15.43265484625142,10.29667707746013,-4.581219725616122,0.0002049063262449307,0.0001026008943585372,-0.0001825100044021116,0.0004696118255042197,0.0004423180028813074
228.8410155614508,233.2438203008515,12.5,0.8249379608696836,14.81767655913614,9.906990807846675,-4.792388763600254,0.0002255827279240201,0.0001133782597095502,-0.000219002990592737,0.0005183735018644796,0.0004977360598931814
229.6188902554067,227.4730229327119,12.5,0.8400697150757491,15.71781198147593,9.533645800290941,-3.869486932152481,0.0002668042623740739,0.0001121327144777127,-0.0001935586838470384,0.0005782460655111015,0.0005374034891017644
230.8946657471872,229.0188567087158,12.5,0.8559016853859742,15.49939192893645,9.394777313697499,-4.089597256963665,0.0002920383380913086,0.0001225814049803157,-0.0002270448349333076,0.0006332444659978176,0.0005864203207802227
228.6890659930119,229.1211631950831,12.5,0.8311368255175278,15.41589228769323,10.10811507031297,-4.115348229470045,0.0002442472338375296,0.0001185175776553003,-0.0001949672327116988,0.000553342013936325,0.0005132461368791919
230.1429776087125,230.5653007135195,12.5,0.8495254893485411,14.92273275436698,9.802250731627435,-4.262668967614817,0.0002652339193919514,0.0001291183207946577,-0.0002266254370476527,0.0006020586718073351,0.0005656250613050465
227.4091822846316,224.7955602926651,12.5,0.809472407767979,15.70933813982681,9.56120894832045,-3.712388283636689,0.0002236994358113047,9.462355510591529e-05,-0.0001558782427320369,0.0004855019317608881,0.0004628823712685558
228.6849577764119,226.341394068669,12.5,0.8276091419812186,15.46680439017088,9.385794726857691,-3.916257115211909,0.000243546199314621,0.0001024480057514638,-0.0001817385056363138,0.0005281469743827923,0.0005043015952965467
226.1708172049493,226.6198436400798,12.5,0.7953207375108731,15.60750762440692,10.37391766161678,-4.092256829731462,0.0002034641407359038,0.0001011852894415641,-0.0001599480779817194,0.0004644849266149302,0.0004350485803871943
227.6247288206498,228.0639811585162,12.5,0.816576314594294,15.13987702014555,10.04903349085423,-4.240330858479893,0.0002203007729476433,0.0001092825362781285,-0.0001849414746672834,0.0005029430159406502,0.0004782582742678443
225.2642710483414,227.9553117377324,12.5,0.7797322695737718,14.96854483714746,9.294092105695142,-3.758198707055745,0.0001837040301637281,8.06575653824914e-05,-0.0001364956618850508,0.0004033278350419407,0.0004080543918750118
226.8485873574092,229.3250024286929,12.5,0.8041062077925263,14.6668115401103,9.074259104710942,-4.038072811293837,0.0002025301016306046,8.833449854633315e-05,-0.0001649086585456291,0.000444319098778734,0.0004519143674686948
224.0259059686592,229.7795950851472,12.5,0.7478283265857288,15.4051993436202,10.62058145767158,-4.527872349453366,0.0001617952253757712,8.590061245327402e-05,-0.0001436441226930327,0.0003779984076444135,0.0003621386882288632
225.7883584016471,231.04758951854,12.5,0.7784507678544801,14.85621089026903,10.20223402677966,-4.747445789678992,0.0001777396709800939,9.371361828887994e-05,-0.0001714272080730384,0.0004148398242638941,0.0004059847966492013
197.9767553553466,255.3490792941651,12.5,0,6.139849690166592,7.907749129301884,-5.878389809628339,1.332131970509159e-05,2.039291746163275e-05,-4.702711847702671e-05,5.315841644242376e-05,5.238010295159679e-05
199.8796905551472,254.3744962687781,12.5,0,6.024485051672409,8.238478094224055,-5.959408309689374,1.268756968997246e-05,2.154354186017905e-05,-4.767526647751499e-05,5.399172070354122e-05,5.373751048556217e-05
198.8858443681878,257.2733462915982,12.5,0,5.614472126326907,7.581446868654344,-5.629456179433071,1.190115330932263e-05,1.976905227863237e-05,-4.503564943546457e-05,5.002931493896896e-05,5.06825875188116e-05
200.8180096544543,256.5199249325686,12.5,0,5.54431705157738,7.952263106398593,-5.735944997134403,1.138000407992874e-05,2.101178829921359e-05,-4.588755997707522e-05,5.118082539022818e-05,5.168341146844105e-05
201.2727358048533,253.6610519780309,12.5,0,6.382053950746516,8.367090075231639,-5.894980222538468,1.372890058220354e-05,2.166904508014403e-05,-4.715984178030774e-05,5.562929749820808e-05,5.477859414193739e-05
203.175671004654,252.686468952644,12.5,0,6.244706378013992,8.697097035958022,-5.992049035372567,1.302538278087836e-05,2.283494541265447e-05,-4.793639228298054e-05,5.6397368312595e-05,5.626548005223959e-05
202.2324528125621,255.9683822182749,12.5,0,5.708573978348171,7.993897111143373,-5.601478967774008,1.187231904179945e-05,2.101361157298026e-05,-4.481183174219206e-05,5.179473718351371e-05,5.243307744630426e-05
204.1646180988286,255.2149608592453,12.5,0,5.621440723991443,8.362173785394328,-5.724466938070676,1.129887128845715e-05,2.226180353406869e-05,-4.579573550456541e-05,5.289416075569772e-05,5.348037903698997e-05
199.6104571866437,249.6646387721601,12.5,0,7.600601111368558,8.271548397439437,-6.162153383544834,1.770468483842783e-05,2.038847398271135e-05,-4.929722706835868e-05,5.968867491540078e-05,5.85660756560344e-05
201.4627643915769,248.3069925039623,12.5,0,7.450029785816121,8.549765056005491,-6.18968130338374,1.700028326980719e-05,2.139922435056467e-05,-4.951745042706992e-05,6.016417020700543e-05,6.080758766342967e-05
200.5701741943524,251.9719690124041,12.5,0,7.10949424705456,7.967218350230304,-5.918508266381884,1.637660691039035e-05,1.980750332309332e-05,-4.734806613105507e-05,5.674522574792421e-05,5.642192605936495e-05
202.4517114857514,250.8354844105638,12.5,0,6.992736707605008,8.275536309487713,-5.965328721874145,1.575632841674585e-05,2.088752682427667e-05,-4.772262977499316e-05,5.745973169299584e-05,5.822879968640736e-05
196.4021669965312,252.0161510873427,12.5,0,7.04139540002237,7.758468309397928,-6.091820850583089,1.632569063255324e-05,1.919398227005547e-05,-4.873456680466471e-05,5.589228835031315e-05,5.51182717609113e-05
198.2544742014643,250.6585048191449,12.5,0,6.914756124843835,7.993494125996944,-6.114812091234032,1.573242429870272e-05,2.004737630331515e-05,-4.891849672987226e-05,5.629570798705543e-05,5.70416280545165e-05
197.3112560093724,253.9404180847759,12.5,0,6.685961528463187,7.522013436549649,-5.910857360482694,1.537746614184248e-05,1.872167377418832e-05,-4.728685888386155e-05,5.370403057786467e-05,5.356864096210987e-05
199.1927933007713,252.8039334829355,12.5,0,6.587025739373106,7.784529139007035,-5.950435437027373,1.485085905478831e-05,1.964087265332403e-05,-4.760348349621898e-05,5.431296596226375e-05,5.517324029262745e-05
175.3643114408763,173.4548511577686,12.5,0,9.467881866348755,3.159270086236527,0.5726299101527054,2.776980590332679e-05,2.53535878287788e-06,4.581039281221643e-06,4.653654227325501e-05,4.59105843915904e-05
176.5979564217554,174.3503346435108,12.5,0,9.567757745578069,3.30218621240412,0.5030352653650827,2.797507581592652e-05,2.912789683230728e-06,4.024282122920661e-06,4.738945789303605e-05,4.737618248013766e-05
174.1416202087506,175.2392174543385,12.5,0,9.368481613281727,3.244907744097446,0.6040144733504116,2.738321496722357e-05,2.888919490486447e-06,4.832115786803292e-06,4.644964604501577e-05,4.626362991676935e-05
175.438120920821,175.8974681430165,12.5,0,9.462248758687174,3.407795723926162,0.5339035783888992,2.755295944865802e-05,3.335147309613978e-06,4.271228627111194e-06,4.734724283639855e-05,4.759998985124924e-05
177.5010472262228,175.0058740523851,12.5,0,9.85997592213182,3.422519648330004,0.4912415618684146,2.881390723215782e-05,3.064082136950558e-06,3.929932494947316e-06,4.890043700930107e-05,4.847327745098524e-05
178.7346922071019,175.9013575381274,12.5,0,9.997593329099082,3.566484531846995,0.4034289391287594,2.913911102763947e-05,3.414675838631117e-06,3.227431513030076e-06,4.990094718650334e-05,5.000499856364927e-05
176.3872253140655,176.3793410912255,12.5,0,9.729609197127743,3.482116574177224,0.4895913647636645,2.8349056171467e-05,3.359085679664921e-06,3.916730918109316e-06,4.860692694186646e-05,4.859547749536628e-05
177.6837260261359,177.0375917799035,12.5,0,9.857522668035848,3.647517846893302,0.3942966815684556,2.862605826020007e-05,3.786038975629887e-06,3.154373452547645e-06,4.964333980896941e-05,4.997884038303678e-05
179.4302433686282,172.6269593586352,12.5,0,9.569192123801287,3.754602927444426,0.7019944460384745,2.761773245420858e-05,4.359375668781134e-06,5.615955568307796e-06,4.893771263517287e-05,4.815278150458567e-05
180.5550190295388,173.9333421021071,12.5,0,9.801052604514904,3.888328873792589,0.5984594190434678,2.825270523541362e-05,4.601810312524362e-06,4.787675352347742e-06,5.025808859676098e-05,4.995284570832435e-05
178.3164214564709,174.0004263974755,12.5,0,9.378946570364302,3.777517410619769,0.6731856941248973,2.699061509666995e-05,4.584898457691819e-06,5.385485552999178e-06,4.82943702588243e-05,4.835465741776677e-05
179.5040528485729,175.0695763438832,12.5,0,9.60064292235614,3.9240963955032,0.5581377942215121,2.758278023513709e-05,4.876594127725328e-06,4.465102353772097e-06,4.961980423044088e-05,4.999803331155279e-05
177.482074776849,170.3642380728514,12.5,0,9.058113808701499,3.465879159281205,0.8096670359807295,2.621326086041983e-05,3.844322262738656e-06,6.477336287845836e-06,4.604056584148806e-05,4.510910796000728e-05
178.6068504377597,171.6706208163232,12.5,0,9.257933045998488,3.592697986280658,0.716059600267929,2.675122735817064e-05,4.090287119299314e-06,5.728476802143432e-06,4.721471025437449e-05,4.685490588661637e-05
176.2593835447233,172.1486043694214,12.5,0,8.846576602144264,3.49237916517069,0.7962116360340663,2.551514179472509e-05,4.098352046830795e-06,6.369693088272531e-06,4.532975406849951e-05,4.560123116564163e-05
177.4470149368254,173.2177543158289,12.5,0,9.033961394310863,3.629534035890029,0.6956671734977016,2.600504923308273e-05,4.387339799399404e-06,5.565337387981612e-06,4.649174994345751e-05,4.717653783352711e-05
177.3187374610947,251.4885181569023,12.5,0,7.487709522127878,5.173748282272774,-5.832741387244549,1.982167184499099e-05,1.056582688557057e-05,-4.666193109795639e-05,4.835054947532021e-05,4.838445113972024e-05
179.8707196743919,251.6548661396014,12.5,0,7.60336055566694,5.514672067506756,-6.027549206188416,1.99190161241288e-05,1.156426217148806e-05,-4.822039364950733e-05,5.006047632048694e-05,4.926946190107939e-05
177.3932786605508,253.7302347295302,12.5,0,7.022195350063908,5.047721186186891,-5.710902371471895,1.843284817125499e-05,1.053495151574692e-05,-4.568721897177516e-05,4.619103575072328e-05,4.720530463850137e-05
179.8669952592602,253.9483995554982,12.5,0,7.153417441347466,5.402644377198013,-5.914985074177148,1.856882031055348e-05,1.156572805395567e-05,-4.731988059341718e-05,4.801243566948473e-05,4.79435084566842e-05
177.4478466058076,255.3712851567932,12.5,0,6.794504099035834,5.264738058090917,-5.76374764545609,1.753062267044193e-05,1.141155850666227e-05,-4.610998116364872e-05,4.616900905410761e-05,4.633551292486101e-05
179.8642687981555,255.6273825447203,12.5,0,6.926832030218957,5.611454427608099,-5.949332429569194,1.767669895461418e-05,1.241518854417075e-05,-4.759465943655355e-05,4.795595167381104e-05,4.697160644510734e-05
177.5223878052637,257.6130017294211,12.5,0,6.339034694921279,5.140594058561362,-5.6344803535644,1.6172435776899e-05,1.137867323145933e-05,-4.50758428285152e-05,4.405507975949736e-05,4.513834427231102e-05
179.8605443830238,257.9209159606172,12.5,0,6.488120779305608,5.502263086748028,-5.829769897237991,1.636017602437952e-05,1.24167452541492e-05,-4.663815917790393e-05,4.596071030052657e-05,4.564227421378324e-05
181.6332126154159,255.8148588443607,12.5,0,6.567944724955431,5.75694123168474,-5.795638712231306,1.641187013450959e-05,1.316785616142682e-05,-4.636510969785045e-05,4.708196897317114e-05,4.74265450240737e-05
184.0496348077638,256.0709562322878,12.5,0,6.696071908261505,6.09059899267187,-5.977181390557746,1.655495091229932e-05,1.413305924994078e-05,-4.781745112446197e-05,4.881294692070444e-05,4.803336681593951e-05
181.5721937939227,258.1463248222166,12.5,0,6.110139486374752,5.650558422606236,-5.676837315631412,1.503199961831422e-05,1.319367536324015e-05,-4.54146985250513e-05,4.503486750449213e-05,4.599663911380622e-05
183.9103503716828,258.4542390534127,12.5,0,6.254200279800203,5.997622482945958,-5.867250146584507,1.521534290900388e-05,1.41890317215869e-05,-4.693800117267605e-05,4.687590299467944e-05,4.646085208365698e-05
181.7389003144581,251.7766413146686,12.5,0,7.388741234498188,5.716247169252841,-5.932296018271219,1.907097421499193e-05,1.238099795401054e-05,-4.745836814616975e-05,4.991868199897551e-05,4.993212747309591e-05
184.2908825277553,251.9429892973677,12.5,0,7.521192765168299,6.109260664528371,-6.151536577841688,1.918040831691586e-05,1.353267991435614e-05,-4.92122926227335e-05,5.189055785358408e-05,5.085755272298958e-05
181.6778814929649,254.1081072925245,12.5,0,6.851197873977523,5.59094984523469,-5.798690382053406,1.745107332054032e-05,1.241008120556899e-05,-4.638952305642725e-05,4.750488351079961e-05,4.848105595173465e-05
184.1515980916743,254.3262721184925,12.5,0,7.000833303241802,5.99892667569713,-6.027839779166238,1.760352522981606e-05,1.359589871963737e-05,-4.822271823332991e-05,4.95986701668016e-05,4.921145920157341e-05
215.5084504469308,287.6808191477004,12.5,0,0.4358655179851685,5.607365562329444,-1.55399487000594,-3.091122792311016e-06,1.759487738506608e-05,-1.243195896004752e-05,2.321944846488934e-05,2.333391851978843e-05
217.2746443422772,286.8952104216067,12.5,0,0.3767630960319432,5.55363405342156,-1.601995391921174,-3.23726533543503e-06,1.747021849412344e-05,-1.28159631353694e-05,2.285481060014743e-05,2.289870902050225e-05
215.4370953090347,289.5746792289252,12.5,0,0.3084304652901382,5.573805021818101,-1.573855948301014,-3.472066528526039e-06,1.758943169758581e-05,-1.259084758640811e-05,2.270936100521814e-05,2.252922022431432e-05
217.307972997811,289.025588342619,12.5,0,0.2684164329641126,5.527151207553304,-1.616797353580561,-3.562788380557483e-06,1.747215071779928e-05,-1.293437882864449e-05,2.242972602033116e-05,2.194340582089557e-05
212.4493128842278,289.0415333761397,12.5,0,0.5316260634926187,5.651544943874521,-1.80905340463157,-2.820032551923237e-06,1.765964296960437e-05,-1.447242723705256e-05,2.379649131106953e-05,2.396089930182575e-05
214.2155067795742,288.255924650046,12.5,0,0.4773231231102366,5.596442131801861,-1.852887049373296,-2.949719711488731e-06,1.752675632327776e-05,-1.482309639498637e-05,2.344264418136328e-05,2.361853154786839e-05
212.1966400973854,290.5257325419635,12.5,0,0.4393825212989697,5.621901692587414,-1.830296154746669,-3.091497285913228e-06,1.763857939924055e-05,-1.464236923797335e-05,2.341062414678193e-05,2.342081956366368e-05
214.0675177861617,289.9766416556573,12.5,0,0.4034996438501204,5.575299663281046,-1.867740057559289,-3.169040870304451e-06,1.751815920741925e-05,-1.494192046047431e-05,2.314367423898598e-05,2.292509204356336e-05
212.0116707797346,291.6122417398518,12.5,0,0.472832403691582,5.479812305866655,-1.69231241938104,-2.870786152880261e-06,1.715713345582003e-05,-1.353849935504832e-05,2.291261709377436e-05,2.303634726529446e-05
213.9591823240274,291.236293929159,12.5,0,0.4324054920357289,5.341611054026651,-1.714380320473666,-2.889591268706988e-06,1.67472309792567e-05,-1.371504256378933e-05,2.227742096544131e-05,2.244098539089655e-05
211.7589979928923,293.0964409056756,12.5,0,0.4408931516559036,5.453635956817128,-1.736784557643812,-2.95205068015481e-06,1.709892054049009e-05,-1.389427646115049e-05,2.27363451599874e-05,2.252602915016441e-05
213.811193330615,292.9570109347703,12.5,0,0.4074923794903614,5.32763179007967,-1.751166457306154,-2.958129817694579e-06,1.672242782466265e-05,-1.400933165844923e-05,2.216608919125281e-05,2.181182092377752e-05
215.384859722716,290.9610810307494,12.5,0,0.316526270405213,5.279116878398878,-1.411242667730611,-3.21040943742242e-06,1.663995299455224e-05,-1.128994134184489e-05,2.155001310752876e-05,2.197292485584779e-05
217.3323712670088,290.5851332200567,12.5,0,0.2854929911076958,5.170371006005397,-1.427011536180135,-3.222719233259691e-06,1.631679282633111e-05,-1.141609228944108e-05,2.104967303598089e-05,2.128952156742025e-05
215.31350458482,292.8549411119742,12.5,0,0.2932778202663004,5.269332796267186,-1.453724716043119,-3.276977212161587e-06,1.662724269184195e-05,-1.162979772834495e-05,2.145941513532809e-05,2.125779594059145e-05
217.3656999225427,292.715511141069,12.5,0,0.2664258648758779,5.167050085506268,-1.463865367053958,-3.281077300802205e-06,1.632141958171935e-05,-1.171092293643166e-05,2.099463880644535e-05,2.045837976418714e-05
212.8343176077027,238.9231966153488,12.5,0,12.51296390230328,10.6056690248499,-5.594605736004302,3.155694926749056e-05,2.392776975767706e-05,-4.475684588803441e-05,8.5116396398094e-05,9.756290978058631e-05
214.456550620871,238.0754227072078,12.5,0.1057103684754224,10.99957032666316,9.960373371001772,-5.130739179443256,3.044911333937604e-05,2.580096840275288e-05,-4.589778522375498e-05,8.629615261656045e-05,0.0001113805254958528
213.1945955871212,240.9852863605384,12.5,0,11.5033067224314,10.21255158291531,-5.208781356177941,2.864054024544823e-05,2.347751968738388e-05,-4.167025084942353e-05,7.991622787546699e-05,9.024661254721787e-05
214.8701863867208,240.323518761726,12.5,0.008768371943155273,11.27932367252641,10.67826618000282,-5.335812248818598,2.77949391728875e-05,2.536944153737775e-05,-4.306410003707107e-05,8.153677342856361e-05,0.0001008547200766091
210.0245276072301,240.3915840975537,12.5,0,10.94715983005123,9.707946586311522,-5.703383244927465,2.72645541871147e-05,2.230770121215589e-05,-4.562706595941972e-05,7.635399409776451e-05,8.275817015215199e-05
211.6467606203984,239.5438101894128,12.5,0,10.84885713853431,10.00342765004256,-5.768261599005946,2.671360072327574e-05,2.333188276930874e-05,-4.614609279204757e-05,7.707899505546692e-05,8.989357278100374e-05
210.2923871895719,242.1315014644637,12.5,0,10.51772256768839,9.542546035922721,-5.528679093074097,2.602267538786467e-05,2.212196926080199e-05,-4.422943274459278e-05,7.414458839770569e-05,7.875175246290544e-05
211.9679779891714,241.4697338656513,12.5,0,10.46396970467728,9.851017109678992,-5.610369799435643,2.560388936722409e-05,2.315207898723095e-05,-4.488295839548515e-05,7.508513714537332e-05,8.432414022497905e-05
210.4884740131319,243.4052093779591,12.5,0,9.75585246864491,9.758974188037456,-5.824489297101464,2.341154854923374e-05,2.342403542680393e-05,-4.659591437681171e-05,7.234295490765403e-05,7.597791298904554e-05
212.2031254233769,242.8796078480978,12.5,0,9.652486536410011,10.07069354415051,-6.0196734754459,2.283140208119162e-05,2.450423011215362e-05,-4.815738780356721e-05,7.318737202250475e-05,8.052355337322714e-05
210.7563335954737,245.145126744869,12.5,0,9.038841803946271,9.521927369613659,-5.633821395553277,2.130675187693714e-05,2.323909413960669e-05,-4.507057116442622e-05,6.885839860864388e-05,7.240606030334451e-05
212.52434279215,244.8055315243363,12.5,0,9.007537782260721,9.853236825581451,-5.845442724339078,2.094153144276915e-05,2.432432761605206e-05,-4.676354179471262e-05,7.004134348715489e-05,7.570958955124596e-05
213.4583373728926,242.4948408237198,12.5,0,10.3283451887173,10.1558358917929,-5.585594167930586,2.492603589046105e-05,2.423599870276345e-05,-4.468475334344469e-05,7.567219304898719e-05,8.527283805270531e-05
215.1729887831376,241.9692392938584,12.5,0,10.18377870668839,10.31847301259975,-5.802923270859186,2.433331345132306e-05,2.487209067496848e-05,-4.642338616687349e-05,7.584254453307381e-05,9.370248471301821e-05
213.818615352311,244.5569305689093,12.5,0,9.478638599417437,9.898273160648049,-5.427375093966766,2.241302498961735e-05,2.40915632345398e-05,-4.341900075173412e-05,7.16532689987982e-05,7.900053066109753e-05
215.5866245489874,244.2173353483766,12.5,0,9.407229205901466,10.08092756457673,-5.655773289907733,2.20383914072233e-05,2.473318484192435e-05,-4.524618631926187e-05,7.216638983844896e-05,8.468801973040995e-05
146.5715675694813,230.761108036611,12.5,0,9.147951117609773,1.430292507973618,-4.142528200262407,2.812920956997238e-05,-2.741424868572242e-06,-3.314022560209926e-05,4.096300565105071e-05,4.050652458559206e-05
149.3732174466697,231.9298746615819,12.5,0,9.392593054372627,1.709078946278686,-4.346587622480909,2.868903461696946e-05,-2.045021815406305e-06,-3.477270097984727e-05,4.287011189841744e-05,4.16860493203479e-05
146.4888327823097,233.3967953344074,12.5,0,8.754521088141749,1.33796792095642,-4.070301883866287,2.694409314528846e-05,-2.722119523452854e-06,-3.256241507093029e-05,3.917290706699978e-05,4.022915567771776e-05
149.2481191126388,234.3406496388548,12.5,0,8.970129144994289,1.61420067886147,-4.272093438861021,2.741305272089254e-05,-2.010661143638727e-06,-3.417674751088817e-05,4.096302202658744e-05,4.134491783998536e-05
146.7148684244133,226.1959637240458,12.5,0,9.410514101758739,1.271188183937445,-3.873730965029711,2.909669457847801e-05,-3.460609092807167e-06,-3.098984772023769e-05,4.127966708710993e-05,4.092094605751458e-05
149.5898941171497,227.7542899154046,12.5,0,9.740406670393403,1.567429027390383,-4.108876278527088,2.991535812334658e-05,-2.776552448665497e-06,-3.28710102282167e-05,4.357086809675498e-05,4.221507488456497e-05
146.6321336372417,228.8316510218422,12.5,0,8.97794121968035,1.168830909661384,-3.805111784645568,2.779434717524801e-05,-3.442094064827852e-06,-3.044089427716454e-05,3.931077211841238e-05,4.069188925918447e-05
149.4647957831187,230.1650648926775,12.5,0,9.278075057933842,1.462092780228517,-4.038940590679993,2.852016596120548e-05,-2.743763149615818e-06,-3.231152472543995e-05,4.148086292021001e-05,4.1919207197724e-05
141.7351778516174,223.4968635858955,12.5,0,9.235929004849375,0.8897994284386377,-3.574029212044205,2.884313327276708e-05,-4.541385032875858e-06,-2.859223369635364e-05,3.92757654646054e-05,3.866489633711785e-05
144.6102035443539,225.0551897772543,12.5,0,9.518217446692844,1.148169806641916,-3.775400225778856,2.953975998410357e-05,-3.940430576100144e-06,-3.020320180623085e-05,4.124246368642507e-05,3.996967858276943e-05
141.7258188799938,226.5221104500798,12.5,0,8.80894216191326,0.7836319706361554,-3.499628346161182,2.75617093416135e-05,-4.539531423494909e-06,-2.799702676928946e-05,3.731246108408104e-05,3.858013741468803e-05
144.5584810258708,227.8555243209151,12.5,0,9.064842426805901,1.03850476016704,-3.698878916734034,2.817669195764524e-05,-3.928658708910192e-06,-2.959103133387227e-05,3.916770517997042e-05,3.979718820737666e-05
141.718967637259,228.7367448600069,12.5,0,9.021835706973425,1.068444055713895,-3.870644286831184,2.801511901774384e-05,-3.798447587294274e-06,-3.096515429464947e-05,3.920322923116544e-05,3.848967222776897e-05
144.5206175144475,229.9055114849779,12.5,0,9.234924547614819,1.304030047561785,-4.048912438228271,2.850853451431798e-05,-3.215043485894141e-06,-3.239129950582617e-05,4.08341260250594e-05,3.965005792495685e-05
141.7096086656353,231.7619917241913,12.5,0,8.619212140729218,0.9683643653034721,-3.796609745929043,2.680678735809071e-05,-3.796603743612262e-06,-3.037287796743234e-05,3.735356055067995e-05,3.83272756632092e-05
144.4688949959644,232.7058460286387,12.5,0,8.805807023224553,1.200424150786282,-3.972336242809673,2.721824315368953e-05,-3.203288336063538e-06,-3.177868994247738e-05,3.887307085392215e-05,3.942058089342966e-05
225.0743610681354,262.7612307167058,12.5,0,0.7122866869871092,7.951373274633562,-1.913418228020894,-4.0817812213481e-06,2.487456512923771e-05,-1.530734582416715e-05,3.310377951913721e-05,3.554900978489157e-05
226.9692685325509,263.1529139735074,12.5,0,0.580228915074428,7.515326967686588,-1.835497377116193,-4.1555290459111e-06,2.358486316453754e-05,-1.468397901692955e-05,3.100998372204163e-05,3.285710372767693e-05
225.0055684290714,264.7496168616511,12.5,0,0.8301802893852317,7.966577948000858,-2.07680893965876,-3.716685432367944e-06,2.482890520209456e-05,-1.661447151727008e-05,3.359020179022202e-05,3.30758968566474e-05
226.9197723494879,265.1144101609943,12.5,0,0.7012292127405657,7.534988225359477,-2.002176376734668,-3.784057099517771e-06,2.355097895095787e-05,-1.601741101387734e-05,3.152398034645598e-05,3.053210711481514e-05
225.1935134141787,259.3172448886563,12.5,0,1.12194909258342,8.656245945137732,-2.414132090816327,-3.334759659843242e-06,2.6802427750374e-05,-1.931305672653061e-05,3.724966524589522e-05,4.118814389759061e-05
227.054998436395,259.7555029179884,12.5,0,1.011198767175969,8.280182059682828,-2.352892729126423,-3.388309592783161e-06,2.568762357724427e-05,-1.882314183301138e-05,3.545487270544417e-05,3.829885173064024e-05
225.1247207751148,261.3056310336016,12.5,0,1.197545713425349,8.66259528168767,-2.558204138314066,-3.097929942389019e-06,2.676226833066026e-05,-2.046563310651253e-05,3.757190650073241e-05,3.772267982824641e-05
227.0055022533321,261.7169991054753,12.5,0,1.089078118359931,8.290333783167746,-2.499840186827329,-3.147217047782419e-06,2.565780561144884e-05,-1.999872149461863e-05,3.580058846850198e-05,3.493819667524128e-05
221.9693267782293,258.5581597150418,12.5,0,1.914283180395452,9.110842970485091,-3.223888519403492,-1.162968199122628e-06,2.762327096123593e-05,-2.579110815522794e-05,4.184051480526116e-05,4.538041510665924e-05
223.8308118004458,258.9964177443738,12.5,0,1.898053994524949,8.953390291144537,-3.248746987411264,-1.088939450435793e-06,2.713240573604255e-05,-2.598997589929011e-05,4.121118842713338e-05,4.308564308528566e-05
221.8671116969663,260.5931206325176,12.5,0,1.800327169529107,9.074137818072215,-3.291422604306387,-1.498263311964631e-06,2.75969792822078e-05,-2.633138083445109e-05,4.137245134717693e-05,4.187415638229828e-05
223.7478931751837,261.0044887043912,12.5,0,1.78250381815605,8.917630416818923,-3.317079779115452,-1.43009211535578e-06,2.711041427929571e-05,-2.653663823292361e-05,4.074299454012305e-05,3.95811646304293e-05
221.7922850641852,262.0828154154635,12.5,0,1.283262545932973,8.506779473715138,-2.674437686731946,-2.698983431986596e-06,2.619508427914206e-05,-2.139550149385556e-05,3.730575866774819e-05,3.962363191362365e-05
223.6871925286007,262.4744986722652,12.5,0,1.215737772998741,8.2458834713422,-2.649809916489518,-2.706345903477788e-06,2.541423688989604e-05,-2.119847933191614e-05,3.609910530240577e-05,3.736209554782199e-05
221.6900699829221,264.1177763329395,12.5,0,1.292279604883622,8.496189166967779,-2.77649038552162,-2.661656597946634e-06,2.615398165039e-05,-2.221192308417296e-05,3.734138994571189e-05,3.698134344562718e-05
223.6042739033386,264.4825696322827,12.5,0,1.225527537383113,8.237592532461823,-2.753636107674014,-2.668385906343497e-06,2.537987407397134e-05,-2.202908886139211e-05,3.614772077097018e-05,3.480396452323216e-05
221.9605403763213,220.5192617531552,12.5,0.7211641826032067,15.73939512864825,10.59314617930775,-4.030851734841506,0.0001502373255320174,7.641253505300655e-05,-0.0001156480332397315,0.0003453955447432005,0.0003310521743691905
223.211151525136,219.1464421321698,12.5,0.7381755437680049,15.69426184426848,9.841864316487086,-3.5884738588646,0.0001617425165621121,7.233303034367034e-05,-0.0001096451847320162,0.0003567027398906311,0.0003502285947928638
223.14776366961,222.3177942903168,12.5,0.7439884011794453,15.68903515029186,10.31574115229873,-4.158653862931462,0.0001638688237266174,7.991490878295248e-05,-0.0001299520453632688,0.0003718037082151107,0.0003573044037667113
224.4154680962976,220.7872357672398,12.5,0.7604238274147108,15.52396717805907,9.587191121267058,-3.740875308714766,0.0001753385640127501,7.621725336273504e-05,-0.000124916439505536,0.0003836495709065237,0.0003789641809712728
219.7944183261011,222.8970550862867,12.5,0.6762672734349056,15.53872112171575,10.76694455517663,-4.281696975294056,0.0001269885574484322,6.802909892016833e-05,-0.0001058081960566471,0.000297317433421042,0.0002892928351557668
221.0450294749158,221.5242354653013,12.5,0.7050356575036898,15.06860781456245,9.917353765485295,-3.632007867588237,0.0001365780746691968,6.672211844775498e-05,-9.85070354430023e-05,0.0003097195086532022,0.0003147244867847615
220.9520351936467,224.9687994161959,12.5,0.6977751754688856,15.8621485007196,10.49464326048525,-4.350009713726028,0.0001401710155995249,6.913111676180709e-05,-0.0001151463244748299,0.0003193207231634957,0.0003078912941969377
222.2197396203342,223.438240893119,12.5,0.727786323089048,15.13437551781976,9.562769243304999,-3.695510607719904,0.0001498079990878611,6.793692871783896e-05,-0.0001086061699663621,0.0003319987392131278,0.0003382604811523723
221.7994695563527,226.4854215259177,12.5,0.7117616515294765,15.19301341228861,10.6418133425503,-4.495756525479202,0.0001391355191218928,7.597667722749105e-05,-0.0001247788588669063,0.0003282196303283013,0.0003213325218168051
223.0796871309106,224.8393901121846,12.5,0.7432675564215885,14.73492000200282,9.677771553629928,-3.697902684223791,0.0001535042716619825,7.471176101728352e-05,-0.000115229774084844,0.0003478413081065121,0.0003564113453646281
222.9570864238983,228.5571658558269,12.5,0.7288574292111438,15.81605110751895,10.48063636646352,-4.607188803651129,0.0001557367193503991,7.702661896988425e-05,-0.0001359340597899349,0.000355407375314588,0.0003394561795507711
224.254397276329,226.7533955400023,12.5,0.7629038268983158,14.93840784256413,9.355357993006248,-3.771567560289813,0.0001700517480917275,7.586128054397063e-05,-0.0001272586566354165,0.0003751482702681468,0.0003824644342282919
224.0168714401897,223.6344114865288,12.5,0.7597108209809906,15.51592186780022,10.4920372728564,-4.140190058865386,0.0001716986188354811,8.806797653266858e-05,-0.0001378402498445543,0.0003960266862548019,0.0003779697658280941
225.2970890147476,221.9883800727957,12.5,0.7758122519589171,15.66199811103445,9.74152017530086,-3.667040277073847,0.0001887934473890757,8.31591656325428e-05,-0.0001308560457604259,0.0004145791216280832,0.000401789642319897
225.2040947334784,225.4329440236903,12.5,0.7798073809225906,15.54538629012267,10.2321333716096,-4.276770091006954,0.0001887417008128437,9.222160961677717e-05,-0.0001553828682878218,0.0004287068603771148,0.0004081763555414777
226.5014055859092,223.6291737078657,12.5,0.7955185776366167,15.51271637924138,9.484131732408215,-3.820265192931454,0.000205658717264363,8.772947797885402e-05,-0.0001494616048255952,0.0004476380173953847,0.0004354143762547802
185.7521771069969,215.2691742179056,12.5,0,13.67322439193998,5.542821295694504,-4.262274396858582,3.932006101765233e-05,6.798448632670427e-06,-3.409819517486866e-05,7.131707928570881e-05,7.089243356846342e-05
187.3539492180176,215.5667569559201,12.5,0,13.83408267050958,5.980838734955791,-4.402403738230331,3.948439355766601e-05,8.071417815450868e-06,-3.521922990584264e-05,7.344764129503051e-05,7.271167871206611e-05
185.7578202813506,217.3043920214184,12.5,0,13.37607819573726,5.467424237029091,-4.101763070520271,3.842951083673596e-05,6.794895001903281e-06,-3.281410456416217e-05,6.989279747968377e-05,7.042053286199314e-05
187.6079559964252,217.4761784068925,12.5,0,13.49014451669051,5.835943704020298,-4.208892930093416,3.849970749019338e-05,7.882904239512548e-06,-3.367114344074733e-05,7.160210545527649e-05,7.249236751384996e-05
185.7619513716933,218.7942748579952,12.5,0,13.33419401469103,5.603139469070506,-4.61065921674485,3.81869092717549e-05,7.26269108927279e-06,-3.68852737339588e-05,7.039792870637229e-05,7.001457657240343e-05
187.7939018636785,218.8739719220069,12.5,0,13.45798327659521,6.0583167217659,-4.719247058748992,3.821889310769193e-05,8.620226888374715e-06,-3.775397646999193e-05,7.24392214286744e-05,7.226643487039291e-05
185.767594546047,220.8294926615081,12.5,0,13.10752516442562,5.545492485115788,-4.469081496636425,3.750768653806933e-05,7.259555820830028e-06,-3.575265197309141e-05,6.930124266306909e-05,6.937738407001526e-05
188.047908642086,220.7833933729794,12.5,0,13.20266301455979,5.944258478930305,-4.556148206768705,3.749311486344708e-05,8.45949672092914e-06,-3.644918565414964e-05,7.10371154547724e-05,7.186848660756985e-05
189.2813928622129,218.932314222075,12.5,0,13.70649423873406,6.419506249377275,-4.664124527781744,3.872517656444718e-05,9.577224607020028e-06,-3.731299622225395e-05,7.456283662326799e-05,7.403292695489759e-05
191.3133433541981,219.0120112860867,12.5,0,13.87128467397162,7.04667050638708,-4.754898180108206,3.87507745515995e-05,1.145231788126136e-05,-3.803918544086565e-05,7.734653577996063e-05,7.660721478314832e-05
189.717214417531,220.749646351585,12.5,0,13.52121921497955,6.271096280842949,-4.479626950430694,3.825102446326019e-05,9.250532726713797e-06,-3.583701560344555e-05,7.329701038054645e-05,7.384504486323174e-05
191.99752851357,220.7035470630564,12.5,0,13.65143831493113,6.80611491776658,-4.545518754459803,3.823971067356635e-05,1.085841708490815e-05,-3.636415003567843e-05,7.562759993101218e-05,7.675399990449469e-05
188.5265277853819,215.7846026395928,12.5,0,13.8740041811865,6.226085099581001,-4.325212300942272,3.941594530013201e-05,8.824268973709999e-06,-3.460169840753817e-05,7.439674122113927e-05,7.410331526264531e-05
190.1282998964026,216.0821853776072,12.5,0,14.04481652855934,6.739748474345708,-4.4514925048775,3.955161411191331e-05,1.033134189505879e-05,-3.561194003902e-05,7.682538307608818e-05,7.608609188105657e-05
188.9623493407,217.6019347691029,12.5,0,13.63744229002592,6.069268221711845,-4.143360332588166,3.878440075071347e-05,8.511704477457164e-06,-3.314688266070533e-05,7.291618138059969e-05,7.410213029984717e-05
190.8124850557745,217.773721154577,12.5,0,13.75791894102712,6.482270013051524,-4.231791036305788,3.883952460084555e-05,9.736928888943184e-06,-3.385432829044631e-05,7.480015427863148e-05,7.642824936765537e-05
173.3310178966645,231.9105330130635,12.5,0,10.59241300765749,4.035393678538867,-5.274639334508834,3.066740668167289e-05,4.43932936519838e-06,-4.219711467607067e-05,5.536861717144567e-05,5.501246995056611e-05
175.7637647955472,232.5826754227962,12.5,0,10.83752267372275,4.41641645308372,-5.526928358781791,3.114693939344583e-05,5.4625145108897e-06,-4.421542687025432e-05,5.767866082865273e-05,5.642104699936723e-05
173.2261368709517,234.1433658776325,12.5,0,10.05980024202491,3.916163746108428,-5.1655204746883,2.905842977759295e-05,4.483883793927044e-06,-4.13241637975064e-05,5.295584964219068e-05,5.416559973445103e-05
175.650840813577,234.8291212630779,12.5,0,10.30935738759667,4.299158083704057,-5.419325341476968,2.955061717334611e-05,5.509819957775645e-06,-4.335460273181574e-05,5.529162710729664e-05,5.545671953161132e-05
173.5126771619458,228.04315304689,12.5,0,11.13630839566351,3.912501517978224,-5.038152100305564,3.250618565174063e-05,3.610958140999512e-06,-4.030521680244451e-05,5.682833519986329e-05,5.633502884005211e-05
175.9593548697089,228.6917170910463,12.5,0,11.36887383266438,4.285113394632246,-5.281866793968967,3.295230554882021e-05,4.617263796691685e-06,-4.225493435175174e-05,5.905223843499963e-05,5.794582931074189e-05
173.4077961362329,230.2759859114589,12.5,0,10.62287070781942,3.797756992563658,-4.931319946816108,3.095498067097122e-05,3.65452580994817e-06,-3.945055957452887e-05,5.449565415217886e-05,5.559376672743041e-05
175.8464308877388,230.9381629313281,12.5,0,10.85969032680657,4.17227411171025,-5.176501278663265,3.141318975641283e-05,4.663524896027541e-06,-4.141201022930612e-05,5.674416497893131e-05,5.708800195453691e-05
169.2749070624301,226.919807170469,12.5,0,10.95991237747339,3.343334790299414,-4.801316820806105,3.239705177567531e-05,1.930741426979412e-06,-3.841053456644884e-05,5.417986804306544e-05,5.36382940362228e-05
171.7215847701931,227.5683712146254,12.5,0,11.17207904994875,3.683043248303687,-5.023714740825795,3.280421836119305e-05,2.848075154612795e-06,-4.018971792660637e-05,5.619967379678697e-05,5.518082824191208e-05
169.1839568455977,229.1290616694617,12.5,0,10.49578953559687,3.23806801769032,-4.703940321979935,3.099607209975774e-05,1.965186028131524e-06,-3.763152257583947e-05,5.20639557181633e-05,5.306829950767557e-05
171.6225915971035,229.7912386893308,12.5,0,10.71185439385052,3.57953919860276,-4.927692093299515,3.141430270143944e-05,2.885041920448419e-06,-3.942153674639612e-05,5.410598088940568e-05,5.451669070301403e-05
169.1173766659199,230.7463482095057,12.5,0,10.49280996969953,3.474570259972631,-5.043802540185782,3.07973356950604e-05,2.724376856152793e-06,-4.035042032148625e-05,5.302390151758186e-05,5.261382300801951e-05
171.5501235648025,231.4184906192384,12.5,0,10.7168352049771,3.821905015950761,-5.27461893304313,3.123634864316612e-05,3.656627887060752e-06,-4.219695146434504e-05,5.512398977004451e-05,5.399232735671185e-05
169.0264264490875,232.9556027084983,12.5,0,10.00986245483124,3.364835580007931,-4.944402616247483,2.933969139145361e-05,2.759583892160389e-06,-3.955522092997986e-05,5.082807629336933e-05,5.194216464860755e-05
171.4511303917128,233.6413580939438,12.5,0,10.23797511880837,3.713996942568679,-5.176619744140642,2.979032282613185e-05,3.694410121173075e-06,-4.141295795312514e-05,5.295148249162059e-05,5.322387759182462e-05
173.5559899571842,224.04560371573,12.5,0,11.62830801605748,3.784484268558074,-4.750096827520828,3.418299823653749e-05,2.807703246539847e-06,-3.800077462016662e-05,5.807312378928587e-05,5.740033091227023e-05
176.013358296202,224.7006759341576,12.5,0,11.85841064460248,4.165445943503574,-4.986947878368571,3.461455730792507e-05,3.842698503529453e-06,-3.989558302694857e-05,6.03041858727064e-05,5.918815292525022e-05
173.5523855765917,226.3737271690591,12.5,0,11.11751484843734,3.657260071792878,-4.627903390049679,3.265023945756517e-05,2.809220350987341e-06,-3.702322712039743e-05,5.569569661410105e-05,5.681909625443987e-05
176.0040829339999,227.0203874874069,12.5,0,11.34663101289332,4.038728321732939,-4.864941035329548,3.307823658387225e-05,3.846625819230751e-06,-3.891952828263638e-05,5.792619356321087e-05,5.850856306731045e-05
173.5622329275002,220.0131756083438,12.5,0,12.03398003708109,3.648961079158896,-4.407984053681091,3.558956725533237e-05,2.049491423643593e-06,-3.526387242944873e-05,5.896767206105476e-05,5.818941213895015e-05
176.0294236947944,220.6828176650974,12.5,0,12.2599728037633,4.031767179132907,-4.635425529004844,3.600649922873623e-05,3.093676730214664e-06,-3.708340423203875e-05,6.117713431568915e-05,6.015388197604755e-05
173.5586285469077,222.3412990616729,12.5,0,11.5512427731447,3.528753164961336,-4.28517836903706,3.414097434209398e-05,2.05101590936051e-06,-3.428142695229648e-05,5.67139244200706e-05,5.776750594688887e-05
176.0201483325922,223.0025292183468,12.5,0,11.77632674105088,3.912088891508028,-4.512782090978012,3.45545744581564e-05,3.097623059984981e-06,-3.61022567278241e-05,5.892278900001946e-05,5.962901479812427e-05
169.2889331666586,218.8533215431823,12.5,0,11.73406295311391,3.060714186129215,-4.163944912985056,3.510043010106114e-05,4.070350331223565e-07,-3.331155930388045e-05,5.581214125343296e-05,5.494534027791638e-05
171.7561239339527,219.522963599936,12.5,0,11.93680431657637,3.399601234300052,-4.369164121070733,3.547809282560433e-05,1.329280496499075e-06,-3.495331296856586e-05,5.777099893975117e-05,5.67937875972355e-05
169.2951512143425,221.1960148348375,12.5,0,11.29374554905411,2.949908951195319,-4.054114088624316,3.378005859601689e-05,4.047122045817324e-07,-3.243291270899453e-05,5.375313658673254e-05,5.468136056598193e-05
171.7566710000271,221.8572449915114,12.5,0,11.49565439656071,3.289249513696215,-4.259481823247818,3.41546944580373e-05,1.329074926579318e-06,-3.407585458598255e-05,5.571095746974694e-05,5.644178599099916e-05
169.2997031411709,222.910985350807,12.5,0,11.38912772187842,3.208549448221003,-4.510528970996158,3.387836915143413e-05,1.156056056804476e-06,-3.608423176796927e-05,5.517760937469715e-05,5.442881952332389e-05
171.7570714801886,223.5660575692346,12.5,0,11.59796928403075,3.551800980411458,-4.72616934008171,3.427206092456922e-05,2.087387710092068e-06,-3.780935472065368e-05,5.718595970348738e-05,5.612507137075329e-05
169.3059211888548,225.2536786424623,12.5,0,10.91992424845168,3.090512616217522,-4.399150354550028,3.247134750207134e-05,1.153700973134729e-06,-3.519320283640022e-05,5.298943607990241e-05,5.40028442756908e-05
171.7576185462629,225.90033896081,12.5,0,11.12785847614691,3.434208144254748,-4.61495935703028,3.286178060826631e-05,2.087179280697664e-06,-3.691967485624224e-05,5.499679389671855e-05,5.561179254294123e-05
168.9089522715856,199.5444919149719,12.5,0,11.80042670541184,2.541679218632813,-2.086064085322694,3.572802208241164e-05,-1.30696786470447e-06,-1.668851268258155e-05,5.361809360113097e-05,5.332912530186271e-05
170.7205876087796,199.1007564284244,12.5,0,11.90223612826013,2.666375454642038,-1.960987733760642,3.595405524671878e-05,-9.893874477535816e-07,-1.568790187008514e-05,5.438020153974358e-05,5.47593897467572e-05
169.6306970304443,201.4658738295807,12.5,0,12.07960395074195,2.576509336627193,-2.089471846144608,3.659352517307248e-05,-1.41885328338654e-06,-1.671577476915686e-05,5.479312700523347e-05,5.435851994691834e-05
171.2738371275287,200.7563072164289,12.5,0,12.23562343023388,2.71271363160005,-1.959705504672409,3.698382407146838e-05,-1.107815123066946e-06,-1.567764403737927e-05,5.579828859258569e-05,5.563080502159546e-05
165.7711078228348,200.3130643227797,12.5,0,11.46815575212064,2.216093298476218,-2.130723326518828,3.492522376800507e-05,-2.083026046572614e-06,-1.704578661215062e-05,5.13133266922969e-05,5.098797436169824e-05
167.5827431600288,199.8693288362322,12.5,0,11.5550593417162,2.292744440290967,-2.014716112626996,3.514199434125905e-05,-1.907265264441862e-06,-1.611772890101597e-05,5.18612866338031e-05,5.231857759514531e-05
166.7846948983917,202.6948792548921,12.5,0,11.81302537982651,2.274396285489512,-2.160707977617036,3.598216418705322e-05,-2.172352190294769e-06,-1.728566382093628e-05,5.282052507133683e-05,5.225964645976976e-05
168.427834995476,201.9853126417403,12.5,0,11.94980780016945,2.361484330124847,-2.045040012109333,3.635019749644237e-05,-2.003096383736049e-06,-1.636032009687466e-05,5.359251047035042e-05,5.345522073274799e-05
167.526692135563,204.4384887993505,12.5,0,11.57949355083173,2.459036834775798,-2.578879227049069,3.508714989484091e-05,-1.394676969382834e-06,-2.063103381639256e-05,5.265067823607227e-05,5.315653700489565e-05
169.0464851560587,203.5343202952994,12.5,0,11.78812246873439,2.546209418988199,-2.444927640212756,3.568502436475949e-05,-1.282627834225275e-06,-1.955942112170205e-05,5.36834039477499e-05,5.425935727303651e-05
168.5402792111198,206.820303731463,12.5,0,12.04825679746588,2.555125642908762,-2.634748547550668,3.65103212375638e-05,-1.462203380664666e-06,-2.107798838040534e-05,5.475580141674331e-05,5.43352154450404e-05
169.891576991506,205.6503041008075,12.5,0,12.33180973277535,2.65917834614404,-2.504283768170977,3.733444846796587e-05,-1.356077078559347e-06,-2.003427014536782e-05,5.612943922151286e-05,5.531965601981813e-05
170.1590508640029,202.8724230117585,12.5,0,11.84153968264647,2.719298915367117,-2.458243698801562,3.5717487852175e-05,-7.714752169423996e-07,-1.96659495904125e-05,5.445185968635343e-05,5.508647359091251e-05
171.6788438844988,201.9682545077074,12.5,0,12.07045187755161,2.819874428865888,-2.310924720044671,3.636954646507243e-05,-6.327633296704448e-07,-1.848739776035737e-05,5.560647580863576e-05,5.624337712707424e-05
170.8807956228616,204.7938049263673,12.5,0,12.24162801569174,2.801274970977879,-2.496063390361649,3.693218967343125e-05,-8.292225054241757e-07,-1.996850712289319e-05,5.624639799427553e-05,5.604588528688842e-05
172.2320934032478,203.6238052957119,12.5,0,12.55817616089124,2.922260640785179,-2.349303472949543,3.78483552022238e-05,-6.953068782004153e-07,-1.879442778359634e-05,5.78011321886847e-05,5.704553996777461e-05
175.867693677379,294.3836278054594,12.5,0,2.331869874781104,4.740787702218713,-3.763552656780794,3.669353437524563e-06,1.3305024747275e-05,-3.010842125424635e-05,2.753367941081147e-05,2.801545455304558e-05
178.0670776831341,294.4624500680509,12.5,0,2.36545969325293,4.860105217064113,-3.807113875556329,3.681386844758084e-06,1.365996894000282e-05,-3.045691100445064e-05,2.810163175517509e-05,2.792832616642918e-05
175.7258246308577,296.1964857894054,12.5,0,2.242996456663458,4.725607560384316,-3.730241042230941,3.397102613015613e-06,1.332754702789904e-05,-2.984192833784753e-05,2.716245183556124e-05,2.736837953282374e-05
177.9320496409204,296.2498657267553,12.5,0,2.2752405763803,4.84444244522471,-3.773228937956258,3.40521588823719e-06,1.368202336361483e-05,-3.018583150365007e-05,2.772391265538447e-05,2.72782741879264e-05
172.0582488341254,294.2471036418858,12.5,0,2.546253729313149,4.547921748059096,-3.879371793930615,4.509674535354798e-06,1.251634661033859e-05,-3.103497435144492e-05,2.765567442722966e-05,2.81044734558513e-05
174.2576328398804,294.3259259044772,12.5,0,2.582808638700238,4.678217286821531,-3.925541759722577,4.522413814383539e-06,1.290404840686871e-05,-3.140433407778062e-05,2.827243960902642e-05,2.80626530769937e-05
171.9045308205689,296.1040290258123,12.5,0,2.450028037193241,4.532198465013954,-3.84216190826038,4.214330947007209e-06,1.254301265829006e-05,-3.073729526608304e-05,2.72530562140256e-05,2.746406383915894e-05
174.1107558306315,296.1574089631622,12.5,0,2.485160734270725,4.661991618365191,-3.887712342920556,4.222921054974167e-06,1.293024459135203e-05,-3.110169874336445e-05,2.786299060673713e-05,2.741816171983201e-05
171.7920014246119,297.4633927526531,12.5,0,2.359135554895118,4.451956584908963,-3.718645707220935,3.987668507737205e-06,1.235895262779259e-05,-2.974916565776748e-05,2.656697922168905e-05,2.70089466717616e-05
174.0032343974021,297.4981476152642,12.5,0,2.391824523341571,4.576011196367629,-3.762010166447046,3.993029517598923e-06,1.272977620970315e-05,-3.009608133157637e-05,2.714728132846493e-05,2.695954501627747e-05
171.6382834110555,299.3203181365797,12.5,0,2.267284464445703,4.436921941355219,-3.683253693942683,3.705772733142074e-06,1.238432264078014e-05,-2.946602955154146e-05,2.61837082187071e-05,2.640595306367474e-05
173.8563573881532,299.3296306739491,12.5,0,2.298625733191512,4.560499126858707,-3.726032286950658,3.707203044725873e-06,1.275469661939465e-05,-2.980825829560526e-05,2.675754962197306e-05,2.635107223807514e-05
175.6219692807873,297.5235899405045,12.5,0,2.155147504616025,4.637031698895331,-3.606354329953307,3.186846655655015e-06,1.311438343277224e-05,-2.885083463962645e-05,2.645872763171098e-05,2.690751668173772e-05
177.8332022535776,297.5583448031155,12.5,0,2.185377801334633,4.751646923829666,-3.647148261132359,3.191891425207092e-06,1.345696791518722e-05,-2.917718608905887e-05,2.69971938329306e-05,2.681477428382001e-05
175.480100234266,299.3364479244505,12.5,0,2.070659262915223,4.622666792096439,-3.57434841962604,2.927976207651561e-06,1.313600632437642e-05,-2.859478735700832e-05,2.610673187899141e-05,2.629549097741797e-05
177.6981742113638,299.3457604618199,12.5,0,2.099618946145376,4.736823278783529,-3.614595964969225,2.929322004638379e-06,1.347813933519099e-05,-2.89167677197538e-05,2.663907214656739e-05,2.619852097494698e-05
205.8819584446955,275.1241170659512,12.5,0,1.761599802998677,7.371823726056544,-3.568985787876625,-2.603396112494695e-07,2.2180556080982e-05,-2.8551886303013e-05,3.50763960341858e-05,3.453324535186859e-05
207.225276786636,276.4412918601766,12.5,0,1.502343891539472,7.014151735590601,-3.384838857727652,-8.038209355461711e-07,2.124341044065834e-05,-2.707871086182122e-05,3.281569314938101e-05,3.318469218797245e-05
204.3020427398347,276.5021482289915,12.5,0,1.838475220890883,7.119965083188726,-3.599430492975906,1.871486402998468e-07,2.131310808949121e-05,-2.879544394380725e-05,3.441396618479832e-05,3.398444616697145e-05
205.9845945716919,277.5914592251767,12.5,0,1.6053072016979,6.716292092303044,-3.428279121594119,-2.360506284091552e-07,2.020788893401142e-05,-2.742623297275295e-05,3.207384047255092e-05,3.277279468332141e-05
203.555262825757,272.8427033999445,12.5,0,2.188824831671823,7.53881279267825,-3.991156920579263,9.731892272072328e-07,2.237314107123294e-05,-3.19292553646341e-05,3.733408641548755e-05,3.681276590247148e-05
204.8985811676976,274.1598781941701,12.5,0,1.923652029992472,7.199094003527697,-3.810386997166381,3.964112931537512e-07,2.149817918729465e-05,-3.048309597733105e-05,3.511744494330613e-05,3.550538477371893e-05
201.3877774807422,274.6154062383892,12.5,0,2.307207694855273,7.198262268608957,-4.01271038966196,1.624454808649709e-06,2.118867310366444e-05,-3.210168311729568e-05,3.648485680489672e-05,3.593341738073519e-05
203.0703293125995,275.7047172345743,12.5,0,2.067658062275481,6.810643548431639,-3.839707124353688,1.167990960536229e-06,2.013993290516086e-05,-3.071765699482951e-05,3.417887304323854e-05,3.483133246629658e-05
199.8010680835979,275.913114782797,12.5,0,2.209339806172391,7.157456905945664,-3.932152666363982,1.343921854995121e-06,2.113639025408821e-05,-3.145722133091186e-05,3.596480058884358e-05,3.531157827159113e-05
201.7319560656925,276.8356179016182,12.5,0,2.019987663771946,6.763195376270419,-3.789843872536093,1.053404223053892e-06,2.002623507304778e-05,-3.031875098028874e-05,3.381770851533165e-05,3.434217724098569e-05
197.633582738583,277.6858176212416,12.5,0,2.278783757238687,6.845976697605793,-3.967682903990909,1.815326665079164e-06,2.008409842654759e-05,-3.174146323192727e-05,3.507801210868052e-05,3.449203075294024e-05
199.9037042105943,278.3804569420224,12.5,0,2.104637016388538,6.411490747817645,-3.834175816593683,1.605645854189203e-06,1.883306077990563e-05,-3.067340653274946e-05,3.284167345869348e-05,3.367983262001401e-05
203.1454641722498,277.5109370547074,12.5,0,1.778759433355444,7.190526190143234,-3.559856123932073,-6.039076537716487e-08,2.158667626177399e-05,-2.847884899145658e-05,3.445714528332783e-05,3.358219009550797e-05
205.0763521543443,278.4334401735285,12.5,0,1.583074778319459,6.784726122920564,-3.412758110608433,-3.619416077141823e-07,2.044466377069024e-05,-2.730206488486746e-05,3.224454321545948e-05,3.247526763148078e-05
201.565548467389,278.8889682177476,12.5,0,1.836324741015801,6.972362517162819,-3.589579589165001,2.983491575203091e-07,2.084250026210838e-05,-2.871663671332001e-05,3.385824189957894e-05,3.30320052554671e-05
203.8356699394002,279.5836075385286,12.5,0,1.659175962332963,6.53182157388399,-3.453477723195728,8.390582035828868e-08,1.957448826656239e-05,-2.762782178556582e-05,3.158511001485498e-05,3.207430611384246e-05
191.2687257575461,288.4305624216553,12.5,0,1.950218307623193,5.784832078186481,-3.560625009261434,1.612832921845032e-06,1.695128800409818e-05,-2.848500007409147e-05,2.987143729854703e-05,2.954208102005381e-05
193.2734168473879,287.0461448827547,12.5,0,1.856136409150181,5.979336043972546,-3.583057557215569,1.156167674102542e-06,1.7648966213392e-05,-2.866446045772456e-05,3.02908889062276e-05,2.994920110676251e-05
192.1747613786011,290.2232297916918,12.5,0,1.674310807319075,5.594150184140957,-3.418162085512069,8.82474436108275e-07,1.65618319433958e-05,-2.734529668409655e-05,2.818967877646173e-05,2.859447346572306e-05
194.120163623685,289.1879560063577,12.5,0,1.606145866280849,5.828313400287199,-3.459927310609432,4.770160518689564e-07,1.736568618789435e-05,-2.767941848487546e-05,2.885346739152254e-05,2.879019789430079e-05
194.7409525785702,286.032680905433,12.5,0,1.892333017486012,6.025254245721968,-3.486494500826517,1.235262259377664e-06,1.776694717232148e-05,-2.789195600661214e-05,3.050379685833204e-05,3.023112477802659e-05
196.745643668412,284.6482633665324,12.5,0,1.793575608393721,6.214711176383394,-3.511975632690816,7.676730057531924e-07,1.845221527771188e-05,-2.809580506152653e-05,3.089537519391362e-05,3.059423448510041e-05
195.5442969081844,288.4300829957812,12.5,0,1.544106387615927,5.836135073306339,-3.324323717039168,2.722323817258955e-07,1.744034712448754e-05,-2.659458973631334e-05,2.858514746809594e-05,2.891450623962029e-05
197.4896991532682,287.394809210447,12.5,0,1.473714851207733,6.057802187570778,-3.3679558917561,-1.303542261918769e-07,1.82059951192603e-05,-2.69436471340488e-05,2.920217024552814e-05,2.905839852627466e-05
193.3495193837311,281.880258678853,12.5,0,2.419326820387675,6.325987651765792,-3.953524181032375,2.681055703827927e-06,1.830769902934039e-05,-3.1628193448259e-05,3.363751655572212e-05,3.260704298155127e-05
195.4569017650138,279.8911064196407,12.5,0,2.205215780760116,6.571971637115621,-3.957236231188974,1.799113188739876e-06,1.926613661416189e-05,-3.165788984951179e-05,3.383779695003416e-05,3.348231583430995e-05
194.1528637133453,284.277660769201,12.5,0,1.970279313876563,6.080474771822927,-3.742499446708457,1.440513986946659e-06,1.788129581873211e-05,-2.993999557366765e-05,3.114209916042613e-05,3.122053701601845e-05
196.20095724987,282.6376522635553,12.5,0,1.783478963381211,6.363804358579967,-3.765487005489716,6.16089195955901e-07,1.893739077675092e-05,-3.012389604391773e-05,3.158993305787923e-05,3.177961955513365e-05
191.8068084097224,283.3364191965248,12.5,0,2.160394769604512,6.079022692953486,-3.903554037511405,2.050045108371651e-06,1.772455680176754e-05,-3.122843230009124e-05,3.18701797360436e-05,3.19930849897682e-05
192.6535551860196,285.4782303201278,12.5,0,1.880873573361895,5.924236214941351,-3.779564185648746,1.279406462804982e-06,1.745285702912281e-05,-3.023651348518997e-05,3.031921510310921e-05,3.080741211741436e-05
189.6994260284398,285.3255714557371,12.5,0,2.348989657851265,5.907464032620599,-3.888031587739532,2.790795679027567e-06,1.70246931781049e-05,-3.110425270191626e-05,3.18506329783712e-05,3.119099341519127e-05
190.6054616494948,287.1182388257736,12.5,0,2.05143701333304,5.720076510698821,-3.747916225689478,1.98853723410667e-06,1.666309522356979e-05,-2.998332980551582e-05,3.010589676506614e-05,3.023781644362346e-05
173.7192749259481,215.8339663582374,12.5,0,12.39458133137879,3.513235753123716,-3.987119374425879,3.685207165791314e-05,1.326689344892861e-06,-3.189695499540703e-05,5.968144332351748e-05,5.883716839082702e-05
176.2521626517883,216.7240636755093,12.5,0,12.66743056120731,3.904064752947705,-4.231824160204114,3.741252599350522e-05,2.359062760466809e-06,-3.385459328163291e-05,6.209175245681947e-05,6.100458685753064e-05
173.6052779950297,218.2695410656319,12.5,0,11.90627215507752,3.405134303282678,-3.876316469479747,3.537596345362193e-05,1.37141204644255e-06,-3.101053175583797e-05,5.744929945092068e-05,5.847602732696835e-05
176.0915917442535,219.0005078932399,12.5,0,12.15477195384366,3.798098078413083,-4.1196590636091,3.585679178956926e-05,2.430096287846933e-06,-3.29572725088728e-05,5.977604591656786e-05,6.052246539848483e-05
173.9167234022021,211.6154272194762,12.5,0,12.64323826630163,3.431599071787084,-3.528959142850197,3.771308319473553e-05,8.665264166773674e-07,-2.823167314280157e-05,6.01642153904271e-05,5.925315327927581e-05
176.530279621851,212.7811466298743,12.5,0,12.99175049705766,3.836747345573009,-3.807410172815478,3.85042037141261e-05,1.8841911081875e-06,-3.045928138252382e-05,6.29110744107616e-05,6.16415187079182e-05
173.8027264712837,214.0510019268707,12.5,0,12.11573877425534,3.31309430258188,-3.424017987450274,3.611988863555158e-05,9.093107488577449e-07,-2.739214389960219e-05,5.775082715928838e-05,5.904539866215858e-05
176.3697087143162,215.0575908476049,12.5,0,12.44012355601722,3.719983638845298,-3.702250867681893,3.683240846817887e-05,1.951848799491179e-06,-2.961800694145514e-05,6.04138245549362e-05,6.130443628807135e-05
169.389911241414,209.5963419733338,12.5,0,12.18739506023437,2.814789808319092,-3.242953090920869,3.674783234609472e-05,-7.425886615664056e-07,-2.594362472736696e-05,5.632935818372813e-05,5.528161295333424e-05
172.0034674610629,210.7620613837319,12.5,0,12.47194115988034,3.160790907017174,-3.46960041572799,3.738157898600336e-05,1.369779745506803e-07,-2.775680332582392e-05,5.861207047567614e-05,5.754902166845002e-05
169.3565828043043,212.3075387738544,12.5,0,11.71314358309526,2.699616755114125,-3.134841774020511,3.532236606181352e-05,-7.31741250111005e-07,-2.507873419216409e-05,5.412579767574937e-05,5.531130327581791e-05
171.9235650473368,213.3141276945886,12.5,0,11.9774753249711,3.046202627743011,-3.36009086464958,3.58909589377131e-05,1.658681488007549e-07,-2.688072691719664e-05,5.633395826484657e-05,5.743954351144295e-05
169.3321846950042,214.2922725810694,12.5,0,12.05062780946886,2.928646855899606,-3.72780241049543,3.621909150558066e-05,-2.688323086963472e-07,-2.982241928396344e-05,5.637510125965524e-05,5.526295595416118e-05
171.8650724208443,215.1823698983413,12.5,0,12.2839948701841,3.258266958395482,-3.937767876603909,3.670217001787272e-05,5.992583707182652e-07,-3.150214301283127e-05,5.841274480868523e-05,5.729870302707948e-05
169.2988562578945,217.00346938159,12.5,0,11.57774585201582,2.813874551186689,-3.617785588935622,3.479768708550127e-05,-2.577981178152533e-07,-2.894228471148497e-05,5.417875716433817e-05,5.510117829249582e-05
171.7851700071182,217.7344362091981,12.5,0,11.7892049281939,3.143786290262296,-3.825852699315913,3.521042673801063e-05,6.287521862842276e-07,-3.06068215945273e-05,5.61347825565671e-05,5.702339782502654e-05
211.7088587134104,274.079505944638,12.5,0,1.486506591977881,7.343038650206473,-3.020954071915582,-1.117609825835957e-06,2.23085184070784e-05,-2.416763257532466e-05,3.376474699707655e-05,3.328980986551787e-05
213.2038816955686,272.6917332014436,12.5,0,1.307633842386364,7.587495339287297,-3.016995537075143,-1.885567975793472e-06,2.323387801181026e-05,-2.413596429660114e-05,3.410756435253187e-05,3.373367184612924e-05
212.5959627830914,275.5751123468019,12.5,0,1.134644158596415,7.06735819127061,-2.827233728986585,-2.023025245507959e-06,2.170783088518882e-05,-2.261786983189267e-05,3.151671968377781e-05,3.177988559471422e-05
213.9323216620406,274.3035188984182,12.5,0,0.930694245449072,7.334665624219814,-2.819913358559725,-2.88951091393882e-06,2.272637460114414e-05,-2.25593068684778e-05,3.187348959611528e-05,3.209383807498175e-05
210.6144259320339,275.0954261019722,12.5,0,1.337263523637114,7.324680737267216,-3.081904192588607,-1.580501314175009e-06,2.23691675403454e-05,-2.465523354070885e-05,3.325878839776501e-05,3.296433329927805e-05
211.6176801865963,276.5059833575508,12.5,0,1.036154330507725,7.051446205724966,-2.904343026991792,-2.325463106955252e-06,2.173570439391371e-05,-2.323474421593434e-05,3.119312495792669e-05,3.154105733824962e-05
209.1194029498757,276.4831988451663,12.5,0,1.48484547462248,7.098753901658103,-3.091557697335458,-9.274976025345485e-07,2.152813610560795e-05,-2.473246157868366e-05,3.289203965783339e-05,3.251897676421134e-05
210.2813213076471,277.7775768059344,12.5,0,1.203763646311713,6.805504718636506,-2.917595295891939,-1.592360106711724e-06,2.081460418258745e-05,-2.334076236713552e-05,3.081120051709379e-05,3.120251888754503e-05
211.1319045797466,278.7251272373737,12.5,0,1.131012561061015,6.83354378571062,-2.685805509821868,-1.847594833173248e-06,2.096253006542517e-05,-2.148644407857494e-05,3.055393152794165e-05,3.024554563046734e-05
212.3521132738144,277.5385829355754,12.5,0,1.012312204796196,7.002649180734749,-2.67470454292416,-2.362720289239971e-06,2.159862761451424e-05,-2.139763634339328e-05,3.080713280293968e-05,3.051719284736694e-05
212.2938229375179,280.0195051981418,12.5,0,0.8665291716382544,6.556889391317215,-2.521858965139131,-2.472618163811357e-06,2.028882271490448e-05,-2.017487172111305e-05,2.860160974755594e-05,2.894750394720158e-05
213.3553675283766,278.949140191154,12.5,0,0.7273329524569909,6.743376794527393,-2.506323640134717,-3.067235987759542e-06,2.099693938052206e-05,-2.005058912107774e-05,2.885864966951638e-05,2.914321899911934e-05
213.2453680336713,276.6699722212646,12.5,0,1.143181520189549,6.949818169222188,-2.593509777358266,-1.901673670771193e-06,2.132487292535936e-05,-2.074807821886613e-05,3.097708402892004e-05,3.070611412883723e-05
214.4655767277391,275.4834279194662,12.5,0,1.016365310301661,7.120078170282138,-2.584627697752877,-2.443693543260396e-06,2.197115789666151e-05,-2.067702158202302e-05,3.121146556143863e-05,3.095060945156745e-05
214.1324721033522,278.1655786234284,12.5,0,0.845381404832581,6.711531971889709,-2.426501275027018,-2.664005082047508e-06,2.0800597186181e-05,-1.941201020021614e-05,2.906337573952583e-05,2.928244019902255e-05
215.194016694211,277.0952136164406,12.5,0,0.6956755137986901,6.900610131771762,-2.413287504169864,-3.294326461261601e-06,2.152541201063069e-05,-1.930630003335891e-05,2.930110566139993e-05,2.946708453874725e-05
220.5597944407463,231.1635115770807,12.5,0.6364281729043729,15.58338846084582,9.862177725198027,-4.60638942008733,0.0001154575183393056,5.251302914330421e-05,-0.000101358555900994,0.0002567514084162842,0.0002602010917248415
222.2320536608403,230.9615048930849,12.5,0.6912995632001668,13.30115467178504,9.336178484558314,-4.431575952772533,0.0001136854632467576,6.230910332540536e-05,-0.0001148446953613103,0.0002690546646290587,0.0003020435912843332
220.1864340287006,233.3158294274868,12.5,0.5844990795426157,15.29154918649951,10.92295898234349,-4.783715332725105,9.673766827442251e-05,5.468153805601457e-05,-9.210502498929111e-05,0.0002311607239095988,0.0002300696128043254
222.0129684507546,233.3196760039425,12.5,0.6509753520226147,13.10061069486651,10.18571569996906,-4.586073286512375,9.676503324139419e-05,6.335885391521295e-05,-0.0001051174652125892,0.0002445962396325763,0.0002701170188540802
217.6633565081701,231.5133974172238,12.5,0.5213660388979813,15.16314846690714,9.772919929980697,-4.387715427684626,8.504147732517974e-05,3.999470693290881e-05,-7.333730214349588e-05,0.0001909954098820172,0.0002016953213372171
219.335615728264,231.311390733228,12.5,0.5907348515602162,13.01547991734238,9.43053702862208,-4.424239522756543,8.333254429949565e-05,4.829469265356923e-05,-8.648162766114432e-05,0.0002011899253818923,0.0002333128538314883
217.0227836079863,233.3091669616305,12.5,0.4471712616933985,14.88769909945428,11.17502989813291,-4.828894177468463,7.000470583040457e-05,4.314163635471969e-05,-6.987906153012378e-05,0.0001726968379948207,0.0001761763781120008
218.8493180300404,233.3130135380862,12.5,0.5293704671460497,12.9545038508138,10.62027750245098,-4.818595388236584,7.003000878585161e-05,5.01908258581861e-05,-8.190893349197328e-05,0.000183710784152767,0.0002048982939818064
216.55385169912,234.6237615067651,12.5,0.3821239768046273,14.01006908523344,9.782760152255957,-4.399394475539426,5.989229483216397e-05,3.252558193648776e-05,-5.696151733207275e-05,0.0001411509405983989,0.0001585924116863973
218.493323407352,234.7783031287686,12.5,0.4736679047569027,12.35872355628914,9.354242525776234,-4.625870065813365,6.09207032010742e-05,3.808735476827364e-05,-7.031104669650537e-05,0.0001515139444547839,0.0001845119227740578
215.9132787989362,236.4195310511718,12.5,0.2742175274546766,13.7001883096187,11.21521399875963,-5.087918381602106,4.80425371385566e-05,3.434711513618032e-05,-5.6082019878587e-05,0.0001258992782339272,0.000136071065236237
218.0070257091283,236.7799259336269,12.5,0.3764753073142748,12.42920174369965,10.75159430565829,-5.319985515082535,4.999348141457478e-05,3.9231389983582e-05,-6.825693452065372e-05,0.0001366682886320353,0.0001572298806998433
219.9131152375599,234.8914354479545,12.5,0.5358200620975327,14.45593493427653,9.774303893104477,-4.668178735194365,8.281174074196664e-05,4.246849745293208e-05,-8.045464017749488e-05,0.0001915455678158915,0.0002075542487111577
221.8525869457918,235.0459770699581,12.5,0.6111220749621165,12.538925635136,9.245285285550796,-4.764220066464093,8.416094536815443e-05,5.028254664686576e-05,-9.800957595625874e-05,0.0002059093127558705,0.0002445875428108926
219.5397548255141,237.0437532983606,12.5,0.4471587123444513,13.84818403082043,11.05703003644714,-5.188531818926851,6.415686682859794e-05,4.396189183886938e-05,-7.508168343837009e-05,0.000165310417862737,0.0001761726089756125
221.6335017357062,237.4041481808157,12.5,0.5339239476900951,12.35862050689334,10.52170728531457,-5.337021042483207,6.679214613049419e-05,5.102722353921411e-05,-9.160772824147586e-05,0.0001805562746717532,0.0002067662895975795
204.8748929474277,264.7822225133339,12.5,0,3.392574942929951,8.01391775477402,-4.624843769291563,4.445105613556626e-06,2.29304768609329e-05,-3.699875015433251e-05,4.3415226726525e-05,4.342860474027932e-05
206.6912745087022,264.185281968915,12.5,0,3.33899713999028,8.29934290279577,-4.737622506913454,4.04531652573228e-06,2.388669957695424e-05,-3.790098005530763e-05,4.435260487013857e-05,4.368752337594646e-05
205.3990673291863,266.4160596228594,12.5,0,3.006996835058694,7.831769967750574,-4.474290184570836,3.356973897987361e-06,2.265606642875488e-05,-3.579432147656668e-05,4.138464710518525e-05,4.182227830521313e-05
207.0286089873929,265.7291497584059,12.5,0,2.909800046063519,8.125780451696809,-4.582597267710866,2.810735786045815e-06,2.367465740857897e-05,-3.666077814168693e-05,4.221202521150386e-05,4.2116912941637e-05
201.7288277974254,265.8161538653467,12.5,0,3.521562766323553,7.730454906925266,-4.760402860092012,5.084636926695156e-06,2.192020548910201e-05,-3.808322288073609e-05,4.290692394070812e-05,4.287352228698563e-05
203.5452093587,265.2192133209278,12.5,0,3.492350024518046,8.070400194670963,-4.853749385947047,4.719199922720977e-06,2.303140060333264e-05,-3.882999508757638e-05,4.41055363704673e-05,4.3210493805861e-05
202.5766183841732,267.6058224082919,12.5,0,3.115106845341553,7.467544080031334,-4.559642070588539,3.994306641067901e-06,2.140405557982702e-05,-3.647713656470831e-05,4.047640024656165e-05,4.122320994609158e-05
204.2061600423798,266.9189125438383,12.5,0,3.048888864271618,7.812283316093811,-4.643339557464601,3.506617712794127e-06,2.25601955200829e-05,-3.71467164597168e-05,4.156785438618404e-05,4.158281130929091e-05
203.1972441678248,268.9159507103798,12.5,0,2.918455539382661,7.648687387482063,-4.356158330111119,3.220107816038866e-06,2.214103520843647e-05,-3.484926664088895e-05,4.034830052392458e-05,4.002370953674936e-05
204.6900095241102,268.1631787325412,12.5,0,2.833657800253613,7.863030013708213,-4.418413724834957,2.77728094984499e-06,2.289476980366339e-05,-3.534730979867966e-05,4.089460404184232e-05,4.040669609843365e-05
204.0450347545726,270.7056192533249,12.5,0,2.533985864275562,7.41953627881906,-4.181829548830282,2.173125742626551e-06,2.171532740080054e-05,-3.345463639064226e-05,3.814221509731624e-05,3.83969258154815e-05
205.35096020779,269.8628779554518,12.5,0,2.403235178648146,7.631112260781966,-4.232609648646829,1.585462763048495e-06,2.249697109158377e-05,-3.386087718917463e-05,3.852621609556031e-05,3.882117208325054e-05
205.7827896086434,267.6121113982728,12.5,0,2.860961093423724,7.857195590524929,-4.265621938262797,2.869319026535972e-06,2.285425701494079e-05,-3.412497550610237e-05,4.086001719601731e-05,4.066876677441008e-05
207.2755549649287,266.8593394204342,12.5,0,2.777823073008634,8.095313130930204,-4.326563460906882,2.412783328883464e-06,2.368274356056975e-05,-3.461250768725506e-05,4.149954613671734e-05,4.100177061469771e-05
206.3069639904019,269.2459485077983,12.5,0,2.508744262686354,7.678824304867117,-4.113538317554161,1.884922196702639e-06,2.256524236542569e-05,-3.290830654043329e-05,3.896107039857482e-05,3.912364110007178e-05
207.6128894436194,268.403207209925,12.5,0,2.374181442047125,7.922339152507155,-4.163140318393969,1.259509292545077e-06,2.345214013438519e-05,-3.330512254715175e-05,3.945086318692061e-05,3.952575555400892e-05
237.6430106590357,247.4455354053084,12.5,0.4741914312669893,1.268747629345235,5.602164925458924,0.9119535212873419,-8.020780784889292e-07,3.216366309652082e-05,1.387506519317152e-05,4.875906685020757e-05,0.0001846845875159482
239.3684466095395,247.3910323774465,12.5,0.4662415369011441,0.2149734028745193,1.437762241699656,0.7401897242047493,-8.661125511290357e-07,8.297499257298012e-06,1.109400263043939e-05,1.211624618107622e-05,0.0001820970081435316
237.6443892908966,249.3523805756177,12.5,0.1621998627568735,1.392660582227944,8.774044845647959,-1.329246181760415,-3.058870367128206e-06,3.218287255122112e-05,-1.269272823119314e-05,4.561106072569102e-05,0.000118593702307517
239.3688160128333,249.3108024369821,12.5,0.1471065635147539,-0.2934331007523107,2.139521052537563,-1.630827329651224,-3.107777186515254e-06,8.302577491865298e-06,-1.529689182622228e-05,9.779682869296507e-06,0.0001165764499159871
234.6544679276109,247.5399374187298,12.5,0.4415516617815022,1.491165713246177,8.530950885232118,-2.090852257843027,-3.676312176605784e-06,4.674758339406426e-05,-2.995231056843024e-05,6.772764794543248e-05,0.0001745045671322886
236.3799038781147,247.4854343908679,12.5,0.4679600878316609,1.23081601369342,7.381507029654412,-2.042947106449249,-3.696328668068699e-06,4.25459992121366e-05,-3.071870451407569e-05,6.131961566766e-05,0.000182650199078468
234.6575945946264,249.4243960242174,12.5,0.1539534859425804,2.063020636214655,12.8773549910486,-3.656414950492402,-4.37353962869807e-06,4.675525376575114e-05,-3.457412697519132e-05,6.699944623368786e-05,0.0001174829785137118
236.3820213165631,249.3828178855818,12.5,0.1639827000509338,1.741411007859616,11.5520637711772,-3.689924579709336,-4.388827590068442e-06,4.255112336030203e-05,-3.530955237346541e-05,6.062457441384264e-05,0.0001188366059131855
234.65988347374,250.8039154681361,12.5,0,0.826125897275257,8.527448120815086,-0.7582372031124396,-4.178355625371246e-06,2.662693326878807e-05,-6.065897624899516e-06,3.537171350894005e-05,8.741885519683236e-05
236.3835713890892,250.7717990050959,12.5,0,0.3894333781607608,6.795062668441288,-0.847537105779578,-4.189863324638595e-06,2.143265383648351e-05,-6.780296846236624e-06,2.738853993541613e-05,8.588704790043079e-05
234.6630101407554,252.6883740736238,12.5,0,0.6001655034079949,8.473924371046522,-1.473229685607642,-4.858609885931633e-06,2.663642558462247e-05,-1.178583748486113e-05,3.460660010803642e-05,6.230373142518652e-05
236.3856888275376,252.6691824998099,12.5,0,0.1647513692289027,6.740873790672945,-1.557716452911144,-4.865494651005867e-06,2.14389950347703e-05,-1.246173162328915e-05,2.669207683585805e-05,5.968077448410215e-05
237.6453985194636,250.7482881223921,12.5,0,0.298676925953391,5.032090529185862,0.8448100669903347,-3.069906260297838e-06,1.586374815263204e-05,6.758480535922677e-06,2.03640053329391e-05,8.464663130788583e-05
239.3690864348128,250.7161716593519,12.5,0,-0.5283028861338681,1.718577353979385,0.8516779922308448,-3.065431118811886e-06,5.922089841641127e-06,6.813423937846759e-06,5.512497089119263e-06,8.278955745075903e-05
237.6467771513245,252.6551332927015,12.5,0,0.3885638573088092,5.057065399641638,-0.5400931493836107,-2.80224797632512e-06,1.587175819300619e-05,-4.320745195068886e-06,2.067329759141853e-05,5.799239377323361e-05
239.3694558381066,252.6359417188875,12.5,0,-0.4395062702294838,1.741438231326553,-0.5239054336752554,-2.79957064979559e-06,5.924207356428556e-06,-4.191243469402043e-06,5.590032439310441e-06,5.600260882950976e-05
183.8750016533418,279.6996583991149,12.5,0,2.943901196302956,5.730213761276409,-4.358102955528294,4.83631281914833e-06,1.598156307904214e-05,-3.486482364422635e-05,3.353219428640307e-05,3.421772897649829e-05
186.3351980480851,280.6204890441729,12.5,0,2.924200071878591,5.675399485254646,-4.344224242646083,4.817120641807774e-06,1.582191829531199e-05,-3.475379394116867e-05,3.326183258687179e-05,3.373085489750626e-05
183.0290770038109,281.6967264641351,12.5,0,2.95561467851082,5.711536472010528,-4.375729912854522,4.888737793626199e-06,1.591242496762503e-05,-3.500583930283617e-05,3.351880749723938e-05,3.325646777591004e-05
185.0750941248454,282.6562519860742,12.5,0,2.931962668268484,5.650276018075758,-4.358236563973001,4.862059723998542e-06,1.573531312322763e-05,-3.486589251178401e-05,3.320977201757613e-05,3.276452486607949e-05
188.1361868055583,281.2945838614932,12.5,0,2.529179560010806,6.068967647756742,-4.100156998123877,3.238200473829186e-06,1.739735282481293e-05,-3.280125598499102e-05,3.317977028597945e-05,3.33147845812199e-05
190.5963832003016,282.2154145065513,12.5,0,2.434923993007386,5.847762772407001,-4.028936905065613,3.113546559698036e-06,1.676490167729649e-05,-3.223149524052491e-05,3.202456726456731e-05,3.266493341654802e-05
186.5728826105348,283.3586734192628,12.5,0,2.602075394873477,5.933712319867383,-4.148886806416035,3.57967140770122e-06,1.690621910767684e-05,-3.319109445132828e-05,3.297064609602581e-05,3.236371535364585e-05
188.6188997315694,284.3181989412019,12.5,0,2.490138743120855,5.694560538000605,-4.064794966109726,3.41279554758625e-06,1.623048272710525e-05,-3.251835972887781e-05,3.168465498437309e-05,3.176062631130425e-05
190.8439090989759,277.7194758761281,12.5,0,2.624999065649255,6.446600201112823,-4.237562532778985,3.242716849187358e-06,1.852912139104163e-05,-3.390050026223188e-05,3.495384299578744e-05,3.508617562777287e-05
194.0214850392117,278.5732850284368,12.5,0,2.527443495364222,6.190489949395197,-4.162745523600694,3.135427225649351e-06,1.778761304177325e-05,-3.330196418880555e-05,3.365868214082685e-05,3.436830486367429e-05
189.2806049039525,279.7835654338977,12.5,0,2.691092456196716,6.328710839975395,-4.279598698449003,3.548527187849176e-06,1.809900072296389e-05,-3.423678958759202e-05,3.477774124897666e-05,3.404426561307535e-05
192.0440015704795,280.6760694630874,12.5,0,2.579149059425873,6.05316057830967,-4.194291713897186,3.410748527515059e-06,1.730679460305024e-05,-3.355433371117749e-05,3.335904939152522e-05,3.336365877875378e-05
185.340186125678,276.2406350443887,12.5,0,3.175228870232409,5.959977285304011,-4.531767350786239,5.392750556500501e-06,1.653174421678691e-05,-3.625413880628992e-05,3.524893023819231e-05,3.598122877670824e-05
188.5177620659138,277.0944441966975,12.5,0,3.168502026218546,5.912546733809792,-4.534488297737809,5.409169096851513e-06,1.63853479272165e-05,-3.627590638190248e-05,3.506081997745313e-05,3.551835728770972e-05
184.494261476147,278.2377031094089,12.5,0,3.155928704260099,5.94050573537394,-4.548043713788053,5.346567265333163e-06,1.648487538978853e-05,-3.638434971030443e-05,3.51293792756343e-05,3.494782648620727e-05
187.2576581426742,279.1302071385986,12.5,0,3.149772846086101,5.888868018352689,-4.549935725504438,5.368178692793371e-06,1.632455938185972e-05,-3.639948580403551e-05,3.492772412176368e-05,3.446874207094976e-05
210.8863471699895,270.866131131575,12.5,0,1.682114829941926,7.99443182952624,-3.454274632477714,-1.01277800780683e-06,2.423648999053043e-05,-2.763419705982171e-05,3.705757129878062e-05,3.62685320732252e-05
212.3877152902831,271.7706879252741,12.5,0,1.407147600245338,7.535097092713562,-3.253828773540732,-1.525205353385768e-06,2.298659261648713e-05,-2.603063018832586e-05,3.436251151283948e-05,3.485227773157082e-05
209.4576865626912,272.0777189898141,12.5,0,1.819994216420171,7.633700528513388,-3.480767032511007,-2.829789302661624e-07,2.29718463181067e-05,-2.784613626008806e-05,3.617535695146709e-05,3.575740058525477e-05
210.8679601345546,273.1423822190483,12.5,0,1.541661168939512,7.222446779920024,-3.284592916196573,-8.446416833295806e-07,2.187850076059247e-05,-2.627674332957258e-05,3.364713722943334e-05,3.435558179508273e-05
207.0150210836962,270.2336681838632,12.5,0,2.283888278301234,7.740144586606757,-3.914148638421413,1.116326821278544e-06,2.294135205450063e-05,-3.13131891073713e-05,3.832836423067981e-05,3.807466247515218e-05
208.2859013048235,269.2993928065848,12.5,0,2.198808119023847,8.055748562269024,-3.904313162650741,5.915871310610927e-07,2.40193489040418e-05,-3.123450530120593e-05,3.920959230107766e-05,3.852088204862219e-05
208.4252946555596,271.2983314130974,12.5,0,2.028943753780149,7.357676444067513,-3.73348069382009,6.064788568424679e-07,2.192140961799192e-05,-2.986784555056071e-05,3.598542233683526e-05,3.675392525003455e-05
209.7872694251171,270.2039496002839,12.5,0,1.942919133924058,7.622101350705122,-3.717311162925428,1.196601479928872e-07,2.283638901511714e-05,-2.973848930340342e-05,3.667249652259751e-05,3.725153163729785e-05
204.8137919704092,271.8518806055409,12.5,0,2.323224539649852,7.535174697533717,-3.942592906352186,1.406178768852552e-06,2.225397940038801e-05,-3.154074325081749e-05,3.772158465859828e-05,3.729876687457753e-05
206.0846721915364,270.9176052282626,12.5,0,2.232938099918738,7.835463241876688,-3.937627767323195,8.770313262386123e-07,2.328713189407041e-05,-3.150102213858556e-05,3.8529628449788e-05,3.774719770121928e-05
206.0662851561014,273.1938563157357,12.5,0,2.031668516660341,7.187983120958831,-3.7485910532106,7.509527565460256e-07,2.137621117373999e-05,-2.99887284256848e-05,3.538109414065269e-05,3.592532457438216e-05
207.4282599256589,272.0994745029222,12.5,0,1.939639082165227,7.443459944300305,-3.736690656792329,2.520771074884819e-07,2.226736055602879e-05,-2.989352525433863e-05,3.601675733373364e-05,3.63985691385409e-05
206.983173804123,274.1762507180799,12.5,0,1.874299813229923,7.335918565961762,-3.503653505201163,1.29024549566344e-07,2.19754995604937e-05,-2.80292280416093e-05,3.526268816283041e-05,3.491082831216948e-05
208.4118344114212,272.9646628598409,12.5,0,1.7483314478168,7.650208147787826,-3.482831090664916,-5.255058852165016e-07,2.30820009146676e-05,-2.786264872531933e-05,3.600904040461252e-05,3.539360495893052e-05
208.2356669898152,275.5182264282746,12.5,0,1.589667346685571,6.997207251851501,-3.314337559222123,-5.108302920873727e-07,2.111932932857634e-05,-2.651470047377699e-05,3.2985136704932e-05,3.351261527979326e-05
209.7554221455438,274.1465321345005,12.5,0,1.465613814166108,7.272603379367135,-3.289204227034171,-1.128118498162163e-06,2.209983976264194e-05,-2.631363381627337e-05,3.359481749030505e-05,3.399662032300981e-05
149.3083159040318,155.9520767399414,12.5,0,4.841151033284705,0.9590920166471592,1.328631339821989,1.472440969319333e-05,-8.038263733568547e-07,1.062905071857591e-05,2.187765950159737e-05,2.199172671712002e-05
150.5290254137964,154.7696253426462,12.5,0,4.965417498623649,0.9236197399794321,1.357826773985636,1.515044020361213e-05,-1.016750830964736e-06,1.086261419188509e-05,2.224470814826773e-05,2.180703183460873e-05
150.633880064627,157.5529038729094,12.5,0,5.027580694619537,1.069381783541582,1.24525210045444,1.523275279594925e-05,-6.00042848362568e-07,9.96201680363552e-06,2.290695851647509e-05,2.340273370447064e-05
152.0412861696211,156.2134283525684,12.5,0,5.134983705089879,1.037551479904997,1.271397017770664,1.560190667236361e-05,-7.878222283759116e-07,1.017117614216531e-05,2.321980701038618e-05,2.321075758154533e-05
147.1939850118749,158.0001426375006,12.5,0,5.010805070715798,0.7661400000940454,1.219393459848849,1.542166422621532e-05,-1.556996056271693e-06,9.75514767879079e-06,2.186310059414745e-05,2.225491187037353e-05
148.4146945216396,156.8176912402054,12.5,0,5.211580758398397,0.7873933033447713,1.288894634043146,1.604714378419905e-05,-1.64960603601545e-06,1.031115707234516e-05,2.271653327431401e-05,2.211173581100548e-05
148.1961811839384,159.8729435295934,12.5,0,5.306925646572592,0.8610757411009722,1.145461818668214,1.629330147615151e-05,-1.490098145734962e-06,9.16369454934571e-06,2.326434681640236e-05,2.362286393831944e-05
149.6035872889325,158.5334680092522,12.5,0,5.480149773512535,0.8789511105403069,1.206705970859423,1.683331838680786e-05,-1.571476265081046e-06,9.653647766875387e-06,2.399867230682362e-05,2.351315726996056e-05
148.9298397010087,161.2439289350073,12.5,0,5.530394401977468,0.8899764566380628,1.078104011746487,1.698528092101745e-05,-1.576390860340174e-06,8.624832093971895e-06,2.418591197811846e-05,2.464697208528218e-05
150.4739171993051,159.7895037785875,12.5,0,5.783053428807643,0.9151318604374503,1.168405711469253,1.77736654838345e-05,-1.698020789646273e-06,9.347245691754021e-06,2.525330171460775e-05,2.455214860045979e-05
149.9320358730721,163.1167298271,12.5,0,5.841413115322226,0.9899735183522765,1.000255009177852,1.79005431543493e-05,-1.505215233530495e-06,8.002040073422813e-06,2.566883953063437e-05,2.607693550740263e-05
151.662809966598,161.5052805476342,12.5,0,6.065999906623664,1.01192309444685,1.081648541416343,1.860166122563824e-05,-1.614646023069012e-06,8.653188331330742e-06,2.661507637252107e-05,2.598930424517288e-05
151.6042603788339,158.7247906683271,12.5,0,5.331153871665276,1.11802060904173,1.229500313885052,1.61652759020955e-05,-6.872571483986867e-07,9.83600251108042e-06,2.420803611387478e-05,2.444683284900997e-05
153.1483378771303,157.2703655119073,12.5,0,5.496249064044644,1.088578205553684,1.276090667033148,1.671713444049991e-05,-9.135489934639258e-07,1.020872533626518e-05,2.475385574431024e-05,2.425392835002192e-05
152.9298245394291,160.3256178012952,12.5,0,5.52851417734023,1.22215608756272,1.146283978458657,1.671352049743856e-05,-5.119118616714801e-07,9.170271827669257e-06,2.526772248025425e-05,2.588835777280127e-05
154.660598632955,158.7141685218294,12.5,0,5.675487859617828,1.195124543938618,1.188578770194805,1.720546151562615e-05,-7.159917470906827e-07,9.508630161558437e-06,2.575004190893536e-05,2.570019814365522e-05
202.8055505715187,257.5917903303908,12.5,0,5.230252343932496,8.309318282806377,-5.486569679478121,1.008935287433888e-05,2.240561662983441e-05,-4.389255743582497e-05,5.121394961122751e-05,5.077046682109243e-05
204.7422764028064,256.930780021479,12.5,0,5.145644316812037,8.652460609280407,-5.636533547139184,9.544093326374192e-06,2.357135849624767e-05,-4.509226837711347e-05,5.226004293816353e-05,5.15865845628754e-05
203.4115657590497,259.7196935340554,12.5,0,4.60040197522202,8.035206116054551,-5.258788248412637,8.293121427866822e-06,2.203233799119694e-05,-4.20703059873011e-05,4.794875788187798e-05,4.857364681524985e-05
205.3315211445805,259.0899932428997,12.5,0,4.521680310795682,8.385508509954555,-5.413066035306411,7.760970186582541e-06,2.321628298321802e-05,-4.330452828245129e-05,4.905041422731244e-05,4.919774285553087e-05
199.4510430314575,258.7366937697321,12.5,0,5.215414423385221,7.904093448219195,-5.534217672283122,1.036605139625735e-05,2.112076749559324e-05,-4.427374137826497e-05,4.974943671754678e-05,4.936280011259152e-05
201.3877688627453,258.0756834608204,12.5,0,5.146720193698034,8.243888549538832,-5.665550290641472,9.87439378020264e-06,2.226306720356583e-05,-4.532440232513178e-05,5.082162310355608e-05,5.017460557351652e-05
200.0861054831047,260.8103664318586,12.5,0,4.657098248869758,7.644678303121246,-5.317247937481692,8.786971753886228e-06,2.073729197089218e-05,-4.253798349985354e-05,4.678335393337205e-05,4.745458929624061e-05
202.0060608686354,260.1806661407028,12.5,0,4.593800698418337,7.991566507562133,-5.452627281221813,8.306909028888971e-06,2.189797226546415e-05,-4.36210182497745e-05,4.790743276752752e-05,4.810657022676913e-05
200.5510034636699,262.3284001787372,12.5,0,4.317245875604709,7.837902357310288,-5.153564235784537,7.544864916086838e-06,2.162749084290915e-05,-4.12285138862763e-05,4.621726018986239e-05,4.60632950167024e-05
202.4586820308415,261.7216204113636,12.5,0,4.267927552822986,8.181432994722666,-5.278313975772956,7.112221773255422e-06,2.276624354085414e-05,-4.222651180618364e-05,4.737458026863443e-05,4.660081883334142e-05
201.186065915317,264.4020728408635,12.5,0,3.780051775933651,7.582258586131784,-4.93709533032535,6.030358814082255e-06,2.123918605487479e-05,-3.94967626426028e-05,4.335409891248796e-05,4.417041917291338e-05
203.0769740367317,263.8266030912459,12.5,0,3.73625082644896,7.933041185826242,-5.065891445474004,5.609569695975676e-06,2.23967311334848e-05,-4.052713156379203e-05,4.456397805087378e-05,4.455506486950178e-05
203.8551996664619,261.2774267926603,12.5,0,4.231880178393435,8.202805209959143,-5.063520446173575,6.979772402891679e-06,2.286347252915451e-05,-4.05081635693886e-05,4.718244834813395e-05,4.697645396258542e-05
205.7628782336336,260.6706470252868,12.5,0,4.17025957690119,8.544218979530385,-5.202953726684333,6.509455462459497e-06,2.400529307297627e-05,-4.162362981347467e-05,4.830489839402764e-05,4.746518440419236e-05
204.461214853993,263.4053299963249,12.5,0,3.638047520080761,7.938294174687192,-4.840406722215654,5.291116724508681e-06,2.24921033429344e-05,-3.872325377772524e-05,4.409915291562013e-05,4.480966194527739e-05
206.3521229754077,262.8298602467073,12.5,0,3.582319835443176,8.286892349620819,-4.984063806348001,4.833909593721509e-06,2.365219965043207e-05,-3.9872510450784e-05,4.527652969671972e-05,4.512058839519598e-05
218.3657014184024,278.6073700747192,12.5,0,0.4789362899525513,6.499349452939299,-1.745008263197714,-3.666883434503274e-06,2.041476921744371e-05,-1.396006610558171e-05,2.680876457194766e-05,2.675077421532653e-05
219.7503304302974,279.0469165234062,12.5,0,0.3429420889734918,6.141466217586874,-1.645259846142489,-3.815758289354325e-06,1.93783382250992e-05,-1.316207876913991e-05,2.499414018210421e-05,2.566343605274151e-05
217.508185005367,280.3006932351753,12.5,0,0.6174564716025124,6.332180747098476,-1.867878876493542,-3.089883888550741e-06,1.976901321343311e-05,-1.494303101194834e-05,2.665709676636326e-05,2.619842111707621e-05
218.9623792144632,281.0574267923071,12.5,0,0.4804419336426777,6.033334238472879,-1.764913021566776,-3.289253203121734e-06,1.892231601619907e-05,-1.411930417253421e-05,2.505868958512752e-05,2.496134372829328e-05
215.9674536202093,277.8460532933204,12.5,0,0.6976424486216242,6.83466149326505,-2.154195245587378,-3.235273359022842e-06,2.131280281955086e-05,-1.723356196469902e-05,2.893188095003752e-05,2.854890977096846e-05
217.3520826321044,278.2855997420075,12.5,0,0.5443561716549681,6.443851121129189,-2.039398267576835,-3.413141147607453e-06,2.018483865028943e-05,-1.631518614061468e-05,2.693065817270291e-05,2.75239345678826e-05
214.989446751185,278.9899922664544,12.5,0,0.7862406479173536,6.605887725648574,-2.221735953555047,-2.768740107183328e-06,2.050984820374155e-05,-1.777388762844037e-05,2.837856064491049e-05,2.831541928736994e-05
216.4436409602813,279.7467258235861,12.5,0,0.6413276206795441,6.302486521120777,-2.113036990191913,-2.98974083072208e-06,1.965489477104285e-05,-1.690429592153531e-05,2.673382297540718e-05,2.70971429544558e-05
213.295489163914,280.9713526886449,12.5,0,0.8302776232604759,6.508030362187433,-2.265325217440522,-2.549535895316423e-06,2.01614750603914e-05,-1.812260173952418e-05,2.816995940364515e-05,2.792902063975646e-05
214.2734960329383,279.827413715511,12.5,0,0.7342227354707389,6.711480917958075,-2.209145211674088,-3.019671980860096e-06,2.088936074908925e-05,-1.767316169339271e-05,2.860771846190625e-05,2.814932049527002e-05
214.8701738289992,282.2774704330989,12.5,0,0.6170081264851077,6.172321193788573,-2.109258449283866,-2.963430950278513e-06,1.925782131893534e-05,-1.687406759427093e-05,2.616731420739121e-05,2.644451418030307e-05
215.7786155008223,280.8163443515202,12.5,0,0.5067868115372902,6.306688972431319,-2.040850246444967,-3.423633381025726e-06,1.977597526255038e-05,-1.632680197155974e-05,2.629887989505652e-05,2.680791313331917e-05
216.8804394227275,281.5402918222097,12.5,0,0.4604718222658877,6.226883909813065,-1.78158640352398,-3.507997296599611e-06,1.955765105358909e-05,-1.425269122819184e-05,2.573604780516111e-05,2.582610404471678e-05
218.3855588906114,282.529222458219,12.5,0,0.2452546632645562,5.849014630540502,-1.622905449166225,-3.894396781985821e-06,1.852064308711796e-05,-1.29832435933298e-05,2.357905225065173e-05,2.448515909315896e-05
216.0229230096921,283.2336149826659,12.5,0,0.6326294283965982,6.084375086534121,-1.886056226673913,-2.843085898358183e-06,1.896389673419191e-05,-1.50884498133913e-05,2.577710700380016e-05,2.536126798471259e-05
217.5976076747773,284.5397327271199,12.5,0,0.4206408601092511,5.755496547951584,-1.7319436813222,-3.258346486011664e-06,1.808107626535767e-05,-1.38555494505776e-05,2.3810333344672e-05,2.388629080058128e-05
164.3600399376307,282.9461128295608,12.5,0,3.772496064362914,4.220472700553315,-4.537228370479046,8.695609245518669e-06,1.048751579028027e-05,-3.629782696383237e-05,3.118537116646767e-05,3.175383719106959e-05
167.0711110880163,283.3584127091104,12.5,0,3.833750220020435,4.369406434288402,-4.608535904977612,8.77247555663467e-06,1.091510041370654e-05,-3.686828723982089e-05,3.196421722240858e-05,3.184552216832744e-05
163.568497840629,285.1133938657913,12.5,0,3.655908196813572,4.227923471110571,-4.514450185457832,8.316567452914972e-06,1.060462855010297e-05,-3.611560148366266e-05,3.07982599106069e-05,3.093968427836588e-05
166.3803846028507,285.4559113588004,12.5,0,3.711146691959314,4.373173839814869,-4.583003179567341,8.377130342417907e-06,1.102523893384013e-05,-3.666402543653873e-05,3.154203138542753e-05,3.104842675486912e-05
169.0557529129483,283.6602371688824,12.5,0,3.478347054109004,4.564236989876187,-4.474001237676392,7.479320981247862e-06,1.182288072431659e-05,-3.579200990141114e-05,3.13214505507015e-05,3.18831819246134e-05
171.7668240633339,284.072537048432,12.5,0,3.536006639650036,4.70710061893694,-4.53953115417768,7.549540751730562e-06,1.223391666887818e-05,-3.631624923342144e-05,3.206500409142868e-05,3.189438531493384e-05
168.4388285778398,285.7066515661536,12.5,0,3.377123355573749,4.566229999250337,-4.450045943456586,7.153810738435727e-06,1.191023731314208e-05,-3.560036754765268e-05,3.096933224808521e-05,3.10943856734907e-05
171.2507153400613,286.0491690591628,12.5,0,3.429068571344721,4.705106763878291,-4.51274646477179,7.208934017200472e-06,1.231308678733475e-05,-3.610197171817432e-05,3.167767998769248e-05,3.111120529772787e-05
170.124297205763,280.1157434595319,12.5,0,3.746793415695206,4.668156371512178,-4.643496079802172,8.255213833014915e-06,1.19406656562828e-05,-3.714796863841738e-05,3.272791045474202e-05,3.333030467058898e-05
172.6607505942554,280.6489099780408,12.5,0,3.816503465680156,4.818635895890727,-4.71574869038257,8.357902373463917e-06,1.23664320943062e-05,-3.772598952306056e-05,3.354365028442158e-05,3.332331810575589e-05
169.5073728706543,282.1621578568031,12.5,0,3.63255323595574,4.669713929697036,-4.617357318986492,7.888399211300739e-06,1.203704198626592e-05,-3.693885855189194e-05,3.232746365406783e-05,3.248229461420864e-05
172.1446418709828,282.6255419887715,12.5,0,3.695340785603061,4.815753323559691,-4.686340065344837,7.97248785508204e-06,1.245413800690856e-05,-3.749072052275869e-05,3.310192750417066e-05,3.248711915539305e-05
165.7310310659426,279.1922719605964,12.5,0,4.057293877686646,4.334797539767387,-4.710328996802424,9.515502376783355e-06,1.062551702510632e-05,-3.768263197441939e-05,3.269124138491981e-05,3.324085159253275e-05
168.2674844544351,279.7254384791053,12.5,0,4.123429983891644,4.475467646024581,-4.779697638453645,9.614601831633594e-06,1.102275248016534e-05,-3.823758110762916e-05,3.345630036025285e-05,3.330820783496891e-05
164.9394889689409,281.3595529968269,12.5,0,3.941375998083684,4.342047365614611,-4.687849119219155,9.138765301376097e-06,1.074145077149981e-05,-3.750279295375324e-05,3.23044704316707e-05,3.237043311453031e-05
167.5767579692695,281.8229371287954,12.5,0,4.001095963947448,4.479078741356254,-4.754395969402513,9.22024409154683e-06,1.113217520118205e-05,-3.80351677552201e-05,3.303308728654914e-05,3.245102868379247e-05
161.6507634205644,197.1220533512497,12.5,0,11.00936558270811,1.719294787707032,-1.702416519109315,3.385453403450031e-05,-3.305749145503982e-06,-1.361933215287452e-05,4.786605673325552e-05,4.719282409517858e-05
163.4732745319678,197.3794979935652,12.5,0,11.03271911609533,1.84908858842659,-1.68366638569637,3.382543030076379e-05,-2.909091809911177e-06,-1.346933108557096e-05,4.836611952786099e-05,4.854685608872201e-05
161.8639831774297,198.8329198441202,12.5,0,11.05978190781332,1.719834662459335,-1.666202002956999,3.401543437503516e-05,-3.344354606380786e-06,-1.332961602365599e-05,4.805195287085791e-05,4.779505912655916e-05
163.838050138122,198.9602735613,12.5,0,11.08548320431682,1.83755806665333,-1.645949862566831,3.400349980049115e-05,-2.988200750162796e-06,-1.316759890053465e-05,4.852207729409234e-05,4.923068190885671e-05
161.2814559685029,194.1587456606841,12.5,0,10.77002503199919,1.667364736313617,-1.398242918627964,3.31301883133465e-05,-3.280452869395775e-06,-1.118594334902372e-05,4.672300576662291e-05,4.608865605593762e-05
162.8414646487582,194.6415143949344,12.5,0,10.78742392296958,1.786289908804929,-1.396485508863898,3.309072462645871e-05,-2.913811430199891e-06,-1.117188407091118e-05,4.716972946453471e-05,4.730431989115926e-05
161.4946757253682,195.8696121535546,12.5,0,10.80408977546765,1.663311897457262,-1.359650245964304,3.324243776353067e-05,-3.320673748510882e-06,-1.087720196771443e-05,4.683287207575483e-05,4.673559477045778e-05
163.2062402549125,196.2222899626691,12.5,0,10.82320061041607,1.76855652608201,-1.353953541208502,3.32193967324658e-05,-2.999179604870421e-06,-1.083162832966802e-05,4.724154068001852e-05,4.803068894176606e-05
158.5794416741009,193.3225656846717,12.5,0,10.48061549604178,1.401931531449083,-1.30894646788373,3.241642436217442e-05,-3.898311496196359e-06,-1.047157174306984e-05,4.475497737028308e-05,4.40393531815758e-05
160.1394503543562,193.8053344189221,12.5,0,10.5138017271578,1.51249385113859,-1.328773594483961,3.243417044599409e-05,-3.571061058082754e-06,-1.063018875587169e-05,4.523707450993707e-05,4.521381086281746e-05
158.5301589998181,195.258756269477,12.5,0,10.46161770146703,1.399866654319797,-1.26694664832376,3.235728332123865e-05,-3.889720867350272e-06,-1.013557318659008e-05,4.466807581279188e-05,4.457764682843784e-05
160.2417235293624,195.6114340785916,12.5,0,10.48996923408641,1.499855214003079,-1.281115357701043,3.236801737787405e-05,-3.592438702459277e-06,-1.024892286160834e-05,4.509695602537366e-05,4.581035492478963e-05
158.4940815783118,196.6761461506308,12.5,0,10.65550186567554,1.409017609076894,-1.645804461960136,3.297039188290021e-05,-4.015545143494373e-06,-1.316643569568109e-05,4.551578513026178e-05,4.494790599699502e-05
160.3165926897151,196.9335907929463,12.5,0,10.67892137211557,1.532341874986984,-1.631454597877037,3.294667489078023e-05,-3.639643097734106e-06,-1.30516367830163e-05,4.599346658128181e-05,4.622848832453043e-05
158.4447989040289,198.6123367354361,12.5,0,10.70693555609342,1.424585289069296,-1.602744496386201,3.31225255482435e-05,-4.006875519852989e-06,-1.282195597108961e-05,4.575170287420956e-05,4.54211792106424e-05
160.4188658647213,198.7396904526158,12.5,0,10.7324605018395,1.539154936283891,-1.586207220667405,3.311254965685927e-05,-3.660672605363145e-06,-1.268965776533924e-05,4.620938498185627e-05,4.677430595504023e-05
237.5168446912251,241.0584517044039,12.5,0.8835961196653351,19.70853852148341,14.68905556538184,-11.00053076117587,0.0004408450875426667,0.0002683600143072936,-0.0007560250211280926,0.001100211101106567,0.0006983745457864065
239.3346405403534,240.7992797406709,12.5,0.9051586294548017,16.53886386574704,19.92575445060515,-12.74746907625993,0.0003899538840202777,0.0005327983227030367,-0.001075266542689609,0.001437058977849507,0.0008214561138962579
237.5574057829982,242.8947944989273,12.5,0.8308962822758292,7.188627730463075,15.65100884145546,-9.871135037672197,6.199036783695214e-05,0.0002621605645630959,-0.0004669860684564368,0.0005158279829139321,0.0005126260287359668
239.3455088521378,242.7001587455508,12.5,0.8522903268016897,7.644721616080459,26.43291014338811,-14.78771761333982,2.245473153470443e-05,0.000531241681515515,-0.0008009072008973333,0.0008892612950664278,0.0005744552736579795
234.3683299228036,241.5073507134786,12.5,0.8269994013051554,15.63781407870987,10.6666776771033,-7.457152479989716,0.000239927857032473,0.0001249886848189678,-0.0003448382276708011,0.0005636843484844394,0.0005027874957684607
236.1861257719319,241.2481787497457,12.5,0.8634077778651754,11.84030312045325,9.527709608462571,-8.01412199032349,0.000221585108036424,0.0001538625547066155,-0.0004693750121387192,0.0005872839435055773,0.0006129875469085789
234.4603204181344,243.2319135127387,12.5,0.7701919288970942,10.89080995283912,11.58819125445687,-8.879549047960502,0.0001113104458113883,0.0001234489455302336,-0.0003091118255453901,0.000368271467677142,0.0003931386441728214
236.2484234872739,243.0372777593622,12.5,0.810024959874968,8.564965528345351,11.21784437443975,-10.37938851448337,9.703176890512167e-05,0.0001528891877396887,-0.0004370843036075553,0.0004026874091011814,0.0004640423842925976
234.527662134527,244.4943811025865,12.5,0.710119511026263,7.855826318827837,10.68627281063389,-6.244208818089517,5.722919134873189e-05,9.62859281691599e-05,-0.0001723250527193705,0.0002387957611364256,0.0003196935655079486
236.2940285800978,244.346989134117,12.5,0.7512176252863438,7.198289749735254,12.16272889314473,-6.660942593059762,5.347784022059472e-05,0.000133297628887271,-0.0002141933921396604,0.000291573779991051,0.0003665164523727013
234.6196526298578,246.2189439018466,12.5,0.5817862667225724,4.80409340883306,13.5189005508113,-6.885419817828738,1.089868195359609e-05,9.425134542241772e-05,-0.0001317110227609136,0.0001664790199022514,0.0002286867306167314
236.3563262954397,246.1360881437335,12.5,0.6186228507342342,5.302903795901855,17.05923500152134,-8.379742466425359,8.710286266663467e-06,0.000132014277900698,-0.0001757785957036637,0.0002233754665917206,0.0002490158139166942
237.5870985629854,244.2390907245743,12.5,0.771300425270025,-0.5037807593567285,8.186378495069157,-0.5776116892749451,-3.568524880569963e-05,0.0001163073251146731,-2.020508135905122e-05,0.0001311315386200484,0.0003948150174141788
239.3534650085562,244.0916987561047,12.5,0.7899245657957158,-1.449981578386339,3.121911413073054,-0.131149645446838,-3.397574879866256e-05,5.30766570911862e-05,-4.994382934629237e-06,3.897432116541612e-05,0.0004253052480273222
237.6276596547586,246.0754335190977,12.5,0.634125138199453,1.973843488981855,13.96624654185107,-4.110121811024098,-1.327420540683799e-05,0.0001178351361188638,-8.986945516392848e-05,0.0001659168324724502,0.0002586978658287374
239.3643333203406,245.9925777609847,12.5,0.6433413603494533,0.1290858838993059,5.990647244108882,-3.213624713953005,-1.227908840537354e-05,5.34595278351047e-05,-7.208292426846483e-05,6.934378882095794e-05,0.0002648206402751204
237.64344469818,254.0500363178139,12.5,0,0.2514768866532535,4.217051021280715,0.5312974039736393,-2.56891477973416e-06,1.329338175877568e-05,4.250379231789114e-06,1.702878977743804e-05,4.434829874275351e-05
239.3685629099777,254.0410417804893,12.5,0,-0.2748742746636894,2.111527598808346,0.529458770471998,-2.568819757970482e-06,6.976787735917656e-06,4.235670163775984e-06,7.422654066189484e-06,4.235860781231133e-05
237.632961635014,255.9541370839053,12.5,0,0.2549951803691076,4.205895318604123,-0.3431040594464504,-2.548731677702153e-06,1.32548688752379e-05,-2.744832475571604e-06,1.696632553380519e-05,3.372617542925127e-05
239.3657539816683,255.960076479131,12.5,0,-0.269045596744432,2.109809944866686,-0.3381419521606474,-2.54879386547553e-06,6.966628300968938e-06,-2.705135617285179e-06,7.36482892384723e-06,3.186945243446824e-05
234.6554523063375,254.0656153134503,12.5,0,0.224835197977034,6.967185560062784,-0.2322511001102959,-4.854275814523718e-06,2.211512563381928e-05,-1.858008800882367e-06,2.746544904233284e-05,4.926454086415478e-05
236.3805705181354,254.0566207761258,12.5,0,-0.1737516325234807,5.370633815785648,-0.1930929809634062,-4.852512276703655e-06,1.732502951653285e-05,-1.54474384770725e-06,2.012224213505649e-05,4.619873792692077e-05
234.6316772516963,255.9438497496081,12.5,0,0.342486111180651,6.975898276599664,-0.8857885843152277,-4.484763065501648e-06,2.20488855961744e-05,-7.086308674521822e-06,2.794368603387375e-05,3.875593353197486e-05
236.3644695983506,255.9497891448339,12.5,0,-0.05523271499690252,5.386465497197774,-0.8416606650180823,-4.485917085748307e-06,1.72808757630304e-05,-6.733285320144658e-06,2.064012702848722e-05,3.557140247796293e-05
234.6142727037468,257.3188127853426,12.5,0,0.1515002352776269,5.984928166789357,-0.07716408279056022,-4.303141780543078e-06,1.903056994550384e-05,-6.173126623244818e-07,2.346119526392499e-05,3.313446156047972e-05
236.35268290702,257.3356845779516,12.5,0,-0.1737925343680093,4.687169153454938,-0.03728501202228025,-4.30587143274158e-06,1.513797531855021e-05,-2.98280096178242e-07,1.749068333030609e-05,2.998049937816994e-05
234.5904976491056,259.1970472215003,12.5,0,0.2486823986569697,5.992531235185654,-0.6041652137902225,-3.99824131244622e-06,1.897715403366852e-05,-4.833321710321779e-06,2.383626067154826e-05,2.828492185255756e-05
236.3365819872351,259.2288529466597,12.5,0,-0.07591656657471724,4.700510038095388,-0.5603466798692955,-4.003341043515404e-06,1.510236537516501e-05,-4.482773438954364e-06,1.788935109534355e-05,2.533320349764961e-05
237.6252875001579,257.3480355873556,12.5,0,0.1544454519045148,3.816641217719837,0.3462184952696877,-2.559087528081422e-06,1.208969553517986e-05,2.769747962157502e-06,1.516333428015278e-05,2.818718143505201e-05
239.3636977034311,257.3649073799647,12.5,0,-0.2196181053375241,2.321800069673251,0.3662184972013055,-2.560217992818677e-06,7.605454707224421e-06,2.929747977610444e-06,8.321489279407389e-06,2.644170788243036e-05
237.614804436992,259.2521363534469,12.5,0,0.1948529925958464,3.818264633556086,-0.2696912256976722,-2.43108213053816e-06,1.20625644333028e-05,-2.157529805581378e-06,1.528429105121477e-05,2.367649173293961e-05
239.3608887751216,259.2839420786064,12.5,0,-0.1778733960929902,2.329999416285116,-0.2450313531677785,-2.433194400525661e-06,7.598296848986761e-06,-1.960250825342228e-06,8.446689085591644e-06,2.210198937297032e-05
218.2016710046655,297.4204684689943,12.5,0,0.1580160104242223,4.617142821329969,-0.9810416930698166,-3.188063023706463e-06,1.464844421991652e-05,-7.848333544558533e-06,1.839004552911946e-05,1.847407622470488e-05
220.3804847281984,297.4017593188424,12.5,0,0.09558214334660819,4.366304511574263,-0.969006272842926,-3.187180750550264e-06,1.389570872236035e-05,-7.752050182743408e-06,1.724136136022226e-05,1.757694396039723e-05
217.8606772453568,299.3088166094379,12.5,0,0.1777295625395625,4.585539123296876,-1.059969718679939,-3.0996966985109e-06,1.453154154451835e-05,-8.479757749439514e-06,1.83573546285279e-05,1.802432499763312e-05
220.070064510797,299.3038035077638,12.5,0,0.1160804412142051,4.338655878445895,-1.047541660036315,-3.099467290871259e-06,1.37908344580555e-05,-8.380333280290516e-06,1.722708906923696e-05,1.715375286347749e-05
221.9754870739851,297.3880632703654,12.5,0,0.0790163647561728,4.281977415088084,-0.7090279346992988,-3.172729564850714e-06,1.363911463647693e-05,-5.67222347759439e-06,1.67894547570395e-05,1.689327112564847e-05
224.154300797518,297.3693541202136,12.5,0,0.01221757699771597,4.013503943792029,-0.6950057628399794,-3.171706908640932e-06,1.283343855853632e-05,-5.560046102719835e-06,1.555783541093008e-05,1.592257446958847e-05
221.6874482426262,299.300133662635,12.5,0,0.1047822400942164,4.255386567680216,-0.7947853450248444,-3.06900608584268e-06,1.353341122450132e-05,-6.358282760198755e-06,1.679028369875313e-05,1.649080487107254e-05
223.8968355080665,299.2951205609609,12.5,0,0.03877924297788549,3.991042066800141,-0.780355714100051,-3.068740075910879e-06,1.274031121937814e-05,-6.242845712800408e-06,1.55775454708803e-05,1.555016940712508e-05
222.4743849644424,294.0762602033659,12.5,0,0.0881459882332738,4.477942682006982,-0.7335133740779163,-3.300286983259109e-06,1.425889979183572e-05,-5.86810699262333e-06,1.757248524258842e-05,1.766020240098496e-05
224.6002437600254,294.033828801388,12.5,0,0.01834708169006127,4.19724984828129,-0.7281138998243295,-3.299089217216836e-06,1.341652184914808e-05,-5.824911198594636e-06,1.628726990762053e-05,1.663443881873878e-05
222.1863461330835,295.9883305956354,12.5,0,0.09656020185251979,4.44465594301164,-0.8264765971594923,-3.246732108481249e-06,1.414565085615523e-05,-6.611812777275938e-06,1.749682911915879e-05,1.72066102494097e-05
224.3427784705739,295.9595952421354,12.5,0,0.02775030109270205,4.16843281103435,-0.8204763692141309,-3.245945285330833e-06,1.331678475443576e-05,-6.563810953713048e-06,1.62331270869009e-05,1.621310358279909e-05
218.7922895208416,294.1497535474265,12.5,0,0.1654248945453067,4.815047761247766,-1.013467400551072,-3.322678546453231e-06,1.52758129203566e-05,-8.107739204408576e-06,1.91770395552224e-05,1.931754145717804e-05
220.9181483164246,294.1073221454487,12.5,0,0.102181779622984,4.560277163069223,-1.006366355607601,-3.321240035661829e-06,1.451114149812312e-05,-8.050930844860806e-06,1.801245387944803e-05,1.83791375861422e-05
218.4512957615328,296.0381016878702,12.5,0,0.1764556632104037,4.779777470683418,-1.096269960993953,-3.259163854273442e-06,1.515412337561861e-05,-8.770159687951622e-06,1.910501133916892e-05,1.882059253066779e-05
220.6077280990232,296.00936633437,12.5,0,0.1140948800635693,4.529153593135522,-1.088661879276918,-3.258219258304995e-06,1.440201559398281e-05,-8.709295034215348e-06,1.796015601672009e-05,1.790528480724246e-05
181.5181492642626,267.5746300501585,12.5,0,4.599848907311404,5.72723247775941,-5.207826445984577,1.013773052118897e-05,1.464726480298099e-05,-4.166261156787662e-05,3.974698814843154e-05,4.047325708708346e-05
184.0482923760684,268.0364445066161,12.5,0,4.72019479913342,5.993571931868718,-5.342891509204266,1.030976581173197e-05,1.540327434267316e-05,-4.274313207363413e-05,4.119113294889609e-05,4.054576317467027e-05
181.3205131634714,269.790636139182,12.5,0,4.328249192316001,5.677879193476876,-5.133893286789001,9.3080940606297e-06,1.47066140652732e-05,-4.107114629431201e-05,3.859705585039299e-05,3.923178625172131e-05
183.8669972160978,270.2835205468964,12.5,0,4.451039256210585,5.942881167753511,-5.268878122412679,9.489020685671062e-06,1.545638833184277e-05,-4.215102497930143e-05,4.004504952593042e-05,3.921940350614895e-05
177.1358128442732,266.7747439479185,12.5,0,4.954107461229146,5.316425904443741,-5.284328182099916,1.160000315237827e-05,1.304927692523665e-05,-4.227462545679933e-05,3.959399011125346e-05,4.020672405037975e-05
179.665955956079,267.2365584043761,12.5,0,5.078782542465673,5.592919946802899,-5.423979551539846,1.177776817844783e-05,1.383431779579673e-05,-4.339183641231876e-05,4.108743326495838e-05,4.038241182753009e-05
176.9098734037377,268.9369353027775,12.5,0,4.681132330994538,5.270201419944246,-5.210967075262209,1.076346232322712e-05,1.311973867902595e-05,-4.168773660209767e-05,3.844434916233124e-05,3.908359971169397e-05
179.4563574563641,269.4298197104919,12.5,0,4.808289422926973,5.545214349322081,-5.350495187890104,1.095035467390865e-05,1.389805437948908e-05,-4.280396150312083e-05,3.994149001076061e-05,3.919539773466915e-05
176.7444742538391,270.5197692301532,12.5,0,4.466862921786841,5.265503267720923,-5.090034346528043,1.008155873554115e-05,1.327612011927748e-05,-4.072027477222435e-05,3.75994715111494e-05,3.827842048978186e-05
179.3029207053892,271.0353984207753,12.5,0,4.585596577608815,5.526999293032768,-5.214626009565879,1.025230961392199e-05,1.40179204756178e-05,-4.171700807652703e-05,3.900998317951513e-05,3.834566377133732e-05
176.5185348133037,272.6819605850122,12.5,0,4.232475078184981,5.227481244330076,-5.020674958072807,9.361935254727878e-06,1.334195991930826e-05,-4.016539966458245e-05,3.661743104247823e-05,3.720175428491147e-05
179.0933222056744,273.2286597268912,12.5,0,4.353226886870983,5.487524089023031,-5.145206273969306,9.540306766768719e-06,1.407749557537691e-05,-4.116165019175445e-05,3.802993802387912e-05,3.721116150336013e-05
181.1758334962886,271.4128651861602,12.5,0,4.096856417260524,5.64852591593401,-4.987490257538882,8.591119802486467e-06,1.479779779718041e-05,-3.989992206031106e-05,3.759491961103211e-05,3.834590381022758e-05
183.7342799478387,271.9284943767823,12.5,0,4.211317822840928,5.898358402567939,-5.108535752568597,8.757530311036618e-06,1.550569262994466e-05,-4.086828602054877e-05,3.895144231756188e-05,3.827931632711614e-05
180.9781973954975,273.6288712751838,12.5,0,3.861865851222549,5.606951358460874,-4.91848091810785,7.872409637143456e-06,1.485275166609676e-05,-3.93478473448628e-05,3.660495674212338e-05,3.71670988057928e-05
183.5529847878682,274.1755704170627,12.5,0,3.978341222805596,5.855487899563533,-5.039488622144445,8.046301593327078e-06,1.555488830035883e-05,-4.031590897715556e-05,3.796376507861349e-05,3.703731005886655e-05
198.03016216739,191.7951433021299,12.5,0,14.97266780316862,7.890432651093318,-1.697575614013479,4.160019084926492e-05,1.327125024096372e-05,-1.358060491210783e-05,8.35480903121171e-05,8.401587311358442e-05
199.2581150385647,193.35716442811,12.5,0,15.7270729468197,8.275209280589868,-2.004369751152557,4.370646600535113e-05,1.389901134043182e-05,-1.603495800922046e-05,8.774480546008239e-05,8.776209518537517e-05
196.8032149928576,193.373960282544,12.5,0,14.31973451229149,7.92189092324014,-1.802775665638972,3.948563770074065e-05,1.389426334453525e-05,-1.442220532511178e-05,8.1232118615387e-05,8.315878778744002e-05
198.0394515126358,194.9259550502591,12.5,0,15.0696827967135,8.306796915570306,-2.110201056344877,4.157754741702696e-05,1.452600389245418e-05,-1.688160845075902e-05,8.541510251012399e-05,8.665421171786411e-05
200.1552970118451,189.0605520762493,12.5,0,14.93479681849436,8.257442271955473,-1.487168556171185,4.118539600161757e-05,1.447597781546202e-05,-1.189734844936948e-05,8.465346507774131e-05,8.508997447814902e-05
201.3689021827667,190.639939364159,12.5,0,15.75783834269192,8.690675994859328,-1.825263276703149,4.347254190072668e-05,1.520389250939631e-05,-1.46021062136252e-05,8.927480364615506e-05,8.923132767480264e-05
198.9283498373127,190.6393690566634,12.5,0,14.23874842538413,8.311851442534813,-1.590193487984197,3.891451380720135e-05,1.52069258758041e-05,-1.272154790387357e-05,8.225871581772593e-05,8.453333302777751e-05
200.1502386568378,192.208729986308,12.5,0,15.05703330546632,8.745356085459115,-1.92889899372614,4.118622170912493e-05,1.593951282909611e-05,-1.543119194980912e-05,8.686577529483493e-05,8.845263132481672e-05
198.0532711955184,186.3249730488106,12.5,0,14.16386473780842,7.480848004938959,-0.9362529189077333,3.933968875703578e-05,1.260762182555793e-05,-7.490023351261867e-06,7.902181231092065e-05,7.872944200503302e-05
199.26687636644,187.9043603367202,12.5,0,14.88308585559109,7.838263791474265,-1.222306541814098,4.135526370471206e-05,1.317597544824478e-05,-9.778452334512782e-06,8.29774778773417e-05,8.227600269401786e-05
196.8119763207329,187.9211561911542,12.5,0,13.53751497550871,7.504710572156511,-1.040128215634104,3.731627946390267e-05,1.318506185049386e-05,-8.321025725072833e-06,7.677080183170718e-05,7.846161563116477e-05
198.0338651402579,189.4905171207988,12.5,0,14.25250838056001,7.862210270930976,-1.326801704713474,3.931825860104725e-05,1.375706616253111e-05,-1.061441363770779e-05,8.07132369439347e-05,8.185624844118013e-05
195.9032854052537,189.0896433494851,12.5,0,14.34555868926306,7.1099361433903,-1.177650973867197,4.021783889092954e-05,1.127534870743851e-05,-9.421207790937577e-06,7.844176833483695e-05,7.816807399248801e-05
197.1312382764283,190.6516644754651,12.5,0,15.04570633058517,7.445845793623583,-1.45326258468904,4.218958362297366e-05,1.179014147512733e-05,-1.162610067751232e-05,8.225533179775089e-05,8.144516288286323e-05
194.6619905304682,190.6858264918287,12.5,0,13.72149479303884,7.115455466739569,-1.289117710041009,3.821641896433262e-05,1.179226165913555e-05,-1.031294168032807e-05,7.613373839744257e-05,7.763392969532029e-05
195.8982270502464,192.2378212595438,12.5,0,14.41743490973896,7.451333762528328,-1.565400540210485,4.0174724701142e-05,1.231032011229948e-05,-1.252320432168388e-05,7.993396481551395e-05,8.074181050407366e-05
161.6064156074692,278.1033876848354,12.5,0,4.34224465916721,4.018361342262735,-4.759224490184566,1.068049383552488e-05,9.384960567906985e-06,-3.807379592147653e-05,3.262902000348956e-05,3.313924481082849e-05
163.9462030477255,278.757644760203,12.5,0,4.406129036305447,4.142782049453286,-4.818245125977259,1.07853872766148e-05,9.731999329206157e-06,-3.854596100781807e-05,3.331967642172986e-05,3.319557808666501e-05
161.007810268542,280.028593028051,12.5,0,4.230974961689151,4.022875319026735,-4.73161063586695,1.032081962218389e-05,9.488421051534229e-06,-3.78528850869356e-05,3.224097085480939e-05,3.241594035430234e-05
163.1793447374635,280.8787599441039,12.5,0,4.309399931149501,4.151697928324011,-4.79593632482274,1.04687214370192e-05,9.837913425717233e-06,-3.836749059858192e-05,3.300081192679405e-05,3.236103122497998e-05
157.5537848821064,276.9701811891073,12.5,0,4.598946046411212,3.723834187941683,-4.775850763179545,1.173755999816253e-05,8.237112564284414e-06,-3.820680610543636e-05,3.25316563091101e-05,3.296937204602156e-05
159.8935723223628,277.6244382644751,12.5,0,4.682059546022851,3.877849382872126,-4.854567357891473,1.188031104097542e-05,8.663470388372522e-06,-3.883653886313179e-05,3.34029562526825e-05,3.307863308491692e-05
157.2466022380505,278.5560607345596,12.5,0,4.465116138725645,3.711528480561723,-4.742301711817927,1.131914885947269e-05,8.304798226816995e-06,-3.793841369454341e-05,3.200213693931852e-05,3.242668215032128e-05
159.418136706972,279.4062276506125,12.5,0,4.570051366936466,3.874628318159123,-4.82928762837792,1.152446171966939e-05,8.742769524560019e-06,-3.863430102702336e-05,3.298603251973758e-05,3.243353146672935e-05
157.0217289354078,279.7170051364656,12.5,0,4.354743779731685,3.726803745680605,-4.689748082604986,1.095373709859691e-05,8.441976962392586e-06,-3.751798466083988e-05,3.162840723782678e-05,3.203770229306284e-05
159.0700936807929,280.7105880095967,12.5,0,4.420098408793974,3.83646325651401,-4.739141173244563,1.107514430292951e-05,8.740603693809651e-06,-3.79131293859565e-05,3.22641063853964e-05,3.19719695505314e-05
156.7145462913519,281.3028846819178,12.5,0,4.279787587896955,3.725300525010273,-4.659933442769705,1.071507986126203e-05,8.49713160971531e-06,-3.727946754215764e-05,3.134055271278229e-05,3.151767945556702e-05
158.5946580654021,282.4923773957341,12.5,0,4.359473923911653,3.840965808189976,-4.716261985506762,1.087754390996531e-05,8.803511447078599e-06,-3.773009588405409e-05,3.205166007394413e-05,3.135606056277373e-05
160.569600746784,281.437941154228,12.5,0,4.046802570148748,3.949488290359995,-4.615560760561442,9.790177592187998e-06,9.400920473032984e-06,-3.692448608449153e-05,3.126287237755112e-05,3.189980549306082e-05
162.6179654921692,282.431524027359,12.5,0,4.098664272051428,4.031919411450838,-4.654811976468782,9.890190141403899e-06,9.623210699001539e-06,-3.723849581175026e-05,3.175299260984934e-05,3.176838236409393e-05
159.9709954078569,283.3631464974436,12.5,0,3.977029581778945,3.955978010433845,-4.593651552500675,9.561712253345549e-06,9.477505967965148e-06,-3.67492124200054e-05,3.102858319492456e-05,3.121300328505769e-05
161.8511071819071,284.5526392112599,12.5,0,4.039172872996554,4.04113256180482,-4.63709980084088,9.692447144145117e-06,9.700285899378179e-06,-3.709679840672704e-05,3.1566574907566e-05,3.098378242672165e-05
169.1040666040875,257.4914967341429,12.5,0,6.598532606585881,4.397778455117191,-5.530858255228242,1.759708157698107e-05,8.794064971106305e-06,-4.424686604182594e-05,4.237374969646712e-05,4.265058057594343e-05
171.543313652191,258.0128961466636,12.5,0,6.758210286222711,4.713461296723882,-5.705557647432493,1.785550387853357e-05,9.67650792053825e-06,-4.564446117945995e-05,4.413385399487302e-05,4.314925711211317e-05
169.0053304374305,259.6872545225261,12.5,0,6.239083598333521,4.319068134283767,-5.43776812556349,1.650981300724025e-05,8.829751151041235e-06,-4.350214500450792e-05,4.077535101807243e-05,4.168715427152613e-05
171.4382696952236,260.1991725480345,12.5,0,6.397873504778578,4.635329133600207,-5.61260458166571,1.676493190841128e-05,9.714754423697798e-06,-4.490083665332567e-05,4.253524944621798e-05,4.212591593924599e-05
168.9330505468961,261.2946607846694,12.5,0,6.062018758992246,4.459908298826476,-5.436304459109643,1.5830533389714e-05,9.422091549050925e-06,-4.349043567287715e-05,4.062876980647972e-05,4.098058002991044e-05
171.3613721816987,261.7996379531588,12.5,0,6.210265920891676,4.764574428900015,-5.597211941171245,1.606119140373335e-05,1.027842543576671e-05,-4.477769552936996e-05,4.230388749622314e-05,4.137800529468277e-05
168.8343143802391,263.4904185730527,12.5,0,5.730914112576899,4.388002754628683,-5.345237520841629,1.482852295654313e-05,9.456877524750265e-06,-4.276190016673303e-05,3.91600075810096e-05,4.001360960683217e-05
171.2563282247313,263.9859143545298,12.5,0,5.878342800015061,4.693244593529472,-5.506252091152732,1.505610128522462e-05,1.031570845928226e-05,-4.405001672922186e-05,4.083498608386502e-05,4.035801658699475e-05
173.1390269954173,262.1693068971397,12.5,0,5.798086056324124,4.89040146749174,-5.470778731318673,1.46415542062438e-05,1.101081585091427e-05,-4.376622985054939e-05,4.119437674819793e-05,4.164579401493476e-05
175.5673486302199,262.6742840656292,12.5,0,5.947930277508499,5.200126351975809,-5.632713113967108,1.487327580644655e-05,1.188206010431579e-05,-4.506170491173686e-05,4.289888167577579e-05,4.197998113961583e-05
173.0293654154594,264.3486424414917,12.5,0,5.468329668999385,4.820245997291167,-5.379416505188808,1.36424581429651e-05,1.105012345613222e-05,-4.303533204151047e-05,3.974127099412017e-05,4.058512605808646e-05
175.4513792599517,264.8441382229689,12.5,0,5.617359601507395,5.130570928174277,-5.541460424084581,1.387109398228424e-05,1.192393928895177e-05,-4.433168339267664e-05,4.144577306141881e-05,4.086119369185292e-05
173.3289664235392,258.3945870076491,12.5,0,6.362310903853254,4.850691114781538,-5.593612618023414,1.647884200050518e-05,1.043236284421832e-05,-4.474890094418731e-05,4.312121178727155e-05,4.3495784379489e-05
175.7682134716426,258.9159864201699,12.5,0,6.526970234907877,5.177031684900616,-5.773453009872636,1.674467940378471e-05,1.134492520375567e-05,-4.618762407898109e-05,4.494510639421538e-05,4.394383794403832e-05
173.2193048435813,260.5739225520011,12.5,0,5.995694998129608,4.771845737122428,-5.498775388369838,1.53687474043168e-05,1.047335036028808e-05,-4.399020310695871e-05,4.150117764412251e-05,4.242570256157322e-05
175.6522441013744,261.0858405775095,12.5,0,6.159448006787922,5.098797204144065,-5.678761473396174,1.56311958584061e-05,1.138859264783067e-05,-4.543009178716939e-05,4.332501259609193e-05,4.280597317751565e-05
182.0606084985445,234.2389155839136,12.5,0,10.72177140495928,5.346497071344299,-5.694900675536055,3.003247083879426e-05,8.53137350433433e-06,-4.555920540428844e-05,6.045917435097216e-05,6.014011364531539e-05
184.6374436525446,234.9110641725136,12.5,0,11.0142132850226,5.824321811018695,-6.002399448554655,3.058602506325736e-05,9.826459167241742e-06,-4.801919558843724e-05,6.331776055778296e-05,6.16986495949327e-05
182.109148000358,236.7956075914759,12.5,0,10.00442469562214,5.159391160915079,-5.526118633083311,2.788664609725878e-05,8.50651195843054e-06,-4.420894906466649e-05,5.711701439721938e-05,5.880443328521261e-05
184.7643441830039,237.6132530265221,12.5,0,10.32156461276765,5.632681919686878,-5.832904081075664,2.852286122510697e-05,9.767330452783887e-06,-4.666323264860531e-05,6.005274712360529e-05,6.016908276323283e-05
181.9765356152309,229.81059512759,12.5,0,11.49053166505286,5.234020684716489,-5.463411521142635,3.258248478039597e-05,7.556440859050472e-06,-4.370729216914107e-05,6.275922470847821e-05,6.221592279765606e-05
184.4176454862856,230.2307357858086,12.5,0,11.70581328862366,5.690971830333233,-5.725999525785818,3.290582505932911e-05,8.846459226167418e-06,-4.580799620628655e-05,6.523006427918505e-05,6.4062008559256e-05
182.0250751170445,232.3672871351523,12.5,0,10.81928650055708,5.058032286214587,-5.286364985202953,3.057529097281097e-05,7.530274115441016e-06,-4.229091988162362e-05,5.960805542126753e-05,6.10542195051334e-05
184.5445460167449,232.9329246398171,12.5,0,11.06050211459416,5.510291205143497,-5.549888181262069,3.098537380258652e-05,8.784530164783862e-06,-4.439910545009655e-05,6.216127075462177e-05,6.274175591813893e-05
177.7484092917822,229.0828901612429,12.5,0,11.29985689280129,4.550120795343426,-5.269697335085346,3.251944542068938e-05,5.520501030857931e-06,-4.215757868068277e-05,5.966857756748913e-05,5.917040905417717e-05
180.1895191628369,229.5030308194616,12.5,0,11.49617520477067,4.959514405635812,-5.512897225537089,3.282014913075749e-05,6.673505934218059e-06,-4.410317780429671e-05,6.189023318990444e-05,6.090522266061449e-05
177.6612235106503,231.3875742384239,12.5,0,10.74141739245185,4.423663182810397,-5.138601537445456,3.08336051095976e-05,5.562588271031794e-06,-4.110881229956365e-05,5.712016214088159e-05,5.822697950404509e-05
180.1806944103508,231.9532117430887,12.5,0,10.96072200421971,4.826844970079097,-5.381030881028306,3.12128344374398e-05,6.67732630087734e-06,-4.304824704822645e-05,5.940728213262374e-05,5.984448881100752e-05
177.5973990891669,233.0747200782437,12.5,0,10.65448661184474,4.668136723728109,-5.491638920700247,3.035984777892067e-05,6.414448226454159e-06,-4.393311136560198e-05,5.782252061798707e-05,5.749304625163454e-05
180.1742342431671,233.7468686668436,12.5,0,10.93197045462529,5.117369014111368,-5.784568158182029,3.088841024351182e-05,7.630004481456147e-06,-4.627654526545623e-05,6.05121401622051e-05,5.901322562582808e-05
177.510213308035,235.3794041554248,12.5,0,10.04128276471468,4.527955908378234,-5.361659483814378,2.850974012038438e-05,6.456432695038606e-06,-4.289327587051503e-05,5.50363267926826e-05,5.643133286673145e-05
180.1654094906809,236.1970495904709,12.5,0,10.340872309981,4.970792396500956,-5.652326738998358,2.911415747473844e-05,7.633837820818256e-06,-4.521861391198687e-05,5.778651421759286e-05,5.780290621896673e-05
237.6084390419175,260.651807312266,12.5,0,0.1157216911734508,3.584177446317912,0.2487171544190967,-2.497032545299287e-06,1.137679047527856e-05,1.989737235352773e-06,1.414002934687066e-05,2.12420850608472e-05
239.359183172652,260.6903197041943,12.5,0,-0.1715470605939595,2.43805708788042,0.2716016542971886,-2.499396264205007e-06,7.939020329692512e-06,2.172813234377509e-06,8.883755654384707e-06,1.978917433007435e-05
237.601531522329,262.5716787197096,12.5,0,0.153823920299731,3.589469386226217,-0.2219054347976776,-2.379338964021835e-06,1.136324289968411e-05,-1.775243478381421e-06,1.427460573361493e-05,1.910185204823571e-05
239.3573323083566,262.6135801334504,12.5,0,-0.1326817398170448,2.446642881446091,-0.1982871351804738,-2.381895872571415e-06,7.935402612481126e-06,-1.58629708144379e-06,9.018886870078655e-06,1.781016463356438e-05
234.576061256487,260.5851018927264,12.5,0,0.09758663234327969,5.318776460844942,-0.0298582592916756,-3.942743945177459e-06,1.694201536882919e-05,-2.388660743334048e-07,2.073608514543087e-05,2.557821336614401e-05
236.3268053872214,260.6236142846546,12.5,0,-0.1674669454824524,4.265501336073307,0.01037156238670517,-3.948295294402493e-06,1.378357783182055e-05,8.297249909364137e-08,1.588928095976331e-05,2.279325339546603e-05
234.5603953530146,262.4991033422029,12.5,0,0.1870892603191869,5.332330690533488,-0.4606839133844811,-3.667178919405391e-06,1.691378680145181e-05,-3.685471307075848e-06,2.109374819312802e-05,2.303288796759209e-05
236.3161961390422,262.5410047559437,12.5,0,-0.07735078558713226,4.282076713360646,-0.4198360865543166,-3.67318388456734e-06,1.376452611122377e-05,-3.358688692434533e-06,1.62561487742714e-05,2.050127654783606e-05
234.5489271157268,263.9002496489206,12.5,0,0.07665840896777643,4.839579083684613,-0.0179042230072642,-3.626356358250806e-06,1.542532634061654e-05,-1.432337840581136e-07,1.883078630624854e-05,2.155586157490178e-05
236.3084296303452,263.944631998816,12.5,0,-0.1425515034938398,3.969279560075151,0.01625174176141011,-3.631588459240408e-06,1.281573579503556e-05,1.300139340912809e-07,1.482541177246167e-05,1.919529435464593e-05
234.5332612122545,265.8142510983971,12.5,0,0.1498475147066862,4.850624084483303,-0.3720960020334331,-3.400987220525246e-06,1.540211905858122e-05,-2.976768016267465e-06,1.911973509435642e-05,2.006587582433206e-05
236.2978203821659,265.8620224701049,12.5,0,-0.06885609692123151,3.982808700481612,-0.3374376036442732,-3.40658647053323e-06,1.280007271907814e-05,-2.699500829154186e-06,1.512132697854968e-05,1.791926149654852e-05
237.5964748670362,263.9771221338973,12.5,0,0.09210534925109948,3.416280503284715,0.1878576742274054,-2.438287285024253e-06,1.085841333111021e-05,1.502861393819243e-06,1.341702849394102e-05,1.789605640826393e-05
239.3559773816545,264.0215044837927,12.5,0,-0.1381001215663563,2.498533222109047,0.2087258480464987,-2.440746966699578e-06,8.105786408002036e-06,1.669806784371989e-06,9.20334939993089e-06,1.670703954773183e-05
237.5895673474477,265.8969935413408,12.5,0,0.1266306765759553,3.42153882633606,-0.1870912582563805,-2.332012896025791e-06,1.084761970301462e-05,-1.496730066051044e-06,1.354301209445021e-05,1.674199446878745e-05
239.3541265173591,265.9447649130487,12.5,0,-0.1029730704532863,2.506414248164608,-0.1656489219747855,-2.334645223982202e-06,8.102904050489375e-06,-1.325191375798284e-06,9.332111580708833e-06,1.567225546251538e-05
153.6284092923877,171.9211036814005,12.5,0,7.765834545745264,1.003839674013271,0.4336324416623076,2.404759880717422e-05,-3.000380679753743e-06,3.469059533298461e-06,3.297846378641321e-05,3.22860622123679e-05
156.0274162437791,172.9519040226248,12.5,0,7.799769282683081,1.173242744532248,0.4138097721095938,2.402066750896006e-05,-2.485438643643273e-06,3.310478176876751e-06,3.364666245547861e-05,3.40197581417579e-05
152.9010487099773,174.1269232979121,12.5,0,7.798515295485423,1.061495975945327,0.4960711296155609,2.410605216479709e-05,-2.842025113363291e-06,3.968569036924487e-06,3.329255399100784e-05,3.299402822146222e-05
155.1908255631693,174.9947637081943,12.5,0,7.836390875618852,1.24513817087048,0.4781460330106194,2.408034026528394e-05,-2.284670553709544e-06,3.825168264084955e-06,3.402244212002902e-05,3.458718688438306e-05
154.8882347765228,168.1005120333389,12.5,0,7.333870230956977,1.164224712933216,0.6875748580098833,2.253700496871575e-05,-2.141577103379291e-06,5.500598864079066e-06,3.186471712340548e-05,3.096756479530393e-05
157.4764338077078,169.4135672545479,12.5,0,7.376447246416522,1.336791568187548,0.6551612128310481,2.253519793398283e-05,-1.623424778933065e-06,5.241289702648385e-06,3.257772054743704e-05,3.293854313897169e-05
154.1608741941124,170.3063316498506,12.5,0,7.347185959615222,1.213644222962284,0.7436119642228431,2.254007969239888e-05,-1.994087254212869e-06,5.948895713782745e-06,3.208207947185438e-05,3.174307297385448e-05
156.639843127098,171.4564269401174,12.5,0,7.392917734561893,1.398787332648358,0.7118531070674723,2.253830688447937e-05,-1.438214723174769e-06,5.694824856539778e-06,3.284837620991505e-05,3.357800538158204e-05
150.4053425544904,165.8262336771023,12.5,0,6.740152342773643,0.8214928816946031,0.7434115435128331,2.091129319151998e-05,-2.763344652796185e-06,5.947292348102665e-06,2.851098565905536e-05,2.77098692113308e-05
152.9935415856754,167.1392888983113,12.5,0,6.748259471209443,0.9791201557136009,0.7365138740757389,2.081113418329933e-05,-2.265423078684031e-06,5.892110992605911e-06,2.904148968048011e-05,2.956654583895049e-05
149.8671740518736,168.3143081735986,12.5,0,6.812902388856693,0.8724214020512669,0.8091519046758212,2.11033505227004e-05,-2.6585734245213e-06,6.473215237406569e-06,2.896186489838639e-05,2.874363202839049e-05
152.3461429848593,169.4644034638654,12.5,0,6.824568592821711,1.040932746777692,0.8046847880494273,2.100587329960732e-05,-2.128670084568753e-06,6.437478304395419e-06,2.954188314696745e-05,3.044770653799658e-05
149.4732073649416,170.1357051179728,12.5,0,7.282027352230776,0.7330239554023628,0.4932710024065814,2.271606836281659e-05,-3.47994522449706e-06,3.946168019252651e-06,3.027378605273409e-05,2.94634076099181e-05
151.872214316333,171.1665054591971,12.5,0,7.289957610486348,0.8626678620512047,0.494119528802389,2.263773006391535e-05,-3.071428929825223e-06,3.952956230419112e-06,3.071322128197681e-05,3.106519176696631e-05
148.9350388623248,172.623779614469,12.5,0,7.353623415880547,0.7799381007505235,0.5521081193076733,2.290764445021733e-05,-3.387096810302762e-06,4.416864954461387e-06,3.070231134019246e-05,3.039610825172289e-05
151.2248157155168,173.4916200247512,12.5,0,7.365423866257691,0.9197185283712374,0.5557909418215363,2.283358154932762e-05,-2.949239802218193e-06,4.44632753457229e-06,3.118968677536595e-05,3.187103208646054e-05
139.8534868019166,145.0396838017652,12.5,0,2.741012290585928,0.4019312539257615,1.541429757241774,8.449694326734359e-06,-9.066298199063056e-07,1.233143805793419e-05,1.240061936070379e-05,1.305741708196123e-05
141.187661695198,143.9340846222883,12.5,0,2.944563343507677,0.447156713114046,1.632348900155533,9.06487732873333e-06,-9.247491928411947e-07,1.305879120124427e-05,1.335092983013477e-05,1.288723716683267e-05
140.7325446665295,147.1014016012318,12.5,0,3.047317440669443,0.4814881790502525,1.489785632998427,9.366225266902013e-06,-8.970917795747459e-07,1.191828506398742e-05,1.373262223712896e-05,1.439433815385241e-05
142.3238966969081,145.6966597404523,12.5,0,3.22217067688922,0.5206374323283605,1.562971604910191,9.894436220182816e-06,-9.116967580606226e-07,1.250377283928153e-05,1.454818297747764e-05,1.414665039126228e-05
137.542628100612,146.9546377533911,12.5,0,2.915999236357548,0.2109782381995092,1.430771837169674,9.162414965784544e-06,-1.657669026847608e-06,1.14461746973574e-05,1.237984825972115e-05,1.329681275553661e-05
138.8768029938934,145.8490385739143,12.5,0,3.182945224841231,0.3239657592823729,1.561322151259501,9.926252112066039e-06,-1.509665750169391e-06,1.249057721007601e-05,1.379669614886068e-05,1.316716253019054e-05
137.9762420972353,149.5344858755771,12.5,0,3.392464804577632,0.3179577372265646,1.429420763196426,1.060152118486717e-05,-1.696507084537099e-06,1.143536610557141e-05,1.446789844151894e-05,1.470118645083394e-05
139.5675941276139,148.1297440147976,12.5,0,3.625267217962978,0.4141309694453625,1.537425187235981,1.126955032192524e-05,-1.574994672145222e-06,1.229940149788785e-05,1.569527424954782e-05,1.454292564318394e-05
138.293669573623,151.4230657767481,12.5,0,3.481242439618989,0.2216205105381749,1.283435416512695,1.096267939835022e-05,-2.075808317973031e-06,1.026748333210156e-05,1.442018272841014e-05,1.575566077282255e-05
140.073288334894,149.7993362745519,12.5,0,3.873661344606156,0.3694500387033405,1.457418354711425,1.210015627177703e-05,-1.916688951834235e-06,1.16593468376914e-05,1.643797748033757e-05,1.556377457237387e-05
138.7272835702464,154.0029138989341,12.5,0,3.99107734303448,0.3387703299264199,1.275661484624555,1.25004312337692e-05,-2.108796818663041e-06,1.020529187699644e-05,1.669077945888646e-05,1.723216450059733e-05
140.7640794686146,152.0800417154352,12.5,0,4.341185790557342,0.4692216220559376,1.426393278049479,1.351641723213874e-05,-1.971439441866873e-06,1.141114622439584e-05,1.848539363381669e-05,1.697702260089822e-05
141.3760596861918,148.6106837812464,12.5,0,3.284471423644009,0.4558874192288924,1.442849271129595,1.014559862027772e-05,-1.168737397382752e-06,1.154279416903676e-05,1.450017163704436e-05,1.538357422656329e-05
143.1556784474627,146.9869542790502,12.5,0,3.547274466625585,0.519430837058984,1.550311103015056,1.093573362355468e-05,-1.175640894711719e-06,1.240248882412045e-05,1.573961694559436e-05,1.508314392669505e-05
142.2551175508046,150.672401580713,12.5,0,3.567578566161015,0.5275655601935758,1.39677628258814,1.099419896356038e-05,-1.165853060309369e-06,1.117421026070512e-05,1.575083533063698e-05,1.674929636611307e-05
144.2919134491728,148.7495293972142,12.5,0,3.799911578800766,0.5838057017524863,1.488562241160615,1.169267249076046e-05,-1.171751017432657e-06,1.190849792928492e-05,1.684559776269047e-05,1.638227862213633e-05
188.035866644328,182.2441724331375,12.5,0,11.55681369197387,5.387137912763905,-0.12160307647333,3.267209348410525e-05,7.993390367265398e-06,-9.728246117866402e-07,6.197412140007089e-05,6.293926909125677e-05
189.3855517853921,180.71766078767,12.5,0,12.01394209354843,5.42046843561646,0.0004974529897022068,3.410823995086181e-05,7.734345319133928e-06,3.979623917617654e-09,6.380802010667717e-05,6.306343903612353e-05
189.2516603320923,183.8877822812866,12.5,0,12.0851735030858,5.591259546900497,-0.3017884379302028,3.419954757235417e-05,8.223891747612946e-06,-2.414307503441622e-06,6.466648428552865e-05,6.550813981379871e-05
190.5996603814055,182.3417253908745,12.5,0,12.543703796745,5.625871340963337,-0.181601203235406,3.563915507681333e-05,7.967825253686676e-06,-1.452809625883248e-06,6.650814356868157e-05,6.569660817086667e-05
190.3735898828298,179.6001767048897,12.5,0,11.24964669739921,5.792955897900233,0.09621081002955559,3.13645047133573e-05,9.537741515361375e-06,7.696864802364447e-07,6.221948407706231e-05,6.309630091421663e-05
191.723275023894,178.0736650594224,12.5,0,11.66346703017054,5.788190896005013,0.1940266315331667,3.269254177974172e-05,9.191437243079607e-06,1.552213052265334e-06,6.375681372917907e-05,6.306191128993617e-05
191.5864649060661,181.209933195749,12.5,0,11.73631558559717,6.010672772490075,-0.08504976124656072,3.274767165591887e-05,9.845100403490506e-06,-6.803980899724858e-07,6.479721100682856e-05,6.577320935046609e-05
192.9344649553793,179.6638763053369,12.5,0,12.15148114863276,6.007502179929064,0.01094806570215172,3.407873793168158e-05,9.502822056866797e-06,8.758452561721374e-08,6.634353999996202e-05,6.579401930799233e-05
188.272828719391,176.8119966749579,12.5,0,10.50497537250867,5.373410153778291,0.3573655310946608,2.931719306900512e-05,8.790932194083592e-06,2.858924248757286e-06,5.798281940086388e-05,5.867172416230217e-05
189.6254325249832,175.3193383867804,12.5,0,10.86919973664379,5.374122476096071,0.4494414776142523,3.048214117638326e-05,8.501832134192395e-06,3.595531820914018e-06,5.93557653728085e-05,5.855730679994945e-05
189.4857037426274,178.4217531658171,12.5,0,10.93987073429854,5.562135607086677,0.198043886292886,3.055787786408597e-05,9.046937355238534e-06,1.584351090343088e-06,6.026121818067314e-05,6.119346369304575e-05
190.8366224564685,176.909549632695,12.5,0,11.3053375953951,5.564217107297927,0.2884751065381175,3.172570661942598e-05,8.761224667037286e-06,2.30780085230494e-06,6.16421606205627e-05,6.112284001761023e-05
185.9300502056365,179.3973566683737,12.5,0,10.84058495950283,4.983830176664174,0.1627750594283562,3.070280772907771e-05,7.275788597723093e-06,1.30220047542685e-06,5.789567718465187e-05,5.867083118210543e-05
187.2826540112287,177.9046983801961,12.5,0,11.23973501863098,5.013017977998193,0.27364547879258,3.195673767722057e-05,7.049869514689437e-06,2.18916383034064e-06,5.950107407567456e-05,5.870214292882116e-05
187.1458438934008,181.0409665165229,12.5,0,11.311882033271,5.164332426008363,0.002784528039239638,3.20665565656605e-05,7.476358136609962e-06,2.227622431391711e-08,6.028706328337096e-05,6.110721776504923e-05
188.496762607242,179.5287629834006,12.5,0,11.71233870824983,5.194664952372467,0.111927975352254,3.332375190450148e-05,7.253056880992029e-06,8.954238028180319e-07,6.189958216977858e-05,6.118927772308821e-05
237.586929982529,267.3105134631513,12.5,0,0.07288002815264016,3.28202757954262,0.146862603531283,-2.392405973545647e-06,1.044418423201427e-05,1.174900828250264e-06,1.283936430142177e-05,1.605001216936503e-05
239.353419837559,267.3548533570861,12.5,0,-0.1163460836421308,2.527487807289878,0.1633841886927525,-2.394297713486721e-06,8.181037850241315e-06,1.30707350954202e-06,9.373081366719719e-06,1.506009721053324e-05
237.5866320871613,269.2524502997691,12.5,0,0.1002807430834778,3.288759291393179,-0.1620432098720711,-2.310109055247414e-06,1.044380513799139e-05,-1.296345678976569e-06,1.295019753720407e-05,1.531354330880075e-05
239.3533400167358,269.2840262002699,12.5,0,-0.08874072139010025,2.534356983158953,-0.1475680963828669,-2.311455894975483e-06,8.18093492322073e-06,-1.180544771062935e-06,9.47982302297677e-06,1.442243384899083e-05
234.5272798026171,267.2337145140555,12.5,0,0.0579375874975252,4.465209856131021,-0.01481001940819733,-3.386767604912736e-06,1.424232146962124e-05,-1.184801552655786e-07,1.733515146775776e-05,1.914360465246794e-05
236.2937696576471,267.2780544079902,12.5,0,-0.1245745872489248,3.740091172539082,0.01165327350876488,-3.390711617227824e-06,1.20679514219242e-05,9.322618807011901e-08,1.399840898061151e-05,1.714418469068386e-05
234.5266041910586,269.197759235808,12.5,0,0.1157167509118902,4.479396489892853,-0.3149940310034622,-3.213223588996233e-06,1.424149536692761e-05,-2.519952248027698e-06,1.758373772200686e-05,1.811389870304166e-05
236.293312120633,269.2293351363088,12.5,0,-0.06639513756436055,3.754458910515809,-0.2904981572310274,-3.2160315686186e-06,1.206738462370207e-05,-2.323985257848219e-06,1.424622398508026e-05,1.630266833530076e-05
234.5261096090716,270.6355397604073,12.5,0,0.05109209513498358,4.16361387997124,-0.01811462334538031,-3.167396399545043e-06,1.328269073979998e-05,-1.449169867630425e-07,1.615537753851184e-05,1.745927671494739e-05
236.2929771802924,270.6577717692072,12.5,0,-0.1026706399187816,3.550234738715179,-0.001934444495708184,-3.168733838712244e-06,1.14428876758236e-05,-1.547555596566547e-08,1.333429742530019e-05,1.577063769855108e-05
234.5254339975131,272.5995844821598,12.5,0,0.09015762973469399,4.173161875156439,-0.2720571035218352,-3.05002508497413e-06,1.328199189671285e-05,-2.176456828174682e-06,1.632537755156415e-05,1.670052213307233e-05
236.2925196432784,272.6090524975257,12.5,0,-0.06333082596997408,3.559919853865046,-0.2575401684846974,-3.050594526195953e-06,1.144240819314412e-05,-2.060321347877579e-06,1.350471552335069e-05,1.515861932308902e-05
237.5864140126169,270.6740467292025,12.5,0,0.06535364913959774,3.164342375192333,0.118284148472114,-2.322342222907153e-06,1.007361268130379e-05,9.462731877769122e-07,1.236243343267567e-05,1.48497281995405e-05
239.3532815838378,270.6962787380024,12.5,0,-0.09333839760925799,2.530245609177824,0.1266119905658988,-2.322879359691884e-06,8.171456667456441e-06,1.01289592452719e-06,9.448460890501397e-06,1.402239567536014e-05
237.5861161172493,272.6159835658202,12.5,0,0.08086178383834108,3.168119859565722,-0.1412939593756646,-2.275738179369886e-06,1.007329412353963e-05,-1.130351675005317e-06,1.242584887694828e-05,1.431903061623377e-05
239.3532017630146,272.6254515811862,12.5,0,-0.07770811039183279,2.534126152636713,-0.1346847469595283,-2.275966875363235e-06,8.171370176750947e-06,-1.077477975676227e-06,9.51063633253942e-06,1.356713442152995e-05
138.6760553753743,137.0847409252825,12.5,0,1.55128311127746,0.4290515974234383,1.75367777525768,4.620864678149122e-06,1.319386227330343e-07,1.402942220206144e-05,8.504181980307105e-06,8.891282384741355e-06
140.0810320949227,136.5113167904047,12.5,0,1.630085333847573,0.4178442587442142,1.828608865040268,4.881997661316862e-06,3.303336090342696e-08,1.462887092032214e-05,8.822298588154923e-06,8.936479305276462e-06
139.6663514911086,138.8270233950429,12.5,0,1.780136156186362,0.5047108728531757,1.692965815849826,5.292667001513818e-06,1.909658681810726e-07,1.35437265267986e-05,9.436822416334747e-06,9.941836810958714e-06
141.0749910103343,138.049022465487,12.5,0,1.87555076229176,0.5016445667448715,1.756676403985917,5.600446785937735e-06,1.048220037501804e-07,1.405341123188734e-05,9.822778824213795e-06,9.902464599929473e-06
140.3912985623334,140.1024626839898,12.5,0,2.043096651411159,0.5092241258955327,1.711233409455732,6.130529983799282e-06,-4.960118263222599e-09,1.368986727564585e-05,1.038034214541602e-05,1.074110324943712e-05
141.8026194370207,139.1747011466864,12.5,0,2.16390273000501,0.5204116845087401,1.778040459469101,6.508159388409041e-06,-6.58047935760402e-08,1.422432367575281e-05,1.090264753127175e-05,1.063631436203021e-05
141.3815946780677,141.8447451537501,12.5,0,2.249974658960449,0.5724466455132772,1.659696793024977,6.741961592262815e-06,3.184953847412773e-08,1.327757434419982e-05,1.125561602811281e-05,1.187418534202024e-05
142.7965783524322,140.7124068217687,12.5,0,2.381013683160637,0.5883901969655008,1.717820791429734,7.148531628541638e-06,-2.196231623890739e-08,1.374256633143787e-05,1.182291774392716e-05,1.1675243902644e-05
142.8357780230304,138.4955325641009,12.5,0,1.849661776510523,0.6830229020025339,1.781000568001303,5.372499363231645e-06,7.059438651996902e-07,1.424800454401042e-05,1.031486545647029e-05,1.055416574291928e-05
144.2470988977176,137.5677710267975,12.5,0,1.938449215214755,0.64802093301194,1.825310527305151,5.684620742277661e-06,5.229076134664044e-07,1.460248421844121e-05,1.055799011828732e-05,1.043452042913397e-05
143.8324182939035,139.8834776314357,12.5,0,1.989478967388096,0.7519132798914729,1.726883939656246,5.764802071728727e-06,8.145393217422366e-07,1.381507151724997e-05,1.096092316445633e-05,1.152031827278193e-05
145.247401968268,138.7511392994543,12.5,0,2.085868190080185,0.7265192231065825,1.762394714877802,6.093562829771325e-06,6.561669618769159e-07,1.409915771902241e-05,1.1251902873583e-05,1.12959950199624e-05
141.1095464370399,136.0915411894057,12.5,0,1.442646948207913,0.6163093682704309,1.804704664755061,4.123422739648978e-06,8.180724198990482e-07,1.443763731804049e-05,8.764275028245869e-06,8.975060941494672e-06
142.5145231565883,135.5181170545277,12.5,0,1.516923356549538,0.6014107877479851,1.875686692141527,4.373026110760133e-06,7.109758355539216e-07,1.500549353713222e-05,9.048803374714212e-06,9.035271011351338e-06
142.106186707913,137.4794862567405,12.5,0,1.61275971689083,0.6782805811672359,1.749462819454924,4.618206629116868e-06,8.802900862224907e-07,1.399570255563939e-05,9.458765175300234e-06,9.872166096492694e-06
143.5148262271387,136.7014853271845,12.5,0,1.700538504685871,0.6718866477475124,1.807932357159548,4.904213896796778e-06,7.896064690433423e-07,1.446345885727638e-05,9.799933699639376e-06,9.828761256735837e-06
164.1381470525062,297.4677820321998,12.5,0,2.743054066428406,4.067489169182775,-3.889485263226628,5.523781677224679e-06,1.082152208824216e-05,-3.111588210581302e-05,2.663987134359651e-05,2.696784889301795e-05
166.3474170844808,297.4622591073264,12.5,0,2.775247233370719,4.197398888346346,-3.9348475235792,5.522872036109222e-06,1.121147865601173e-05,-3.14787801886336e-05,2.723679072916599e-05,2.70083883331155e-05
163.9562792548419,299.3214942404895,12.5,0,2.644129882417382,4.052772460269771,-3.852394064263916,5.218997655519805e-06,1.085356796692936e-05,-3.081915251411133e-05,2.622897182320776e-05,2.641495312425894e-05
166.1738272635333,299.3200143772299,12.5,0,2.676412979664195,4.182207144711929,-3.897660088391777,5.218755819155882e-06,1.124193247934681e-05,-3.118128070713421e-05,2.682463876757875e-05,2.643832575161528e-05
167.9647149954567,297.458216045713,12.5,0,2.55827764385592,4.266200148247999,-3.816368644219282,4.773528341740546e-06,1.160521835930886e-05,-3.053094915375426e-05,2.665540850195271e-05,2.702403028363073e-05
170.1739850274313,297.4526931208397,12.5,0,2.58849367861383,4.388147588798125,-3.859588279793004,4.772661700525754e-06,1.197127734126294e-05,-3.087670623834403e-05,2.721823144903259e-05,2.702622544707207e-05
167.7971850740495,299.3189310421356,12.5,0,2.463428413032736,4.251147412878781,-3.781177101625462,4.482052991401728e-06,1.163292899078591e-05,-3.02494168130037e-05,2.626040503947255e-05,2.644247674067449e-05
170.0147330827409,299.317451178876,12.5,0,2.493732881044006,4.372653298992975,-3.824305070681861,4.48182258014644e-06,1.199750425194231e-05,-3.059444056545488e-05,2.682204259770104e-05,2.643044482633003e-05
168.2548853311168,294.2353631335616,12.5,0,2.754777593551465,4.346089557013017,-3.969948544708229,5.338416653754272e-06,1.170366450760048e-05,-3.175958835766583e-05,2.771662722030236e-05,2.807175289685348e-05
170.4498174868343,294.2228374205553,12.5,0,2.787635778770739,4.480363957685211,-4.019456365013996,5.336143325918196e-06,1.210705604157608e-05,-3.215565092011197e-05,2.833603047131647e-05,2.810691174523392e-05
168.0873554097096,296.0960781299842,12.5,0,2.644965155165882,4.328241389870973,-3.931070719340594,5.001295384634045e-06,1.173440032345441e-05,-3.144856575472475e-05,2.725830926425638e-05,2.746059351391259e-05
170.2905655421439,296.0875954785917,12.5,0,2.67793473755535,4.46202908944181,-3.980469689797417,4.99976788862367e-06,1.213614529616951e-05,-3.184375751837934e-05,2.787647859628762e-05,2.747543340411588e-05
164.4531513183159,294.257058304889,12.5,0,2.941753460878232,4.129062478070585,-4.035290783647437,6.110361092353874e-06,1.085959716112328e-05,-3.228232626917949e-05,2.764195531551878e-05,2.794841402966458e-05
166.6480834740333,294.2445325918828,12.5,0,2.976171872015216,4.269691076664596,-4.086770291551933,6.107997129117015e-06,1.128207394771453e-05,-3.269416233241546e-05,2.828806345437681e-05,2.802928356196581e-05
164.2712835206515,296.1107705131787,12.5,0,2.828252078278917,4.111607352480666,-3.995051451896026,5.761120768508002e-06,1.0894541865315e-05,-3.19604116151682e-05,2.716942856410122e-05,2.73787385042333e-05
166.4744936530857,296.1022878617861,12.5,0,2.862784272590845,4.251721565041371,-4.046416934793014,5.759532420257605e-06,1.131528159005971e-05,-3.237133547834411e-05,2.781425822880381e-05,2.743468419357765e-05
237.5769194134281,274.0299289309752,12.5,0,0.0618015119403712,3.066926564430154,0.09583091027499062,-2.255776413334935e-06,9.764723796624195e-06,7.66647282199925e-07,1.197610844628583e-05,1.397447096491079e-05
239.3507375136527,274.0356540224242,12.5,0,-0.07553926323730642,2.517683929890729,0.1002280974166319,-2.255872786271964e-06,8.117019986240179e-06,8.018247793330549e-07,9.451306631260103e-06,1.326708172911942e-05
237.5520914466932,275.9509626712519,12.5,0,0.07058013575725897,3.061978127445841,-0.1251925639116373,-2.223726067533444e-06,9.741865899220883e-06,-1.001540511293099e-06,1.198561365915563e-05,1.35638140745249e-05
239.3440848800166,275.9592258978242,12.5,0,-0.06537820767542146,2.518315113794109,-0.120557992238534,-2.223862355596636e-06,8.110910930281484e-06,-9.644639379082724e-07,9.485575771852128e-06,1.290258378230136e-05
234.504576340509,274.0200127817079,12.5,0,0.05214178400712099,3.939364109571193,-0.02731869207657874,-2.984637578834167e-06,1.256425172342212e-05,-2.185495366126299e-07,1.529692120949766e-05,1.621969521252067e-05
236.2783944407336,274.0257378731568,12.5,0,-0.08277877933620903,3.400001594924742,-0.016759372345459,-2.984893369815662e-06,1.094622812722814e-05,-1.34074978763672e-07,1.281661345989857e-05,1.476562136332477e-05
234.448267773403,275.9366503429945,12.5,0,0.07618996691529445,3.929468114549322,-0.2435989128835519,-2.899766597510515e-06,1.251334599302559e-05,-1.948791303068415e-06,1.534420770682588e-05,1.566480621774585e-05
236.2402612067264,275.9449135695668,12.5,0,-0.05738924134167378,3.395603427029034,-0.2328704154240296,-2.900128313916583e-06,1.091184235956625e-05,-1.862963323392237e-06,1.288895182931717e-05,1.430394934539434e-05
234.4070470413817,277.3397264174916,12.5,0,0.0455459342368314,3.749858435973184,-0.04057618933237404,-2.854139759220686e-06,1.196311024772472e-05,-3.246095146589923e-07,1.454882244942398e-05,1.528965689419987e-05
236.2123457419773,277.3498476879306,12.5,0,-0.07417120872650329,3.271516194139147,-0.03018261147508624,-2.854560823236128e-06,1.052818878822647e-05,-2.414608918006899e-07,1.234885499279823e-05,1.399108214656092e-05
234.3507384742755,279.2563639787783,12.5,0,0.0681949475516771,3.741656719894172,-0.2290472948235757,-2.775101543749971e-06,1.191874554562001e-05,-1.832378358588606e-06,1.459725787286891e-05,1.481961887657839e-05
236.1742125079701,279.2690233843406,12.5,0,-0.05035423886322632,3.268105192756859,-0.2185207559732185,-2.775617718567811e-06,1.049822000791253e-05,-1.748166047785748e-06,1.241902963154518e-05,1.359798508122035e-05
237.5339161135953,277.3572569721288,12.5,0,0.05292643254121077,2.97753611141739,0.07485358440374766,-2.212664305002038e-06,9.485774410502678e-06,5.988286752299813e-07,1.160463704618936e-05,1.328479592925313e-05
239.3392148141911,277.3673782425677,12.5,0,-0.06781271448804038,2.494827008948185,0.08028272422561857,-2.212862293520277e-06,8.037696600224624e-06,6.422617938049485e-07,9.385404140399518e-06,1.265376084643951e-05
237.5090881468603,279.2782907124054,12.5,0,0.06369816181123011,2.974059878925294,-0.1160188867741537,-2.175413785344298e-06,9.466033083111954e-06,-9.281510941932299e-07,1.162628156971229e-05,1.29331610704905e-05
239.3325621805549,279.2909501179676,12.5,0,-0.05585048127760572,2.496168708101957,-0.110404558381272,-2.175656506569904e-06,8.032420250948346e-06,-8.832364670501762e-07,9.428267913852072e-06,1.233846189036565e-05
173.1497217072056,235.7434520563671,12.5,0,10.00199597169588,4.150098989978294,-5.447072388530449,2.868630791744419e-05,5.278719990573833e-06,-4.35765791082436e-05,5.369400489453156e-05,5.353740522634731e-05
175.5657005994055,236.4299792786232,12.5,0,10.24575364596708,4.530657949699368,-5.69260412752155,2.916188530733516e-05,6.301502522264313e-06,-4.55408330201724e-05,5.599996269725895e-05,5.475507047543235e-05
173.0458326230864,237.8821359287757,12.5,0,9.510120281291176,4.040921577188906,-5.342533382814252,2.719964763838064e-05,5.322852821971558e-06,-4.274026706251402e-05,5.147317428757561e-05,5.266801612921433e-05
175.4460171904818,238.557158872701,12.5,0,9.753914112110952,4.423689984716425,-5.589379182130441,2.76735731709819e-05,6.352676661403799e-06,-4.471503345704353e-05,5.378927078053779e-05,5.380245707254307e-05
168.9651235159765,234.5543520266617,12.5,0,9.982538236123267,3.604711734283793,-5.237547678276548,2.906035296816741e-05,3.549046960809525e-06,-4.190038142621238e-05,5.169574833718134e-05,5.143189169027449e-05
171.3811024081764,235.2408792489178,12.5,0,10.21078716932541,3.954839048829223,-5.468939499001842,2.951064770277792e-05,4.486855220793188e-06,-4.375151599201474e-05,5.382715722418851e-05,5.264696215458773e-05
168.8885910048896,236.7129618936434,12.5,0,9.511451168561385,3.496255553800312,-5.138745069465587,2.763963929635618e-05,3.578856837311889e-06,-4.11099605557247e-05,4.955397569161099e-05,5.070945840173278e-05
171.288775572285,237.3879848375687,12.5,0,9.739699622722449,3.848378164384111,-5.371367381595455,2.808833626120454e-05,4.523050427851196e-06,-4.297093905276364e-05,5.169417714197738e-05,5.183924963320597e-05
168.8325653183455,238.2931739899262,12.5,0,9.456617879338188,3.737173152399125,-5.389982960896203,2.72714386919629e-05,4.39365978420665e-06,-4.311986368716963e-05,5.031035882565544e-05,5.015904669921763e-05
171.2211876375132,238.9597752176093,12.5,0,9.677339926922809,4.082686038922014,-5.614949489231139,2.770133893501537e-05,5.322723383012197e-06,-4.491959591384912e-05,5.24007596751166e-05,5.122833637472043e-05
168.7560328072585,240.4517838569078,12.5,0,8.993451118258706,3.630716255271004,-5.290858424710993,2.587447057421106e-05,4.423531122260248e-06,-4.232686739768794e-05,4.821020205031942e-05,4.937772725134354e-05
171.1288608016217,241.1068808062601,12.5,0,9.214147659603862,3.978223152299992,-5.517025254134485,2.630269398889236e-05,5.358995959676884e-06,-4.413620203307588e-05,5.030929684752305e-05,5.036700283483127e-05
172.9697805351626,239.4477611846404,12.5,0,9.426280669374233,4.261738812975254,-5.575354178790313,2.675470709161734e-05,6.096539666021429e-06,-4.460283343032251e-05,5.205434562261858e-05,5.201328152532552e-05
175.3584028543303,240.1143624123235,12.5,0,9.657586654995312,4.622530840493043,-5.81142609433508,2.720625262359055e-05,7.066029365581489e-06,-4.649140875468064e-05,5.424894766957099e-05,5.308850188252183e-05
172.8658914510434,241.586445057049,12.5,0,8.945210486651025,4.154694420122417,-5.475295707860282,2.530091802118535e-05,6.138853755070913e-06,-4.380236566288226e-05,4.988997735786351e-05,5.109390241908476e-05
175.2387194454065,242.2415420064012,12.5,0,9.176503829868963,4.517594188168157,-5.712647484592989,2.575073690504615e-05,7.115098338242933e-06,-4.570117987674391e-05,5.20941347484415e-05,5.209055343186267e-05
209.5227132910111,204.1885497759778,12.5,0.3375878920323007,16.02407988717333,11.21862272978607,-3.292344874054378,6.386078537258338e-05,3.484285469416905e-05,-3.976189244674761e-05,0.000150024089526662,0.0001484504077880469
210.6687743519679,202.7272245344418,12.5,0.3576435341071612,16.4284143532397,10.76302763994989,-3.077081277027466,6.843630624516953e-05,3.31575349454038e-05,-3.832241368039161e-05,0.000154465684783624,0.0001528520617910518
210.7263129988501,205.7316311363617,12.5,0.3902890100226719,15.84201349720933,10.94309432202314,-3.499550875381809,6.878663567309301e-05,3.664734833390068e-05,-4.591750429838161e-05,0.000160374562047334,0.0001606042519166598
211.877478970183,204.2995702329909,12.5,0.4101834644391771,16.13590350923791,10.47184558288172,-3.273160113005466,7.334045784614183e-05,3.492812055233866e-05,-4.439563716053779e-05,0.000164728007512739,0.0001657270486991859
207.5376773048935,206.7196393406554,12.5,0.2871456932631964,15.90753332447622,11.22680876768696,-3.452148177973187,5.880957613356018e-05,3.254488494741322e-05,-3.87416968134867e-05,0.0001388963435548679,0.0001384258424544014
208.6837383658502,205.2583140991195,12.5,0.3189668189721656,16.1339265603802,10.66975140385843,-3.147805222420331,6.327557169107839e-05,3.118212714980017e-05,-3.697682063208227e-05,0.0001436342767655901,0.0001445849139670775
208.7324350485928,208.2120333804884,12.5,0.3397985268481815,15.8360092417984,10.97237676642237,-3.653864368298995,6.346142785867788e-05,3.399386274006684e-05,-4.427574935094107e-05,0.0001482884091945562,0.0001489230935125013
209.8836010199257,206.7799724771176,12.5,0.3717232239921957,15.92858932974077,10.38335419745414,-3.332346905418288,6.790765491652864e-05,3.260324549670475e-05,-4.243157834472487e-05,0.0001529505975105287,0.0001561016456948791
209.6070584196798,209.3045416425126,12.5,0.3760481515151577,15.92896818186259,11.24528052744701,-3.570836154964814,6.727518134922621e-05,3.724922555927801e-05,-4.578348362792371e-05,0.0001589620258803185,0.0001571277981751673
210.7619614447761,207.8939037215276,12.5,0.4078210457075756,16.00462181056432,10.61317487115056,-3.231096129688791,7.214753173377328e-05,3.572984481441409e-05,-4.365026627532921e-05,0.0001640733212322434,0.0001651016672962705
210.8018161633792,210.7969356823456,12.5,0.4224288068908211,15.83455693764719,10.97122096735595,-3.75397073679907,7.253409783314287e-05,3.885280604910531e-05,-5.199664777726479e-05,0.0001695300885425417,0.0001690462171175214
211.9618240988517,209.4155620995257,12.5,0.4537457217524844,15.78818713058187,10.3146777682836,-3.398518289252769,7.738238085538941e-05,3.730207700965442e-05,-4.977196041602958e-05,0.0001745533502930537,0.0001781734518537331
211.6074091369257,206.8612450923272,12.5,0.4263721221950808,16.04798996144474,11.17819546656058,-3.388058920544891,7.393471123765352e-05,3.997684633388194e-05,-4.72509660236159e-05,0.0001731863500265529,0.0001701436062874818
212.762312162022,205.4506071713422,12.5,0.4463984561127998,16.41878093000518,10.74590853377877,-3.095689447204301,7.937725722446194e-05,3.838840913423846e-05,-4.47352718775664e-05,0.0001790639293675913,0.0001759445706596162
212.8110088447646,208.4043264527111,12.5,0.4722678750436609,15.90626129805758,10.84780728354721,-3.572151445548265,8.000610220656859e-05,4.166502895900856e-05,-5.415097965989924e-05,0.000185133479030852,0.0001840517629724668
213.9710167802371,207.0229528698912,12.5,0.4926440416299597,16.13917657052103,10.38377483083826,-3.268299602834947,8.541999841733968e-05,4.004434730112616e-05,-5.153462059789133e-05,0.0001909142384372215,0.0001909843728760153
182.7171429528444,187.4683546531641,12.5,0,11.99195708333906,4.539014082575484,-0.6139939899864865,3.474305140062459e-05,4.931279397570303e-06,-4.911951919891891e-06,6.074409600882693e-05,6.118853541923804e-05
184.2744657279126,185.96243941402,12.5,0,12.39086490767876,4.550099926580293,-0.4844162910403046,3.60106877633078e-05,4.647627838913926e-06,-3.875330328322437e-06,6.228338563657575e-05,6.180939437366956e-05
184.3413646682098,189.2429042507549,12.5,0,12.50501920573104,4.75804565847216,-0.8214526180352633,3.620962493156158e-05,5.221730742526083e-06,-6.571620944282106e-06,6.344059449743945e-05,6.391047772165901e-05
185.7670537411359,187.6970333472482,12.5,0,12.94595789587754,4.781456474527854,-0.6986054648422564,3.760190008718584e-05,4.943894401787099e-06,-5.588843718738051e-06,6.517808874479994e-05,6.44834361536821e-05
185.4145051229982,184.8600329471211,12.5,0,11.81566084954905,4.976558090100466,-0.3571317979251095,3.382886824647658e-05,6.472457208682252e-06,-2.857054383400876e-06,6.155029834820712e-05,6.221778695985097e-05
186.9718278980663,183.354117707977,12.5,0,12.24441924942527,5.001194545010304,-0.214252782376268,3.518118596215261e-05,6.208287144492759e-06,-1.714022259010144e-06,6.324811744129969e-05,6.271267730034888e-05
186.8107305782692,186.5653773039868,12.5,0,12.33526620680446,5.178993142410251,-0.5461623646132648,3.532965734784605e-05,6.704565090269237e-06,-4.369298916906118e-06,6.420921579514779e-05,6.485080229105474e-05
188.2364196511953,185.01950640048,12.5,0,12.81199203248244,5.216768411417304,-0.4090882728362136,3.682495977480995e-05,6.444065290549424e-06,-3.272706182689709e-06,6.613043063658059e-05,6.528150681135665e-05
182.9961716956911,181.9062898766818,12.5,0,11.13950436780945,4.566342749866363,-0.0447964225950702,3.199333977709715e-05,5.700693305324802e-06,-3.583713807605617e-07,5.759461881402927e-05,5.785533827503937e-05
184.7814907308536,180.4695798782629,12.5,0,11.49147092513756,4.57210615572766,0.1029662424938658,3.311502203585806e-05,5.437562958218462e-06,8.237299399509263e-07,5.894413225434805e-05,5.844393055898474e-05
184.3923971509622,183.6116342335476,12.5,0,11.59179329744206,4.7425136214442,-0.2093220136114739,3.329972765465923e-05,5.902608950667789e-06,-1.674576108891791e-06,5.990395639736617e-05,6.0343358026137e-05
186.0460824839827,182.1349685707659,12.5,0,11.98209764424123,4.758416035305718,-0.06543794287196963,3.453597963332735e-05,5.641253197585317e-06,-5.235035429757571e-07,6.143016282023924e-05,6.088055426539663e-05
179.9039084191254,184.3947445896409,12.5,0,11.19765234222208,4.064973910935047,-0.2857239075557206,3.258050836636261e-05,4.049794641214485e-06,-2.285791260445765e-06,5.61208352517911e-05,5.662606643627607e-05
181.6892274542879,182.958034591222,12.5,0,11.57315312358675,4.08565379667008,-0.1252093185094744,3.376556695814154e-05,3.815569650474852e-06,-1.001674548075796e-06,5.760920716257903e-05,5.736824305142523e-05
181.5281301344908,186.1692941872318,12.5,0,11.6946169546176,4.254659874332825,-0.4789090410788442,3.401904635531005e-05,4.25921803417096e-06,-3.831272328630754e-06,5.865063978058653e-05,5.923668329804427e-05
183.1818154675112,184.6926285244502,12.5,0,12.10812258060726,4.285767080929198,-0.3229755747156851,3.531737859319985e-05,4.02795659448763e-06,-2.583804597725481e-06,6.031478817393917e-05,5.990288412798768e-05
185.8898793791636,268.2283696108984,12.5,0,4.264760633878184,6.169491145488033,-5.10303707387492,8.71164111201976e-06,1.633056315845916e-05,-4.082429659099936e-05,4.007637759545354e-05,4.064408335711435e-05
188.3910455265861,268.2909042906104,12.5,0,4.359385552410822,6.509030845038379,-5.262022314892879,8.742809091683929e-06,1.734139026219415e-05,-4.209617851914303e-05,4.171437985024952e-05,4.08401930033856e-05
185.812391504202,270.5786306412965,12.5,0,3.87909695803461,6.082806207667611,-4.989778427038705,7.546865299576659e-06,1.636170229810867e-05,-3.991822741630964e-05,3.838871443933184e-05,3.920603053665416e-05
188.5808234876565,270.8920020053439,12.5,0,3.998119615333761,6.398969334067691,-5.144031867314482,7.674807301813881e-06,1.72782061767496e-05,-4.115225493851586e-05,4.002344303353357e-05,3.918187765011714e-05
185.755666442762,272.2991411265239,12.5,0,3.61235233942784,6.049609785965348,-4.796267978484627,6.719839657396808e-06,1.646886944354684e-05,-3.837014382787702e-05,3.722665891060042e-05,3.81893535926521e-05
188.7197505973108,272.7961376878992,12.5,0,3.7564188381283,6.417826028568487,-4.942629059204928,6.886279459155769e-06,1.753190822091652e-05,-3.954103247363943e-05,3.912412510860989e-05,3.801015831440948e-05
185.6781785678006,274.6494021569221,12.5,0,3.353561856068084,5.993554727675497,-4.694642115909346,5.936554157277472e-06,1.649652564370712e-05,-3.755713692727477e-05,3.608838446007661e-05,3.68497933470967e-05
188.9095285583811,275.3972354026327,12.5,0,3.505463278874102,6.337056529423842,-4.837043350152645,6.147837268858053e-06,1.747421027105701e-05,-3.869634680122116e-05,3.792137348207407e-05,3.646727691017768e-05
190.8896107962581,273.1599644219974,12.5,0,3.103406443514384,6.377238224268162,-4.521187353094911,4.829110039831499e-06,1.792443716284661e-05,-3.616949882475929e-05,3.648879066810458e-05,3.782746459161951e-05
193.8536949508069,273.6569609833726,12.5,0,3.267094553474652,6.788325448026004,-4.691335791880836,5.024042212698084e-06,1.910896579090349e-05,-3.753068633504669e-05,3.862797379745869e-05,3.750753133695479e-05
191.2750409284227,275.9446873340587,12.5,0,2.728092939365831,6.235479958400115,-4.363853842241796,3.741513439250565e-06,1.77710615153877e-05,-3.491083073793436e-05,3.462994309370785e-05,3.609988073884848e-05
194.5063909190033,276.6925205797693,12.5,0,2.904997836092705,6.627293747291599,-4.532488904014715,3.994158077663375e-06,1.888334172245895e-05,-3.625991123211772e-05,3.674160881320787e-05,3.547865216914718e-05
190.222026224593,268.3366828533926,12.5,0,3.929811262868507,6.569867921630555,-4.980177662212307,7.319501703874777e-06,1.787972833892297e-05,-3.984142129769846e-05,4.026985636457368e-05,4.096677936792618e-05
192.7231923720156,268.3992175331047,12.5,0,4.05009588613735,7.010482297022687,-5.14636560391757,7.351920998021369e-06,1.919346664156272e-05,-4.117092483134057e-05,4.236324391075955e-05,4.111651010113992e-05
190.6074563567576,271.121405765454,12.5,0,3.434143697515886,6.382993968117764,-4.773376992734098,5.882864657556623e-06,1.767826573996413e-05,-3.818701594187279e-05,3.7797796939943e-05,3.913154614888443e-05
193.375888340212,271.4347771295014,12.5,0,3.581845086697083,6.802726420533587,-4.941841611330736,6.019723141003795e-06,1.890324847634981e-05,-3.953473289064588e-05,3.99109754319497e-05,3.901819081682663e-05
158.5830144990656,200.1547131055754,12.5,0,10.82358794561654,1.510609213911859,-2.028411885408171,3.342699405484343e-05,-3.824920871975282e-06,-1.622729508326536e-05,4.657601387540248e-05,4.587051355806767e-05
160.6891566088618,200.2582514487135,12.5,0,10.85238457634581,1.641989342743837,-1.997913301552818,3.341403917011152e-05,-3.427541764296368e-06,-1.598330641242255e-05,4.709484139423608e-05,4.73138335274418e-05
159.0099092014032,202.4323731285634,12.5,0,10.90620856040027,1.507708414648866,-1.984388078046952,3.369370066156176e-05,-3.900299921443841e-06,-1.587510462437562e-05,4.68694967109629e-05,4.662484461122412e-05
161.3253314796947,202.6009375849517,12.5,0,10.93078255341052,1.628059275577819,-1.95741896137454,3.367605675045141e-05,-3.534836360879394e-06,-1.565935169099632e-05,4.7338272827411e-05,4.824203263688004e-05
159.322417812983,204.0997359876883,12.5,0,11.06620985011215,1.644700692213649,-2.44124779412496,3.409611096658795e-05,-3.589925665006041e-06,-1.952998235299968e-05,4.804850498079522e-05,4.713304099691297e-05
161.7910438076231,204.3159028627925,12.5,0,11.10782113342055,1.811435203541608,-2.446393039634889,3.409587946411247e-05,-3.089664255403297e-06,-1.957114431707911e-05,4.873876077551372e-05,4.887354490820405e-05
159.7493125153206,206.3773960106764,12.5,0,11.06017070328676,1.617665174976225,-2.386825615760695,3.409841411053664e-05,-3.671608002705487e-06,-1.909460492608556e-05,4.792232256098411e-05,4.776712828974038e-05
162.427218678456,206.6585889990307,12.5,0,11.09883126507637,1.772629943445805,-2.392621329710623,3.409815609348773e-05,-3.206649193034517e-06,-1.914097063768498e-05,4.856385720622757e-05,4.967066940969956e-05
163.5982034605082,204.4741479982753,12.5,0,11.5437147447001,2.10995052377968,-2.575312098242562,3.525192676401658e-05,-2.483130119665107e-06,-2.06024967859405e-05,5.138933733161707e-05,5.01957843927806e-05
166.0668294551484,204.6903148733795,12.5,0,11.5878654033693,2.301745412093157,-2.564293793160543,3.523977296110724e-05,-1.90470700399734e-06,-2.051435034528435e-05,5.2169970845784e-05,5.206770593327996e-05
164.3875820476896,206.8644365532294,12.5,0,11.57151227603026,2.062220982398363,-2.514331822051305,3.537906249737814e-05,-2.658102677149444e-06,-2.011465457641044e-05,5.132250694173496e-05,5.112976221830615e-05
167.0654882108252,207.1456295415837,12.5,0,11.61200496322388,2.241211231817676,-2.505216255199963,3.536544689686227e-05,-2.11772802876254e-06,-2.00417300415997e-05,5.204819383417851e-05,5.321253678458804e-05
162.2309596411274,200.3340467764189,12.5,0,11.20897525860501,1.882299478879209,-2.09617862964442,3.436288124443267e-05,-2.943821874470541e-06,-1.676942903715536e-05,4.924601127825502e-05,4.840399891282434e-05
164.3371017509236,200.4375851195571,12.5,0,11.23182838688434,1.995121388735837,-2.054734547887377,3.434575372704123e-05,-2.601074265552798e-06,-1.643787638309902e-05,4.968343144912028e-05,4.99390661650949e-05
163.0203382283089,202.724335331373,12.5,0,11.32259263022516,1.873039206016382,-2.065872688715388,3.473386505190739e-05,-3.064348644927703e-06,-1.65269815097231e-05,4.964065138790974e-05,4.94654183163411e-05
165.3357605066005,202.8928997877613,12.5,0,11.34121184465807,1.976874073997747,-2.028434314589638,3.471037864370761e-05,-2.746972438933662e-06,-1.62274745167171e-05,5.003425435948857e-05,5.119058212436706e-05
155.297970199603,203.3460623772578,12.5,0,10.66374813076648,1.280382902734821,-2.285893150274499,3.309968769626487e-05,-4.433773215861757e-06,-1.828714520219599e-05,4.531714888089269e-05,4.437534174403457e-05
157.5826039833723,203.8398680128104,12.5,0,10.71943064018905,1.423799476290816,-2.333784011604051,3.31631384675723e-05,-4.019386188020626e-06,-1.867027209283241e-05,4.599643768695727e-05,4.592775109172015e-05
155.5643328985254,205.6149644563347,12.5,0,10.56639696113243,1.241522353873794,-2.232295388654646,3.281925239252475e-05,-4.480246036509808e-06,-1.785836310923717e-05,4.480756479720046e-05,4.490754560610447e-05
157.9104078128983,206.0977576572684,12.5,0,10.61948580716168,1.380546902529231,-2.278280927655238,3.287791706089397e-05,-4.0778385576358e-06,-1.82262474212419e-05,4.546209954252532e-05,4.649085311315734e-05
154.8366164718365,199.4162086989685,12.5,0,10.4899385724526,1.186271213922516,-1.900231234169174,3.26187864607103e-05,-4.595882973410024e-06,-1.520184987335339e-05,4.424483446184853e-05,4.330842871821106e-05
157.0148310957278,199.9290884307957,12.5,0,10.53524015621906,1.316349786066972,-1.933129929287053,3.265968867104742e-05,-4.21587280956094e-06,-1.546503943429642e-05,4.483643001873515e-05,4.479726857410798e-05
155.1029791707589,201.6851107780454,12.5,0,10.42831753806926,1.1569248760413,-1.850181537143612,3.244507622098859e-05,-4.640494427123249e-06,-1.480145229714889e-05,4.39040589824094e-05,4.39468596653339e-05
157.3426349252538,202.1869780752538,12.5,0,10.47160210234961,1.282886082448771,-1.881555323692973,3.248281786155975e-05,-4.272046218043623e-06,-1.505244258954378e-05,4.447423441766779e-05,4.547395648218216e-05
151.0638380735352,198.5278749452873,12.5,0,10.08896652368676,0.8810818690270452,-1.771806209791987,3.1579827380576e-05,-5.251711238062865e-06,-1.41744496783359e-05,4.172474731985242e-05,4.085184900733491e-05
153.2420526974264,199.0407546771146,12.5,0,10.12895009451478,0.9967665336688845,-1.800553286317532,3.161522707551218e-05,-4.913507167871392e-06,-1.440442629054025e-05,4.22464416218424e-05,4.225125673152518e-05
151.2237816125795,200.8158511206389,12.5,0,10.03640304574225,0.8604847936476969,-1.727816283461511,3.142810191145704e-05,-5.27557109692117e-06,-1.382253026769209e-05,4.144820887471133e-05,4.143867264098811e-05
153.4634373670744,201.3177184178473,12.5,0,10.07466097293937,0.9726394744495932,-1.755253711950441,3.146080353384631e-05,-4.9472824601128e-06,-1.404202969560353e-05,4.195168916350418e-05,4.286560861888924e-05
151.3408684094973,202.4907659274322,12.5,0,10.25853932286543,0.9568312148899958,-2.141034477459257,3.206186086125739e-05,-5.144971570644362e-06,-1.712827581967406e-05,4.271548808918521e-05,4.183219836818402e-05
153.6255021932666,202.9845715629848,12.5,0,10.30771766825145,1.085761215647264,-2.182478966489202,3.211608756588684e-05,-4.771738244529919e-06,-1.745983173191362e-05,4.331875356777575e-05,4.327794169923813e-05
151.5008119485416,204.7787421027839,12.5,0,10.17582458834605,0.9282924155424024,-2.093945809984174,3.182000475027342e-05,-5.170123940941148e-06,-1.675156647987339e-05,4.229675654427707e-05,4.232050701536125e-05
153.8468868629145,205.2615353037175,12.5,0,10.22278890803086,1.053414345193735,-2.133764241446794,3.187019302954377e-05,-4.807305221804736e-06,-1.707011393157435e-05,4.287884041204922e-05,4.37901047370765e-05
196.1517018191654,259.6232828096297,12.5,0,5.223716357131412,7.499414763413188,-5.5585622773379,1.071636053208997e-05,1.981915415721707e-05,-4.44684982187032e-05,4.835711567794801e-05,4.817404595122522e-05
198.0480430956587,259.1513717654396,12.5,0,5.203676569690818,7.85018404798343,-5.696313078204255,1.037161778462387e-05,2.095764769779432e-05,-4.557050462563404e-05,4.963398421601366e-05,4.882675177740494e-05
196.6916413905229,261.7205150144439,12.5,0,4.708359970013068,7.273486352059688,-5.36046112991743,9.247962822394066e-06,1.950846835058054e-05,-4.288368903933944e-05,4.566653221351305e-05,4.643266472428978e-05
198.6621110757485,261.2229676940306,12.5,0,4.687492146459943,7.610018144165523,-5.492280858636351,8.911960353339397e-06,2.060206434416172e-05,-4.39382468690908e-05,4.688977405943754e-05,4.700606766865923e-05
192.8671423798479,260.4406567148053,12.5,0,5.283934404717904,7.11026244961869,-5.568180432334529,1.122038013540234e-05,1.852569231500548e-05,-4.454544345867624e-05,4.719342738376268e-05,4.707258409140151e-05
194.7634836563412,259.9687456706151,12.5,0,5.259002214727476,7.411680659253128,-5.698754486186332,1.089946255972542e-05,1.951017633782803e-05,-4.559003588949065e-05,4.826974497729967e-05,4.770401813638645e-05
193.2786877809992,262.582292252554,12.5,0,4.80147251528602,6.925640690359003,-5.401410883383847,9.824199496628059e-06,1.832087219691999e-05,-4.321128706707077e-05,4.478043039210142e-05,4.544511275218949e-05
195.2491574662248,262.0847449321407,12.5,0,4.77600616274362,7.214919448577007,-5.52645790166655,9.511284161917979e-06,1.926693730525152e-05,-4.42116632133324e-05,4.581167769792997e-05,4.601440811501334e-05
193.5799599242505,264.1500782774145,12.5,0,4.523379838323597,7.0869059851454,-5.273114642672956,8.805290694519188e-06,1.90593952818064e-05,-4.218491714138365e-05,4.431626109519536e-05,4.427405303462063e-05
195.6046953709501,263.6337639002898,12.5,0,4.498058943063322,7.390750682956336,-5.400348112314015,8.481188071437563e-06,2.005195503100961e-05,-4.320278489851212e-05,4.540558178233345e-05,4.479295702987589e-05
193.9915053254019,266.2917138151632,12.5,0,4.076476820122297,6.914579002255877,-5.115929902512002,7.513062622586649e-06,1.886547135112097e-05,-4.092743922009601e-05,4.208723460753926e-05,4.270212972660123e-05
196.0903691808336,265.7497631618153,12.5,0,4.050772095929079,7.206989260063976,-5.238128862757141,7.196879298921872e-06,1.982174795546145e-05,-4.190503090205713e-05,4.313457425543153e-05,4.314550062755148e-05
197.0869045897568,263.2557955435723,12.5,0,4.406544889409861,7.450252026222929,-5.218554836461543,8.14074202513321e-06,2.031557057238548e-05,-4.174843869169234e-05,4.517599365397133e-05,4.516962810271115e-05
199.1116400364563,262.7394811664476,12.5,0,4.38837523566237,7.817778967371829,-5.353230603153975,7.788577580222122e-06,2.150619250705996e-05,-4.28258448252318e-05,4.652616866990851e-05,4.567980861622705e-05
197.6268441611143,265.3530277483864,12.5,0,3.922876470891541,7.233981139942186,-5.026164784335377,6.766019794899182e-06,2.001043847110176e-05,-4.020931827468301e-05,4.264543026163884e-05,4.346032910752694e-05
199.7257080165461,264.8110770950385,12.5,0,3.903955306402951,7.587584550569867,-5.155408914723087,6.422589340033548e-06,2.115710631670121e-05,-4.12432713177847e-05,4.394349002900478e-05,4.387708560957588e-05
189.0506044282934,257.1322892260892,12.5,0,5.997126449450565,6.622680603396862,-5.747730791354444,1.389266015552432e-05,1.639487677130951e-05,-4.598184633083555e-05,4.806077656259152e-05,4.874227934951485e-05
191.0126388337718,257.5934711596942,12.5,0,6.198349581457986,7.002695745017529,-5.959488627312869,1.423256206465153e-05,1.74499467188897e-05,-4.767590901850295e-05,5.023789010077779e-05,4.891785337516543e-05
189.118076082419,258.9946183829015,12.5,0,5.63025846538007,6.521931714924199,-5.643061129631494,1.279928171727686e-05,1.636597471545338e-05,-4.514448903705196e-05,4.636981127047636e-05,4.739785309227008e-05
191.1923100791796,259.1984598336479,12.5,0,5.755624602479251,6.858792438698694,-5.822567140418653,1.293096477697465e-05,1.734363612185242e-05,-4.658053712334922e-05,4.811255146267168e-05,4.772521311765325e-05
188.9337400952792,253.9066405061312,12.5,0,6.547014866503567,6.588773984124728,-5.863886085432412,1.567942838551163e-05,1.584646485599628e-05,-4.69110886834593e-05,4.993002810373917e-05,5.11323277059114e-05
190.701439108072,254.813549230884,12.5,0,6.852172602369463,6.959556230908329,-6.089969343117021,1.635930734285562e-05,1.678884185701108e-05,-4.871975474493616e-05,5.244349353443562e-05,5.09985087086085e-05
189.0012117494048,255.7689696629436,12.5,0,6.184718290535331,6.489505023255278,-5.762998847493299,1.459949451110883e-05,1.581864144198863e-05,-4.61039907799464e-05,4.825588254728589e-05,4.974292880636342e-05
190.8811103534797,256.4185379048375,12.5,0,6.396535002252143,6.812305159347618,-5.952079742636823,1.501906787972876e-05,1.668214850811066e-05,-4.761663794109459e-05,5.025188885061489e-05,4.979493028532294e-05
185.8719955926877,252.3358285170603,12.5,0,7.011441619958666,6.254645410725188,-5.935535504677009,1.743289685528758e-05,1.440571201835367e-05,-4.748428403741607e-05,5.044429342555747e-05,5.119311770329509e-05
187.6396946054805,253.242737241813,12.5,0,7.298564301010215,6.589796419389694,-6.14811573383969,1.808356862772093e-05,1.524849710123885e-05,-4.918492587071752e-05,5.275978904270126e-05,5.118447302887588e-05
185.7451318541277,254.6438844650203,12.5,0,6.561359411063572,6.157679084347166,-5.831705756229098,1.60702068479257e-05,1.445548554106007e-05,-4.665364604983279e-05,4.846426022049624e-05,4.953059887232247e-05
187.6250304582027,255.2934527069143,12.5,0,6.766839507151206,6.459236790991582,-6.016881875459503,1.648649699009059e-05,1.52560861254521e-05,-4.813505500367602e-05,5.035913791017664e-05,4.967210141771798e-05
185.6522611518677,256.3334986855667,12.5,0,6.296400490084256,6.234575064477609,-5.787960507215381,1.516082151668753e-05,1.491351981426094e-05,-4.630368405772304e-05,4.777751559663787e-05,4.834477132596746e-05
187.6142955573461,256.7946806191718,12.5,0,6.463372044530443,6.539235536897179,-5.967209668888811,1.545140211297967e-05,1.575485608244662e-05,-4.773767735111048e-05,4.954631403901378e-05,4.858872247724025e-05
185.5253974133076,258.6415546335267,12.5,0,5.894298225938677,6.14828419536094,-5.692737113571352,1.394312696671501e-05,1.495907084440406e-05,-4.554189690857081e-05,4.601711645926915e-05,4.676754905114572e-05
187.5996314100682,258.845396084273,12.5,0,5.999808190936558,6.425462103707241,-5.850003388802212,1.405901652803119e-05,1.576163217911392e-05,-4.68000271104177e-05,4.746291420311386e-05,4.714124777903707e-05
164.4273974963012,264.0791180853909,12.5,0,5.804073707719702,4.079610593933465,-5.269814785428417,1.530934738955627e-05,8.411494934411324e-06,-4.215851828342734e-05,3.831681278865309e-05,3.872887011203473e-05
166.8905259405766,264.6634638524585,12.5,0,5.936336869064183,4.334068144693584,-5.406570782721322,1.552902346525051e-05,9.119948567768121e-06,-4.325256626177057e-05,3.97442978554846e-05,3.907675866676267e-05
164.0883569952887,266.1562881845837,12.5,0,5.552227677004298,4.047084008356945,-5.211141433862941,1.452946135972819e-05,8.508886685138785e-06,-4.168913147090353e-05,3.72832340089644e-05,3.787325338755896e-05
166.5588655134379,266.7466825474448,12.5,0,5.684559579729009,4.300778188586497,-5.347568786291125,1.474996810426363e-05,9.214842539693582e-06,-4.2780550290329e-05,3.870859013697406e-05,3.817425575414753e-05
160.1611338853249,263.0670015276602,12.5,0,6.031880078370182,3.679782674729668,-5.205953997075973,1.635819011100084e-05,6.949800496438793e-06,-4.164763197660778e-05,3.772865325678047e-05,3.805659127583482e-05
162.6242623296002,263.6513472947278,12.5,0,6.161564899146203,3.927066596790269,-5.340766964125913,1.657535439983563e-05,7.637361190411898e-06,-4.27261357130073e-05,3.911634516998371e-05,3.845551708349956e-05
159.8093107213995,265.1336951516245,12.5,0,5.784361336640683,3.648553854658383,-5.150256681731632,1.559111319352348e-05,7.04788326559428e-06,-4.120205345385305e-05,3.671277665797682e-05,3.727910324284046e-05
162.2798192395487,265.7240895144856,12.5,0,5.914114948473221,3.895092615074982,-5.284740297804922,1.580909374305432e-05,7.733004409461364e-06,-4.227792238243938e-05,3.809842950007952e-05,3.763339799505901e-05
159.5517582901375,266.6466198879807,12.5,0,5.626927437892375,3.705498631216637,-5.111048286537183,1.504176889628229e-05,7.356053669579335e-06,-4.088838629229746e-05,3.631881677483495e-05,3.671325604726085e-05
162.0276693973257,267.2414421302769,12.5,0,5.74986122039039,3.94419114216908,-5.236360073716552,1.524420299151398e-05,8.021522678628741e-06,-4.189088058973242e-05,3.764809181339099e-05,3.703620287893137e-05
159.1999351262122,268.7133135119451,12.5,0,5.400645123916062,3.678441142450492,-5.05664933695408,1.4339311482571e-05,7.450495556708724e-06,-4.045319469563264e-05,3.539544745851734e-05,3.59448207925456e-05
161.6832263072741,269.3141843500347,12.5,0,5.523627238153061,3.916412322947644,-5.181661899934198,1.454247730373168e-05,8.113617642910011e-06,-4.145329519947359e-05,3.672260777565396e-05,3.622675456800987e-05
163.8401621227345,267.6768822330912,12.5,0,5.38044682640606,4.089914458972236,-5.153845363047003,1.39454982773216e-05,8.783368807586305e-06,-4.123076290437602e-05,3.678205388090625e-05,3.725267047999032e-05
166.3160732299226,268.2717044753873,12.5,0,5.504599417944298,4.333751400550228,-5.279510185535099,1.414771701698157e-05,9.46432494740529e-06,-4.22360814842808e-05,3.813800853599065e-05,3.752112413263056e-05
163.5011216217219,269.7540523322841,12.5,0,5.153117479330943,4.062184938976865,-5.096914160181696,1.324022798267752e-05,8.876497821261212e-06,-4.077531328145357e-05,3.585478254425726e-05,3.641282317060768e-05
165.9844128027838,270.3549231703736,12.5,0,5.277316357812605,4.30528769353102,-5.222284627099151,1.344318219017552e-05,9.55506753304918e-06,-4.17782770167932e-05,3.720853546895906e-05,3.663923827115562e-05
125.5900304371354,181.2379686075594,12.5,0,6.917666603779548,-0.5340520261851458,-0.3661679152675546,2.256377475304267e-05,-7.243099766816104e-06,-2.929343322140437e-06,2.50118800149956e-05,2.440397261688147e-05
128.6072630510907,181.7334103957311,12.5,0,6.900702255500969,-0.495897608391987,-0.3043914962406019,2.247896530431669e-05,-7.107434151255133e-06,-2.435131969924815e-06,2.505316464550666e-05,2.559358043430648e-05
125.9109401072937,184.1459685904971,12.5,0,7.096756576816976,-0.4941818227698609,-0.3558639448444968,2.310496650403021e-05,-7.258787094317136e-06,-2.846911558755975e-06,2.58146421767766e-05,2.543872839347264e-05
128.7762075474388,184.6994627343767,12.5,0,7.073526279974622,-0.4551248004768733,-0.2910095838144086,2.299938393630029e-05,-7.115220385505691e-06,-2.328076670515269e-06,2.583502417620558e-05,2.660567360675526e-05
126.1458622904797,186.2747723263265,12.5,0,7.368790054521694,-0.5011967301188611,-0.6835748449714082,2.398108555856451e-05,-7.49886157999771e-06,-5.468598759771266e-06,2.687714848380346e-05,2.616650870413777e-05
128.8998835024196,186.8707637440814,12.5,0,7.358406123955351,-0.4708243116488133,-0.6532006047374997,2.392355904597617e-05,-7.393362696440483e-06,-5.225604837899998e-06,2.692172858863733e-05,2.731291877657337e-05
126.4667719606379,189.1827723092642,12.5,0,7.470271128874663,-0.4800393374176233,-0.6725505105320133,2.428889908233302e-05,-7.512342782836124e-06,-5.380404084256107e-06,2.732638686837732e-05,2.712008571311653e-05
129.0688279987677,189.8368160827269,12.5,0,7.455917619244848,-0.4485247281525506,-0.6407003705354187,2.421775616410555e-05,-7.400013225484039e-06,-5.12560296428335e-06,2.735920510137862e-05,2.823305534155746e-05
130.9159669545963,187.3070597427345,12.5,0,7.771776706024691,-0.3225226842103455,-0.7708678710571694,2.512770360664729e-05,-7.249493954292858e-06,-6.166942968457355e-06,2.896245369854378e-05,2.819171942942233e-05
133.6699881665362,187.9030511604893,12.5,0,7.772764710396311,-0.2669578820337226,-0.7518065600863553,2.508641337889517e-05,-7.07247699082496e-06,-6.014452480690842e-06,2.912822589235666e-05,2.94462373903969e-05
130.9736652227392,190.3156093552553,12.5,0,7.847257424051178,-0.3049172101183468,-0.745035022110314,2.535515752505844e-05,-7.253541011619652e-06,-5.960280176882512e-06,2.929990848412643e-05,2.9084010932337e-05
133.575721260869,190.9696531287181,12.5,0,7.845951106792909,-0.2467183476563175,-0.7256865860046883,2.530441821986236e-05,-7.066259597934542e-06,-5.805492688037506e-06,2.946505090504512e-05,3.029589521298943e-05
130.8160306226659,182.0960989568501,12.5,0,7.33857450376261,-0.3331612290018657,-0.4196368557835043,2.374996739524184e-05,-6.936975535816057e-06,-3.357094846268035e-06,2.722298846443184e-05,2.651146462545563e-05
133.8332632366211,182.5915407450218,12.5,0,7.332310723415421,-0.2710796087886709,-0.3707511936402385,2.368025800196028e-05,-6.733303326856083e-06,-2.966009549121908e-06,2.737891034686253e-05,2.782956305382098e-05
130.8737288908087,185.1046485693711,12.5,0,7.49100676155977,-0.2963710516175668,-0.3932483117835778,2.420831847828531e-05,-6.941192774424028e-06,-3.145986494268622e-06,2.79149582107169e-05,2.750240772402326e-05
133.738996330954,185.6581427132506,12.5,0,7.480097446335902,-0.2320971305657142,-0.3425631914013495,2.412198953272745e-05,-6.726788774879007e-06,-2.740505531210796e-06,2.806034341444214e-05,2.878538568010138e-05
206.9159821558774,243.2890611784803,12.5,0,9.491272136818125,9.237626864718633,-5.819758514078085,2.298196934604309e-05,2.196738825764512e-05,-4.655806811262468e-05,6.955236927708676e-05,7.144778137015221e-05
209.0717882443818,243.5149220671699,12.5,0,9.69004546420865,9.656967294909458,-6.193899603316932,2.328257164954011e-05,2.315025897234335e-05,-4.955119682653546e-05,7.194696929559621e-05,7.354606721020831e-05
206.8879625098586,245.4678036128558,12.5,0,8.765915200403732,9.059897837927712,-5.710972792038205,2.080301037094977e-05,2.197894092104569e-05,-4.568778233630564e-05,6.629329922514989e-05,6.795736732453158e-05
209.246070050646,245.322582016152,12.5,0,8.801683384165116,9.40209906011574,-6.026108159402305,2.064370758123578e-05,2.304537028503828e-05,-4.820886527521844e-05,6.781177597602303e-05,7.032885861821445e-05
206.9645136063911,239.5153685856033,12.5,0,10.59406646860995,9.307929770691747,-5.596886758879344,2.645466888299844e-05,2.131012209132563e-05,-4.477509407103475e-05,7.36222113925156e-05,7.815640150124102e-05
208.7699233011028,240.3839631927817,12.5,0,11.09234152892562,9.667557867620729,-5.98164612021987,2.776144659846541e-05,2.206231195324583e-05,-4.785316896175896e-05,7.686985919707842e-05,7.961320458641169e-05
206.9364939603723,241.6941110199789,12.5,0,9.819855968678086,9.116964411516634,-5.520151946010395,2.412996757055657e-05,2.131840134191076e-05,-4.416121556808316e-05,7.013791996246838e-05,7.418060434129387e-05
208.944205107367,242.1916231417639,12.5,0,10.07277968849145,9.38731623474429,-5.839850958797225,2.472304201537722e-05,2.198118820038856e-05,-4.67188076703778e-05,7.216191351491122e-05,7.603380021456048e-05
203.8374522867291,238.0109185948168,12.5,0,10.91485961574112,9.037703450581665,-5.719414613173781,2.769738800990624e-05,2.018876334926843e-05,-4.575531690539025e-05,7.388363506248059e-05,7.604357202518494e-05
205.6428619814408,238.8795132019953,12.5,0,11.31537402855176,9.281744090267663,-6.029378861820265,2.878380161915148e-05,2.064928186601512e-05,-4.823503089456212e-05,7.633791999674008e-05,7.719992133921424e-05
203.4590362469176,240.8323947476813,12.5,0,10.00126928788356,8.832893757187106,-5.695331285224437,2.493774671547769e-05,2.026424459269189e-05,-4.55626502817955e-05,6.98743337061228e-05,7.163588910473741e-05
205.4667473939123,241.3299068694663,12.5,0,10.21306591458344,9.021369782650924,-5.974587487982369,2.546471510054627e-05,2.06979305728162e-05,-4.779669990385895e-05,7.144383245191827e-05,7.30021876110696e-05
203.1820164793884,242.8978586438342,12.5,0,9.46174358205073,8.654387599550152,-5.911425213343693,2.335406938292221e-05,2.01246454529199e-05,-4.729140170674955e-05,6.744000228298885e-05,6.860081785558583e-05
205.3378225678929,243.1237195325239,12.5,0,9.620008539456364,8.969112547742835,-6.226801972806412,2.36087372880661e-05,2.100515332121197e-05,-4.98144157824513e-05,6.928991729348437e-05,7.012270579925182e-05
202.8036004395769,245.7193347966987,12.5,0,8.616763008906448,8.482101531027876,-5.838254193268424,2.078796040367833e-05,2.024931449216404e-05,-4.67060335461474e-05,6.379542625630829e-05,6.471653191840712e-05
205.1617079803643,245.5741131999948,12.5,0,8.638972285319264,8.747954872992294,-6.119280919854883,2.064634741462781e-05,2.108227776531993e-05,-4.895424735883907e-05,6.497924326096569e-05,6.645354891770538e-05
237.4899380406773,280.6912397683899,12.5,0,0.04533869503425314,2.891599360539201,0.05909233662776167,-2.168195664321751e-06,9.21684699769804e-06,4.727386930220934e-07,1.125073377256767e-05,1.268779589587874e-05
239.3274309250683,280.700885598968,12.5,0,-0.06203089469575807,2.462324104531486,0.0638063882073503,-2.168358146651615e-06,7.929061850257363e-06,5.104511056588023e-07,9.277041257937838e-06,1.211786546921061e-05
237.4624469443477,282.6304546377336,12.5,0,0.054470394305422,2.887959546805087,-0.1079661036322246,-2.136062375666719e-06,9.197894234331942e-06,-8.637288290577966e-07,1.126687076014461e-05,1.236908063116551e-05
239.320064708008,282.6293290932189,12.5,0,-0.05168741286486533,2.463305126904892,-0.104235073810255,-2.136043822691482e-06,7.923926336387546e-06,-8.338805904820404e-07,9.314075784698029e-06,1.183048379469539e-05
234.307307006423,280.6745326997478,12.5,0,0.03883765377376591,3.581300610849654,-0.05113634794219715,-2.740759996603672e-06,1.142909183169988e-05,-4.090907835375772e-07,1.388092040057642e-05,1.449358954258281e-05
236.144799890814,280.6841785303259,12.5,0,-0.06830838959371022,3.153122536347951,-0.04255748762171019,-2.741084875778233e-06,1.014463882798841e-05,-3.404599009736815e-07,1.191174007520062e-05,1.332436924275818e-05
234.2449585967035,282.6324041380195,12.5,0,0.05689037597238311,3.572413964717168,-0.2191912097970793,-2.675881968662109e-06,1.138621238631703e-05,-1.753529678376635e-06,1.39119964816276e-05,1.407289885493263e-05
236.1025763603637,282.6312785935046,12.5,0,-0.04900858060407209,3.14877175852601,-0.211632853543565,-2.675844864753838e-06,1.011527649176649e-05,-1.69306282834852e-06,1.196419330634378e-05,1.296993393563277e-05
234.1993163930196,284.0656655054614,12.5,0,0.03434305270345206,3.424820112688725,-0.06330376973243394,-2.629958321499933e-06,1.093194991844116e-05,-5.064301578594716e-07,1.326628734046095e-05,1.377947734200335e-05
236.0716665908005,284.0566547671115,12.5,0,-0.06213075470829221,3.038663419566839,-0.05856772214779134,-2.629749150720006e-06,9.773427546380518e-06,-4.685417771823307e-07,1.149090613664946e-05,1.272039781265263e-05
234.1369679833,286.0235369437332,12.5,0,0.04608868570021485,3.415891923067055,-0.2121550711774877,-2.585229744212956e-06,1.08939832052544e-05,-1.697240569419902e-06,1.327741719507093e-05,1.339852554826293e-05
236.0294430603502,286.0037548302903,12.5,0,-0.04930715908770089,3.033746502498566,-0.2082763619957697,-2.584780111079495e-06,9.747434535265572e-06,-1.666210895966158e-06,1.152135324011249e-05,1.239308775344356e-05
237.4423220650796,284.050058448826,12.5,0,0.04145881904829685,2.804341783398165,0.04553904690263156,-2.110805205763982e-06,8.940726651635489e-06,3.643123752210525e-07,1.09032281795385e-05,1.21433205346909e-05
239.3146722628605,284.0410477104761,12.5,0,-0.05482847328563967,2.4190681622848,0.04742972509600346,-2.110705644341887e-06,7.784880897939871e-06,3.794378007680277e-07,9.131802371432707e-06,1.162579562068961e-05
237.4148309687499,285.9892733181698,12.5,0,0.04709517415064157,2.800532330480446,-0.1016694272720021,-2.089721307102304e-06,8.924027318216914e-06,-8.133554181760172e-07,1.090814776760242e-05,1.184524774548761e-05
239.3073060458002,285.9694912047269,12.5,0,-0.04813936805967411,2.419326693949884,-0.1006050254087089,-2.089507332950864e-06,7.780356915087366e-06,-8.048402032696713e-07,9.155538187549115e-06,1.135395880408873e-05
211.5638932460662,216.7802517509621,12.5,0.4492810315201842,15.75883789007737,11.30596591718439,-4.001817983510351,7.514451268808401e-05,4.280226753038032e-05,-5.813227017848063e-05,0.0001795490371738441,0.0001768123423905829
212.8161279783584,215.4966037749977,12.5,0.4947903772211518,15.27287981883617,10.38827856628969,-3.431087394215869,8.02886380986452e-05,4.161478049728528e-05,-5.433130707754238e-05,0.0001854947783858383,0.0001917452118658278
212.7374358186144,218.2753485872731,12.5,0.4858028622714565,15.80061837876318,11.00876339862199,-4.134313145107234,8.120420171453386e-05,4.392779833890153e-05,-6.432261623812979e-05,0.0001906340234833334,0.0001885991635155471
213.9891277782508,217.0074164320757,12.5,0.530404950403444,15.18754928069078,10.06704059403943,-3.549270173228274,8.634359595105132e-05,4.272721889553906e-05,-6.046520594759361e-05,0.0001965506525535917,0.0002053196987386296
209.5312578856041,214.1906680682824,12.5,0.3793518087900036,15.79741462078182,11.32637924963345,-3.882957470980272,6.685047016073025e-05,3.80352061546802e-05,-5.005035091986884e-05,0.0001596134664355363,0.0001579207868908456
210.784432727713,212.8797994922674,12.5,0.4262778821921024,15.43978235369765,10.47910701593874,-3.353987584540815,7.150503117402519e-05,3.691912148859859e-05,-4.676811272127178e-05,0.0001649419950336236,0.0001701172137107939
210.7048004581524,215.6857649045934,12.5,0.4207819444088658,15.83042493037289,11.03350585281136,-4.026348518042195,7.221901094269759e-05,3.909214943513691e-05,-5.561081501760872e-05,0.0001695229566751641,0.0001685920961491522
211.9574325276055,214.3906121493454,12.5,0.4669129581623287,15.34596617920746,10.16088377019798,-3.483664758231238,7.686996970709275e-05,3.796388494363401e-05,-5.227911368803503e-05,0.0001748255108037127,0.0001823127344313441
207.3606953883433,216.4611590439453,12.5,0.2785233848704829,15.57324219293006,11.30206279017738,-4.052438338464409,5.654060565485038e-05,3.286039585630586e-05,-4.493493763743877e-05,0.0001361082243925738,0.0001368463894049999
208.6138702304522,215.1502904679301,12.5,0.3401843300265132,15.07237641389812,10.42783710532158,-3.445898607635257,6.045527054824202e-05,3.229868367140616e-05,-4.178013665875771e-05,0.0001411261111452636,0.0001490058963868678
208.5351780707083,217.9290352802056,12.5,0.3203902213160384,15.70402402258531,11.01790970033822,-4.175154165846696,6.097403305798009e-05,3.339282708227109e-05,-4.914766440155376e-05,0.0001437762008391822,0.0001448732652228743
209.7878101401614,216.6338825249575,12.5,0.381991642983644,15.05722330632427,10.10370472120981,-3.549779525377236,6.488609797587015e-05,3.282492256374955e-05,-4.595121713259665e-05,0.0001487796626888053,0.000158560220610005
209.3949590667727,219.0035952643255,12.5,0.3493515393992058,15.53854486383879,11.34744353950262,-4.168750123222286,6.246904618071485e-05,3.670335808262141e-05,-5.125655865685695e-05,0.0001510242288697997,0.0001510008921440168
210.6471937990648,217.719947288361,12.5,0.4108146278036817,14.88252616267451,10.37446872500242,-3.510467708669344,6.674386465835995e-05,3.613850579911121e-05,-4.766537493058666e-05,0.0001565647052794598,0.000165894934825308
210.5694417491376,220.4714715005859,12.5,0.3867054117924476,15.68467828414153,11.05823740751033,-4.284056460870702,6.741357477828055e-05,3.723922812276753e-05,-5.588252749324287e-05,0.0001594885749082457,0.0001597150044052427
211.8211337087741,219.2035393453885,12.5,0.4478465043886884,14.88089765321992,10.04722780806047,-3.605867797810366,7.16849400727483e-05,3.666808419061434e-05,-5.224442589201633e-05,0.0001650132953731288,0.0001763794224982282
197.1009298101264,279.3406999503807,12.5,0,1.996772656277451,6.48616777099205,-3.660509175147793,1.200738283294202e-06,1.915831874215259e-05,-2.928407340118235e-05,3.264191089541238e-05,3.355235444754036e-05
199.4851155773509,279.8261137706959,12.5,0,2.101780182714986,6.737869813859989,-3.761546550362131,1.335400733599963e-06,1.987975925817997e-05,-3.009237240289705e-05,3.396854124125429e-05,3.286843064462697e-05
197.8131802917357,282.0892197158842,12.5,0,1.766266211618691,6.371490459149041,-3.551525869895678,5.548595098605778e-07,1.897575649998197e-05,-2.841220695916542e-05,3.140813778344379e-05,3.180465855706104e-05
200.1697620189085,282.2308826367043,12.5,0,1.834726575160543,6.598959623469151,-3.633724864597352,5.919573417384168e-07,1.964888953497285e-05,-2.906979891677882e-05,3.251537106043202e-05,3.131398384338524e-05
198.3345838319669,284.1012758297545,12.5,0,1.563566762077752,6.13820032397992,-3.263705449627729,9.285337946487028e-08,1.839138762707354e-05,-2.610964359702183e-05,2.970822028400035e-05,3.059148830308435e-05
200.6709579993286,283.9912956270074,12.5,0,1.620898819023459,6.401996097030917,-3.332229697555919,6.527934325033398e-08,1.918966845528016e-05,-2.665783758044735e-05,3.090472647874823e-05,3.02208758872155e-05
199.0468343135761,286.849795595258,12.5,0,1.350138268285499,6.019913825129972,-3.144424622846944,-4.954886015903813e-07,1.818361362578751e-05,-2.515539698277555e-05,2.851574361014599e-05,2.90247414213272e-05
201.3556044408862,286.3960644930157,12.5,0,1.376469932420175,6.259841554343406,-3.19457193675918,-6.031694597301643e-07,1.893031702796276e-05,-2.555657549407344e-05,2.951422688143686e-05,2.878889621391678e-05
202.3813025952561,283.9107845307732,12.5,0,1.299284353804385,6.215852650628836,-2.972903273304,-8.14972188329036e-07,1.885130099896876e-05,-2.3783226186432e-05,2.896223782875428e-05,2.989367713193903e-05
204.7176767626179,283.800804328026,12.5,0,1.349695858347024,6.459236540535443,-3.057224066097953,-8.483624857178769e-07,1.95898002430358e-05,-2.445779252878362e-05,3.007429671347237e-05,2.937036592418126e-05
203.0457414770026,286.0639102732142,12.5,0,1.107420407983655,6.114393353153452,-2.883012706498525,-1.347769376975065e-06,1.868012240370412e-05,-2.30641016519882e-05,2.792555467785205e-05,2.856368744551866e-05
205.3545116043127,285.6101791709719,12.5,0,1.121294027814882,6.330256800002346,-2.947918644923204,-1.476064550994254e-06,1.93597865377556e-05,-2.358334915938563e-05,2.880871581017865e-05,2.818425085532922e-05
201.2304606935675,280.1814613498477,12.5,0,1.565178714894141,6.439091746227168,-3.315915416543509,-1.427015093204815e-07,1.935295061601162e-05,-2.652732333234808e-05,3.085261363270829e-05,3.231284886469352e-05
203.614646460792,280.666875170163,12.5,0,1.663742739403425,6.714416899280566,-3.394745654743796,-4.755675333349414e-08,2.015513988617507e-05,-2.715796523795037e-05,3.223058837328222e-05,3.147889501700466e-05
201.8948995753141,282.3345870922889,12.5,0,1.437066945968772,6.350881669626505,-3.230000099447341,-4.82091108601132e-07,1.917316778602979e-05,-2.584000079557873e-05,3.006437542353906e-05,3.08982619064696e-05
204.2514813024869,282.4762500131089,12.5,0,1.506895612119759,6.59802269970484,-3.289044234516727,-4.563522009806437e-07,1.990815614935968e-05,-2.631235387613381e-05,3.123406649974629e-05,3.025316316662263e-05
164.6652315744918,260.3054181607359,12.5,0,6.290235606297543,4.030532006821653,-5.371567059053867,1.690432833469481e-05,7.865513936791257e-06,-4.297253647243094e-05,3.993636458969026e-05,4.023350196390125e-05
167.1388250788456,260.8942857979875,12.5,0,6.449790885539538,4.336803981796793,-5.536371636682904,1.716988764828908e-05,8.717940033318105e-06,-4.429097309346323e-05,4.165331676772706e-05,4.067391128670235e-05
164.5819705739279,262.5113821875302,12.5,0,5.96011214450766,3.956992353905431,-5.280986204307567,1.590676497930017e-05,7.894285816891248e-06,-4.224788963446053e-05,3.846129122935938e-05,3.936129681198267e-05
167.0459256377654,263.0953188697037,12.5,0,6.11990569108147,4.264388589437121,-5.44633501440771,1.617218733991101e-05,8.750118933333609e-06,-4.357068011526168e-05,4.018380622350742e-05,3.974653934804587e-05
164.8094438577548,256.4845763867277,12.5,0,6.799326973904383,3.94765518999162,-5.438803994245005,1.859972216450073e-05,7.193035028849677e-06,-4.351043195396004e-05,4.150628401306743e-05,4.172568122440611e-05
167.2997316307882,257.0819846887043,12.5,0,6.969525363044275,4.264942875554969,-5.616694234246873,1.88905268612977e-05,8.072196911340477e-06,-4.493355387397499e-05,4.330464422713932e-05,4.226913456647978e-05
164.726182857191,258.6905404135219,12.5,0,6.442863413479398,3.867750178044675,-5.346268804154783,1.752296278069833e-05,7.222509838959441e-06,-4.277015043323827e-05,3.991029722973367e-05,4.086703685778713e-05
167.2068321897081,259.2830177604205,12.5,0,6.613309126147596,4.186190233792351,-5.524748684521574,1.781363701663843e-05,8.105161447217443e-06,-4.41979894761726e-05,4.171451903175712e-05,4.134983863829129e-05
160.496138909471,255.4498348548594,12.5,0,6.976048950750391,3.516204061072902,-5.325028627997488,1.951039339354293e-05,5.671013834832972e-06,-4.260022902397991e-05,4.061594165923041e-05,4.072993846986e-05
162.9864266825043,256.047243156836,12.5,0,7.140023330165146,3.819014763017669,-5.497335827036903,1.979286284611433e-05,6.508828577524422e-06,-4.397868661629522e-05,4.233297740077293e-05,4.131325487333654e-05
160.4295721775867,257.6643395463787,12.5,0,6.627940324900833,3.436194581514203,-5.235589646521171,1.84604533744713e-05,5.693470400924784e-06,-4.188471717216937e-05,3.904770327495714e-05,3.997130146810548e-05
162.9102215101038,258.2568168932771,12.5,0,6.792146972967514,3.74009840058739,-5.408467039440189,1.874279159302613e-05,6.534597303505636e-06,-4.326773631552151e-05,4.077016323340491e-05,4.049765893631106e-05
160.3808419477557,259.2854694941015,12.5,0,6.496578041495579,3.617138220641908,-5.284456284223985,1.789533915627233e-05,6.377579872857641e-06,-4.227565027379188e-05,3.921979235825931e-05,3.940781486450145e-05
162.8544354521095,259.8743371313531,12.5,0,6.651713441479952,3.911716098166132,-5.445738284577129,1.815611013420294e-05,7.196120760947659e-06,-4.356590627661703e-05,4.087299721682504e-05,3.989425245004315e-05
160.3142752158714,261.4999741856207,12.5,0,6.170631031877002,3.542554105562004,-5.196297973796322,1.69119760175568e-05,6.399668312296811e-06,-4.157038379037057e-05,3.775383599577647e-05,3.862697783575987e-05
162.7782302797089,262.0839108677941,12.5,0,6.325991719049163,3.838206514650274,-5.358112055969862,1.71726082892371e-05,7.221467471641547e-06,-4.286489644775889e-05,3.941225227261783e-05,3.906131120889801e-05
210.5019690681203,236.2213409001036,12.5,0,12.90925727861904,10.88847731812229,-5.598251110688303,3.25988414370831e-05,2.451572159509609e-05,-4.478600888550643e-05,8.755081667937221e-05,9.786519462538726e-05
212.1831279986078,235.0314162477984,12.5,0.1162486411735932,11.83379218096799,10.26805889570272,-4.645719729692626,3.355433354231502e-05,2.646757426493407e-05,-4.205454109501561e-05,9.174710027427186e-05,0.0001126587730462056
212.1128305064402,237.6467012764791,12.5,0,13.17383809756927,10.26937520452283,-5.545289540573916,3.39407817486034e-05,2.232293017641763e-05,-4.436231632459132e-05,8.630156403361861e-05,9.960430269583849e-05
213.7365554957833,236.6574081123824,12.5,0.1313568414651552,11.88704508971492,9.650881416381917,-4.494495457489722,3.490252453622019e-05,2.460525274463764e-05,-4.139325027387002e-05,9.097900963735593e-05,0.0001145434119563719
209.4925126476737,232.215115725696,12.5,0.07698610801727246,12.55066568108267,10.23918116771999,-4.55755015276819,3.463738251719274e-05,2.462026562029588e-05,-3.950146529628593e-05,9.05155775326134e-05,0.0001080393574475466
211.0459401448492,233.8411075902799,12.5,0.1018205986938701,12.64325003446464,9.7224619307619,-4.476364501020672,3.638519266658033e-05,2.337759930848134e-05,-3.987056033136503e-05,9.132623760625101e-05,0.0001109160168930921
207.7118752130467,233.7525443091702,12.5,0,12.94608332712062,10.49730292877583,-5.320005755885552,3.302962430376533e-05,2.323450271038615e-05,-4.256004604708441e-05,8.618648413687778e-05,9.441345041675678e-05
209.3227366513667,235.1779046855456,12.5,0,13.39584192788115,10.16069850653159,-5.402430037686599,3.473813536399441e-05,2.179756167859615e-05,-4.32194403014928e-05,8.666701853918546e-05,9.647430994922136e-05
206.408358141096,234.8780201452341,12.5,0,11.88120168728965,9.888090447830592,-5.272084789533928,3.01093730410624e-05,2.213692808322618e-05,-4.217667831627142e-05,8.015781576803149e-05,8.693891325267144e-05
208.0612641424109,236.156508078649,12.5,0,12.07686762866367,9.530004060806609,-5.293644566585488,3.102197316307844e-05,2.083451889165021e-05,-4.234915653268391e-05,7.961235874796109e-05,8.855688650872997e-05
204.627720706469,236.4154487287083,12.5,0,11.41291232270084,9.345682100627243,-5.573107631068265,2.904477375214091e-05,2.07758528638465e-05,-4.458486104854612e-05,7.668931049272781e-05,8.014400498725021e-05
206.3380606489284,237.4933051739148,12.5,0,11.57550245467292,8.911333205668118,-5.62549193083995,2.991254129041884e-05,1.925586429439964e-05,-4.50039354467196e-05,7.577663980202152e-05,8.136779034722189e-05
209.2712753154575,237.0924262027327,12.5,0,11.58589487974005,10.34194409064133,-5.397584988134013,2.880130834265508e-05,2.382550518626023e-05,-4.318067990507211e-05,8.075420356516904e-05,8.973722731016006e-05
210.9241813167724,238.3709141361477,12.5,0,11.7048376446627,9.889304046453399,-5.368372569415362,2.95440372257579e-05,2.228190283292072e-05,-4.29469805553229e-05,7.956684983998022e-05,9.134400509399219e-05
207.5901163849699,238.282350855038,12.5,0,11.23741656415007,9.781560153883724,-5.649338995289779,2.813448488217323e-05,2.231105924110786e-05,-4.519471196231823e-05,7.763056719277953e-05,8.232478606257443e-05
209.3004563274293,239.3602073002444,12.5,0,11.32464602798344,9.22761085597206,-5.647468963377526,2.885677860476937e-05,2.046863791672383e-05,-4.517975170702021e-05,7.599122954002282e-05,8.371556161968277e-05
143.1470004372211,252.0783143157699,12.5,0,7.286814024779489,2.048716071457989,-4.723360712621294,2.167883202212797e-05,7.264402088419733e-07,-3.778688570097035e-05,3.650981071882783e-05,3.618661756293368e-05
145.6492574679308,252.4845637028574,12.5,0,7.388598253190464,2.266460866945292,-4.852503230976967,2.183034571665325e-05,1.341796171672562e-06,-3.882002584781573e-05,3.76697225251588e-05,3.686669295899885e-05
143.32250420395,254.479844019863,12.5,0,6.98499719309573,1.959789372111323,-4.64144681162585,2.078415952021728e-05,6.833282362796482e-07,-3.71315744930068e-05,3.507653688228548e-05,3.577244554170632e-05
145.7765397840421,254.8331097432108,12.5,0,7.082713667603663,2.179832603853884,-4.771376108110963,2.092081765324861e-05,1.3092933982495e-06,-3.81710088648877e-05,3.622952531267167e-05,3.641332618899766e-05
143.4509818781098,256.2378857790703,12.5,0,6.910117533284493,2.221883450219434,-4.774446926812441,2.033486934633483e-05,1.581933014074594e-06,-3.819557541449953e-05,3.57465550773652e-05,3.544853530336447e-05
145.8697169063366,256.5523647685911,12.5,0,6.997523352041568,2.430220448138802,-4.892812255123933,2.044789836802197e-05,2.178686752410912e-06,-3.914249804099146e-05,3.682063556657117e-05,3.606286553303615e-05
143.6264856448388,258.6394154831635,12.5,0,6.619126899119973,2.135619906741713,-4.692592522432027,1.947271015179054e-05,1.538682182277503e-06,-3.754074017945622e-05,3.436365115692529e-05,3.497776809631252e-05
145.9969992224479,258.9009108089447,12.5,0,6.702273681881868,2.346205271849742,-4.811564653970328,1.957031156454218e-05,2.14603792441368e-06,-3.849251723176263e-05,3.543005462863681e-05,3.555875598485589e-05
147.6403538369698,256.7825793668236,12.5,0,6.876270346011933,2.532663106344262,-4.920579205616757,1.997793462216277e-05,2.603505663492092e-06,-3.936463364493406e-05,3.673794613032196e-05,3.65085740783661e-05
150.0590888651965,257.0970583563445,12.5,0,6.967571378996271,2.750406155413412,-5.044132265908364,2.009590348845734e-05,3.227242594125901e-06,-4.035305812726691e-05,3.786534970912703e-05,3.711194223995521e-05
147.7323356012158,259.0923386733501,12.5,0,6.585823480916736,2.452647701012761,-4.841905471904328,1.911251697812334e-05,2.579813858507446e-06,-3.873524377523462e-05,3.538053839092382e-05,3.597783052870269e-05
150.1028491788248,259.3538339991313,12.5,0,6.672798565217122,2.673041454273041,-4.966258405263352,1.921452224527636e-05,3.215493801500031e-06,-3.973006724210682e-05,3.650184994521517e-05,3.654177558615619e-05
147.4810367479288,252.7819588947365,12.5,0,7.26835086945107,2.374861419796609,-4.887545477518934,2.135883364640613e-05,1.784875847788293e-06,-3.910036382015147e-05,3.761055544518492e-05,3.736408977448307e-05
149.9832937786385,253.188208281824,12.5,0,7.376136466619792,2.606936457484146,-5.0234805596631,2.151808752719601e-05,2.441287490653434e-06,-4.01878444773048e-05,3.884878842652253e-05,3.804292774990151e-05
147.5730185121748,255.091718201263,12.5,0,6.96487319977578,2.291460245580024,-4.807391289681493,2.045442604281847e-05,1.760774226035452e-06,-3.845913031745194e-05,3.619108065425136e-05,3.688002112376157e-05
150.0270540922668,255.4449839246109,12.5,0,7.068528657279552,2.526304571040995,-4.944308026437445,2.059824804646177e-05,2.429351701507544e-06,-3.955446421149956e-05,3.742422200346979e-05,3.751417474993448e-05
151.8169088675172,253.5370582471204,12.5,0,7.207446016444504,2.723911354781887,-5.04208817540457,2.08846981687969e-05,2.950559522146433e-06,-4.033670540323656e-05,3.863518152021899e-05,3.853073492170144e-05
154.324181421362,254.0838846894817,12.5,0,7.348182736145288,2.99022318795904,-5.198262539690911,2.112200620529769e-05,3.690168012552696e-06,-4.158610031752729e-05,4.01239758037432e-05,3.918461092399358e-05
151.8335992202685,255.7722139271279,12.5,0,6.880415170279646,2.640599452209259,-4.95791928848625,1.990484898312746e-05,2.945586110845912e-06,-3.966335430789e-05,3.713001198039814e-05,3.796628912872523e-05
154.3151367162529,256.3129571964556,12.5,0,7.022541849293197,2.909655558345794,-5.115695464871355,2.014440947106159e-05,3.692864307271984e-06,-4.092556371897084e-05,3.863411167389092e-05,3.856733495629358e-05
151.8458174064781,257.40846144765,12.5,0,6.789663852442239,2.859072811985986,-5.052132178222602,1.943966607822638e-05,3.717301916401363e-06,-4.041705742578082e-05,3.758908425243966e-05,3.753914136938795e-05
154.3085155325738,257.944751525246,12.5,0,6.923388133856756,3.117731399703671,-5.198602391778563,1.966065690857868e-05,4.438029971966343e-06,-4.15888191342285e-05,3.902413223566961e-05,3.81029029344079e-05
151.8625077592294,259.6436171276575,12.5,0,6.479061460748293,2.779880001797217,-4.968650959165014,1.850909267295676e-05,3.712366837152459e-06,-3.974920767332011e-05,3.616038239968405e-05,3.693659778146593e-05
154.2994708274647,260.1738240322199,12.5,0,6.614130632228512,3.041253128653704,-5.11664994840427,1.873221552020827e-05,4.440705505909042e-06,-4.093319958723416e-05,3.761041129519345e-05,3.745132702160035e-05
156.1113356845038,258.3373431096247,12.5,0,6.664352630686202,3.225999724127919,-5.177337741937982,1.874512863889351e-05,4.991717012660379e-06,-4.141870193550385e-05,3.844041215305611e-05,3.850378113986637e-05
158.5740338105995,258.8736331872207,12.5,0,6.804659359231605,3.501111464805509,-5.329633233333078,1.897402077769673e-05,5.759829199992344e-06,-4.263706586666463e-05,3.996338604594593e-05,3.903523919985253e-05
156.083451609506,260.5619624248668,12.5,0,6.345316436017078,3.148986607458961,-5.091211493644764,1.778582330928748e-05,5.000503995055013e-06,-4.072969194915811e-05,3.698923365079776e-05,3.781476500100235e-05
158.5204146777413,261.0921693294292,12.5,0,6.487036273809456,3.426988209554059,-5.245097305841059,1.801692550854701e-05,5.776733251525423e-06,-4.196077844672848e-05,3.852830790752933e-05,3.829296678603654e-05
156.1596323191213,254.4841894281954,12.5,0,7.113263899231766,3.108456164045387,-5.19295549580631,2.027567954630534e-05,4.256448605559826e-06,-4.154364396645048e-05,3.966481258366955e-05,3.965481512175732e-05
158.6669048729661,255.0310158705567,12.5,0,7.260546206362545,3.390665352000356,-5.355089772065783,2.052121557875986e-05,5.041692161311104e-06,-4.284071817652627e-05,4.123999083047184e-05,4.028556087774251e-05
156.1317482441235,256.7088087434375,12.5,0,6.777649906928886,3.027309427689238,-5.10656158044083,1.926663216002104e-05,4.265270243062453e-06,-4.085249264352663e-05,3.813656506133959e-05,3.899682108374011e-05
158.6132857401078,257.2495520127653,12.5,0,6.926388769008027,3.312429301625325,-5.270359621263197,1.951450061952542e-05,5.058662749994619e-06,-4.216287697010558e-05,3.972816683011598e-05,3.956915317755156e-05
221.6545115430314,265.6073249754549,12.5,0,0.8774467007183833,7.847002122813983,-2.224184490709904,-3.469772255952359e-06,2.440844943243003e-05,-1.779347592567923e-05,3.334478135617308e-05,3.522031631736059e-05
223.5699187603395,265.9499594948064,12.5,0,0.8093284546100008,7.599248165699744,-2.193856871452466,-3.489547477807792e-06,2.367013136655118e-05,-1.755085497161973e-05,3.21828695093656e-05,3.312222336284052e-05
221.6595791598709,267.6418866298494,12.5,0,0.9164808954145391,7.857366903905058,-2.321577585808005,-3.353154657797521e-06,2.441038937616455e-05,-1.857262068646404e-05,3.354757060421709e-05,3.305138919722107e-05
223.5589773894228,267.9508721938859,12.5,0,0.8483875227796991,7.607663310437995,-2.292501379973005,-3.371290575455359e-06,2.366581257517782e-05,-1.834001103978404e-05,3.237951136826258e-05,3.10857520918652e-05
221.6632889128705,269.1312891319342,12.5,0,0.601093538355685,7.260166765596965,-1.859200882092696,-3.88463408973938e-06,2.275165881922574e-05,-1.487360705674156e-05,3.011539570460446e-05,3.161243947777605e-05
223.5509677500076,269.4156419510596,12.5,0,0.5288030562556389,6.998543375212936,-1.826244370302469,-3.906664920152303e-06,2.197229635567688e-05,-1.460995496241975e-05,2.888697043765516e-05,2.974169634012652e-05
221.6683565297099,271.1658507863287,12.5,0,0.6534439737205984,7.27390364217192,-1.963517582341347,-3.728102197831621e-06,2.275373647597366e-05,-1.570814065873078e-05,3.037115958228237e-05,2.985008285468762e-05
223.5400263790908,271.4165546501391,12.5,0,0.5813521796642904,7.010234571270695,-1.931917428388716,-3.747860682090827e-06,2.196766888433479e-05,-1.545533942710973e-05,2.913660645973119e-05,2.810613900899046e-05
224.9328445671057,269.6238026619259,12.5,0,0.3190159743016876,6.728951747197247,-1.292180003473153,-4.362310279992397e-06,2.127743281158984e-05,-1.033744002778522e-05,2.702915106914364e-05,2.828832379491777e-05
226.8205234042427,269.9081554810513,12.5,0,0.2015570163588438,6.31808092820963,-1.230048570175625,-4.409482290219403e-06,2.005661335718374e-05,-9.840388561405003e-06,2.508410268548502e-05,2.618837929656248e-05
224.9101838037741,271.6000826160943,12.5,0,0.4263031531658317,6.75122656873726,-1.450332870779099,-4.036811164859146e-06,2.126288249742656e-05,-1.160266296623279e-05,2.749404096496993e-05,2.67603104325674e-05
226.7818536531549,271.8507864799046,12.5,0,0.3095355821814216,6.337064420721745,-1.390207267573518,-4.079137673596847e-06,2.003097768056445e-05,-1.112165814058815e-05,2.553851285841064e-05,2.482738222904235e-05
224.9720941605336,266.2007853713881,12.5,0,0.4677025164356299,7.297452742995053,-1.551863847969068,-4.341314141802026e-06,2.297768676443566e-05,-1.241491078375254e-05,2.973460706887322e-05,3.146842966127655e-05
226.8875013778417,266.5434198907396,12.5,0,0.3401955226504814,6.866625645638244,-1.479042467259287,-4.404674844029054e-06,2.170104564792199e-05,-1.183233973807429e-05,2.767810486265604e-05,2.904827419769433e-05
224.949433397202,268.1770653255563,12.5,0,0.5874115452998458,7.322693446790478,-1.714832345592966,-3.978437812472875e-06,2.296268979348965e-05,-1.371865876474373e-05,3.025658313379125e-05,2.954986054008056e-05
226.8488316267539,268.4860508895929,12.5,0,0.4606953785601324,6.888497489286996,-1.643969528636015,-4.036572780037172e-06,2.167463566287028e-05,-1.315175622908812e-05,2.818967124000321e-05,2.731936389086659e-05
143.4295592708009,196.2051090585609,12.5,0,9.316054456997605,0.3595861990857472,-1.491036402081819,2.952370530312373e-05,-6.302167728523692e-06,-1.192829121665455e-05,3.708704786543521e-05,3.617096872228047e-05
145.6364116686138,196.8942589471296,12.5,0,9.356909806556354,0.4501605161565951,-1.524401994128395,2.958198296805506e-05,-6.045014193543978e-06,-1.219521595302716e-05,3.752964226005968e-05,3.747558035989749e-05
143.5269068039825,198.6624793886852,12.5,0,9.247971953936224,0.3391283692744729,-1.455332110982899,2.932220755717634e-05,-6.313166781470665e-06,-1.164265688786319e-05,3.67551890969795e-05,3.679785845709895e-05
145.7467049747493,199.2982531455303,12.5,0,9.286902016737555,0.4285739274275997,-1.487604123115988,2.937522731161809e-05,-6.058085045621724e-06,-1.190083298492791e-05,3.718641089570382e-05,3.808465410411958e-05
143.5981701442599,200.4613993232721,12.5,0,9.507875867905238,0.4160658848742478,-1.851425569499887,3.009235006939736e-05,-6.274889862726597e-06,-1.48114045559991e-05,3.809300983304097e-05,3.722048004448139e-05
145.8274452785719,201.0580990397855,12.5,0,9.552213828526792,0.5157279622217028,-1.889934191239081,3.015450188150837e-05,-5.991441583711983e-06,-1.511947352991264e-05,3.857979307247286e-05,3.849484764654882e-05
143.6955176774416,202.9187696533965,12.5,0,9.424115796697649,0.3913739265458811,-1.812311636466865,2.984407140819577e-05,-6.2868960724113e-06,-1.449849309173492e-05,3.768610808447593e-05,3.774821395881619e-05
145.9377385847074,203.4620932381862,12.5,0,9.466154752082074,0.4897570679535765,-1.849623066333203,2.989988955229977e-05,-6.005701184214215e-06,-1.479698453066562e-05,3.815952029403342e-05,3.900644350122773e-05
147.4593879408688,201.4949135491167,12.5,0,9.880945643991668,0.674347381088007,-1.991818103824663,3.107954815590293e-05,-5.746844895711711e-06,-1.59345448305973e-05,4.03532913226088e-05,3.94561624417992e-05
149.6886630751807,202.0916132656301,12.5,0,9.932861992284511,0.7862905931265656,-2.038175697790599,3.115612590080919e-05,-5.4301596958226e-06,-1.630540558232479e-05,4.091231936650253e-05,4.080815570253512e-05
147.5791582105494,203.8598337071857,12.5,0,9.781566815016992,0.6443519209593185,-1.949275204036024,3.078553227128691e-05,-5.763327304943774e-06,-1.559420163228819e-05,3.986872726750092e-05,3.995633333040529e-05
149.8213791178152,204.4031572919755,12.5,0,9.830643317993202,0.7547408560330424,-1.994242344902035,3.085426593275181e-05,-5.449343915088826e-06,-1.595393875921628e-05,4.041133543644407e-05,4.129325106301014e-05
147.2519397485494,197.3987516795709,12.5,0,9.709498084847093,0.6098492386420673,-1.626871633282933,3.058251448059704e-05,-5.816080904223059e-06,-1.301497306626346e-05,3.939546662065929e-05,3.845743425327605e-05
149.4587921463624,198.0879015681396,12.5,0,9.76013099531407,0.7152770188338295,-1.669554959560315,3.066019756993796e-05,-5.519218335983e-06,-1.335643967648252e-05,3.992653675872929e-05,3.983529733809265e-05
147.3717100182301,199.7636718376399,12.5,0,9.622149736298676,0.5831366970482033,-1.586730177160564,3.03243697985172e-05,-5.83168235848469e-06,-1.269384141728452e-05,3.896887053026315e-05,3.905453364455916e-05
149.5915081889969,200.399445594485,12.5,0,9.67021820499567,0.6871206648965249,-1.628092629082117,3.039500172406892e-05,-5.537388436327657e-06,-1.302474103265694e-05,3.948498865739533e-05,4.041749817935369e-05
173.2379880114557,254.5399941508228,12.5,0,6.976790349791618,4.772358528388349,-5.686910981794543,1.85078422966225e-05,9.690115011009421e-06,-4.549528785435634e-05,4.508412634266803e-05,4.532374074638093e-05
175.6723400202447,255.0799203147984,12.5,0,7.170539362044168,5.149753290809644,-5.895360911689034,1.882592332589362e-05,1.074277904095552e-05,-4.716288729351227e-05,4.720116045733514e-05,4.589396864166607e-05
173.333972563283,256.7778007654165,12.5,0,6.537369729794262,4.649634852797437,-5.559890379366718,1.719987525310369e-05,9.648935745116389e-06,-4.447912303493374e-05,4.302786719962222e-05,4.427231137071861e-05
175.7735981568749,257.3067049360208,12.5,0,6.728231027280747,5.025450262556262,-5.767141135435994,1.750997907725338e-05,1.069885601835544e-05,-4.613712908348795e-05,4.512955615266616e-05,4.477126383486264e-05
173.071737890952,250.6639993969024,12.5,0,7.598184086661822,4.657362008316785,-5.729566526239419,2.05882994706644e-05,8.825011157284255e-06,-4.583653220991535e-05,4.692556588369379e-05,4.710918774829065e-05
175.4969557829248,251.2230162133975,12.5,0,7.802456709012743,5.04173500151137,-5.948026016203278,2.093447346763168e-05,9.891586637626189e-06,-4.758420812962623e-05,4.910594887419418e-05,4.780560742506869e-05
173.1677224427793,252.9018060114961,12.5,0,7.136417757556655,4.528833163576975,-5.60014752046427,1.921347029331972e-05,8.783131917400994e-06,-4.480118016371415e-05,4.476101332758823e-05,4.608387948075463e-05
175.5982139195549,253.4498008346199,12.5,0,7.33764158893881,4.911571321864423,-5.817365533338924,1.955119602711265e-05,9.846914958815107e-06,-4.653892426671139e-05,4.692540095311063e-05,4.670701855619502e-05
168.8711372827057,249.6957538684648,12.5,0,7.765805601398579,4.171328175014827,-5.613169750599016,2.151351538446359e-05,7.13560567892858e-06,-4.490535800479213e-05,4.581228747816984e-05,4.58645894386742e-05
171.2963551746784,250.25477068496,12.5,0,7.961379081993275,4.53607389298609,-5.82343911974482,2.184755394798961e-05,8.146333191960865e-06,-4.658751295795856e-05,4.788206918882305e-05,4.658909354635816e-05
168.9579877177166,251.952651135578,12.5,0,7.316795740521811,4.047853079898576,-5.490080749862813,2.017546390575093e-05,7.099693263257992e-06,-4.392064599890251e-05,4.371049510640878e-05,4.495910090269872e-05
171.3884791944922,252.5006459587019,12.5,0,7.509440099525767,4.41105390569297,-5.699174654674567,2.050136519392808e-05,8.107820418596891e-06,-4.559339723739654e-05,4.576486306074695e-05,4.561552635707878e-05
169.0215666488014,253.604814602498,12.5,0,7.177420711936121,4.302375586977174,-5.59648584277994,1.952584580861385e-05,8.025665308778059e-06,-4.477188674223951e-05,4.414672783474653e-05,4.428438241437265e-05
171.4559186575905,254.1447407664737,12.5,0,7.36211791739543,4.660406361450256,-5.7958245351366,1.983045224650517e-05,9.023606022724474e-06,-4.63665962810928e-05,4.61522336757209e-05,4.489245341664283e-05
169.1084170838124,255.8617118696112,12.5,0,6.753364002967366,4.185321979789142,-5.475660487024053,1.826250722566426e-05,7.990339132951359e-06,-4.380528389619242e-05,4.216376880704182e-05,4.334650575935689e-05
171.5480426774043,256.3906160402155,12.5,0,6.935306233076674,4.541865195136515,-5.673866791826017,1.855948778973614e-05,8.985723637975506e-06,-4.539093433460813e-05,4.415459043687952e-05,4.389054859498901e-05
162.4373366092387,274.6839501649972,12.5,0,4.650217888681071,4.060833285586495,-4.894914670486437,1.163203061531023e-05,9.274492202931929e-06,-3.91593173638915e-05,3.394474188565335e-05,3.445042666227073e-05
164.8720778246482,275.2745972523057,12.5,0,4.743069173885726,4.246873954729995,-4.987125102347045,1.178032219265033e-05,9.7955413160274e-06,-3.989700081877636e-05,3.497142518289775e-05,3.459176714103521e-05
161.9894560360059,276.6712949458919,12.5,0,4.490282384969924,4.051105792797101,-4.855411380475577,1.112801899766608e-05,9.37131262897478e-06,-3.884329104380461e-05,3.333043254104373e-05,3.368438377404383e-05
164.399769511424,277.2560138927298,12.5,0,4.58407453852516,4.239031951487425,-4.948556312404055,1.127781296209057e-05,9.897642613939631e-06,-3.958845049923244e-05,3.436772076585532e-05,3.379330197388051e-05
163.213088517787,271.2417680323927,12.5,0,4.990176522834663,4.084901025275822,-5.024398918763587,1.270064405285026e-05,9.0795420626149e-06,-4.019519135010869e-05,3.530629623356616e-05,3.581493058116671e-05
165.6901398199749,271.8426829601905,12.5,0,5.094311037378952,4.29009880759954,-5.12890176984459,1.286971627353301e-05,9.652867354415363e-06,-4.103121415875672e-05,3.64462073316158e-05,3.601373968603696e-05
162.7652079445542,273.2291128132873,12.5,0,4.81065990476861,4.072739519710509,-4.982237472278645,1.213592007949114e-05,9.184238539258738e-06,-3.985789977822916e-05,3.461193908361369e-05,3.502130495865825e-05
165.2178315067508,273.8240996006145,12.5,0,4.915831417636197,4.279981067537989,-5.087781132327753,1.230667568240544e-05,9.763274282012604e-06,-4.070224905862202e-05,3.576347621129458e-05,3.518673163283263e-05
158.9227098095199,270.2009528464391,12.5,0,5.248618595353802,3.716014094187016,-5.001336724959359,1.382276822978255e-05,7.692350225115409e-06,-4.001069379967487e-05,3.49446863500852e-05,3.539544296105318e-05
161.3997611117078,270.8018677742369,12.5,0,5.357319769690087,3.930387998525017,-5.110366448913619,1.399911286418826e-05,8.291385779527985e-06,-4.088293159130896e-05,3.613085513224875e-05,3.564925847302966e-05
158.5171393230656,272.198565467823,12.5,0,5.059520721336902,3.69969511674707,-4.955374488276322,1.323071021488043e-05,7.7914077965211e-06,-3.964299590621058e-05,3.419623365959249e-05,3.466295006751527e-05
160.9697628852621,272.7935522551502,12.5,0,5.169304366266376,3.916204173008064,-5.065490103159004,1.340881063364595e-05,8.396409860612706e-06,-4.052392082527204e-05,3.539453349634341e-05,3.488095811122552e-05
158.2202411209433,273.6609194004547,12.5,0,4.904378193912794,3.712615205491182,-4.881838064899442,1.272391805612799e-05,7.956866102441546e-06,-3.905470451919554e-05,3.363871629614259e-05,3.413557964497061e-05
160.6549823363527,274.2515664877632,12.5,0,5.006730883229228,3.916030227674217,-4.984008482687522,1.288871464419415e-05,8.525912021974114e-06,-3.987206786150018e-05,3.476149271239047e-05,3.432819159110684e-05
157.8146706344889,275.6585320218385,12.5,0,4.724689877609435,3.69761506821528,-4.837174717832577,1.216091555377797e-05,8.052616316201345e-06,-3.869739774266061e-05,3.293084362524066e-05,3.342726974964617e-05
160.224984109907,276.2432509686766,12.5,0,4.828079708194388,3.903091657618331,-4.940380571631883,1.232738174012738e-05,8.627429537823147e-06,-3.952304457305507e-05,3.406524979242393e-05,3.358630573515952e-05
144.6376273440108,161.243905393749,12.5,0,5.633890977081276,0.6130213034958588,0.9405373924760773,1.75380340838634e-05,-2.545444610478273e-06,7.524299139808618e-06,2.366605249240064e-05,2.300706228280561e-05
147.3660105475373,161.6336346732483,12.5,0,5.575320358512304,0.6562161251898586,1.131486648537084,1.731605224708748e-05,-2.360364686202296e-06,9.051893188296672e-06,2.363173481399477e-05,2.423296745424325e-05
145.3549554795276,163.3029764498042,12.5,0,5.972647495296641,0.6843956749453455,0.911106084224479,1.856495544499297e-05,-2.588051836412207e-06,7.288848673795833e-06,2.517692462843434e-05,2.432554983809223e-05
148.2418513573411,163.5984209923082,12.5,0,5.938303714709886,0.7286527332821221,1.086422303230474,1.841964970044594e-05,-2.418954225265118e-06,8.691378425843791e-06,2.522961940190673e-05,2.563113385763553e-05
143.3951785676193,157.6774897083309,12.5,0,5.063257607495162,0.5893336060217539,1.085508956351569,1.573095745916711e-05,-2.164738546726517e-06,8.684071650812548e-06,2.145858738153168e-05,2.073772039371356e-05
145.8490097656419,158.2305249426811,12.5,0,4.972418189458594,0.599523844846433,1.248287141186702,1.543211913039035e-05,-2.059458248058289e-06,9.986297129493612e-06,2.120200079640963e-05,2.188674554893371e-05
144.1125067031361,159.7365607643862,12.5,0,5.379567317986958,0.6601513592007371,1.053382023849937,1.668649433019768e-05,-2.191169504947208e-06,8.427056190799496e-06,2.28755284568028e-05,2.204570628063366e-05
146.7248505754458,160.1953112617412,12.5,0,5.317623524454042,0.6742683810880427,1.200436499836529,1.64769805733825e-05,-2.096440000081497e-06,9.603491998692231e-06,2.273053999716147e-05,2.322966163080929e-05
139.1450182595229,156.7196045840778,12.5,0,4.71179476335484,0.2529091620485375,1.036936958466131,1.487541591309666e-05,-2.960126492128551e-06,8.295495667729044e-06,1.905959065729977e-05,1.87513132067984e-05
141.5988494575455,157.272639818428,12.5,0,4.631746766423367,0.3050037505550436,1.195621001092507,1.457758665211074e-05,-2.729385411362554e-06,9.564968008740052e-06,1.897409575998723e-05,1.989758382974213e-05
139.5877943895359,158.9419815949841,12.5,0,5.056935328926038,0.3278391494995924,1.033721608903824,1.591992173296364e-05,-2.996462984742134e-06,8.269772871230595e-06,2.06033710034814e-05,2.001033048994472e-05
142.2001382618456,159.4007320923391,12.5,0,5.003697013558651,0.3805730714119435,1.180377420769204,1.570737198625813e-05,-2.785123782328701e-06,9.44301936615363e-06,2.061337947842604e-05,2.118308910129748e-05
139.9119290130703,160.5688744804714,12.5,0,5.326119259088152,0.276186405236398,0.8938841408984264,1.682263250489297e-05,-3.377098910514048e-06,7.151073127187411e-06,2.143068412425209e-05,2.092457640164603e-05
142.6403122165968,160.9586037599705,12.5,0,5.28088404744736,0.3260404101627921,1.051962353368065,1.663799662370131e-05,-3.181377925436953e-06,8.41569882694452e-06,2.145685082875083e-05,2.212058157204342e-05
140.3547051430833,162.7912514913776,12.5,0,5.634909598780894,0.3445842822360874,0.8883050425670072,1.775604329030999e-05,-3.405257975869235e-06,7.106440340536057e-06,2.282016131889833e-05,2.216332539998603e-05
143.2416010208968,163.0866960338815,12.5,0,5.609174195184645,0.3948031671726111,1.035644593125803,1.763351489085277e-05,-3.22396922119536e-06,8.285156745006426e-06,2.291636887343829e-05,2.339635336238815e-05
184.2712773232296,171.3789380363594,12.5,0,9.076063184179105,4.642935875046899,0.762074123987876,2.532905348933562e-05,7.59654425280679e-06,6.096592991903008e-06,5.012917144626426e-05,5.076942228925316e-05
185.4833295765551,169.8490825415975,12.5,0,9.381014768037398,4.646787970680744,0.8218638071841891,2.630181688117507e-05,7.364909691748463e-06,6.574910457473512e-06,5.129178012482448e-05,5.038553018022921e-05
185.4196055383576,172.9424395575241,12.5,0,9.428780072336922,4.800292019219995,0.6323337936143055,2.633186261610215e-05,7.817910403634448e-06,5.058670348914444e-06,5.198321596211198e-05,5.295827741834979e-05
186.6772242429344,171.4268998057369,12.5,0,9.721231773522872,4.800477293259463,0.6942371652863828,2.726755984066562e-05,7.584541919611982e-06,5.553897322291062e-06,5.308577176316936e-05,5.264537013263186e-05
182.171941239079,174.0287254814776,12.5,0,9.481122331277076,4.320553899928509,0.6115502021062448,2.688314834014383e-05,6.240874614749569e-06,4.892401616849958e-06,5.052694225237038e-05,5.126408462387564e-05
183.3839934924046,172.4988699867158,12.5,0,9.83344619537324,4.351619689231004,0.6919567495018423,2.798573207380956e-05,6.058426049240621e-06,5.535653996014738e-06,5.196605563215299e-05,5.100483024292767e-05
183.2413460455206,175.5674314084626,12.5,0,9.867666203258525,4.467951233189249,0.4851196798527281,2.800217086387588e-05,6.403310983598776e-06,3.880957438821825e-06,5.247779555814995e-05,5.332168856735487e-05
184.4989647500975,174.0518916566755,12.5,0,10.20545165605592,4.495027015517625,0.5673381470323575,2.906142368696484e-05,6.219725124811666e-06,4.53870517625886e-06,5.384762915233092e-05,5.313949639675447e-05
184.024204697661,176.6938423248751,12.5,0,10.13302591419817,4.637718982798518,0.4025100464620567,2.871550773919532e-05,6.734280013596721e-06,3.220080371696453e-06,5.405386483819661e-05,5.485761934769971e-05
185.315180359673,175.188782424293,12.5,0,10.51901548971484,4.670128536555168,0.5022779528163541,2.992474673784333e-05,6.529198925204669e-06,4.018223622530833e-06,5.562333363212157e-05,5.473886641982549e-05
185.0936095041027,178.2325482518601,12.5,0,10.56303969970436,4.798779918954079,0.2633351910566601,2.996270310389069e-05,6.90566398088956e-06,2.106681528453281e-06,5.621895021446455e-05,5.699625633320992e-05
186.4301516173659,176.7418040942527,12.5,0,10.93335395973901,4.826962837513239,0.3648819675732727,3.112516240115422e-05,6.699597912251162e-06,2.919055740586182e-06,5.771362308101467e-05,5.697376042931711e-05
186.2602401355604,174.0870021086792,12.5,0,9.77199399457759,4.991637334387258,0.5749060114493884,2.727707091513848e-05,8.155644274377154e-06,4.599248091595107e-06,5.392682512444053e-05,5.460248159994734e-05
187.5512157975724,172.5819422080972,12.5,0,10.11231387919093,4.996964945708475,0.654022616309327,2.836183245684421e-05,7.900436722914372e-06,5.232180930474616e-06,5.522742562547314e-05,5.434862427051752e-05
187.4085683506884,175.650503629844,12.5,0,10.16988684002701,5.162652552274169,0.4316088555091065,2.84135158462671e-05,8.38457869525573e-06,3.452870844072852e-06,5.60011195481255e-05,5.690567583318342e-05
188.7451104639516,174.1597594722365,12.5,0,10.49650207186233,5.164076245309634,0.5128186905922593,2.945754563371176e-05,8.127842327500961e-06,4.102549524738074e-06,5.723590039938942e-05,5.674216116121826e-05
195.753517935914,273.3478198201787,12.5,0,3.079695236271672,6.778162524754229,-4.403569372319509,4.432494736265967e-06,1.92263638901962e-05,-3.522855497855607e-05,3.775938886425888e-05,3.7640244132698e-05
197.9798467022858,272.0062338942108,12.5,0,2.924181771460149,7.135706761011802,-4.470577541847872,3.648816259863035e-06,2.049491621806964e-05,-3.576462033478298e-05,3.858740538437449e-05,3.832275548816311e-05
196.5215436778784,276.3373265686866,12.5,0,2.553067117767138,6.530076464955485,-4.174547092276858,2.945753604890452e-06,1.885379099364384e-05,-3.339637673821486e-05,3.497309256208013e-05,3.555321981942581e-05
198.7956934097911,274.6190852381127,12.5,0,2.351174240706721,6.840415916083932,-4.213461056513974,2.05142483739436e-06,2.00083915389032e-05,-3.370768845211179e-05,3.546980875140953e-05,3.637817099829802e-05
199.6096324735529,271.0241248337248,12.5,0,3.019465968667661,7.284369064730815,-4.36402884698404,3.834795847951862e-06,2.089440823220448e-05,-3.491223077587232e-05,3.936145454280478e-05,3.884960931728618e-05
201.8359612399248,269.6825389077571,12.5,0,2.838336108928213,7.627659307175609,-4.447567650708582,2.980548102829794e-06,2.213784089581937e-05,-3.558054120566865e-05,4.007332547457525e-05,3.960648939120871e-05
200.4604865574996,273.3612452845213,12.5,0,2.579188760391093,7.052237177379228,-4.174252495232334,2.611614291348114e-06,2.050380795930065e-05,-3.339401996185868e-05,3.694749225087293e-05,3.701011141788902e-05
202.7346362894124,271.6430039539474,12.5,0,2.354300704896573,7.340859136676798,-4.227292112070981,1.661074946327596e-06,2.160730867344849e-05,-3.381833689656785e-05,3.730666244495825e-05,3.791165357276921e-05
198.1359099703562,266.9761134696099,12.5,0,3.662754695027312,7.376891018564714,-4.823441942512942,5.819302209235626e-06,2.067584750338523e-05,-3.858753554010354e-05,4.21448190084756e-05,4.213482290865992e-05
200.2794103947457,266.2869138413536,12.5,0,3.622825009043933,7.797589697694626,-4.948568552577496,5.354968270784884e-06,2.205402702538765e-05,-3.958854842061997e-05,4.361699232620865e-05,4.258529713876792e-05
198.9867640543029,269.3132339204063,12.5,0,3.206487923053677,7.12608669513044,-4.615893183997584,4.559891997667415e-06,2.023828708597446e-05,-3.692714547198067e-05,3.958459253544046e-05,4.022277162263801e-05
201.1780854442333,268.247378887544,12.5,0,3.102591062182713,7.475206225757434,-4.700133458721748,3.948126418378732e-06,2.143858707267762e-05,-3.760106766977398e-05,4.056405365966241e-05,4.085878841038999e-05
194.4232583293349,268.1698422422859,12.5,0,3.805302671205109,7.009769419570077,-4.907444291824538,6.569153012200286e-06,1.938702000566016e-05,-3.92595543345963e-05,4.136462721805937e-05,4.134008415472658e-05
196.5667587537244,267.4806426140296,12.5,0,3.764649726930985,7.356016546358506,-5.019867379574048,6.162065889092345e-06,2.052753316680243e-05,-4.015893903659239e-05,4.255164413265521e-05,4.180116909519168e-05
195.1912840712993,271.1593489907939,12.5,0,3.284597279696116,6.772798959416218,-4.693746479780405,5.092472127494595e-06,1.9045278846375e-05,-3.754997183824324e-05,3.863190225207521e-05,3.919082975800205e-05
197.3826054612296,270.0934939579314,12.5,0,3.185467642259516,7.068528339589236,-4.773709124117136,4.53867378355906e-06,2.007091657287794e-05,-3.818967299293709e-05,3.942644001631939e-05,3.977584344873606e-05
181.3315030462442,164.4292740928779,12.5,0,8.052883261602378,4.007162175015297,1.078982832440167,2.256349669711537e-05,6.380612350767047e-06,8.631862659521337e-06,4.414256647738182e-05,4.310809111873401e-05
182.5305796665787,165.9922721979172,12.5,0,8.29261512156493,4.139322061452321,0.9778970043167252,2.322491073984592e-05,6.611738499395481e-06,7.823176034533802e-06,4.548094921334427e-05,4.513075653607282e-05
180.2334370254484,166.134151644477,12.5,0,7.824103060392238,4.017870826515921,1.061524049817113,2.182283313204242e-05,6.597904196537154e-06,8.492192398536907e-06,4.332021660345354e-05,4.376899817434797e-05
181.4011045560202,167.6423473109529,12.5,0,8.070297708167368,4.154219978153569,0.9571915252136822,2.250157668361272e-05,6.837265763557526e-06,7.657532201709458e-06,4.469685577997371e-05,4.571215953822707e-05
179.429596908195,167.3822086328781,12.5,0,8.555066696875457,3.789285223866743,0.9625080528556266,2.434478525090806e-05,5.281659358873211e-06,7.700064422845013e-06,4.526272605747002e-05,4.420491826522308e-05
180.5742713892421,168.8502861299487,12.5,0,8.842020961328039,3.902768670284,0.8604444453099095,2.517225214002252e-05,5.41524297584637e-06,6.883555562479276e-06,4.671694245127419e-05,4.609660852870959e-05
178.3315308873992,169.0870861844772,12.5,0,8.236717649085833,3.750870266998975,0.9085361674954511,2.335680026347548e-05,5.413410735128054e-06,7.268289339963608e-06,4.392684873117116e-05,4.473496704597061e-05
179.4447962786837,170.5003612429844,12.5,0,8.531636138520016,3.867926875401192,0.8028304419585228,2.42068941429431e-05,5.552057090467801e-06,6.422643535668182e-06,4.542324118068242e-05,4.656553970151681e-05
181.4122312674605,169.9249934472072,12.5,0,9.191159604453398,4.047999826171957,0.8317505131025856,2.617331087331331e-05,5.600671760187543e-06,6.654004104820685e-06,4.852399662586809e-05,4.751480476160671e-05
182.5569057485077,171.3930709442778,12.5,0,9.481738172022261,4.172623717800716,0.7241748274476121,2.700346317623066e-05,5.767005359344479e-06,5.793398619580897e-06,5.003275861574724e-05,4.949769866166265e-05
180.2597631073774,171.5349503908376,12.5,0,8.893437406822432,4.027387887976716,0.7780507360612924,2.523708939145041e-05,5.772891316067545e-06,6.224405888490339e-06,4.732729278969248e-05,4.792774366361345e-05
181.3730284986619,172.9482254493448,12.5,0,9.192269308604502,4.156074212708575,0.6666193336789158,2.609040241736754e-05,5.945622033783841e-06,5.332954669431326e-06,4.888125506330854e-05,4.981878144294515e-05
183.4083646747941,167.1364662228912,12.5,0,8.695632687749637,4.315926992442278,0.9651363898752798,2.437328300684501e-05,6.854460225615578e-06,7.721091119002239e-06,4.759836705271235e-05,4.665031485206912e-05
184.6074412951285,168.6994643279304,12.5,0,8.987483580453434,4.45987553949627,0.849608506751909,2.519204702585397e-05,7.081614862025317e-06,6.796868054015272e-06,4.917455181714657e-05,4.877915995927249e-05
182.2558965147109,168.7464231665216,12.5,0,8.425648674801833,4.318488720611823,0.9267943601602214,2.35072847828764e-05,7.078644966116366e-06,7.414354881281771e-06,4.65906687125993e-05,4.717251874317581e-05
183.4235640452828,170.2546188329975,12.5,0,8.725469674042195,4.466994682656779,0.8074414067139358,2.43479072108096e-05,7.314007245267935e-06,6.459531253711487e-06,4.821239145576061e-05,4.921913292468718e-05
201.0904057657085,209.0691115825747,12.5,0.02435568844686298,15.42977922790427,10.66951450040811,-3.659633645908292,4.185919135217845e-05,2.234279722728165e-05,-3.000793303520614e-05,9.771827176966115e-05,0.000102410786687391
202.3388928480114,207.6303457380562,12.5,0.07563667000468921,15.51045260713396,10.14827636178855,-3.24573100451183,4.491180676066892e-05,2.170804663153176e-05,-2.809052154440869e-05,0.0001013719301924329,0.000107887318811607
202.3702003676407,210.5162680938894,12.5,0.07708025312948419,15.6109754956918,10.53819515839342,-3.868167342989457,4.499260699568155e-05,2.300681525376934e-05,-3.352982623770562e-05,0.0001035824912875792,0.0001080499806031122
203.6127839886145,209.1067150710053,12.5,0.1328626999355904,15.50713896376645,9.935612843417999,-3.42096624028601,4.805969528265332e-05,2.235891585621367e-05,-3.156101106509344e-05,0.0001072353530602037,0.0001147347209760837
203.2528488248116,206.5770960397188,12.5,0.1110426776083694,15.76832037234128,11.02500479801742,-3.497746102923545,4.683984293087833e-05,2.549656601602015e-05,-3.147729156232867e-05,0.0001100150909655002,0.0001120236629683084
204.5013359071145,205.1383301952003,12.5,0.1566794449265283,15.84515924038664,10.42121229432433,-3.126817696609309,5.023895063258199e-05,2.451233024638842e-05,-2.966196118710181e-05,0.0001136865381585298,0.0001178478332382716
204.5224183317816,208.0748506423358,12.5,0.1702931415902676,15.78638189877225,10.82219072135775,-3.706927182242595,5.04499499729506e-05,2.651768460911266e-05,-3.574204209277018e-05,0.0001171519454696732,0.0001197044344944673
205.7650019527553,206.6652976194517,12.5,0.2173390874816995,15.7164543702478,10.16921859265807,-3.313748131373507,5.386404052684917e-05,2.551339370718947e-05,-3.387160982102602e-05,0.0001208127151314641,0.0001265972039533589
201.0538899350391,203.9829089707625,12.5,0.01051267865838812,15.56177131526098,10.61281069767557,-3.324111770933916,4.174628492933832e-05,2.174012411921178e-05,-2.687542689421723e-05,9.655978198176825e-05,0.0001010264973578452
202.3126021123042,202.4935450349416,12.5,0.04961471431573317,15.85256015234077,10.16213148428817,-3.005895615275072,4.482233462757107e-05,2.087234822198164e-05,-2.530254338364138e-05,9.992454602943141e-05,0.0001050370024902711
202.323459442009,205.4806635733795,12.5,0.06785558784500956,15.70947231000422,10.52017127944788,-3.565745176919385,4.490095506949838e-05,2.263272725891961e-05,-3.060251291900893e-05,0.0001027965396567818,0.0001070189247964269
203.576268157945,204.0205124591932,12.5,0.1114310420461272,15.82483202651648,9.995061709258366,-3.219136463846192,4.799111282892659e-05,2.174770081200242e-05,-2.898265968020281e-05,0.0001061536918187251,0.0001120707946677647
200.1324486692146,205.0731990426977,12.5,0,15.65296407060837,9.779150831995729,-3.244395334257692,4.22661643603502e-05,1.877091140589963e-05,-2.595516267406154e-05,9.293845013998929e-05,9.821762301948554e-05
201.4063398098177,206.5495683756468,12.5,0.03461620120468345,15.73718080638246,9.680776141390883,-3.366213712479226,4.414239986261296e-05,1.904811229512221e-05,-2.789534041635965e-05,9.626759092392926e-05,0.0001034615757529685
198.8737364919495,206.5625629785185,12.5,0,15.04780080170816,9.713040916364598,-3.403069869754968,4.038252983237442e-05,1.904349029100019e-05,-2.722455895803975e-05,9.050503432546801e-05,9.45541407471101e-05
200.1535310938817,208.0097194898332,12.5,0,15.69369142848706,9.962859777520201,-3.649414552430136,4.224952474914242e-05,1.932619814527499e-05,-2.919531641944108e-05,9.382995763627491e-05,9.879458729690806e-05
172.9542912013014,246.8969766219992,12.5,0,8.214785169255112,4.528944952145218,-5.729623533500121,2.266415657990018e-05,7.920795711460608e-06,-4.583698826800096e-05,4.869091359774614e-05,4.880512323120718e-05
175.3554009844749,247.4946643866675,12.5,0,8.437763574669027,4.922392504714502,-5.963498474509808,2.306292943516928e-05,9.001445155351184e-06,-4.770798779607846e-05,5.097434530207298e-05,4.962170824833133e-05
173.0145491621602,249.0550102113501,12.5,0,7.742554030117718,4.40258744659395,-5.605805984352865,2.125410293910153e-05,7.894236605006464e-06,-4.484644787482292e-05,4.649278488890515e-05,4.783834281360996e-05
175.4318942530603,249.6273422114011,12.5,0,7.957416494156758,4.791475770842087,-5.836298214742454,2.163055216462795e-05,8.966789271369272e-06,-4.669038571793963e-05,4.873093492946443e-05,4.858659617423963e-05
172.8499213515351,243.1591528008703,12.5,0,8.841100384403166,4.391898977657666,-5.681886677497208,2.4778002047964e-05,6.981196420981998e-06,-4.545509341997766e-05,5.044617241106281e-05,5.041960530359142e-05
175.2229107568504,243.8007580381196,12.5,0,9.084312433107856,4.789477618677243,-5.931073988214435,2.523821769100334e-05,8.058878433280891e-06,-4.744859190571548e-05,5.282100690445428e-05,5.136080835002416e-05
172.9101793123941,245.3171863902212,12.5,0,8.333691088300581,4.256673828090981,-5.556653734653555,2.326247242008907e-05,6.954403379250671e-06,-4.445322987722843e-05,4.808355112742147e-05,4.949677043082894e-05
175.2994040254358,245.9334358628533,12.5,0,8.568046969152496,4.649482136552757,-5.802285203034431,2.369816459204578e-05,8.023905261646827e-06,-4.641828162427544e-05,5.040972443787679e-05,5.036505616044225e-05
168.7397831357804,242.0478599315721,12.5,0,8.915239854020147,3.881109636353724,-5.509504407442001,2.542387982378149e-05,5.287358953115799e-06,-4.4076035259536e-05,4.890262838733504e-05,4.879427429489005e-05
171.1127725410956,242.6894651688215,12.5,0,9.137988738232202,4.244577115314917,-5.737898543789676,2.584590227009111e-05,6.272255778421972e-06,-4.590318835031741e-05,5.106771280398099e-05,4.973190457619267e-05
168.771920718781,244.249810993504,12.5,0,8.441235751696144,3.758525534794232,-5.395013029412603,2.400513397759227e-05,5.274293109984625e-06,-4.316010423530082e-05,4.670630515449335e-05,4.798157062183917e-05
171.1611454318227,244.8660604661362,12.5,0,8.655938608136493,4.117749264833254,-5.620229080184215,2.440480413417017e-05,6.252046760957215e-06,-4.496183264147372e-05,4.882733929655704e-05,4.885811740560885e-05
168.7954470623688,245.8617510465499,12.5,0,8.344033907073095,4.028348428958028,-5.582906539226745,2.347822975946748e-05,6.21548784700721e-06,-4.466325231381396e-05,4.738386025993978e-05,4.73696322980584e-05
171.1965568455424,246.4594388112183,12.5,0,8.552301067392783,4.390939843507896,-5.802831327341093,2.385461154085058e-05,7.20916664531104e-06,-4.642265061872874e-05,4.949356915095428e-05,4.820168129905677e-05
168.8275846453693,248.0637021084819,12.5,0,7.890073200256845,3.910785999435875,-5.468821471312112,2.21196054412732e-05,6.202456637989322e-06,-4.375057177049689e-05,4.528357869100066e-05,4.651048937937058e-05
171.2449297362694,248.636034108533,12.5,0,8.090763171313569,4.26925885892459,-5.685671276090009,2.247503506106374e-05,7.189017811507831e-06,-4.548537020872007e-05,4.735141532562699e-05,4.728205167454135e-05
145.1426247149953,169.2476667846301,12.5,0,6.773785999104104,0.4553863199787123,0.4792580189078954,2.131180614115016e-05,-3.961792575351403e-06,3.834064151263163e-06,2.745501461821087e-05,2.713962357302755e-05
147.6700192659264,169.6215538447329,12.5,0,6.773856272728414,0.5809842016893028,0.5565383906874631,2.121155271137948e-05,-3.559935572776962e-06,4.452307125499705e-06,2.785600957473283e-05,2.841155478255164e-05
144.9162787498628,171.7218466986722,12.5,0,7.02435314278828,0.530600740239682,0.5427114219634632,2.205344946473075e-05,-3.921560145463642e-06,4.341691375707706e-06,2.865750523419674e-05,2.818580211613188e-05
147.2446714770085,172.1495702809748,12.5,0,7.01573819284496,0.6635285812869571,0.6239062475688338,2.191953935207431e-05,-3.489299094157705e-06,4.991249980550671e-06,2.905051426748203e-05,2.940865385728108e-05
145.5346674266859,164.9622614665197,12.5,0,6.182495933726006,0.5238748799518191,0.7208012134142449,1.936488708396176e-05,-3.269597131134983e-06,5.766409707313959e-06,2.543684459446098e-05,2.521992597189929e-05
148.406743247206,165.2429009348715,12.5,0,6.188033211842232,0.6655652742139301,0.8376563538023164,1.9269254058524e-05,-2.820617691989209e-06,6.701250830418531e-06,2.59246970395809e-05,2.65451959281856e-05
145.3083214615534,167.4364413805619,12.5,0,6.495806001268244,0.6144014377890572,0.784777011614499,2.029505805382713e-05,-3.230560200089612e-06,6.278216092915991e-06,2.693106021151264e-05,2.634491945535443e-05
147.9813954582881,167.7709173711134,12.5,0,6.492171537807829,0.763191098482614,0.9078129540542501,2.016439604219896e-05,-2.751525715101898e-06,7.262503632434001e-06,2.74094589002547e-05,2.76442935429139e-05
140.5600861824444,164.4761796487341,12.5,0,5.854269128659668,0.2579176784199968,0.6947922870887701,1.852732706897494e-05,-3.858078731983744e-06,5.558338296710161e-06,2.335050491432306e-05,2.30436009165736e-05
143.4321620029645,164.7568191170859,12.5,0,5.852819523498021,0.3763082165414244,0.8172462887126916,1.842797590196053e-05,-3.478069325865858e-06,6.537970309701533e-06,2.373516214549323e-05,2.42816764163462e-05
140.678421486901,166.8571119710251,12.5,0,6.164465788239789,0.3300396985271903,0.7326620164118698,1.946225876354557e-05,-3.875445595304821e-06,5.861296131294959e-06,2.4768076945304e-05,2.420980935431206e-05
143.3514954836356,167.1915879615766,12.5,0,6.152919739792438,0.4548062727328339,0.8628937174173118,1.932549814914953e-05,-3.466955719088881e-06,6.903149739338494e-06,2.513666060888906e-05,2.542465219062974e-05
140.7650489420886,168.6000754002509,12.5,0,6.437611351873302,0.2369661932753551,0.4857798419840792,2.041078337137428e-05,-4.391797263017506e-06,3.886238735872633e-06,2.549102913509653e-05,2.50464790528761e-05
143.2924434930197,168.9739624603538,12.5,0,6.422279212622187,0.3163736565713864,0.5759886730291099,2.029819455513389e-05,-4.125427669069313e-06,4.60790938423288e-06,2.568841399257493e-05,2.623795424881947e-05
140.8833842465452,170.9810077225418,12.5,0,6.705480116392939,0.2995459546779784,0.516075926580344,2.121789960871502e-05,-4.40583703814482e-06,4.128607412642751e-06,2.671506922332829e-05,2.616609474086513e-05
143.2117769736909,171.4087313048446,12.5,0,6.678972471393546,0.3833293801736755,0.6127613863981434,2.106604840432041e-05,-4.116523960559076e-06,4.902091091185147e-06,2.688491192867923e-05,2.731696101950509e-05
164.8196463227081,229.4147529798043,12.5,0,10.36241878916519,2.942048574442171,-4.786860298596153,3.080610126577488e-05,1.124620406882794e-06,-3.829488238876923e-05,5.065900719860692e-05,5.023664578329747e-05
167.3139507242807,230.2094483271922,12.5,0,10.60324001041608,3.278999626047782,-5.018716155201437,3.130716833249324e-05,2.010206795020035e-06,-4.01497292416115e-05,5.277897721345356e-05,5.1607491163426e-05
164.7325135862243,231.605203793318,12.5,0,9.902453047192058,2.836770503944712,-4.696085561042244,2.941843334785881e-05,1.155703174869432e-06,-3.756868448833795e-05,4.856566266691835e-05,4.971208251700788e-05
167.2261785018587,232.4100168079975,12.5,0,10.14542728538824,3.174240669053031,-4.92838353604276,2.992597477799995e-05,2.041228312659105e-06,-3.942706828834208e-05,5.069661989251959e-05,5.10011819943561e-05
164.9705646492978,225.6207808793862,12.5,0,10.76387436683983,2.809306383229485,-4.537337428836168,3.219695286730385e-05,3.786809328624931e-07,-3.629869943068935e-05,5.157371327199193e-05,5.101444189292883e-05
167.4659766730062,226.3979519129713,12.5,0,10.99371810994098,3.135476924138669,-4.761283711593885,3.26715164125002e-05,1.238551669290955e-06,-3.809026969275108e-05,5.360710131544199e-05,5.252191417869143e-05
164.883431912814,227.8112316928999,12.5,0,10.31842073104208,2.707370089195261,-4.449223520560199,3.085305026797843e-05,4.088477005911731e-07,-3.559378816448159e-05,4.954166549431604e-05,5.058561192631972e-05
167.3782044505842,228.5985203937765,12.5,0,10.55034890961158,3.034043176473531,-4.673598788743226,3.133388196957824e-05,1.268659037026031e-06,-3.738879030994581e-05,5.158560868386376e-05,5.201497012410999e-05
160.6483842384944,224.2746811630703,12.5,0,10.55375060400168,2.32223442651418,-4.274105651553749,3.191421439159402e-05,-1.011850318355964e-06,-3.419284521242999e-05,4.908239263203778e-05,4.848826954060078e-05
163.1437962622028,225.0518521966553,12.5,0,10.76029797587412,2.612891757110158,-4.475835440421046,3.234264011710904e-05,-2.46984757946788e-07,-3.580668352336837e-05,5.08938955406399e-05,4.993363006963195e-05
160.5623591241464,226.4476076627811,12.5,0,10.15476304251783,2.230766792136497,-4.196410836756567,3.071062830234785e-05,-9.8535669917747e-07,-3.357128669405254e-05,4.726164938521385e-05,4.818070259995862e-05
163.0571316619164,227.2348963636578,12.5,0,10.36319257966981,2.521878515137955,-4.398522345540269,3.114471344283301e-05,-2.205428152943895e-07,-3.518817876432215e-05,4.908237768398588e-05,4.955822303969047e-05
160.4993843697193,228.0383002616147,12.5,0,10.2168201430819,2.45352048439864,-4.526996472557921,3.073100807034316e-05,-3.221905643898716e-07,-3.621597178046337e-05,4.839435968623334e-05,4.792236164212674e-05
162.9936887712919,228.8329956090026,12.5,0,10.43552277349401,2.756458071368702,-4.738128704066611,3.118850641808585e-05,4.722476095846422e-07,-3.790502963253289e-05,5.030170899838582e-05,4.924921830409197e-05
160.4133592553712,230.2112267613256,12.5,0,9.800141200045971,2.357953937531367,-4.446292671927035,2.947408869012201e-05,-2.946603599364049e-07,-3.557034137541628e-05,4.64969852340285e-05,4.752412796026619e-05
162.9070241710056,231.016039776005,12.5,0,10.02081005501974,2.661366286751032,-4.657821621077224,2.993749914666232e-05,4.997240735875156e-07,-3.726257296861779e-05,4.841406261409765e-05,4.878040869656311e-05
203.9077283940111,227.4696984969179,12.5,0,13.72944662231646,9.988568105496036,-5.001388636524545,3.594337470701585e-05,2.097986063973414e-05,-4.001110909219636e-05,8.712147502178174e-05,9.460179172864488e-05
205.551604248892,226.5362085044424,12.5,0.03544848868641992,13.605519618997,10.25920889468317,-4.557279729277023,3.662872874143248e-05,2.275156122859891e-05,-3.779812421273937e-05,9.067677920392657e-05,0.0001035477580036058
204.9453176563175,229.3292808028494,12.5,0,14.03861354643738,9.767323258495882,-4.868719026737254,3.710970474180291e-05,2.002454359003691e-05,-3.894975221389803e-05,8.742728099297353e-05,9.469809125899879e-05
206.6401231367086,228.1771471211042,12.5,0.04885013452882003,13.70476723618624,9.840870790605994,-4.378985879926416,3.7830587828014e-05,2.158121815096041e-05,-3.683109077879884e-05,9.07235383232325e-05,0.0001049555314899284
201.0604518920727,229.0865505922135,12.5,0,12.92437608943912,9.005159881927936,-5.318005630078715,3.415387558066283e-05,1.847701075061809e-05,-4.254404504062972e-05,8.086511151769943e-05,8.432107091863032e-05
202.7043277469537,228.153060599738,12.5,0,13.17512004760862,9.521450740069104,-5.129266931988139,3.454322356029229e-05,1.992854633013424e-05,-4.103413545590511e-05,8.35079268334985e-05,8.945001645126013e-05
202.0098284553868,231.3248348767078,12.5,0,13.13442635150841,8.829659340968675,-5.14605823314756,3.496643685205197e-05,1.774736880989303e-05,-4.116846586518048e-05,8.094795044689872e-05,8.322294025471637e-05
203.7046339357779,230.1727011949625,12.5,0,13.38186542066761,9.297700922389158,-4.958863808983208,3.538380860822503e-05,1.904715061511121e-05,-3.967091047186566e-05,8.341242926721728e-05,8.887486098826928e-05
202.7048203352184,232.9633726946709,12.5,0,12.10860922243799,9.03585805971008,-5.552651517555187,3.151886306403351e-05,1.922785841312186e-05,-4.44212121404415e-05,7.810898763091882e-05,8.216062152952933e-05
204.4369088890917,231.6511807236326,12.5,0,12.42862273150945,9.572620113724485,-5.316125142881751,3.211349664985064e-05,2.068948617871079e-05,-4.252900114305401e-05,8.104792563693593e-05,8.817456334604741e-05
203.6541968985325,235.2016569791651,12.5,0,12.34837770895473,8.874575141154404,-5.391544628421941,3.241514855573162e-05,1.85199382845303e-05,-4.313235702737553e-05,7.834275255120907e-05,8.03564434622771e-05
205.4372150779159,233.6708213188572,12.5,0,12.66291077346076,9.367905382393413,-5.160047846959614,3.302699016915968e-05,1.984696860489032e-05,-4.128038277567692e-05,8.111501901929315e-05,8.683647006998613e-05
205.7048857136815,230.6905895315896,12.5,0,13.28156284984474,10.13932047682399,-5.210274556245163,3.438954473804396e-05,2.182057524596098e-05,-4.16821964499613e-05,8.609886150121466e-05,9.450633081162254e-05
207.4369742675547,229.3783975605513,12.5,0.05663574553771755,13.03613010884563,10.18094533320123,-4.580667236759737,3.558631771656476e-05,2.347992397888025e-05,-3.884537464795689e-05,9.022634187368278e-05,0.0001057910994135027
206.7424749759879,232.5501718375211,12.5,0,13.70174218329779,9.973859283666402,-5.119363686369382,3.586648755961981e-05,2.095495596109425e-05,-4.095490949095506e-05,8.701344394723573e-05,9.388613199613229e-05
208.5254931553713,231.0193361772131,12.5,0.06465831099026143,13.30978530544083,9.886330640898676,-4.474130285634147,3.707976333377203e-05,2.24393182225673e-05,-3.826734412209066e-05,9.091679345299799e-05,0.0001066661399476572
157.3186167926933,297.6185852379873,12.5,0,3.045315195831824,3.69819684396029,-3.971869558877445,6.786451151493604e-06,9.397977744007467e-06,-3.177495647101956e-05,2.645012960737315e-05,2.675186618243648e-05
159.2588148040876,297.5705613467617,12.5,0,3.063129241033365,3.777816008409332,-4.00491238227931,6.7797607645793e-06,9.638507834083167e-06,-3.203929905823448e-05,2.681189524696948e-05,2.682423472207096e-05
156.497831570736,299.361901837695,12.5,0,2.978835813262068,3.710744081299649,-3.960200277506476,6.5636793373989e-06,9.49131240954922e-06,-3.16816022200518e-05,2.626062331697438e-05,2.62546388978622e-05
158.6432819488093,299.3490338748241,12.5,0,2.996203804782402,3.782020610477227,-3.99012682268867,6.562235686921906e-06,9.705502909701203e-06,-3.192101458150936e-05,2.658967042827899e-05,2.631302730114198e-05
160.6791383251119,297.5354054184087,12.5,0,2.901962613510934,3.889688500670779,-3.940002239259444,6.174529562698365e-06,1.012543311133774e-05,-3.152001791407555e-05,2.659930484446864e-05,2.68723392287304e-05
162.6193363365061,297.487381527183,12.5,0,2.926804867786556,3.999397690076355,-3.980752520174665,6.166257424855895e-06,1.045662871401509e-05,-3.184602016139732e-05,2.709617362608851e-05,2.693139464536812e-05
160.21386063061,299.3396138722131,12.5,0,2.812732671204021,3.890219082302571,-3.913796644067677,5.888569282010809e-06,1.019851492640501e-05,-3.131037315254142e-05,2.628122037257022e-05,2.634961416315035e-05
162.3593110086834,299.3267459093422,12.5,0,2.836905365884151,3.989158774057583,-3.951069463364832,5.886770151583218e-06,1.049578378427694e-05,-3.160855570691866e-05,2.673583150757106e-05,2.639118292577122e-05
161.4850229316031,294.4104247090304,12.5,0,3.087607452422995,3.974820726712989,-4.07103657042864,6.700487266383194e-06,1.024934036354317e-05,-3.256829256342912e-05,2.762857212751774e-05,2.780525124772901e-05
163.0697134155418,294.301508963708,12.5,0,3.102835695484869,4.063066211596404,-4.108483152373648,6.678621256274458e-06,1.051954332072059e-05,-3.286786521898918e-05,2.801628905079534e-05,2.788838475198822e-05
161.0197452371013,296.2146331628348,12.5,0,2.984503771601151,3.971442012343269,-4.046845101946195,6.373258459249067e-06,1.032101142221754e-05,-3.237476081556956e-05,2.725191233433869e-05,2.72623760100039e-05
162.809688087719,296.1408733458672,12.5,0,3.000392093572702,4.049343241518186,-4.080444924693918,6.361780106218097e-06,1.055758469800003e-05,-3.264355939755134e-05,2.760298715919474e-05,2.733256866559688e-05
158.7402584991995,294.5990723136695,12.5,0,3.19706822733916,3.796383739123789,-4.097420858027639,7.193511336186281e-06,9.590773383324797e-06,-3.277936686422111e-05,2.740768118343818e-05,2.764493813253062e-05
160.3249489831383,294.4901565683472,12.5,0,3.210484494104631,3.872622857299761,-4.128261650528915,7.175452095295009e-06,9.824005548075528e-06,-3.302609320423133e-05,2.774104089303979e-05,2.774001992264729e-05
157.9194732772422,296.3423889133773,12.5,0,3.119484805356829,3.81093108494433,-4.083879221557221,6.933606509186389e-06,9.699391627536393e-06,-3.267103377245777e-05,2.718579497764526e-05,2.71243957395919e-05
159.7094161278601,296.2686290964098,12.5,0,3.133177979606066,3.877413730601967,-4.111256548441496,6.924238550257839e-06,9.901181554241441e-06,-3.289005238753197e-05,2.748375962201177e-05,2.720659624259658e-05
128.2615415515502,113.8404142167283,12.5,0,-2.22183360334161,0.1562188273933688,2.077977537967559,-7.234842592607847e-06,2.277367130332068e-06,1.662382030374047e-05,2.057450749779348e-06,2.068911576047953e-06
130.1065767444794,113.0270446264626,12.5,0,-2.217026336193159,0.01097859977100069,2.089462362581677,-7.103267155634909e-06,1.808752588221729e-06,1.671569890065342e-05,1.940481765804086e-06,2.124849666126249e-06
129.9284692526603,114.9689380742952,12.5,0,-2.111610169791007,0.3354714308755264,1.998250890683578,-7.025529688031644e-06,2.76279671463449e-06,1.598600712546862e-05,2.172953853844211e-06,2.193479064991685e-06
131.5989769846113,114.267385843834,12.5,0,-2.108486198298234,0.1686816366695916,2.012792226113365,-6.882101143890023e-06,2.22657019598128e-06,1.610233780890692e-05,2.021402060371499e-06,2.244931209477456e-06
131.148745022365,115.7950748755528,12.5,0,-1.883744059807772,0.2113958485276974,2.097003934014458,-6.197097670207027e-06,2.183461963134849e-06,1.677603147211566e-05,2.248801956019848e-06,2.303110923637078e-06
132.6914897855693,115.1753786336331,12.5,0,-1.88108770106755,0.09790393615186821,2.109561301024052,-6.097803792337654e-06,1.818162756540018e-06,1.687649040819241e-05,2.149217777954813e-06,2.351228128137699e-06
132.8156727234752,116.9235987331198,12.5,0,-1.77313028748046,0.3854931732171381,2.017707674430589,-5.982411458511181e-06,2.652082384279209e-06,1.614166139544471e-05,2.389477442547366e-06,2.478063242653507e-06
134.183890025701,116.4157198510044,12.5,0,-1.772958582646754,0.2497160370864795,2.034304409536519,-5.873240294138797e-06,2.217458184794138e-06,1.627443527629216e-05,2.253543890569176e-06,2.521555167266639e-06
133.8208573352975,114.7217294993076,12.5,0,-2.054534891692954,0.3523955511714402,2.108063342779368,-6.856428094354606e-06,2.771293677102972e-06,1.686450674223495e-05,2.350752995593241e-06,2.386070921674991e-06
135.3636020985017,114.1020332573879,12.5,0,-2.032587024093523,0.2513544502498565,2.137957287704605,-6.705362037299158e-06,2.430403860074359e-06,1.710365830163684e-05,2.287456928072531e-06,2.433145999399934e-06
135.1854946066826,116.0439267052205,12.5,0,-1.898247690861154,0.5025572845812056,2.015985996324674,-6.476438438420657e-06,3.126781463348781e-06,1.612788797059739e-05,2.473422651350784e-06,2.553781619937926e-06
136.5537119089085,115.5360478231052,12.5,0,-1.876940244382292,0.3826587074372935,2.052653888423971,-6.312335747973169e-06,2.726060059305173e-06,1.642123110739177e-05,2.385468883094917e-06,2.598334001374204e-06
131.4572362473989,112.4316167610821,12.5,0,-2.4502434682178,0.277219582425567,2.107869103242685,-8.062554764237415e-06,2.847297438336054e-06,1.686295282594148e-05,2.153319781834858e-06,2.165060799571999e-06
133.3022714403281,111.6182471708165,12.5,0,-2.414163898121608,0.1790410022110194,2.143973672577089,-7.868557275757959e-06,2.504262325572548e-06,1.715178938061671e-05,2.10964607556537e-06,2.218981569102094e-06
132.8218735187839,113.753813966995,12.5,0,-2.306126735285634,0.4037471347742521,2.02635739176373,-7.702603260733429e-06,3.136892219506113e-06,1.621085913410984e-05,2.223227386678451e-06,2.28191349178002e-06
134.4923812507349,113.0522617365337,12.5,0,-2.268636543941187,0.2913974929717866,2.068370133129191,-7.492754934989226e-06,2.747381212662666e-06,1.654696106503353e-05,2.166334342765054e-06,2.331498821529003e-06
187.0786474990472,203.1527691412149,12.5,0,13.68969569706321,5.579082744826318,-2.825231715801922,3.93437600347412e-05,6.90130822579365e-06,-2.260185372641538e-05,7.103652340797139e-05,7.264237166539956e-05
188.5890460393859,201.841856283578,12.5,0,14.24429763758872,5.839794838528789,-2.557295150439023,4.090991656946088e-05,7.291905373221145e-06,-2.045836120351218e-05,7.393921626088879e-05,7.441239956383907e-05
187.6891139822312,205.0717992226625,12.5,0,14.37772633537951,5.705896844302012,-2.851918694058047,4.144400679777281e-05,6.756688833462832e-06,-2.281534955246437e-05,7.405797626976551e-05,7.374755432832136e-05
189.4181474605178,203.65810988459,12.5,0,14.84934043945524,5.933587316508483,-2.613135367882441,4.277101955304998e-05,7.108007061262952e-06,-2.090508294305953e-05,7.654558742684189e-05,7.593817483337738e-05
189.6947345105448,200.8822014675332,12.5,0,14.08555561163224,6.266559082218079,-2.577374042439572,4.00605306914487e-05,8.784544573792056e-06,-2.061899233951657e-05,7.479855013204631e-05,7.570954466570493e-05
191.2051330508835,199.5712886098963,12.5,0,14.59810042718713,6.412146833634471,-2.351873475860785,4.158420390009123e-05,8.840389525880603e-06,-1.881498780688628e-05,7.717143746140297e-05,7.748338309050272e-05
190.6838878145574,202.6232174630465,12.5,0,14.70358482665348,6.410547198296506,-2.702240057468931,4.192303368665391e-05,8.750883173226035e-06,-2.161792045975145e-05,7.763683121420097e-05,7.758213539319523e-05
192.412921292844,201.209528124974,12.5,0,15.14379493656034,6.536501707210962,-2.497082235831751,4.323094243122432e-05,8.801769513826804e-06,-1.997665788665401e-05,7.967476716133248e-05,7.988289866339193e-05
187.9814707315511,197.8666733065682,12.5,0,13.65755311919933,5.684218468255345,-2.121337965997821,3.915679520683358e-05,7.263456603057638e-06,-1.697070372798257e-05,7.1112396301024e-05,7.235091050727374e-05
189.1131824510612,196.7337745348655,12.5,0,14.15758221043388,5.798209688313957,-1.937334122839885,4.066569532273724e-05,7.22820523425756e-06,-1.549867298271908e-05,7.334828508010423e-05,7.339057678668043e-05
188.9706240355637,199.6076893020816,12.5,0,14.35690583968818,5.86773943109676,-2.275958432860922,4.124790714212477e-05,7.291241507759085e-06,-1.820766746288738e-05,7.439783048707717e-05,7.430784218214029e-05
190.3209706930217,198.3720140499433,12.5,0,14.76703438507241,5.960381785518171,-2.11042688341038,4.248620460381718e-05,7.259594205600217e-06,-1.688341506728304e-05,7.622500622427267e-05,7.57437706866891e-05
186.0212885338737,199.8289115389545,12.5,0,13.55461011744634,5.248539778624203,-2.368223521105747,3.917592055292893e-05,5.951639197640372e-06,-1.894578816884597e-05,6.930090047423217e-05,7.0508894605646e-05
187.1530002533838,198.6960127672517,12.5,0,14.05282132368594,5.432063243658041,-2.163867958826346,4.062337764086856e-05,6.14034532075698e-06,-1.731094367061076e-05,7.175530473421652e-05,7.157876609404645e-05
186.6317550170577,201.747941620402,12.5,0,14.27857967685567,5.401058835240498,-2.419690162168645,4.137060789774575e-05,5.860524531285053e-06,-1.935752129734916e-05,7.255467214020829e-05,7.177457540817649e-05
187.9821016745157,200.5122663682638,12.5,0,14.68032893038622,5.553362762543729,-2.241736373367713,4.253436236720091e-05,6.026497695830958e-06,-1.79338909869417e-05,7.454640838263251e-05,7.32442995126945e-05
164.9821752992002,221.6463704451944,12.5,0,11.12663893978563,2.676757111554535,-4.245597487246816,3.346383891807039e-05,-3.356883948539948e-07,-3.396477989797453e-05,5.234098311194148e-05,5.156196724319709e-05
167.4843751807268,222.396606736216,12.5,0,11.34164120492286,2.995525484075408,-4.457897120651524,3.389683146849283e-05,5.123685851030155e-07,-3.566317696521219e-05,5.428221470871448e-05,5.320613945740414e-05
164.9970228599371,223.968911286665,12.5,0,10.67496197256087,2.562249673234514,-4.145141762699001,3.211007857360716e-05,-3.4077062369825e-07,-3.3161134101592e-05,5.023472959101811e-05,5.127605551160381e-05
167.4944250344068,224.7361541569521,12.5,0,10.8939567112139,2.882546281657754,-4.358650564579436,3.255462445055828e-05,5.089827323336905e-07,-3.486920451663549e-05,5.219694221911961e-05,5.284108703958638e-05
164.9564585696359,217.6236117051858,12.5,0,11.41479591904778,2.535278236313535,-3.894538121988701,3.449912435190205e-05,-1.018946379034908e-06,-3.115630497590961e-05,5.279123350399085e-05,5.185721155780249e-05
167.4669683235447,218.3443917368573,12.5,0,11.60966194242318,2.83448440613672,-4.090580888312752,3.488333069084481e-05,-2.17379454301044e-07,-3.272464710650202e-05,5.457887067636738e-05,5.362258871481663e-05
164.9713061303728,219.9461525466564,12.5,0,10.99763752982357,2.429492525465083,-3.799926749274688,3.324884607506335e-05,-1.02373394237059e-06,-3.03994139941975e-05,5.084225553230555e-05,5.171768753644764e-05
167.4770181772247,220.6839391575933,12.5,0,11.19617126742019,2.730114951899711,-3.997096895887563,3.364365609422482e-05,-2.205691678570725e-07,-3.197677516710051e-05,5.264900957384327e-05,5.341554220015914e-05
160.6081281230466,216.3751840692721,12.5,0,11.06377944224185,2.060473523059924,-3.638785511765843,3.375571539672597e-05,-2.257508280001722e-06,-2.911028409412675e-05,4.983411487074078e-05,4.893130386325399e-05
163.1186378769555,217.0959641009436,12.5,0,11.23240592419082,2.319383603739836,-3.808431847833452,3.408819207441875e-05,-1.563897207385181e-06,-3.046745478266761e-05,5.137366253919954e-05,5.060018557040104e-05
160.6312855561658,218.6682686513926,12.5,0,10.70711937032547,1.969289043762281,-3.557448795742397,3.268735075003166e-05,-2.263970556221073e-06,-2.845959036593918e-05,4.816550462934944e-05,4.889580644763157e-05
163.1369976030177,219.4060552623295,12.5,0,10.87892905259619,2.229438776711674,-3.728079938764039,3.302902194693847e-05,-1.568939156599598e-06,-2.982463951011231e-05,4.972137503301538e-05,5.05066279915935e-05
160.6482379737811,220.3469230714862,12.5,0,10.84946925041778,2.194325749621513,-3.982896510984566,3.296284100163968e-05,-1.657733001545381e-06,-3.186317208787653e-05,4.962410008235973e-05,4.882322693002646e-05
163.1504378553078,221.0971593625079,12.5,0,11.04057347003,2.474399847363841,-4.172295309261514,3.335031522620492e-05,-9.143792644597071e-07,-3.337836247409211e-05,5.133145921353518e-05,5.038756937102654e-05
160.6713954069003,222.6400076536067,12.5,0,10.45014127190098,2.092322204673024,-3.895374328298057,3.176659430634472e-05,-1.664681962567109e-06,-3.116299462638445e-05,4.776012883336035e-05,4.866043341595445e-05
163.16879758137,223.4072505238937,12.5,0,10.64482629011735,2.373768874942487,-4.085850025773902,3.216442902842151e-05,-9.19800632277919e-07,-3.268680020619122e-05,4.948597385678007e-05,5.015585274935225e-05
118.4545314700473,96.68240359800161,12.5,0,-4.912235208865389,-0.08659415418469307,2.044314845533584,-1.564987734502149e-05,3.652686873701293e-06,1.635451876426867e-05,1.809401547409783e-06,1.850959562149461e-06
120.8642825139763,96.98066696309259,12.5,0,-4.985624496113564,-0.1626279753245441,2.222913896970468,-1.582389600730377e-05,3.46809007585231e-06,1.778331117576375e-05,1.885764822888903e-06,1.890720752381714e-06
119.2237857057772,99.25981330894409,12.5,0,-4.483563880900822,0.03616935540981125,1.975900797639162,-1.437633990321048e-05,3.702593042032053e-06,1.58072063811133e-05,1.797773490052214e-06,1.812839874369626e-06
121.8207184399387,99.41063606468518,12.5,0,-4.521280175529815,-0.02433194340912337,2.132679765628534,-1.444863100696811e-05,3.539161921514657e-06,1.706143812502827e-05,1.869093030126712e-06,1.863157086252341e-06
117.1221440498496,92.21819902680805,12.5,0,-5.590865537583615,-0.09165352148510642,2.048080391170044,-1.781744690307948e-05,4.17940116131455e-06,1.638464312936035e-05,1.897288439668401e-06,1.931369591020049e-06
119.207686896055,92.77183701838732,12.5,0,-5.73692644215024,-0.2279256675006842,2.227423092884365,-1.817582408088022e-05,3.860179017718001e-06,1.781938474307492e-05,1.938624785121206e-06,1.952918803533453e-06
117.8913982855794,94.79560873775051,12.5,0,-5.12769470357628,0.05425278622033347,1.956781276688627,-1.645202528042036e-05,4.27576467876609e-06,1.565425021350902e-05,1.872882307196059e-06,1.882719504004043e-06
120.1641228220174,95.20180611997992,12.5,0,-5.219714857458087,-0.05452011062235496,2.107998763842408,-1.665947145536799e-05,4.001307531974934e-06,1.686399011073926e-05,1.906194771351986e-06,1.91477233203767e-06
113.5098778789249,91.25926989640958,12.5,0,-5.743237593409507,-0.1765990759825649,2.01084028351174,-1.823708103812437e-05,4.029473031583398e-06,1.608672226809392e-05,1.848293701829748e-06,1.895125726397274e-06
115.5954207251303,91.81290788798884,12.5,0,-5.868368940010143,-0.2547806393894108,2.174916309231724,-1.857495609652093e-05,3.879397105962e-06,1.73993304738538e-05,1.911029742310502e-06,1.915883982673782e-06
113.9549239169312,94.09205423384036,12.5,0,-5.257470445306534,-0.04675986946559596,1.960973119669733,-1.678649752940843e-05,4.056344773955319e-06,1.568778495735786e-05,1.828458646031261e-06,1.831795760169009e-06
116.2276484533692,94.49825161606978,12.5,0,-5.33568751568961,-0.1078422963426857,2.10481929837074,-1.69879262131326e-05,3.923454664255094e-06,1.683855438696592e-05,1.885571727639034e-06,1.860485998581824e-06
114.2807202284453,96.16579629563687,12.5,0,-4.995885660379417,-0.201879654201147,2.000431906284515,-1.582533038985322e-05,3.350693634859863e-06,1.600345525027612e-05,1.722264391953982e-06,1.788789700247298e-06
116.6904712723742,96.46405966072786,12.5,0,-5.06076304166744,-0.2511085601341356,2.171957635342882,-1.59935548852285e-05,3.245063040904718e-06,1.737566108274305e-05,1.807169087563419e-06,1.82364721904724e-06
114.7257662664517,98.99858063306766,12.5,0,-4.53548052403946,-0.08152416031663301,1.960012352033423,-1.444831834867297e-05,3.367507106218342e-06,1.568009881626738e-05,1.716109457070451e-06,1.734624925731102e-06
117.3226990006131,99.14940338880876,12.5,0,-4.567218636221069,-0.1192946000481359,2.114262984098349,-1.451966395586891e-05,3.27203218882282e-06,1.691410387278679e-05,1.798781332971543e-06,1.778399785757604e-06
164.8427746472071,213.2109941304829,12.5,0,11.60428374406998,2.407170625880184,-3.505145019887437,3.520797148031979e-05,-1.580480992439395e-06,-2.80411601590995e-05,5.291818538155274e-05,5.187011913445176e-05
167.4505656776058,213.7640440361099,12.5,0,11.73836097252584,2.676844114837047,-3.650904425827552,3.542127982021306e-05,-8.247876105421247e-07,-2.920723540662042e-05,5.435340899504004e-05,5.380837128413227e-05
164.9220186625207,215.8189314467326,12.5,0,11.23941130531855,2.308187554253949,-3.398792407992898,3.411956613361621e-05,-1.605328870642208e-06,-2.719033926394318e-05,5.118109328779164e-05,5.189805548138741e-05
167.4598803976343,216.4902114274054,12.5,0,11.39552383513637,2.590310261287587,-3.553933763887865,3.43934280634063e-05,-8.274262319888151e-07,-2.843147011110292e-05,5.274311016773347e-05,5.372784695062741e-05
164.7055199864907,208.6939141958648,12.5,0,11.71687975809856,2.270028544523981,-3.056462902572613,3.567799239029621e-05,-2.109412464002111e-06,-2.44517032205809e-05,5.272505173910453e-05,5.155367333448555e-05
167.4344321092585,209.0421836045333,12.5,0,11.8141796475717,2.542234986328435,-3.160788501595221,3.577158688316669e-05,-1.316191761806371e-06,-2.528630801276177e-05,5.400783701817721e-05,5.367516420895517e-05
164.7847640018043,211.3018515121145,12.5,0,11.46294277055174,2.198783929003765,-2.951434812857953,3.492238972256255e-05,-2.134245643629342e-06,-2.361147850286362e-05,5.149733257524613e-05,5.177784221630459e-05
167.4437468292869,211.7683509958289,12.5,0,11.57498088026025,2.481607321905455,-3.063552199431994,3.505465295930844e-05,-1.318841274110748e-06,-2.450841759545595e-05,5.287242567007372e-05,5.379425498604657e-05
159.9789055405512,208.0906938853398,12.5,0,11.19151608975681,1.780842705531001,-2.859454799428506,3.438817732279699e-05,-3.254516214106244e-06,-2.287563839542805e-05,4.910133739131609e-05,4.81280934679927e-05
162.707817663319,208.4389632940083,12.5,0,11.26305112282154,1.989077253338178,-2.930215959880926,3.445050179035839e-05,-2.645393687575066e-06,-2.344172767904741e-05,5.006186041714311e-05,5.006734020913261e-05
160.1792706482339,210.4938507046311,12.5,0,11.03185275571718,1.725754918688345,-2.781800986921009,3.392132488334431e-05,-3.303066464771043e-06,-2.225440789536807e-05,4.829296685429061e-05,4.84801813819557e-05
162.8382534757166,210.9603501883454,12.5,0,11.11379172741766,1.942876690181572,-2.858660332439368,3.400983217559123e-05,-2.673827973353094e-06,-2.286928265951495e-05,4.932293635196131e-05,5.035394048561321e-05
160.3259480871155,212.2530835948331,12.5,0,11.18979157575114,1.93139986570085,-3.274506490707559,3.426221314984296e-05,-2.771353690358188e-06,-2.619605192566047e-05,4.973723989092396e-05,4.867989954019755e-05
162.9337391175141,212.80613350046,12.5,0,11.30961277940648,2.170377831029036,-3.405549630574559,3.445445862927749e-05,-2.102481164232265e-06,-2.724439704459647e-05,5.10067729521054e-05,5.049594927230139e-05
160.5263131947982,214.6562404141243,12.5,0,10.8815172333011,1.836820771747854,-3.181006368306499,3.335139852916522e-05,-2.827387317047743e-06,-2.544805094645199e-05,4.823403918754818e-05,4.887345178176855e-05
163.0641749299117,215.3275203947971,12.5,0,11.02192727247003,2.088258791800162,-3.321171169130035,3.359956023846395e-05,-2.135113684215503e-06,-2.656936935304028e-05,4.962420715692071e-05,5.059732421619061e-05
137.054080648045,172.2493296924508,12.5,0,6.616334780481758,-0.007248785031301219,0.2655868197134374,2.117807032556667e-05,-5.31626393648557e-06,2.124694557707499e-06,2.541251520481306e-05,2.516934170516121e-05
139.3221975947953,172.29815933759,12.5,0,6.624618930497031,0.05096315135880092,0.3815772697324653,2.115801005650346e-05,-5.136613060049462e-06,3.052618157859722e-06,2.562994505832497e-05,2.610818778142648e-05
137.4822309467346,174.4960112713461,12.5,0,6.884879523418562,0.0505513964625659,0.2658136296933145,2.199117335776934e-05,-5.346139150054637e-06,2.126509037546516e-06,2.661933072051244e-05,2.626579680730682e-05
139.5394756035425,174.1547822808533,12.5,0,6.954123459590542,0.1263297011420441,0.3909932160480565,2.21521313097761e-05,-5.159043724017892e-06,3.127945728384452e-06,2.712544579658913e-05,2.698544704353806e-05
133.125586858836,172.1647542661556,12.5,0,6.375721378609947,-0.1979631821470982,0.2394457065598966,2.056067895726951e-05,-5.734059285758672e-06,1.915565652479173e-06,2.391342508746048e-05,2.363962652253151e-05
135.3937038055863,172.2135839112948,12.5,0,6.375267335423631,-0.1752583081303287,0.3531484606965593,2.054106211985988e-05,-5.661040454355956e-06,2.825187685572475e-06,2.398825964557059e-05,2.450789270939413e-05
133.9189786776078,175.0870372198843,12.5,0,6.72976049380886,-0.1167141388823987,0.2139006599245497,2.162860489129427e-05,-5.757293639470763e-06,1.711205279396398e-06,2.55152747345492e-05,2.507351031432563e-05
135.9762233344156,174.7458082293916,12.5,0,6.786522241264053,-0.07958495343302818,0.3299226293497677,2.178053913479139e-05,-5.683889643996932e-06,2.639381034798141e-06,2.585264020090038e-05,2.575349490475089e-05
134.4997817992336,177.2262968160153,12.5,0,6.843430062630063,-0.1636495149151116,-0.05022516270430447,2.202989581234829e-05,-5.998422497832407e-06,-4.018013016344358e-07,2.580597653406697e-05,2.612006517320054e-05
136.4026572259017,176.5995250863211,12.5,0,6.950811751816764,-0.1210100649800145,0.06931450827447935,2.233940565779765e-05,-5.947881609389457e-06,5.545160661958349e-07,2.634676429953668e-05,2.665989019719507e-05
135.2931736180055,180.1485797697441,12.5,0,7.275394128988517,-0.06159376400229655,-0.08562070705972209,2.333053622396509e-05,-6.017415347998162e-06,-6.849656564777767e-07,2.77731572716779e-05,2.754542242888231e-05
136.9851767547311,179.1317494044179,12.5,0,7.466979770185343,0.002025963588506485,0.03509184334370993,2.389271449372229e-05,-5.967100732665054e-06,2.807347467496794e-07,2.870094204432486e-05,2.789060599264232e-05
137.7956587186379,176.1406963354566,12.5,0,6.932363836690734,-0.03046585855773931,0.02392670089136969,2.220793696425654e-05,-5.643381816737352e-06,1.914136071309575e-07,2.654814624826238e-05,2.706114371580452e-05
139.698534145306,175.5139246057623,12.5,0,7.053612263660209,0.03927309850488214,0.1551923965045383,2.254014076490876e-05,-5.517215895712544e-06,1.241539172036306e-06,2.722795373288634e-05,2.76175636914134e-05
138.2238090173275,178.3873779143518,12.5,0,7.274065409994378,0.04727698223825572,0.01548641914628012,2.32391877261914e-05,-5.667965984833083e-06,1.23891353170241e-07,2.809666390491256e-05,2.813761677740982e-05
139.9158121540531,177.3705475490256,12.5,0,7.495237657824358,0.1435960485055032,0.1565330091453889,2.386988366623354e-05,-5.536682771041876e-06,1.252264073163111e-06,2.924234694028911e-05,2.84672792276808e-05
139.2936837012329,256.0966914122114,12.5,0,6.910820069515153,1.955268602318772,-4.637647476308656,2.055040934059347e-05,7.282034718079488e-07,-3.710117981046924e-05,3.479262893996134e-05,3.436531633671483e-05
141.6889390914569,256.1157884712198,12.5,0,6.952140779936568,2.113404560279684,-4.727758893055192,2.055612684757327e-05,1.201181968945735e-06,-3.782207114444154e-05,3.551466293203593e-05,3.499367836711223e-05
139.5591508707513,258.7013080719585,12.5,0,6.655953942535096,1.875755537172761,-4.566072593294254,1.97984481863741e-05,6.776545649247578e-07,-3.652858074635403e-05,3.356856335351283e-05,3.394175149471718e-05
141.9014693780614,258.5859320909827,12.5,0,6.683917223707506,2.032278539287647,-4.653813436569104,1.97627122844339e-05,1.156157546754465e-06,-3.723050749255283e-05,3.423564014543936e-05,3.454449304903584e-05
138.8338810758938,251.5853630233702,12.5,0,7.280966056875337,1.759165928911068,-4.566874098362102,2.189175863887222e-05,-1.954418729848513e-07,-3.653499278689681e-05,3.545266074768335e-05,3.50144983873947e-05
141.3208258369175,251.8373742198753,12.5,0,7.351482301858872,1.939394539637491,-4.673960921197699,2.19732277342384e-05,3.248766853528723e-07,-3.739168736958159e-05,3.635873993135864e-05,3.569032352326248e-05
139.0993482454122,254.1899796831173,12.5,0,7.005567765685714,1.67356205700024,-4.49076539760831,2.107896720459409e-05,-2.490556301478039e-07,-3.592612318086648e-05,3.412943509639146e-05,3.465275800028181e-05
141.5333561235219,254.3075178396381,12.5,0,7.062518597451445,1.85227579627173,-4.595598291018147,2.111823887482724e-05,2.772676701083793e-07,-3.676478632814518e-05,3.497975165234157e-05,3.530070271733467e-05
134.5263663942611,251.148866826955,12.5,0,7.245837503791952,1.498318362840535,-4.410837212931025,2.198802532186182e-05,-1.002051241943849e-06,-3.52866977034482e-05,3.438775138181146e-05,3.384314523091084e-05
137.0133111552847,251.4008780234601,12.5,0,7.309280473887333,1.658281178700446,-4.509252611742007,2.206307257347911e-05,-5.409246072684393e-07,-3.607402089393606e-05,3.519373679887855e-05,3.451954845569817e-05
134.8835229345791,253.9863976241987,12.5,0,6.967810958938803,1.408776793220651,-4.334297046841195,2.116997363402765e-05,-1.06616302884496e-06,-3.467437637472956e-05,3.304260415799754e-05,3.353791063995685e-05
137.3175308126887,254.1039357807197,12.5,0,7.018602029272276,1.566843800390956,-4.430493496467015,2.120605145335851e-05,-6.00981462166761e-07,-3.544394797173612e-05,3.379476062821128e-05,3.418041928673915e-05
135.1449796683363,256.0636143357343,12.5,0,6.874524411941591,1.70355861306372,-4.497200974128969,2.063563122776211e-05,-4.823196774936776e-08,-3.597760779303175e-05,3.375633924161212e-05,3.329144598012892e-05
137.5402350585603,256.0827113947427,12.5,0,6.913534441563962,1.852868120333165,-4.582064971659442,2.064101571673814e-05,3.983504318149598e-07,-3.665651977327554e-05,3.443443070788241e-05,3.390920454330674e-05
135.5021362086544,258.9011451329781,12.5,0,6.611201990072911,1.617599811199713,-4.421059646543493,1.986176651927354e-05,-1.126421962192458e-07,-3.536847717234794e-05,3.247806449555062e-05,3.292332659813419e-05
137.8444547159644,258.7857691520023,12.5,0,6.637557841147414,1.764970514759555,-4.503445625798015,1.982820867986408e-05,3.378593743126449e-07,-3.602756500638413e-05,3.310235807525098e-05,3.350736125341518e-05
200.0493380744627,226.3578770142022,12.5,0,13.34101572331678,8.898622114456566,-5.040803052252726,3.557235262304843e-05,1.780277818760759e-05,-4.032642441802181e-05,8.190156290900478e-05,8.553751400322256e-05
201.4213085428314,225.4877568315185,12.5,0,13.5950956979874,9.375834818455939,-4.850851242257404,3.600363837879492e-05,1.912659486066908e-05,-3.880680993805923e-05,8.442514873921259e-05,8.981929413285207e-05
200.5351400777514,227.7556582441572,12.5,0,13.52733425133196,8.802962640158764,-4.90632603178322,3.624509949213525e-05,1.734761304744248e-05,-3.925060825426575e-05,8.219817541276283e-05,8.494125908534553e-05
202.0925125518752,226.8977335410075,12.5,0,13.74623200673727,9.24272162256263,-4.742367300368671,3.659376512350917e-05,1.85797235868106e-05,-3.793893840294937e-05,8.447341722346627e-05,8.970307654964841e-05
202.4256606321186,224.8507846491299,12.5,0,13.89508985976786,9.781068757898909,-4.729307156877991,3.6639432544938e-05,2.018334813746222e-05,-3.783445725502393e-05,8.689949713571968e-05,9.385241221861473e-05
203.7976311004872,223.9806644664461,12.5,0.006061610909620652,14.1340961518873,10.21972347596422,-4.469468494123175,3.727930152610163e-05,2.152632239223244e-05,-3.597380717501808e-05,8.977199945074137e-05,0.0001005893156126822
203.2325883291946,226.2696890692602,12.5,0,14.16977390466032,9.609298188190674,-4.632443265962075,3.765583794436048e-05,1.94139350784819e-05,-3.70595461276966e-05,8.727084006439836e-05,9.437519271272509e-05
204.7899608033183,225.4117643661105,12.5,0.02403051091892117,14.10506524720974,9.836816815828602,-4.318257909610192,3.818434464943846e-05,2.06909763458867e-05,-3.539666317787073e-05,8.988580918704083e-05,0.0001023778339853542
201.0280208627735,222.3931701024242,12.5,0,14.00524656395005,9.552957140033358,-4.595484448298194,3.717442329261348e-05,1.93652655969467e-05,-3.676387558638555e-05,8.645676166800056e-05,9.26056567721431e-05
202.0788656373549,221.5019267295651,12.5,0,14.32877360964455,9.937879755651963,-4.385139091381545,3.790177174634097e-05,2.033819633037064e-05,-3.508111273105236e-05,8.892368546436534e-05,9.729094866352606e-05
201.8349485598495,223.8120745225546,12.5,0,14.31910129167461,9.40507686141094,-4.516088154613934,3.829706264422999e-05,1.864096492317532e-05,-3.612870523691148e-05,8.706546420374236e-05,9.33782664923727e-05
203.071195340186,222.9330266292296,12.5,0,14.59045764301352,9.763066998220015,-4.331259345791109,3.887901085906724e-05,1.956944827989323e-05,-3.465007476632887e-05,8.925537202744684e-05,9.9226288798751e-05
199.207904322363,223.9368489060976,12.5,0,13.72464240753281,8.820051373789605,-4.902285873180531,3.686281460507331e-05,1.724445047010048e-05,-3.921828698544424e-05,8.298038066819241e-05,8.632311207860724e-05
200.2587490969444,223.0456055332385,12.5,0,13.9889495638403,9.218290642452097,-4.71190036712894,3.739000609032729e-05,1.830737040477447e-05,-3.769520293703152e-05,8.526806289539875e-05,8.966683381658905e-05
199.6937063256518,225.3346301360526,12.5,0,13.9511151545281,8.728468408727371,-4.766387693702575,3.766079376750801e-05,1.677020678430511e-05,-3.813110154962061e-05,8.34428882496182e-05,8.590778039681404e-05
200.9299531059882,224.4555822427276,12.5,0,14.16945169896047,9.090473401153936,-4.607037261294288,3.806986671575033e-05,1.775395352452422e-05,-3.685629809035431e-05,8.544845384820413e-05,8.980958292179762e-05
203.4129670177065,297.4882289689573,12.5,0,0.706390077088761,5.330726310259417,-2.126892683720451,-2.004132801523498e-06,1.649321213115912e-05,-1.701514146976361e-05,2.330191429720474e-05,2.330449481558742e-05
205.5034798782009,297.4918742913836,12.5,0,0.6593556569730253,5.142773050630502,-2.116193655890418,-2.004280338190721e-06,1.592938923643918e-05,-1.692954924712334e-05,2.244878127973632e-05,2.276178244469246e-05
202.6357358384989,299.3269729806811,12.5,0,0.7134012465776534,5.269887591555238,-2.182366259237403,-1.933026084195699e-06,1.629291929571464e-05,-1.745893007389923e-05,2.31290659781796e-05,2.279067137277435e-05
204.8214629589978,299.3279497418814,12.5,0,0.6684044153754721,5.089945517240674,-2.172210269452124,-1.933062284591028e-06,1.575310212286978e-05,-1.737768215561699e-05,2.231366994414901e-05,2.225059811242724e-05
207.033841505894,297.4945428526095,12.5,0,0.5373814839285559,5.230801423359392,-1.84756991295634,-2.465020390116134e-06,1.630865936760721e-05,-1.478055930365072e-05,2.225133200612381e-05,2.233369756986897e-05
209.1243543663884,297.4981881750358,12.5,0,0.4899135781346281,5.041099318310226,-1.837724378654234,-2.465156004617371e-06,1.573958695608502e-05,-1.470179502923387e-05,2.138807546425697e-05,2.170686031274465e-05
206.4215262626162,299.3286647807068,12.5,0,0.545840690873689,5.18315244934111,-1.904474270799094,-2.399831748677082e-06,1.61494152851926e-05,-1.523579416639275e-05,2.212888098040017e-05,2.182416547285199e-05
208.607253383115,299.3296415419071,12.5,0,0.5004364725416868,5.001577160307431,-1.895138403555321,-2.399865016112547e-06,1.560469773495043e-05,-1.516110722844257e-05,2.130382794136842e-05,2.11992030958243e-05
208.0944026174809,294.3177504859258,12.5,0,0.5713021290736319,5.453113285018254,-1.909010001054006,-2.534323814978981e-06,1.699292080879951e-05,-1.527208000843205e-05,2.322250353048357e-05,2.327750731145962e-05
210.0199995420456,294.3260178919787,12.5,0,0.5250215953939383,5.268198016020187,-1.903894105287172,-2.534489307555546e-06,1.643821637494945e-05,-1.523115284229738e-05,2.238296736192127e-05,2.264615375584429e-05
207.4820873742031,296.1518724140232,12.5,0,0.568959903955908,5.400064709237666,-1.970410616591967,-2.499380074731227e-06,1.68250391463958e-05,-1.576328493273574e-05,2.304844562426919e-05,2.272311934183812e-05
209.5028985587722,296.15747125885,12.5,0,0.5248372695223337,5.22370149368259,-1.965631903747629,-2.499481932474604e-06,1.629597496416642e-05,-1.572505522998103e-05,2.224910806942485e-05,2.209456957357262e-05
204.7591709092964,294.3034309185957,12.5,0,0.7385700731432784,5.541692403220352,-2.179113285430703,-2.06992968851779e-06,1.71425596317905e-05,-1.743290628344562e-05,2.421915460607645e-05,2.42528649587515e-05
206.6847678338611,294.3116983246485,12.5,0,0.6931461418304244,5.360176580384634,-2.174630873872707,-2.070073610450348e-06,1.659804814376649e-05,-1.739704699098166e-05,2.339803464009923e-05,2.370802428073524e-05
203.9819397300889,296.1421749303196,12.5,0,0.7312924701443568,5.474494563080295,-2.239371273870958,-2.039459746002294e-06,1.693334862574146e-05,-1.791497019096766e-05,2.398033285391238e-05,2.369628840611577e-05
206.002750914658,296.1477737751464,12.5,0,0.6879727017201313,5.301326246063573,-2.23519378380024,-2.039548351346438e-06,1.641386582602733e-05,-1.788155027040192e-05,2.319851909620251e-05,2.315229860950642e-05
137.1404150220128,119.7265041076146,12.5,0,-1.227490983746593,0.4641592246581057,2.005096057997363,-4.299298527715584e-06,2.467302305903213e-06,1.60407684639789e-05,2.836984136679255e-06,3.095787123543286e-06
138.8836177009053,119.3675327743499,12.5,0,-1.184982255868483,0.4117081267753784,2.107941820683195,-4.121309720199449e-06,2.265451810375997e-06,1.686353456546556e-05,2.9593375574685e-06,3.195138831690929e-06
137.8341117043497,121.2510529390633,12.5,0,-0.9784254680341978,0.5505955406348686,1.94244990696161,-3.571437930217328e-06,2.544646104458937e-06,1.553959925569288e-05,3.120504790955282e-06,3.396050412651402e-06
139.7864902266529,120.9435475887776,12.5,0,-0.9517412896277746,0.498325972663809,2.039691066211863,-3.444232904939925e-06,2.356036144226408e-06,1.63175285296949e-05,3.222023455181657e-06,3.535904468610267e-06
135.9388971231849,117.0859080729732,12.5,0,-1.671477850663202,0.398937031687102,2.036370643558826,-5.667878747471926e-06,2.613780781929287e-06,1.629096514847061e-05,2.484745306395813e-06,2.693509322186973e-06
137.3197966135805,116.6377950423289,12.5,0,-1.61403607388312,0.3617160430514922,2.111949923497725,-5.454288270867178e-06,2.448720196871271e-06,1.68955993879818e-05,2.578944924795315e-06,2.745781056768095e-06
136.6325938055218,118.6104569044219,12.5,0,-1.433272652868529,0.4832638131691475,1.975072833119236,-4.97308353971461e-06,2.693062324436095e-06,1.580058266495389e-05,2.657878814747444e-06,2.907541805709521e-06
138.2226691393281,118.2138098567566,12.5,0,-1.395217202125372,0.4448709051405458,2.0467061266427,-4.820591770913628e-06,2.539760658150044e-06,1.63736490131416e-05,2.739280009125713e-06,2.983425901573485e-06
133.5471090457167,117.8620626095689,12.5,0,-1.592140884137306,0.2971012019573778,2.01739799223758,-5.332531790805281e-06,2.224436553573453e-06,1.613918393790064e-05,2.374501760034163e-06,2.603392669834672e-06
134.9280085361123,117.4139495789246,12.5,0,-1.516475241194621,0.290359602623875,2.109413100685398,-5.085008453921885e-06,2.142330921352096e-06,1.687530480548318e-05,2.544200620600911e-06,2.655356468897779e-06
133.8785025395567,119.297469743638,12.5,0,-1.339251185190002,0.3661791233054698,1.98549380209967,-4.578547091252383e-06,2.243174142729505e-06,1.588395041679736e-05,2.575944274770437e-06,2.77084671357525e-06
135.4685778733631,118.9008226959727,12.5,0,-1.288057775754293,0.3557630893016804,2.06944250835345,-4.40639535385508e-06,2.168888106368811e-06,1.65555400668276e-05,2.729847429296886e-06,2.850581383959502e-06
134.1210994143351,120.3482606952787,12.5,0,-1.171503162076808,0.3123555336409343,1.975058800873485,-3.998694545558531e-06,1.936740237312435e-06,1.580047040698788e-05,2.613247050786353e-06,2.917951251610957e-06
135.8643020932276,119.989289362014,12.5,0,-1.109691582931565,0.3184320263492655,2.09140107333246,-3.805758686460419e-06,1.906735750662901e-06,1.673120858665968e-05,2.861844400618897e-06,3.021514935311232e-06
134.4524929081751,121.7836678293478,12.5,0,-0.9243679994334999,0.3758491735473905,1.950739737232725,-3.258656937025112e-06,1.942211754898449e-06,1.56059178978618e-05,2.898338616857764e-06,3.152394279824965e-06
136.4048714304783,121.4761624790621,12.5,0,-0.8815301870805434,0.3779555872691059,2.057652770789439,-3.123261068473023e-06,1.914682028925573e-06,1.646122216631551e-05,3.128679385142568e-06,3.29328916728047e-06
235.0050666492076,235.8645052298405,12.5,0.8973072037769798,16.3452480950609,10.36510468508853,-5.366420297793686,0.0004285861499042318,0.0001956528330633828,-0.0004180562216761,0.0009559145312303318,0.0007717849326706108
235.9160932556586,235.3016042410328,12.5,0.9050583072930154,16.05351967014965,9.821983530139791,-4.389343496687502,0.0004583199949326989,0.0001957783880859771,-0.0003698559291740616,0.0009993028967345261,0.0008207798588808372
235.81102863391,237.324055626063,12.5,0.9013081020264263,18.11325209611881,10.55923543401873,-5.653146491911976,0.0005017131028691294,0.0001955474776372474,-0.0004582460451556577,0.001068593416867668,0.0007962984311792203
237.0182511670824,236.8515678851925,12.5,0.9122509462025566,16.62199330646753,9.520945394713436,-4.531181177696885,0.0005193631189474223,0.000195665136829193,-0.0004131035931766508,0.001093773374292687,0.0008723702641126411
233.4271222798157,236.8394783420687,12.5,0.876055659288017,16.2611655058752,9.817983069546294,-5.843838084305122,0.0003564611575596701,0.00014852322673308,-0.0003771911198678964,0.0007756414191598734,0.0006637789713699924
234.3381488862667,236.276577353261,12.5,0.8897962395363606,14.85585280020384,9.248330562202732,-4.919007629865083,0.0003642349802040909,0.0001607020984073306,-0.0003570845574902543,0.0008042935035250426,0.0007297166716524197
233.7200578704507,238.1424283991893,12.5,0.8708343144152457,17.63154488493947,10.25504233114455,-5.888028620364651,0.0003732950399992442,0.0001448596774522868,-0.0003646806715705385,0.0007952217948822155,0.0006418045261862807
234.9272804036233,237.6699406583189,12.5,0.890698250207432,15.16825554195732,9.095626900801671,-4.779904492331174,0.0003775046263388153,0.0001552710883513547,-0.000349850171760466,0.00081616393982413,0.0007345185279014888
233.9345016061317,239.0962540406858,12.5,0.8638325908369893,16.8137023231048,10.2057205586001,-7.092145432179954,0.0003351702971187394,0.0001410568361922984,-0.0004166721229858871,0.0007346794604865973,0.000614564663210788
235.3585546066501,238.68995339098,12.5,0.888271241580849,13.62061292684619,9.479158962354367,-6.321463484952081,0.0003222324735853614,0.0001739643276544764,-0.0004526292835896076,0.0007653192179848435,0.0007217431346222534
234.2274371967668,240.3992040978064,12.5,0.8484030272155438,16.6399899717312,10.53690636847119,-7.183795960537564,0.000295642069835304,0.0001346076245911368,-0.0003790997051505318,0.0006635345070530016,0.0005621184187510756
235.9476861240066,240.0833166960378,12.5,0.8801329459234067,13.15365191538236,9.415035070656907,-6.198273955724392,0.0002883165715461308,0.0001635577919623251,-0.000413676568826913,0.0006968524146005236,0.0006820382548461555
236.4010337556561,238.3925206722596,12.5,0.9014265783311094,18.47502951032138,11.40623514651146,-7.836213926651822,0.0005071864755162242,0.0002203426490919335,-0.0006359697203551493,0.001122076236189575,0.0007970488145547089
237.8250867561744,237.9862200225537,12.5,0.915211171318137,16.16775090961108,8.825605949905619,-6.127972900255334,0.0005269127884577979,0.0001805395657657382,-0.0005781868197045779,0.001090834207897034,0.0008956092868259786
237.2069957403585,239.852071068482,12.5,0.8977774616216889,21.66144203813029,13.14500897532023,-9.106827523892896,0.0005752215536279099,0.0002419708557713589,-0.0007127060367207727,0.001260562033350999,0.0007745854015531767
238.9272446675983,239.5361836667134,12.5,0.9166661755725897,17.72942079504399,9.774225908943713,-6.827874543041306,0.0005869737306919594,0.0002051266264333609,-0.0006554720933504132,0.001221602088445824,0.0009075090723679592
213.6892055174467,209.5389752635905,12.5,0.503386164693871,16.07253752637926,11.0127411336271,-3.521007931526352,8.582509013515182e-05,4.507071695396053e-05,-5.672025515529003e-05,0.0001991136499666391,0.0001948541417205056
214.8550730626654,208.1753388935507,12.5,0.5235845737512063,16.23124420972728,10.38804969518847,-3.262579883135674,9.157877623423616e-05,4.251911785543817e-05,-5.478546165181291e-05,0.0002040571949579217,0.0002025729701866347
214.8848837385156,211.0958121034085,12.5,0.542686145120686,15.91553087360676,10.7986389036873,-3.731609335238285,9.247650649847993e-05,4.772044310503813e-05,-6.527874535921182e-05,0.0002134230761203863,0.0002104586326190197
216.0616551248977,209.7513703617054,12.5,0.5622371812164253,15.97146149518129,10.16751981625192,-3.461004235521876,9.816882359034885e-05,4.513607224744618e-05,-6.32489391426906e-05,0.000218217292340807,0.00021919380461265
211.6698636942687,211.9008627395058,12.5,0.454054924441049,15.90532075278399,11.2044847499637,-3.691734873382265,7.680889614400388e-05,4.236707250079234e-05,-5.409679528077191e-05,0.0001813054391304925,0.0001782684933869099
212.8357312394874,210.5372263694659,12.5,0.485054254898787,15.88100280525713,10.5235013948992,-3.301484397044495,8.233956346715633e-05,4.07235178054534e-05,-5.129059794671123e-05,0.0001872127632638657,0.0001883417767897611
212.8466559084451,213.4244535078128,12.5,0.4942294913042196,15.86083921076729,10.9270260015737,-3.863209947923339,8.306744650164467e-05,4.40472733253454e-05,-6.110613223195344e-05,0.0001935361731763276,0.0001915458017750333
214.0234272948272,212.0800117661097,12.5,0.5247832871141652,15.70355330160675,10.21991096934763,-3.458301114052219,8.853948240614932e-05,4.238250026670598e-05,-5.82185099181566e-05,0.000199318362121395,0.0002030503725865775
213.7081275991371,214.539799360109,12.5,0.5217441835577006,15.87954773413395,11.14416867467517,-3.819195600004449,8.760838105675926e-05,4.800297410376228e-05,-6.388540138899037e-05,0.0002063898089137632,0.0002018443754775323
214.8928811512482,213.2094090615802,12.5,0.5519365569041274,15.72179873041762,10.38852458668585,-3.390808863897553,9.373435149673913e-05,4.612257485295165e-05,-6.054158474467675e-05,0.0002128326417404168,0.0002145029341045876
214.8849198133135,216.063390128416,12.5,0.5568239762779625,15.83435051230657,10.86863394616218,-3.978777227306348,9.471409154746655e-05,4.989473038763165e-05,-7.182296901155213e-05,0.0002202564004067711,0.000216703293691325
216.080577206588,214.752194458224,12.5,0.5864669900964024,15.54478873751095,10.08794087273505,-3.535002801465696,0.0001007730223799105,4.799031595414786e-05,-6.838637239217778e-05,0.0002265565165302544,0.0002310833182531134
215.7601809458043,212.2354957692018,12.5,0.5695367252699595,16.03004498184679,11.00832580672357,-3.668604159986468,9.87064072380567e-05,5.204301484275863e-05,-6.817964505403506e-05,0.0002293938867812917,0.0002226445113696453
216.9449344979155,210.905105470673,12.5,0.5886706616243487,16.13505634529228,10.41100482010464,-3.345016055990671,0.0001052766540307034,4.961272742831662e-05,-6.505767022017372e-05,0.0002357208471808952,0.0002322291554854206
216.9558591668732,213.7923326090199,12.5,0.6036533581515928,15.87018780630874,10.72112358028736,-3.834298354903225,0.0001064918878058805,5.452662626605122e-05,-7.739282638089817e-05,0.0002452092562459622,0.0002403324603541296
218.1515165601478,212.4811369388278,12.5,0.6222600346709279,15.86585544306197,10.11246582609879,-3.501955171866434,0.0001129898042949664,5.206546326633264e-05,-7.416647415246455e-05,0.0002513732615547924,0.0002512215619398162
165.220106020391,145.8618400529685,12.5,0,3.579899105992423,2.29513370417241,1.686179811290488,9.619570175837822e-06,4.480508568557775e-06,1.34894384903239e-05,2.18061075048565e-05,2.179483423067916e-05
166.564076436004,144.9466719763436,12.5,0,3.665748267216668,2.24150325369584,1.724031670965278,9.937191852136665e-06,4.240211798053352e-06,1.379225336772222e-05,2.195336658041945e-05,2.166077766888616e-05
166.4374786896317,147.3758060325396,12.5,0,3.781502788329228,2.416480926737972,1.595801374916032,1.016762418126315e-05,4.707536734898125e-06,1.276641099932826e-05,2.29184947376724e-05,2.326374090478257e-05
167.776471508104,146.5112162321167,12.5,0,3.865171685359763,2.359222825450235,1.636309090010052,1.048117113279105e-05,4.45737569315294e-06,1.309047272008042e-05,2.304523414236377e-05,2.317222248901472e-05
163.1115547055581,143.2395740554676,12.5,0,3.059530391414029,2.106896868682284,1.742630325875159,8.104979757579065e-06,4.294445666652084e-06,1.394104260700127e-05,1.93010731550811e-05,1.93238418308973e-05
164.4641465723184,142.2368018347031,12.5,0,3.147159771311272,2.05373934137513,1.774819773372589,8.427919795095966e-06,4.054238075351397e-06,1.419855818698072e-05,1.945325878047323e-05,1.912291504734869e-05
164.3289273747989,144.7535400350388,12.5,0,3.247547849742722,2.22426038869919,1.656593486687677,8.612744808217358e-06,4.519594964043231e-06,1.325274789350142e-05,2.033840466614765e-05,2.073914145560433e-05
165.6765416444184,143.8013460904763,12.5,0,3.333378733810602,2.167695742195759,1.691137036554394,8.932655354437319e-06,4.269923387977947e-06,1.352909629243515e-05,2.047265235107717e-05,2.057576901002018e-05
160.7687968704673,144.9764264902192,12.5,0,3.3328793526208,1.921785059404773,1.719496557853661,9.127785880862742e-06,3.483408707998631e-06,1.375597246282929e-05,1.964355189368597e-05,1.964789087097893e-05
162.1213887372274,143.9736542694547,12.5,0,3.416742008056935,1.865661508938707,1.749453460487927,9.441045218631224e-06,3.236723222158316e-06,1.399562768390341e-05,1.977504936711645e-05,1.946450867888051e-05
161.9947909908552,146.4027883256508,12.5,0,3.50721153501169,2.03823932877432,1.635656616659753,9.592485449017951e-06,3.716596624068471e-06,1.308525293327803e-05,2.06320705243975e-05,2.099817957940292e-05
163.3424052604746,145.4505943810883,12.5,0,3.589405746586183,1.978543236671198,1.667956513423774,9.903263799738825e-06,3.459813760078889e-06,1.334365210739019e-05,2.074531976734735e-05,2.085232602654128e-05
162.8922809767217,147.4469576591195,12.5,0,3.827595155015858,2.103190595165395,1.664418955825635,1.056575201991843e-05,3.668133780516578e-06,1.331535164660508e-05,2.204178108689906e-05,2.200341958844275e-05
164.2362513923347,146.5317895824945,12.5,0,3.909603033305029,2.043831322332675,1.699556842633427,1.087566464870995e-05,3.412577804820537e-06,1.359645474106742e-05,2.215778362856551e-05,2.188664485631454e-05
164.1182750971096,148.873319494551,12.5,0,4.016081637778055,2.226414017161229,1.574791024578632,1.107033002716079e-05,3.911659544693488e-06,1.259832819662906e-05,2.311468219577449e-05,2.339949765863333e-05
165.4572679155819,148.0087296941281,12.5,0,4.096017034524282,2.16312597256404,1.612603420665754,1.137675373242647e-05,3.645189484585503e-06,1.290082736532603e-05,2.320934502572016e-05,2.332463910293963e-05
160.9801533120402,140.5668814859031,12.5,0,2.543401495912525,1.925448000436591,1.795337147524307,6.598526386570806e-06,4.126712404667072e-06,1.436269718019446e-05,1.686233607336718e-05,1.691261557099441e-05
162.3580940485023,139.5134199338016,12.5,0,2.629877807672037,1.87246461478148,1.824698280539122,6.917637292725334e-06,3.887984521163106e-06,1.459758624431298e-05,1.700826124900436e-05,1.667978095483258e-05
162.2142533998356,142.1177622782768,12.5,0,2.721430086853984,2.038155037889175,1.713357385793342,7.078052247621406e-06,4.344952051762172e-06,1.370685908634673e-05,1.783211469961953e-05,1.82985273103312e-05
163.5749712188953,141.0878554838536,12.5,0,2.808576502082852,1.98382621465774,1.743546394079545,7.400383834938934e-06,4.101382685238486e-06,1.394837115263636e-05,1.797567362442987e-05,1.807898819427236e-05
158.8426292583916,137.8806771570775,12.5,0,2.035295300530251,1.753486164659304,1.842625635707697,5.110156029969357e-06,3.982919486485571e-06,1.474100508566157e-05,1.452234492410796e-05,1.460049526209146e-05
160.2504009628487,136.7864175679178,12.5,0,2.119373305743577,1.698528981147396,1.869340018401356,5.42317139346153e-06,3.739794095076803e-06,1.495472014721085e-05,1.464917125239103e-05,1.434910074931871e-05
160.0767293461871,139.4315579494512,12.5,0,2.204272135010001,1.86367640143778,1.763454354823039,5.562729710881779e-06,4.200346776592895e-06,1.410763483858431e-05,1.542993821818444e-05,1.5921730870115e-05
161.4672781332418,138.3608531179698,12.5,0,2.289000498172792,1.807389791012842,1.790919923681123,5.878889761342661e-06,3.952446932702861e-06,1.432735938944899e-05,1.555465683392174e-05,1.568036062612937e-05
156.404297140858,139.7759903621376,12.5,0,2.333199996716058,1.58028144016752,1.821840861616577,6.202014837357369e-06,3.190340611163218e-06,1.457472689293262e-05,1.496193137391612e-05,1.501743823351065e-05
157.812068845315,138.6817307729779,12.5,0,2.416130526864321,1.525154246333434,1.848022956328463,6.511494288899081e-06,2.947589166775531e-06,1.47841836506277e-05,1.508982680959167e-05,1.477957575124657e-05
157.6682281966484,141.286073117453,12.5,0,2.496981663223391,1.690718114848367,1.743040708495718,6.637766830436156e-06,3.412712636936062e-06,1.394432566796574e-05,1.585904522187059e-05,1.631921534991928e-05
159.0587769837031,140.2153682859717,12.5,0,2.58057018748043,1.634248236837181,1.769969265479147,6.950426010467631e-06,3.165138207894633e-06,1.415975412383317e-05,1.598447592498687e-05,1.609291147742998e-05
158.5934899467118,142.3915304179306,12.5,0,2.830021043987583,1.745742330312971,1.772829762559358,7.659473476509887e-06,3.322358621811439e-06,1.418263810047486e-05,1.725789623789635e-05,1.729399274557239e-05
159.971430683174,141.338068865829,12.5,0,2.9154483453821,1.692289271711542,1.801640051263228,7.975603287853487e-06,3.082966993171255e-06,1.441312041010582e-05,1.740320483156825e-05,1.707719312429969e-05
159.8574210025023,143.901613173246,12.5,0,3.002908159790548,1.859017252232915,1.690950159566514,8.12209230954342e-06,3.546528679312889e-06,1.352760127653211e-05,1.821579536368604e-05,1.865535700027094e-05
161.218138821562,142.8717063788229,12.5,0,3.089014966269816,1.804198677404989,1.720584871813609,8.441488950139419e-06,3.302223794680111e-06,1.376467897450887e-05,1.835844947413602e-05,1.84529648664362e-05
199.5336976725458,242.044415779993,12.5,0,9.581517823811406,8.14279957299415,-6.022068046163787,2.414661737780118e-05,1.839174437453215e-05,-4.81765443693103e-05,6.613644969809821e-05,6.68183760817792e-05
201.6268059009592,242.6086600749647,12.5,0,9.807948265452861,8.381634434683198,-6.28910432385282,2.468012690170259e-05,1.897487157862394e-05,-5.031283459082256e-05,6.793520982530219e-05,6.771542537629044e-05
199.3750156222908,244.4982743097226,12.5,0,8.591397196450449,7.913040255278766,-5.936269996301119,2.116203882441842e-05,1.844861105973169e-05,-4.749015997040896e-05,6.176501681505131e-05,6.396985230820273e-05
201.253060895432,245.4310646348732,12.5,0,8.993106052944908,8.2080230534959,-6.239046377742188,2.221152092662698e-05,1.907118892883095e-05,-4.99123710219375e-05,6.440605390034608e-05,6.405102741766766e-05
199.8085430458319,237.7942081319913,12.5,0,10.9870576555255,8.350032051321318,-5.911162366085686,2.847855885662455e-05,1.793045643980781e-05,-4.728929892868549e-05,7.183610047618707e-05,7.187063595401357e-05
202.2741512395958,237.7201119777768,12.5,0,11.04899159184322,8.681136906240123,-6.184785672963768,2.841186356890621e-05,1.894044482649381e-05,-4.947828538371014e-05,7.336086016087947e-05,7.461559431002989e-05
199.6498609955768,240.248066661721,12.5,0,10.07748759441435,8.147920029131617,-5.777007834648264,2.572962427882064e-05,1.801135401768969e-05,-4.621606267718611e-05,6.778833870619652e-05,6.893538467918135e-05
201.9004062340686,240.5425165376854,12.5,0,10.26958028710242,8.530991506958403,-6.089034973794344,2.603786371316102e-05,1.908350859258495e-05,-4.871227979035475e-05,6.998891205891287e-05,7.054619254339536e-05
195.5379843827517,237.922546435734,12.5,0,10.66631772257807,7.591664856859325,-5.979934251299253,2.805888482676236e-05,1.576027336388738e-05,-4.783947401039402e-05,6.808481757665101e-05,6.783756144422153e-05
198.0035925765154,237.8484502815194,12.5,0,10.74886849699529,7.996453610551907,-6.223506142534427,2.799921630194341e-05,1.698955675616986e-05,-4.978804914027542e-05,6.99224338507232e-05,7.005446752140515e-05
195.7518022978471,239.7380645162774,12.5,0,10.0020974809008,7.381017507317634,-5.79967194156744,2.610189793302844e-05,1.561757803869579e-05,-4.639737553253952e-05,6.486197146234412e-05,6.630941688458715e-05
198.0023475363387,240.0325143922418,12.5,0,10.21315950014153,7.862703631172289,-6.099233141418142,2.639194749551506e-05,1.69901240196381e-05,-4.879386513134513e-05,6.746373952742134e-05,6.780014406292719e-05
195.9083278752587,241.0671159932386,12.5,0,9.787221149255355,7.660721778197315,-6.111506662467979,2.519053025505928e-05,1.668453277082712e-05,-4.889205329974383e-05,6.524517866912484e-05,6.516171035058575e-05
198.001436103672,241.6313602882103,12.5,0,10.04672203470989,8.039856023397222,-6.389805596730014,2.571762569235386e-05,1.76901616471032e-05,-5.111844477384011e-05,6.765643219126424e-05,6.61341102029637e-05
196.1221457903541,242.882634073782,12.5,0,8.969842542209994,7.410654110669559,-5.920653105012478,2.277497284653633e-05,1.653821912037459e-05,-4.736522484009983e-05,6.134498196206254e-05,6.355426234701623e-05
198.0001910634953,243.8154243989326,12.5,0,9.436875490339309,7.887562022664408,-6.272308806583559,2.388795195095426e-05,1.769069808025466e-05,-5.017847045266847e-05,6.48825903530473e-05,6.383674450869783e-05
164.725080392216,252.5629174401847,12.5,0,7.34511122426441,3.835405972332134,-5.475837237037793,2.04360311397804e-05,6.397210132051299e-06,-4.380669789630235e-05,4.309727435586542e-05,4.317266259853003e-05
167.218043971266,253.1809663196633,12.5,0,7.539079939757308,4.187914237172981,-5.676754841320429,2.0774724417485e-05,7.370061607147693e-06,-4.541403873056343e-05,4.511073344361652e-05,4.382356585352321e-05
164.8091484531551,254.8426847595507,12.5,0,6.928715021020333,3.721122798865582,-5.359647018048311,1.91949898281726e-05,6.364620939553595e-06,-4.287717614438649e-05,4.115031615120429e-05,4.234347177966735e-05
167.3027358186023,255.4469449330311,12.5,0,7.120009314046777,4.072759081765483,-5.559750685441331,1.95258225395373e-05,7.336821610412123e-06,-4.447800548353065e-05,4.315141584433957e-05,4.293196777607544e-05
164.5794702393783,248.6142446136787,12.5,0,7.893945238451233,3.689560262781059,-5.463580105154924,2.23089765528191e-05,5.491436650138402e-06,-4.370864084123939e-05,4.456501575321688e-05,4.455420147836707e-05
167.0713533886952,249.2561762325165,12.5,0,8.099201755871244,4.046726531314704,-5.675159696752407,2.268006439373621e-05,6.470163495510056e-06,-4.540127757401925e-05,4.66371216986508e-05,4.531934175238846e-05
164.6635383003174,250.8940119330447,12.5,0,7.454829843369694,3.56953139810505,-5.346361198909378,2.099983038029898e-05,5.458636599240405e-06,-4.277088959127502e-05,4.251081341634076e-05,4.376502583596168e-05
167.1560452360315,251.5221548458842,12.5,0,7.657263439009337,3.925787140846247,-5.557114892795568,2.136261329215288e-05,6.436708099500521e-06,-4.445691914236455e-05,4.456996087676016e-05,4.446326078248745e-05
160.2634020183141,247.5023864348868,12.5,0,7.995529264776273,3.233597524306321,-5.29633969228929,2.299881562783902e-05,3.951088665959208e-06,-4.237071753831432e-05,4.33112007460058e-05,4.32011599577096e-05
162.755285167631,248.1443180537245,12.5,0,8.187855868918399,3.564021294368739,-5.495800966169333,2.334992174504388e-05,4.854583446845244e-06,-4.396640772935467e-05,4.523185735038402e-05,4.398663637707823e-05
160.3463896495202,249.8060364936119,12.5,0,7.575798966291464,3.119323770346087,-5.186982585401174,2.174709767585581e-05,3.921196892074305e-06,-4.149586068320939e-05,4.134831992090801e-05,4.251893853695142e-05
162.8388965852344,250.4341794064514,12.5,0,7.765457762561959,3.448894291373185,-5.385680611442453,2.209034940709972e-05,4.824095522344625e-06,-4.308544489153962e-05,4.325654027237318e-05,4.324404626046065e-05
160.4071408119603,251.4924253793859,12.5,0,7.487237873245954,3.390856212021442,-5.334958083608509,2.12464762247699e-05,4.860949579871851e-06,-4.267966466886807e-05,4.203249947667711e-05,4.200261875441796e-05
162.9001043910102,252.1104742588646,12.5,0,7.670382899699372,3.719252621849201,-5.526015307165502,2.156982318155863e-05,5.765302070157946e-06,-4.420812245732402e-05,4.391239932955283e-05,4.268474129388017e-05
160.4901284431664,253.796075438111,12.5,0,7.085643686125055,3.281111621849774,-5.225791989342453,2.004917049812035e-05,4.83104224101923e-06,-4.180633591473963e-05,4.015530210892633e-05,4.127422829628187e-05
162.9837158086135,254.4003356115914,12.5,0,7.266238591817994,3.608684199467171,-5.416091574310109,2.036501613424384e-05,5.734798564840552e-06,-4.332873259448088e-05,4.202326389204157e-05,4.18992818248093e-05
156.6659206064129,135.1719382526231,12.5,0,1.535372420314109,1.589911951817379,1.887642616161263,3.641262183551245e-06,3.859420309564325e-06,1.510114092929011e-05,1.229657034498584e-05,1.239131323569001e-05
158.1322083957172,134.0533770806927,12.5,0,1.613988961312597,1.529615697378039,1.912372941810069,3.94107211829788e-06,3.603579062559648e-06,1.529898353448055e-05,1.238182990963395e-05,1.214472737079997e-05
157.9287058110606,136.7393154992843,12.5,0,1.695880973180368,1.699811336191904,1.810129525384384,4.066970045223653e-06,4.082691497269797e-06,1.448103620307507e-05,1.314322272560099e-05,1.365452270803213e-05
159.3567717200053,135.6322328423489,12.5,0,1.77727009191156,1.63906157747016,1.834812948110593,4.376015032140863e-06,3.823180974375263e-06,1.467850358488474e-05,1.323600607738436e-05,1.340173067385006e-05
154.4787124729562,132.4571612268273,12.5,0,1.039842702293658,1.43385657850218,1.925129160692693,2.180411384537961e-06,3.756466889372049e-06,1.540103328554154e-05,1.019036787523228e-05,1.032570120608073e-05
156.0112025010027,131.3187186837304,12.5,0,1.116500804478268,1.36953387901362,1.950256389016643,2.477175471119561e-06,3.48930776926097e-06,1.560205111213315e-05,1.02519053996201e-05,1.009759278340735e-05
155.7414976776039,134.0245384734885,12.5,0,1.196369918453255,1.542668374819418,1.848857302645859,2.594249039194882e-06,3.979442864659533e-06,1.479085842116687e-05,1.097609911651852e-05,1.149935820252253e-05
157.2357658252909,132.8975744453866,12.5,0,1.275638475334278,1.477820143716699,1.873955746873063,2.899787006096328e-06,3.708513679626015e-06,1.49916459749845e-05,1.104409786527505e-05,1.125938629140233e-05
151.8243618823348,134.4290015529337,12.5,0,1.355940085003631,1.267003803324246,1.912939534177625,3.325405229352223e-06,2.969660102634681e-06,1.5303516273421e-05,1.065283627281995e-05,1.071620333602394e-05
153.3568519103812,133.2905590098368,12.5,0,1.426448374231296,1.197747850645579,1.934410409597715,3.606436517023683e-06,2.691634422680817e-06,1.547528327678172e-05,1.068320362694738e-05,1.049145740407856e-05
153.1533493257247,135.9764974284283,12.5,0,1.505244336042954,1.380634221737641,1.835869138613876,3.71227449794734e-06,3.213834040726089e-06,1.468695310891101e-05,1.144472221516287e-05,1.190490642982108e-05
154.6476174734117,134.8495334003265,12.5,0,1.578161711930145,1.310794986090876,1.857234211373107,4.001481489303761e-06,2.932014585946686e-06,1.485787369098486e-05,1.147971409271987e-05,1.167232480230448e-05
154.1262356568658,137.1093430337455,12.5,0,1.839621726960844,1.420056701129178,1.871343342107068,4.750744165371357e-06,3.072484062044693e-06,1.497074673685654e-05,1.27455798354558e-05,1.280511800949947e-05
155.59252344617,135.9907818618152,12.5,0,1.91570143969034,1.3568582308895,1.894431867639366,5.044758022297486e-06,2.809385187094128e-06,1.515545494111492e-05,1.281834068980834e-05,1.256826437401311e-05
155.4552231002557,138.6568389092402,12.5,0,1.997127408135478,1.534934142863997,1.79193685621322,5.162860391742331e-06,3.314087330656408e-06,1.433549484970576e-05,1.360682158268845e-05,1.407583868905011e-05
156.8832890092004,137.5497562523049,12.5,0,2.075872709528742,1.471263968267549,1.814932208814732,5.465781495877935e-06,3.047346530833162e-06,1.451945767051786e-05,1.36861563878013e-05,1.383514940631071e-05
152.0112781533043,129.7513927263399,12.5,0,0.5509534339145395,1.292218234583162,1.976891912825886,7.292764008599967e-07,3.694335603534487e-06,1.581513530260709e-05,8.300873845519926e-06,8.396144839876108e-06
153.8151102260015,128.5864741138494,12.5,0,0.6112697626052718,1.196879744587295,2.000490567335188,9.985594446670333e-07,3.340999372595128e-06,1.60039245386815e-05,8.209018787264146e-06,8.236604408415502e-06
153.4792031638605,131.312175274774,12.5,0,0.699563902875266,1.42195872172899,1.893808572864258,1.101037511817659e-06,3.990616787232556e-06,1.515046858291406e-05,9.055427099733427e-06,9.494197691644031e-06
155.0946405956167,130.1635628314415,12.5,0,0.7716846847641474,1.325211754278491,1.915344641948245,1.409221587822479e-06,3.623329865879853e-06,1.532275713558596e-05,8.986880310698762e-06,9.287640818990812e-06
149.4687574533655,127.0480380529337,12.5,0,0.06227218290189224,1.155277719082802,2.003069087029914,-7.249511899801862e-07,3.647070954743451e-06,1.602455269623931e-05,6.587185538105719e-06,6.70900847123542e-06
151.5988986160406,125.8548763269856,12.5,0,0.1245180528996221,1.040767229903942,2.038820323841003,-4.341560146443629e-07,3.230840693372916e-06,1.631056259072802e-05,6.466841176862058e-06,6.623327828573237e-06
150.9366824639217,128.6088206013678,12.5,0,0.2170236642215944,1.286010842429182,1.917999618656539,-3.343329484342433e-07,3.941615764396105e-06,1.534399694925231e-05,7.261801704609885e-06,7.649855637522978e-06
152.8784289856557,127.4319650445775,12.5,0,0.290040584383552,1.168968457482097,1.952700234950256,-7.044895958311064e-09,3.508666596435867e-06,1.562160187960204e-05,7.149918342743618e-06,7.522703894271582e-06
145.7792447323847,129.1146547838854,12.5,0,0.3891130710709884,0.934745475350833,1.982475270053485,4.973654471464963e-07,2.679895064265875e-06,1.585980216042788e-05,6.765020990726508e-06,6.847346120360949e-06
147.9093858950598,127.9214930579372,12.5,0,0.4289490551037933,0.7964560441735822,2.002395977170441,7.354721409932729e-07,2.205500097272428e-06,1.601916781736353e-05,6.506120089620446e-06,6.769033991607869e-06
147.5734788329187,130.6471942188618,12.5,0,0.5277570562634726,1.097417293454485,1.892856731272949,8.108887452795237e-07,3.089529694043575e-06,1.514285385018359e-05,7.511720846633303e-06,7.868554544560333e-06
149.5152253546527,129.4703386620715,12.5,0,0.575559954758273,0.956461649373177,1.910593032521189,1.076622535727932e-06,2.600229314187548e-06,1.528474426016951e-05,7.244082056761625e-06,7.742526039966743e-06
148.8869493551264,131.7690909498197,12.5,0,0.8882160676504904,1.102698799564439,1.969577608176825,1.960132376830018e-06,2.818063304485812e-06,1.57566208654146e-05,8.703034170599372e-06,8.673184517131788e-06
150.6907814278237,130.6041723373293,12.5,0,0.9178567575085964,0.9739700461901283,1.972702232578734,2.157965587075406e-06,2.382418741801533e-06,1.578161786062987e-05,8.398129770248712e-06,8.513126127434487e-06
150.6811834556604,133.3016303847961,12.5,0,1.014546220213783,1.273514465032655,1.882844930083637,2.227736332657983e-06,3.263609311933468e-06,1.50627594406691e-05,9.536870936298519e-06,9.850266059383837e-06
152.2966208874166,132.1530179414635,12.5,0,1.051879050703584,1.14283717341616,1.882405796891173,2.45174322351854e-06,2.815575714368843e-06,1.505924637512938e-05,9.233153402599208e-06,9.644952670444015e-06
228.2534287867622,266.7268047506921,12.5,0,0.2212480904723115,6.529154735338191,-0.9111237264493183,-4.515329898759155e-06,2.071629668070436e-05,-7.288989811594546e-06,2.586649938094258e-05,2.729795979290828e-05
230.0698046502341,266.885186986091,12.5,0,0.0760994903408152,5.981328243072585,-0.8557026424976092,-4.541544225367458e-06,1.907937078555962e-05,-6.845621139980873e-06,2.331520012125594e-05,2.493616737319203e-05
228.2135246083717,268.6611770301843,12.5,0,0.3247749959220798,6.543819797533736,-1.127792771828508,-4.195775851076333e-06,2.068040335537029e-05,-9.022342174628065e-06,2.629342570996846e-05,2.569048358262005e-05
230.0425369414908,268.8306449799969,12.5,0,0.1801132949141173,5.999745112893211,-1.071655987298055,-4.223433546589393e-06,1.905509372532698e-05,-8.573247898384438e-06,2.375737650819444e-05,2.347079647006681e-05
228.1843127223568,270.077235819465,12.5,0,0.1471651105762726,6.009722791721114,-0.7611212236681564,-4.336849879532818e-06,1.911338084504654e-05,-6.088969789345251e-06,2.361965826615913e-05,2.464379176450608e-05
230.0225755932856,270.2548190754665,12.5,0,0.009313571678422061,5.496393415877821,-0.7032016979149921,-4.367311303331306e-06,1.758100807346629e-05,-5.625613583319937e-06,2.122324601976081e-05,2.252384464836647e-05
228.1444085439664,272.0116080989571,12.5,0,0.2547932123945094,6.026254361299308,-0.9614491039634023,-4.005665209377016e-06,1.908017938624218e-05,-7.691592831707218e-06,2.405766597254247e-05,2.339165274771875e-05
229.9953078845423,272.2002770693724,12.5,0,0.1173517685660819,5.516384484948949,-0.9029218544264389,-4.037581928547696e-06,1.755854893698377e-05,-7.223374835411511e-06,2.167403802477736e-05,2.140209506217647e-05
231.3682774124156,270.3848190414276,12.5,0,0.05286272873906683,5.136269197315142,-0.3305391351808643,-3.939854625887099e-06,1.63937712484172e-05,-2.644313081446914e-06,1.991564665252864e-05,2.097221617493763e-05
233.2065402833444,270.5624022974291,12.5,0,-0.1070956061149322,4.536077515721654,-0.267856784413205,-3.971567952145105e-06,1.460112453520123e-05,-2.142854275305641e-06,1.712215329043784e-05,1.88530354670189e-05
231.350260241482,272.3383923415223,12.5,0,0.1674759214116193,5.159442088616299,-0.5678304243468373,-3.591630722375857e-06,1.637623394644286e-05,-4.542643394774698e-06,2.038740757894903e-05,1.995346656053628e-05
233.2011595820579,272.5270613119376,12.5,0,0.00804056390771235,4.563241208076669,-0.5043939006557663,-3.624863161956655e-06,1.459593941471917e-05,-4.03515120524613e-06,1.760564427734758e-05,1.798529757813694e-05
231.3994840678808,267.0011308294144,12.5,0,0.08143514729401313,5.576561795409552,-0.3940445749372573,-4.2006569649868e-06,1.777984962747536e-05,-3.152356599498058e-06,2.169980445154611e-05,2.318491976354859e-05
233.2158599313528,267.1595130648133,12.5,0,-0.09680910929318975,4.901824588692331,-0.328210234215803,-4.231248820692072e-06,1.576328597125001e-05,-2.625681873726424e-06,1.856344718528222e-05,2.076221473688203e-05
231.3814668969472,268.9547041295091,12.5,0,0.2053128290672317,5.601292113096424,-0.6642088004412984,-3.824032637461997e-06,1.775988449865477e-05,-5.313670403530387e-06,2.221404368287132e-05,2.18380814510368e-05
233.2104792300663,269.1241720793217,12.5,0,0.02767768615707866,4.931101842792367,-0.5974672111712349,-3.856312878531241e-06,1.575738374800991e-05,-4.779737689369879e-06,1.909218392950581e-05,1.959710817712962e-05
226.9663821112682,287.1985580520212,12.5,0,0.04948361605189433,4.460635692181303,-0.5089117093073531,-3.41016098237898e-06,1.423444732213865e-05,-4.071293674458824e-06,1.733874640701473e-05,1.744581416435238e-05
229.0288281110487,287.2788021319957,12.5,0,-0.04459030793588248,4.089826555169708,-0.4894052207265974,-3.41455022953059e-06,1.312311722289177e-05,-3.915241765812779e-06,1.56299924610913e-05,1.616060648470943e-05
226.7337880846664,289.1732996738806,12.5,0,0.07454845535108534,4.428496169421681,-0.6377793341439997,-3.304241878413871e-06,1.411154897786851e-05,-5.102234673151997e-06,1.73185126524326e-05,1.695371321752876e-05
228.8159661121175,289.2319412008364,12.5,0,-0.01845924871253368,4.060408798686741,-0.6198926707461484,-3.3073966348295e-06,1.30080755547676e-05,-4.959141365969187e-06,1.562488625385565e-05,1.572851885182549e-05
226.5635174396641,290.6189108728411,12.5,0,0.03868742684298998,4.258071800821202,-0.5007566689360301,-3.282657674759392e-06,1.359487982115345e-05,-4.006053351488241e-06,1.652822986272281e-05,1.661035777648286e-05
228.6601403139059,290.6617382334148,12.5,0,-0.04617700885752862,3.920630015430135,-0.4883037096598173,-3.284270440688199e-06,1.258295765646245e-05,-3.906429677278539e-06,1.497688486775388e-05,1.542600404724415e-05
226.3309234130622,292.5936524947005,12.5,0,0.05382492201513123,4.227446297432224,-0.6165397906822,-3.209717287497359e-06,1.348476821417101e-05,-4.9323183254576e-06,1.648142053190582e-05,1.616439421327396e-05
228.4472783149749,292.6148773022556,12.5,0,-0.03017466444663874,3.892430807171274,-0.6054799036793619,-3.210503571966263e-06,1.247991831450538e-05,-4.843839229434896e-06,1.494376679449869e-05,1.503160586393496e-05
230.1949747820969,290.6930900373076,12.5,0,0.01895676495223431,3.750143177252024,-0.2753666666229977,-2.939452893954469e-06,1.198529275524469e-05,-2.202933332983982e-06,1.448520740011258e-05,1.456476388257221e-05
232.2915976563389,290.7359173978812,12.5,0,-0.07185113805979626,3.387855860309811,-0.2679691882093013,-2.940208330039196e-06,1.089861966343923e-05,-2.14375350567441e-06,1.282011174826728e-05,1.339616572430818e-05
229.9965576299566,292.6304149397661,12.5,0,0.02172269816327277,3.719324504055016,-0.3980025008415395,-2.90594696912154e-06,1.188446025444543e-05,-3.184020006732316e-06,1.439328611065438e-05,1.420615700418046e-05
232.1129125318692,292.6516397473212,12.5,0,-0.06829426951005091,3.359716864719682,-0.3920611537377192,-2.906315154207909e-06,1.080572938271102e-05,-3.136489229901753e-06,1.274284099960166e-05,1.308377712952448e-05
230.5386433706909,287.3375448755411,12.5,0,0.02857404832882637,3.901222648493546,-0.2657146660709054,-3.029541164142592e-06,1.246105323651628e-05,-2.125717328567244e-06,1.509323068324868e-05,1.522842357706895e-05
232.6010893704713,287.4177889555156,12.5,0,-0.0703293164509895,3.510257456620823,-0.2480678714629241,-3.033259777939824e-06,1.128908731434742e-05,-1.984542971703393e-06,1.329198541028149e-05,1.396686019098252e-05
230.3402262185506,289.2748697779997,12.5,0,0.04869797631709394,3.871717095634654,-0.3994725400660983,-2.941540152293022e-06,1.235053632497722e-05,-3.195780320528786e-06,1.505963722170002e-05,1.483867938521849e-05
232.4224042460018,289.3335113049556,12.5,0,-0.04913387786577161,3.483729497657728,-0.3835185694510787,-2.944212007296651e-06,1.118724149479734e-05,-3.068148555608629e-06,1.327391892398774e-05,1.36327871174681e-05
206.9613698306079,278.5106953764505,12.5,0,1.506293068791308,6.897075995283054,-3.095267639462293,-6.975229760942578e-07,2.086560872987273e-05,-2.476214111569834e-05,3.221444374550601e-05,3.187640268040812e-05
208.1405695176235,277.3983174891692,12.5,0,1.37066078374356,7.099513174325794,-3.085058466150246,-1.293496031481243e-06,2.162191353084769e-05,-2.468046772920197e-05,3.252925430364324e-05,3.222746663347312e-05
207.9474176337988,279.932784249806,12.5,0,1.231154543662176,6.650979774485851,-2.933732968139019,-1.381089279869717e-06,2.029821164342498e-05,-2.346986374511215e-05,3.03333112628685e-05,3.063906566849649e-05
209.2978774206454,278.6957853376079,12.5,0,1.114896393365165,6.833484359594866,-2.926908540312914,-1.899119028907366e-06,2.097523283601144e-05,-2.341526832250331e-05,3.064167186103367e-05,3.09608309480626e-05
204.9189360604643,280.4373903944032,12.5,0,1.521535814193096,6.663324376125955,-3.173076817476816,-4.617448954828554e-07,2.010540935224858e-05,-2.538461453981453e-05,3.14464137696662e-05,3.129500163997954e-05
206.0981357474799,279.3250125071219,12.5,0,1.392404396008174,6.874309244657207,-3.158405128943561,-1.043753328499607e-06,2.088386606609652e-05,-2.526724103154849e-05,3.180774741457563e-05,3.1626549438439e-05
205.6083526694439,282.0753292146022,12.5,0,1.232036690963437,6.463707237787935,-3.011815509576239,-1.228448379147351e-06,1.969823380815064e-05,-2.409452407660991e-05,2.969076196571383e-05,3.012360136435443e-05
206.9588124562904,280.8383303024041,12.5,0,1.122184449804265,6.652616866328859,-3.001132949345916,-1.73110325368944e-06,2.039062641240894e-05,-2.400906359476733e-05,3.003851949476457e-05,3.041473067766942e-05
206.1130406547773,283.2743836506263,12.5,0,1.251185433823182,6.376073218204688,-2.814125811090797,-1.097065186329567e-06,1.940248595119645e-05,-2.251300648872638e-05,2.930436410697927e-05,2.927695271892287e-05
207.5888715360042,281.9461558165016,12.5,0,1.11217363647437,6.595453776244813,-2.808799056475054,-1.717407384277866e-06,2.02157131748039e-05,-2.247039245180043e-05,2.967799198432203e-05,2.9545054303806e-05
206.8024572637568,284.9123224708254,12.5,0,0.9895492324337168,6.202309867598689,-2.67441731032066,-1.795290350291057e-06,1.905575219036883e-05,-2.139533848256528e-05,2.775211659712052e-05,2.813526587897125e-05
208.4495482448147,283.4594736117837,12.5,0,0.8671906347346684,6.402235580893803,-2.671237650234752,-2.346778433564103e-06,1.979340135107243e-05,-2.136990120187802e-05,2.811217239321747e-05,2.838087302493743e-05
208.6692547243955,280.9738255579364,12.5,0,1.186259533749669,6.6160991959212,-2.727004840930793,-1.496848848738018e-06,2.02225097999481e-05,-2.181603872744635e-05,2.99403703470869e-05,2.974946781487463e-05
210.1450856056224,279.6455977238117,12.5,0,1.050216062650939,6.879662502708977,-2.709629673262545,-2.143038601684177e-06,2.117474715854797e-05,-2.167703738610036e-05,3.048556583707843e-05,3.003983432800827e-05
209.6553025275863,282.395914431292,12.5,0,0.9268835822517635,6.369442272281005,-2.567284071917491,-2.129526354619161e-06,1.96407084054978e-05,-2.053827257533993e-05,2.811551781113414e-05,2.855637829228378e-05
211.3023935086443,280.9430655722504,12.5,0,0.8068536860042171,6.610526583791538,-2.553398042917285,-2.706489471819735e-06,2.050820211932955e-05,-2.042718434333828e-05,2.863397558774397e-05,2.879026045372417e-05
163.4098947222125,286.7173031556595,12.5,0,3.515810106526192,4.168396464509843,-4.386836366623343,7.915875169275938e-06,1.052622060121054e-05,-3.509469093298674e-05,3.00093440489798e-05,3.037403066705041e-05
166.1892744256535,286.9993062708376,12.5,0,3.597402654885246,4.408838439508789,-4.48045639720997,7.984617744025756e-06,1.123036088251993e-05,-3.584365117767976e-05,3.119092110313436e-05,3.048613780769329e-05
163.7681250414427,288.931983790267,12.5,0,3.322548734278206,4.09085118153993,-4.303303385586147,7.359475004458315e-06,1.043268479350521e-05,-3.442642708468917e-05,2.902155267589132e-05,2.964278917408973e-05
166.3578781968505,289.1184409371556,12.5,0,3.402397629325441,4.345276369663551,-4.400294849259386,7.41145131811057e-06,1.118296627946301e-05,-3.520235879407509e-05,3.024832079923251e-05,2.974703124886754e-05
164.0303678359197,290.5532425372697,12.5,0,3.213146627304837,4.161017475341427,-4.21574909079929,6.953255227102337e-06,1.074473861924869e-05,-3.372599272639433e-05,2.881745080328843e-05,2.911769889360272e-05
166.4813047237093,290.6697551809149,12.5,0,3.273101787403246,4.368425166469686,-4.287591212768942,6.979185586514637e-06,1.13604791027804e-05,-3.430072970215153e-05,2.979566030219657e-05,2.921665918600233e-05
164.38859815515,292.7679231718772,12.5,0,3.035385688011288,4.087476539442554,-4.133473828788037,6.443252970082076e-06,1.065161637580714e-05,-3.30677906303043e-05,2.789863161777991e-05,2.841436706165132e-05
166.6499084949064,292.788889847233,12.5,0,3.092297438030296,4.308334736393651,-4.207459175203918,6.448684012582025e-06,1.131283320603545e-05,-3.365967340163134e-05,2.891509533416086e-05,2.85067623221036e-05
168.2755150516397,290.7550483557839,12.5,0,2.986442623098617,4.400241826297078,-4.134176582073533,6.036422932877909e-06,1.169161974567175e-05,-3.307341265658826e-05,2.881628869191533e-05,2.926382480566709e-05
170.7264519394293,290.8715609994292,12.5,0,3.034468159650867,4.564252929990663,-4.196158742847556,6.058895766890244e-06,1.217803484824943e-05,-3.356926994278045e-05,2.959927779071732e-05,2.929372338256758e-05
168.3053025552185,292.8042385188586,12.5,0,2.849245106270458,4.364025815641862,-4.080690687322686,5.626363687551974e-06,1.168548652503759e-05,-3.264552549858148e-05,2.818927780850711e-05,2.855492726523059e-05
170.566612894975,292.8252051942143,12.5,0,2.894879368599001,4.540609217114381,-4.145514918860136,5.631126605825298e-06,1.221404599988682e-05,-3.316411935088109e-05,2.901073884053728e-05,2.859412107655049e-05
168.2239215820115,287.2057468790318,12.5,0,3.234202539403018,4.439955702574164,-4.30424049663121,6.797483564030326e-06,1.162049621671491e-05,-3.443392397304968e-05,2.992772303366984e-05,3.053467019611577e-05
171.0033012854524,287.4877499942099,12.5,0,3.302694658388392,4.643714827140328,-4.381012396817006,6.853651045130591e-06,1.221773172013833e-05,-3.504809917453605e-05,3.092829173391257e-05,3.055515600646139e-05
168.2537090855903,289.2549370421066,12.5,0,3.093147298911369,4.402626133462586,-4.246630180607282,6.375970449746312e-06,1.161388578795118e-05,-3.397304144485826e-05,2.927864203574535e-05,2.979429532520249e-05
170.8434622409981,289.4413941889952,12.5,0,3.160952547616374,4.620273330963764,-4.326820143812278,6.418829487601387e-06,1.225611262099094e-05,-3.461456115049822e-05,3.03282281608441e-05,2.981918110835008e-05
147.3921692044814,123.9886345077751,12.5,0,-0.4854199682718362,0.9958490346111947,1.987874205809047,-2.350023126158831e-06,3.575052885373292e-06,1.590299364647238e-05,4.902605605024811e-06,5.266923368263462e-06
149.5075332300633,123.0278755324725,12.5,0,-0.3941099530211786,0.9186951213402936,2.067115015844792,-1.996107946740006e-06,3.255112350705882e-06,1.653692012675833e-05,5.018402070607591e-06,5.280850455217441e-06
148.5190079879666,125.8100629203126,12.5,0,-0.2756193404212708,1.095276565871968,1.911733740814746,-1.758203142045641e-06,3.725380483127314e-06,1.529386992651796e-05,5.474457729281624e-06,6.070503694089142e-06
150.6956698205883,124.6748040988594,12.5,0,-0.1768221931793433,1.029195885930887,1.981235256138531,-1.389187726918608e-06,3.434884589522313e-06,1.584988204910825e-05,5.623666050032158e-06,6.02262501004844e-06
145.4404271795809,120.8338279549675,12.5,0,-0.9984536136410118,0.8941221781076569,2.019067405542112,-3.910349306137363e-06,3.659953860857311e-06,1.61525392443369e-05,3.887756780472958e-06,4.152831478362453e-06
147.4496202889794,120.1753115791053,12.5,0,-0.939458463189632,0.7936971625650864,2.106608444420601,-3.641224812258891e-06,3.291397690759982e-06,1.685286755536481e-05,3.904997576597925e-06,4.238391173999379e-06
146.5672659630661,122.6552563675049,12.5,0,-0.7679465638799458,1.007860481686277,1.932782412786115,-3.263717389764847e-06,3.839510792500041e-06,1.546225930228892e-05,4.339841355468841e-06,4.753084646727886e-06
148.6377568795044,121.8222401454921,12.5,0,-0.6968312525910019,0.9224922795642874,2.008105243318141,-2.967853831942636e-06,3.509440296678521e-06,1.606484194654513e-05,4.380734310967221e-06,4.80276643975469e-06
141.9604026319477,121.9744117755565,12.5,0,-0.8541977162882217,0.6916635067712891,2.000775001256352,-3.28676349753934e-06,2.896681394698702e-06,1.600620001005081e-05,3.63470606947099e-06,3.995312627082807e-06
143.9695957413463,121.3158953996943,12.5,0,-0.7699880687630376,0.6574966563676341,2.106732839681664,-2.989959145135827e-06,2.719979755386859e-06,1.685386271745331e-05,3.863828541822489e-06,4.087698778020854e-06
142.9810704992497,124.0980827875343,12.5,0,-0.5661499619509279,0.7884202271034516,1.929454988887279,-2.44241605992573e-06,2.975864696291787e-06,1.543563991109824e-05,4.155548275896844e-06,4.651215737259659e-06
145.0515614156879,123.2650665655215,12.5,0,-0.4690979825393259,0.7624669461627172,2.024314838307056,-2.111087101056017e-06,2.815172613752155e-06,1.619451870645645e-05,4.428197433300487e-06,4.712476758383237e-06
143.7282512357359,125.6527178667972,12.5,0,-0.2600983605135431,0.8050597286442918,1.965326886890324,-1.476362536558771e-06,2.784269820072568e-06,1.572261509512259e-05,4.829636006960882e-06,5.225664866968806e-06
145.8436152613178,124.6919588914946,12.5,0,-0.1403005534503705,0.761713635444759,2.067061457035953,-1.058332679396993e-06,2.549724076183525e-06,1.653649165628763e-05,5.144754709131682e-06,5.252136434458864e-06
144.7489191030377,127.776388878775,12.5,0,0.02337633889387217,0.9075100199044197,1.889469593934706,-6.512037314631448e-07,2.885330992579045e-06,1.511575675147765e-05,5.605748658210966e-06,6.139185965587789e-06
146.9255809356593,126.6411300573218,12.5,0,0.1524984242915033,0.8724159602431943,1.981170006751779,-2.099378104617448e-07,2.669732333345019e-06,1.584936005401424e-05,5.970856069020194e-06,6.101736107993938e-06
168.1295053578156,268.6840136590239,12.5,0,5.108331907430456,4.484701648103797,-5.169429490728238,1.275890078529442e-05,1.026437974798778e-05,-4.13554359258259e-05,3.718653099123581e-05,3.770094438523377e-05
170.6079829603196,269.2156410548981,12.5,0,5.227568298150833,4.733239222706361,-5.294681302880398,1.294162717591757e-05,1.096431087413969e-05,-4.235745042304318e-05,3.8545879902495e-05,3.792376879895626e-05
167.8107995483924,270.7763551722836,12.5,0,4.87751435442727,4.454953521344221,-5.109625162498966,1.204408311709189e-05,1.035383978475969e-05,-4.087700129999173e-05,3.624257457387793e-05,3.678744058686993e-05
170.3172897508153,271.3268579753967,12.5,0,4.996687427875933,4.700718836589385,-5.233742010277449,1.222882469993148e-05,1.104495033478528e-05,-4.186993608221959e-05,3.759169674564429e-05,3.696592174267007e-05
172.4223544906969,269.6048193193571,12.5,0,4.805839178331883,4.876515048316852,-5.151631907580968,1.147747333200854e-05,1.176017681194842e-05,-4.121305526064774e-05,3.746788782463366e-05,3.805783810147473e-05
174.9008320932008,270.1364467152313,12.5,0,4.926137405207703,5.131245522826601,-5.276485259269259,1.165864327840337e-05,1.247907574887896e-05,-4.221188207415407e-05,3.885622596071056e-05,3.820129783398363e-05
172.1521679275846,271.7298539969674,12.5,0,4.572381894229028,4.842494731799095,-5.086485621911701,1.075762627609361e-05,1.183807762637388e-05,-4.06918849752936e-05,3.650080447753432e-05,3.706655444370828e-05
174.6586581300076,272.2803568000805,12.5,0,4.692620263867153,5.094432815109249,-5.210251003266293,1.094083859228749e-05,1.254808879725587e-05,-4.168200802613035e-05,3.787875369038397e-05,3.716300694005913e-05
172.8903313455214,265.9241512899563,12.5,0,5.272866029853782,4.90203487709474,-5.318414668898637,1.295154339385631e-05,1.146821878282014e-05,-4.254731735118909e-05,3.929543416055721e-05,3.982153486340224e-05
175.3202897017143,266.4230855214798,12.5,0,5.400718703491056,5.17084408684021,-5.456021103469385,1.314562458169921e-05,1.222612611509583e-05,-4.364816882775508e-05,4.076688236716973e-05,4.005643752079315e-05
172.6201447824091,268.0491859675667,12.5,0,5.005987569252497,4.861489372102495,-5.249127587697694,1.212996872392599e-05,1.155197593532599e-05,-4.199302070158155e-05,3.81837208235175e-05,3.879603288007231e-05
175.078115738521,268.566995606329,12.5,0,5.133886199931833,5.127318174033036,-5.3854951850757,1.232658130055544e-05,1.230030919696025e-05,-4.30839614806056e-05,3.964458060065673e-05,3.897659022142269e-05
168.6815200123942,265.0599718513377,12.5,0,5.553889852306028,4.492288288775734,-5.309575116252892,1.41786168963587e-05,9.932210642237525e-06,-4.247660093002314e-05,3.886782143976188e-05,3.93164053878458e-05
171.1114783685871,265.5589060828612,12.5,0,5.67842222885689,4.750095799860642,-5.445235970845792,1.437087449245353e-05,1.065756877646854e-05,-4.356188776676633e-05,4.028394917994498e-05,3.962324385101209e-05
168.3628142029709,267.1523133645973,12.5,0,5.294674616380941,4.457031029873686,-5.247240915329609,1.337733394852006e-05,1.002675960249104e-05,-4.197792732263687e-05,3.780112751450435e-05,3.837857846132089e-05
170.8207851590829,267.6701230033598,12.5,0,5.419247845145465,4.7119288747304,-5.381632142162178,1.357205000468117e-05,1.074277412302091e-05,-4.305305713729743e-05,3.920699632312937e-05,3.863579611189371e-05
228.8099305192189,240.7458658175756,12.5,0.7038469454247487,12.43556375099682,9.35594391399823,-5.621017187899756,0.0001090957812956868,6.750080478713197e-05,-0.0001518408701463244,0.0002716404542161527,0.0003135849319840161
230.3893106281009,241.0222787784474,12.5,0.7437659998441641,11.43971030501077,9.131626300580958,-5.886607747046924,0.0001143555184626123,7.832464038981814e-05,-0.000183788497809559,0.0002973323506460502,0.0003570283892653434
228.7880448852374,242.5508661157937,12.5,0.6293528619137545,11.5217569748642,10.71543567525063,-6.506841898255069,7.634558822029931e-05,6.764382077887969e-05,-0.0001404428358864813,0.0002222439182539542,0.000255637758141345
230.4076901240221,242.7936906868668,12.5,0.6763062466190957,10.82100087002955,10.61541750120182,-6.932417451844517,8.073949067648233e-05,7.819902313047062e-05,-0.0001713327459535333,0.0002463942410640219,0.0002893244946793186
228.7720234892078,243.8722180417101,12.5,0.5567229472648485,9.632500662315508,9.426226677713952,-5.390037562448455,5.252475992965412e-05,5.066340497497028e-05,-9.727618480027906e-05,0.0001590445140805376,0.0002166573514909484
230.4211448488533,244.0904542049072,12.5,0.6093231619440562,9.08721683197029,9.472571869147963,-5.730661388075538,5.503534961012372e-05,5.898086159998467e-05,-0.0001173483724623557,0.0001763750089255345,0.0002435489029204874
228.7501378552263,245.6772183399281,12.5,0.4190168336576406,8.787942221003764,11.41444067669778,-6.450288431310562,3.268573629319847e-05,5.076886577338232e-05,-8.881893734607191e-05,0.0001294224743783505,0.0001681080738605126
230.4395243447744,245.8618661133265,12.5,0.47871931948916,8.589325315835932,11.740264887774,-7.052044968080827,3.470995526387924e-05,5.88884041475036e-05,-0.0001082264542959087,0.0001458325339690307,0.0001861915550695371
231.6283854719096,244.2502141644096,12.5,0.6418072054194369,8.613407543832775,9.559442869052052,-5.638226450807301,5.559952669719035e-05,6.616406444929189e-05,-0.0001259260719057078,0.0001884255424446453,0.0002637813228178365
233.2775068315551,244.4684503276067,12.5,0.6797693334411815,8.380362966051402,9.903077191123046,-6.133106560875402,5.900340508142919e-05,7.802362249451645e-05,-0.0001532172199941107,0.0002129031250957036,0.0002921657705102726
231.6762410886916,245.9970376649529,12.5,0.513959282734411,7.464517186472824,11.86578456111478,-6.879493373267147,2.961444758949267e-05,6.583583578431717e-05,-0.0001132332025509371,0.0001491706569188365,0.0001988196336284426
233.3656275782398,246.1816854383513,12.5,0.5535775362025026,7.693598761242294,12.72007356367447,-7.78778973223707,3.235378672966486e-05,7.73916171262306e-05,-0.000139559101322817,0.000172330988081205,0.0002152367046457859
231.545497112217,241.2246271096676,12.5,0.7693319490341554,12.35360143781356,9.48679947587836,-6.190740514706986,0.0001384764161597325,8.876338568270838e-05,-0.0002147064749985219,0.000350631278325045,0.0003918479550856123
233.124877221099,241.5010400705394,12.5,0.7998248578261321,11.55516524345061,9.558706614372849,-6.600512864067286,0.0001465195087113696,0.0001066252719465732,-0.0002637895112204979,0.000392011912766507,0.0004435333207267929
231.5933527289991,242.9714506102109,12.5,0.7058428992526382,10.99803042538309,10.86165381934778,-7.154639018306232,9.010278602287103e-05,8.824831294452183e-05,-0.0001945800798315871,0.0002766514486372233,0.0003155031056670105
233.2129979677837,243.2142751812841,12.5,0.7407585474046068,10.64757144470105,11.21941166153028,-7.839186939372404,9.680820348198092e-05,0.0001056314871212949,-0.0002419115264442615,0.0003155851702905894,0.0003533376644220326
219.2787356545033,227.9629863551837,12.5,0.6347286950903891,15.75122748960713,11.05227501958827,-4.84833599574491,0.0001137842129738525,6.232709157548096e-05,-0.0001061859703859227,0.000268866829789959,0.0002590901283268217
220.7810076778112,227.3223866166841,12.5,0.6834591059328486,13.93051662139528,9.896703802584277,-3.97063007741562,0.000115815336449452,6.484166581901185e-05,-0.0001003505114653094,0.000275438202280626,0.0002952553803059224
220.3165773944166,229.7292215986912,12.5,0.6479274540632842,15.89894465105037,10.60612281745655,-4.690539016284888,0.0001204062205890253,6.027291119380541e-05,-0.0001065811934595548,0.0002758999623308439,0.0002679771154227872
221.9019507666335,229.3545360450433,12.5,0.6987370750546835,13.80479323400038,9.39474460587908,-3.784222868976032,0.0001216862070590073,6.313205700656671e-05,-0.0001004895738740616,0.0002818313740850663,0.0003087793949341864
217.48114103079,224.9037771753648,12.5,0.6046627065669841,15.62377551590414,11.06506814265996,-4.533674957890721,0.0001040732251174187,5.794848607590364e-05,-9.174292500505288e-05,0.0002470994920451471,0.0002408988064061187
218.8394772956127,223.8026005582573,12.5,0.6501175532499406,14.42056718247323,10.00333360833829,-3.725520348923891,0.0001090170382982702,5.851740774903696e-05,-8.518336106378582e-05,0.0002552123224725801,0.000269511303718247
218.5189827707033,226.6700124188724,12.5,0.6232594194523118,16.03845709816864,10.77207019853921,-4.53647321308173,0.0001133549417299966,5.743968150532532e-05,-9.63309703772673e-05,0.0002606145640476621,0.0002518345172936308
219.9604203844349,225.8347499866165,12.5,0.6705638075987007,14.48407563389839,9.601027830117456,-3.665588253363084,0.0001173769629940283,5.808720775265272e-05,-8.901482807081222e-05,0.000267422873259051,0.0002847335269766273
215.1284336063958,226.8110710242676,12.5,0.499177338094941,15.43811100067843,11.28026687766373,-4.718993972836743,8.062283273374397e-05,4.741471785173093e-05,-7.537987925524542e-05,0.000195322699623034,0.0001933193668065191
216.4867698712187,225.70989440716,12.5,0.5649916302325686,13.96193469676464,10.01980998244042,-3.826419525195726,8.427962676510181e-05,4.803090156074036e-05,-7.036957982654808e-05,0.0002015922822820525,0.0002204832384414936
216.022339587824,228.1167293891671,12.5,0.5155938686283887,15.76715475597313,11.04430997475198,-4.740041232384147,8.591849802038148e-05,4.691944763389466e-05,-7.828210132621683e-05,0.0002027331362120332,0.0001994471751718922
217.4637772015558,227.2814669569113,12.5,0.5823684717621076,14.04065348235738,9.726899913682164,-3.791850738174421,8.895059089369614e-05,4.76342315960523e-05,-7.263533486896127e-05,0.0002081800415113539,0.0002289821082028667
216.6767241833914,229.0725376495603,12.5,0.5263185330687985,15.53428332763693,11.17336674598233,-4.940747157840082,8.607263762247633e-05,4.924690652594607e-05,-8.34442130885849e-05,0.0002066150477928653,0.0002036651073900336
218.1789962066994,228.4319379110608,12.5,0.5930652880644542,13.58043284121786,9.958850553725986,-4.057054008591283,8.721375593669591e-05,5.161509913726819e-05,-7.975832760580775e-05,0.0002117007115701302,0.000234548588665227
217.5706301648196,230.3781960144599,12.5,0.5394057295827219,15.48140423089224,10.70683271776146,-4.770925702347419,8.896121814004425e-05,4.749677257666167e-05,-8.286556752909967e-05,0.0002083843429451926,0.0002090609041479945
219.1560035370364,230.003510460812,12.5,0.6052997393252029,13.45383682074763,9.561400374846393,-3.902830883913297,8.969631148960603e-05,5.024929983325137e-05,-7.910470344743819e-05,0.000213418483251656,0.0002412576263470084
225.7505890788423,297.3644283439116,12.5,0,0.009340653232051244,3.900615404602433,-0.4597211245917084,-3.090602233339382e-06,1.247449677214214e-05,-3.677768996733667e-06,1.506188830201939e-05,1.519073016152149e-05
227.9329160435995,297.3696800229393,12.5,0,-0.0584373488653801,3.629753453919064,-0.4490855992016756,-3.090802279504467e-06,1.166196093163331e-05,-3.592684793613405e-06,1.38180475848282e-05,1.416199098462742e-05
225.5145638052845,299.2938007031788,12.5,0,0.0262669709716048,3.877782046196848,-0.5471097302410204,-3.018171329848343e-06,1.238788897105263e-05,-4.376877841928163e-06,1.504393524351807e-05,1.48438739202255e-05
227.7248924408736,299.2952078863331,12.5,0,-0.0406312266140666,3.610254598342256,-0.5367822104699018,-3.018223603838818e-06,1.158531969598647e-05,-4.294257683759215e-06,1.381633111780411e-05,1.385487422872468e-05
229.5304902604614,297.3735245188125,12.5,0,-0.03946627638665079,3.484243688437713,-0.2610955466672778,-2.913687035187453e-06,1.118115282411e-05,-2.088764373338222e-06,1.328639651899039e-05,1.340532990680625e-05
231.7128172252187,297.3787761978401,12.5,0,-0.1151742153736824,3.181445868663296,-0.25941208496542,-2.91371418412642e-06,1.027276615202149e-05,-2.07529667972336e-06,1.189765633498906e-05,1.236683257489516e-05
229.3429653034804,299.2962380158976,12.5,0,-0.04261149729168789,3.459418534637996,-0.3595652836674512,-2.903891619043797e-06,1.110422850867493e-05,-2.87652226933961e-06,1.319612347101013e-05,1.312689571651237e-05
231.5532939390695,299.2976451990519,12.5,0,-0.1173776538333664,3.160362775540686,-0.35810109504708,-2.903898712699321e-06,1.020706300479689e-05,-2.86480876037664e-06,1.182624048762169e-05,1.212702112574622e-05
229.855293013634,294.0432870535225,12.5,0,-0.00526778359845681,3.611328400250351,-0.2771248826878641,-2.905919627715342e-06,1.156046510767989e-05,-2.216999061502913e-06,1.387928976294806e-05,1.395493839630591e-05
231.9891196618144,294.0551975947321,12.5,0,-0.08723009245387336,3.283441687684917,-0.2771099759728043,-2.905889646000328e-06,1.057679747455483e-05,-2.216879807782435e-06,1.23747045854645e-05,1.286063957852152e-05
229.6677680566529,295.9660005506076,12.5,0,-0.01395424580756754,3.582542763549806,-0.3863335788141541,-2.910687797424061e-06,1.147530024000543e-05,-3.090668630513233e-06,1.375905180872263e-05,1.362720327414853e-05
231.8295963756653,295.9740665959439,12.5,0,-0.09488522932623922,3.258794094204999,-0.3865435413735236,-2.910668009207965e-06,1.050404928491699e-05,-3.092348330988189e-06,1.227570795809254e-05,1.256340504686275e-05
226.1593968445074,294.022657391002,12.5,0,0.02600391189195861,4.074643782757856,-0.4839157507312998,-3.176502508152017e-06,1.301805697531157e-05,-3.871326005850398e-06,1.578375007299729e-05,1.585672562059602e-05
228.2932234926878,294.0345679322117,12.5,0,-0.0507563821733199,3.767969598927247,-0.476699048745959,-3.176796102096421e-06,1.209810782230584e-05,-3.813592389967672e-06,1.437608902892468e-05,1.475773723170895e-05
225.9233715709496,295.9520297502691,12.5,0,0.03326820312365952,4.045130710999124,-0.5856384200620638,-3.129646318803588e-06,1.291780371269827e-05,-4.68510736049651e-06,1.571436430131679e-05,1.546212295667982e-05
228.0851998899619,295.9600957956055,12.5,0,-0.04249808245971631,3.742307809407652,-0.5787223048988558,-3.129840111397214e-06,1.200938345607226e-05,-4.629778439190846e-06,1.43260587132753e-05,1.440391239714547e-05
217.7716443724731,219.9629151378726,12.5,0.6321824882395701,15.75518017277524,10.93974428996315,-4.07624687756441,0.0001132756864171484,6.090802333591342e-05,-8.865802735829253e-05,0.0002653418801877559,0.0002574433571706318
218.9983696531318,218.6521354576226,12.5,0.6608753790351913,15.36729946426109,10.07555764777718,-3.536860372249656,0.0001212383578946345,5.882187157253948e-05,-8.343505964709486e-05,0.0002742053840921003,0.000277310844737107
218.9422351739788,221.5557324365481,12.5,0.6588057941348198,15.76816855844427,10.64782727382518,-4.198672715498683,0.0001229208375963268,6.289237056377297e-05,-9.84465185708986e-05,0.0002832802587453798,0.0002757753511701727
220.1818659937089,220.2418023790097,12.5,0.6871277379056455,15.2260697044978,9.752382790305687,-3.645870362131466,0.0001307930480900461,6.081321827002342e-05,-9.322323015089045e-05,0.0002920156045102631,0.0002983930809288289
219.896394885465,217.6925781341914,12.5,0.6773213499209074,15.89302748153196,10.71657433674809,-3.869009843127884,0.0001310419157299045,6.687339211032127e-05,-9.592230145203696e-05,0.000301430351162846,0.0002901515639894064
221.1231201661238,216.3817984539414,12.5,0.6950088325770509,15.8479385466874,10.01200590021021,-3.475062321117598,0.0001400165092978304,6.347747119009187e-05,-9.115181532581307e-05,0.0003099411851050815,0.0003053655738274323
221.089338736341,219.2799388193406,12.5,0.7032949980105878,15.76661893322398,10.44740714013413,-4.022006592982277,0.0001418757843378441,7.016534120511024e-05,-0.0001084445915239623,0.0003232007191569811,0.0003130586251819651
222.3289695560711,217.9660087618023,12.5,0.7206523746603102,15.59172580854624,9.727612128495474,-3.619669174985652,0.0001507492065964176,6.678051457091811e-05,-0.0001036606391934521,0.000331567761931996,0.00033050790744523
217.8301555252081,214.9431887776251,12.5,0.6270623470784666,15.95503916789188,10.89345379030848,-3.769589564316314,0.000113534693998613,5.92458836526288e-05,-8.086262215222211e-05,0.0002630198388043655,0.000254194679428353
219.0345277564966,213.6378657109013,12.5,0.6453609336100434,15.99278030810408,10.2652794197646,-3.402684106164769,0.0001211504245357954,5.654952259182748e-05,-7.675824642338125e-05,0.0002705144020657282,0.000266201407180226
219.023099376084,216.5305494627743,12.5,0.6569035777801491,15.81025904184499,10.59020480080789,-3.917423665706546,0.0001227662615096213,6.190810149427528e-05,-9.134280422653479e-05,0.0002813462859935465,0.0002743790172619075
220.2403771464439,215.2220760187622,12.5,0.6748356822823142,15.72712370671088,9.949401306390243,-3.545420876916071,0.000130294969367293,5.922047459032344e-05,-8.722779674722554e-05,0.0002887167696541185,0.000288134699013889
215.7441216294288,217.2040746494418,12.5,0.5807920753175739,15.80483836708605,11.07144868149134,-3.954400665151768,9.951702096539872e-05,5.435194266512067e-05,-7.54642349501852e-05,0.0002342775008747672,0.0002281840976670708
216.9484938607173,215.898751582718,12.5,0.6101201595123023,15.53433974791806,10.26950424370145,-3.469363771529425,0.0001064283902098445,5.241343526751286e-05,-7.118836956924214e-05,0.0002417944425278581,0.0002440079720462161
216.9147124309346,218.7968919481172,12.5,0.6113009726276895,15.80461973829541,10.78132574563695,-4.090945814510746,0.0001079234050304292,5.623000073644866e-05,-8.419770622358229e-05,0.0002501329754728712,0.0002446913192280877
218.1319902012944,217.4884185041051,12.5,0.6402554787527921,15.38863158374315,9.951342041843509,-3.593797300559143,0.0001147551804024136,5.429794788586043e-05,-7.991887772132759e-05,0.0002575371674475874,0.0002627383987321858
142.2228204839841,221.9358787143286,12.5,0,9.107910781910025,0.81515021510897,-3.359594316522708,2.84931943300249e-05,-4.677847937179316e-06,-2.687675453218167e-05,3.844821009059436e-05,3.890374302821852e-05
143.5457259599795,220.6964355993644,12.5,0,9.298587182384322,0.7876384810082697,-3.303426434579964,2.912536819882321e-05,-4.918426606680994e-06,-2.642741147663971e-05,3.904837547470833e-05,3.947152540112316e-05
144.9880303341391,223.4787676111401,12.5,0,9.359202967972974,1.007779682987088,-3.534190891623111,2.914322575112384e-05,-4.262467388819698e-06,-2.827352713298489e-05,4.007836636578395e-05,4.019460421466179e-05
145.968549801854,221.972236702616,12.5,0,9.581573370591258,1.012015173389837,-3.508138310152791,2.985142264718015e-05,-4.426810141625525e-06,-2.806510648122233e-05,4.090994933653319e-05,4.063662209354962e-05
147.7421799518199,222.906187930509,12.5,0,9.59201900074609,1.1863328747011,-3.666981192244867,2.97453945026266e-05,-3.877350001553351e-06,-2.933584953795893e-05,4.157580376413496e-05,4.150049426857432e-05
150.1650037936944,224.1819890337607,12.5,0,9.885452552673772,1.439468688100309,-3.879675020416497,3.048187321807582e-05,-3.302062240218028e-06,-3.103740016333198e-05,4.357941088276864e-05,4.269554024966076e-05
147.0123044379564,224.608240673992,12.5,0,9.309403860338241,1.164568454357483,-3.668920836845163,2.885843758959638e-05,-3.720904034326645e-06,-2.93513666947613e-05,4.045325332895966e-05,4.11376111167696e-05
149.7775142881114,226.1511295708036,12.5,0,9.574908616708958,1.385884185797257,-3.854174403771895,2.953100022483085e-05,-3.225097498815943e-06,-3.083339523017516e-05,4.223862732834168e-05,4.242309269888254e-05
149.0063614250092,219.9581461016874,12.5,0,9.839162210013845,1.166398583048023,-3.488346284518859,3.055220020560588e-05,-4.138854302257401e-06,-2.790677027615087e-05,4.234425425555375e-05,4.212764210893083e-05
150.8361553047518,220.7713375764202,12.5,0,10.04191414540095,1.366335105322027,-3.652377238887411,3.104105718102542e-05,-3.661258979290274e-06,-2.921901791109929e-05,4.381323728179131e-05,4.309760856598429e-05
148.2764859111458,221.6601988451704,12.5,0,9.555104974782367,1.147386529089559,-3.487747641412039,2.965842669603192e-05,-3.972447086739302e-06,-2.790198113129631e-05,4.121970376758186e-05,4.176577227339745e-05
150.4486657991688,222.7404781134631,12.5,0,9.736999313433149,1.315062616574086,-3.624639963195885,3.01063477097268e-05,-3.581399077709442e-06,-2.899711970556708e-05,4.249628615202175e-05,4.287627623152703e-05
145.8370654579735,218.5496571511934,12.5,0,9.608442317199369,0.8392168163977451,-3.207467265084235,3.007564196191978e-05,-5.00126004128671e-06,-2.565973812067388e-05,4.032204587842889e-05,4.049692225533729e-05
147.6668593377161,219.3628486259263,12.5,0,9.802846789922986,1.027862746279296,-3.364889462104204,3.054681953073012e-05,-4.553116643844643e-06,-2.691911569683363e-05,4.171476693300769e-05,4.143079031224799e-05
144.514159981978,219.7891002661577,12.5,0,9.425297037438186,0.8807407313991924,-3.257369757051406,2.945635793468284e-05,-4.721867289473133e-06,-2.605895805641125e-05,3.9786837317926e-05,3.98984164884144e-05
146.6863398700012,220.8693795344504,12.5,0,9.593689803912394,1.033501832057776,-3.384106193906465,2.987300590687344e-05,-4.36774598054503e-06,-2.707284955125172e-05,4.095665829328096e-05,4.096785716008211e-05
144.427878794419,188.1936958134071,12.5,0,8.884175246775484,0.3482369943447801,-0.8110005424273256,2.815077119420572e-05,-5.992981815517091e-06,-6.488004339418605e-06,3.526249790540197e-05,3.440846971417443e-05
146.5984857889844,189.0376658548178,12.5,0,8.936289866628156,0.450968622596261,-0.852143672109689,2.823535267513309e-05,-5.705932300994489e-06,-6.817149376877512e-06,3.578474663984067e-05,3.577408749614791e-05
144.0941390400568,190.489298888601,12.5,0,8.812718386423651,0.3438716825619763,-0.7779520351892998,2.79256014905061e-05,-5.949785324940596e-06,-6.223616281514398e-06,3.49702861487739e-05,3.494100453622956e-05
146.2749158688438,191.2896021111702,12.5,0,8.863315880369576,0.4463417121282025,-0.8183645855492283,2.800553744748008e-05,-5.662359225485412e-06,-6.546916684393826e-06,3.548564358922857e-05,3.629375891822878e-05
143.8498245833685,192.1697969735827,12.5,0,9.108284743216311,0.3245147202132799,-1.136223914094159,2.888689940212157e-05,-6.248180689890552e-06,-9.089791312753273e-06,3.610454607388705e-05,3.530616602398408e-05
146.03804624751,192.9381338661564,12.5,0,9.164369397784668,0.4336628288157991,-1.182390681177787,2.897905180985829e-05,-5.943774466017176e-06,-9.459125449422299e-06,3.666382587406211e-05,3.664641137495638e-05
143.5160848290063,194.4654000487765,12.5,0,9.022241378274973,0.3172046587598416,-1.102049721303752,2.861740868347203e-05,-6.202738194588484e-06,-8.816397770430016e-06,3.574587498567391e-05,3.577127093948415e-05
145.7144763273695,195.1900701225088,12.5,0,9.076515850625935,0.4260223751528771,-1.147457109815014,2.870403282188069e-05,-5.897941080011541e-06,-9.179656878520112e-06,3.629687874431978e-05,3.709020438211026e-05
147.6399356838164,193.5005955088261,12.5,0,9.519600815049996,0.5714189143713415,-1.268730467395442,3.000558747666291e-05,-5.787140126051703e-06,-1.014984373916354e-05,3.846652013223582e-05,3.765290342948787e-05
149.828157347958,194.2689324013998,12.5,0,9.583941860748025,0.6917294099509774,-1.322401712964707,3.011523042643289e-05,-5.453619376755291e-06,-1.057921370371765e-05,3.909696905281334e-05,3.906244550902689e-05
147.3238105990304,195.7205654351829,12.5,0,9.420247709214932,0.5613072463826028,-1.232878955196513,2.96957468723817e-05,-5.740014978947616e-06,-9.863031641572104e-06,3.804756021810799e-05,3.808186856907233e-05
149.5222020973935,196.4452355089152,12.5,0,9.482424543519713,0.6811981248833188,-1.285715879709935,2.979880003935642e-05,-5.406105635189149e-06,-1.028572703767948e-05,3.86680722099569e-05,3.947221206938825e-05
148.187480392203,189.6554948051701,12.5,0,9.310595064707398,0.5894956023139979,-0.9378581788643985,2.932230772521247e-05,-5.562090124361125e-06,-7.502865430915188e-06,3.766136388693631e-05,3.680065161684174e-05
150.3580873867684,190.4994648465807,12.5,0,9.37326089099043,0.7076234674672792,-0.9878804922173676,2.942833607719555e-05,-5.23421361689705e-06,-7.903043937738941e-06,3.827657014129046e-05,3.823965916995035e-05
147.871355307417,191.875464731527,12.5,0,9.223567913865521,0.582332710019549,-0.9017193558450164,2.904955115635402e-05,-5.515389659029859e-06,-7.213754846760131e-06,3.729996475939243e-05,3.73096023818193e-05
150.0521321362041,192.6757679540962,12.5,0,9.284321167949527,0.7001045892698925,-0.9509052713617481,2.914974406602257e-05,-5.187122248695965e-06,-7.607242170893985e-06,3.790641963331479e-05,3.873218395500414e-05
151.57225192397,228.6630128541732,12.5,0,9.586444974001543,1.706600448398911,-4.202256013303911,2.931134355808581e-05,-2.20803454432472e-06,-3.361804810643129e-05,4.349140340324973e-05,4.31098997028313e-05
154.1131284784778,229.5873639016389,12.5,0,9.807092361461086,1.979376038758902,-4.401549492170631,2.979919472566835e-05,-1.511670565140381e-06,-3.521239593736505e-05,4.529128181318218e-05,4.426047774326201e-05
151.4392491654097,230.9810184861816,12.5,0,9.190777713738754,1.618818806439026,-4.133206750654895,2.811543363881279e-05,-2.17240199038612e-06,-3.306565400523916e-05,4.170574855518447e-05,4.277678560784771e-05
154.0008939773572,231.8768312895127,12.5,0,9.403701984600861,1.888217105499329,-4.329957176530072,2.858127266632329e-05,-1.480666850082836e-06,-3.463965741224058e-05,4.346502383083965e-05,4.389241545733989e-05
151.3418843886009,232.6779163809705,12.5,0,9.250771193199542,1.854441844990726,-4.424472984688034,2.811891434224595e-05,-1.466403050589312e-06,-3.539578387750427e-05,4.285311653394955e-05,4.251613089985003e-05
153.9187326201783,233.5528377396371,12.5,0,9.457761159743686,2.127348797295361,-4.617985311015036,2.856295667334351e-05,-7.586927764497949e-07,-3.694388248812029e-05,4.460490222878244e-05,4.360443121481746e-05
151.2088816300407,234.9959220129789,12.5,0,8.870299133034241,1.770485671263429,-4.354911011061205,2.696856868869882e-05,-1.430685158384419e-06,-3.483928808848964e-05,4.113978124869221e-05,4.213712308932165e-05
153.8064981190577,235.842305127511,12.5,0,9.06999503256565,2.040115364461524,-4.545947259528227,2.739189181264086e-05,-7.276268597756439e-07,-3.636757807622582e-05,4.285296878214384e-05,4.318570591835559e-05
155.8051164490068,234.1933246267811,12.5,0,9.346055968474912,2.280798742119351,-4.682962281869537,2.808274010542423e-05,-1.782887999980057e-07,-3.74636982549563e-05,4.472357794239867e-05,4.441286718467381e-05
158.3819646805841,235.0682459854477,12.5,0,9.573280886455771,2.584959392348499,-4.894665936666536,2.856653132277966e-05,6.132453463505788e-07,-3.915732749333229e-05,4.666961890137727e-05,4.553325501411406e-05
155.7080853675161,236.4619005699905,12.5,0,8.939865113084261,2.188353057795555,-4.604394503941815,2.685688591563319e-05,-1.49162305521631e-07,-3.683515603153452e-05,4.288404791951364e-05,4.396101335019764e-05
158.3057018565332,237.3082836845225,12.5,0,9.159045602822543,2.488780056266414,-4.813277728827006,2.7317921884019e-05,6.368596977944919e-07,-3.850622183061605e-05,4.478724248821238e-05,4.503060981653198e-05
155.973179212059,230.2640358323845,12.5,0,9.720035909122608,2.13421956322481,-4.476274392650436,2.93967392586125e-05,-9.465261249786945e-07,-3.581019514120349e-05,4.550567683597844e-05,4.512088021228023e-05
158.5140557665667,231.1883868798502,12.5,0,9.958951391509615,2.433809358198334,-4.691520761019268,2.99215969662721e-05,-1.789711669730233e-07,-3.753216608815414e-05,4.747674712241322e-05,4.632096543226495e-05
155.8761481305683,232.5326117755939,12.5,0,9.302951666004812,2.03889702920453,-4.399316232905703,2.813832770785177e-05,-9.17890839349355e-07,-3.519452986324562e-05,4.361307925832055e-05,4.472365257368678e-05
158.4377929425157,233.428424578925,12.5,0,9.533454972684723,2.334693254479669,-4.611703229140109,2.863930130900738e-05,-1.557455638128368e-07,-3.689362583312087e-05,4.553967414097792e-05,4.587900475928791e-05
219.7412836703821,282.9747088111561,12.5,0,0.2883748830681818,5.82750544943861,-1.307513614671423,-3.739204733732706e-06,1.841731753174901e-05,-1.046010891737138e-05,2.350644680957726e-05,2.348442750112448e-05
221.9400731820691,283.2028695255011,12.5,0,0.173094814105853,5.406231444788623,-1.252824248624802,-3.771081750692168e-06,1.716146477203891e-05,-1.002259398899842e-05,2.153295877791606e-05,2.209132289838856e-05
219.0397108205914,285.0902501216623,12.5,0,0.3479920906548328,5.727788607365837,-1.434551079566406,-3.468656195797204e-06,1.805052987104681e-05,-1.147640863653125e-05,2.335715589939389e-05,2.283864916327277e-05
221.4049252197927,285.2881738696125,12.5,0,0.2415188095545322,5.33211326565769,-1.386087198895446,-3.492830421951648e-06,1.686954740246098e-05,-1.108869759116357e-05,2.151112005417883e-05,2.145141616603091e-05
223.5496988197052,283.3698947606858,12.5,0,0.1377435268563196,5.298670439998018,-0.8821265436005115,-3.798157066058191e-06,1.68455505865086e-05,-7.057012348804092e-06,2.089870723023275e-05,2.102842016266425e-05
225.7484883313922,283.5980554750309,12.5,0,0.02298742376188567,4.872138653588617,-0.8343002309585931,-3.824151166832859e-06,1.557245375247406e-05,-6.674401847668745e-06,1.890823408120551e-05,1.951762048777392e-05
223.1363823307281,285.4330641091303,12.5,0,0.1910279263768626,5.243768603629634,-1.012977409760736,-3.583725518497747e-06,1.662723719051334e-05,-8.103819278085884e-06,2.088891186266693e-05,2.039235781946621e-05
225.5015967299294,285.6309878570804,12.5,0,0.08523476996112933,4.845110919582577,-0.9712229803354641,-3.603337471790448e-06,1.543616712669534e-05,-7.769783842683712e-06,1.903407813968903e-05,1.888618960559046e-05
224.2655839782067,279.7963806246255,12.5,0,0.1530354461036136,5.583938549653546,-0.9249322586467682,-3.977437412191272e-06,1.774617500200845e-05,-7.399458069174146e-06,2.204661390251221e-05,2.225900034647558e-05
226.1761171290801,280.0769133010324,12.5,0,0.03364256258797016,5.155893805864875,-0.8678150133892325,-4.017058844410395e-06,1.647194612869722e-05,-6.94252010711386e-06,2.003348086657191e-05,2.074267383719221e-05
223.8522674892296,281.8595499730699,12.5,0,0.2198389948215713,5.523040341199484,-1.073301025943791,-3.714947489530558e-06,1.749785789598109e-05,-8.586408207550324e-06,2.206033070342311e-05,2.152858552031843e-05
225.9292255276173,282.1098456830819,12.5,0,0.1112957400526768,5.126568994752475,-1.024212557690818,-3.745108827633414e-06,1.631598419116578e-05,-8.193700461526544e-06,2.020272774918555e-05,2.001506393837724e-05
220.9564434914087,279.3104837759142,12.5,0,0.2985461222912726,6.128513138831686,-1.334667800127036,-3.947462919733275e-06,1.937240514642837e-05,-1.067734240101629e-05,2.469225599418147e-05,2.474739490859345e-05
222.8669766422821,279.5910164523211,12.5,0,0.180371113634918,5.703012366002364,-1.279267224107326,-3.985222329170153e-06,1.810534268029963e-05,-1.023413779285861e-05,2.269311029979625e-05,2.333206212343605e-05
220.2548706416179,281.4260250864205,12.5,0,0.3493406055306931,6.009663022266727,-1.482658662115555,-3.689840480115164e-06,1.895144918682897e-05,-1.186126929692444e-05,2.444953706954083e-05,2.399587438212358e-05
222.3318286800058,281.6763207964324,12.5,0,0.2411108304526426,5.61291203342607,-1.434825487777608,-3.7187749692924e-06,1.776842984260131e-05,-1.147860390222086e-05,2.259418818240521e-05,2.259524046390844e-05
170.9985933773434,160.7613500136115,12.5,0,6.75515102264322,2.732439724353614,1.1477910008649,1.943053149297541e-05,3.339686299816988e-06,9.1823280069192e-06,3.492492711014434e-05,3.454847884337543e-05
172.3425504045758,161.3281045720829,12.5,0,6.720202404793756,2.892596961990256,1.190429679516665,1.919057012574781e-05,3.880148354533814e-06,9.52343743613332e-06,3.534655569989838e-05,3.56301253466393e-05
170.5996222695369,162.6020021775982,12.5,0,6.964103006236282,2.823032956630097,1.234724637474613,2.002670325465202e-05,3.462423056227286e-06,9.877797099796908e-06,3.603706334551367e-05,3.562228417386951e-05
172.3186652599395,163.2710150122436,12.5,0,6.941448282851067,2.950323276039934,1.270019800822731,1.985237588429146e-05,3.887875857046935e-06,1.016015840658185e-05,3.639175448366341e-05,3.699908469456374e-05
170.307555147883,163.9494530806408,12.5,0,7.365273757106104,2.6433093480987,1.013663684950901,2.145422854426057e-05,2.566370908230957e-06,8.109309479607211e-06,3.689876737136296e-05,3.638808704926e-05
172.3011801205203,164.6933241689368,12.5,0,7.33377638490506,2.861536599881936,1.072170453602512,2.117885515179064e-05,3.289896011698148e-06,8.577363628820098e-06,3.752638640280011e-05,3.798664181942165e-05
169.9085840400765,165.7901052446275,12.5,0,7.563411190912691,2.730324918228125,1.098124300630398,2.201865587633811e-05,2.686310785599846e-06,8.784994405043188e-06,3.795538748175436e-05,3.740649408300399e-05
172.2772949758839,166.6362346090975,12.5,0,7.540117586740133,2.915446304275058,1.148749258762601,2.179601923414838e-05,3.297334104288078e-06,9.189994070100808e-06,3.850114424459709e-05,3.931573871210036e-05
173.7606148916669,165.2378755998279,12.5,0,7.786485164159296,3.158656494400282,0.9575112327491522,2.238982732978952e-05,3.878512650753465e-06,7.660089861993217e-06,4.022009384201886e-05,3.917686811243054e-05
175.7542398643042,165.9817466881238,12.5,0,7.691829702487593,3.344955972182801,1.077576960210155,2.193789027021405e-05,4.55039534899489e-06,8.620615681681238e-06,4.051722997079655e-05,4.083007204741178e-05
174.0113117292653,167.2556442936392,12.5,0,8.117175784807117,3.21958770036357,1.011829304693352,2.339929235109191e-05,3.808940013317729e-06,8.094634437546817e-06,4.168211753816624e-05,4.075288544915587e-05
176.3800226650726,168.1017736581092,12.5,0,8.04345952424463,3.376582562179408,1.11326064228804,2.303780442783929e-05,4.370296579578401e-06,8.906085138304324e-06,4.195409475694755e-05,4.276999872379393e-05
173.3263952316574,161.7429977042876,12.5,0,7.006216498293878,3.087222447978117,1.105856493970999,1.995011483615791e-05,4.274138634894871e-06,8.846851951767993e-06,3.706650368850001e-05,3.643102408933475e-05
174.6703522588899,162.3097522627589,12.5,0,6.914647585960375,3.18076439879468,1.195253620054121,1.958226075603745e-05,4.646728007374676e-06,9.56202896043297e-06,3.706048105152746e-05,3.753747364292594e-05
173.5770920692558,163.7607663980989,12.5,0,7.331745909572224,3.152191195625557,1.143328470856741,2.093983395413067e-05,4.221615098344003e-06,9.146627766853932e-06,3.851858063023764e-05,3.801882885130324e-05
175.2961350596584,164.4297792327443,12.5,0,7.268517324062349,3.226043064409451,1.21333444936942,2.067842098547195e-05,4.508523946860363e-06,9.706675594955364e-06,3.854673605082919e-05,3.942802117766124e-05
164.8974556399683,149.786617505883,12.5,0,4.294387324008376,2.276195151132032,1.587015264009989,1.192108331592118e-05,3.848314624415802e-06,1.269612211207992e-05,2.431648801929575e-05,2.430356685183294e-05
166.2709926395044,149.0012963438172,12.5,0,4.382252530723178,2.217567568689718,1.640308410231765,1.224915404336239e-05,3.590414195228555e-06,1.312246728185412e-05,2.44636420181424e-05,2.430402734539284e-05
165.80022235103,150.8554322399681,12.5,0,4.484056735048877,2.385265673874923,1.502949390176155,1.244076901305646e-05,4.045604768360654e-06,1.202359512140924e-05,2.535735406021124e-05,2.53774517511265e-05
167.273113405483,150.2360987491482,12.5,0,4.549700788111998,2.311906158240628,1.567742215307058,1.270951759536589e-05,3.758339075880411e-06,1.254193772245646e-05,2.537466576858387e-05,2.554177153759928e-05
166.4610934508809,151.6378589291634,12.5,0,4.699328284332084,2.400374431579381,1.514012647822703,1.311755096459916e-05,3.921735553588353e-06,1.211210118258162e-05,2.621079179247593e-05,2.616989785629821e-05
168.006716721468,151.1400368471203,12.5,0,4.766797382929471,2.352102015107079,1.604398342118549,1.337207001328864e-05,3.713288541999074e-06,1.28351867369484e-05,2.633091118550419e-05,2.645774542909513e-05
167.3638601619425,152.7066736632485,12.5,0,4.924299948698647,2.501129374534424,1.425434868008744,1.375685633620813e-05,4.064174039551238e-06,1.140347894406995e-05,2.735947604885062e-05,2.726101597868587e-05
169.0088374874466,152.3748392524512,12.5,0,4.96389007098862,2.438921550319297,1.528957304812722,1.393331098690814e-05,3.833436904230854e-06,1.223165843850177e-05,2.733016054824026e-05,2.772248844696836e-05
169.1381914848505,150.7756057899505,12.5,0,4.619494102962423,2.686374888037726,1.55753499006849,1.263328121904957e-05,4.900804359350783e-06,1.246027992054792e-05,2.691557605793793e-05,2.666827312614729e-05
170.6838147554377,150.2777837079074,12.5,0,4.692623068944603,2.636742805374967,1.655014397935677,1.290699957632276e-05,4.68347852204421e-06,1.324011518348542e-05,2.705200960096797e-05,2.695559791812178e-05
170.2130444669633,152.1319196040582,12.5,0,4.915961114362904,2.814102191954251,1.446619741915934,1.347979381239789e-05,5.072358122763278e-06,1.157295793532747e-05,2.841360679370397e-05,2.806651965275898e-05
171.8580217924674,151.8000851932609,12.5,0,4.958842322757725,2.750214335628627,1.557298915822743,1.366812396432182e-05,4.833612015805425e-06,1.245839132658195e-05,2.838987567796976e-05,2.854495791812562e-05
167.2764915091977,148.4264013529505,12.5,0,4.101809214513986,2.485456774505171,1.619376044468292,1.113742406684062e-05,4.672014306805359e-06,1.295500835574634e-05,2.434099130139617e-05,2.42990853048316e-05
168.6500285087338,147.6410801908848,12.5,0,4.190727796566949,2.438442937286116,1.673970719711021,1.145957459918534e-05,4.45043516206201e-06,1.339176575768817e-05,2.452928456232051e-05,2.428512290536473e-05
168.3513444913105,149.7827151670583,12.5,0,4.327964699594293,2.603295696415505,1.526084153107068,1.176685048156933e-05,4.868174468854181e-06,1.220867322485655e-05,2.55416230471175e-05,2.56587921351143e-05
169.8242355457636,149.1633816762384,12.5,0,4.394883942395159,2.543446659618717,1.591095768519626,1.202887128796953e-05,4.623122156863766e-06,1.272876614815701e-05,2.560708587656841e-05,2.58141785665982e-05
164.6750256910692,233.2082493659824,12.5,0,9.92008587024335,3.079795772429947,-4.995980186845083,2.928043816683476e-05,1.919277775581148e-06,-3.996784149476066e-05,4.96036327667189e-05,4.930260136588443e-05
167.1682356753024,234.0097104910348,12.5,0,10.16545144691147,3.424797308564627,-5.230446241656263,2.9789606783265e-05,2.826990229877631e-06,-4.18435699332501e-05,5.177430583520564e-05,5.053577291777101e-05
164.6050985771622,235.3974005040224,12.5,0,9.462377718232881,2.973259735501129,-4.902673178684822,2.790100090994431e-05,1.944528979017307e-06,-3.922138542947857e-05,4.751832401656761e-05,4.870844132251541e-05
167.0977051516317,236.1795864290202,12.5,0,9.703877873222194,3.31750217778483,-5.136441333642848,2.839840745208315e-05,2.852904670333701e-06,-4.109153066914279e-05,4.967302002213096e-05,4.98705608432527e-05
160.3566593245168,231.8200779771254,12.5,0,9.837562658794015,2.594195089680793,-4.747166901483221,2.940484443639621e-05,4.313741599433268e-07,-3.797733521186577e-05,4.757704537906668e-05,4.720210785551175e-05
162.84986930875,232.6215391021777,12.5,0,10.06274169595738,2.907074915774094,-4.963025318341193,2.987511349444435e-05,1.252446373711195e-06,-3.970420254672955e-05,4.954906835357895e-05,4.840934850464401e-05
160.2877773469784,234.0426147409853,12.5,0,9.408225464340399,2.493892772493308,-4.661421340705314,2.811120726789462e-05,4.538765005062664e-07,-3.729137072564252e-05,4.561919054360243e-05,4.672056625008711e-05
162.7803839214479,234.824800665983,12.5,0,9.629830150720897,2.80606279640718,-4.876648131927507,2.857060624518112e-05,1.275536827926259e-06,-3.901318505542006e-05,4.757612068968682e-05,4.786440281514055e-05
160.2373522396966,235.6696245737512,12.5,0,9.416410120263265,2.741643336619986,-4.936850706056761,2.793919771554645e-05,1.240130580973343e-06,-3.949480564845409e-05,4.662480360039261e-05,4.634501480615576e-05
162.7295170875613,236.4377000729836,12.5,0,9.634112375914079,3.056885392191793,-5.149267867197985,2.838365128917162e-05,2.074743354282474e-06,-4.119414293758387e-05,4.858052866566601e-05,4.744239597220925e-05
160.1684702621583,237.8921613376111,12.5,0,8.993064530363602,2.642957836949334,-4.849501102226276,2.666344022760406e-05,1.263013453946986e-06,-3.879600881781021e-05,4.469820749929633e-05,4.580053078586046e-05
162.6600317002592,238.640961636789,12.5,0,9.2072372896712,2.957504515972458,-5.061270683158936,2.709715571416987e-05,2.098224619374905e-06,-4.049016546527149e-05,4.663910817711109e-05,4.683439752563362e-05
164.5539083769578,236.9999703624467,12.5,0,9.447830037131135,3.222122250620172,-5.168302115495735,2.765535831832349e-05,2.752527172279642e-06,-4.134641692396589e-05,4.844769527098009e-05,4.825056863299774e-05
167.0460732248225,237.7680458616791,12.5,0,9.684009435267914,3.567456995079144,-5.398076481556149,2.813486459679401e-05,3.668654836038929e-06,-4.31846118524492e-05,5.058870750426117e-05,4.936115623760042e-05
164.4839812630509,239.1891215004866,12.5,0,8.998110268860799,3.117659750401789,-5.073942435331134,2.629982506003312e-05,2.778022986197086e-06,-4.059153948264907e-05,4.640347996866892e-05,4.759379722515311e-05
166.9755427011518,239.9379217996645,12.5,0,9.230486095357481,3.462252990747847,-5.303006843599879,2.676775311254566e-05,3.694820694107124e-06,-4.242405474879903e-05,4.852884207088648e-05,4.863464904780793e-05
144.3375927656556,145.9134759450785,12.5,0,3.050413812198617,0.7267080225344111,1.622542678673584,9.179957781008043e-06,-1.148653776487777e-07,1.298034142938867e-05,1.460432266677978e-05,1.486842985553306e-05
145.7870239720179,144.6044080979147,12.5,0,3.179176393287656,0.7081088695754479,1.663281104709566,9.606877362860141e-06,-2.773927319886917e-07,1.330624883767653e-05,1.504577679267257e-05,1.458225040386185e-05
145.5737368761501,147.5487888704932,12.5,0,3.233439635866093,0.8143396873396664,1.551667704063685,9.695535084899764e-06,1.913529079405809e-08,1.241334163250948e-05,1.550954727022947e-05,1.613702304367107e-05
147.0389477067648,146.1911769281437,12.5,0,3.361717161952678,0.7972193829840483,1.590662177580038,1.011971941186133e-05,-1.382717040131882e-07,1.272529742064031e-05,1.595283498293429e-05,1.583399008641254e-05
146.848081257106,143.6461039232768,12.5,0,2.765969756724603,0.8984849133650021,1.700193939264409,8.132315290826727e-06,6.623759173883244e-07,1.360155151411527e-05,1.417178066690776e-05,1.436828688131258e-05
148.2975124634684,142.337036076113,12.5,0,2.875399783771628,0.8671758116746486,1.730931847842369,8.50753865872949e-06,4.746427703415732e-07,1.384745478273895e-05,1.449105140991517e-05,1.406990711838791e-05
148.1115564785294,145.1973360094239,12.5,0,2.922319467186522,0.9869745574463742,1.632201365269048,8.561842649039772e-06,8.204630100791793e-07,1.305761092215239e-05,1.497684861348019e-05,1.560885897541392e-05
149.5767673091441,143.8397240670744,12.5,0,3.031338396474571,0.9574643839245043,1.661411469272205,8.934311361579023e-06,6.388153113787566e-07,1.329129175417764e-05,1.529935435855573e-05,1.529682229903362e-05
144.6596779795357,140.9592911357872,12.5,0,2.287787396885816,0.7776494485141771,1.750701612622515,6.69880011122327e-06,6.582483177367134e-07,1.400561290098012e-05,1.211344486538801e-05,1.230511048180885e-05
146.0817780749692,139.734304127891,12.5,0,2.384843739545527,0.740691993739889,1.778967205339473,7.038946371553773e-06,4.623393883312237e-07,1.423173764271579e-05,1.236616157088113e-05,1.203597569475266e-05
145.923153200959,142.5105232219343,12.5,0,2.440291199076269,0.8682483388461802,1.682625797319281,7.114333165967118e-06,8.261617250467611e-07,1.346100637855425e-05,1.288776282476847e-05,1.348305014048312e-05
147.3610329206449,141.2369921188524,12.5,0,2.537150053820852,0.8333159193027954,1.709358555752614,7.452227436784489e-06,6.368908987122637e-07,1.367486844602091e-05,1.314508293765083e-05,1.319616590415625e-05
142.1965283608404,143.081030872037,12.5,0,2.569355223179817,0.6170994492523649,1.685899519787159,7.72825715477352e-06,-8.076594093628549e-08,1.348719615829728e-05,1.255933098889211e-05,1.273591026179665e-05
143.618628456274,141.8560438641409,12.5,0,2.679079484313357,0.5934614434606372,1.721999477198807,8.098285195034231e-06,-2.441869683766462e-07,1.377599581759045e-05,1.291047656982211e-05,1.249265738379708e-05
143.432672471335,144.7163437974517,12.5,0,2.739758070468083,0.7025589399186627,1.618156594812906,8.205178673562935e-06,5.638215136525432e-08,1.294525275850325e-05,1.339090328090816e-05,1.3957104432291e-05
144.8705521910208,143.4428126943698,12.5,0,2.849238302323701,0.68054019488423,1.652588583513366,8.57313041152846e-06,-1.016620182294251e-07,1.322070866810693e-05,1.374529732354302e-05,1.368694300458021e-05
233.3028464367764,297.379682442198,12.5,0,-0.07437180334209226,3.018623903689623,-0.1217003637653508,-2.652888893646394e-06,9.719093934480467e-06,-9.736029101228063e-07,1.138034606383724e-05,1.165339129459886e-05
235.4645600636981,297.3769066688003,12.5,0,-0.144704486725773,2.737572684126802,-0.1436036445245487,-2.653112504823915e-06,8.875996178586384e-06,-1.14882915619639e-06,1.009362023779548e-05,1.074273080044059e-05
233.1693451235982,299.2978880264957,12.5,0,-0.1291842410050189,2.988951452978192,-0.2148015722448063,-2.804550733598614e-06,9.667992042334227e-06,-1.718412577958451e-06,1.111177388254975e-05,1.142769816063711e-05
235.3741504319612,299.2971442602555,12.5,0,-0.1980808190779206,2.713437129303028,-0.236176581796388,-2.804608324491768e-06,8.841463469032025e-06,-1.889412654371104e-06,9.855149809655142e-06,1.051698687974421e-05
237.0470442699516,297.374874661643,12.5,0,-0.01540382314836108,2.512302837873535,-0.05616867788464055,-2.059134504373583e-06,8.051692139714e-06,-4.493494230771244e-07,9.608929659886592e-06,1.022751899928918e-05
239.2087578968733,297.3720988882454,12.5,0,-0.1404623654124362,2.012581064963221,-0.09631361737405482,-2.059544421290373e-06,6.552629300212256e-06,-7.705089389924385e-07,7.319507142987384e-06,9.73059467598286e-06
236.9881799384118,299.2965997855787,12.5,0,-0.1115897045007928,2.475736183259786,-0.2207321686894883,-2.337676001010365e-06,8.011627550031947e-06,-1.765857349515906e-06,9.195999588341784e-06,1.001437981330653e-05
239.1929852467747,299.2958560193384,12.5,0,-0.2341007706870246,1.985823895489983,-0.259917124892786,-2.337781582590465e-06,6.541917082117566e-06,-2.079336999142288e-06,6.971589719648228e-06,9.551943052390201e-06
237.1490002829302,294.0463491088648,12.5,0,0.02061269221867723,2.549842499995319,-0.009742764428318092,-1.973913384896488e-06,8.143005846210079e-06,-7.794211542654474e-08,9.86126122392825e-06,1.06747675891575e-05
239.2360769282136,294.0400537958291,12.5,0,-0.06345901458231862,2.213502395979798,-0.00835693184182236,-1.973870763447258e-06,7.133974878801208e-06,-6.685545473457887e-08,8.315357061147599e-06,1.020306283254362e-05
237.0901359513904,295.9680742328003,12.5,0,0.02254038024553595,2.541601385903385,-0.123605177179845,-1.961151891936993e-06,8.115092130694403e-06,-9.888414174387601e-07,9.840294047972822e-06,1.040446937051433e-05
239.220304278115,295.9638109269222,12.5,0,-0.05983205717920637,2.212077002477933,-0.1221220141738396,-1.961124184955807e-06,7.126512053672751e-06,-9.76976113390717e-07,8.326284027396405e-06,9.905061695245469e-06
233.5340774940739,294.0572529108918,12.5,0,-0.00212201780840493,3.100239680098856,-0.1235906999069218,-2.48698220106598e-06,9.92246459056306e-06,-9.887255992553742e-07,1.191143304133794e-05,1.211930010598771e-05
235.6211541393573,294.0509575978562,12.5,0,-0.09064670316026902,2.746484849709092,-0.135392450153966,-2.487257329880134e-06,8.861268881597308e-06,-1.083139601231728e-06,1.028755297961034e-05,1.118822181906729e-05
233.4005761808958,295.9754584951895,12.5,0,-0.03507801976329794,3.071195294732664,-0.2438823832441535,-2.569205899028684e-06,9.855887358955161e-06,-1.951059065953228e-06,1.171219131286321e-05,1.183870547733358e-05
235.5307445076204,295.9711951893112,12.5,0,-0.1217714153564124,2.724645261377299,-0.255312131933083,-2.569384738242359e-06,8.816281968692486e-06,-2.042497055464664e-06,1.012552425143269e-05,1.092258766035817e-05
179.4061269940145,297.5556191229213,12.5,0,1.957171003801112,4.81059806628183,-3.483882950996747,2.414468759138095e-06,1.382817700906096e-05,-2.787106360797398e-05,2.633205851618758e-05,2.673925137517115e-05
181.4922043287629,297.5134175635343,12.5,0,1.982581797449169,4.920202607366618,-3.5224014909155,2.408099665944044e-06,1.415858290561384e-05,-2.8179211927324e-05,2.68366476936466e-05,2.662566134951601e-05
179.3096422666689,299.3450301180131,12.5,0,1.870935589346798,4.793679676717615,-3.451226727366744,2.152050144535662e-06,1.384302649401893e-05,-2.760981381893395e-05,2.596682739818411e-05,2.611081842660808e-05
181.4941808916261,299.3337222442564,12.5,0,1.896689166338292,4.898637713905561,-3.488573137289829,2.150495161158087e-06,1.415828935142716e-05,-2.790858509831864e-05,2.64550447290183e-05,2.596818061105378e-05
183.0193189262517,297.4825238779057,12.5,0,1.762443849668134,4.939548176948822,-3.343494826318977,1.688181777378971e-06,1.439659908650172e-05,-2.674795861055181e-05,2.605276081408424e-05,2.652679227792423e-05
185.105396261,297.4403223185187,12.5,0,1.794508811307424,5.076067626904974,-3.383283254506403,1.681574094659777e-06,1.480780935704998e-05,-2.706626603605122e-05,2.667765338254931e-05,2.637026697668195e-05
183.0933741561234,299.3254443061412,12.5,0,1.667717090624918,4.911429913389353,-3.297922231405113,1.407550759288255e-06,1.438240205034599e-05,-2.63833778512409e-05,2.561182350741716e-05,2.584547116404556e-05
185.2779127810807,299.3141364323845,12.5,0,1.699966015893578,5.042447780388828,-3.336733344107252,1.405933026548387e-06,1.477586008452939e-05,-2.669386675285801e-05,2.621683037289957e-05,2.56528605357905e-05
182.8910515055498,294.2904920619525,12.5,0,1.966706678624365,5.06834644623923,-3.532352451487225,2.238784214606584e-06,1.464534328506604e-05,-2.82588196118978e-05,2.732297778738403e-05,2.775163007192751e-05
184.8065888830808,294.1947810694217,12.5,0,1.99532341555411,5.205890723976562,-3.575932870842178,2.2203223505919e-06,1.506259158428171e-05,-2.860746296673742e-05,2.794279146030795e-05,2.765789932629257e-05
182.9651067354216,296.1334124901881,12.5,0,1.850432990507968,5.034387076254451,-3.481934016863367,1.893875908621937e-06,1.462969225160787e-05,-2.785547213490693e-05,2.678641699267734e-05,2.703754601792069e-05
184.9791054031614,296.0685951832876,12.5,0,1.879802525393256,5.166036061582967,-3.524365323115335,1.882539231992046e-06,1.502747337675089e-05,-2.819492258492268e-05,2.738673170769695e-05,2.690751550137333e-05
179.5732434439286,294.4562683638557,12.5,0,2.143713515526792,4.924176082605448,-3.648864556260068,2.920542383601376e-06,1.4042392651916e-05,-2.919091645008055e-05,2.747596498115886e-05,2.787308418771501e-05
181.4887808214595,294.3605573713249,12.5,0,2.167212744871605,5.040025020255437,-3.690400707815142,2.903060767384786e-06,1.439430986892011e-05,-2.952320566252113e-05,2.799863086666455e-05,2.780928868176726e-05
179.476758716583,296.2456793589474,12.5,0,2.039548198098681,4.903503856714416,-3.611169448419316,2.603751148544246e-06,1.405957378300719e-05,-2.888935558735452e-05,2.703407071053469e-05,2.721144906269407e-05
181.4907573843227,296.180862052047,12.5,0,2.063848146279795,5.014078061950936,-3.651381070470693,2.593051618534595e-06,1.439397128121916e-05,-2.921104856376555e-05,2.75395821860213e-05,2.711898477022676e-05
198.8977194269302,233.7855031957741,12.5,0,11.89848011978866,8.303372242911657,-5.771387114171027,3.143243858899438e-05,1.705200708148637e-05,-4.617109691336822e-05,7.489780229614879e-05,7.532642803779387e-05
201.2205989921554,233.535262677451,12.5,0,12.01969073603431,8.966884087253996,-5.909952642147852,3.128950308550659e-05,1.907827649038534e-05,-4.727962113718282e-05,7.771641749207757e-05,7.871797404954413e-05
199.6070073199255,236.0625694703099,12.5,0,11.43314651771067,8.001570660590273,-5.48464139910118,3.018481232820193e-05,1.645850889972033e-05,-4.387713119280944e-05,7.201802442632029e-05,7.358311086069279e-05
202.091997438122,235.8425239648256,12.5,0,11.55593814716472,8.63178363268157,-5.620432797217651,3.007357516478183e-05,1.837695710684925e-05,-4.496346237774121e-05,7.472567943137944e-05,7.680521656525788e-05
197.6691967590909,229.8415087161474,12.5,0,12.61802505039794,8.213696647132657,-5.516018022566251,3.380672284356728e-05,1.618940923050615e-05,-4.412814418053e-05,7.708265696479636e-05,7.782090563287815e-05
199.7112926101319,229.5389689014532,12.5,0,12.73706578786724,8.840581452415243,-5.582366896040867,3.368614535924296e-05,1.810020801743499e-05,-4.465893516832694e-05,7.972517030397212e-05,8.12050600662498e-05
198.3784846520862,232.1185749906832,12.5,0,12.27647979181814,7.930340018456294,-5.22806687720245,3.294046331905301e-05,1.555590422560563e-05,-4.18245350176196e-05,7.472100307842948e-05,7.646194172465442e-05
200.5826910560985,231.8462301888278,12.5,0,12.39484766151576,8.522167381127336,-5.296070291691289,3.284577861194856e-05,1.735505749039486e-05,-4.236856233353031e-05,7.723996463083315e-05,7.989690856242155e-05
194.1321829912259,230.3655230465006,12.5,0,12.22760808954644,7.424536733189937,-5.655859720375969,3.318871649999667e-05,1.397643107457064e-05,-4.524687776300775e-05,7.300078930280566e-05,7.306752296429045e-05
196.1742788422669,230.0629832318065,12.5,0,12.31772152918629,7.955510186081462,-5.740827028083267,3.305230074453094e-05,1.560345537211165e-05,-4.592661622466614e-05,7.520187819574451e-05,7.56404591380977e-05
194.560687170037,232.5902900246654,12.5,0,11.88190258273774,7.236457221077777,-5.421737528252569,3.223292248789855e-05,1.365114104125869e-05,-4.337390022602055e-05,7.097502012619227e-05,7.167924320686493e-05
196.7648935740492,232.31794522281,12.5,0,11.97336802652582,7.735507025746292,-5.505998174568726,3.212637206428557e-05,1.517492806116748e-05,-4.404798539654981e-05,7.307131564644027e-05,7.426002492903233e-05
194.8743740001689,234.2189324876142,12.5,0,11.50359854243525,7.532564766958074,-5.873937488947693,3.078546352222635e-05,1.490132842031763e-05,-4.699149991158154e-05,7.085043154990241e-05,7.058484087268946e-05
197.1972535653941,233.9686919692911,12.5,0,11.59340737759443,8.088780129713312,-6.033785303839905,3.062787950453152e-05,1.660937051300705e-05,-4.827028243071924e-05,7.318332825421388e-05,7.31471615711887e-05
195.3028781789799,236.4436994657789,12.5,0,11.03113237305383,7.320134802271014,-5.645761273113088,2.944351575195545e-05,1.459952546882417e-05,-4.51660901849047e-05,6.828188632302809e-05,6.898315784909854e-05
197.7878682971764,236.2236539602947,12.5,0,11.12461723219356,7.846719213678135,-5.800320587220296,2.932139977207689e-05,1.620980769801518e-05,-4.640256469776237e-05,7.052429869780411e-05,7.148719654461431e-05
194.4617156886311,201.2879325612163,12.5,0,14.63953051788445,7.743012606606133,-2.705759849264261,4.065208757194532e-05,1.306601592683206e-05,-2.164607879411409e-05,8.196959221937739e-05,8.335376716095378e-05
195.7644222954026,199.7840801082485,12.5,0,15.19622585458607,7.782174526430317,-2.562439873788239,4.240218311353118e-05,1.274597780090815e-05,-2.049951899030591e-05,8.415408445349026e-05,8.521477578030206e-05
195.7346293287193,202.8195070117139,12.5,0,15.26027254716213,7.996011496740982,-2.938171582702945,4.243606295352602e-05,1.337901875184144e-05,-2.350537266162356e-05,8.52111281119438e-05,8.620657189194222e-05
197.0238328420107,201.3168797972665,12.5,0,15.8231706929548,8.036622222913334,-2.795151728338758,4.420484843912467e-05,1.305865455895883e-05,-2.236121382671007e-05,8.742230451067777e-05,8.840736837656608e-05
196.6664667868717,203.9406973250048,12.5,0,14.8695273466003,8.669253461977242,-3.096417657014224,4.064708473953916e-05,1.584598920104693e-05,-2.477134125611379e-05,8.612599695229862e-05,8.846615486424991e-05
197.9457853496767,202.4389670474056,12.5,0,15.42123248788187,8.744336875799464,-2.944323029019495,4.235247446058241e-05,1.564489201225279e-05,-2.355458423215596e-05,8.840375064682446e-05,9.099652006039517e-05
197.9393804269598,205.4722717755023,12.5,0,15.46650902272623,8.881084480697549,-3.307397402514521,4.23879612881659e-05,1.604626312005117e-05,-2.645917922011617e-05,8.913100530687961e-05,9.178664561778607e-05
199.2051958962847,203.9717667364234,12.5,0,16.02433430714309,8.957638751566581,-3.155450259237981,4.41117587816046e-05,1.584497655929859e-05,-2.524360207390385e-05,9.143578144235174e-05,9.48776214131555e-05
198.8823115366761,201.3396241849852,12.5,0,15.08206769638185,9.453312793271037,-2.967167190685762,4.069996639380509e-05,1.818494678136183e-05,-2.37373375254861e-05,8.962113551438205e-05,9.287880308812623e-05
200.1616300994812,199.837893907386,12.5,0,15.64018081665214,9.454336370979943,-2.842106166279894,4.248510951650289e-05,1.77417317338141e-05,-2.273684933023915e-05,9.166881515171221e-05,9.549093075818543e-05
200.1318371327978,202.8733208108513,12.5,0,15.72645174921416,9.749813123628797,-3.219485954603897,4.252479509858226e-05,1.861824059624082e-05,-2.575588763683117e-05,9.310250948557045e-05,9.723766316534617e-05
201.3976526021227,201.3728157717724,12.5,0.006114021680180159,16.19140474004804,9.692677744402243,-3.076013167880122,4.432938378616958e-05,1.817456467248415e-05,-2.475948537340408e-05,9.517834841911957e-05,0.0001005944413452197
196.7180697188745,198.6831837056359,12.5,0,14.78838715563118,8.361586174478365,-2.522160691145015,4.06335699584371e-05,1.492636603382582e-05,-2.017728552916012e-05,8.463042247187192e-05,8.654569371048027e-05
198.020776325646,197.1793312526682,12.5,0,15.37708000155435,8.356067203666694,-2.388208929706384,4.252180224204057e-05,1.443775105048993e-05,-1.910567143765107e-05,8.678084505976384e-05,8.832082049723783e-05
197.9675953149962,200.216880331502,12.5,0,15.46996792655031,8.678574244832022,-2.79042541659715,4.256103796909538e-05,1.539546324222222e-05,-2.23234033327772e-05,8.832403348630299e-05,9.001389850728583e-05
199.2567988282876,198.7142531170546,12.5,0,16.0653982348985,8.674569379248151,-2.657005498042395,4.446961884827666e-05,1.490630342567529e-05,-2.125604398433916e-05,9.050317213552374e-05,9.220222396386527e-05
173.1136894167909,153.60356907474,12.5,0,5.591950713686992,2.954956660914029,1.439766781329658,1.553027695506715e-05,4.982300743975297e-06,1.151813425063727e-05,3.140599538469751e-05,3.041506099228405e-05
174.3238497272479,155.0752864035083,12.5,0,5.660660179858493,3.055748033292605,1.384780986242601,1.566951414891309e-05,5.249865562649539e-06,1.107824788994081e-05,3.199309073848564e-05,3.205627590291924e-05
172.4781135483102,155.6964987010953,12.5,0,5.540491075175931,2.983714337006209,1.487467320313382,1.534259997095801e-05,5.115493018279123e-06,1.189973856250705e-05,3.132838400731639e-05,3.166064614899266e-05
173.687145973556,156.864029872763,12.5,0,5.607338349660236,3.094919480715641,1.434793852178086,1.546754713434024e-05,5.417871658561864e-06,1.147835081742469e-05,3.194467554297405e-05,3.307054953218007e-05
172.0128397205374,157.2286295241884,12.5,0,6.223993723739344,2.8617458095205,1.312393781922926,1.76273832683495e-05,4.178391611474124e-06,1.049915025538341e-05,3.340957234750768e-05,3.254742733581466e-05
173.2210464765036,158.1734809739088,12.5,0,6.224037246650385,2.955198380097527,1.295091944701337,1.755276048520321e-05,4.477405018991779e-06,1.03607355576107e-05,3.372490386704239e-05,3.379835774901957e-05
171.3772638520567,159.3215591505437,12.5,0,6.288230083392895,2.924098497195685,1.379280422586602,1.778305746910072e-05,4.326531124311875e-06,1.103424338069281e-05,3.388041388852491e-05,3.372457343680296e-05
172.5843427228116,159.9622244431634,12.5,0,6.297446791265708,3.033576157165819,1.370207823543526,1.772496880631761e-05,4.669486269918055e-06,1.096166258834821e-05,3.428706432742275e-05,3.477249314641489e-05
174.1055152078811,158.8651602406798,12.5,0,6.564027122984396,3.056965775454172,1.270132953616141,1.855931417318673e-05,4.531068783065833e-06,1.016106362892912e-05,3.533969967807133e-05,3.473655083835398e-05
175.3137219638472,159.8100116904001,12.5,0,6.601781646959359,3.163638698810963,1.23404644445721,1.859479031122118e-05,4.842218518627596e-06,9.872371555657677e-06,3.583812331006479e-05,3.604881161262967e-05
173.4679857849096,160.4312239879871,12.5,0,6.55854844862579,3.103092112476,1.314031830994744,1.850488134562173e-05,4.683056001022568e-06,1.051225464795795e-05,3.548752518091878e-05,3.555154034645794e-05
174.6750646556645,161.0718892806068,12.5,0,6.599087481694948,3.229315534290484,1.282615803178597,1.853362751399145e-05,5.054539724373588e-06,1.026092642542878e-05,3.606453955119684e-05,3.663201716894838e-05
175.2097485597681,156.1526582625004,12.5,0,6.123988441629396,3.220477401974646,1.39024851554393,1.702038109163435e-05,5.406336933015351e-06,1.112198812435144e-05,3.428754342426959e-05,3.328331702798291e-05
176.419908870225,157.6243755912687,12.5,0,6.238518235245684,3.319585116930949,1.326444852070654,1.730759025924143e-05,5.63185778598249e-06,1.061155881656523e-05,3.503990735565715e-05,3.49944408141407e-05
174.5722191367965,157.7187220098078,12.5,0,6.037969419018183,3.233696496550468,1.409822434611448,1.673454494361781e-05,5.517453253746948e-06,1.127857947689158e-05,3.401810274495343e-05,3.412878223193408e-05
175.7812515620423,158.8862531814754,12.5,0,6.148488637252079,3.343476046313921,1.343679563763501,1.700038280215551e-05,5.780332438402885e-06,1.074943651010801e-05,3.479148070754809e-05,3.561002435082831e-05
222.8384165843077,245.985989710357,12.5,0.05460222060652598,8.538186644635154,10.19253108272176,-5.175929471921457,2.027524584302762e-05,2.727481565013238e-05,-4.379895603513778e-05,7.325958993035345e-05,0.000105571575475037
224.5376761518808,246.2942490188535,12.5,0.1271533562737693,8.242822166654861,9.858126488590784,-5.351346819095071,2.118416777486344e-05,2.858663341322621e-05,-4.904730385397256e-05,7.688239132117047e-05,0.0001140127508261783
222.7809041428781,247.7747967347736,12.5,0,7.273251366501025,10.35559619229276,-5.323135235158063,1.498992741896907e-05,2.731930672213601e-05,-4.25850818812645e-05,6.550119764397505e-05,8.906111805061119e-05
224.4850394469297,248.0931472830142,12.5,0,7.693222476139163,10.86922428763045,-5.97796898569805,1.592293249354096e-05,2.862693973950609e-05,-4.78237518855844e-05,6.916674225873704e-05,9.365292192142446e-05
222.7388021136862,249.084294361527,12.5,0,6.199644435670617,10.3839301084608,-5.041458668967548,1.153171810737734e-05,2.826886079853805e-05,-4.033166935174038e-05,6.175438618434215e-05,7.930338361621197e-05
224.4465067045642,249.4100322099713,12.5,0,6.428505884264258,10.57030603839164,-5.433533644821807,1.211497399893232e-05,2.868217461544182e-05,-4.346826915857445e-05,6.342822245177035e-05,8.178482862667241e-05
222.6812896722567,250.8731013859436,12.5,0,5.130949762257611,10.12111528687069,-5.00012843733836,8.322147009727802e-06,2.828280910818011e-05,-4.000102749870688e-05,5.71363588881934e-05,6.915521479796137e-05
224.3938699996132,251.2089304741319,12.5,0,5.364520185594888,10.3082586857859,-5.391235010324816,8.919857645274922e-06,2.869481164603896e-05,-4.312988008259853e-05,5.883251741266734e-05,6.972042365981764e-05
225.6966332293524,249.6484888649705,12.5,0,5.142747241476151,10.42192549922089,-4.712000733690369,8.119250773346975e-06,2.923596380432591e-05,-3.769600586952295e-05,5.812256915095877e-05,8.348921165568884e-05
227.4043378202304,249.9742267134147,12.5,0,5.367888903715048,10.62549965851922,-5.088642061195853,8.676844765072777e-06,2.970728778428947e-05,-4.070913648956682e-05,5.983136353515804e-05,8.56642276762574e-05
225.6475658112278,251.4547744293348,12.5,0,4.111117046297615,10.16825862402978,-4.660077654940962,5.020967648928544e-06,2.92495339598572e-05,-3.72806212395277e-05,5.370271141392069e-05,6.988226267848155e-05
227.3601461385842,251.7906035175231,12.5,0,4.340752404966421,10.37249662426725,-5.035857930310922,5.592410396478746e-06,2.971938727368205e-05,-4.028686344248738e-05,5.54302546884349e-05,6.975920623828098e-05
225.781620490539,246.5199104945693,12.5,0.1769977931762097,7.545308700487039,9.619026945521579,-4.815026988627044,1.998751175725979e-05,3.006630973782722e-05,-4.680451108105444e-05,7.71908943686606e-05,0.0001206404837578406
227.4808800581121,246.8281698030658,12.5,0.2405955107148564,7.40566138488232,9.508875328790692,-5.109544897394091,2.118899268522623e-05,3.22672202890067e-05,-5.382686006719713e-05,8.268662119285548e-05,0.0001303066115157679
225.7325530724143,248.3261960589338,12.5,0,6.821780971937537,11.12106805570183,-5.581477636087392,1.293284466563865e-05,3.012999300069583e-05,-4.465182108869914e-05,6.685934009584537e-05,9.708983600272021e-05
227.4366883764659,248.6445466071743,12.5,0.01917057345846029,7.27357784857549,11.72599737188962,-6.334195582919618,1.416622589202202e-05,3.232399890669844e-05,-5.166399303703072e-05,7.241058326039405e-05,0.000101887856023655
146.5418438371768,148.6944341751354,12.5,0,3.559934010091264,0.84284376368003,1.557303803267359,1.071751382134802e-05,-1.508471642969146e-07,1.245843042613887e-05,1.681208797403207e-05,1.706803628976445e-05
148.0043476237204,147.3187668469689,12.5,0,3.680377750644157,0.8167358786633061,1.590145678094571,1.112382009913066e-05,-3.307473887927462e-07,1.272116542475657e-05,1.719484024886636e-05,1.676370465363184e-05
147.9506171314808,150.1890824295888,12.5,0,3.721544090826768,0.937406395951865,1.482302219778389,1.115901597388416e-05,2.246519438455375e-08,1.185841775822711e-05,1.7674875615444e-05,1.834301859258131e-05
149.3899455118313,148.8126309652039,12.5,0,3.844298870843876,0.9118525016178992,1.514804994771484,1.157227438540608e-05,-1.575110914978236e-07,1.211843995817187e-05,1.806733416354657e-05,1.805199240536916e-05
148.9819107592136,151.2832408912464,12.5,0,4.080942330850483,0.9854127283613272,1.499420442262041,1.227068527603248e-05,-1.114331339241393e-07,1.199536353809632e-05,1.917978541387891e-05,1.929944681709879e-05
150.4042735647454,149.9062153993094,12.5,0,4.196007472093439,0.9573988717096191,1.527867365636361,1.266130481333131e-05,-2.931295882039697e-07,1.222293892509089e-05,1.953401997154142e-05,1.901638690799771e-05
150.3906840535176,152.7778891456998,12.5,0,4.237287145937096,1.080743642839981,1.425591704817836,1.269472395272672e-05,6.85499403382632e-08,1.140473363854269e-05,2.003848153249294e-05,2.063747501756766e-05
151.7898714528563,151.4000795175444,12.5,0,4.354608307092255,1.053282185873207,1.453667437415809,1.309212083399665e-05,-1.131836508795419e-07,1.162933949932647e-05,2.040216948878934e-05,2.036287393609371e-05
151.4455154051466,148.8981627759369,12.5,0,3.756673336689719,1.186593931531129,1.597255346603215,1.10720795321822e-05,7.917619115478365e-07,1.277804277282572e-05,1.86766598463785e-05,1.879832745513283e-05
152.8678782106784,147.521137284,12.5,0,3.868666412324071,1.150616420804136,1.622469059059001,1.145923938279372e-05,5.870394167139788e-07,1.297975247247201e-05,1.898843256159279e-05,1.848563785991106e-05
152.8141477184388,150.3914528666199,12.5,0,3.913058460084185,1.287257109128641,1.522279404452842,1.149198138496648e-05,9.88775981144302e-07,1.217823523562274e-05,1.954854299037114e-05,2.014828509343113e-05
154.2133351177773,149.0136432384644,12.5,0,4.027314499033884,1.251816945383212,1.547079423455338,1.188595284060186e-05,7.839626259991718e-07,1.237663538764271e-05,1.986974256921998e-05,1.983661855398856e-05
149.0749747016867,146.3117084684814,12.5,0,3.265521852903848,1.038513588958939,1.655971281941848,9.618859058125161e-06,7.108260023455269e-07,1.324777025553479e-05,1.641596980576931e-05,1.65365757021045e-05
150.5374784882303,144.936041140315,12.5,0,3.36873466276367,0.9979631873602158,1.679207921976977,9.98158037095557e-06,4.984944693417546e-07,1.343366337581582e-05,1.667880569809311e-05,1.622037950276819e-05
150.4436070149788,147.8049985591643,12.5,0,3.413343916193253,1.1375715621757,1.583753774251076,1.001264328207785e-05,9.095538660076376e-07,1.267003019400861e-05,1.723881126900773e-05,1.783057284046107e-05
151.8829353953293,146.4285470947794,12.5,0,3.51864252004975,1.097499115593489,1.606588929223156,1.038165677168441e-05,6.970831538593647e-07,1.285271143378525e-05,1.751014735181167e-05,1.751666952652883e-05
164.5130853726939,244.7081445587187,12.5,0,8.430021352351581,3.533549664120584,-5.40571733136051,2.414922859622859e-05,4.563341843304603e-06,-4.324573865088408e-05,4.593587862119676e-05,4.586695242042579e-05
167.0046162786384,245.392493165898,12.5,0,8.646238802890506,3.886855659266745,-5.624842250162246,2.455847964183622e-05,5.520947067341178e-06,-4.499873800129796e-05,4.803470379929125e-05,4.674404358050307e-05
164.5391564989239,246.9567464462937,12.5,0,7.986512126370755,3.419579779571722,-5.297100199014897,2.282117498072903e-05,4.553445593532906e-06,-4.237680159211918e-05,4.388568773169686e-05,4.51174110092062e-05
167.0307781218523,247.6137383355393,12.5,0,8.197209592938378,3.771417790610626,-5.514845627538955,2.32139364649143e-05,5.510769255603302e-06,-4.411876502031164e-05,4.595973189965837e-05,4.593047566120852e-05
164.4679288574538,240.8134518435139,12.5,0,8.955712987558062,3.376256025833828,-5.308264232412396,2.595727673951873e-05,3.639448892621801e-06,-4.246611385929917e-05,4.725362751775007e-05,4.709725563459937e-05
166.959302636973,241.5451836760816,12.5,0,9.186998497894422,3.732931266338569,-5.536923818035622,2.641205018019129e-05,4.595781253967883e-06,-4.429539054428498e-05,4.94190166594217e-05,4.808832223867259e-05
164.4939999836838,243.0620537310887,12.5,0,8.4948197444184,3.257944063924231,-5.199706988803793,2.457706793099949e-05,3.629565209022816e-06,-4.159765591043034e-05,4.512003176694277e-05,4.639745018892248e-05
166.9854644801869,243.7664288457228,12.5,0,8.720366158081198,3.613096631519332,-5.426985842056059,2.501469440064437e-05,4.585616294396902e-06,-4.341588673644847e-05,4.725963465809711e-05,4.732223682830684e-05
160.1527428907592,239.5460551320138,12.5,0,8.972535583877121,2.902309772680636,-5.095140081340426,2.639026605026228e-05,2.109362805476338e-06,-4.076112065072341e-05,4.562801380091969e-05,4.538382166140568e-05
162.6441166702784,240.2777869645816,12.5,0,9.186750058996472,3.229287228933759,-5.307674343320996,2.68141704056417e-05,2.984319085390852e-06,-4.246139474656797e-05,4.761484417759834e-05,4.637258688901376e-05
160.1786568905639,241.8420402449772,12.5,0,8.533794919325002,2.789815075520572,-4.99371629929276,2.507629168142355e-05,2.100372306205827e-06,-3.994973039434207e-05,4.359646048813225e-05,4.478983518166456e-05
162.670121387067,242.5464153596113,12.5,0,8.742661698992753,3.115377072730294,-5.204987794268974,2.548421577859257e-05,2.975077273542739e-06,-4.163990235415179e-05,4.555900430169192e-05,4.571889521281455e-05
160.1976272550475,243.5228180010167,12.5,0,8.490942571008736,3.068200042144273,-5.214822765555984,2.471645619351253e-05,3.025486078054684e-06,-4.171858212444787e-05,4.450084595172691e-05,4.433540948735641e-05
162.689158160992,244.2071666081959,12.5,0,8.692257682370546,3.393790108735636,-5.419700366729394,2.510019249659724e-05,3.906322202057596e-06,-4.335760293383515e-05,4.643663462653874e-05,4.522156086032515e-05
160.2235412548523,245.81880311398,12.5,0,8.066246130075854,2.959197689100511,-5.112795299608994,2.344462946496232e-05,3.01643570106095e-06,-4.090236239687195e-05,4.253683854636056e-05,4.368788188193007e-05
162.7151628777806,246.4757950032256,12.5,0,8.262387170046424,3.283415199224948,-5.316404427820363,2.381290678476859e-05,3.897018901482694e-06,-4.25312354225629e-05,4.444916968622928e-05,4.451650981711618e-05
157.28625674642,185.5136406872304,12.5,0,9.684739537307147,1.240011996855458,-0.5608410596301592,2.99991569218985e-05,-3.779753239908251e-06,-4.486728477041274e-06,4.109132485972472e-05,4.043203969614902e-05
159.3852191397323,186.3637342364596,12.5,0,9.753139099497062,1.393515377620141,-0.6125913564000226,3.009523281629448e-05,-3.343262071213199e-06,-4.900730851200181e-06,4.184643811236014e-05,4.206204940457478e-05
156.6682951688975,187.4370477490731,12.5,0,9.622278946944006,1.265017374284813,-0.5190989044073552,2.977927873079296e-05,-3.649767559843801e-06,-4.152791235258841e-06,4.092793089736697e-05,4.080768134647966e-05
158.7218378752377,188.236571137475,12.5,0,9.691568461076677,1.423066996155814,-0.5716076301780443,2.987456547852072e-05,-3.199440381162737e-06,-4.572861041424355e-06,4.170128370847993e-05,4.237325027480773e-05
153.6507472380921,184.0412354688052,12.5,0,9.230442827035404,0.9594175741891051,-0.4570147803593222,2.876988298716201e-05,-4.314218024223187e-06,-3.656118242874578e-06,3.845413397025522e-05,3.774082821426188e-05
155.7497096314044,184.8913290180345,12.5,0,9.288643246792066,1.098291814312081,-0.5003472010238131,2.884502493828494e-05,-3.916380791634994e-06,-4.002777608190505e-06,3.911911519073621e-05,3.927417196792446e-05
153.1114548660676,186.0522326185462,12.5,0,9.179140372618528,0.9788926442540173,-0.4148610692436034,2.859013507697608e-05,-4.210855836481967e-06,-3.318888553948828e-06,3.831570935637227e-05,3.821704773751285e-05
155.1649975724079,186.8517560069482,12.5,0,9.238106052891586,1.121725486939639,-0.4587037808927906,2.866455897970136e-05,-3.800963284106425e-06,-3.669630247142325e-06,3.89963444316761e-05,3.969403023306598e-05
152.7166654496282,187.5243847059703,12.5,0,9.487998946930659,0.8833065956950426,-0.7497563109622448,2.965495135362207e-05,-4.763818051320391e-06,-5.998050487697958e-06,3.923139143062185e-05,3.85382192098875e-05
154.7369586374424,188.2868881673012,12.5,0,9.546177711949875,1.012869895588179,-0.7944511442107337,2.973747276176905e-05,-4.395758503677728e-06,-6.35560915368587e-06,3.986710534717483e-05,3.997434215437093e-05
152.1773730776037,189.5353818557113,12.5,0,9.422885348644177,0.8980910569223282,-0.7108046282430607,2.94347602701235e-05,-4.664416896763891e-06,-5.686437025944485e-06,3.902354329566166e-05,3.893945646714306e-05
154.1522465784458,190.2473151562149,12.5,0,9.481647915053806,1.031471187758817,-0.7561223203997308,2.951609637796512e-05,-4.284610531214831e-06,-6.048978563197847e-06,3.967371407730534e-05,4.032031030023433e-05
156.2159158970448,188.8450794419188,12.5,0,9.918086257812968,1.146503998326084,-0.8569985753072477,3.082067282634063e-05,-4.265656211606904e-06,-6.855988602457981e-06,4.172144589542782e-05,4.105567305076321e-05
158.2362090848591,189.6075829032497,12.5,0,9.992523149286002,1.296457364961128,-0.9159863061703869,3.09389081857463e-05,-3.845354951553191e-06,-7.327890449363095e-06,4.248925547222933e-05,4.257380105514311e-05
155.5979543195223,190.7684865037615,12.5,0,9.828314868693992,1.164720475413483,-0.8184998162757203,3.051883119948998e-05,-4.135546373632048e-06,-6.547998530205762e-06,4.143025403633698e-05,4.135755733641961e-05
157.5728278203645,191.480419804265,12.5,0,9.903415027434608,1.3192331329435,-0.8785416653734983,3.063554158143594e-05,-3.701185996528486e-06,-7.028333322987987e-06,4.221544295481774e-05,4.281051510630729e-05
154.6801621267266,269.1589396637654,12.5,0,5.473951827044996,3.364361361383533,-4.954895703863517,1.482515675743716e-05,6.386794894791309e-06,-3.963916563090814e-05,3.452220455072029e-05,3.490783055636461e-05
157.1221986880893,269.7607315860296,12.5,0,5.583466203639723,3.575688899098987,-5.065033645213856,1.500654073236792e-05,6.975431514204977e-06,-4.052026916171085e-05,3.569762995093165e-05,3.519677794954307e-05
154.2482287393214,271.165869498415,12.5,0,5.283880393685468,3.348892670609898,-4.911360589643236,1.422930312330558e-05,6.489352231003301e-06,-3.929088471714588e-05,3.377188723389262e-05,3.422883974693114e-05
156.7161096768186,271.7624291876353,12.5,0,5.391307330808812,3.558112662250261,-5.020206211245307,1.440569332878799e-05,7.072914654553786e-06,-4.016164968996246e-05,3.493227052810558e-05,3.448821547843852e-05
150.4504307285817,268.1166054788381,12.5,0,5.669662948165949,3.021971549574964,-4.888791186327552,1.572534419447106e-05,5.134578600107125e-06,-3.911032949062041e-05,3.40250644491098e-05,3.434019101187204e-05
152.8924672899444,268.7183974011022,12.5,0,5.774978827605445,3.224199610705516,-4.995013248355838,1.590057255977301e-05,5.697455692173296e-06,-3.99601059868467e-05,3.514794431517843e-05,3.467830877817575e-05
149.9737335686223,270.1325978069564,12.5,0,5.485912473947617,3.009861466787416,-4.848660732895065,1.514703074320244e-05,5.242826714561637e-06,-3.878928586316052e-05,3.330766133191411e-05,3.372622878572971e-05
152.4416145061195,270.7291574961768,12.5,0,5.589234539667263,3.21010622911576,-4.953658169291967,1.531746554364263e-05,5.80095230143662e-06,-3.962926535433574e-05,3.4416333231909e-05,3.402466602798291e-05
149.6247670277231,271.6084066187454,12.5,0,5.351226206414044,3.035238646776813,-4.80009123581073,1.469573294310349e-05,5.431782704554567e-06,-3.840072988648584e-05,3.287722793937815e-05,3.328774019126876e-05
152.1115673616399,272.2011360475407,12.5,0,5.45099526600483,3.234272285469324,-4.900617131536805,1.485576702284e-05,5.988875100697972e-06,-3.920493705229444e-05,3.396646404767416e-05,3.355584194294062e-05
149.1480698677637,273.6243989468636,12.5,0,5.18120487522647,3.025618495961737,-4.760315230774157,1.415936080395531e-05,5.537015286896381e-06,-3.808252184619326e-05,3.221830355766593e-05,3.27037292987534e-05
151.6607145778151,274.2118961426152,12.5,0,5.279137239687189,3.222743954435762,-4.859691322244041,1.431504400345039e-05,6.089470862444686e-06,-3.887753057795233e-05,3.329417551769168e-05,3.292863347293148e-05
153.9320315542689,272.6350441045417,12.5,0,5.142779329568155,3.371957224150005,-4.852680990867809,1.375932807529809e-05,6.676039653625491e-06,-3.882144792694247e-05,3.330599720602258e-05,3.374085065815383e-05
156.4188318881858,273.2277735333371,12.5,0,5.243781006203279,3.577492548819526,-4.953138172982491,1.391810518079487e-05,7.25295135125986e-06,-3.962510538385992e-05,3.442538780780099e-05,3.397820211630901e-05
153.5000981668638,274.6419739391913,12.5,0,4.974441984628275,3.360725862316772,-4.809589210931646,1.322963366095706e-05,6.774769171711051e-06,-3.847671368745317e-05,3.264769201014029e-05,3.308663048345176e-05
156.0127428769152,275.2294711349428,12.5,0,5.073587307295679,3.5642653449199,-4.908868694990657,1.338406710741025e-05,7.346779257907138e-06,-3.927094955992526e-05,3.375330288073705e-05,3.329338216947742e-05
173.594737056445,284.3767173558499,12.5,0,3.18072481467549,4.856192816491218,-4.368426361372785,6.293365153768593e-06,1.29952371610315e-05,-3.494741089098228e-05,3.125001016023053e-05,3.186226397919515e-05
175.8776170752665,284.7954535308632,12.5,0,3.225538078107434,4.960221179051327,-4.416248168430823,6.353544906702725e-06,1.32922773104783e-05,-3.532998534744658e-05,3.18025022085517e-05,3.17633034676259e-05
173.0977338998275,286.3030872288613,12.5,0,3.093957418146176,4.854680034036868,-4.346056330323356,6.016919710838268e-06,1.305981017440104e-05,-3.476845064258685e-05,3.093790250626436e-05,3.108390133144097e-05
175.3319956856245,286.654287076463,12.5,0,3.137410443978745,4.96170795399745,-4.394589449993832,6.070347057534026e-06,1.336753709760884e-05,-3.515671559995066e-05,3.149699451332759e-05,3.099248588405665e-05
177.5488012365566,285.1019896859269,12.5,0,2.884804747473638,5.125568293108972,-4.237431429929332,5.130920557428463e-06,1.40939747399698e-05,-3.389945143943466e-05,3.110256169990207e-05,3.166783971745142e-05
179.8316812553781,285.5207258609403,12.5,0,2.912201298301222,5.184171860087821,-4.269023528331884,5.171706666493654e-06,1.425958891364005e-05,-3.415218822665507e-05,3.142552963389665e-05,3.150598841325187e-05
176.9675888301678,286.9113832085069,12.5,0,2.829657556879435,5.124937505180093,-4.228114326746788,4.954954177870119e-06,1.413607397107274e-05,-3.38249146139743e-05,3.091107384614794e-05,3.090667428887183e-05
179.2018506159647,287.2625830561086,12.5,0,2.856107273705067,5.185333279329046,-4.260380493757639,4.991276652392977e-06,1.430818067488889e-05,-3.408304395006111e-05,3.123779005281435e-05,3.076364809832273e-05
178.5554906543932,281.9680281739888,12.5,0,3.089808156395593,5.274753564543064,-4.398539653415604,5.667583248831446e-06,1.440736488142133e-05,-3.518831722732483e-05,3.243883205251785e-05,3.306048485151894e-05
180.9225799229862,282.5037406994336,12.5,0,3.124562056458544,5.341964369040409,-4.4355650241931,5.725027085435013e-06,1.459463633576247e-05,-3.54845201935448e-05,3.282089974868037e-05,3.286684729193502e-05
177.9742782480045,283.7774216965687,12.5,0,3.029056808745639,5.273914014288096,-4.388451221783813,5.473850576555566e-06,1.445327939872539e-05,-3.510760977427051e-05,3.222691125364862e-05,3.224495151834438e-05
180.2927492835727,284.2455978946019,12.5,0,3.062954963708543,5.343072143703452,-4.426252080219791,5.526998168904574e-06,1.464746688888421e-05,-3.541001664175833e-05,3.261362502887523e-05,3.206953893868453e-05
174.4555717752129,281.040146861684,12.5,0,3.426989024422404,4.973951192770061,-4.540082820905245,6.987203923935646e-06,1.317505259732627e-05,-3.632066256724196e-05,3.262671640857752e-05,3.328073597349619e-05
176.8226610438058,281.5758593871288,12.5,0,3.482357412519892,5.092661616768095,-4.594982936912345,7.069414426649176e-06,1.351063124364199e-05,-3.675986349529876e-05,3.327135890196155e-05,3.317138598949619e-05
173.9585686185955,282.9665167346955,12.5,0,3.33445042359845,4.972804188265085,-4.515513814868507,6.69199800490297e-06,1.324541306356951e-05,-3.612411051894806e-05,3.229372351075541e-05,3.245090404742024e-05
176.2770396541638,283.4346929327286,12.5,0,3.388649213510862,5.094789271353372,-4.571223710842149,6.767846066152059e-06,1.35924062975221e-05,-3.656978968673719e-05,3.294660208148183e-05,3.234713799124834e-05
221.6219263763405,272.6106279817603,12.5,0,0.4468983964088995,6.814554758623698,-1.605750803449369,-4.02156893839048e-06,2.144905651046871e-05,-1.284600642759495e-05,2.785230155862363e-05,2.87267179781694e-05
223.4860255653245,272.8546380546393,12.5,0,0.3550261811001134,6.481696260566904,-1.563069331524708,-4.049273228933159e-06,2.0457407088934e-05,-1.250455465219767e-05,2.628961073493766e-05,2.706014572744903e-05
221.4900092214874,274.5232710310697,12.5,0,0.5141158225755045,6.809204939371228,-1.732343240934213,-3.802193319255368e-06,2.137816314792752e-05,-1.385874592747371e-05,2.808683731982081e-05,2.741998468304124e-05
223.3494339693755,274.782642282343,12.5,0,0.4215153353225531,6.475754757648479,-1.688539121048465,-3.831754733086613e-06,2.038520295621709e-05,-1.350831296838772e-05,2.651971957250838e-05,2.583799626891673e-05
221.393439161749,275.923422919848,12.5,0,0.338880175038422,6.381654931117275,-1.449513322685308,-4.020907384770869e-06,2.015019163954454e-05,-1.159610658148247e-05,2.581870925791665e-05,2.653610891386963e-05
223.2494419812582,276.1940393341697,12.5,0,0.2450100027011297,6.05604744202577,-1.397686623099249,-4.060805944977001e-06,1.918334381232156e-05,-1.118149298479399e-05,2.427485758631143e-05,2.501261926720303e-05
221.2615220068958,277.8360659691573,12.5,0,0.4280559018033403,6.382253813281255,-1.572878277909578,-3.736024164854314e-06,2.008076748105734e-05,-1.258302622327663e-05,2.614022947451012e-05,2.542804869993927e-05
223.1128503853091,278.1220435618734,12.5,0,0.3332700208796391,6.056017484174164,-1.519934313236597,-3.778349920524485e-06,1.911263993265361e-05,-1.215947450589278e-05,2.459045834424384e-05,2.397979682155878e-05
224.6081303440722,276.3921442988069,12.5,0,0.1812677252837414,5.860663973141616,-1.0046652726568,-4.10847445760532e-06,1.860911053382618e-05,-8.037322181254404e-06,2.32112337044018e-05,2.385254026549818e-05
226.4641331635812,276.6627607131286,12.5,0,0.07047638892801622,5.473292601206595,-0.945422356207776,-4.153109636395624e-06,1.745815521271869e-05,-7.563378849662208e-06,2.137854199548641e-05,2.22066351385786e-05
224.4681168197441,278.331393689559,12.5,0,0.2816558956704194,5.858353663585186,-1.153590979374006,-3.785384064722806e-06,1.852140700693626e-05,-9.228727834992051e-06,2.355279856385406e-05,2.288170214367359e-05
226.3194451981574,278.6173712822751,12.5,0,0.1698385709088408,5.470269301252229,-1.093024585612908,-3.832732014093492e-06,1.736899090728006e-05,-8.744196684903264e-06,2.171259440101352e-05,2.132990357042319e-05
224.8506408819507,273.0332658255377,12.5,0,0.2423925962309219,6.271574611198547,-1.115044566841549,-4.241603381019887e-06,1.987512467885061e-05,-8.920356534732391e-06,2.499764494182372e-05,2.577982142043169e-05
226.7147400709346,273.2772758984166,12.5,0,0.1258504733549135,5.854461529917234,-1.057254541085621,-4.280847709198064e-06,1.863359651705122e-05,-8.458036328684967e-06,2.303346218193175e-05,2.394848261406657e-05
224.7106273576227,274.9725152162897,12.5,0,0.3395542560898068,6.266430264989949,-1.275275198826242,-3.926570592504577e-06,1.978093344309599e-05,-1.020220159060994e-05,2.532390219443595e-05,2.462908898525042e-05
226.5700521055108,275.2318864675631,12.5,0,0.2220048256593345,5.848573497284089,-1.216077078343379,-3.9684433557174e-06,1.853783133078161e-05,-9.728616626747031e-06,2.335270276430444e-05,2.290828127861807e-05
139.6922416860993,291.242038766855,12.5,0,4.061025805067294,2.781594228503401,-4.176465971825211,1.077000719341262e-05,5.652280887157046e-06,-3.341172777460169e-05,2.700995148575636e-05,2.708985725429443e-05
142.0384420835373,291.7486004370173,12.5,0,4.145912939303636,2.974008770012728,-4.259397528062434,1.088771438976145e-05,6.200097712597821e-06,-3.407518022449947e-05,2.801241997252241e-05,2.724001594362426e-05
140.0539326779662,294.068941862777,12.5,0,3.845902742081764,2.702691975574382,-4.087928069015129,1.014473519420214e-05,5.57189212817261e-06,-3.270342455212103e-05,2.593053665728701e-05,2.649916755316326e-05
142.3595845445069,294.4119950729752,12.5,0,3.918619226997366,2.892126504280755,-4.166292157603286,1.022588032296697e-05,6.119909432100522e-06,-3.333033726082629e-05,2.687675136680254e-05,2.665148717133487e-05
140.3187088606416,296.1383785569777,12.5,0,3.747978555882998,2.85540220985179,-4.039752779130215,9.70920961094416e-06,6.13890422681933e-06,-3.231802223304173e-05,2.605303812965354e-05,2.606391241926271e-05
142.5946771423944,296.3617352670199,12.5,0,3.803112218197449,3.016400050287414,-4.106198684984196,9.756839058001904e-06,6.609990386361765e-06,-3.284958947987357e-05,2.683700188530822e-05,2.621659381065114e-05
140.6803998525085,298.9652816528997,12.5,0,3.550919187353638,2.783885107378101,-3.961014974313712,9.13583331362916e-06,6.067696993727011e-06,-3.168811979450969e-05,2.507096464898392e-05,2.546546298027179e-05
142.915819603364,299.0251299029777,12.5,0,3.594512068593612,2.942012765725606,-4.023264886572886,9.148828406919073e-06,6.538831195447049e-06,-3.218611909258309e-05,2.580198933310357e-05,2.561697182562771e-05
144.2608015609818,296.5252437269752,12.5,0,3.594979523556692,3.044693465239562,-4.042394507385496,9.068179703189763e-06,6.867035469921244e-06,-3.233915605908397e-05,2.616293567838523e-05,2.631378768679026e-05
146.5367698427347,296.7486004370173,12.5,0,3.652604974291344,3.214280002635021,-4.11055773198673,9.116911915624284e-06,7.363612028998991e-06,-3.288446185589384e-05,2.698836632491193e-05,2.642664490320976e-05
144.5522604371636,299.068941862777,12.5,0,3.415010288458099,2.980907189210668,-3.969267468184877,8.543307171697382e-06,6.806894774707658e-06,-3.175413974547902e-05,2.527151620785177e-05,2.571849480312002e-05
146.787680188019,299.128790112855,12.5,0,3.460922625341058,3.147902206841117,-4.033139272406854,8.556630635618491e-06,7.304548961618726e-06,-3.226511417925483e-05,2.604447325392424e-05,2.584435189042057e-05
143.7559799791273,292.1194293167273,12.5,0,3.872996397822655,2.991968725996365,-4.174656648485933,1.00000134922354e-05,6.475902804930242e-06,-3.339725318788746e-05,2.705886050987724e-05,2.733227086124456e-05
146.1021803765653,292.6259909868896,12.5,0,3.955512778021656,3.181203755299121,-4.254445256588483,1.011267788543e-05,7.015441794539862e-06,-3.403556205270786e-05,2.804312232175314e-05,2.743415729411223e-05
144.047438855309,294.6631274525292,12.5,0,3.689189785199138,2.92618941629712,-4.097767973509627,9.464455779599544e-06,6.412454303991472e-06,-3.278214378807701e-05,2.614240059293443e-05,2.674619767831596e-05
146.3530907218496,295.0061806627273,12.5,0,3.760199195266015,3.112946899715771,-4.173208089198069,9.542279905078632e-06,6.953270722877654e-06,-3.338566471358456e-05,2.707485634945378e-05,2.685263197723832e-05
140.0273103872907,268.4877734070078,12.5,0,5.718633851310249,2.310068822831696,-4.600493152091507,1.645157326592744e-05,2.817313152013229e-06,-3.680394521673205e-05,3.164258401683739e-05,3.21268728030323e-05
142.8313810271327,269.4250257485222,12.5,0,5.786999457388371,2.42062762069834,-4.661727123768116,1.658189616708411e-05,3.116408820323991e-06,-3.729381699014493e-05,3.229180510334863e-05,3.248813619677302e-05
138.0681492307539,269.9156463490768,12.5,0,5.676685593319159,2.355755644655902,-4.613408146802113,1.628078938289659e-05,2.997069588243559e-06,-3.690726517441691e-05,3.165238920104096e-05,3.150099667337765e-05
141.3476776056226,271.0433505955857,12.5,0,5.735279292053847,2.449073686469532,-4.665250095041895,1.639363478539668e-05,3.248812363059424e-06,-3.732200076033516e-05,3.220392338816215e-05,3.189021409654738e-05
144.884103203422,270.1111420819943,12.5,0,5.51101042971138,2.694507598504984,-4.717495303361194,1.547962729627243e-05,4.213615971446845e-06,-3.773996242688955e-05,3.225357539814533e-05,3.274066241943104e-05
147.688173843264,271.0483944235087,12.5,0,5.632653532211521,2.898730600846189,-4.825207061232017,1.570550682239991e-05,4.769815096938588e-06,-3.860165648985613e-05,3.34379284921465e-05,3.306931349626478e-05
143.7484590007881,271.8688873999063,12.5,0,5.405321316004559,2.728851014179297,-4.709406460345503,1.511394739987115e-05,4.408066192570104e-06,-3.767525168276402e-05,3.198766050485685e-05,3.215709108075717e-05
147.0279873756567,272.9965916464153,12.5,0,5.510335346848204,2.902531075415228,-4.801333950450914,1.531104824958207e-05,4.879831163850167e-06,-3.841067160360732e-05,3.300102968084248e-05,3.249699513785035e-05
146.8510966616696,267.0666378846592,12.5,0,5.802987571734185,2.73352979426891,-4.806508529580229,1.638273639413426e-05,4.104905284273163e-06,-3.845206823664183e-05,3.348349520813051e-05,3.383188412151732e-05
148.8316503476087,267.6740178503305,12.5,0,5.902194953672032,2.899129120491817,-4.899179866692363,1.656772055535705e-05,4.555457222636189e-06,-3.91934389335389e-05,3.445017965465106e-05,3.411339220867368e-05
145.7154524590357,268.8243832025712,12.5,0,5.675019154125852,2.767376276697798,-4.801004545501884,1.594616027184449e-05,4.31558876213227e-06,-3.840803636401507e-05,3.313881703765338e-05,3.318942186217801e-05
148.1714638800014,269.6222150732372,12.5,0,5.756707321911184,2.899612927149317,-4.875412650853405,1.610177308839633e-05,4.673395509348865e-06,-3.900330120682724e-05,3.392007542914047e-05,3.350242578602644e-05
143.4206770505669,266.014624924636,12.5,0,5.942887214408717,2.442698314689048,-4.712026563253717,1.706308043435665e-05,3.06232483547798e-06,-3.769621250602974e-05,3.295695075701121e-05,3.331639877454786e-05
145.401230736506,266.6220048903073,12.5,0,5.994003943518028,2.526523456674592,-4.760080730659996,1.715959385391802e-05,3.289671906544273e-06,-3.808064584527997e-05,3.344855080332736e-05,3.361833037447705e-05
141.4615158940301,267.4424978667049,12.5,0,5.896810374895662,2.488100432427754,-4.726950498283049,1.687931285372391e-05,3.244473083852283e-06,-3.781560398626439e-05,3.295307913533282e-05,3.261330832996348e-05
143.9175273149958,268.2403297373708,12.5,0,5.938291925416685,2.554051718401673,-4.764948498578938,1.695929278661205e-05,3.422331958552005e-06,-3.81195879886315e-05,3.334467612104675e-05,3.295118355785694e-05
175.6948913206453,180.8664237348887,12.5,0,10.7398219608859,3.296061207897623,-0.0956242505583752,3.173058130851678e-05,1.955538296563673e-06,-7.649940044670016e-07,5.180146493234012e-05,5.092828895409452e-05
177.6024264611029,181.4487411178758,12.5,0,10.75170748448477,3.576757294009646,-0.05316112130943773,3.154405811514355e-05,2.844257353243047e-06,-4.252889704755018e-07,5.278435107107939e-05,5.27821153197438e-05
175.5592209018291,182.765477160468,12.5,0,10.91413854428347,3.356191906603749,0.00159998819443776,3.224028981642412e-05,2.008503265705217e-06,1.279990555550208e-08,5.26637716384158e-05,5.195145722568593e-05
177.7470259537561,183.3529897430303,12.5,0,10.9310196000499,3.602491037324682,0.04216985262946291,3.209726989029992e-05,2.783155639399064e-06,3.373588210357032e-07,5.355095906021442e-05,5.40894937145489e-05
175.9298793791148,177.5771667155566,12.5,0,10.1341753365482,3.335566256590481,0.1778782409307667,2.976090807168185e-05,2.566471751850978e-06,1.423025927446133e-06,4.963476189583758e-05,4.904459233591495e-05
177.3519727930836,178.1504857489242,12.5,0,10.12519843313306,3.516533093906754,0.202128300766884,2.958740851090037e-05,3.152747153995167e-06,1.617026406135072e-06,5.020848789259674e-05,5.046256479464269e-05
175.7942089602986,179.476220141136,12.5,0,10.28973601920412,3.388312824392279,0.2595290256082988,3.021650500193936e-05,2.610812222691994e-06,2.07623220486639e-06,5.040408119994103e-05,5.014939685439824e-05
177.4965722857366,180.0547343740787,12.5,0,10.28982512552453,3.541300274988457,0.2836500867562199,3.009440018168774e-05,3.100300779543437e-06,2.269200694049759e-06,5.091837969025387e-05,5.181028264468009e-05
173.4667413330561,176.5841490208357,12.5,0,9.805044502765009,2.934565010347348,0.2549245124361312,2.902849040057015e-05,1.546572430899504e-06,2.03939609948905e-06,4.704825093531975e-05,4.665205645065681e-05
174.8888347470248,177.1574680542032,12.5,0,9.833549127008737,3.145526671284856,0.2461002184582311,2.895093586940007e-05,2.198846046504551e-06,1.968801747665849e-06,4.785971236292969e-05,4.802356970242365e-05
172.8456291877511,178.4742040967954,12.5,0,9.893103809944442,3.028526422092034,0.3509858874614126,2.923511105414858e-05,1.776801502738953e-06,2.807887099691301e-06,4.769977435029055e-05,4.736021195111139e-05
174.5479925131891,179.0527183297382,12.5,0,9.921114079494281,3.210854776099338,0.3478365643411581,2.917888123350222e-05,2.337844019922456e-06,2.782692514729265e-06,4.841465171467025e-05,4.89570040058322e-05
172.390943540209,179.8578204414426,12.5,0,10.26126310945178,2.777827085368351,-0.008936801440007374,3.0613780281951e-05,6.800361856173012e-07,-7.149441152005899e-08,4.826005074534865e-05,4.784148747714802e-05
174.2984786806666,180.4401378244297,12.5,0,10.30272000643041,3.033820400386687,-0.009394114218954523,3.054164770026796e-05,1.466049276093069e-06,-7.515291375163619e-08,4.926631499515457e-05,4.960445171360945e-05
171.769831394904,181.7478755174024,12.5,0,10.3454784644325,2.866663313601009,0.08171902859142931,3.081220043530319e-05,8.969398319772295e-07,6.537522287314345e-07,4.887500251014339e-05,4.844820116632083e-05
173.9576364468308,182.3353880999647,12.5,0,10.38482233310775,3.0944020067088,0.08451497576042087,3.075590986057776e-05,1.594228554981959e-06,6.761198060833669e-07,4.97804222698117e-05,5.043987744316756e-05
213.1501595587918,234.0370397648188,12.5,0.2072514039107046,13.42590767770062,11.08524536219161,-5.142888408464057,4.300822284275389e-05,3.119785911808392e-05,-5.189931268333409e-05,0.0001134523568872309,0.0001250531429013487
214.1109799833617,232.5102773436565,12.5,0.3166678599981474,12.39224408931866,9.838975772239516,-4.194509378832001,4.651325264452209e-05,3.156726566330253e-05,-4.910653702102324e-05,0.0001191606793215934,0.0001441216126540209
214.611885436248,235.684576917332,12.5,0.222801473852473,14.02447581369447,10.95858879310078,-5.283620844754791,4.646361303377849e-05,3.068444250039679e-05,-5.438631872806058e-05,0.0001180129842207932,0.0001274493343283307
215.3796063177425,234.0160458292502,12.5,0.3343802701582603,12.93347925288463,9.681300836370401,-4.312087928430347,5.054251163518451e-05,3.099874950969895e-05,-5.182644365972272e-05,0.0001245221358434342,0.0001477698607080276
215.7751697756368,229.865847259164,12.5,0.4710144771763358,13.19373179920661,9.754362752447783,-4.030373047878534,6.506123527122605e-05,3.905395228624096e-05,-6.095248923055382e-05,0.0001587982861764176,0.0001836417445342522
216.7093378904986,231.1260652107364,12.5,0.4851829878451857,13.74560634876625,9.722370152085059,-4.175440795007028,7.033187198463356e-05,3.907232848321305e-05,-6.488427066588703e-05,0.0001669689097135625,0.0001883859877142789
214.8143493510669,231.3926096803263,12.5,0.3871321577539235,14.21262973787151,11.03579771490311,-4.921054089875126,5.980372025222048e-05,3.906951425227274e-05,-6.423641445229221e-05,0.0001510053026286062,0.0001598203811467376
215.9416170090041,232.7945962988181,12.5,0.4039911153156698,14.6777904882202,10.94928558597829,-5.045087143375232,6.41089454794944e-05,3.908579567046653e-05,-6.771828102592544e-05,0.0001576860840402113,0.0001640977877717395
212.8618644938254,228.9642976256104,12.5,0.3528846489426553,14.77969055116204,11.232797268783,-4.865871938541905,5.919929404564126e-05,3.727495998937977e-05,-6.015461608928157e-05,0.0001472585378012519,0.0001517841330242079
214.1571431379143,227.6830857384695,12.5,0.4429294186333567,13.36103841955541,9.94302420880228,-3.913440883430527,6.247126439554491e-05,3.792849136044529e-05,-5.620028792516466e-05,0.0001530233226011794,0.0001749114969897897
213.9891321517627,230.3662842441022,12.5,0.3734973169992882,14.95394337422685,10.93622077500051,-4.863645984091608,6.241576171746592e-05,3.676401140103973e-05,-6.210534915249304e-05,0.000151450008121959,0.0001565209473013635
215.0913112527762,228.9433036900418,12.5,0.459730538804316,13.62776740884701,9.715126143084797,-3.937146064911421,6.633126128308521e-05,3.736318852100057e-05,-5.829899852119013e-05,0.0001581182551913106,0.000180031265626317
210.6183760723449,231.1834217093598,12.5,0.1682949525989658,14.12700237788789,11.17340823320809,-5.078446448471865,4.360642169481401e-05,2.94014140233594e-05,-4.884853316056045e-05,0.0001115496682021255,0.0001194282689759219
211.9136547164337,229.9022098222189,12.5,0.2789155691701881,12.89017174347379,10.0139092495536,-4.110627047224595,4.609366220988043e-05,3.013845712738968e-05,-4.560494578970903e-05,0.0001162617516163402,0.0001369174468848828
212.0801019498011,232.830958861873,12.5,0.1927876314938486,14.4495075437826,10.83642378293691,-5.104870222739576,4.654200874459037e-05,2.863800280111274e-05,-5.059258675321622e-05,0.0001149290543215871,0.0001229039049178004
213.1822810508145,231.4079783078127,12.5,0.3018936328356225,13.21747454606351,9.697205693796887,-4.14170210630894,4.947405670092291e-05,2.930366996421101e-05,-4.74621324327068e-05,0.0001202150797737861,0.0001412137171342714
143.4988096154807,117.9982886152334,12.5,0,-1.468529711803604,0.7909709295648875,2.050962936150611,-5.332071821423441e-06,3.705930744050522e-06,1.640770348920489e-05,3.231174198592339e-06,3.409134809424956e-06
145.3944201889908,117.4082950176481,12.5,0,-1.423440602208081,0.6839008675297562,2.128577935962747,-5.102130621089665e-06,3.327235257861684e-06,1.702862348770198e-05,3.210900018180286e-06,3.492440769800293e-06
144.6182367792608,119.5859972066074,12.5,0,-1.248203403946146,0.914517341505467,1.958694436683718,-4.725864765832042e-06,3.925018215974411e-06,1.566955549346975e-05,3.529511697739599e-06,3.792721204800402e-06
146.5805708420011,118.992598546701,12.5,0,-1.206314000993918,0.809462789195017,2.03487178601984,-4.507775034536551e-06,3.555332126219189e-06,1.627897428815872e-05,3.49454310744896e-06,3.887290468924255e-06
141.5599048924757,115.2482966674093,12.5,0,-1.932366286961741,0.6861290573002724,2.07281934625241,-6.732475364117789e-06,3.741506012930264e-06,1.658255477001928e-05,2.779047177537878e-06,2.907549050377692e-06
143.3399469925827,114.6642008107671,12.5,0,-1.888836620877136,0.5860555734760622,2.14181642257399,-6.513121645587683e-06,3.386447131825107e-06,1.713453138059192e-05,2.760328815540258e-06,2.975567236228951e-06
142.6793320562558,116.8360052587834,12.5,0,-1.719659872045512,0.8075897019022373,1.982655345339853,-6.148983352067427e-06,3.960014943723568e-06,1.586124276271882e-05,2.963071908982024e-06,3.171953645492255e-06
144.5260976455931,116.24850433982,12.5,0,-1.679381339467088,0.7094444747310082,2.050381294032219,-5.941575866079488e-06,3.613727390712896e-06,1.640305035225775e-05,2.935064398557116e-06,3.248145265886497e-06
138.4767815355341,116.259980367586,12.5,0,-1.789565116952586,0.5351330225254439,2.058242664266467,-6.154714792268631e-06,3.144077765643489e-06,1.646594131413174e-05,2.628810671406376e-06,2.789794981273807e-06
140.2568236356412,115.6758845109437,12.5,0,-1.735174266118276,0.4633536404795969,2.135214253722539,-5.92324056396216e-06,2.870871062429331e-06,1.708171402978031e-05,2.673360088042613e-06,2.857771524687901e-06
139.4806402259112,117.853586699903,12.5,0,-1.571070656301152,0.6368580165654529,1.979687212576561,-5.536912513416048e-06,3.294802178050371e-06,1.583749770061248e-05,2.795186467142521e-06,3.03927891092054e-06
141.3274058152485,117.2660857809397,12.5,0,-1.520370637352234,0.5663490115422516,2.055014755882103,-5.31826524876095e-06,3.028613346816992e-06,1.644011804705683e-05,2.837504263932542e-06,3.115988074354837e-06
140.2155157908555,119.020187502373,12.5,0,-1.329209759495573,0.6207214023362437,2.038277321185368,-4.750048352254828e-06,3.049676295072438e-06,1.630621856948294e-05,3.048350970305069e-06,3.262598132142728e-06
142.1111263643655,118.4301939047878,12.5,0,-1.273896605559919,0.5429277851804921,2.122952272860107,-4.510811365936134e-06,2.75648619702551e-06,1.698361818288086e-05,3.106761409572433e-06,3.347548660280289e-06
141.2193744812325,120.6137938346901,12.5,0,-1.105586147871967,0.7241461059047059,1.958271479314056,-4.11719255791406e-06,3.201736457192632e-06,1.566617183451245e-05,3.320747908715585e-06,3.623233661207666e-06
143.1817085439729,120.0203951747837,12.5,0,-1.053848919689965,0.6477194179401693,2.041173201794923,-3.890492077360025e-06,2.915781273160514e-06,1.632938561435939e-05,3.374058027600012e-06,3.721967396419004e-06
149.0811806155686,186.0864930588965,12.5,0,9.059615710179092,0.6207910985077558,-0.6325567818543084,2.849413739376688e-05,-5.261161052918454e-06,-5.060454254834468e-06,3.675531535958104e-05,3.605087973489954e-05
151.2012042961446,186.9347906136622,12.5,0,9.122387936023443,0.751584366618657,-0.6810427676357658,2.859037390198009e-05,-4.892840375639052e-06,-5.448342141086126e-06,3.740916249386295e-05,3.748693062308899e-05
148.5116521064949,188.1043445205304,12.5,0,8.992752892328225,0.6344520340967847,-0.5974410043503011,2.826924762817289e-05,-5.163955804752868e-06,-4.779528034802409e-06,3.653754678902503e-05,3.646337790011533e-05
150.66598034406,188.9611746044939,12.5,0,9.054408539701404,0.7632679615268654,-0.6451022625599565,2.8363492957823e-05,-4.801069354875154e-06,-5.160818100479652e-06,3.71809283367805e-05,3.79059945453019e-05
150.0676329296253,182.5914718052824,12.5,0,8.787915433136815,0.6979687509283907,-0.3547093941317451,2.75629543852951e-05,-4.796832343538602e-06,-2.837675153053961e-06,3.592927656645199e-05,3.523876094976033e-05
152.1282393745661,183.4249905859605,12.5,0,8.837070340095481,0.8223014337109209,-0.3907087982845254,2.76207839413368e-05,-4.438291684201437e-06,-3.125670386276203e-06,3.650945667455148e-05,3.66595430908508e-05
149.4981044205517,184.6093232669162,12.5,0,8.750201654338172,0.7189481455990998,-0.3164650922028706,2.742548677740287e-05,-4.699527257553417e-06,-2.531720737622965e-06,3.584781041019786e-05,3.572274461202467e-05
151.5930154224816,185.4513745767923,12.5,0,8.798492652957234,0.8413685409673997,-0.3518068862817998,2.748208165668923e-05,-4.346414791270108e-06,-2.814455090254398e-06,3.641879429410709e-05,3.715294496247462e-05
146.4985578726482,181.1477749281108,12.5,0,8.353535939664482,0.4601970164719766,-0.2574791857597647,2.636315739374876e-05,-5.210198299021259e-06,-2.059833486078117e-06,3.351690441271272e-05,3.289721401029604e-05
148.559164317589,181.981293708789,12.5,0,8.399177161163047,0.577735048660631,-0.2907265165505931,2.641517887679324e-05,-4.870589573216418e-06,-2.325812132404745e-06,3.405858407974769e-05,3.423064791099693e-05
145.8696121279393,183.1508476156572,12.5,0,8.321096934270425,0.4838967014100082,-0.2217747446619757,2.624039282853735e-05,-5.108408102904314e-06,-1.774197957295806e-06,3.346410719305073e-05,3.336028872936269e-05
147.9645231298692,183.9928989255332,12.5,0,8.36594526898368,0.5996432940882781,-0.2544162985241373,2.629131022547715e-05,-4.773897674104454e-06,-2.035330388193098e-06,3.399734938854092e-05,3.470650543722509e-05
145.4091918876278,184.6171985941324,12.5,0,8.627664637445008,0.3855287479833305,-0.5278819131109093,2.730010384143736e-05,-5.668439716409348e-06,-4.223055304887274e-06,3.435862684755491e-05,3.367428187990603e-05
147.5292155682037,185.465496148898,12.5,0,8.67739467836245,0.4995616323139918,-0.5653581083012276,2.736801366490864e-05,-5.343318519285186e-06,-4.522864866409821e-06,3.490547187927522e-05,3.502928358317193e-05
144.7802461429189,186.6202712816787,12.5,0,8.583047021110193,0.4039876708233219,-0.4963401806191916,2.714256033089395e-05,-5.573677070253523e-06,-3.970721444953532e-06,3.424127682708124e-05,3.40690524013889e-05
146.934574380484,187.4771013656422,12.5,0,8.631914949967829,0.5163182764882848,-0.5331714275457526,2.720907321870642e-05,-5.253313475211751e-06,-4.265371420366022e-06,3.47796299602983e-05,3.543527235128089e-05
203.271026043522,211.561376496326,12.5,0.1145962514852827,15.58701965785494,11.02528855008042,-3.811432196384401,4.637232690052134e-05,2.576373510078292e-05,-3.443791334995503e-05,0.0001097910318927182,0.0001124564077537408
204.5128172508366,210.1712057257099,12.5,0.1726565257281464,15.41995871192184,10.35270135511437,-3.333638448541091,4.963078584767575e-05,2.513185637334985e-05,-3.223462614701863e-05,0.0001137476808173578,0.000120032727457209
204.4523329569648,212.9695092400068,12.5,0.1641232435829634,15.69301975073213,10.81273177322962,-3.968616630469497,4.97291944830922e-05,2.637509142884901e-05,-3.798279208031448e-05,0.0001159171860537848,0.0001188557966938997
205.6978627112307,211.6030789457194,12.5,0.2241390465887836,15.3642310325356,10.08013196499591,-3.465055895466125,5.297525742390709e-05,2.57327519501767e-05,-3.572862771589538e-05,0.0001198368683418131,0.0001276597481786109
205.3171096369005,214.0003339521386,12.5,0.1994465076088828,15.59222605538643,11.20740435228269,-3.930091186092063,5.112612746608833e-05,2.921717699729692e-05,-3.927373971579138e-05,0.0001222926864723632,0.0001238841197353751
206.5653761974812,212.6512828927191,12.5,0.2603539357443749,15.26176556398067,10.41892692075036,-3.385008174846334,5.475931019642389e-05,2.856927754558237e-05,-3.661219427433021e-05,0.0001267762712131276,0.0001336334217582232
206.4984165503433,215.4084666958194,12.5,0.2461343393563028,15.69149129692356,10.95288352721041,-4.075923092103295,5.498388836678683e-05,2.984090591197103e-05,-4.325357479339775e-05,0.0001292128939147116,0.0001312223648219802
207.7504216578753,214.0831561127286,12.5,0.3076202059836955,15.20868759624542,10.11628332290062,-3.508025887372219,5.860190317557039e-05,2.918218690219293e-05,-4.053296664852828e-05,0.0001336546345443854,0.0001423267807648477
207.4791707411766,211.6637089752613,12.5,0.2997209697930702,15.82822392383546,11.31108711059427,-3.762461743763003,5.940695790291619e-05,3.360503256520393e-05,-4.298242936277797e-05,0.0001415044570017337,0.000140795967842782
208.7274373017573,210.3146579158417,12.5,0.3475977757981791,15.60771486051707,10.52952906263362,-3.282242448616112,6.364335185145406e-05,3.250804538252634e-05,-4.024808410341347e-05,0.0001462467483104399,0.0001506151056353342
208.6669530078855,213.1129614301386,12.5,0.3469487569437327,15.82600494629992,11.0312022859202,-3.924091139696571,6.403518015479914e-05,3.466656498800065e-05,-4.807085117954175e-05,0.0001502779109660948,0.0001504728367586737
209.9189581154176,211.7876508470478,12.5,0.3943493498541412,15.47250928435115,10.21828443844296,-3.426980721772911,6.825288167232053e-05,3.35515247455654e-05,-4.526676520132643e-05,0.0001549612161952112,0.0001616238596731859
205.4218715069445,209.1535300904649,12.5,0.211051400541321,15.79549738303193,11.21803475372447,-3.647602605929159,5.269185324778547e-05,2.948394017234207e-05,-3.698697338135222e-05,0.0001249960903008119,0.0001256303392788991
206.6636627142591,207.7633593198487,12.5,0.2586915398344057,15.72904404368729,10.52587593274951,-3.214920299123937,5.653819219092323e-05,2.846260211995333e-05,-3.469454859215593e-05,0.0001292740578035907,0.0001333469794739867
206.6096537736533,210.6027825453423,12.5,0.2632732990060345,15.81216283826266,10.96972514397093,-3.825487646455251,5.676886817165372e-05,3.047723146154947e-05,-4.154037193215926e-05,0.0001328119752674935,0.0001341394407053114
207.8551835279193,209.2363522510549,12.5,0.3112343281447507,15.60272091124746,10.23715805514516,-3.37385547430638,6.059968168774764e-05,2.943922712183005e-05,-3.91872662900706e-05,0.0001370381167150566,0.000143038338421723
197.9485145918491,207.6438704990221,12.5,0,15.25479209890123,8.938210231034189,-3.407190076542942,4.166476653165658e-05,1.639843906018842e-05,-2.725752061234353e-05,8.856799294477586e-05,9.205354290706529e-05
199.2315247658502,209.0642899616879,12.5,0,15.70035850450623,9.047675041315538,-3.557434469335366,4.300300718136749e-05,1.639227332860474e-05,-2.845947575468293e-05,9.064094019599594e-05,9.567944876936744e-05
196.6794735296572,209.1086936479493,12.5,0,14.79539109792043,8.82145885401207,-3.557152918202494,4.028808443013571e-05,1.639235545450228e-05,-2.845722334561995e-05,8.649694616646879e-05,8.888526483085089e-05
197.9653653485973,210.4852789568929,12.5,0,15.23960966877899,8.93052683542161,-3.712094837899843,4.162232947175549e-05,1.638599813832595e-05,-2.969675870319875e-05,8.856528103224057e-05,9.183572049520979e-05
195.750470995281,210.1810186170215,12.5,0,14.95188061309952,8.152833982597576,-3.617202870274727,4.132375077584038e-05,1.412756425383263e-05,-2.893762296219782e-05,8.477554964557592e-05,8.672875907559287e-05
197.0384723247257,211.525515098335,12.5,0,15.39463087378854,8.25692282966245,-3.774134535831445,4.265728053239336e-05,1.410644835588901e-05,-3.019307628665156e-05,8.682570411115727e-05,8.928355702123047e-05
194.4814299330891,211.6458417659487,12.5,0,14.46708026234598,8.025148702071711,-3.77713680169603,3.987453787784975e-05,1.410681163675269e-05,-3.021709441356824e-05,8.257931588045326e-05,8.400535386137719e-05
195.7723129074728,212.94650409354,12.5,0,14.90796642878714,8.128561686967487,-3.939157703945908,4.120264322254484e-05,1.408502425526625e-05,-3.151326163156726e-05,8.462245653312634e-05,8.615464501495872e-05
197.9813547380554,212.5097548332122,12.5,0,14.97400753414516,8.980413851898474,-3.812901986785104,4.073249302774572e-05,1.675811829875899e-05,-3.050321589428084e-05,8.778268250549484e-05,9.134911294630778e-05
199.2693560675001,213.8542513145257,12.5,0,15.35161244867666,9.001263836862814,-3.924888889272652,4.192414876627506e-05,1.652275431901967e-05,-3.139911111418121e-05,8.928608634186153e-05,9.443751873409622e-05
196.717304831307,213.8986550007871,12.5,0,14.54553709578442,8.801300217589073,-3.984225374340753,3.950467853243889e-05,1.65277310196575e-05,-3.187380299472602e-05,8.56243225358904e-05,8.783622612050876e-05
198.0081878056908,215.1993173283784,12.5,0,14.92123493524113,8.819267306182839,-4.100978278335609,4.069253794782533e-05,1.628466743159218e-05,-3.280782622668487e-05,8.711253671004666e-05,9.02810999845331e-05
200.1707533998069,210.1041091763747,12.5,0,15.41258435796895,9.862957507751242,-3.580482181921523,4.142990393929966e-05,1.923139653842881e-05,-2.864385745537218e-05,9.242324114690689e-05,9.876396406653387e-05
201.4537635738079,211.5245286390404,12.5,0.03561590129802672,15.38351367897165,9.631599993093603,-3.625508465713752,4.305542141779553e-05,1.919806543849263e-05,-3.007522393281729e-05,9.489805796330377e-05,0.0001035651107131721
198.9067034930586,211.4930093439496,12.5,0,14.8813803494482,9.719920443074901,-3.76534441034321,3.984448076377431e-05,1.919864113828112e-05,-3.012275528274568e-05,9.000880153674432e-05,9.427719150395301e-05
200.1925953119986,212.8695946528932,12.5,0,15.41919025593325,9.843624258814053,-3.950137284918434,4.146650941193515e-05,1.916424542345837e-05,-3.160109827934747e-05,9.247880604521891e-05,9.799695868097063e-05
205.3844688428511,204.0663499951708,12.5,0.1845882412794714,15.86445881012241,11.13123171237122,-3.323748020611051,5.133760014471673e-05,2.811876844585506e-05,-3.260927240810341e-05,0.0001207830400268744,0.0001217180420301408
206.5487458109208,202.5764114683765,12.5,0.216501052099903,16.17709389317644,10.61770400638332,-3.055120186489158,5.522986006431187e-05,2.684748685657153e-05,-3.119463217840811e-05,0.0001247955425105695,0.0001264674788159135
206.6405924638062,205.608806825519,12.5,0.2456169078043674,15.78642087158658,10.90169214375577,-3.547430850243518,5.540314133025897e-05,2.95026206088107e-05,-3.761940994641031e-05,0.0001291687305298766,0.0001311362708798827
207.7901666057504,204.1319733215274,12.5,0.2774066721590408,15.99339050402758,10.37074920614253,-3.269615457911628,5.93449297076993e-05,2.822014025145024e-05,-3.619867864189592e-05,0.000133237639558089,0.0001366444628837367
207.4010557055938,201.485700766655,12.5,0.2355311386408622,15.98608693036343,11.17716975112405,-3.186755717655718,5.521970156012967e-05,3.005756652854879e-05,-3.33487039562609e-05,0.0001295915884965023,0.0001294804276346676
208.5653326736634,199.9957622398607,12.5,0.2564490220937905,16.43346001824789,10.73049849479202,-2.997310993104441,5.917909406355469e-05,2.849949471979462e-05,-3.224861328588037e-05,0.0001332933217684938,0.0001329625201026855
208.6317132846851,203.0508561623315,12.5,0.2961294346659693,15.80099299497772,10.92720381789219,-3.410412536863695,5.941634242052453e-05,3.171926618451165e-05,-3.87618145133856e-05,0.0001385967255053222,0.0001401108042065785
209.7812874266293,201.5740226583399,12.5,0.3164249469731575,16.16956484463119,10.48238644391123,-3.217909546927746,6.342639064387901e-05,3.014736224436461e-05,-3.765976575861244e-05,0.0001423526300724374,0.0001440728328135063
205.2694942519261,198.7747720996516,12.5,0.1230998511911007,15.89635315771372,11.01345234085281,-3.051032779268695,4.796163883553765e-05,2.568817555243343e-05,-2.783471101847057e-05,0.0001119077294095077,0.0001135056633366159
206.4592372618595,197.262135007529,12.5,0.144019585570164,16.39916065408223,10.594318101591,-2.880120222751321,5.140521777136657e-05,2.427916462979882e-05,-2.691762731201979e-05,0.0001150520532329387,0.0001161722991585934
206.5001518310175,200.339927495328,12.5,0.1889886424388513,15.77304154161508,10.82633760561557,-3.297877862404575,5.155619888531981e-05,2.71584940202481e-05,-3.253101532212188e-05,0.0001196903124734582,0.0001223516016242667
207.6751920148254,198.8403954260081,12.5,0.2101083235076006,16.18677849421303,10.39968137980304,-3.121322266621278,5.504292217726342e-05,2.573714627589815e-05,-3.16126614270134e-05,0.0001228796685123946,0.0001254865946416869
203.2087989108086,201.3947363965741,12.5,0.07466501536228165,15.76055420025434,10.87927858421729,-3.160552493706168,4.509756063073532e-05,2.399698323087343e-05,-2.732461256671123e-05,0.000105022102171764,0.000107778109213951
204.3985419207419,199.8820993044515,12.5,0.1046745228065775,16.16550656124256,10.42901869761898,-2.928198283507124,4.845880871600391e-05,2.283019427466916e-05,-2.616432444376451e-05,0.0001083920707239072,0.0001112564469199055
204.4649225317636,202.9371932269223,12.5,0.138520376834367,15.75506320050525,10.73360597039261,-3.409993980437455,4.855520239886206e-05,2.523970150907634e-05,-3.166639246005084e-05,0.0001122521026137898,0.0001154592414752736
205.6399627155716,201.4376611576024,12.5,0.170006793185102,16.03935131415918,10.25106869355049,-3.164517085936512,5.195834001577146e-05,2.406277377218135e-05,-3.050161914534561e-05,0.0001156684181032119,0.0001196647804411882
155.9427538514097,262.1209514039833,12.5,0,6.221995243897506,3.301985479460276,-5.120273064418067,1.72687963969038e-05,5.588757339154878e-06,-4.096218451534454e-05,3.70794538488799e-05,3.730758233467043e-05
158.3708290844278,262.656933184648,12.5,0,6.341030698091712,3.534094879412924,-5.248690314720311,1.746402233036314e-05,6.236279055647987e-06,-4.198952251776249e-05,3.836906598630929e-05,3.7749003086932e-05
155.586244502761,264.1555691883083,12.5,0,5.980956366091078,3.271676554629651,-5.068263780329908,1.652171912778773e-05,5.684599881942021e-06,-4.054611024263926e-05,3.608881810041946e-05,3.661094966033849e-05
158.0157727762557,264.7134113969266,12.5,0,6.102172408922127,3.503610767506753,-5.196938930714234,1.67240630945454e-05,6.329816528883908e-06,-4.157551144571387e-05,3.738619444883319e-05,3.700513903725809e-05
151.7372041832983,261.1926037279574,12.5,0,6.372350388593244,2.941550018106845,-5.014504456836787,1.80382812290129e-05,4.315079747067309e-06,-4.011603565469429e-05,3.634480082387835e-05,3.648888504478996e-05
154.1652794163164,261.7285855086221,12.5,0,6.487371465837473,3.163524726181886,-5.13943233347712,1.82287689097344e-05,4.933381951112057e-06,-4.111545866781696e-05,3.75790446714296e-05,3.696993472292109e-05
151.3781780947187,263.1893581403923,12.5,0,6.141537561294098,2.912652105323478,-4.966504116670208,1.732279851188233e-05,4.407256687999849e-06,-3.973203293336166e-05,3.539510961670137e-05,3.586825468886555e-05
153.8077063682134,263.7472003490106,12.5,0,6.258681595651051,3.134455404093262,-5.091660739296267,1.752021678280875e-05,5.023312016577596e-06,-4.073328591437013e-05,3.663689217107215e-05,3.63063224173086e-05
151.1153527566468,264.6510838204699,12.5,0,6.014020147346208,2.993148815239513,-4.958976908625997,1.685034541931625e-05,4.766860090889475e-06,-3.967181526900798e-05,3.520101034342966e-05,3.541366642993979e-05
153.5459447295959,265.2249289730247,12.5,0,6.127364072587241,3.207796786637638,-5.077687749414689,1.704132760296906e-05,5.363058459170646e-06,-4.062150199531751e-05,3.640206877005781e-05,3.582127372519279e-05
150.7563266680672,266.6478382329048,12.5,0,5.798089533660463,2.966912097119104,-4.912310746296855,1.618035683001819e-05,4.855647083852762e-06,-3.929848597037484e-05,3.431649410945198e-05,3.479233856590194e-05
153.1883716814929,267.2435438134132,12.5,0,5.913400269954787,3.181377487099797,-5.031248926602285,1.637777887417548e-05,5.449687742755522e-06,-4.024999141281828e-05,3.552437266202831e-05,3.51597083597437e-05
155.325261546188,265.6450127803541,12.5,0,5.837978022264666,3.339855996554734,-5.045581104981134,1.600964487400314e-05,6.017156771163414e-06,-4.036464883984907e-05,3.579178867188436e-05,3.610245783579579e-05
157.755853519137,266.2188579329089,12.5,0,5.954813532008363,3.565848006362303,-5.16639151746018,1.620272489733692e-05,6.64686279475268e-06,-4.133113213968144e-05,3.704890584707047e-05,3.64630598170239e-05
154.9687521975394,267.6796305646791,12.5,0,5.615705628934581,3.313383636279514,-4.994275668424448,1.531955110356704e-05,6.110263132946782e-06,-3.995420534739559e-05,3.488337542465665e-05,3.540986501018461e-05
157.400797210965,268.2753361451875,12.5,0,5.734530197177754,3.539175208575847,-5.115351684694679,1.551915646410813e-05,6.737736509700504e-06,-4.092281347755744e-05,3.614736698066506e-05,3.572593589522772e-05
156.4899592555662,222.8382658898925,12.5,0,10.32952068884079,1.885585253137511,-4.007061143448172,3.154599800178051e-05,-2.229743741032596e-06,-3.205648914758537e-05,4.67116110177534e-05,4.614821364910601e-05
158.8654939860533,223.681552499815,12.5,0,10.5365943258185,2.147017336290487,-4.196517299879905,3.199948797358681e-05,-1.558819984525241e-06,-3.357213839903924e-05,4.841715643524938e-05,4.747397026773691e-05
156.3346163363152,224.9671397674388,12.5,0,9.957679202585179,1.806113606257867,-3.943392794920002,3.041968256326628e-05,-2.186579822042968e-06,-3.154714235936002e-05,4.503736656567169e-05,4.590926864658722e-05
158.7610665716018,225.8399641142128,12.5,0,10.16226249799557,2.062408568358629,-4.129157205905696,3.086931313889892e-05,-1.530102579648843e-06,-3.303325764724557e-05,4.67156482079086e-05,4.720296821713904e-05
152.3754124072919,221.3776506361905,12.5,0,10.0929289151618,1.500693052499076,-3.753525033179228,3.109681808651849e-05,-3.272125364132397e-06,-3.002820026543383e-05,4.447831740537644e-05,4.391973484077169e-05
154.7509471377791,222.220937246113,12.5,0,10.2719728612311,1.721151454040568,-3.918116603431221,3.149339199270707e-05,-2.709893636055065e-06,-3.134493282744977e-05,4.592920539730829e-05,4.519585913677023e-05
152.1318812468369,223.4553636527704,12.5,0,9.777272687200659,1.439496887129611,-3.707142258928795,3.013567508933842e-05,-3.215428110945771e-06,-2.965713807143036e-05,4.308052968657252e-05,4.373772981494248e-05
154.5583314821235,224.3281879995443,12.5,0,9.954113979673284,1.655554599033303,-3.868451908454015,3.052872105572787e-05,-2.665516466832059e-06,-3.094761526763212e-05,4.450783229791666e-05,4.498076081516623e-05
151.9536040641653,224.9763551443893,12.5,0,9.85788168304232,1.582573605033295,-3.986773937998533,3.027916250170878e-05,-2.822069810327313e-06,-3.189419150398826e-05,4.398517070010769e-05,4.357827984059634e-05
154.4173270358564,225.8708026152783,12.5,0,10.05916254395096,1.833572286113939,-4.168547878759068,3.07224623117519e-05,-2.17989871959616e-06,-3.334838303007255e-05,4.562896496223789e-05,4.479492327190097e-05
151.7100729037103,227.0540681609693,12.5,0,9.525241848121166,1.518937952740581,-3.934994186492347,2.926562355179527e-05,-2.759592029727073e-06,-3.147995349193878e-05,4.251633300165541e-05,4.332465943522781e-05
154.2247113802008,227.9780533687097,12.5,0,9.724024484390801,1.76507530837528,-4.11327585579351,2.970481810335034e-05,-2.130978600711745e-06,-3.290620684634807e-05,4.413380601919981e-05,4.45023039833289e-05
156.2208974268322,226.5255836086426,12.5,0,10.04191915862751,1.999420326774261,-4.251352449688078,3.053460504618864e-05,-1.635390281224378e-06,-3.401081959750462e-05,4.613721260220327e-05,4.570441075083669e-05
158.6846203985234,227.4200310795316,12.5,0,10.27082786688027,2.284207678293436,-4.458163114361221,3.103928303138212e-05,-9.071977229652215e-07,-3.566530491488977e-05,4.801338039575279e-05,4.697253332093781e-05
156.0655545075812,228.654457486189,12.5,0,9.651537083894175,1.915949129567803,-4.184711899222216,2.935215936480712e-05,-1.590192452498372e-06,-3.347769519377773e-05,4.438318752928198e-05,4.538367357380959e-05
158.5801929840717,229.5784426939295,12.5,0,9.87768848832712,2.195323385877775,-4.387621307852454,2.985234445394456e-05,-8.771159558528148e-07,-3.510097046281963e-05,4.623008406551565e-05,4.661397552725028e-05
138.6998698849011,281.395588960417,12.5,0,4.7419544824701,2.572067453446436,-4.385707134046,1.311660038114717e-05,4.437052265052514e-06,-3.5085657072368e-05,2.887230926645457e-05,2.909444769864263e-05
141.8984046331148,282.3216575609208,12.5,0,4.875408985868187,2.823429484221558,-4.508510936398411,1.334256516740095e-05,5.134647160814435e-06,-3.606808749118729e-05,3.026625764044378e-05,2.935479500954992e-05
138.9774562485683,284.2398480613322,12.5,0,4.487613264996736,2.488125694309158,-4.293165263773411,1.236986189254223e-05,4.371911609791915e-06,-3.434532211018729e-05,2.763271106289353e-05,2.852147595697394e-05
141.9056643484816,285.0498256893316,12.5,0,4.629528442617683,2.761411399139207,-4.425898981392867,1.260536189706522e-05,5.132893723151316e-06,-3.540719185114293e-05,2.913577597909739e-05,2.87429409193532e-05
139.1806635702524,286.3219902330038,12.5,0,4.40007346826598,2.685735621070084,-4.293001153100521,1.193164660159507e-05,5.074295212811485e-06,-3.434400922480417e-05,2.797219498632442e-05,2.809922664007375e-05
141.9109788289784,287.0469833708333,12.5,0,4.501850655610133,2.891523242824623,-4.387973398873025,1.209270350369272e-05,5.651393852550688e-06,-3.51037871909842e-05,2.908506819372971e-05,2.829423129827678e-05
139.4582499339196,289.1662493339189,12.5,0,4.165134627825375,2.607012413060956,-4.202673877001168,1.124282087859243e-05,5.010332019534758e-06,-3.362139101600935e-05,2.682125337301389e-05,2.751859179446083e-05
141.9182385443452,289.7751514992441,12.5,0,4.273852734442656,2.833982923996604,-4.306448159320827,1.140914241101921e-05,5.649663169235008e-06,-3.445158527456662e-05,2.803509464459394e-05,2.768018790579561e-05
143.9097083189613,287.5777151828408,12.5,0,4.156677070847944,2.941166500108169,-4.302528659000447,1.094843342662688e-05,6.086391143667784e-06,-3.442022927200358e-05,2.798153682741223e-05,2.841538189097869e-05
146.6400235776874,288.3027083206704,12.5,0,4.239583006523743,3.116631765214422,-4.377773149414653,1.107336020870444e-05,6.581555243467154e-06,-3.502218519531723e-05,2.89152038372537e-05,2.855136680741842e-05
143.719075193141,290.2208988210818,12.5,0,3.9938833818004,2.912277138268097,-4.241522318952306,1.04506051111468e-05,6.124180137017591e-06,-3.393217855161845e-05,2.727175160602484e-05,2.77795274230324e-05
146.1790638035666,290.829800986407,12.5,0,4.083157839713168,3.107098465106252,-4.324161973644682,1.058042631499714e-05,6.676188816569471e-06,-3.459329578915746e-05,2.829823105160249e-05,2.788933191999944e-05
144.2398945784821,282.999586827755,12.5,0,4.488417784952857,2.897689898423971,-4.43311876539156,1.204478499310997e-05,5.681873446994421e-06,-3.546495012313248e-05,2.910100714236318e-05,2.952620747386404e-05
147.4384293266958,283.9256554282587,12.5,0,4.612180270334759,3.138589024333343,-4.545215173827718,1.224810564560455e-05,6.353740661598891e-06,-3.636172139062174e-05,3.04232401518588e-05,2.973416772453343e-05
144.0492614526617,285.6427704659959,12.5,0,4.283489369534307,2.859947291651993,-4.363944222055563,1.141920814918819e-05,5.725039837658932e-06,-3.491155377644451e-05,2.820762034931561e-05,2.888340340002001e-05
146.9774695525749,286.4527480939952,12.5,0,4.415791155227594,3.123088569382254,-4.485587189333162,1.163206084122249e-05,6.461250497841137e-06,-3.58846975146653e-05,2.964136773119196e-05,2.904568907139593e-05
139.5419269003017,112.5628973151121,12.5,0,-2.385877629052373,0.5944114025524201,2.094705315038921,-8.110337535009527e-06,3.810818591409642e-06,1.675764252031137e-05,2.497873240171271e-06,2.568921418537349e-06
141.2642861775586,111.9374141376941,12.5,0,-2.344350344462262,0.4933010785328373,2.152092529932967,-7.896561965105506e-06,3.454043726874888e-06,1.721674023946374e-05,2.464046330034643e-06,2.626270379504517e-06
140.7192397146347,114.1033208447672,12.5,0,-2.186121011793382,0.722094169398744,2.002707327315973,-7.573262573257818e-06,4.059598151510686e-06,1.602165861852779e-05,2.616093221776463e-06,2.745967052160212e-06
142.4659472438875,113.5090476726457,12.5,0,-2.148586367066039,0.6184599274904158,2.061916485104048,-7.370244316603656e-06,3.697940861622161e-06,1.649533188083238e-05,2.572327040207178e-06,2.80893636263489e-06
137.5027612895117,109.8948054966226,12.5,0,-2.83178545669549,0.5041341953269648,2.111161898609842,-9.465020817687138e-06,3.878657790402679e-06,1.688929518887873e-05,2.308419804192431e-06,2.344447057176866e-06
139.182948157237,109.2152650043276,12.5,0,-2.788733474076392,0.4069317727311469,2.160308159875079,-9.24949253522937e-06,3.533168452000783e-06,1.728246527900063e-05,2.271309842697934e-06,2.394985557621956e-06
138.6800741038447,111.4352290262778,12.5,0,-2.64506965598092,0.6279877867139821,2.02315576437987,-8.96661312851013e-06,4.125616642269478e-06,1.618524611503896e-05,2.382625830720831e-06,2.461334460139961e-06
140.3846092235659,110.7868985392793,12.5,0,-2.605752019512803,0.5283360095327916,2.074046847441021,-8.761075270067204e-06,3.775276846115175e-06,1.659237477952816e-05,2.338381283547554e-06,2.515352595598541e-06
134.5925922684541,111.0718041550567,12.5,0,-2.664885672872646,0.3869471750995559,2.101782231285183,-8.837191893272109e-06,3.370139498616695e-06,1.681425785028147e-05,2.209847126360814e-06,2.257151965269231e-06
136.2727791361792,110.3922636627617,12.5,0,-2.617615401255491,0.2964186318621562,2.154359374892732,-8.613504189507297e-06,3.042631942963293e-06,1.723487499914186e-05,2.189197085510231e-06,2.307514657417223e-06
135.7277326732554,112.5581703698349,12.5,0,-2.479567581445043,0.5038648936986551,2.017128554822062,-8.337708175583061e-06,3.59602172499173e-06,1.61370284385765e-05,2.276197232720108e-06,2.369072054802726e-06
137.4322677929764,111.9098398828364,12.5,0,-2.436137390131383,0.4109411270956276,2.071442910573297,-8.124392550096926e-06,3.263921518811114e-06,1.657154328458637e-05,2.250129183258662e-06,2.422138707366555e-06
136.5587131232589,113.6462659576602,12.5,0,-2.230164049995607,0.4642223382730237,2.082915777197272,-7.507902830604359e-06,3.269642722470161e-06,1.666332621757818e-05,2.382571214409261e-06,2.470992168403339e-06
138.2810724005157,113.0207827802422,12.5,0,-2.18499134667758,0.3699986625800445,2.143289912862612,-7.28797123943229e-06,2.931988797598206e-06,1.714631930290089e-05,2.368177340658571e-06,2.527314747271934e-06
137.6938535280602,115.1326321724384,12.5,0,-2.033387682235154,0.5844089861205461,1.994799677786485,-6.974367772048931e-06,3.496818901373871e-06,1.595839742229188e-05,2.48962380980088e-06,2.637523007551749e-06
139.4405610573129,114.5383590003168,12.5,0,-1.992289733379111,0.4877243581555196,2.056980074699161,-6.765506633337571e-06,3.154549732800951e-06,1.645584059759329e-05,2.467712385011278e-06,2.700036982095204e-06
172.8311503267933,287.7012521857832,12.5,0,2.955296216453201,4.7446247883944,-4.204189092431212,5.661248061934721e-06,1.281856234969952e-05,-3.36335127394497e-05,2.997229122640169e-05,3.053194769410786e-05
175.045547073074,288.0025479055354,12.5,0,3.005456468779546,4.880401279818803,-4.258568911808785,5.713139676239505e-06,1.321291892039653e-05,-3.406855129447028e-05,3.065920880515087e-05,3.044805559525178e-05
172.599833617387,289.5947400126073,12.5,0,2.853107567804372,4.731574004320084,-4.168106570880014,5.344685013517923e-06,1.285855075958077e-05,-3.334485256704012e-05,2.955817847431451e-05,2.980234496118145e-05
174.8085762994372,289.8272314469731,12.5,0,2.899826245373285,4.867753983035545,-4.221510123170633,5.385240798766076e-06,1.325695174941512e-05,-3.377208098536506e-05,3.023438475651643e-05,2.973146196856349e-05
172.4304980334691,290.9808693052967,12.5,0,2.740277775009953,4.651853357303479,-4.040487683166015,5.047406194189064e-06,1.269370852336317e-05,-3.232390146532812e-05,2.879692077845123e-05,2.928246018296981e-05
174.6351016532336,291.1629925069835,12.5,0,2.779632853876481,4.77336932157645,-4.087640224291171,5.076129675143579e-06,1.305107554594345e-05,-3.270112179432937e-05,2.93925177594785e-05,2.922178997251109e-05
172.1991813240628,292.8743571321206,12.5,0,2.646713270365534,4.639833011641598,-4.007681843743227,4.757616055856429e-06,1.273009502096069e-05,-3.206145474994582e-05,2.841880465955193e-05,2.859171128767996e-05
174.3981308795969,292.9876760484211,12.5,0,2.682837938663917,4.761701515632874,-4.053921554700291,4.775720191218234e-06,1.309117449909406e-05,-3.243137243760233e-05,2.900432237297705e-05,2.854593381072997e-05
176.2489835133829,291.2963159438496,12.5,0,2.507986054316151,4.854626389081941,-3.91942861683758,4.141854262546132e-06,1.352841560160929e-05,-3.135542893470064e-05,2.864265863934509e-05,2.916098919890194e-05
178.4535871331474,291.4784391455363,12.5,0,2.542905117623345,4.961553290335961,-3.96231659022108,4.168053744125935e-06,1.38426464349764e-05,-3.169853272176864e-05,2.917030446090865e-05,2.905554860671392e-05
176.0078736774605,293.0706312526082,12.5,0,2.428363636332383,4.845121224280784,-3.89301284702997,3.894666656838999e-06,1.35616970086326e-05,-3.114410277623976e-05,2.832658305415278e-05,2.849578286540051e-05
178.2068232329946,293.1839501689087,12.5,0,2.460353857211123,4.952422510828944,-3.935149697522589,3.911194334412437e-06,1.387946894888372e-05,-3.148119758018071e-05,2.884539578949397e-05,2.840454541165697e-05
176.6665979993977,288.2231116804877,12.5,0,2.69315278913281,4.963814377153435,-4.077375843771566,4.647037423502243e-06,1.372968377558474e-05,-3.261900675017253e-05,2.97680063438902e-05,3.036949197862645e-05
178.8809947456784,288.5244074002399,12.5,0,2.734851649078838,5.077026069744153,-4.122351812419514,4.689904421256957e-06,1.405860210391822e-05,-3.297881449935611e-05,3.034151867792698e-05,3.023874428522666e-05
176.4254881634752,289.9974269892463,12.5,0,2.614522599737568,4.954999350258718,-4.04961421887509,4.402472838953243e-06,1.376437984103784e-05,-3.239691375100072e-05,2.945562138888029e-05,2.966304804262604e-05
178.6342308455255,290.2299184236121,12.5,0,2.653414210556609,5.068651849282415,-4.093809637284315,4.436003994355217e-06,1.409695454925844e-05,-3.275047709827453e-05,3.002085880252141e-05,2.95470207136297e-05
189.4508940385623,292.9365599024432,12.5,0,1.706650235706393,5.390933237969413,-3.314695873277003,1.148534163884925e-06,1.588566617293701e-05,-2.651756698621602e-05,2.747908111374048e-05,2.773547727955126e-05
191.3303156688093,292.3535550975174,12.5,0,1.706558045568171,5.56831332600918,-3.349983944219506,1.006335085010801e-06,1.645335620677484e-05,-2.679987155375604e-05,2.814805317961709e-05,2.777100674213189e-05
189.8904874547325,295.2165038469396,12.5,0,1.499812496654387,5.295530984379107,-3.209938421661033,5.629752017907524e-07,1.574584915268963e-05,-2.567950737328826e-05,2.639433259123424e-05,2.674188440625252e-05
191.8800278506088,294.8216818900658,12.5,0,1.51658001832059,5.474862500892137,-3.25260537971309,4.731660579121791e-07,1.630629598819836e-05,-2.602084303770472e-05,2.713045488537015e-05,2.666418406417742e-05
186.195640286189,293.9463538456133,12.5,0,1.844939375415132,5.228389195136701,-3.420773646126385,1.72109464521906e-06,1.525489392410534e-05,-2.736618916901108e-05,2.741710804739888e-05,2.764448752771752e-05
188.0750619164361,293.3633490406875,12.5,0,1.835913327019414,5.37730336422642,-3.461660145464039,1.573079955080988e-06,1.573864010390901e-05,-2.769328116371231e-05,2.795633617279301e-05,2.770157655822296e-05
186.444502405426,295.9003555361766,12.5,0,1.663552468334482,5.161772141235418,-3.345577823980221,1.193950185682008e-06,1.518682887728575e-05,-2.676462259184177e-05,2.653697341465943e-05,2.684098709800171e-05
188.4340428013023,295.5055335793027,12.5,0,1.672083590990745,5.311315161404357,-3.392036817086351,1.101615362046897e-06,1.565854164370134e-05,-2.713629453669081e-05,2.713977108638872e-05,2.678925863638363e-05
186.6266821207789,297.3307840516835,12.5,0,1.585419314199889,5.069597100660665,-3.188737688576354,1.017664124911112e-06,1.495437527075422e-05,-2.550990150861083e-05,2.583313362944882e-05,2.62660102813217e-05
188.6968350479592,297.0737215006908,12.5,0,1.60867595554,5.217361079184215,-3.22576764452255,9.738741943806273e-07,1.540861468895749e-05,-2.58061411561804e-05,2.647011036908168e-05,2.613770099379844e-05
186.8755442400159,299.2847857422466,12.5,0,1.463177561353321,5.02097675471056,-3.126408712967452,6.6538679256218e-07,1.489658356599113e-05,-2.501126970373962e-05,2.521983246932596e-05,2.549864483462672e-05
189.0558159328254,299.215906039306,12.5,0,1.496479777745383,5.167770080873856,-3.167658245200743,6.545192240861412e-07,1.533968043660003e-05,-2.534126596160594e-05,2.588867202283807e-05,2.526993033195955e-05
190.2122921700281,296.885538652649,12.5,0,1.407475286569325,5.168480624161639,-3.017794894269827,3.691364176925272e-07,1.541315776806178e-05,-2.414235915415862e-05,2.549604838860672e-05,2.603233130794057e-05
192.2824450972084,296.6284761016564,12.5,0,1.429127922127813,5.311045646968053,-3.056043283558449,3.243728332345602e-07,1.585204373259552e-05,-2.444834626846759e-05,2.611177798814047e-05,2.587276526011032e-05
190.6518855861984,299.1654825971453,12.5,0,1.260378974462478,5.101129441569858,-2.944313837523695,-4.769083497595727e-08,1.531531103345356e-05,-2.355451070018956e-05,2.473060727749817e-05,2.508738906590076e-05
192.8321572790079,299.0966028942048,12.5,0,1.292701892675479,5.24445933307126,-2.9870403381818,-5.892140989547691e-08,1.574810835168765e-05,-2.38963227054544e-05,2.538630837947394e-05,2.481739155519615e-05
143.8676348796554,204.6756045617716,12.5,0,9.643720556253065,0.5177463211261468,-2.20941464338412,3.044570872310888e-05,-6.058188217398781e-06,-1.767531714707296e-05,3.904030020138885e-05,3.814303690042422e-05
146.1011671657482,205.1861758993824,12.5,0,9.682914545882818,0.6080596822595938,-2.24585127608088,3.049887880101734e-05,-5.800540653475554e-06,-1.796681020864704e-05,3.947992096002407e-05,3.938351972561428e-05
144.2405202877985,207.0179964620427,12.5,0,9.558644788477654,0.4830069765323954,-2.17070301877125,3.020125774190257e-05,-6.101293505878457e-06,-1.736562415017e-05,3.859654056026436e-05,3.86939793226022e-05
146.4373690464439,207.4924631280187,12.5,0,9.597344184480617,0.5742157299531734,-2.207189307442661,3.025212880637543e-05,-5.840385011734339e-06,-1.765751445954129e-05,3.903670172584231e-05,3.990211527432948e-05
144.5134913519487,208.7327463442061,12.5,0,9.7545706948302,0.6371309163480532,-2.563366262716556,3.070492149037819e-05,-5.764837623550389e-06,-2.050693010173245e-05,3.996194066278799e-05,3.905955217349595e-05
146.6834859047029,209.1807825561559,12.5,0,9.794898471529711,0.730638157631045,-2.603095912204809,3.075916458279023e-05,-5.497876672804424e-06,-2.082476729763847e-05,4.04188210742331e-05,4.024407037379309e-05
144.8863767600917,211.0751382444772,12.5,0,9.656003595875889,0.5981223524477726,-2.521611157067701,3.042071362484463e-05,-5.810811348867838e-06,-2.017288925654161e-05,3.945166872222607e-05,3.950737335387001e-05
147.0196877853986,211.4870697847921,12.5,0,9.695666292853129,0.6925416148353105,-2.561402264679281,3.047209884526176e-05,-5.540399866809509e-06,-2.049121811743425e-05,3.990850304023387e-05,4.065971353075947e-05
148.2720321693992,209.5087678269198,12.5,0,10.0768439866346,0.8888544173585153,-2.704373732101907,3.15348172233439e-05,-5.217141053760429e-06,-2.163498985681525e-05,4.201722449860834e-05,4.11359248134143e-05
150.4420267221535,209.9568040388696,12.5,0,10.12906161629357,1.006043394233961,-2.757378494803957,3.160816245675226e-05,-4.883910431486183e-06,-2.205902795843166e-05,4.260047190039232e-05,4.238799825522178e-05
148.5813798442038,211.7886246015299,12.5,0,9.948192200024844,0.8418132935240581,-2.654169271985079,3.116076440526025e-05,-5.264751220742888e-06,-2.123335417588063e-05,4.136386227604053e-05,4.152551263224233e-05
150.7146908695107,212.2005561418448,12.5,0,9.999515343726134,0.9601959533609592,-2.707330790622758,3.123029233723486e-05,-4.926985224225838e-06,-2.165864632498206e-05,4.194704505539706e-05,4.27385795898521e-05
147.7362262794441,205.559940059386,12.5,0,9.996808221722812,0.7735333312812751,-2.354131737168772,3.137095964448797e-05,-5.522139917278168e-06,-1.883305389735018e-05,4.122249018110858e-05,4.031986251770542e-05
149.9697585655368,206.0705113969968,12.5,0,10.0446783125848,0.8815562494447762,-2.399423879323479,3.143772560071554e-05,-5.214762651844558e-06,-1.919539103458783e-05,4.175564647881809e-05,4.163751577391802e-05
148.0455739542486,207.8397968339961,12.5,0,9.893660340217778,0.7344136627472955,-2.309760016684089,3.107218215849905e-05,-5.564804551382876e-06,-1.847808013347271e-05,4.069362263757819e-05,4.08128718388797e-05
150.242422712894,208.3142634999721,12.5,0,9.940922666551062,0.8435628435565214,-2.355163610667549,3.113610225811817e-05,-5.25333703385998e-06,-1.884130888534039e-05,4.122760816598249e-05,4.20929690949363e-05
196.6959295619113,297.4105417092544,12.5,0,1.074747069721177,5.440905835138188,-2.627970042206121,-9.135340450027829e-07,1.655110101666526e-05,-2.102376033764897e-05,2.517074516427732e-05,2.480083346319994e-05
198.6170755363798,297.4351869968078,12.5,0,1.014681803103894,5.203779872112795,-2.602391600859002,-9.160421277577737e-07,1.584035014827783e-05,-2.081913280687202e-05,2.409107067903933e-05,2.440869512723481e-05
195.2047510184588,299.3061567421822,12.5,0,1.091145574322506,5.290776747469719,-2.689423674699965,-7.409555601437575e-07,1.60575691324451e-05,-2.151538939759972e-05,2.471025848352254e-05,2.433718036233568e-05
197.3450964186238,299.3127604270792,12.5,0,1.037039799060025,5.075040108349713,-2.666924941727489,-7.415047296876901e-07,1.541049650747106e-05,-2.133539953381991e-05,2.373243962239035e-05,2.393209628922832e-05
200.0234519983875,297.4532285994632,12.5,0,0.8803346947194994,5.398675156760824,-2.395566251667869,-1.501869102306261e-06,1.657149274585904e-05,-1.916453001334296e-05,2.425694668212686e-05,2.410412850606929e-05
201.9445979728561,297.4778738870166,12.5,0,0.829811727957292,5.198635157728275,-2.378609892438195,-1.503510596719286e-06,1.597178312236464e-05,-1.902887913950556e-05,2.334712211635573e-05,2.366417535868524e-05
198.9119379972244,299.3175946599407,12.5,0,0.8914742276390847,5.304657871844437,-2.452251875450804,-1.391008769030479e-06,1.626172580779093e-05,-1.961801500360643e-05,2.397899064881164e-05,2.361572193513937e-05
201.0522833973894,299.3241983448377,12.5,0,0.8460250199904,5.123308654392403,-2.437534329122836,-1.391366859544642e-06,1.571776767806337e-05,-1.950027463298268e-05,2.315711513185761e-05,2.315645519862717e-05
201.9486507216916,294.2240518588671,12.5,0,0.8825732945268148,5.631296687986548,-2.423889975954183,-1.680802807903432e-06,1.73140907659355e-05,-1.939111980763346e-05,2.514488915780065e-05,2.499867302306679e-05
203.4901321538709,294.2799461188708,12.5,0,0.8311000622151784,5.430388067132049,-2.407416643253988,-1.684790254617068e-06,1.671236176505041e-05,-1.925933314603191e-05,2.422814257901435e-05,2.459869324696072e-05
200.8371367205285,296.0884179193446,12.5,0,0.8896957284227375,5.514970278334559,-2.494497565630536,-1.564949891714887e-06,1.69361483079324e-05,-1.995598052504429e-05,2.477889538563717e-05,2.447468913323965e-05
202.5978175784042,296.1262705766919,12.5,0,0.8443994450072886,5.336413368336721,-2.480834502585879,-1.567052470646054e-06,1.640100322267168e-05,-1.984667602068703e-05,2.396784573365594e-05,2.405062187901763e-05
199.2787265622812,294.127240160691,12.5,0,1.027042807129828,5.663246114154473,-2.652338491481427,-1.24405990850813e-06,1.730075331959045e-05,-2.121870793185142e-05,2.585773999162204e-05,2.562921536167205e-05
200.8202079944604,294.1831344206947,12.5,0,0.9709460273968873,5.447754841976883,-2.624882969342543,-1.251176585911467e-06,1.665605867240851e-05,-2.099906375474034e-05,2.486815120050065e-05,2.527480059147751e-05
197.7875480188287,296.0228551936189,12.5,0,1.05192656839285,5.499190089659505,-2.718186947299936,-1.033187052870482e-06,1.675586703219613e-05,-2.174549557839949e-05,2.537338831150924e-05,2.514703319785409e-05
199.5482288767043,296.0607078509661,12.5,0,1.00262681807649,5.306707616820695,-2.694699183925314,-1.036960275611789e-06,1.617936291936503e-05,-2.155759347140251e-05,2.449454692897171e-05,2.476847166068508e-05
133.2775640119404,241.2590102139533,12.5,0,7.899481405513729,1.070909642661519,-4.120475995005247,2.442161278351472e-05,-2.892674267894121e-06,-3.296380796004197e-05,3.523114521916222e-05,3.457811381342669e-05
135.9162617474686,241.8119387398682,12.5,0,7.997836104391398,1.244234996545002,-4.237976343599203,2.459768753681647e-05,-2.416716894569111e-06,-3.390381074879363e-05,3.621038769492449e-05,3.539509235529713e-05
133.6384570110737,244.1160245846555,12.5,0,7.594968153532582,0.9747137992823531,-4.042758942184637,2.352412705187838e-05,-2.956890365122535e-06,-3.23420715374771e-05,3.376367584067538e-05,3.442386210760802e-05
136.2344260590124,244.5877101831903,12.5,0,7.686383434372613,1.14771710739264,-4.159702924088021,2.367825330407825e-05,-2.476412003841642e-06,-3.327762339270417e-05,3.471532309802922e-05,3.519977324219475e-05
133.902649022524,246.2075042618751,12.5,0,7.589554146039886,1.288691983223684,-4.287093222948998,2.325561968074868e-05,-1.947828970516119e-06,-3.429674578359198e-05,3.489164510398277e-05,3.42802235376421e-05
136.4673385002076,246.6197159098144,12.5,0,7.671927789277775,1.457192060224455,-4.396769392879523,2.338441527750931e-05,-1.474527638703962e-06,-3.517415514303618e-05,3.579690891680988e-05,3.502587279199216e-05
134.2635420216573,249.0645186325774,12.5,0,7.290637671491292,1.193437851294899,-4.208198396722158,2.237529026773621e-05,-2.013509013049357e-06,-3.366558717377726e-05,3.344885181526378e-05,3.404204737237062e-05
136.7855028117513,249.3954873531364,12.5,0,7.365850051315764,1.361569518465743,-4.317167398571979,2.248146454943785e-05,-1.535657581962235e-06,-3.453733918857584e-05,3.432576448059921e-05,3.474608703966173e-05
138.3448215034295,246.9214757795648,12.5,0,7.645352573979334,1.562900216199173,-4.464960183983233,2.321480806377453e-05,-1.115001367346115e-06,-3.571968147186586e-05,3.60809808320866e-05,3.557197900608496e-05
140.9095109811131,247.3336874275041,12.5,0,7.737135211784186,1.754724618264215,-4.584889048329603,2.335505298309802e-05,-5.745893909818597e-07,-3.667911238663683e-05,3.710570166392169e-05,3.631831967502893e-05
138.6317062447182,249.6377732722915,12.5,0,7.336805425658495,1.467146771178477,-4.38242958056269,2.23040599451644e-05,-1.17457467275567e-06,-3.505943664450153e-05,3.459844695536484e-05,3.52608029135577e-05
141.1536670348122,249.9687419928505,12.5,0,7.420919495859415,1.658899276765231,-4.501654908491956,2.241982296533794e-05,-6.282579110387931e-07,-3.601323926793565e-05,3.559407288921339e-05,3.596299316527239e-05
137.8479225556102,242.2167105137749,12.5,0,7.985110645581591,1.355155770371038,-4.317129096655891,2.446822944956426e-05,-2.05159005127795e-06,-3.453703277324713e-05,3.656444104410469e-05,3.599663320015318e-05
140.4866202911384,242.7696390396898,12.5,0,8.095085108072828,1.552178206553262,-4.44724427229884,2.466252978059044e-05,-1.509097825487825e-06,-3.557795417839072e-05,3.76740608373714e-05,3.682309480932726e-05
138.1348072968989,244.9330080065015,12.5,0,7.6666023032757,1.257358309836505,-4.235889464541926,2.352724072261303e-05,-2.109735251143744e-06,-3.388711571633541e-05,3.503758154892031e-05,3.576914413713844e-05
140.7307763448375,245.4046936050362,12.5,0,7.76905976477397,1.454324284700153,-4.365495015900724,2.369753181951658e-05,-1.561410100778688e-06,-3.492396012720579e-05,3.611855659056735e-05,3.654878321595494e-05
204.7897429453351,223.2195864090557,12.5,0.06745264188300637,14.78886587617131,10.86209410516372,-4.635313658994694,4.142920483698402e-05,2.458599902302276e-05,-3.976474647554074e-05,0.0001007380751018064,0.0001069743355281808
206.1282724439971,222.0104026703346,12.5,0.1554397865609378,14.04646811249807,10.16741763963747,-3.885072667054998,4.359045484557407e-05,2.521852393462081e-05,-3.680090636744463e-05,0.0001048380404472041,0.0001176816309513363
205.8620317634027,224.6579565679354,12.5,0.0920028751826607,15.14178800038432,10.61744198686796,-4.65413770769903,4.400869443256674e-05,2.407759161359465e-05,-4.10057484147677e-05,0.0001039452865702275,0.0001097606668666909
207.2336116216731,223.4564400672416,12.5,0.1860536675617079,14.18511435376829,9.831551265213388,-3.872174197895167,4.610515881000405e-05,2.471031782331058e-05,-3.805827528009635e-05,0.0001079494334513417,0.0001219283001305212
207.1081440444057,221.1252187379422,12.5,0.2177550403900435,15.27525147413611,11.25406068501371,-4.399323734468791,5.097834850749101e-05,3.041603876182027e-05,-4.499177584129028e-05,0.0001240462675876767,0.0001266616910747793
208.4466735430677,219.9160349992212,12.5,0.2981129540650608,14.43900184643131,10.31307678369715,-3.63515043702694,5.407471857678451e-05,3.056139068945601e-05,-4.143288249105424e-05,0.0001288369357186605,0.0001404883761649365
208.2376777645224,222.5768689426388,12.5,0.2515900903711549,15.53722990795429,10.96917249545392,-4.465711439894694,5.470771723131728e-05,3.0292982184499e-05,-4.773546028656248e-05,0.0001296238455481219,0.0001321370662700022
209.6092576227928,221.375352441945,12.5,0.3348082446637894,14.48405485969641,9.948332493857087,-3.673287861574743,5.771314699554424e-05,3.043847120797795e-05,-4.417719049711478e-05,0.0001342776759317285,0.0001478603007830084
205.1517342523365,218.6108868286353,12.5,0.1540615271705397,15.31885631157004,11.12320390247042,-4.254493562420751,4.742871776578514e-05,2.758967488567508e-05,-4.02345437553206e-05,0.0001142994142686216,0.000117497396206519
206.4330188489494,217.3884230440974,12.5,0.2288331424403897,14.69755147159336,10.31765192671628,-3.591994814343974,5.028489332443624e-05,2.756659571119362e-05,-3.726295837672268e-05,0.0001185023077701955,0.0001284037122272223
206.2812679724532,220.0625370333318,12.5,0.1916569476694849,15.55633820030687,10.86359175700617,-4.335609495973003,5.083164717864912e-05,2.761008831315926e-05,-4.290860899686694e-05,0.0001195925332734076,0.000122739003303933
207.5956029286744,218.8477404868212,12.5,0.2697450648130222,14.72669228702587,9.977149234156816,-3.645047087230168,5.360278177529167e-05,2.75869737388669e-05,-3.993177627806786e-05,0.0001236666515163254,0.0001352749989741112
202.9324842320876,220.7282562138297,12.5,0.02098259727088869,14.78294377154748,10.65954904246908,-4.481028897142758,3.960887796976807e-05,2.27618036784061e-05,-3.661654131705059e-05,9.515501370310348e-05,0.0001020699942580616
204.2137688287004,219.5057924292919,12.5,0.09781149498447417,14.32032222771124,10.11512523562387,-3.822650641576107,4.182377710468337e-05,2.317934983162695e-05,-3.389669117107913e-05,9.90325407021481e-05,0.0001104412977431931
204.0047730501551,222.1666263727095,12.5,0.04845640199899037,15.16971738672916,10.45655641852791,-4.531208699945561,4.222386718497826e-05,2.241117135852282e-05,-3.809564761479906e-05,9.866106378189349e-05,0.0001049136260135105
205.3191080063763,220.9518298261989,12.5,0.1318319159011516,14.49224062099928,9.816648798883145,-3.840109613630136,4.437142029711512e-05,2.282908577571025e-05,-3.538586302781347e-05,0.0001024387100292506,0.0001146036979382931
139.7289442556974,217.3609631170903,12.5,0,9.151128457544186,0.5709310732320596,-3.093150434053233,2.882686620555574e-05,-5.493923331692757e-06,-2.474520347242586e-05,3.772182798579459e-05,3.755909870917818e-05
141.4708261251489,216.7439299174281,12.5,0,9.197017546366165,0.5800046903156342,-3.044233911498447,2.896645239611922e-05,-5.501599028082902e-06,-2.435387129198758e-05,3.789742303378388e-05,3.831035123769026e-05
140.8136526163837,220.2966179407475,12.5,0,9.34951132371574,0.6218629786758667,-3.122035585302122,2.942094585294967e-05,-5.489647527209818e-06,-2.497628468241698e-05,3.863804308711213e-05,3.819756145639838e-05
142.3405645330655,219.2955150185347,12.5,0,9.430828201738818,0.6399103321716921,-3.075775886147181,2.966672197982686e-05,-5.496949498441639e-06,-2.460620708917745e-05,3.897625621601142e-05,3.884820300393899e-05
142.7459721543163,216.2922302653378,12.5,0,9.390224187951661,0.6858367087405848,-3.091757780382276,2.950004803445284e-05,-5.317501882391457e-06,-2.473406224305821e-05,3.897204548999584e-05,3.887992517480946e-05
144.4878540237679,215.6751970656756,12.5,0,9.445009330034356,0.7097107645509191,-3.035192010639119,2.96562612444692e-05,-5.284933017464543e-06,-2.428153608511295e-05,3.922394744546379e-05,3.968477758124021e-05
143.4583416347115,218.5626568159004,12.5,0,9.553954981913815,0.7231917607207463,-3.106573615229101,2.999410253354761e-05,-5.328950351224664e-06,-2.485258892183281e-05,3.971031054144778e-05,3.93389567991269e-05
144.9852535513933,217.5615538936876,12.5,0,9.651071048628939,0.757445736830396,-3.049932420671128,3.027747076614828e-05,-5.297030481045883e-06,-2.439945936536902e-05,4.015419925451454e-05,4.002907955410386e-05
141.5121120205326,212.3597361249806,12.5,0,9.481330295945936,0.5323826230845503,-2.772094993674382,2.991435084855935e-05,-5.881439842886187e-06,-2.217675994939505e-05,3.869516686363907e-05,3.798074225814504e-05
143.6263327702754,212.407931198413,12.5,0,9.494363301518451,0.5880799998129917,-2.756932656184659,2.991149856500865e-05,-5.713634641813187e-06,-2.205546124947727e-05,3.890816402411134e-05,3.900782114927064e-05
142.2244815009278,214.6301626755433,12.5,0,9.516237642061588,0.5257199951689169,-2.757065657976317,3.003138445846194e-05,-5.930686129108735e-06,-2.205652526381054e-05,3.880003456700734e-05,3.851599268541649e-05
144.1237322979008,214.2942880264251,12.5,0,9.537478877215285,0.5831787141915663,-2.737822982936639,3.005338943573566e-05,-5.763811216359215e-06,-2.190258386349311e-05,3.904771877911629e-05,3.941113221641018e-05
137.8501742636275,212.2762598091227,12.5,0,9.199179185967232,0.35522246169048,-2.697487934196165,2.915319542574275e-05,-6.222631471364249e-06,-2.157990347356932e-05,3.705572868278594e-05,3.629746663485441e-05
139.9643950133703,212.3244548825551,12.5,0,9.202452593511918,0.373598780534941,-2.674473941808181,2.914896927481018e-05,-6.166445977097722e-06,-2.139579153446545e-05,3.711354312543989e-05,3.725450495482776e-05
138.934882624314,215.21191463278,12.5,0,9.274339793872798,0.365894922027254,-2.699414277030584,2.938517140277114e-05,-6.248608084611024e-06,-2.159531421624467e-05,3.737300921793315e-05,3.704996983621876e-05
140.834133421287,214.8760399836617,12.5,0,9.289476132718715,0.3867033646470222,-2.675740201718276,2.941696093298227e-05,-6.1941301393045e-06,-2.14059216137462e-05,3.748287926490229e-05,3.788332113246515e-05
139.7520735641279,260.4466891600541,12.5,0,6.547706189634673,2.11622652129961,-4.668776935186775,1.925967858979126e-05,1.533759916451014e-06,-3.735021548149421e-05,3.402703213429085e-05,3.365415757559314e-05
142.0549662226721,260.1559775244809,12.5,0,6.556675650487832,2.244947505498043,-4.735936739080267,1.918540407716263e-05,1.938491497203472e-06,-3.788749391264213e-05,3.452451594029657e-05,3.425953019684644e-05
140.0136809948697,262.6105423117566,12.5,0,6.388795973617533,2.064361599974242,-4.621562062749623,1.879265783559671e-05,1.494920341023548e-06,-3.697249650199698e-05,3.325573437096511e-05,3.329200121856266e-05
142.2617971143637,261.9752777994093,12.5,0,6.367356952069025,2.184003920441441,-4.680120757338377,1.862833911026772e-05,1.894926983757393e-06,-3.744096605870701e-05,3.360882435136151e-05,3.393018252443857e-05
135.7633464752236,260.950216483209,12.5,0,6.496248280069947,1.909250810392929,-4.548406114929882,1.926059384790949e-05,9.126039692014141e-07,-3.638724891943906e-05,3.308744821095981e-05,3.264636897965926e-05
138.0662391337678,260.659504847636,12.5,0,6.502080612152226,2.017861242347406,-4.610551478681611,1.91923689650092e-05,1.25549148578992e-06,-3.688441182945289e-05,3.350354575438905e-05,3.322191233020009e-05
136.1198296546615,263.7108527233679,12.5,0,6.302624290598619,1.846271689623318,-4.4940760349843,1.869138037821692e-05,8.659699743157243e-07,-3.59526082798744e-05,3.21512448236364e-05,3.225782607640502e-05
138.3679457741555,263.0755882110206,12.5,0,6.280616701520995,1.946365539847304,-4.548715129251502,1.854088101298934e-05,1.203876366294578e-06,-3.638972103401202e-05,3.243488030007932e-05,3.284389465886904e-05
136.3807934540427,265.7317787122943,12.5,0,6.116511627068896,2.08100631170296,-4.560671605815573,1.79080321572581e-05,1.766010895794354e-06,-3.648537284652458e-05,3.228692939489962e-05,3.19556204573373e-05
138.5888103638908,264.8442839882649,12.5,0,6.080847770086823,2.164610845174658,-4.602088151134488,1.772702418813811e-05,2.062076488489447e-06,-3.68167052090759e-05,3.246162711815221e-05,3.255530198879636e-05
136.7372766334806,268.4924149524533,12.5,0,5.948296975278991,2.025842801006425,-4.512085746295189,1.741387608008763e-05,1.724059382997366e-06,-3.609668597036152e-05,3.147260435621812e-05,3.151852225493062e-05
138.8905170042785,267.2603673516496,12.5,0,5.888025813491657,2.101863125366769,-4.546658315402238,1.716019210287989e-05,2.015541350380335e-06,-3.637326652321791e-05,3.15303734111795e-05,3.214486982276339e-05
140.2051909258021,264.1945927588536,12.5,0,6.239202927478837,2.283312153216563,-4.681180935614457,1.813879964535902e-05,2.315236548309932e-06,-3.744944748491566e-05,3.347010489097633e-05,3.301789626029681e-05
142.4132078356502,263.3070980348243,12.5,0,6.201734600566457,2.363317198159131,-4.724003893154331,1.795489696328536e-05,2.601227353656054e-06,-3.779203114523465e-05,3.362941809056516e-05,3.368204578192099e-05
140.4667983565439,266.3584459105563,12.5,0,6.110792696393163,2.24228081349164,-4.645925817103787,1.776071197766481e-05,2.286664446058718e-06,-3.71674065368303e-05,3.285308703537704e-05,3.263118394470658e-05
142.6200387273418,265.1263983097525,12.5,0,6.048158361358525,2.31487036308757,-4.682200828029574,1.750221046587723e-05,2.569058472793402e-06,-3.745760662423659e-05,3.289420228639036e-05,3.333347126651735e-05
192.7146921466654,213.7629445566568,12.5,0,14.10114815204762,7.386071614020628,-4.076003591215385,3.921481679533588e-05,1.235451064322791e-05,-3.260802872972308e-05,7.911259115627072e-05,8.045956491607077e-05
193.6679954422283,212.6056159287922,12.5,0,14.5571894359141,7.550502248153732,-3.91480508782984,4.054260439640214e-05,1.251585564536066e-05,-3.131844070263872e-05,8.132002091137823e-05,8.232552834919162e-05
193.8028184046362,215.1898683311958,12.5,0,14.58596974586492,7.454666416071787,-4.191059980437561,4.07113700539103e-05,1.218615673473779e-05,-3.352847984350049e-05,8.118781864526626e-05,8.179267125370937e-05
194.9053220526251,213.9283645830369,12.5,0,14.98095134466421,7.599662155011746,-4.044484624555238,4.185931457891608e-05,1.233415782030622e-05,-3.235587699644191e-05,8.310618254916085e-05,8.414746822302012e-05
191.0635224037573,215.7674965411362,12.5,0,13.81415074989097,6.866481368327833,-4.32331034170537,3.871209730498882e-05,1.092141977873629e-05,-3.458648273364296e-05,7.635325261455176e-05,7.7438361014842e-05
192.0168256993202,214.6101679132717,12.5,0,14.23921942623635,7.054461925689286,-4.159060490110907,3.992193262340488e-05,1.118290262121664e-05,-3.327248392088725e-05,7.851697577913928e-05,7.915005237559678e-05
191.8932260708237,217.3748569169063,12.5,0,14.30673275837435,6.924888429272961,-4.371835480861001,4.024163408337955e-05,1.071425676697399e-05,-3.497468384688801e-05,7.840064302331158e-05,7.805123365618263e-05
192.9957297188126,216.1133531687474,12.5,0,14.67135609574547,7.090182054713777,-4.22488311768993,4.127619386261447e-05,1.095149769848771e-05,-3.379906494151944e-05,8.026943979607812e-05,8.015919012470541e-05
192.5006113103167,218.551526377993,12.5,0,13.58089732759081,7.210657358474366,-4.563952992683699,3.76903455615111e-05,1.220938568504532e-05,-3.651162394146959e-05,7.675791982720678e-05,7.843190113076515e-05
193.712337196784,217.2137611488973,12.5,0,14.06754786294746,7.487838023673474,-4.344061741348219,3.902588274249308e-05,1.270704338539715e-05,-3.475249393078575e-05,7.94304832875796e-05,8.084274911229286e-05
193.3303149773831,220.1588867537631,12.5,0,14.04954262785386,7.229289214637516,-4.583403987813578,3.917510503742233e-05,1.189409138455696e-05,-3.666723190250862e-05,7.856483262852834e-05,7.885903137081717e-05
194.6912412162765,218.7169464043731,12.5,0,14.48032420790236,7.47991753365293,-4.383850672568697,4.035310343836521e-05,1.235147674136748e-05,-3.507080538054958e-05,8.094850512508062e-05,8.170112924732288e-05
194.5993821104868,216.2344490326419,12.5,0,14.10418650405948,7.954468223302916,-4.287078776359847,3.876982223434801e-05,1.417094911132174e-05,-3.429663021087877e-05,8.115400266491342e-05,8.27448738236722e-05
195.8111079969541,214.8966838035461,12.5,0,14.57878269182969,8.181175906308036,-4.087941597154511,4.010716388880858e-05,1.451673674672196e-05,-3.270353277723609e-05,8.362921535946222e-05,8.553072719618603e-05
195.6875083684576,217.6613728071808,12.5,0,14.52141559262135,7.968728578233383,-4.36602400915425,4.009354703380162e-05,1.388279897624974e-05,-3.4928192073234e-05,8.277548789331546e-05,8.401323328638027e-05
197.048434607351,216.2194324577908,12.5,0,14.94427305715591,8.174508885218044,-4.183396948528068,4.128206667472446e-05,1.420300998697301e-05,-3.346717558822454e-05,8.499220578242218e-05,8.748792111723305e-05
135.4347416131077,107.2433821381818,12.5,0,-3.265922511629645,0.4194686289018454,2.125235628888145,-1.078652694033634e-05,3.95503762178962e-06,1.700188503110516e-05,2.186358613115186e-06,2.196963173614373e-06
137.0938787133359,106.4975821713701,12.5,0,-3.223616459788042,0.3248291295120678,2.16501753640715,-1.057543597493139e-05,3.61834638226905e-06,1.732014029125721e-05,2.143117093621653e-06,2.244468873741972e-06
136.6331770694753,108.7716035081973,12.5,0,-3.096253418134598,0.5402984237057237,2.041493101448176,-1.034024967699529e-05,4.205957690365993e-06,1.63319448115854e-05,2.235423809331406e-06,2.273608984452563e-06
138.3011995745398,108.0659461475005,12.5,0,-3.05710878370732,0.4421652681036572,2.083439359676564,-1.013648032234635e-05,3.860615884897559e-06,1.666751487741251e-05,2.186000334920028e-06,2.322402483110011e-06
133.3589905131241,104.59642508015,12.5,0,-3.694235812066742,0.3390502717778714,2.131760889042193,-1.209279481603587e-05,4.040349519342581e-06,1.705408711233754e-05,2.10337437874757e-06,2.103670793158172e-06
135.0027376407304,103.7810960800004,12.5,0,-3.651593800703636,0.2481223359462816,2.164323987301561,-1.188359803100866e-05,3.71526651559101e-06,1.731459189841249e-05,2.057699213972807e-06,2.150478839215987e-06
134.5574259694918,106.1246464501655,12.5,0,-3.539088089609441,0.4542144068251115,2.053167297350292,-1.16884534122103e-05,4.284756573527909e-06,1.642533837880233e-05,2.136539994964716e-06,2.151428372495252e-06
136.2100585019344,105.3494600561307,12.5,0,-3.499249185234415,0.360005974878979,2.087680519636989,-1.148560217265331e-05,3.951418467800264e-06,1.670144415709591e-05,2.085962939065927e-06,2.198402072202186e-06
130.5119369733656,106.0086163332681,12.5,0,-3.466171737456831,0.2427832309575459,2.136089123363317,-1.12859761446279e-05,3.549843729029611e-06,1.708871298690653e-05,2.032236210540496e-06,2.022384985256937e-06
132.155684100972,105.1932873331185,12.5,0,-3.428201853164466,0.1459969025674627,2.165134998961519,-1.108704345218026e-05,3.209751570747453e-06,1.732107999169215e-05,1.982112301911435e-06,2.069348148435523e-06
131.6949824571115,107.4673086699456,12.5,0,-3.322636094470854,0.3576355398165623,2.05989209402855,-1.091854393415998e-05,3.802542602989682e-06,1.64791367522284e-05,2.065279991108292e-06,2.069673280746405e-06
133.347614989554,106.6921222759109,12.5,0,-3.28737126404022,0.2573936082885893,2.09087350990406,-1.072550293155957e-05,3.453556557755661e-06,1.672698807923248e-05,2.009792619546466e-06,2.116935596783115e-06
132.5610318588415,108.5351455729595,12.5,0,-3.067134485138993,0.3174782909657032,2.126033690114322,-1.006881298521734e-05,3.469638119201444e-06,1.700826952091458e-05,2.11218417577285e-06,2.114286094530689e-06
134.2201689590697,107.7893456061479,12.5,0,-3.028303283103661,0.2178198053372017,2.163093787572786,-9.864826350201474e-06,3.119666003561974e-06,1.730475030058229e-05,2.065730062345665e-06,2.162080803057356e-06
133.7440773425873,109.9938379096371,12.5,0,-2.908277040699488,0.4377475794214206,2.044522934505464,-9.656684593775498e-06,3.727413886708136e-06,1.635618347604372e-05,2.159817327247153e-06,2.188882272973675e-06
135.4120998476517,109.2881805489403,12.5,0,-2.872526219571417,0.3344232294778882,2.08375250212249,-9.459622486210844e-06,3.368175309986375e-06,1.667002001697992e-05,2.10675811848313e-06,2.237832351974411e-06
144.7913216893393,130.1596647416697,12.5,0,0.8141598085519886,0.6974508093157085,1.881230543802335,2.047350739913796e-06,1.580514742968676e-06,1.504984435041868e-05,7.12998030434987e-06,7.100784252815796e-06
146.5634798015433,131.642060038275,12.5,0,0.8138044004753586,0.8030406887634911,1.858663695224757,1.961741530510354e-06,1.918686683662885e-06,1.486930956179805e-05,7.409989437174573e-06,8.110856538437705e-06
144.2224069043318,131.8215233149251,12.5,0,0.8631012267117546,0.750145835319347,1.933403117598191,2.161807257222137e-06,1.709985691652506e-06,1.546722494078553e-05,7.504221187222035e-06,7.714877978534167e-06
145.745857653847,133.183228446951,12.5,0,0.8605074802616706,0.8680823574867264,1.905360483015687,2.059158050847964e-06,2.089457559748188e-06,1.52428838641255e-05,7.810554367946906e-06,8.646809391920482e-06
143.8059323765469,133.0380882254903,12.5,0,1.284086506303855,0.681946519442278,1.859285524989377,3.563519604618512e-06,1.154959657172206e-06,1.487428419991502e-05,8.512332928319064e-06,8.17584071249959e-06
145.1473167003652,134.3114420250739,12.5,0,1.289429215709822,0.7401328448512409,1.841576815759231,3.534067214390436e-06,1.336881730956113e-06,1.473261452607385e-05,8.684522313404948e-06,9.047944096732822e-06
143.2370175915393,134.6999467987457,12.5,0,1.308286678556167,0.7183203710517571,1.896785740823626,3.611861074538329e-06,1.251995844520689e-06,1.517428592658901e-05,8.746974985021386e-06,8.821120596424154e-06
144.3296945526689,135.8526104337498,12.5,0,1.313183489241614,0.7850406304146718,1.873617068729637,3.574154661241427e-06,1.461583225933658e-06,1.49889365498371e-05,8.9380545180034e-06,9.607911637523088e-06
146.1292781778349,135.2436017023404,12.5,0,1.657786085040514,0.7795999910352356,1.838732832697783,4.681235479301455e-06,1.168491103280343e-06,1.470986266158226e-05,1.002245353728227e-05,9.725422981144458e-06
147.4706625016533,136.5169555019239,12.5,0,1.719974518474954,0.859719889096663,1.796449352151501,4.816142547842521e-06,1.375124030329358e-06,1.437159481721201e-05,1.04401160903355e-05,1.07042263302576e-05
145.1295896044418,136.696418778574,12.5,0,1.610370160671308,0.8270549587524693,1.85689337182292,4.49154054714621e-06,1.358279739470855e-06,1.485514697458336e-05,1.003076909423402e-05,1.021245947539018e-05
146.2222665655714,137.8490824135781,12.5,0,1.685449485819602,0.9179778766101567,1.806597977006618,4.659056053334599e-06,1.58916961649682e-06,1.445278381605295e-05,1.051782654478665e-05,1.107732384302027e-05
147.8607895786668,132.7272487122452,12.5,0,1.282316129567581,0.8865628761724372,1.870563673337194,3.39416131367831e-06,1.811148300097734e-06,1.496450938669755e-05,9.148546781867797e-06,8.904081142162655e-06
149.6329476908707,134.2096440088505,12.5,0,1.333265535621034,1.000277564034588,1.826007858901815,3.466227662759637e-06,2.134275776413855e-06,1.460806287121452e-05,9.622052411608003e-06,1.006113877582313e-05
146.8611010052736,134.1800657884789,12.5,0,1.272475229292557,0.9512120778602295,1.902417753159535,3.310951071447998e-06,2.025898465718689e-06,1.521934202527628e-05,9.356670202156952e-06,9.374844063372677e-06
148.3845517547888,135.5417709205047,12.5,0,1.330417737806969,1.076939588796541,1.85078140165387,3.395785089945067e-06,2.381872493903355e-06,1.480625121323096e-05,9.885553082211724e-06,1.043194036215003e-05
160.8244764284029,291.2650104990499,12.5,0,3.381586602006537,4.017228147420453,-4.258771749680029,7.607294608484557e-06,1.014986079014022e-05,-3.407017399744023e-05,2.892665152394694e-05,2.875037243468869e-05
162.5146252625181,290.7127407190493,12.5,0,3.372846494081061,4.14180821211405,-4.291028407800045,7.479662211368153e-06,1.055550908350011e-05,-3.432822726240036e-05,2.935292660925922e-05,2.899275773515079e-05
161.432700812007,293.0841773134717,12.5,0,3.183679511821675,3.908474236374513,-4.165022460848351,7.06099504872975e-06,9.960173946941099e-06,-3.332017968678681e-05,2.780783339328152e-05,2.820395868805129e-05
162.9906515698152,292.8470452099884,12.5,0,3.200298460070909,4.063253246184056,-4.213866937870892,6.990352475279662e-06,1.044217161973225e-05,-3.371093550296714e-05,2.84375204950618e-05,2.833323107244432e-05
159.7710008936174,288.114121149085,12.5,0,3.707667363925291,4.005423788531844,-4.425214117425703,8.660196533735455e-06,9.851222232161666e-06,-3.540171293940563e-05,3.013324248139763e-05,2.967264304656207e-05
161.6901235125549,287.0160169019868,12.5,0,3.650236229769412,4.129437492438017,-4.455365893744236,8.377205941311704e-06,1.029401099198612e-05,-3.564292714995389e-05,3.038960987597846e-05,3.015605540276513e-05
160.3792252772215,289.9332879635066,12.5,0,3.499510455553692,3.899037307854635,-4.335912905883394,8.079203611488105e-06,9.677311020691876e-06,-3.468730324706715e-05,2.89898880118755e-05,2.914390522247563e-05
162.166149819852,289.1503213929259,12.5,0,3.459003380833726,4.047532190142082,-4.378981083791347,7.830785066554257e-06,1.018490030378768e-05,-3.503184867033077e-05,2.939918115819901e-05,2.948118204238885e-05
156.4469830117229,290.0160934970319,12.5,0,3.673652520563885,3.782172995379204,-4.357819156314489,8.729949669501069e-06,9.164031568762343e-06,-3.486255325051591e-05,2.919960821677571e-05,2.886449072591342e-05
158.3661056306603,288.9179892499338,12.5,0,3.627273292877767,3.885480858952056,-4.381997664325265,8.49888985004721e-06,9.531720114344363e-06,-3.505598131460212e-05,2.941562837397397e-05,2.932656933443786e-05
157.2841811801492,291.2894258443562,12.5,0,3.539733448999482,3.683316218023562,-4.289324952340805,8.380494062379493e-06,8.954825138475812e-06,-3.431459961872644e-05,2.835080140303184e-05,2.85460833342237e-05
159.0711057227797,290.5064592737754,12.5,0,3.505596925674427,3.813193463578269,-4.32587061733787,8.167355391295553e-06,9.397741542910916e-06,-3.460696493870296e-05,2.870967321946363e-05,2.889334627878719e-05
157.8970527754148,292.2215698174788,12.5,0,3.444932824639308,3.866385585381857,-4.249794922652155,7.930676570540302e-06,9.616487613510493e-06,-3.399835938121724e-05,2.861650544952692e-05,2.830399674333707e-05
159.5872016095299,291.6693000374781,12.5,0,3.432828217958254,3.983288552835953,-4.284714231999485,7.798419455197649e-06,1.000026079470845e-05,-3.427771385599588e-05,2.900611442212862e-05,2.856581948315989e-05
158.7342509438411,293.4949021648031,12.5,0,3.279435666097385,3.741329974764336,-4.163582455183254,7.501130151700162e-06,9.348707386367967e-06,-3.330865964146603e-05,2.755701162462945e-05,2.796101126886524e-05
160.2922017016494,293.2577700613198,12.5,0,3.294142726388194,3.899111853126495,-4.219212301937364,7.421967241941023e-06,9.841843748894228e-06,-3.375369841549891e-05,2.819469422011855e-05,2.810422269227851e-05
180.231021878257,288.7235654081988,12.5,0,2.474140489213727,5.156507871396643,-3.960245147741248,3.792043268366612e-06,1.452151279709827e-05,-3.168196118192998e-05,2.963335532622669e-05,3.01358826792349e-05
181.7049678499345,288.9663794849478,12.5,0,2.510333794925099,5.250569665025939,-3.996630293055209,3.832612411739565e-06,1.479355589214292e-05,-3.197304234444167e-05,3.011506107008185e-05,2.998560723890511e-05
180.030102814106,290.3625609419879,12.5,0,2.398900520646676,5.147584660586317,-3.931564595617681,3.558413937600311e-06,1.455315049735887e-05,-3.145251676494145e-05,2.933269511579405e-05,2.946194891125256e-05
181.634953271241,290.492455607084,12.5,0,2.426201834280413,5.233585383536608,-3.962797172263666,3.576977562868037e-06,1.480651175989281e-05,-3.170237737810933e-05,2.975257365800982e-05,2.934555575385324e-05
179.8830198509445,291.562388946049,12.5,0,2.303219053447875,5.044902789221833,-3.804476480302238,3.334378739655732e-06,1.430111368275156e-05,-3.043581184241791e-05,2.855157466254121e-05,2.898281202126113e-05
181.5836990423689,291.609620864658,12.5,0,2.330333294948349,5.142857623351858,-3.843304368432757,3.342780445153229e-06,1.459287775876727e-05,-3.074643494746206e-05,2.90197652358092e-05,2.888953256641462e-05
179.6821007867935,293.2013844798382,12.5,0,2.221218078108781,5.033768266247793,-3.7778005627712,3.080883236949864e-06,1.433108398950591e-05,-3.02224045021696e-05,2.822358618199031e-05,2.834771946195069e-05
181.5136844636754,293.1356969867942,12.5,0,2.240643227623749,5.124197258659906,-3.81206393501067,3.070700521468073e-06,1.46049166456127e-05,-3.049651148008536e-05,2.863635910536566e-05,2.828370553390173e-05
182.8286826178139,291.6441970288172,12.5,0,2.127232443893657,5.175300980814034,-3.691502408593873,2.666903035808475e-06,1.485917718348998e-05,-2.953201926875098e-05,2.835241551287289e-05,2.881274207711228e-05
184.5293618092384,291.6914289474262,12.5,0,2.162643374096143,5.304844604453104,-3.736411965213743,2.676583113545174e-06,1.524538803497302e-05,-2.989129572170994e-05,2.89661017917402e-05,2.869622601363781e-05
182.8544967734098,293.0876104044663,12.5,0,2.042748286722187,5.152618138227629,-3.656006953211383,2.414700006928895e-06,1.485417941295066e-05,-2.924805562569107e-05,2.7969559190556e-05,2.822729242238e-05
184.6860804502918,293.0219229114224,12.5,0,2.068539772884808,5.270168067127164,-3.694520423911575,2.403192819529654e-06,1.520970599649908e-05,-2.95561633912926e-05,2.850418028746322e-05,2.813718286353198e-05
182.7839711887681,289.1441317259134,12.5,0,2.293653241388093,5.269256275029417,-3.834878234572323,3.124285352418363e-06,1.502669748698366e-05,-3.067902587657859e-05,2.934346165304507e-05,2.986609588139867e-05
184.2579171604456,289.3869458026625,12.5,0,2.335401406434118,5.375553326470182,-3.87803877484206,3.172841839413029e-06,1.533344951955729e-05,-3.102431019873648e-05,2.98930160425083e-05,2.968986022092545e-05
182.809785344364,290.5875451015625,12.5,0,2.213291893904326,5.247770206095598,-3.803124519369361,2.884317895617363e-06,1.502223114438245e-05,-3.042499615495489e-05,2.898033522636161e-05,2.9251858140496e-05
184.414635801499,290.7174397666587,12.5,0,2.243720583451653,5.342410075053952,-3.839393312687352,2.905977807002129e-06,1.530073577341132e-05,-3.071514650149882e-05,2.944596488336107e-05,2.911226465764453e-05
190.0955127618814,190.5190502261462,12.5,0,13.21970219244951,6.017728316691749,-1.099210434544624,3.748886436248503e-05,8.680968859453987e-06,-8.793683476356995e-06,7.04507594014185e-05,7.131610839573459e-05
191.4601120275011,189.0242632253191,12.5,0,13.72202776496269,6.03236858889912,-0.965726766052973,3.908459397676131e-05,8.32595727250703e-06,-7.725814128423784e-06,7.237875037217854e-05,7.201211516285522e-05
191.4175468150995,192.1059675875984,12.5,0,13.82534505166949,6.278845392863779,-1.331952416906638,3.921802785105132e-05,9.032029215828505e-06,-1.06556193352531e-05,7.364856997008855e-05,7.405795134556687e-05
192.7759935261739,190.6424991301622,12.5,0,14.3289774298484,6.291543663752177,-1.194919716006589,4.081949284451313e-05,8.669757780128246e-06,-9.559357728052714e-06,7.55718667006357e-05,7.492074422703669e-05
187.8056826124125,187.770428728747,12.5,0,12.53704715027697,5.450314508516726,-0.7028163630431999,3.575829927407291e-05,7.411368707031948e-06,-5.6225309043456e-06,6.590544049720585e-05,6.676508599826316e-05
189.1809384151008,186.221396419549,12.5,0,13.0171230112091,5.471999890756043,-0.5785575797806758,3.727719372326428e-05,7.09670124145206e-06,-4.628460638245406e-06,6.778155691466087e-05,6.722042567903973e-05
189.1277166656307,189.3573460901993,12.5,0,13.0919597379292,5.685486802692738,-0.9144469735847485,3.734588171921925e-05,7.719989978273402e-06,-7.315575788677988e-06,6.881597405107364e-05,6.936199101547646e-05
190.4968199137736,187.8396323243921,12.5,0,13.57344856886843,5.705563178138267,-0.7869939540084027,3.887058487786834e-05,7.399043314947713e-06,-6.295951632067222e-06,7.068921588384869e-05,6.994882102652125e-05
186.7989254914835,188.9043990815975,12.5,0,13.14862143022731,5.059872838039379,-0.8586857954977261,3.80276903062959e-05,5.672695937544161e-06,-6.869486363981808e-06,6.689795483441299e-05,6.637653726728133e-05
188.125463527225,190.4683896780696,12.5,0,13.67314122720052,5.272207607715153,-1.05692620872484,3.953628584086954e-05,5.932551362928073e-06,-8.455409669798721e-06,6.961713370066592e-05,6.887454391370699e-05
185.4236696887953,190.4534313907954,12.5,0,12.67502504543155,5.025305164238499,-0.9860336929321727,3.653983601399017e-05,5.940956489217952e-06,-7.888269543457381e-06,6.500323101191522e-05,6.577034207375402e-05
186.756360279082,191.9861034438768,12.5,0,13.1979335419167,5.238938896803839,-1.187468743088114,3.804223621669037e-05,6.206257636238923e-06,-9.499749944704913e-06,6.772353888783208e-05,6.812964367665881e-05
187.7319575018994,193.1080972580255,12.5,0,13.27369100993586,5.556096245665788,-1.367664212181196,3.803093423526211e-05,7.160555178181835e-06,-1.094131369744957e-05,6.910872043360003e-05,6.989302331314239e-05
189.0965567675191,191.6133102571985,12.5,0,13.76240524576997,5.586833877592071,-1.232076192781263,3.957022968439024e-05,6.867944211678652e-06,-9.856609542250106e-06,7.103959008827117e-05,7.074829944593434e-05
189.0646480921862,194.6407693111069,12.5,0,13.83515997458523,5.787642207135452,-1.584758776439848,3.964239815296436e-05,7.452327083165263e-06,-1.267807021151879e-05,7.204191955924689e-05,7.235136447034792e-05
190.4230948032605,193.1773008536707,12.5,0,14.32539279226353,5.816856603378621,-1.445673611798675,4.118777165254041e-05,7.153626897000759e-06,-1.15653888943894e-05,7.397035474029512e-05,7.336948811473468e-05
156.5244272384757,219.0559968999349,12.5,0,10.56519168127498,1.778034642982484,-3.729487124061795,3.238618566569394e-05,-2.762442487476034e-06,-2.983589699249436e-05,4.710909469753962e-05,4.633040094549273e-05
158.8728037800162,219.7999952380361,12.5,0,10.73671296057594,2.013481171416888,-3.896130971816622,3.27466965367095e-05,-2.146230619926709e-06,-3.116904777453297e-05,4.858212839198502e-05,4.773611192688146e-05
156.5408189335131,221.2543799322492,12.5,0,10.20047077644841,1.685475207430945,-3.654478928727991,3.129312631869015e-05,-2.766855957379703e-06,-2.923583142982393e-05,4.541136731454333e-05,4.626105570850089e-05
158.8954338808115,222.0631477171847,12.5,0,10.38171085070431,1.922930930785552,-3.822808540859961,3.168312997762536e-05,-2.151989702049684e-06,-3.058246832687969e-05,4.692797846941193e-05,4.761682569420768e-05
156.4960359898492,215.2482857935376,12.5,0,10.72124947621003,1.650942571654489,-3.407394581198834,3.29872442665485e-05,-3.293983351673659e-06,-2.725915664959067e-05,4.71399763234366e-05,4.630369129124912e-05
158.8336072956589,215.8801001589456,12.5,0,10.85450131548824,1.864831363426029,-3.544984182127253,3.324253911882156e-05,-2.716140689427304e-06,-2.835987345701802e-05,4.838177209265013e-05,4.778006169090613e-05
156.5124276848866,217.4466688258519,12.5,0,10.41704140272137,1.573591102886575,-3.336834295672081,3.207565960639913e-05,-3.298141592940058e-06,-2.669467436537665e-05,4.571812106194851e-05,4.634182511545861e-05
158.8562373964543,218.1432526380942,12.5,0,10.55845660299017,1.78912495091238,-3.476062136974757,3.235576116883865e-05,-2.721565439472523e-06,-2.780849709579805e-05,4.699634758204895e-05,4.777985088037114e-05
152.4472437219444,214.1539512117187,12.5,0,10.38934703566813,1.288404955325373,-3.185397305022728,3.221518654987769e-05,-4.188581771493306e-06,-2.548317844018182e-05,4.464878156866577e-05,4.385471927277414e-05
154.7848150277541,214.7857655771267,12.5,0,10.50555191933512,1.473383800134934,-3.305790140998433,3.243905910176444e-05,-3.689613375036307e-06,-2.644632112798747e-05,4.572165379229502e-05,4.525189896032776e-05
152.4528301812511,216.2401502713398,12.5,0,10.13604320495585,1.224696070959679,-3.1279432153652,3.145558139909098e-05,-4.189807136893708e-06,-2.50235457229216e-05,4.346829776409735e-05,4.39468194382625e-05
154.7966398928187,216.9367340835822,12.5,0,10.25937717776289,1.411076429661753,-3.249716673333887,3.170114582511183e-05,-3.692057167292701e-06,-2.59977333866711e-05,4.45727470659098e-05,4.531476743601446e-05
152.4569197532978,217.7673539776199,12.5,0,10.27349882085146,1.400434812982402,-3.479171786394569,3.175484837633874e-05,-3.737407655137479e-06,-2.783337429115656e-05,4.470140589948955e-05,4.398176095475175e-05
154.8052962948383,218.5113523157212,12.5,0,10.43004462751744,1.611023424296226,-3.632078569588483,3.208732406861882e-05,-3.188760744266027e-06,-2.905662855670786e-05,4.602642878677433e-05,4.532442563443889e-05
152.4625062126044,219.8535530372409,12.5,0,9.954092782385768,1.320164239137132,-3.416253267922187,3.079696551232475e-05,-3.738748660669792e-06,-2.73300261433775e-05,4.321892737767553e-05,4.39851227876096e-05
154.8171211599028,220.6623208221765,12.5,0,10.11956404526304,1.532567303913136,-3.570612708184381,3.115655110171121e-05,-3.191435863688394e-06,-2.856490166547505e-05,4.458367863692628e-05,4.528794384755845e-05
228.7283804128207,247.0063935804047,12.5,0.2868850315232334,6.597530939028037,9.365362958219132,-4.612198034306006,1.909903625695405e-05,3.462434222607856e-05,-5.174142446240094e-05,8.301943026166466e-05,0.0001383775590252128
230.4373551969163,247.1850506867357,12.5,0.3482651073696461,6.426598223355243,9.411651909687073,-4.950122604076187,2.000168003031972e-05,3.832234212827415e-05,-6.07624070468022e-05,9.0457979038336e-05,0.0001507616699292478
228.6908236087047,248.8327675714857,12.5,0.05580732830913282,5.835561138385822,11.69915179041658,-5.662381900948338,9.865014302452629e-06,3.47056673930139e-05,-4.797649522789117e-05,6.953816239988621e-05,0.0001057015595869758
230.4130494788374,249.0286462608153,12.5,0.1052285077473935,6.094203708502296,12.25356060634753,-6.37066440361951,1.083919577915126e-05,3.837407793029767e-05,-5.695902883612195e-05,7.707035941568097e-05,0.0001113227714664828
228.6633301199231,250.1697661265224,12.5,0,3.827445905950585,10.41879647919419,-4.118329862886941,3.91278971568652e-06,3.027819200866093e-05,-3.294663890309553e-05,5.340314267405356e-05,8.723679145851605e-05
230.3952564582899,250.3782518895932,12.5,0,3.976580565747935,10.59609607160551,-4.473340730935521,4.248180953108987e-06,3.072624297653927e-05,-3.578672584748417e-05,5.473539082908715e-05,8.935809958940344e-05
228.6257733158072,251.9961401176033,12.5,0,2.848213983214414,10.17702684738833,-4.066785777892824,9.726632683754611e-07,3.028791472507112e-05,-3.25342862231426e-05,4.926294137933583e-05,6.946610621767779e-05
230.370950740211,252.2218474636727,12.5,0,3.004421820553348,10.3549897073851,-4.419492373951628,1.330158059862632e-06,3.073242960718964e-05,-3.535593899161302e-05,5.062203913106897e-05,6.878839850985693e-05
231.6631145328872,250.5308740608093,12.5,0,1.856325911182242,9.999461221144825,-2.842103969376752,-2.059326061132685e-06,3.051321517871764e-05,-2.273683175501402e-05,4.482773661021418e-05,8.967914364605998e-05
233.3950408712541,250.73935982388,12.5,0,1.76540482157646,9.53284981914048,-2.906233795237319,-1.976984426267712e-06,2.909279556398837e-05,-2.324987036189855e-05,4.280428464370453e-05,8.843494418946357e-05
231.6485092830425,252.38707670863,12.5,0,1.610790444887819,9.934331569164144,-3.033248453513903,-2.792935831690295e-06,3.0501228665415e-05,-2.426598762811122e-05,4.388082976295714e-05,6.742527617271312e-05
233.3936867074462,252.6127840546993,12.5,0,1.522592599165121,9.471805210530126,-3.095308827398045,-2.705147851095714e-06,2.90917025943643e-05,-2.476247061918436e-05,4.188797033260206e-05,6.43788643983667e-05
231.6884115676752,247.3158367656976,12.5,0.3826645778775178,4.664791359735171,9.197200572090434,-4.172881049024209,1.226168404115706e-05,4.162924695709817e-05,-5.407602932846177e-05,8.37918753493752e-05,0.000158724052543103
233.3973863517709,247.4944938720286,12.5,0.4189638045934295,4.784762221025712,9.65318361245048,-4.520135994333839,1.306061873135431e-05,4.657606186493168e-05,-6.223551689300111e-05,9.29201949043081e-05,0.0001680935754903484
231.6738063178304,249.1720394135184,12.5,0.1281853528293618,4.176890924580319,12.39730711845671,-5.314220825521035,3.955204555328769e-06,4.167155272889842e-05,-4.876468495011092e-05,7.170474373519575e-05,0.0001141425770436942
233.3960321879631,249.3679181028479,12.5,0.1444250062978554,4.695006649418163,13.62769339501353,-6.085906704498448,4.817656654844057e-06,4.657991857857271e-05,-5.690588667781624e-05,8.087224102301533e-05,0.0001162252172689224
206.6590802620263,225.7545852268432,12.5,0.1079594366085813,14.67763763795409,11.01055866043464,-4.79560645209458,4.277831645685057e-05,2.633476387409487e-05,-4.300796756472443e-05,0.0001055022780757742,0.0001116508855081854
208.0408851433206,224.5526407124486,12.5,0.2058596857382592,13.65391996817256,10.16648699300173,-3.965492720417539,4.47771680459365e-05,2.721134038278426e-05,-3.994752714806066e-05,0.0001097069772382421,0.000124843075276886
207.7643684383875,227.312260281263,12.5,0.1272804830142731,15.05824428181327,10.75658796482941,-4.783922783611144,4.535375978143304e-05,2.563765978247216e-05,-4.385301522884938e-05,0.0001084049814674321,0.000114028727535872
209.1410582424846,226.1014791736641,12.5,0.2298105868988942,13.86154631651015,9.845945403313099,-3.927835317644203,4.736522116461901e-05,2.651008685666454e-05,-4.079864252435348e-05,0.0001126251517166736,0.0001285597198905472
208.5734955404547,228.4525575627325,12.5,0.1395135076568634,14.49002997392347,11.08382593063745,-4.942230526201385,4.358120145492165e-05,2.774734898381174e-05,-4.594824504676194e-05,0.0001089330019964842,0.0001155873673955838
209.946440848159,227.2353076199424,12.5,0.2451970839028147,13.23798193826527,10.12044027496394,-4.047744667308968,4.539620774075796e-05,2.887511807978514e-05,-4.290120857760753e-05,0.0001132250108383541,0.000131066500646447
209.6787837168159,230.0102326171522,12.5,0.1538397795901052,14.83644555838978,10.80752037508879,-4.898703573339884,4.58903746006472e-05,2.684468993658057e-05,-4.631466670429736e-05,0.000111104873506164,0.0001174678086555129
211.046613947323,228.7841460811578,12.5,0.2636126405511345,13.42886755757703,9.793034074075862,-3.98304111925495,4.771666497817685e-05,2.796709466386653e-05,-4.327115144655365e-05,0.0001154083630352589,0.0001341985084216311
210.9515065693691,226.3442188163476,12.5,0.3167760834479671,15.03974493145452,11.29844536288473,-4.735770828945065,5.72117376798091e-05,3.530794023986767e-05,-5.545204978004483e-05,0.0001411441409390239,0.0001441433558677943
212.3244518770734,225.1269688735575,12.5,0.4051140486425192,13.72110708286479,10.16287494049103,-3.817885078375751,6.014134748204052e-05,3.621587313352602e-05,-5.13427499124987e-05,0.0001467726595055949,0.0001643908554863929
212.0479351721403,227.8865884423719,12.5,0.3376683898331627,15.35482016957901,10.99749560298888,-4.724200427252375,6.090216357045223e-05,3.458710024141953e-05,-5.706145205495934e-05,0.00014573133799412,0.0001484675673954438
213.4157654026474,226.6605019063775,12.5,0.4284253193728962,13.85547235750537,9.803114600578891,-3.784031882484924,6.384995889515874e-05,3.549070580521831e-05,-5.296290421168788e-05,0.0001513845380414605,0.0001707206617236359
209.0524365225318,223.6727562600704,12.5,0.2733751924856751,15.1962951514852,11.29464251039447,-4.576969620567635,5.448813482143125e-05,3.30099105673615e-05,-5.039155914563132e-05,0.0001334147434154401,0.0001359204195489162
210.4342414038261,222.4708117456758,12.5,0.358262623544351,14.09678753058011,10.25814463953894,-3.724356575142836,5.7505150455851e-05,3.357858465572757e-05,-4.6428420245212e-05,0.0001386886538175293,0.0001529920971456206
210.1488651253029,225.2151258860948,12.5,0.2996447507774446,15.51925838774447,11.00621755716875,-4.595783315288614,5.833704086661895e-05,3.2561317271569e-05,-5.249659592488541e-05,0.0001386666851886114,0.0001407813577351079
211.5255549294001,224.0043447784958,12.5,0.3864033533263884,14.24666771431645,9.913790841797667,-3.723518676060853,6.137306032639707e-05,3.312729401715869e-05,-4.854679302758957e-05,0.000143968691665407,0.0001596405009248985
153.9897985208817,141.8548157984623,12.5,0,2.638481923893867,1.402950986705979,1.782797773017126,7.320781367095589e-06,2.37865761834404e-06,1.426238218413701e-05,1.542440148754277e-05,1.551034796379688e-05
155.3801228942045,140.626215932205,12.5,0,2.729211532779412,1.355987048999614,1.804563430880624,7.648687265694425e-06,2.155789330575235e-06,1.443650744704499e-05,1.560969733899994e-05,1.521324805770851e-05
155.2863513120951,143.3526323773065,12.5,0,2.789565048110544,1.505891022457321,1.709281620989966,7.721895335987885e-06,2.58719923337499e-06,1.367425296791973e-05,1.626049300962847e-05,1.680953878061695e-05
156.657409784466,142.1267004971432,12.5,0,2.881936265576775,1.459075319391675,1.730836395135475,8.054935794332338e-06,2.36349200959194e-06,1.38466911610838e-05,1.645172778051877e-05,1.651123505707634e-05
151.5816860673286,143.982813188954,12.5,0,2.946974812231113,1.223094711087775,1.727248278303961,8.451843630269339e-06,1.556323225695988e-06,1.381798622643169e-05,1.590267602884582e-05,1.600203496067743e-05
152.9720104406514,142.7542133226967,12.5,0,3.041249939103296,1.18021396428956,1.751286740559536,8.787828633698898e-06,1.343684734443954e-06,1.401029392447629e-05,1.61210180486944e-05,1.572170277744107e-05
152.9116083778434,145.4760086803298,12.5,0,3.100553724085878,1.325265637355979,1.652991468659704,8.861559407190027e-06,1.76040706027043e-06,1.322393174927763e-05,1.675043340786881e-05,1.729969300874749e-05
154.2826668502144,144.2500768001664,12.5,0,3.196499887735198,1.282563602175556,1.676837078979295,9.202748759012187e-06,1.547003616773619e-06,1.341469663183436e-05,1.697480346225866e-05,1.702080545202656e-05
153.8851790792182,146.5691036456031,12.5,0,3.443942524558564,1.377295621404279,1.673633574199387,9.918779581463981e-06,1.652191968846842e-06,1.33890685935951e-05,1.819307130637304e-05,1.826958316745804e-05
155.2421339332396,145.3451248668143,12.5,0,3.54217420942563,1.336553318196454,1.698151539122469,1.026571481560485e-05,1.443231250688147e-06,1.358521231297975e-05,1.843391729266431e-05,1.79920003656594e-05
155.215101389733,148.0622991369788,12.5,0,3.602629991072344,1.481185167498761,1.597511577500138,1.034346783743249e-05,1.857688543138161e-06,1.27800926200011e-05,1.907962649206415e-05,1.962171431085889e-05
156.5527903428026,146.840988344284,12.5,0,3.702622492962743,1.440653064699787,1.62182765886619,1.069586952572095e-05,1.647991812669123e-06,1.297462127092952e-05,1.932693750601351e-05,1.93462515392841e-05
156.2354938299181,144.4491102133929,12.5,0,3.133247687444836,1.561755186706961,1.731927126080715,8.776988450457903e-06,2.491018447506408e-06,1.385541700864572e-05,1.770737974425339e-05,1.778113225569332e-05
157.5924486839394,143.2251314346042,12.5,0,3.228346562863018,1.517131146644711,1.754368214327998,9.117004083845888e-06,2.27214241897266e-06,1.403494571462399e-05,1.791816086668525e-05,1.748261266734411e-05
157.5320466211315,145.9469267922373,12.5,0,3.289908700128688,1.666499670840273,1.656446373718249,9.194508103739584e-06,2.700871986585922e-06,1.325157098974599e-05,1.858552800252624e-05,1.913638417719712e-05
158.869735574201,144.7256159995425,12.5,0,3.386745737885676,1.62205748649127,1.678668394837626,9.539940372041146e-06,2.481187366463523e-06,1.342934715870101e-05,1.880270425263608e-05,1.883847865267546e-05
150.2612916627513,283.8270452061429,12.5,0,4.348194671218625,3.427539463691608,-4.541906078690333,1.117219137694631e-05,7.489570546838245e-06,-3.633524862952267e-05,3.04709442495778e-05,3.00817836573935e-05
152.3079869487285,283.1996596317731,12.5,0,4.332291081094322,3.563516487435966,-4.589857753358341,1.101251826955306e-05,7.937419894919631e-06,-3.671886202686673e-05,3.091407003040674e-05,3.046615582948716e-05
152.1590033878154,285.6743129665167,12.5,0,4.18276889440711,3.273979183042979,-4.446015675775522,1.076567711566837e-05,7.130518270211843e-06,-3.556812540620417e-05,2.930589098474707e-05,2.974975069729711e-05
154.1801393242539,284.8577561038875,12.5,0,4.154212898172174,3.388580636203364,-4.482980701586219,1.058261676518827e-05,7.520087717313023e-06,-3.586384561268975e-05,2.962397631006513e-05,3.017726682015186e-05
153.5482247886225,287.0266068222367,12.5,0,3.998584318732038,3.662367157347998,-4.466943624763493,9.865576094064124e-06,8.520707448527961e-06,-3.573554899810794e-05,2.999563520149728e-05,2.949145249101567e-05
155.5506499825911,286.0715669652744,12.5,0,3.959606895511854,3.770377269303007,-4.499814699021931,9.654440250195524e-06,8.897521745360138e-06,-3.599851759217545e-05,3.02571271676675e-05,2.994760813480888e-05
155.4459365136865,288.8738745826105,12.5,0,3.853064912022165,3.528092810967332,-4.382823539068821,9.507333469697062e-06,8.207445065477729e-06,-3.506258831255057e-05,2.897325096679384e-05,2.911780162801723e-05
157.4228023581166,287.7296634373889,12.5,0,3.805503898562732,3.619900606073126,-4.407545741703971,9.281691990542241e-06,8.539278820583816e-06,-3.526036593363177e-05,2.914357604415892e-05,2.960905794736102e-05
157.0165269628698,285.3724292667545,12.5,0,4.001168906239767,3.884228040835967,-4.556090118739909,9.696358067298478e-06,9.228594605683281e-06,-3.644872094991927e-05,3.083356636291513e-05,3.029357405081097e-05
159.0189521568385,284.4173894097921,12.5,0,3.965390508615269,4.010939296878062,-4.586784132315399,9.48049819006641e-06,9.662693343117582e-06,-3.669427305852319e-05,3.116893450450345e-05,3.078261486726275e-05
158.8699685959254,286.8920427445357,12.5,0,3.873841257634725,3.744351245401656,-4.475597173896255,9.400811028109795e-06,8.88285097917752e-06,-3.580477739117004e-05,2.985670997134472e-05,2.998069588066817e-05
160.8468344403556,285.7478315993142,12.5,0,3.829551938075853,3.850750341263279,-4.497390499315915,9.173965928832106e-06,9.258759541581809e-06,-3.597912399452732e-05,3.008613758813621e-05,3.050477327718259e-05
153.8062718856117,282.7403815154182,12.5,0,4.319141187772711,3.631091963373915,-4.616922962067357,1.091637823017354e-05,8.164181332578359e-06,-3.693538369653885e-05,3.111985519575161e-05,3.07591037002807e-05
155.8529671715889,282.1129959410483,12.5,0,4.303675454874745,3.777568242615588,-4.666454468218916,1.074970686150671e-05,8.645278012470083e-06,-3.733163574575133e-05,3.160323112531714e-05,3.117507999519813e-05
155.6597135186673,284.2599949931994,12.5,0,4.174915693240896,3.480120462891799,-4.527286101796926,1.057563384805743e-05,7.796452926661038e-06,-3.621828881437541e-05,3.004087732724827e-05,3.050214779745173e-05
157.6808494551059,283.4434381305703,12.5,0,4.146696028031427,3.601117946753592,-4.564481241831472,1.038853293229769e-05,8.20622060718635e-06,-3.651584993465178e-05,3.038359976055541e-05,3.096222301103058e-05
215.1397049695824,294.2298610232397,12.5,0,0.2639781062421933,5.094834183287278,-1.305297262366068,-3.231137406654804e-06,1.609228690152553e-05,-1.044237809892854e-05,2.064775038967907e-05,2.080438734430332e-05
217.2439602925944,294.1825877407711,12.5,0,0.2064634500514564,4.862258370179275,-1.29605337877597,-3.229123655978759e-06,1.539405602453252e-05,-1.036842703020776e-05,1.958668939632956e-05,1.996738517130086e-05
214.7362307282932,296.0923519960899,12.5,0,0.2791053116226061,5.057222482359492,-1.379602836093356,-3.152640988695254e-06,1.595982769425229e-05,-1.103682268874685e-05,2.058177676687719e-05,2.028078093785934e-05
216.8780327827332,296.0603376289106,12.5,0,0.2225541225691385,4.829377384674434,-1.369906489345982,-3.151328715518304e-06,1.527596433290288e-05,-1.095925191476786e-05,1.954263433354916e-05,1.945710480047004e-05
211.4950278380938,294.3117407503144,12.5,0,0.4112573092417959,5.305313437452794,-1.608711872529907,-2.928227360388488e-06,1.66479971524555e-05,-1.286969498023925e-05,2.202588519293521e-05,2.213942898757923e-05
213.5992831611059,294.2644674678457,12.5,0,0.36021722836787,5.099712171436961,-1.604030781898677,-2.927074606372384e-06,1.603090516590398e-05,-1.283224625518942e-05,2.109125624803028e-05,2.138638473078201e-05
211.0265207503142,296.1478025066152,12.5,0,0.4146944384183135,5.263699657131072,-1.673879332792909,-2.883937522766254e-06,1.651208335208478e-05,-1.339103466234328e-05,2.190996587810668e-05,2.159353581626726e-05
213.1683228047543,296.1157881394361,12.5,0,0.36460770536811,5.06241426985909,-1.668729558968195,-2.88318675870932e-06,1.59080394992546e-05,-1.334983647174556e-05,2.099562358342704e-05,2.085323590320919e-05
210.683549758368,297.4918929980045,12.5,0,0.3851146407314415,5.078127671830738,-1.545469802025427,-2.830135287123977e-06,1.59419168372732e-05,-1.236375841620342e-05,2.105900886436171e-05,2.120959015144497e-05
212.8528379278704,297.4710489320852,12.5,0,0.3365577749257572,4.883103136936216,-1.537877417321279,-2.829497629786549e-06,1.535668381825528e-05,-1.230301933857024e-05,2.017070900077231e-05,2.047786006275283e-05
210.2150426705885,299.3279547543054,12.5,0,0.3932192235308115,5.041067245659946,-1.604968440943128,-2.774552281229359e-06,1.581683980728717e-05,-1.283974752754502e-05,2.097206115211353e-05,2.070652425907203e-05
212.4218775715189,299.3223696036755,12.5,0,0.3454999300176842,4.849984415083657,-1.597023792420093,-2.774387756010336e-06,1.524355018425355e-05,-1.277619033936074e-05,2.010209527171808e-05,1.998546302222138e-05
214.4408670841367,297.4557900167966,12.5,0,0.2561066634921179,4.881614398308847,-1.255278267375329,-3.085750195472301e-06,1.541628074379462e-05,-1.004222613900263e-05,1.979518599484607e-05,1.991257185319221e-05
216.610155253639,297.4349459508771,12.5,0,0.2024075720125711,4.66600616455467,-1.247606067827587,-3.085100701203508e-06,1.476929366896489e-05,-9.980848542620699e-06,1.881075840640445e-05,1.909990583237942e-05
214.0373928428475,299.3182809896467,12.5,0,0.2653278475296581,4.846701152307728,-1.322445200663294,-3.028311809751276e-06,1.5297181409361e-05,-1.057956160530635e-05,1.971850772866561e-05,1.943021233247437e-05
216.2442277437779,299.3126958390168,12.5,0,0.2125397900436563,4.635339334521237,-1.31436446208823,-3.02814413947729e-06,1.466305403843304e-05,-1.051491569670584e-05,1.875395009628121e-05,1.863430047393404e-05
176.8170783203788,165.7055591156929,12.5,0,7.410585101163352,3.499755621236513,1.044654200393143,2.091406782673351e-05,5.270749907026161e-06,8.357233603145144e-06,3.998467130017169e-05,4.124107864925565e-05
177.7271820100987,164.2071295470643,12.5,0,7.829910264054796,3.593658608309227,1.133628179849551,2.218078595832796e-05,5.235779335345688e-06,9.069025438796405e-06,4.189554133880683e-05,4.071076563280586e-05
177.6274359825565,167.8023228266424,12.5,0,7.94303122341084,3.641597654941595,0.9587882478364927,2.250442179096141e-05,5.298687517084431e-06,7.670305982691942e-06,4.245611001942112e-05,4.330828200693068e-05
178.6667216082981,166.1380785762017,12.5,0,8.308402279111302,3.723148128004596,1.038689921510044,2.360836879075249e-05,5.267352186325664e-06,8.309519372080355e-06,4.412030356970852e-05,4.27617860107497e-05
178.3934241511013,163.1102029713114,12.5,0,7.08578846375067,3.709383917886425,1.150162315276143,1.9707015949693e-05,6.201397766236023e-06,9.201298522209145e-06,3.950963855902118e-05,4.028523158847999e-05
179.3035278408212,161.6117734026828,12.5,0,7.360733792028413,3.735921974625644,1.1875573289985,2.05656105547904e-05,6.066363285179329e-06,9.500458631987999e-06,4.063612091470272e-05,3.965296397543178e-05
179.4275314898845,164.9197672287265,12.5,0,7.408118659698043,3.833087537695222,1.053368383013147,2.063950968087756e-05,6.339385192866273e-06,8.426947064105175e-06,4.112454436107883e-05,4.231485721287661e-05
180.4668171156261,163.2555229782859,12.5,0,7.648717948020435,3.855226565654368,1.087738327565534,2.13917161811419e-05,6.217750651677629e-06,8.701906620524271e-06,4.210696848457276e-05,4.164032102585071e-05
176.602297699881,159.975945737964,12.5,0,6.436911328182506,3.451333548348587,1.277924386329819,1.783704941150515e-05,5.894738292169474e-06,1.022339509063855e-05,3.622296493399959e-05,3.686861757067537e-05
177.2886517129955,158.7647156228698,12.5,0,6.670009656001497,3.480713733237488,1.308698071795396,1.85594599126148e-05,5.802276221558765e-06,1.046958457436317e-05,3.720090072580096e-05,3.631913888060755e-05
177.6364050386643,161.7855099953791,12.5,0,6.761844584739407,3.570657836889336,1.183805990594861,1.878137640165463e-05,6.016629410254349e-06,9.470447924758891e-06,3.782708547705689e-05,3.882591607461122e-05
178.4519409878004,160.4084651984728,12.5,0,6.95812946006872,3.594261731858388,1.211706110677645,1.939060488673319e-05,5.935133973891866e-06,9.693648885421161e-06,3.86473666812713e-05,3.822715751687935e-05
175.4134976772093,162.0738578369269,12.5,0,6.734485878466,3.276787104298275,1.186497106344436,1.892892512765258e-05,5.09813003098168e-06,9.491976850755485e-06,3.671278475742678e-05,3.77580345218673e-05
176.0998516903238,160.8626277218327,12.5,0,7.064623642849615,3.360986536817399,1.257731344433034,1.991800642766485e-05,5.103458003535984e-06,1.006185075546427e-05,3.825301021976851e-05,3.725416849573159e-05
176.2238553393871,164.1706215478764,12.5,0,7.231535391475822,3.399335897238978,1.116166985847636,2.042144453493145e-05,5.092646557984071e-06,8.929335886781085e-06,3.898154092951156e-05,3.975389431788633e-05
177.0393912885231,162.7935767509701,12.5,0,7.507643127131976,3.469818097645756,1.178384081926699,2.124860352870571e-05,5.097303410760839e-06,9.42707265541359e-06,4.02704299913808e-05,3.923500396748319e-05
151.6529557355975,206.4376350917593,12.5,0,10.36358031323597,1.060254835611301,-2.507179627535355,3.231525313386607e-05,-4.898048776632614e-06,-2.005743702028284e-05,4.356211978789431e-05,4.265883019332144e-05
154.0180036374622,206.9300643409445,12.5,0,10.42300815838373,1.199252752029075,-2.564928915021046,3.239422390520467e-05,-4.500797720213942e-06,-2.051943132016837e-05,4.424356523580868e-05,4.413145982154034e-05
151.9086767528637,208.6818388468009,12.5,0,10.23705560910493,1.014877382957249,-2.453674985027993,3.194667604276998e-05,-4.942036861820746e-06,-1.962939988022394e-05,4.292079215377674e-05,4.309483765774893e-05
154.2641186899259,209.2116067040136,12.5,0,10.29908090691775,1.155504981056092,-2.512716177643251,3.203265491729193e-05,-4.541648786154706e-06,-2.0101729421146e-05,4.361718137895148e-05,4.455189621791881e-05
152.0958775300578,210.3247100179583,12.5,0,10.42523559027602,1.182017117500874,-2.862919190341891,3.241514019488255e-05,-4.557733696218015e-06,-2.290335352273513e-05,4.431338927644668e-05,4.337416007864503e-05
154.4442874128291,210.8818116333299,12.5,0,10.50729109983135,1.337439956272312,-2.948562593882145,3.255337955444248e-05,-4.126025019793685e-06,-2.358850075105716e-05,4.514585845632433e-05,4.481633084302918e-05
152.351598547324,212.5689137729998,12.5,0,10.23107556006089,1.118428898928718,-2.801969006237788,3.184469867305187e-05,-4.605887971476813e-06,-2.24157520499023e-05,4.335509374659132e-05,4.37012756598313e-05
154.6904024652927,213.163353996399,12.5,0,10.31710361834717,1.275923250682294,-2.889218393000955,3.19939929781651e-05,-4.170728492494392e-06,-2.311374714400764e-05,4.420915992565899e-05,4.511834327776339e-05
156.1634427639414,211.2896383207433,12.5,0,10.79837955104857,1.527474504042811,-3.058583487321126,3.333283496012118e-05,-3.750785227901862e-06,-2.446866789856901e-05,4.688965233833701e-05,4.590864588179371e-05
158.5118526467128,211.8467399361149,12.5,0,10.89701525509799,1.713867036364966,-3.161674201607058,3.349935518722158e-05,-3.233237687710498e-06,-2.529339361285646e-05,4.789425979878706e-05,4.745073530131271e-05
156.4025257621142,213.5985144419713,12.5,0,10.55840894934351,1.450627581618147,-2.984333560750903,3.262640657260469e-05,-3.804718898296733e-06,-2.387466848600723e-05,4.570982168856483e-05,4.618762126541429e-05
158.741329680083,214.1929546653705,12.5,0,10.66179047008048,1.639439807472797,-3.089314563728361,3.280617765827928e-05,-3.283224992151431e-06,-2.471451650982689e-05,4.67401649352797e-05,4.769187543728367e-05
155.7493388638878,207.2905475704657,12.5,0,10.76091233059122,1.394159799259291,-2.673048744406473,3.331959161848448e-05,-4.147418506843248e-06,-2.138438995525179e-05,4.617732873592793e-05,4.52511581876069e-05
158.1143867657526,207.782976819651,12.5,0,10.83015802326248,1.552307159596303,-2.74185266806504,3.341465994676288e-05,-3.696743507901811e-06,-2.193482134452032e-05,4.696431956297827e-05,4.683760138476376e-05
155.9884218620605,209.5994236916937,12.5,0,10.60497063197642,1.340604508735334,-2.610862496156625,3.286342241533627e-05,-4.194042077628065e-06,-2.0886899969253e-05,4.539458236882074e-05,4.565772135636146e-05
158.3438637991227,210.1291915489065,12.5,0,10.6772992192875,1.500583943718828,-2.681132873002122,3.296689034674495e-05,-3.739970755529753e-06,-2.144906298401697e-05,4.619906946078663e-05,4.722183325883226e-05
228.0794438390301,273.4354106287176,12.5,0,0.110527336705152,5.608988397049462,-0.6615626966120117,-4.133503240183082e-06,1.786034100119416e-05,-5.292501572896094e-06,2.195335738542321e-05,2.258310250625387e-05
229.9437846819223,273.6234326734804,12.5,0,-0.02202193986861012,5.114033311793658,-0.6079882630993928,-4.161696857014479e-06,1.638252414963459e-05,-4.863906104795142e-06,1.964495163844087e-05,2.068415348627223e-05
227.9418611428283,275.3909392006414,12.5,0,0.1974211576175544,5.597307997669857,-0.8489491018153172,-3.846098693759711e-06,1.77534486664495e-05,-6.791592814522538e-06,2.221419115613396e-05,2.162624118279315e-05
229.830288383333,275.5661080972392,12.5,0,0.06717218235399347,5.108345930419633,-0.7974805777270267,-3.871725760802927e-06,1.629296923145963e-05,-6.379844621816214e-06,1.993493373552571e-05,1.984445021014241e-05
227.8411436189705,276.8224854708815,12.5,0,0.09010567279637627,5.251502999345649,-0.6029374942928036,-3.912864246528115e-06,1.673272505966898e-05,-4.823499954342429e-06,2.051037648061865e-05,2.098097788291862e-05
229.7472033262982,276.9882452099856,12.5,0,-0.02960682720505581,4.799456915903559,-0.5574321276692578,-3.934307379779026e-06,1.538194759265543e-05,-4.459457021354062e-06,1.840708820051474e-05,1.927832511456731e-05
227.7035609227686,278.7780140428054,12.5,0,0.1648226073171777,5.240305671391138,-0.7706159436516409,-3.664812193697941e-06,1.663712006259789e-05,-6.164927549213127e-06,2.073042581136445e-05,2.017494708678763e-05
229.633707027709,278.9309206337446,12.5,0,0.04711588037999115,4.793614960694344,-0.7269264255617186,-3.684121151339504e-06,1.530187516991791e-05,-5.815411404493749e-06,1.865318988330105e-05,1.857134586608041e-05
231.1425358742627,277.1095897608541,12.5,0,0.04041605933376569,4.527613895080913,-0.277389309483479,-3.49275972619668e-06,1.445603161679191e-05,-2.219114475867832e-06,1.753541232484032e-05,1.804435192900451e-05
233.0485955815905,277.2753494999583,12.5,0,-0.08852891155421005,4.036556951110221,-0.2330001079279176,-3.512538077861648e-06,1.298780537279607e-05,-1.864000863423341e-06,1.525640136136919e-05,1.637572725907729e-05
231.0466720424964,279.0428560271194,12.5,0,0.1097604703570147,4.522328713542999,-0.4584672079507277,-3.266629465691951e-06,1.438364350705198e-05,-3.667737663605821e-06,1.775000261009496e-05,1.741008656971468e-05
232.9768181474367,279.1957626180586,12.5,0,-0.01708069537477663,4.037219240417191,-0.4160070391104012,-3.284433617533038e-06,1.293276612563483e-05,-3.328056312883209e-06,1.549786220506793e-05,1.584106839185414e-05
231.3085769014871,273.761074363184,12.5,0,0.04331100983991543,4.810100194237355,-0.2957623097547794,-3.709484923902155e-06,1.53576718136876e-05,-2.366098478038235e-06,1.863071922865564e-05,1.930499608222494e-05
233.1729177443793,273.9490964079469,12.5,0,-0.1029624057923391,4.260597015668665,-0.2397802582890525,-3.737957311070417e-06,1.37162803747736e-05,-1.91824206631242e-06,1.607408520297055e-05,1.743601700255437e-05
231.2127130697208,275.6943406294492,12.5,0,0.1320405398044149,4.806438520739111,-0.5024609536068712,-3.422621089217161e-06,1.527497083452162e-05,-4.019687628854969e-06,1.891462519288733e-05,1.855209140259588e-05
233.1011403102257,275.8695095260471,12.5,0,-0.01171604532444182,4.263751923021723,-0.4487945598438973,-3.448492883455592e-06,1.365337898992907e-05,-3.590356478751179e-06,1.638814307548926e-05,1.680309245127026e-05
132.7714805587345,206.9055836086721,12.5,0,8.809723068400373,-0.02168706890647831,-2.18446459176087,2.820846347400638e-05,-7.117177075221029e-06,-1.747571673408696e-05,3.422630600744719e-05,3.344723555796739e-05
135.1665147882298,207.3102206171359,12.5,0,8.831424880292888,0.04089506890947892,-2.202665971386396,2.822784356180965e-05,-6.934275683723976e-06,-1.762132777109117e-05,3.45035512648728e-05,3.449968917526018e-05
133.1892352757262,209.6730383652987,12.5,0,8.764474644392999,-0.04262979597069316,-2.156529003516947,2.808042269883415e-05,-7.147995062620617e-06,-1.725223202813557e-05,3.398089786609098e-05,3.402202855351058e-05
135.6039169958648,210.0208153852023,12.5,0,8.78489112905744,0.01871540453649523,-2.173878148635223,2.809667928935461e-05,-6.968023608729167e-06,-1.739102518908179e-05,3.424901971056547e-05,3.506647816449099e-05
132.0479081638163,202.1122113626328,12.5,0,8.649609060088773,-0.13656685661834,-1.82937576991709,2.778800247757874e-05,-7.356701189249705e-06,-1.463500615933672e-05,3.314320916762859e-05,3.232210007861304e-05
134.4089119412767,202.615332760199,12.5,0,8.666185051529149,-0.08539013086359182,-1.840483549796927,2.780010426958415e-05,-7.206196459986813e-06,-1.472386839837541e-05,3.336305683872672e-05,3.338597339609775e-05
132.465662880808,204.8796661192594,12.5,0,8.626048343699177,-0.1504900634190842,-1.806877109163067,2.772374675057262e-05,-7.382406877900409e-06,-1.445501687330453e-05,3.300430691186863e-05,3.29917410959421e-05
134.8463141489117,205.3259275282653,12.5,0,8.641874728029938,-0.1002729524869048,-1.817328013025703,2.773421749168532e-05,-7.234373230382044e-06,-1.453862410420563e-05,3.321809322290879e-05,3.404939927970657e-05
127.9585296644665,201.2407795396888,12.5,0,8.330266834967142,-0.3197314007227257,-1.710406154282988,2.691263899247303e-05,-7.687353950286435e-06,-1.368324923426391e-05,3.134313883100605e-05,3.059712888957696e-05
130.3195334419268,201.743900937255,12.5,0,8.34227346463986,-0.2780101620193918,-1.716665441837401,2.691768321646306e-05,-7.563451290173941e-06,-1.373332353469921e-05,3.151438544405251e-05,3.157483144529807e-05
128.3422539294232,204.1067186854178,12.5,0,8.319386997783994,-0.3285340193469231,-1.691769392036723,2.688486560838632e-05,-7.706818460137348e-06,-1.353415513629378e-05,3.12694609340565e-05,3.127512362522228e-05
130.7229051975269,204.5529800944237,12.5,0,8.331008502609459,-0.2875086460877387,-1.697540749780817,2.688923412522045e-05,-7.584834469568329e-06,-1.358032599824653e-05,3.143695799426977e-05,3.224837617476485e-05
128.6231595874565,206.2047317514027,12.5,0,8.503257222663066,-0.2109991084485774,-2.059814940314123,2.737922239928067e-05,-7.477802925165899e-06,-1.647851952251298e-05,3.245001711669126e-05,3.173570914389888e-05
131.0181938169519,206.6093687598665,12.5,0,8.519445543619788,-0.1627837478476502,-2.072588549811253,2.739245273786144e-05,-7.336464428008311e-06,-1.658070839849002e-05,3.265964956271063e-05,3.270662934069143e-05
129.0068838524132,209.0706708971317,12.5,0,8.471219184544031,-0.2258533670418177,-2.037849302870613,2.728858408417435e-05,-7.499706122169041e-06,-1.630279442296491e-05,3.227580388788865e-05,3.231605744656197e-05
131.4215655725519,209.4184479170352,12.5,0,8.486521961888887,-0.1785273814565502,-2.049996076999799,2.729969218320967e-05,-7.360505190172068e-06,-1.639996861599839e-05,3.247906559072539e-05,3.328505554331861e-05
155.7649980775092,242.2773150373217,12.5,0,8.515954597002764,2.62133045227361,-5.006727599068546,2.515399034858995e-05,1.57549376967334e-06,-4.005382079254837e-05,4.299934362734007e-05,4.274748132940776e-05
158.3423041524722,243.0057158311051,12.5,0,8.712343279531398,2.930420344384927,-5.204707275606022,2.553516221899253e-05,2.407470478406646e-06,-4.163765820484818e-05,4.485062813161027e-05,4.367248187505734e-05
155.8090520304951,244.6533288421935,12.5,0,8.10669397667035,2.514639452901538,-4.909487127873266,2.392970916302388e-05,1.561491067948641e-06,-3.927589702298613e-05,4.110017019746022e-05,4.219905656946501e-05
158.3730544305399,245.3304747779137,12.5,0,8.295619046117046,2.823058013455816,-5.106441180706403,2.42875345368099e-05,2.397290406164974e-06,-4.085152944565123e-05,4.292180503759659e-05,4.306692215574438e-05
155.6886943926647,238.1619384078727,12.5,0,8.952962961776297,2.445177943885329,-4.862340475051217,2.669333912257588e-05,6.621990510120163e-07,-3.889872380040974e-05,4.392661787010516e-05,4.361654569557472e-05
158.2890431085132,238.9791152199548,12.5,0,9.170005615329258,2.759149082913995,-5.071339289205644,2.713669870272242e-05,1.493272573061379e-06,-4.057071431364515e-05,4.58707650041515e-05,4.464534264933976e-05
155.7327483456506,240.5379522127445,12.5,0,8.528646304350215,2.334765857799031,-4.76592123806382,2.542385548768146e-05,6.483337014767275e-07,-3.812736990451056e-05,4.19561568317468e-05,4.312729639601692e-05
158.3197933865808,241.3038741667633,12.5,0,8.738082235607109,2.648019244682243,-4.973973901428803,2.584344775819695e-05,1.48319579449749e-06,-3.979179121143042e-05,4.386986447735562e-05,4.40954183716198e-05
151.1847582994995,236.7465466506048,12.5,0,8.90513989800929,2.025886270438752,-4.625443363105158,2.687573865727872e-05,-6.412758530034268e-07,-3.700354690484126e-05,4.225551060586021e-05,4.185499939830506e-05
153.785107015348,237.5637234626869,12.5,0,9.102614457445709,2.307713631322381,-4.816337919606227,2.728219535876836e-05,1.025920542750518e-07,-3.853070335684981e-05,4.400459914651281e-05,4.28688754748776e-05
151.251854893371,239.2113364737753,12.5,0,8.500921124675079,1.918921709098445,-4.534493604106408,2.566781023168149e-05,-6.601874306250404e-07,-3.627594883285127e-05,4.037228940448931e-05,4.146323095092447e-05
153.8388999343011,239.9772584277941,12.5,0,8.691353000056282,2.199971780980683,-4.724496618719852,2.605235217539555e-05,8.682729909316239e-08,-3.779597294975882e-05,4.209244547841066e-05,4.24220039023362e-05
151.3009730090976,241.0156878542381,12.5,0,8.509610023936771,2.207908250484127,-4.79063304874835,2.546442547621036e-05,2.576183823997918e-07,-3.83250643899868e-05,4.150063352624144e-05,4.115267955206183e-05
153.8782790840606,241.7440886480215,12.5,0,8.690489423416933,2.489016400182631,-4.973837914586875,2.581835303478808e-05,1.012460941850874e-06,-3.9790703316695e-05,4.318716971616155e-05,4.207230233189605e-05
151.368069602969,243.4804776774085,12.5,0,8.114706514560735,2.103132428730705,-4.697720484036133,2.428455490360978e-05,2.382585602896678e-07,-3.758176387228906e-05,3.966154423187664e-05,4.069600579935201e-05
153.9320720030137,244.1576236131287,12.5,0,8.288591204715408,2.383496985622568,-4.879950695919156,2.461669426659125e-05,9.963173902198888e-07,-3.903960556735325e-05,4.131956004503125e-05,4.156377144646771e-05
131.5400107040157,197.281103699243,12.5,0,8.425905803646755,-0.225614727750457,-1.475917800013065,2.714339035386998e-05,-7.462691771718865e-06,-1.180734240010452e-05,3.191375315335297e-05,3.109379248806147e-05
133.9697805503468,197.8647237630157,12.5,0,8.440596588422677,-0.1718362596621583,-1.48280712949099,2.714737809068229e-05,-7.302353301657046e-06,-1.186245703592792e-05,3.213210584402844e-05,3.221480708875776e-05
131.7998804105804,200.0761826986153,12.5,0,8.418026293319148,-0.2330015781514554,-1.452388122201444,2.712408540114244e-05,-7.480026084739975e-06,-1.161910497761155e-05,3.185498981559925e-05,3.181354628187148e-05
134.1740454714098,200.6161092367985,12.5,0,8.432956196325375,-0.1781014742702949,-1.459161920782271,2.712794100765743e-05,-7.316289674725242e-06,-1.167329536625817e-05,3.207750979596459e-05,3.289439590010788e-05
131.0899031689056,192.4398848612482,12.5,0,8.153182243951354,-0.2838463077858271,-1.124097606411253,2.631726022687299e-05,-7.43085398007573e-06,-8.992780851290025e-06,3.06076274795411e-05,2.97106369690786e-05
133.6159833288681,193.0991843313026,12.5,0,8.161080375542729,-0.2364661761199685,-1.122788938058846,2.630463014263271e-05,-7.285556064018082e-06,-8.982311504470767e-06,3.077850424232369e-05,3.089411771564559e-05
131.3497728754704,195.2349638606206,12.5,0,8.169958064820683,-0.2843721585034498,-1.104420466571569,2.637136353422895e-05,-7.445957359067585e-06,-8.835363732572551e-06,3.06658150207428e-05,3.053031963596027e-05
133.820248249931,195.8505698050854,12.5,0,8.17821210585765,-0.2359747023472947,-1.102866126121952,2.635905850062231e-05,-7.297688732197462e-06,-8.822929008975614e-06,3.08410576288231e-05,3.167883416461018e-05
126.7146039879376,191.2979446817312,12.5,0,7.766180929925306,-0.461077948938978,-1.016506202858722,2.522064133491216e-05,-7.688394180544974e-06,-8.132049622869774e-06,2.857931250898641e-05,2.77900644404507e-05
129.2406841479,191.9572441517856,12.5,0,7.762392309841698,-0.4355214771981504,-1.003674907993875,2.518807257325195e-05,-7.603582574907438e-06,-8.029399263951003e-06,2.863713967876527e-05,2.887890840075283e-05
127.0707840081337,194.1687030873852,12.5,0,7.812928963211314,-0.4531662335462467,-1.006556763374116,2.53639056691132e-05,-7.700475117917039e-06,-8.052454106992932e-06,2.877924339470479e-05,2.866690335461704e-05
129.5412593825943,194.7843090318501,12.5,0,7.809566886565181,-0.4269824791283074,-0.9933457234440022,2.533220002031122e-05,-7.613997442462727e-06,-7.946765787552018e-06,2.884056889814735e-05,2.97232752077893e-05
127.331525879547,196.27024409649,12.5,0,8.077218066620961,-0.405062046367723,-1.367872725553428,2.617114745028125e-05,-7.757973001673482e-06,-1.094298180442742e-05,3.002080510795177e-05,2.927548652223214e-05
129.7612957258781,196.8538641602628,12.5,0,8.082269744481497,-0.3675574876419407,-1.364153192066919,2.615730917245433e-05,-7.641999756039406e-06,-1.091322553653535e-05,3.014961006620932e-05,3.030620391598925e-05
127.6877058997431,199.141002502144,12.5,0,8.098716933691101,-0.4050564225523199,-1.351629977827806,2.623993932585338e-05,-7.775154099120304e-06,-1.081303982262245e-05,3.009834935470027e-05,3.006132774269212e-05
130.0618709605724,199.6809290403272,12.5,0,8.104121687940943,-0.3667268532340979,-1.347645824954217,2.622657088399829e-05,-7.656823280701867e-06,-1.078116659963374e-05,3.023090476585744e-05,3.105442795701322e-05
126.329817911899,95.97967154550939,12.5,0,-5.088572655638783,0.1336431714949831,2.106679802166342,-1.639034703524009e-05,4.498516273294972e-06,1.685343841733073e-05,2.01372483732803e-06,2.012069708409421e-06
128.5144407937493,95.45053567321014,12.5,0,-5.054900777086242,0.01050287874262423,2.200382323811908,-1.618408478967007e-05,4.07752983364539e-06,1.760305859049526e-05,1.988537323608793e-06,2.064742495038511e-06
127.4671925540518,97.87541669941427,12.5,0,-4.867187019852709,0.2462980811260365,2.022101397115807,-1.57720369284295e-05,4.681903475485484e-06,1.617681117692645e-05,2.013781953070672e-06,2.002399991626618e-06
129.7054004590956,97.11737735042985,12.5,0,-4.813607272344757,0.14424523746281,2.099874212378582,-1.551893946147347e-05,4.312470577756797e-06,1.679899369902866e-05,1.987643137238306e-06,2.061752937670744e-06
124.3598272444854,92.69614462080268,12.5,0,-5.586864679441422,0.1117489021826685,2.096019169606552,-1.796736609595868e-05,4.827088230537676e-06,1.676815335685242e-05,2.054003637096406e-06,2.041200816300078e-06
126.4516381436412,92.56348120014417,12.5,0,-5.608860510995499,-0.05681311415274792,2.218937466177745,-1.79029031438634e-05,4.305286443507606e-06,1.775149972942196e-05,2.021192416444042e-06,2.081538838893231e-06
125.4972018866381,94.59188977470754,12.5,0,-5.317725084741633,0.2511912395821709,1.991687765112204,-1.721767326283896e-05,5.057992034456253e-06,1.593350212089763e-05,2.05181492488693e-06,2.022466358046012e-06
127.6425978089876,94.23032287736388,12.5,0,-5.30604739108351,0.114272886595393,2.09121924451194,-1.707076996074354e-05,4.610511149972065e-06,1.672975395609552e-05,2.016539572959061e-06,2.070044111292433e-06
120.7367044873862,92.92592440568501,12.5,0,-5.54875843241999,-0.002661314539586623,2.079468532468411,-1.77538979321123e-05,4.430490539409314e-06,1.663574825974729e-05,1.964867383706843e-06,1.974675552915149e-06
122.8285153865421,92.79326098502648,12.5,0,-5.553059196276285,-0.0999597594908761,2.203320372151296,-1.768982162049141e-05,4.122576126650224e-06,1.762656297721037e-05,1.977663779501462e-06,2.012566885122606e-06
121.7812671468446,95.21814201123061,12.5,0,-5.227014437067184,0.1182601194121178,1.990794522836855,-1.682105429414468e-05,4.560043931772523e-06,1.592635618269484e-05,1.94843614053547e-06,1.943103460013884e-06
123.926663069194,94.85657511388692,12.5,0,-5.199528732504331,0.04008728362308922,2.096681905096376,-1.667056177091233e-05,4.287902293597349e-06,1.677345524077101e-05,1.957654669388418e-06,1.988452713050303e-06
122.5459400852248,96.89616176042253,12.5,0,-4.9496441669802,0.05215079970730097,2.08671411481429,-1.588058197410248e-05,4.126597892647522e-06,1.669371291851432e-05,1.93042074360051e-06,1.923768616897778e-06
124.7305629670751,96.36702588812327,12.5,0,-4.903237049576213,-0.04985188620189462,2.194460860415354,-1.565047704968236e-05,3.763063603814907e-06,1.755568688332283e-05,1.929829575658311e-06,1.974295871608903e-06
123.5905027446832,99.18837936596813,12.5,0,-4.651698427493852,0.17331022634298,1.996957633664186,-1.502408314905471e-05,4.275951466292617e-06,1.597566106931349e-05,1.922917296539892e-06,1.902516936047219e-06
125.828710649727,98.43034001698371,12.5,0,-4.582587437936236,0.08856642828308758,2.089781808280647,-1.473513294402242e-05,3.949482520854868e-06,1.671825446624518e-05,1.920558771553911e-06,1.959732833586962e-06
151.4553349820515,297.1845974385949,12.5,0,3.315956556746943,3.430541908258819,-4.038821210850733,7.866627454983162e-06,8.324968861030666e-06,-3.231056968680586e-05,2.651053088165253e-05,2.66202811637735e-05
153.4025964342363,297.3534391468659,12.5,0,3.383607024465114,3.637412756909236,-4.118910880639937,7.917612272760973e-06,8.932835202537463e-06,-3.29512870451195e-05,2.751230893844788e-05,2.669356833675528e-05
152.1111899154842,299.2456151573265,12.5,0,3.130659751206481,3.331414055312736,-3.952015680208385,7.352979959610549e-06,8.155997176035571e-06,-3.161612544166708e-05,2.547256052881305e-05,2.609891781393374e-05
154.2585329368131,299.290856156705,12.5,0,3.177871759807264,3.506917139518012,-4.016736423470554,7.363655919768834e-06,8.679837438611826e-06,-3.213389138776444e-05,2.628477244798744e-05,2.619629077966309e-05
150.3193609149719,293.6148100345161,12.5,0,3.58016280253422,3.367568004075588,-4.155516760316846,8.762466564849033e-06,7.912087371014505e-06,-3.324413408253477e-05,2.729862466873541e-05,2.75135089888903e-05
151.9200709237471,293.9977344504367,12.5,0,3.66809121203305,3.559778216935796,-4.238481668853968,8.890069304957123e-06,8.456817324568107e-06,-3.390785335083174e-05,2.831968235382583e-05,2.752545201784362e-05
150.9752158484045,295.6758277532477,12.5,0,3.386304951603419,3.264480113940639,-4.065460079635965,8.224591753978427e-06,7.737292403327311e-06,-3.252368063708772e-05,2.621374751503134e-05,2.699931972671151e-05
152.7760074263239,295.9351514602758,12.5,0,3.444665990883669,3.41899811745549,-4.128327994323472,8.28773267686335e-06,8.185061183150631e-06,-3.302662395458778e-05,2.69887459970737e-05,2.704971601712542e-05
147.5468498516391,292.9515654906949,12.5,0,3.715564552949077,3.208623889711699,-4.174466965214595,9.322907457667688e-06,7.295144804718174e-06,-3.339573572171676e-05,2.724312505514603e-05,2.747941456354645e-05
149.1475598604142,293.3344899066155,12.5,0,3.793844462198255,3.385442249642005,-4.246490842541477,9.431948479320812e-06,7.798339629095811e-06,-3.397192674033182e-05,2.816736339755213e-05,2.750117329019017e-05
147.8561533416622,295.226665917076,12.5,0,3.534343666013505,3.138742528742048,-4.093253599023674,8.798905708249575e-06,7.216501159163749e-06,-3.274602879218939e-05,2.631926107548673e-05,2.691045751508797e-05
149.6569449195815,295.4859896241041,12.5,0,3.589011161081856,3.287121613734485,-4.149824605375252,8.855138424474353e-06,7.647580235084863e-06,-3.319859684300201e-05,2.70535215681577e-05,2.696200552355257e-05
148.0825792113079,296.8921550214379,12.5,0,3.445098059525864,3.248481472245225,-4.038582820424315,8.425528612686584e-06,7.639062263564028e-06,-3.230866256339452e-05,2.633288364226979e-05,2.649447534949076e-05
150.0298406634926,297.060996729709,12.5,0,3.501108434262505,3.419080052555842,-4.105650059660898,8.46828294759534e-06,8.140169420768688e-06,-3.284520047728718e-05,2.71581506889803e-05,2.656693435861893e-05
148.391882701331,299.1672554478191,12.5,0,3.277747060743244,3.185690915859745,-3.968687963090385,7.940237861690585e-06,7.572013282156585e-06,-3.174950370472308e-05,2.549207676332061e-05,2.592694798644685e-05
150.5392257226598,299.2124964471976,12.5,0,3.317753495440381,3.334228570146188,-4.024383113569664,7.94942832929227e-06,8.015328628115494e-06,-3.219506490855732e-05,2.617840616827406e-05,2.602674763000655e-05
231.8002413384361,230.1287911471467,12.5,0.8663559680400175,15.80373204183282,9.546368375744246,-4.032076459904741,0.0003212627395597113,0.0001339782473360038,-0.0002413621559165218,0.0006950322232110112,0.0006241058571515895
232.9985443721471,231.6153546501353,12.5,0.8792610534752235,15.53712504360495,9.340945997360585,-4.19032425661976,0.0003498957424891742,0.0001446205028224818,-0.0002776452422175061,0.0007556112512073279,0.0006780478255545674
231.1014854352592,231.541518051459,12.5,0.8605819522037462,15.31051924896781,9.931453479384075,-4.221959608862793,0.000294427439359775,0.0001400983304787002,-0.000242261869282966,0.0006632109103478815,0.0006027029045026931
232.2662659012482,232.7644558996165,12.5,0.8732116056160929,15.25583473040003,9.859096258293604,-4.475838166718804,0.0003228323406849649,0.0001525726414962381,-0.0002824131144474472,0.0007263080558220817,0.000651622531532188
230.5899606120669,232.5757059225911,12.5,0.8535128923221685,15.41590897665617,9.229510090405419,-4.208257984922737,0.0002863548971506074,0.0001174281162394444,-0.0002298227087220777,0.0006171273433563621,0.0005784498655025868
231.7302008552843,233.6056563972418,12.5,0.8664104363457821,15.06671091155992,9.010067486500201,-4.341752632757683,0.00030695078122966,0.0001255999852726739,-0.0002600054982735531,0.0006616460543980235,0.0006243151393861667
229.89120470889,233.9884328269034,12.5,0.8387149060796695,15.54559390875552,10.05321673241654,-4.709680483324838,0.0002585690103679666,0.0001223536406065917,-0.0002336077249966454,0.0005822519382999365,0.0005335922833624261
230.9979223843855,234.754757646723,12.5,0.852806592751171,15.24932109134827,9.896613628303562,-4.93379904839004,0.0002777334756614708,0.0001322729536695854,-0.0002681532626009262,0.000627387463059314,0.0005761352506402369
232.5649146461186,234.3596324739337,12.5,0.8750569795418646,15.44805772460341,9.151635976544833,-4.266479524629347,0.0003370534487086908,0.0001354760664756971,-0.0002731792145882314,0.0007224691565410806,0.0006594578432429305
233.7051548893361,235.3895829485845,12.5,0.8858821024243994,15.3948721944327,9.046861331180507,-4.522330405777794,0.0003682691571617751,0.0001457620483518964,-0.0003170286520767242,0.0007868076561655646,0.0007096042218154578
231.8080959524483,235.3157463499082,12.5,0.862224386673682,15.80863878197369,10.07281770988677,-4.945979260671394,0.0003086859053472446,0.0001421594516851796,-0.0002871904042383447,0.0006897070635734837,0.0006086373741812899
232.9148136279438,236.0820711697278,12.5,0.8739870806345699,15.90024114486033,10.0976150418489,-5.37378374515172,0.000339668978749303,0.0001554775122796104,-0.00034115763826203,0.0007586499155479495,0.0006548918597752914
233.1189443819797,233.6597085389286,12.5,0.8816807052769337,15.72498970537757,10.10735038706153,-4.465545522069956,0.0003569501225172994,0.0001670355584907145,-0.0003019318553256655,0.0008002163678941512,0.0006892415889871726
233.8757630756501,232.7035946629542,12.5,0.8878927624261153,15.72010136298932,9.519226904725198,-4.099409430604588,0.0003807866803394504,0.0001595387183895392,-0.0002925348635338806,0.0008251226857140713,0.0007197918265419745
234.2837248479688,234.8826463870861,12.5,0.8922803080393197,15.85089860909814,10.08294509891659,-4.775138932108148,0.0003959955574840595,0.0001818117474417153,-0.0003546344290587955,0.0008833920212851722,0.0007430991382619184
235.0740661093611,234.1901581659427,12.5,0.8986597816066715,15.58574742946131,9.331220012705124,-4.28038834541255,0.0004184855374942038,0.0001716130710276056,-0.0003379024370205493,0.0009019630035588777,0.0007798965897526471
144.7297909297683,173.3146111256304,12.5,0,7.289384865738224,0.4030737286491539,0.2603745839577485,2.300357258744299e-05,-4.541671960913286e-06,2.082996671661988e-06,2.925372805067041e-05,2.882154403767175e-05
146.9115062025863,173.7905608990851,12.5,0,7.294927336965286,0.5146919303703497,0.2917579002302232,2.293201393399263e-05,-4.18892769238711e-06,2.334063201841786e-06,2.962333123257887e-05,3.000657932364806e-05
144.4466426953881,175.1919445507114,12.5,0,7.403020652286646,0.4480883846673127,0.3105910483753649,2.333119537958341e-05,-4.488533690893916e-06,2.48472838700292e-06,2.983258465835387e-05,2.951224472478967e-05
146.4266295344262,175.7458142064553,12.5,0,7.401738927650858,0.5664298961946161,0.3414513262721338,2.323242065152705e-05,-4.108815474297915e-06,2.73161061017707e-06,3.019785644655512e-05,3.064304300224198e-05
140.9509492296666,172.4902419361705,12.5,0,6.951413824895471,0.2176557279159597,0.2976288401338353,2.207039965733274e-05,-4.864632730585306e-06,2.381030721070683e-06,2.738683309871067e-05,2.686094614611639e-05
143.1326645024845,172.9661917096253,12.5,0,6.940076389640179,0.2841824806131006,0.3428595603553349,2.198089846235809e-05,-4.642677173750221e-06,2.74287648284268e-06,2.755096602922973e-05,2.797867416809383e-05
141.0172048919179,174.2326141662095,12.5,0,7.079890076828192,0.2472841231093303,0.3219868681603373,2.245782094736275e-05,-4.872602867512696e-06,2.575894945282698e-06,2.797288747041162e-05,2.763969980106512e-05
142.9971917309561,174.7864838219534,12.5,0,7.058164575722039,0.318117580735076,0.3698409812924268,2.233163257772246e-05,-4.628555402225388e-06,2.958727850339415e-06,2.811108726772752e-05,2.870750133946587e-05
141.065707402973,175.508119164241,12.5,0,7.335647092907973,0.1821053719731747,0.1069762196878596,2.332838639972697e-05,-5.285780484012219e-06,8.558097575028767e-07,2.874537888464291e-05,2.819732835855937e-05
142.8980187791593,176.1190301327378,12.5,0,7.325328043247882,0.2503076816325585,0.1303724373841967,2.324080359308718e-05,-5.059277853374118e-06,1.042979499073574e-06,2.891533782872096e-05,2.922485491009388e-05
141.1319630652243,177.2504913942799,12.5,0,7.436623650332736,0.2042199640585194,0.1384443854242286,2.363381970981794e-05,-5.295795035278926e-06,1.107555083393829e-06,2.920186874365729e-05,2.894204425450102e-05
142.7625460076309,177.9393222450659,12.5,0,7.41632855666378,0.2784460511027194,0.1618318923790667,2.350949454044192e-05,-5.042035481802321e-06,1.294655139032533e-06,2.935238160196343e-05,2.990946397921479e-05
144.2393638017571,176.5662480005596,12.5,0,7.662085567637915,0.3626661103751541,0.06171499470935848,2.42285409281412e-05,-4.969136900909838e-06,4.937199576748679e-07,3.055353029660008e-05,2.999915198565498e-05
146.0716751779435,177.1771589690564,12.5,0,7.675089880805444,0.4412211720238608,0.05963166531920968,2.420731068095833e-05,-4.728164154168001e-06,4.770533225536774e-07,3.084636954096191e-05,3.108704438479533e-05
143.9562155673769,178.4435814256406,12.5,0,7.691687516962835,0.383928595464623,0.0999433912569458,2.430625717790937e-05,-4.924778508083474e-06,7.995471300555664e-07,3.073353195376895e-05,3.063870667385183e-05
145.5867985097834,179.1324122764265,12.5,0,7.703772946916433,0.4688320998276836,0.09476193814462,2.427700775027043e-05,-4.662755638084558e-06,7.5809550515696e-07,3.10426872347268e-05,3.166361504201956e-05
197.0430036039683,226.5526388680515,12.5,0,13.28731292425439,8.063781303497562,-5.199141856097712,3.6068376314816e-05,1.517424983178868e-05,-4.15931348487817e-05,7.887261500900978e-05,7.995384325531316e-05
198.8761748019137,226.6432112959168,12.5,0,13.45703818315886,8.680018076652178,-5.337313423383472,3.611850772478661e-05,1.701042729875988e-05,-4.269850738706778e-05,8.168853218563961e-05,8.289407440769936e-05
197.3113556907518,228.3501206270114,12.5,0,13.01597740418279,7.931570400739441,-5.012427613606754,3.530587137279338e-05,1.496824335901997e-05,-4.009942090885403e-05,7.733995437540082e-05,7.875655782803805e-05
199.2540329579668,228.1448241909372,12.5,0,13.12000667206713,8.466582926905041,-5.103419826308546,3.521075500909077e-05,1.659706002844243e-05,-4.082735861046837e-05,7.961415931999292e-05,8.200814823404915e-05
196.5782041553505,223.4393091359106,12.5,0,13.69453627940555,8.061288932486388,-4.871215194164613,3.737348494810863e-05,1.484049556043201e-05,-3.896972155331691e-05,8.02264906164788e-05,8.17890110567394e-05
198.2217052775872,224.0423414684876,12.5,0,14.01467479718534,8.66229631198788,-5.132880478444363,3.791712230140278e-05,1.650760836061294e-05,-4.10630438275549e-05,8.358856674322489e-05,8.421225583205569e-05
196.846556242134,225.2367908948705,12.5,0,13.28367241114749,7.896476054504811,-4.682764493038529,3.619057087206811e-05,1.46417854454974e-05,-3.746211594430823e-05,7.80692286218233e-05,8.076638664900355e-05
198.5995634336403,225.543954363508,12.5,0,13.47848624390594,8.395331139269832,-4.874341607215288,3.641489106908312e-05,1.608227065053871e-05,-3.89947328577223e-05,8.058937258982422e-05,8.348466325859812e-05
193.7315767093912,222.3948264972993,12.5,0,13.63604804304543,7.422958632810352,-4.943806864258956,3.769698683149709e-05,1.284462919055678e-05,-3.955045491407165e-05,7.784203349652948e-05,7.813879331219781e-05
195.3750778316279,222.9978588298762,12.5,0,13.92449675873963,7.922945913978892,-5.18479349447413,3.822003289678371e-05,1.421382951774075e-05,-4.147834795579304e-05,8.072396809078074e-05,8.016163167933344e-05
193.810258720466,224.7047681609708,12.5,0,13.1013277182903,7.273010620962015,-4.745994927790636,3.610584020175933e-05,1.279257181244621e-05,-3.796795942232509e-05,7.527264430183879e-05,7.678172294806671e-05
195.5632659119723,225.0119316296083,12.5,0,13.28179601633188,7.709382582746413,-4.936355240100799,3.633424118606489e-05,1.404458745172301e-05,-3.949084192080639e-05,7.75183112841424e-05,7.897033920593855e-05
193.8678579502121,226.3957628212267,12.5,0,13.02316627214577,7.354318959675619,-5.312709605386657,3.579067690312595e-05,1.311528765324537e-05,-4.250167684309326e-05,7.5509514138556e-05,7.571245147936059e-05
195.7010291481574,226.486335249092,12.5,0,13.14674337147642,7.788029903192527,-5.44331873332153,3.583915486617053e-05,1.440430099303495e-05,-4.354654986657224e-05,7.751349834153986e-05,7.802953319137985e-05
193.946539961287,228.7057044848983,12.5,0,12.68309797121585,7.255193205618807,-5.142733150824162,3.478175894339566e-05,1.30701398810075e-05,-4.114186520659329e-05,7.384258593871499e-05,7.414821786377857e-05
195.8892172285019,228.5004080488241,12.5,0,12.75050293788017,7.644728686885583,-5.240453119699541,3.468582645170808e-05,1.426272944772972e-05,-4.192362495759633e-05,7.547468808072845e-05,7.665049583282473e-05
156.0339255416231,250.4572887897137,12.5,0,7.590323854433181,2.968001079295266,-5.176333300005636,2.191463547074996e-05,3.425344370198307e-06,-4.141066640004509e-05,4.090151117226883e-05,4.076140356758209e-05
158.5673537342366,251.0494556680019,12.5,0,7.75677630629401,3.271683481211101,-5.355762430552105,2.220433739517195e-05,4.263966094840313e-06,-4.284609944441684e-05,4.262428799274272e-05,4.148726196390011e-05
156.1334208049857,252.8090997051801,12.5,0,7.207151806652071,2.861998238630897,-5.073764005326489,2.077328719038191e-05,3.392672918297213e-06,-4.059011204261191e-05,3.910493697354137e-05,4.012763357326617e-05
158.6545974290865,253.3697050620339,12.5,0,7.369538520409108,3.165696098071389,-5.252701712296135,2.104996638685203e-05,4.234596697501157e-06,-4.202161369836908e-05,4.081308909708167e-05,4.079951657802365e-05
155.8615946903698,246.3838327944038,12.5,0,8.05926853779749,2.79820105555238,-5.112540444935794,2.355109847651006e-05,2.506828547529623e-06,-4.090032355948635e-05,4.199179231788936e-05,4.178595043062564e-05
158.4162432221193,247.0306658313796,12.5,0,8.239347303122686,3.106795920601199,-5.301842885547951,2.388047463351163e-05,3.350269103425687e-06,-4.241474308438361e-05,4.378171453854122e-05,4.261148793558147e-05
155.9610899537324,248.7356437098703,12.5,0,7.660533900845925,2.688333578819753,-5.009970079992984,2.236304161965116e-05,2.47424033154647e-06,-4.007976063994387e-05,4.012168352269164e-05,4.120574823029265e-05
158.5034869169692,249.3509152254117,12.5,0,7.836444138397953,2.996917291548285,-5.198828186590962,2.267908740963482e-05,3.320980022236149e-06,-4.159062549272769e-05,4.189646428101245e-05,4.197277822585095e-05
151.4368136379781,245.2634851103677,12.5,0,8.087575414023073,2.392042929380735,-4.917225859194033,2.396660698136924e-05,1.184477042799896e-06,-3.933780687355226e-05,4.064489643273966e-05,4.035065355955462e-05
153.9914621697275,245.9103181473436,12.5,0,8.254614612792427,2.674642478121605,-5.093892688085352,2.427505277843847e-05,1.955164239755196e-06,-4.075114150468281e-05,4.22867897182627e-05,4.118016168536758e-05
151.5575292404766,247.6699621845219,12.5,0,7.705026925142422,2.285113888209989,-4.820044171950235,2.282799504988776e-05,1.148342902158026e-06,-3.856035337560188e-05,3.884525724387552e-05,3.986380744659016e-05
154.0999262037134,248.2852337000633,12.5,0,7.868126519707506,2.5676265312866,-4.996287321713626,2.312390363803474e-05,1.921903684351116e-06,-3.997029857370901e-05,4.047227422462515e-05,4.064065121314647e-05
151.6458991947681,249.4316256699775,12.5,0,7.653828718445718,2.57094112764043,-5.002861008215379,2.243549899691395e-05,2.103948633692802e-06,-4.002288806572303e-05,3.971521234180533e-05,3.948521574154443e-05
154.1793273873816,250.0237925482656,12.5,0,7.809496649989168,2.851475590923385,-5.171825715734179,2.270920880722662e-05,2.877124570963496e-06,-4.137460572587343e-05,4.130891266418611e-05,4.022495689910879e-05
151.7666147972667,251.8381027441315,12.5,0,7.282917394099627,2.466790689116896,-4.904856768791539,2.133190310982529e-05,2.067396289894365e-06,-3.923885415033231e-05,3.797034394199663e-05,3.893773008095582e-05
154.2877914213674,252.3987081009853,12.5,0,7.434709659661524,2.747262734497074,-5.073351164700275,2.159326072331922e-05,2.843473022661418e-06,-4.05868093176022e-05,3.954956037807316e-05,3.96287693849132e-05
222.9531966674509,239.3030615722707,12.5,0.5221120155251748,12.42652860202045,9.594099709531097,-5.04891523877837,6.714881478785335e-05,4.344092520279042e-05,-8.452048015941433e-05,0.000169505006588238,0.0002019895766552256
224.6570413277099,239.7361142114532,12.5,0.5821107620204454,11.54283114051085,9.263893194046148,-5.207313237518956,7.065495449739813e-05,4.884115563066394e-05,-9.968791276263928e-05,0.0001835497132678689,0.0002288512666511546
222.9229427091379,241.2488430552146,12.5,0.4241066906904647,12.01403772056462,10.83834922911426,-5.666312732937697,5.170096759452383e-05,4.35349516159048e-05,-7.871336779003454e-05,0.0001461627773683694,0.0001695114192697843
224.624731339892,241.6404225439565,12.5,0.4912595510205414,11.38187203253375,10.62695870107898,-5.963758185312566,5.488146971457377e-05,4.894592177086976e-05,-9.378075908492763e-05,0.0001597905092046091,0.0001904967967754068
222.9007952745237,242.6732539610958,12.5,0.3349996858871996,10.55078121483091,9.630709029910275,-5.020795631576743,3.918484263920304e-05,3.365057647183661e-05,-6.040052042110877e-05,0.0001117909875907612,0.000147900792258003
224.6010787872183,243.0344729965665,12.5,0.4068145952720951,10.00752275694652,9.410916825331268,-5.271967550385489,4.129457529926904e-05,3.727150981680717e-05,-7.110043515387907e-05,0.0001209197998349227,0.0001648366725529742
222.8705413162107,244.6190354440397,12.5,0.1819239034236199,9.945081516771788,11.10514973992023,-5.778757103304875,2.80415735867815e-05,3.371375116538716e-05,-5.65107048352961e-05,9.509591141899488e-05,0.0001213376186613273
224.5687687994003,244.9387813290699,12.5,0.2571728981597589,9.718790031824085,11.09800430815339,-6.234575286980603,2.991506987327659e-05,3.734190862438039e-05,-6.714429531755523e-05,0.0001039281335110756,0.0001330863793215269
225.8457727057295,243.2989036831809,12.5,0.4551197347160906,10.04554164660111,9.414532930913024,-5.140014552274945,4.5173423397098e-05,4.054114907268806e-05,-7.546633460247263e-05,0.0001317987200426117,0.0001785965693360729
227.546056218424,243.6601227186517,12.5,0.5150903029757707,9.594825472166622,9.320135969598274,-5.430201327655996,4.794157113771429e-05,4.56756688119489e-05,-8.95870115360414e-05,0.0001443769081522973,0.0001992534261610293
225.8119575998521,245.1728515624131,12.5,0.3084022351592738,9.512503507216952,11.16167700916857,-6.066662932140894,3.11028616767049e-05,4.06412007853133e-05,-7.017562219609587e-05,0.0001107808391155504,0.0001424801471315316
227.5101850830418,245.4925974474434,12.5,0.3729681205393038,9.407149668114494,11.32355444098133,-6.599657100168567,3.356134843300325e-05,4.578659461675462e-05,-8.420187000182341e-05,0.0001229768365982964,0.0001563956374038612
225.9043421871713,240.0531307456731,12.5,0.6221455501351933,12.28278141316685,9.390679429486575,-5.244567753871404,8.413916255298757e-05,5.352311995018063e-05,-0.0001110388988299144,0.000211320246656314,0.0002511515359321972
227.6081868474301,240.4861833848556,12.5,0.6711751551848886,11.44494247748165,9.11716283446405,-5.458806024997773,8.919668365345534e-05,6.088033615451324e-05,-0.0001328076296197655,0.0002309667492864645,0.0002852153146371341
225.870527081294,241.9270786249053,12.5,0.5362050693541662,11.76666955330027,10.71982608530761,-6.000182548250205,6.26946949631908e-05,5.366619207261428e-05,-0.0001034971648335174,0.0001789951820409465,0.0002077149802046735
227.5723157120479,242.3186581136472,12.5,0.5916008978501577,11.23679977311987,10.59927726930953,-6.388098752543889,6.728305060879907e-05,6.103893792143645e-05,-0.0001251344328411395,0.0001980545304693027,0.0002337705546438484
130.9341205643895,101.8809181400323,12.5,0,-4.137528289834364,0.2748142235843776,2.152956029073407,-1.345994190633747e-05,4.189428147337499e-06,1.722364823258726e-05,2.075383609472271e-06,2.03996614866827e-06
132.8180504545425,101.046242103085,12.5,0,-4.108311882130915,0.1551160562813787,2.183842984600888,-1.327069086784403e-05,3.783020885805144e-06,1.74707438768071e-05,2.007928356483543e-06,2.093800931182328e-06
132.3881287559258,103.4593215065881,12.5,0,-3.986731060197047,0.4141492694093714,2.066093905781361,-1.308885880815805e-05,4.514662510267625e-06,1.652875124625089e-05,2.113283220315676e-06,2.073804580298085e-06
134.0938518237402,102.6280523046625,12.5,0,-3.949579584615954,0.290611759333913,2.096043866610033,-1.287114407823818e-05,4.089621297561285e-06,1.676835093288026e-05,2.036135553530593e-06,2.122451047953215e-06
128.4157045020726,99.14704331436894,12.5,0,-4.578724386949152,0.2116536146297385,2.145616286659549,-1.482124092994108e-05,4.340271076374485e-06,1.716493029327639e-05,2.047204894228855e-06,2.004929836118026e-06
130.6082976627659,98.30646646607114,12.5,0,-4.548780651772811,0.07457036247472804,2.190446712049762,-1.461575437565277e-05,3.877649681337378e-06,1.752357369639809e-05,1.979795989119635e-06,2.065446370466038e-06
129.8697126936088,100.7254466809248,12.5,0,-4.419494121672724,0.3504694817294409,2.056739857939479,-1.442275677473627e-05,4.65709763887239e-06,1.645391886351583e-05,2.075840009673146e-06,2.021511216586898e-06
131.8840990319636,99.88827666764868,12.5,0,-4.38220895134927,0.2088072648469197,2.101613199020355,-1.41901144561952e-05,4.173950408589559e-06,1.681290559216284e-05,1.998981593805919e-06,2.078526573885318e-06
124.6180217474918,100.6029651232607,12.5,0,-4.335885297929652,0.0807079657227523,2.130663857712045,-1.393939932595309e-05,3.726973728656528e-06,1.704531086169636e-05,1.925239453224118e-06,1.902205302494164e-06
126.8106149081852,99.76238827496289,12.5,0,-4.319581123079225,-0.0698523347775386,2.163234722839697,-1.376677772603149e-05,3.232137427175256e-06,1.730587778271758e-05,1.845877675358772e-06,1.96118952378473e-06
126.3806932095685,102.175467678466,12.5,0,-4.190727394575182,0.2451657319055707,2.038277267600962,-1.360646024816504e-05,4.137112257757971e-06,1.630621814080769e-05,1.966713513556061e-06,1.922605584644395e-06
128.3950795479232,101.3382976651899,12.5,0,-4.168796263063683,0.09023102471056599,2.069998061710752,-1.341233286157224e-05,3.623776289524757e-06,1.655998449368601e-05,1.875913832847525e-06,1.979732313438031e-06
127.6710582768055,103.3266194438592,12.5,0,-3.897132203863979,0.1540704778460822,2.153432400072031,-1.25940794346416e-05,3.610731292198646e-06,1.722745920057625e-05,1.9762590848206e-06,1.945922744858427e-06
129.5549881669585,102.4919434069119,12.5,0,-3.883395609314212,0.01603002883686733,2.171918899495708,-1.243968997287497e-05,3.158012579729345e-06,1.737535119596566e-05,1.8903167844088e-06,2.000342308065836e-06
129.4337297388821,104.8991219990645,12.5,0,-3.760290103735653,0.3252425321678278,2.062389197712156,-1.229312235768835e-05,4.049008185925572e-06,1.649911358169725e-05,2.032664407502389e-06,1.989226129103866e-06
131.1394528066965,104.067852797139,12.5,0,-3.740709031853084,0.1834195425452283,2.078961581036214,-1.211700453596605e-05,3.579509761627198e-06,1.663169264828971e-05,1.933837409715227e-06,2.038107070881811e-06
147.7132531987444,260.6230418210704,12.5,0,6.487123093243198,2.638744935918983,-4.910087136716007,1.864779794964305e-05,3.254285320346186e-06,-3.928069709372805e-05,3.568443807088667e-05,3.56071893992302e-05
150.0083889688093,260.8963741896898,12.5,0,6.559674960713045,2.818921322284138,-5.010197776607535,1.873582281645443e-05,3.772808262738806e-06,-4.008158221286028e-05,3.660748198622996e-05,3.612373853582906e-05
147.5691373414138,262.495241285599,12.5,0,6.263331441444254,2.594281815600014,-4.856956307716496,1.79672351601416e-05,3.291036656764639e-06,-3.885565046173197e-05,3.47026988228479e-05,3.512532255175698e-05
149.7065585621139,262.8538967204048,12.5,0,6.353124048580782,2.788811702985747,-4.966624490333597,1.80989475930699e-05,3.841698210689764e-06,-3.973299592266877e-05,3.574156063616267e-05,3.555180672863958e-05
143.7379614347946,260.149616271277,12.5,0,6.540624303242334,2.360222507611471,-4.786142332611244,1.904181976428629e-05,2.32021258176284e-06,-3.828913866088995e-05,3.487710341109764e-05,3.467912490454638e-05
146.0330972048596,260.4229486398964,12.5,0,6.615178231876905,2.544252262521615,-4.889901486290947,1.91331685319888e-05,2.849464654567643e-06,-3.911921189032758e-05,3.581893874878012e-05,3.522010634336506e-05
143.8670151900517,261.874031850116,12.5,0,6.318138733978483,2.293967676833348,-4.723144348872687,1.838286980726446e-05,2.286185578683929e-06,-3.77851547909815e-05,3.382059089535466e-05,3.433398373832401e-05
146.0044364107519,262.2326872849217,12.5,0,6.411838684819939,2.495506172062273,-4.838354959787322,1.852147885377398e-05,2.856148802743322e-06,-3.870683967829858e-05,3.489621845248032e-05,3.479900786498803e-05
143.9614890958035,263.1363916671357,12.5,0,6.262752624079241,2.480199352222202,-4.791382863384749,1.805664891527581e-05,2.926435827847653e-06,-3.833106290707799e-05,3.427795318629516e-05,3.407369329536069e-05
145.9834552532808,263.5575079214448,12.5,0,6.345024228410971,2.643329350341995,-4.88294251209293,1.818941405064151e-05,3.382634538365607e-06,-3.906354009674344e-05,3.517211258505995e-05,3.44795446791573e-05
144.0905428510607,264.8608072459747,12.5,0,6.048674135977825,2.416072677803413,-4.728761652357164,1.742289909288631e-05,2.892493260188661e-06,-3.783009321885731e-05,3.326019540060507e-05,3.370770774665242e-05
145.9547944591731,265.3672465664701,12.5,0,6.152912982088743,2.597348581178876,-4.832383828258833,1.761144267774088e-05,3.389185074101407e-06,-3.865907062607066e-05,3.430066264325502e-05,3.402785350265986e-05
147.463637211676,263.865786415479,12.5,0,6.161737215554199,2.713268343415847,-4.878239466320508,1.754694441504076e-05,3.75306892648735e-06,-3.902591573056406e-05,3.474499427765411e-05,3.476257850123803e-05
149.4856033691532,264.2869026697881,12.5,0,6.245666224311956,2.882968815020919,-4.970340368697546,1.767975686578152e-05,4.228967228617377e-06,-3.976272294958037e-05,3.566953488677151e-05,3.512998989965925e-05
147.3195213543454,265.7379858800077,12.5,0,5.939330149446166,2.669819070101929,-4.821604187772336,1.687000122214618e-05,3.79195690476924e-06,-3.857283350217869e-05,3.377087719971473e-05,3.425341017250799e-05
149.1837729624578,266.2444252005031,12.5,0,6.043482097919178,2.854879939684992,-4.924118777537091,1.705523876159337e-05,4.300830128656634e-06,-3.939295022029673e-05,3.482557665200277e-05,3.454949669853789e-05
237.3800200199614,287.4010830783164,12.5,0,0.0400319095449545,2.724368396498046,0.03313204208398049,-2.051392606654582e-06,8.685953341157782e-06,2.650563366718439e-07,1.059129303787803e-05,1.16348288303004e-05
239.2979784801848,287.3791214123277,12.5,0,-0.04896812375888659,2.368098935760429,0.03395425430377427,-2.05117714463678e-06,7.617091093440481e-06,2.716340344301941e-07,8.953153430199817e-06,1.115632941980914e-05
237.3124058355371,289.3190042044791,12.5,0,0.04309345172287682,2.713623642887666,-0.09738399436249397,-2.032999868796927e-06,8.649120895862228e-06,-7.790719548999517e-07,1.056182909723462e-05,1.135802645231426e-05
239.279861314072,289.3018592652895,12.5,0,-0.04367364894917913,2.366355453366586,-0.09622621894061405,-2.032840039330641e-06,7.607276369932416e-06,-7.698097515249124e-07,8.96516732962588e-06,1.088823271746668e-05
234.0580185201077,287.4391217996273,12.5,0,0.03498484833375559,3.307845385241884,-0.07908816129037852,-2.534324793525489e-06,1.055711735410702e-05,-6.327052903230281e-07,1.281931124398526e-05,1.314687405551859e-05
235.975976980331,287.4171601336384,12.5,0,-0.05750937714264825,2.93744361994656,-0.07696834962836178,-2.533984902813722e-06,9.445827085543108e-06,-6.157467970268943e-07,1.111655648440531e-05,1.216819365792025e-05
233.9046729851463,289.3487001102477,12.5,0,0.03737651549983079,3.281305665879767,-0.2139738270585901,-2.505439683104355e-06,1.047027691841539e-05,-1.711790616468721e-06,1.273436177752665e-05,1.28403011852517e-05
235.8721284636811,289.331555171058,12.5,0,-0.05278392038664159,2.920348836745778,-0.2115377064129936,-2.505187614633875e-06,9.387343413895801e-06,-1.692301651303948e-06,1.107601234300734e-05,1.188108162181123e-05
233.7924162624455,290.746608454594,12.5,0,0.02518020615271244,3.1979505479658,-0.1021387273462643,-2.47778377868396e-06,1.021329758856839e-05,-8.171098187701147e-07,1.236832451345333e-05,1.262113983469685e-05
235.7961060732059,290.7329896041473,12.5,0,-0.06430817933052524,2.839885947696759,-0.1014174335895303,-2.477694932015087e-06,9.139081576094046e-06,-8.113394687162424e-07,1.072262412771209e-05,1.167232788527145e-05
233.639070727484,292.6561867652144,12.5,0,0.02254029547436565,3.172156213408785,-0.2272134409125914,-2.465596025209057e-06,1.013286764652862e-05,-1.817707527300731e-06,1.227174364805699e-05,1.232895276016703e-05
235.692257556556,292.647384641567,12.5,0,-0.06477192757815553,2.822838984262926,-0.2261809964204008,-2.465541355660438e-06,9.084902291703887e-06,-1.809447971363207e-06,1.066770656789043e-05,1.138911410685967e-05
237.2629088172283,290.7230199136802,12.5,0,0.03272656742592284,2.639900083161676,0.0165103101599106,-2.007195050766387e-06,8.421499012176625e-06,1.320824812792848e-07,1.024421838290167e-05,1.115463854127798e-05
239.2665986279888,290.7094010632336,12.5,0,-0.05043843339765219,2.307081138580459,0.01800042641203085,-2.007067897736854e-06,7.42301039017559e-06,1.440034112962468e-07,8.713993040169503e-06,1.068909690031611e-05
237.195294632804,292.6409410398429,12.5,0,0.03581947866928059,2.630371118797927,-0.1003038835876684,-1.989674563296644e-06,8.388531997217941e-06,-8.024310687013473e-07,1.022002557399956e-05,1.08757748126441e-05
239.248481461876,292.6321389161955,12.5,0,-0.04534679971480371,2.305608182690352,-0.09854418456277989,-1.989596305239654e-06,7.414223624380969e-06,-7.88353476502239e-07,8.726964426534326e-06,1.041314443257333e-05
149.0452302366816,216.6883414576602,12.5,0,10.03603373659138,1.118413153789332,-3.284615120710157,3.122057743406095e-05,-4.449904897147242e-06,-2.627692096568126e-05,4.283325945331598e-05,4.208486112162354e-05
150.9135147047128,217.2788796904245,12.5,0,10.14184365115168,1.262719197660015,-3.387762021484876,3.144372432555735e-05,-4.072773488409293e-06,-2.710209617187901e-05,4.373102235921144e-05,4.311372225974137e-05
149.2123458462162,218.6259409298628,12.5,0,9.752273718336832,1.035355775768761,-3.219344594155413,3.037899127806285e-05,-4.488680492209431e-06,-2.575475675324331e-05,4.147570995603604e-05,4.221314170812413e-05
150.9607111935909,219.3079066896295,12.5,0,9.885042097308014,1.195536513989635,-3.334244133510505,3.067570550019394e-05,-4.082316833079581e-06,-2.667395306808404e-05,4.252963145217743e-05,4.316123203748832e-05
148.755777510235,213.332320727147,12.5,0,10.0743757957028,1.008266350053911,-3.01828202271582,3.143138946620582e-05,-4.83304831638972e-06,-2.414625618172656e-05,4.251196227460298e-05,4.174625865460819e-05
150.8317679880385,213.7645018379355,12.5,0,10.13688805579571,1.129911431118548,-3.088789395296148,3.153411263365143e-05,-4.493793865057214e-06,-2.471031516236918e-05,4.315795371825027e-05,4.291538578393182e-05
148.9228931197696,215.2699201993496,12.5,0,9.898000765848433,0.9545105740679558,-2.967850816608031,3.090999399146062e-05,-4.863966775661287e-06,-2.374280653286425e-05,4.165671573416936e-05,4.195976018447806e-05
150.8789644769167,215.7935288371405,12.5,0,9.975242867498213,1.087086226758411,-3.045874449160931,3.105110819458755e-05,-4.501518368371654e-06,-2.436699559328745e-05,4.239532086673317e-05,4.304784795464074e-05
145.1600565267149,212.5837610852034,12.5,0,9.785633840959703,0.7590312548553773,-2.857941380028458,3.070680328718674e-05,-5.399607057230554e-06,-2.286353104022766e-05,4.057903249878214e-05,3.979258092545293e-05
147.2360470045183,213.0159421959918,12.5,0,9.841255794985637,0.8657209913280164,-2.921291570811909,3.079944175089162e-05,-5.102697463738856e-06,-2.337033256649527e-05,4.114665920310262e-05,4.090950561468483e-05
145.5348781460217,214.3630034354301,12.5,0,9.634433967116358,0.7019832508035455,-2.809854816251305,3.026860209412951e-05,-5.461200771121741e-06,-2.247883853001044e-05,3.981073159861993e-05,4.012396132137986e-05
147.4909495031687,214.886612073221,12.5,0,9.70432495068558,0.8200762734746694,-2.880950091744197,3.039777882341411e-05,-5.139215885429521e-06,-2.304760073395357e-05,4.047042835148913e-05,4.117630712236004e-05
145.8092666151178,215.665499234719,12.5,0,9.814591623151465,0.8839167826875198,-3.127770823254095,3.069955976793467e-05,-5.023139593921108e-06,-2.502216658603276e-05,4.11973433985563e-05,4.034473310312065e-05
147.6775510831491,216.2560374674832,12.5,0,9.892324662292088,0.9995217121468223,-3.201725854329494,3.085582154961722e-05,-4.715390250963839e-06,-2.561380683463595e-05,4.188321874015834e-05,4.134291271327957e-05
146.1840882344247,217.4447415849457,12.5,0,9.624737646638268,0.8138526953198868,-3.07033554773666,3.014807831298654e-05,-5.095461492286976e-06,-2.456268438189328e-05,4.023841265015222e-05,4.061651243181271e-05
147.9324535817995,218.1267073447124,12.5,0,9.723500167750318,0.9441688041821226,-3.154685845070451,3.035986549345532e-05,-4.757459960817462e-06,-2.523748676056361e-05,4.105344240062559e-05,4.153128614484093e-05
152.3855880150767,175.6653430532624,12.5,0,8.134921051338964,0.8846438421613396,0.1719261198242033,2.532403229055561e-05,-3.677076546154884e-06,1.375408958593626e-06,3.400096750611583e-05,3.345731512123915e-05
154.6140669300237,176.4758819826923,12.5,0,8.16913023734892,1.038635139055891,0.1554830170239652,2.531030864827183e-05,-3.211671744900285e-06,1.243864136191722e-06,3.461908748580986e-05,3.498635338674452e-05
151.7046837896542,177.6625643719142,12.5,0,8.15886326360228,0.936643717370967,0.2274058128284601,2.535904746963052e-05,-3.52983071529473e-06,1.819246502627681e-06,3.425911986799362e-05,3.40150724608703e-05
153.8749237211085,178.4795126752423,12.5,0,8.193548525628163,1.093470572469868,0.2099021352421711,2.534457882403423e-05,-3.055732988598952e-06,1.679217081937369e-06,3.488879061369589e-05,3.55094678092968e-05
148.5257493108621,174.2614484460026,12.5,0,7.700811399404321,0.62773069627364,0.2380519967275279,2.414041192107491e-05,-4.151910891447808e-06,1.904415973820223e-06,3.153094914797109e-05,3.095962430084134e-05
150.754228225809,175.0719873754325,12.5,0,7.725317629736406,0.7635313734492222,0.2295720359876639,2.411019131639712e-05,-3.736953708751613e-06,1.836576287901311e-06,3.205034993090692e-05,3.237835631456606e-05
147.9457179638281,176.2475684034183,12.5,0,7.735716893595922,0.6714324039738768,0.2887577275463517,2.421714813632785e-05,-4.039989822160331e-06,2.310061820370813e-06,3.18043060793347e-05,3.156647813617408e-05
150.1159578952824,177.0645167067463,12.5,0,7.760346377026483,0.8098159930147648,0.2794384354871905,2.418525561207293e-05,-3.616865923973939e-06,2.235507483897524e-06,3.233292284708591e-05,3.295855156222569e-05
147.5211055478347,177.7015091221112,12.5,0,8.041152387964528,0.5432368956008486,0.005794868876167947,2.529709812500581e-05,-4.694563844448907e-06,4.635895100934357e-08,3.256855641350966e-05,3.198706037407131e-05
149.648711584393,178.5231494127773,12.5,0,8.080499146077072,0.6683788728132167,-0.02036633313529107,2.532289416919606e-05,-4.325586923859364e-06,-1.629306650823286e-07,3.310994816993982e-05,3.335805738536182e-05
146.9410742008008,179.6876290795268,12.5,0,8.028281088063681,0.5726415107414631,0.04811432064589637,2.523238627321061e-05,-4.590172036078263e-06,3.84914565167171e-07,3.261086630256855e-05,3.252925858148365e-05
149.0104412538664,180.5156787440911,12.5,0,8.068744916059936,0.7004065310574794,0.02076412758392405,2.525965850654581e-05,-4.213695033464015e-06,1.661130206713924e-07,3.31650627336927e-05,3.386933234447609e-05
151.2062273015777,179.124631851065,12.5,0,8.479882093379445,0.7850208327902457,-0.08052003442594825,2.650760603258202e-05,-4.271839009774769e-06,-6.44160275407586e-07,3.500889626209063e-05,3.439724267460298e-05
153.3338333381361,179.9462721417311,12.5,0,8.527579286178398,0.9222266718854224,-0.1137476522518838,2.655047237826253e-05,-3.870938078909367e-06,-9.099812180150704e-07,3.562423758121406e-05,3.586535267211819e-05
150.5253230761552,181.1218531697168,12.5,0,8.454953330951694,0.8203634436520275,-0.03634578498817832,2.63995599041238e-05,-4.138799645074867e-06,-2.907662799054266e-07,3.502376006733368e-05,3.488359377607335e-05
152.5946901292209,181.9499028342812,12.5,0,8.504094868395381,0.9603407196463152,-0.07092600689264326,2.644483100314816e-05,-3.730185591848096e-06,-5.674080551411461e-07,3.565379941542671e-05,3.631453377647999e-05
200.0537829905112,219.2925056715116,12.5,0,14.46616743582858,9.449033555214946,-4.296050851663362,3.873250895047951e-05,1.866397342802496e-05,-3.43684068133069e-05,8.768777726841062e-05,9.297196905224484e-05
201.270352435053,220.5264520789464,12.5,0,14.74863122737972,9.335102759376497,-4.343804802582055,3.972753772011391e-05,1.807342384810101e-05,-3.475043842065645e-05,8.834634528857654e-05,9.561510873829586e-05
198.9002275992542,220.4186495233237,12.5,0,14.15574259728917,9.215942753474254,-4.460082713545154,3.792562210854595e-05,1.816642273328627e-05,-3.568066170836124e-05,8.578482902090405e-05,8.892832378422273e-05
200.2416647513958,221.4839046143331,12.5,0,14.39775103114591,9.064241602549163,-4.53368137280527,3.882141001762757e-05,1.74873723032406e-05,-3.626945098244216e-05,8.617216136422678e-05,9.141329821716666e-05
197.9466229016668,217.1552478000559,12.5,0,14.56581589228687,8.833116350706046,-4.18674486483045,3.954411777475314e-05,1.661331960842985e-05,-3.34939589186436e-05,8.587308465014901e-05,8.900738246130453e-05
199.1631923462086,218.3891942074907,12.5,0,14.87992930267263,8.789223439010151,-4.265280365208874,4.058439501734428e-05,1.622157156269438e-05,-3.412224292167099e-05,8.69070856314133e-05,9.120143413257421e-05
196.5767902966261,218.5735735827074,12.5,0,14.17002274529531,8.608843537835146,-4.369893150811174,3.845699795467688e-05,1.621228112483622e-05,-3.49591452064894e-05,8.369241438991721e-05,8.522584452155967e-05
197.9182274487677,219.6388286737167,12.5,0,14.44241912805162,8.537323271862526,-4.471757477869455,3.938588259227516e-05,1.576549916751878e-05,-3.577405982295564e-05,8.448503940690594e-05,8.727040056333146e-05
195.5740032319146,219.611860117249,12.5,0,13.99937215776546,7.973630877867132,-4.473253219239274,3.841908620255577e-05,1.431612108296245e-05,-3.578602575391419e-05,8.089815949067973e-05,8.274150816293412e-05
197.00684989024,220.5536245938444,12.5,0,14.25383376775231,7.978627132331557,-4.611941813760343,3.922936635094215e-05,1.412853980925913e-05,-3.689553451008274e-05,8.190660662059563e-05,8.472549608459827e-05
194.204170626874,221.0301858999005,12.5,0,13.61705571816982,7.827245984987909,-4.627854915196194,3.73127815101531e-05,1.415354257742545e-05,-3.702283932156955e-05,7.903799458310669e-05,7.973571294753478e-05
195.7618849927992,221.8032590600705,12.5,0,13.82901736350402,7.814254371707088,-4.788212283230825,3.800145206584718e-05,1.394240009865947e-05,-3.83056982658466e-05,7.983737714823194e-05,8.170372131723675e-05
198.0557664435449,221.2430440394465,12.5,0,14.07180441332587,8.743057522798116,-4.584290446530578,3.803532810440428e-05,1.672034054229327e-05,-3.667432357224462e-05,8.387149871434524e-05,8.633140991429374e-05
199.4886131018704,222.184808516042,12.5,0,14.29180917931265,8.683138515345274,-4.697083879359424,3.878727856152425e-05,1.635259590565476e-05,-3.757667103487539e-05,8.451473199067681e-05,8.873486016812166e-05
196.902211052288,222.3691878912587,12.5,0,13.78484266374506,8.589473339471153,-4.718096437975191,3.723991785240725e-05,1.645844055531164e-05,-3.774477150380153e-05,8.23300798050727e-05,8.328015454648791e-05
198.4599254182132,223.1422610514287,12.5,0,13.96495052278195,8.504007474417623,-4.854577069553063,3.788463569336814e-05,1.604086349991083e-05,-3.883661655642451e-05,8.27480463660012e-05,8.561904185402312e-05
154.9885961453645,195.7807188689554,12.5,0,10.31275850561527,1.118089194093254,-1.526802758747129,3.210635586269425e-05,-4.6723213833938e-06,-1.221442206997703e-05,4.326123644166827e-05,4.249494275789892e-05
157.0664492070216,196.3672350496305,12.5,0,10.36817093299555,1.259143654201576,-1.569717332839953,3.21708320622245e-05,-4.265277052951396e-06,-1.255773866271962e-05,4.392718490368904e-05,4.394750547754244e-05
154.8059676325553,197.8341316551802,12.5,0,10.24447922205497,1.111583118803019,-1.481663908465484,3.189306701553349e-05,-4.638517397474316e-06,-1.185331126772387e-05,4.296986124005412e-05,4.291938875539888e-05
156.9408273555688,198.3696929869718,12.5,0,10.2963259946279,1.248928591753891,-1.52206537410186,3.194910030940616e-05,-4.240489302089867e-06,-1.217652299281488e-05,4.360982047227662e-05,4.438825726014181e-05
155.3049180084552,192.2241035943665,12.5,0,10.1296581164404,1.121781515996933,-1.19206245656787,3.151748075981174e-05,-4.514025641962137e-06,-9.536499652542958e-06,4.250528860838937e-05,4.165223063215156e-05
157.284032636275,192.898876162198,12.5,0,10.18905758394652,1.256798807431703,-1.238537715844074,3.159954522268351e-05,-4.129489883375768e-06,-9.908301726752592e-06,4.316727316397343e-05,4.308503063501992e-05
155.122289495646,194.2775163805912,12.5,0,10.05398965674385,1.113315316786242,-1.147676495881917,3.128211464815131e-05,-4.480582711679105e-06,-9.181411967055337e-06,4.218126020386747e-05,4.215540876210283e-05
157.1584107848221,194.9013340995394,12.5,0,10.10931223751808,1.244547875924297,-1.19145869395952,3.135416085931842e-05,-4.104896587056714e-06,-9.531669551676161e-06,4.281504350844003e-05,4.359830695579716e-05
151.8769909191304,191.0553632233496,12.5,0,9.723033143237778,0.8473250377729156,-1.070779299992005,3.043584602814255e-05,-5.066986393716891e-06,-8.566234399936038e-06,4.006607179868912e-05,3.926539860802022e-05
153.85610554695,191.7301357911811,12.5,0,9.773853553770877,0.9657312206607829,-1.110088729377308,3.050374639553818e-05,-4.728742936902197e-06,-8.880709835018465e-06,4.063834084655973e-05,4.06287633151648e-05
151.5956239724837,193.1970323967307,12.5,0,9.658898129879939,0.8455001447554411,-1.030864483532565,3.023207389981145e-05,-5.021518040686538e-06,-8.24691586826052e-06,3.980807126446239e-05,3.975465184000669e-05
153.6317452616598,193.8208501156789,12.5,0,9.706441055478143,0.9609467978574768,-1.067945915595914,3.029185393924408e-05,-4.690123091238588e-06,-8.543567324767313e-06,4.035804373275119e-05,4.112550447787507e-05
151.3896490719766,194.7648430445832,12.5,0,9.916510811291067,0.8307511583618157,-1.408359793095169,3.106823366944196e-05,-5.274804942275043e-06,-1.126687834476135e-05,4.0820335629067e-05,4.008236116027229e-05
153.4675021336337,195.3513592252582,12.5,0,9.966371535299629,0.9581940539530056,-1.446849177128374,3.11258336697964e-05,-4.906876255590084e-06,-1.157479341702699e-05,4.141777877994106e-05,4.145928045948887e-05
151.1082821253299,196.9065122179644,12.5,0,9.85400406178981,0.8298793974875167,-1.366709344046487,3.086890947973737e-05,-5.227589177471794e-06,-1.093367475237189e-05,4.056956739193202e-05,4.048842644140336e-05
153.2431418483434,197.4420735497561,12.5,0,9.900792803767267,0.9542997988914146,-1.403027975670229,3.091909713294212e-05,-4.866874886561286e-06,-1.122422380536183e-05,4.114528675623058e-05,4.187443223693243e-05
170.384352335515,153.2826728761148,12.5,0,5.049512827426361,2.538718028076751,1.330531095036973,1.412746662530295e-05,4.084287427904513e-06,1.064424876029578e-05,2.792331532405474e-05,2.895099654988232e-05
172.0581042721244,153.1232397277487,12.5,0,5.149037463166057,2.813964673012486,1.469042190433824,1.422574814372139e-05,4.885456983107109e-06,1.175233752347059e-05,2.928415537650995e-05,2.958300389739066e-05
169.7775211540417,155.0702754683754,12.5,0,5.487249516291031,2.749638005887737,1.502392551329347,1.535948804742111e-05,4.409042005807935e-06,1.201914041063477e-05,3.033046911144882e-05,2.99691858444352e-05
171.4305327352453,155.2158636570348,12.5,0,5.52008999608787,2.983277591108389,1.610577008196587,1.527766591459447e-05,5.130416294676546e-06,1.28846160655727e-05,3.12909230799492e-05,3.082963825345207e-05
167.4853289420927,153.5588191894904,12.5,0,5.030680451807908,2.305405605787834,1.351176084753282,1.425385296115504e-05,3.352753577074742e-06,1.080940867802626e-05,2.706235904927319e-05,2.788780064665887e-05
169.1590808787021,153.3993860411244,12.5,0,5.132666975733283,2.592457445658207,1.488058370023326,1.435056836581994e-05,4.189730245519635e-06,1.190446696018661e-05,2.846824003690006e-05,2.849676820785626e-05
166.9144211099488,154.8181093286399,12.5,0,5.355308637277367,2.49058149546013,1.493426543452273,1.514452244291947e-05,3.685613875650524e-06,1.194741234761818e-05,2.895085738787826e-05,2.850909008265145e-05
168.5674326911524,154.9636975172993,12.5,0,5.390020574133018,2.726579008327134,1.595722183848531,1.506680263056395e-05,4.413036367340413e-06,1.276577747078825e-05,2.992118303143772e-05,2.9347396836091e-05
166.4964875703983,155.7399736919286,12.5,0,5.551223619086968,2.230105423657811,1.318770878596501,1.597983124215205e-05,2.695358460435421e-06,1.055016702877201e-05,2.874487291852732e-05,2.895307013624893e-05
168.1343161576784,156.1088529966737,12.5,0,5.571891560397954,2.456439737778982,1.362632294404184,1.586490120305026e-05,3.40309391257438e-06,1.090105835523347e-05,2.960205110306739e-05,2.995144503368862e-05
165.9255797382544,156.999263831078,12.5,0,5.725019117819668,2.362085713787325,1.422415914454408,1.643039260599308e-05,2.978658989863706e-06,1.137932731563526e-05,2.98737421462876e-05,2.954475676428339e-05
167.5426679701286,157.6731644728487,12.5,0,5.714538910803005,2.55411880480561,1.446107693154076,1.624322947072512e-05,3.601549046735548e-06,1.156886154523261e-05,3.049295993860069e-05,3.075110677158114e-05
169.3332898976052,156.3788913895964,12.5,0,5.782417234943953,2.523352217631134,1.278091235635844,1.648505337771574e-05,3.448793308464464e-06,1.022472988508675e-05,3.059356479399865e-05,3.069148684795792e-05
170.9711184848853,156.7477706943416,12.5,0,5.79278445409605,2.7208162960713,1.329797281729041,1.636025721625032e-05,4.07238458415132e-06,1.063837825383232e-05,3.131969092969183e-05,3.171494378691333e-05
168.726458716132,158.1664939818571,12.5,0,6.027301111445915,2.664635188396533,1.400885721127471,1.71556554059097e-05,3.704991713712172e-06,1.120708576901976e-05,3.202537890182483e-05,3.164666059347099e-05
170.3435469480061,158.8403946236276,12.5,0,6.004637229079555,2.835597017124228,1.434220334950345,1.694636151935519e-05,4.270200671533886e-06,1.147376267960276e-05,3.253307027107497e-05,3.288700912859279e-05
158.570968299598,151.4084299173777,12.5,0,4.423932097910105,1.72500179123993,1.568182051267117,1.277658128032039e-05,1.980860053639693e-06,1.254545641013693e-05,2.292350187185886e-05,2.28987382019515e-05
159.8070209664497,150.2378655909547,12.5,0,4.504188340060232,1.672590453275849,1.580160699533044,1.307533032557206e-05,1.748938778434531e-06,1.264128559626435e-05,2.305279316391699e-05,2.263574419778543e-05
159.9384503499238,152.7427872122534,12.5,0,4.56178531124516,1.841402667610759,1.491619844013198,1.31245908618959e-05,2.243060287358302e-06,1.193295875210559e-05,2.379465716200182e-05,2.426118715163118e-05
161.1294214908838,151.595944576833,12.5,0,4.645444160494994,1.788313791316424,1.503379539682291,1.343477028053084e-05,2.00624880381656e-06,1.202703631745833e-05,2.393349960201121e-05,2.400354737715653e-05
160.7118743193778,149.3809530305219,12.5,0,4.117614202450227,1.908081962376369,1.627685796698689,1.164989987793963e-05,2.811770917644199e-06,1.302148637358951e-05,2.242950842571361e-05,2.243523101224349e-05
161.9479269862295,148.2103887040989,12.5,0,4.207899945177116,1.862376303378259,1.644782953726145,1.197537878186416e-05,2.593284214668734e-06,1.315826362980916e-05,2.261733026358539e-05,2.215041280589823e-05
162.0012728763778,150.7563974994547,12.5,0,4.267338773206212,2.018316950827823,1.550811560804189,1.204083051359762e-05,3.044743224084063e-06,1.240649248643351e-05,2.332224244805299e-05,2.380731278455761e-05
163.1922440173377,149.6095548640344,12.5,0,4.361461999538831,1.972078835966129,1.567837735818602,1.237901532975136e-05,2.821482675460546e-06,1.254270188654882e-05,2.352189855180196e-05,2.35288296818266e-05
158.478570507488,146.9986133273833,12.5,0,3.637374546456632,1.733846659092204,1.682712139681299,1.025252122138746e-05,2.638409671929746e-06,1.346169711745039e-05,2.009974149555289e-05,2.011860917699289e-05
159.7927066676656,145.7869618269031,12.5,0,3.72351263270184,1.683619659153397,1.699063179899842,1.056834469732317e-05,2.4087728031294e-06,1.359250543919874e-05,2.025625625504625e-05,1.982315657121148e-05
159.7679690644879,148.3740577963162,12.5,0,3.778573913815038,1.841042719154344,1.609137052064397,1.061860234888465e-05,2.868477570241871e-06,1.287309641651518e-05,2.094291600293671e-05,2.144684585950951e-05
161.0370236987737,147.1861279868386,12.5,0,3.868180864696653,1.790158941437543,1.625423152987062,1.094605161387925e-05,2.633963920842817e-06,1.300338522389649e-05,2.11093613100139e-05,2.115748068852609e-05
156.2024199100377,149.0972552872443,12.5,0,3.955750666307768,1.549043848999458,1.625568846361785,1.141916705298529e-05,1.792339783752051e-06,1.300455077089428e-05,2.062527476387779e-05,2.059917179034589e-05
157.5165560702154,147.8856037867641,12.5,0,4.033353261630122,1.491448957686315,1.637085682537464,1.171357127106734e-05,1.545954055292111e-06,1.309668546029971e-05,2.072733027646471e-05,2.032654182826774e-05
157.5699019603636,150.43161258212,12.5,0,4.087886799942096,1.663868703508195,1.551246004724607,1.175014279700815e-05,2.054070411272547e-06,1.240996803779686e-05,2.146234916508299e-05,2.191750414325528e-05
158.8389565946494,149.2436827726424,12.5,0,4.168611078227738,1.605472348106296,1.562557507254354,1.205517757184372e-05,1.802622651357957e-06,1.250046005803483e-05,2.157231347170494e-05,2.165049353042658e-05
112.7604353101612,80.7933515815715,12.5,0,-7.400350043806404,-0.1454803466209109,2.067885835261686,-2.356473586288376e-05,5.454742925858208e-06,1.654308668209349e-05,2.174834168065978e-06,2.171320556919294e-06
114.7196388849816,81.03667338825454,12.5,0,-7.48700902723809,-0.352530550978116,2.189488432714984,-2.367640444637939e-05,4.8615094586605e-06,1.751590746171987e-05,2.126696829611015e-06,2.193038548627645e-06
114.6939267911537,82.68146537729825,12.5,0,-7.049794136542571,0.1321170020223197,1.878520281404085,-2.266503483855408e-05,6.062609715705479e-06,1.502816225123268e-05,2.196720183419506e-06,2.146712933554826e-06
116.4197860946946,82.82632072119011,12.5,0,-7.12729107221849,-0.0798627110866299,2.001756944450618,-2.274344126222986e-05,5.446272182297576e-06,1.601405555560494e-05,2.134592439131421e-06,2.169803063981906e-06
116.1093407911816,84.06366060618319,12.5,0,-6.987400522211505,-0.1247428267637962,2.145665628903887,-2.225988740966578e-05,5.190743372125055e-06,1.71653250312311e-05,2.149372690160697e-06,2.130505889695283e-06
117.664380232498,84.1364334964734,12.5,0,-7.03095654001826,-0.2644342105719604,2.22186750193517,-2.228751355960086e-05,4.778575758184335e-06,1.777494001548136e-05,2.112144238457027e-06,2.153395568455655e-06
118.042832272174,85.95177440190993,12.5,0,-6.693150498849231,0.1161456832837973,1.984445089320353,-2.151099814294457e-05,5.726186585587535e-06,1.587556071456283e-05,2.170113839057949e-06,2.110835045793099e-06
119.364527442211,85.92608082940899,12.5,0,-6.724601718977695,-0.02444073677874092,2.059450301291631,-2.149917291130563e-05,5.301471017490184e-06,1.647560241033305e-05,2.123511917121338e-06,2.13180494169681e-06
118.8027481112668,84.18970694957721,12.5,0,-6.964093315518852,-0.01829048341586659,2.13142417745426,-2.227046622292763e-05,5.512745105484308e-06,1.705139341963408e-05,2.202778710813473e-06,2.169710354271569e-06
120.3577875525833,84.26247983986745,12.5,0,-7.019143444027528,-0.1982471374101216,2.220529851401875,-2.230266131095999e-05,4.980923915509633e-06,1.7764238811215e-05,2.147715270667629e-06,2.191393499276773e-06
120.3320754587553,85.90727182891115,12.5,0,-6.652559068511912,0.2311116640964135,1.965622474730471,-2.147307835051525e-05,6.061604579918052e-06,1.572497979784377e-05,2.228767484246792e-06,2.146813941948621e-06
121.6537706287923,85.88157825641022,12.5,0,-6.694431563521764,0.04606062569079339,2.054600228452808,-2.145902950382228e-05,5.50293925302795e-06,1.643680182762246e-05,2.159658033498295e-06,2.166849397305412e-06
116.1538754440598,81.21479731332842,12.5,0,-7.392650057544813,-0.04657531770987822,2.088057007937932,-2.36192199299755e-05,5.76507902936424e-06,1.670445606350346e-05,2.240996930906268e-06,2.20948153773228e-06
118.1130790188803,81.45811912001147,12.5,0,-7.473769386241999,-0.219786341049258,2.217452427348958,-2.374023296313499e-05,5.275699217635973e-06,1.773961941879166e-05,2.212058680168853e-06,2.232686627688004e-06
117.6832027915483,82.93236219266232,12.5,0,-7.062915327530838,0.1601986574673824,1.933171454500347,-2.272948797407259e-05,6.162967965920294e-06,1.546537163600278e-05,2.2406516799784e-06,2.186502085952878e-06
119.4090620950893,83.07721753655423,12.5,0,-7.134599517685717,-0.01883870535710308,2.066897583244089,-2.281564749230861e-05,5.647395757005843e-06,1.653518066595271e-05,2.201913211898879e-06,2.209034531989142e-06
122.74013066886,89.84668253400835,12.5,0,-6.020297101935199,0.0540254664906048,2.084491913833197,-1.930817109938512e-05,4.989119174318094e-06,1.667593531066557e-05,2.071795101705176e-06,2.078880945546509e-06
124.4826965125383,89.79273404985592,12.5,0,-6.047165722509603,-0.0901609175575413,2.201371008560367,-1.927880157798469e-05,4.549217641823549e-06,1.761096806848294e-05,2.049852617215281e-06,2.10892116783679e-06
123.6210722382296,91.42467017277859,12.5,0,-5.74979511270889,0.1833103041862534,1.987125389378676,-1.854599260401745e-05,5.186429063563122e-06,1.589700311502941e-05,2.06295072761026e-06,2.0563170594617e-06
125.604945143122,91.37443285750903,12.5,0,-5.775138370024396,0.05537575137908424,2.090785225280978,-1.852474338518133e-05,4.797313100432586e-06,1.672628180224783e-05,2.040192792116243e-06,2.091955914798066e-06
121.2142951122399,87.11352776999176,12.5,0,-6.461944508193003,0.00746680014590928,2.086191141893163,-2.068419586633434e-05,5.193449367021312e-06,1.66895291351453e-05,2.112592661702842e-06,2.127593708381405e-06
122.5389048656778,87.05315135277881,12.5,0,-6.484506156317558,-0.1255977609497168,2.177807077127412,-2.064994149145641e-05,4.785692090014952e-06,1.74224566170193e-05,2.081889570744868e-06,2.148834716959586e-06
122.0952366816095,88.69151540876202,12.5,0,-6.18651580107589,0.1490328032220045,1.980493101353564,-1.991607680602045e-05,5.426117611171126e-06,1.584394481082851e-05,2.10447092526464e-06,2.097979466063146e-06
123.6611534962614,88.63485016043195,12.5,0,-6.207837292559269,0.03465615815504774,2.059305383710915,-1.98928042627137e-05,5.077169540143567e-06,1.647444306968732e-05,2.075063110105332e-06,2.124161796941945e-06
118.9200037191254,87.2181027921817,12.5,0,-6.475583548944974,-0.02377960612804308,2.06161927364161,-2.070284367172148e-05,5.104372099546241e-06,1.649295418913288e-05,2.083145427759763e-06,2.090703766102179e-06
120.2446134725632,87.15772637496875,12.5,0,-6.487435944290021,-0.1225244268870516,2.172498323448802,-2.066177548021842e-05,4.797870589393451e-06,1.737998658759042e-05,2.081444487879806e-06,2.112017567044394e-06
119.3829891982546,88.78966249789143,12.5,0,-6.162907647334647,0.08304841426947074,1.98900825908749,-1.978774320288645e-05,5.196081043530023e-06,1.591206607269992e-05,2.062390630611493e-06,2.055374931065052e-06
120.9489060129065,88.73299724956138,12.5,0,-6.175405574076978,-0.001655516702711246,2.083752982305333,-1.975997342368416e-05,4.935026805812906e-06,1.667002385844266e-05,2.059977369396811e-06,2.079548080902138e-06
119.7219180921294,89.94012404955004,12.5,0,-5.992093746778323,-0.02662427353048691,2.057911369484788,-1.915340057086624e-05,4.7084773221251e-06,1.646329095587831e-05,2.002355242092658e-06,2.030564699515235e-06
121.4644839358077,89.88617556539761,12.5,0,-6.002115936601952,-0.1036898328481928,2.176425148453824,-1.912381913084769e-05,4.469885284167345e-06,1.741140118763059e-05,2.021111947456731e-06,2.057885393138646e-06
120.1849035712587,91.51168375525975,12.5,0,-5.732910957301351,0.05572340290166666,2.005963587507073,-1.838989378568566e-05,4.764643655126414e-06,1.604770870005658e-05,1.98707024539639e-06,1.998110721407831e-06
122.168776476151,91.4614464399902,12.5,0,-5.743333943627821,-0.01264469737253515,2.110641677751711,-1.8368552861711e-05,4.554204123310144e-06,1.688513342201368e-05,2.003524389809568e-06,2.031171315680027e-06
149.3311523535712,141.3994021035821,12.5,0,2.461258633985548,1.079864323376243,1.773599277680043,7.012136170052759e-06,1.486558927615541e-06,1.418879422144034e-05,1.37196276862672e-05,1.384984010932309e-05
150.7056778438196,140.1468062987798,12.5,0,2.554246715498369,1.03974773903739,1.795720183433973,7.341791298364867e-06,1.283795392520952e-06,1.436576146747179e-05,1.393928617561395e-05,1.354698562238738e-05
150.6223057671196,142.8904897488891,12.5,0,2.609573529269821,1.17712713782884,1.702848809173735,7.408933583400353e-06,1.679148017636432e-06,1.362279047338988e-05,1.451464995063399e-05,1.507764966229927e-05
152.0135591250827,141.654745305558,12.5,0,2.700720208435617,1.135889682616295,1.725791108343569,7.733592920900937e-06,1.47427081762365e-06,1.380632886674855e-05,1.472458811562472e-05,1.479089555946701e-05
151.7119003389371,139.2298425283558,12.5,0,2.147260349581835,1.249002675621224,1.829593411157715,5.872030978164892e-06,2.279000282322447e-06,1.463674728926172e-05,1.320947704661781e-05,1.332110468163574e-05
153.0864258291855,137.9772467235535,12.5,0,2.234062887136927,1.200846078550964,1.847514479772197,6.188324375997394e-06,2.055457141653545e-06,1.478011583817757e-05,1.337135083677831e-05,1.300684096195028e-05
153.0320272692692,140.7501175879071,12.5,0,2.294706910167985,1.353689866673383,1.756226451235921,6.260110219198844e-06,2.496042045220439e-06,1.404981160988737e-05,1.401541599507218e-05,1.457562486415477e-05
154.4232806272324,139.5143731445759,12.5,0,2.37972046840664,1.30435534134346,1.774986336088326,6.571621225826479e-06,2.270160717573761e-06,1.41998906887066e-05,1.416775231841484e-05,1.427424848998831e-05
149.4253734232031,136.5966488837806,12.5,0,1.66079228023691,1.103778590127771,1.875571868145589,4.431512424655895e-06,2.20345766421934e-06,1.500457494516471e-05,1.110090559731146e-05,1.125061256558694e-05
150.7709253966678,135.3148656647341,12.5,0,1.74367244859104,1.058263242588202,1.889912687779213,4.733141241420764e-06,1.991504417409414e-06,1.51193015022337e-05,1.124987694708627e-05,1.09196183484737e-05
150.7455003535352,138.1169239433319,12.5,0,1.798865885373216,1.203991837177795,1.80605350605148,4.793177363452053e-06,2.413681170670371e-06,1.444842804841184e-05,1.183048846396335e-05,1.243017032143867e-05
152.1077801947146,136.8519920857565,12.5,0,1.880067012851935,1.157346767476122,1.821192520364351,5.090337027145294e-06,2.199456045642043e-06,1.456954016291481e-05,1.197162220877389e-05,1.210797052465431e-05
147.0948090409795,138.8167625434185,12.5,0,1.97495354607573,0.943828264145762,1.820604629321836,5.564788736125725e-06,1.440287608405855e-06,1.456483703457469e-05,1.160905773107492e-05,1.181791890810899e-05
148.4403610144442,137.534979324372,12.5,0,2.067093559922511,0.9054460776071771,1.839920796288897,5.890342529666294e-06,1.243752600404958e-06,1.471936637031118e-05,1.182522977801481e-05,1.149131147509415e-05
148.3859624545279,140.3078501887255,12.5,0,2.118492888729317,1.039305558072794,1.751626935446813,5.947732797475579e-06,1.630983474849488e-06,1.401301548357451e-05,1.235512455324573e-05,1.29763978862221e-05
149.7482422957074,139.0429183311501,12.5,0,2.208846297095168,0.999820583498032,1.771747038361503,6.268451683906113e-06,1.432348829517567e-06,1.417397630689202e-05,1.256301228898021e-05,1.26628647316486e-05
231.5292033227763,238.6452870737688,12.5,0.8254751091637033,14.58735865619671,9.31534241473474,-5.880786493586472,0.0002247660696423905,0.0001039347952906514,-0.0002695678061923035,0.0005057473133240967,0.0004990423794431381
232.9084300221146,239.0842857370606,12.5,0.8460444742064067,13.95227381093967,9.102399123047874,-6.350290634370658,0.0002427022784921927,0.0001166951173229606,-0.0003299805240058447,0.0005548494099311861,0.0005548921757086001
231.5283083306252,240.065435083789,12.5,0.7985126788976444,13.67576294241891,9.963596550385597,-6.521273779228351,0.0001776368060263699,0.0001039415209489027,-0.0002589254249269826,0.0004342303085075277,0.0004410271552717899
233.0432684860191,240.3944127342451,12.5,0.8248569678112242,12.69893508928778,9.49277883392462,-6.834536114166455,0.0001886593420568788,0.0001154356182170987,-0.00031218078292946,0.0004709232681711414,0.0004975396892551974
231.5307534946543,236.18551856619,12.5,0.8525484901812458,15.58301642770457,9.302887418015601,-5.205293845184664,0.0002877104662162391,0.0001173458760561673,-0.0002824138648201272,0.0006212886577955403,0.0005752941141301723
232.6748829518217,236.81507921361,12.5,0.865911016389351,15.27305406290176,9.339102822810712,-5.507904430990389,0.00030876877151412,0.0001317534469048643,-0.00032861189831872,0.0006764900477650852,0.0006224015717900453
231.5298585025032,237.6056665762103,12.5,0.8392244059311322,15.01118720460166,9.648972512593584,-5.396587067885827,0.0002507633156521314,0.0001173546419522865,-0.0002685276754417945,0.000564636676541861,0.0005350191026383048
232.8097214157262,238.1252062107946,12.5,0.8564697764238627,14.20690138460552,9.384244256409396,-5.514425184573815,0.000264436911473747,0.0001300357516890864,-0.0003073596652846359,0.0006058425916408007,0.0005883488162982011
229.5490631444398,235.0950875384322,12.5,0.8258320188691839,15.12967219825853,9.207351894645683,-4.832384131323983,0.0002356866586624732,9.967267342451752e-05,-0.0002219642944678526,0.0005137106807964543,0.0004999142145214375
230.6931926016072,235.7246481858522,12.5,0.841842144425187,14.71031021880905,9.0616367512918,-5.067759496889001,0.00025179706157762,0.0001089354010679333,-0.0002563393125669594,0.000553288711541558,0.0005424737256680479
229.3130709101179,236.7057975325807,12.5,0.8045300923459702,14.81663863313745,9.887718142940102,-5.283996463383732,0.0002020928417360581,0.0001012298383335857,-0.0002162582067715955,0.0004648011521635376,0.0004527616014833031
230.5929338233408,237.225337167165,12.5,0.8253299266369101,14.00096273797799,9.491138405225209,-5.385620921581016,0.000213031169684116,0.0001097547641517699,-0.0002466648495823701,0.0004953495341875553,0.0004986886179257984
229.1403126044098,237.8849190845062,12.5,0.7834738006401984,14.03297408835552,9.14904922956606,-5.306066979861281,0.0001735876665743701,8.336440725093192e-05,-0.0001960434162904856,0.0003944829395040641,0.0004142205531149628
230.5195393037481,238.323917747798,12.5,0.8087379566809785,13.31172956797482,9.007646489071444,-5.636032678974907,0.0001850415106526393,9.502714075020654e-05,-0.0002357407703555319,0.0004309585227074096,0.0004613495317723704
228.9043203700878,239.4956290786546,12.5,0.7429967999256626,13.66965114754078,10.24725355198906,-6.096692930146343,0.0001383059853739485,8.503975997968397e-05,-0.000189777961624848,0.0003434326263196995,0.0003560770638293448
230.4192805254816,239.8246067291107,12.5,0.776656459144264,12.6219492516331,9.847543094248927,-6.297876162321534,0.0001455703755983135,9.588179008105887e-05,-0.0002255852535763105,0.0003723598333352303,0.000403122359030926
187.2991993941301,287.403141989508,12.5,0,2.285578519521108,5.655424253162865,-3.834469463526197,2.789511859937251e-06,1.626889479450428e-05,-3.067575570820958e-05,3.069786146994142e-05,3.037939115688064e-05
188.4916158329542,286.4152465439242,12.5,0,2.19146203303985,5.77154002968748,-3.847648096916749,2.395446481977536e-06,1.671575846856805e-05,-3.078118477533399e-05,3.082026873078219e-05,3.075860545585142e-05
187.9417892308549,288.9198575864102,12.5,0,2.056535869530489,5.520430022049813,-3.727982873251422,2.164570764857715e-06,1.602014737493501e-05,-2.982386298601138e-05,2.938897551763215e-05,2.963699208800282e-05
189.3429477669233,288.0404200723942,12.5,0,1.995498582938351,5.642040615856547,-3.75189474913249,1.871962972717486e-06,1.645813110439027e-05,-3.001515799305992e-05,2.964828895241025e-05,2.992420334194718e-05
185.2338735383436,289.1142270937941,12.5,0,2.3004415511224,5.442809578297926,-3.823482489589305,3.007165300953339e-06,1.557663740965544e-05,-3.058785991671444e-05,2.99758945748974e-05,2.975536807204565e-05
186.4262899771676,288.1263316482105,12.5,0,2.205973005467364,5.563754169594219,-3.835784550173979,2.608110281820188e-06,1.603923493832761e-05,-3.068627640139183e-05,3.011224335840376e-05,3.011057451008154e-05
185.5149114569692,290.4430880427407,12.5,0,2.104525888210019,5.358327401875324,-3.741546162892436,2.447820920771802e-06,1.546302697543302e-05,-2.993236930313949e-05,2.897358721159254e-05,2.916063957598203e-05
186.9160699930376,289.5636505287246,12.5,0,2.046489290470965,5.478652316492403,-3.763851987975217,2.165843876313165e-06,1.589449598039892e-05,-3.011081590380174e-05,2.923523893190824e-05,2.943239579354916e-05
185.7206454922477,291.4158817735224,12.5,0,2.064406163921506,5.349873906665539,-3.623899076479108,2.326200599216387e-06,1.546807157019252e-05,-2.899119261183286e-05,2.872023403798598e-05,2.873070659434256e-05
187.274613849171,290.6158409758943,12.5,0,2.017771531782274,5.508957883569142,-3.655869589995636,2.049702594847963e-06,1.601444800199543e-05,-2.924695671996509e-05,2.916622016268926e-05,2.894142535618089e-05
186.0016834108733,292.744742722469,12.5,0,1.897448247067067,5.276176409243098,-3.550889687455725,1.850893263220137e-06,1.536580591192426e-05,-2.84071174996458e-05,2.785984488981426e-05,2.815083634066764e-05
187.7643938650409,292.0531598564086,12.5,0,1.874326454986188,5.430194571891213,-3.588640917686768,1.653688998442832e-06,1.587716146606293e-05,-2.870912734149415e-05,2.836898690045821e-05,2.827824789275183e-05
188.4121976397448,290.0301704639276,12.5,0,1.976898422722444,5.553976202340562,-3.589265908068854,1.882893990839371e-06,1.619120510931184e-05,-2.871412726455084e-05,2.914503060682572e-05,2.909769725213642e-05
189.966165996668,289.2301296662995,12.5,0,1.937851085204899,5.752027097090434,-3.615276271846029,1.599501794983328e-06,1.685620584252547e-05,-2.892221017476823e-05,2.97540244359932e-05,2.931392124986185e-05
189.0547874764695,291.5468860608298,12.5,0,1.769155689614565,5.4136639056176,-3.476565917067377,1.330367082272527e-06,1.590839994628467e-05,-2.781252733653902e-05,2.788493692958051e-05,2.836671542910507e-05
190.8174979306371,290.8553031947694,12.5,0,1.753084503583781,5.611187878525421,-3.511666669014509,1.120920108647764e-06,1.655333360841432e-05,-2.809333335211607e-05,2.857388833028632e-05,2.848100168116866e-05
215.5498292475413,222.1141845412924,12.5,0.5616921069944243,15.64725897560438,11.18910470672738,-4.313214206698149,9.381520527632623e-05,5.313006736282493e-05,-7.872482837799647e-05,0.0002239186770192904,0.0002189404305930275
216.8476107557578,220.89056839397,12.5,0.6062644302628735,14.85329043397887,10.1109554274987,-3.595361205190178,0.0001001732332008162,5.199536591139314e-05,-7.305128581785149e-05,0.0002317091328721077,0.0002418030518393423
216.6855587420795,223.6830467747501,12.5,0.5883943587227385,15.85896974326728,10.92779725524366,-4.42869064252182,0.0001020551254932009,5.41337950398903e-05,-8.607638376926155e-05,0.0002381838602588818,0.000232084862439207
218.0054024694428,222.4778110933161,12.5,0.633059385870719,14.86296852066904,9.79192742006774,-3.683995180717142,0.0001082680842630566,5.298893657171202e-05,-8.031806867623962e-05,0.0002457376375407705,0.0002580081175748851
213.5826880593819,219.3968354429165,12.5,0.5102147522570559,15.68482469003209,11.24792075201306,-4.142651648201412,8.410441636680691e-05,4.786891145141452e-05,-6.766478438935126e-05,0.0002009911373824316,0.0001973968645297543
214.8422566831091,218.1413833948092,12.5,0.5545960830777918,15.05477032318881,10.28420885616662,-3.512050330047789,8.968914827987015e-05,4.684658416424841e-05,-6.308072644383475e-05,0.0002078182425930098,0.0002156946890501033
214.7184175539201,220.9656976763742,12.5,0.5407838159037366,15.82142561910144,10.95850948971571,-4.251138595514367,9.115914429657111e-05,4.880074058346206e-05,-7.405903786044648e-05,0.0002133114321740036,0.0002096458095664264
216.0000483967941,219.7286260941553,12.5,0.5852691059419979,15.00779221036511,9.942946624955351,-3.597756831367976,9.661826101529827e-05,4.776879589971984e-05,-6.939935043015748e-05,0.0002199319675576238,0.0002304652028374879
211.401051207506,221.5713421766658,12.5,0.4107914206491977,15.46055824603813,11.31558199261956,-4.327668477035512,6.86027362971583e-05,4.04634566010917e-05,-5.875906941889806e-05,0.0001661724377523774,0.0001658887558118632
212.6606198312332,220.3158901285584,12.5,0.472266783006224,14.62194582162746,10.29969758839222,-3.593378141420967,7.304916066890052e-05,4.028830276530402e-05,-5.447264679514533e-05,0.0001725187253016637,0.0001840514049407048
212.4985678175548,223.1083685093384,12.5,0.4399764864213204,15.72948622583159,11.04078113841878,-4.403577403930395,7.410712230049131e-05,4.061777784457083e-05,-6.290560731338609e-05,0.0001749061227179108,0.0001740416460675416
213.7801986604289,221.8712969271195,12.5,0.5024950676370068,14.68682205754552,9.959081667273779,-3.642619423488902,7.845261968548458e-05,4.044101350649497e-05,-5.857420397723651e-05,0.0001810978775774652,0.0001945271630962982
213.3020057382272,224.2335498773783,12.5,0.4596150774737608,15.37935860606322,11.32082566288022,-4.519338298294925,7.43123750036683e-05,4.427058239250652e-05,-6.690546845263592e-05,0.0001807746393714977,0.0001799950568731626
214.5997872464438,223.0099337300559,12.5,0.5230959842936149,14.33179488024932,10.16452529009309,-3.69090400401719,7.911471101546062e-05,4.416202072214269e-05,-6.19144126693966e-05,0.0001877231127929958,0.0002023790282565682
214.399522348276,225.770576210051,12.5,0.4843701653584153,15.72712363789008,11.08024867310398,-4.601390294604089,8.041155479605985e-05,4.43634082180702e-05,-7.139059822327813e-05,0.0001903328165819512,0.0001881071874174621
215.7193660756395,224.5653405286171,12.5,0.5493465755758236,14.44596850623066,9.843732897043028,-3.737756730261912,8.51033428877373e-05,4.425389752898382e-05,-6.635266087304833e-05,0.0001971139269963882,0.0002133549646539241
154.4495614517989,296.8878228359479,12.5,0,3.30493619798188,3.621795118286161,-4.076431331548535,7.678359738913087e-06,8.94579542013021e-06,-3.261145065238828e-05,2.715576456883466e-05,2.687285448726192e-05
155.3626616214639,295.4468937093619,12.5,0,3.230961093770139,3.625798132127601,-4.081235329977155,7.438436994362361e-06,9.017785147792212e-06,-3.264988263981724e-05,2.692580791160198e-05,2.728938618657856e-05
155.3741275503152,298.7024223274461,12.5,0,3.211141850425741,3.578338986525457,-4.043822506053118,7.412982732142004e-06,8.881771276540869e-06,-3.235058004842495e-05,2.666354857822493e-05,2.640464414027936e-05
156.2746456938538,297.0495502095716,12.5,0,3.134779047433792,3.578989910353661,-4.04600552217745,7.168101023505204e-06,8.94494447518468e-06,-3.23680441774196e-05,2.641243532578114e-05,2.687650314170557e-05
156.9441975076952,292.9511312520539,12.5,0,3.341198184306128,3.739614287297795,-4.174882156434222,7.700142759941371e-06,9.293807171908042e-06,-3.339905725147378e-05,2.776851781102157e-05,2.804622142840703e-05
157.8343888715724,294.1866917230505,12.5,0,3.272804315057406,3.704482524768558,-4.147690983124844,7.509387788368852e-06,9.236100627213458e-06,-3.318152786499875e-05,2.739488091420528e-05,2.772698457871758e-05
156.0310973380301,294.3920603786399,12.5,0,3.409402307505422,3.738439708783324,-4.169024118392037,7.919335616990691e-06,9.235485222102299e-06,-3.33521929471363e-05,2.798804328510267e-05,2.760378891087399e-05
156.9338707280337,295.839563840925,12.5,0,3.341962818898383,3.706040441428449,-4.144254299963689,7.729448667332067e-06,9.185759157452329e-06,-3.315403439970951e-05,2.76287205124407e-05,2.723082319429308e-05
154.4674479588508,291.8849108378754,12.5,0,3.630033674257673,3.657833295551471,-4.285478342550645,8.689841121183376e-06,8.80103960635857e-06,-3.428382674040516e-05,2.856537264364196e-05,2.82228890444226e-05
155.4023408370286,290.8110777405025,12.5,0,3.57676110352142,3.671290806376004,-4.292899904605295,8.50860288616774e-06,8.886721697586074e-06,-3.434319923684236e-05,2.843812629647111e-05,2.856876048351089e-05
155.3702213488544,293.3324143001605,12.5,0,3.555321561942861,3.617285701752092,-4.255342502370474,8.483200436815481e-06,8.731056996052404e-06,-3.404274001896379e-05,2.814861118141915e-05,2.786961215424642e-05
156.2925322009058,292.0466382114992,12.5,0,3.499163711933041,3.625965994850393,-4.25940910713787,8.296551082305416e-06,8.803760213974823e-06,-3.407527285710296e-05,2.799271527690789e-05,2.827177460229736e-05
152.8481659942416,293.7448443213408,12.5,0,3.594878835436637,3.563170487043721,-4.214803265135249,8.653075883762259e-06,8.526242490190599e-06,-3.371842612108199e-05,2.806178737381188e-05,2.764953221018416e-05
153.7830588724194,292.6710112239679,12.5,0,3.526593809673972,3.577516703916928,-4.225397545741983,8.423086827823167e-06,8.626778404794989e-06,-3.380318036593587e-05,2.788972883478072e-05,2.797658257093252e-05
153.772732092758,295.559443812839,12.5,0,3.475573829758846,3.506450436489984,-4.172264906573701,8.31667590603632e-06,8.440182332960871e-06,-3.337811925258961e-05,2.742859294636799e-05,2.720642124024967e-05
154.6950429448093,294.2736677241778,12.5,0,3.402222426219764,3.515330755242834,-4.178770698980993,8.074847159708978e-06,8.527280475801257e-06,-3.343016559184794e-05,2.721796757144493e-05,2.758415158124084e-05
200.1706731885484,214.8356024913302,12.5,0,14.95685763489213,9.714576076338096,-3.93595062355063,4.009028357058434e-05,1.91211573363682e-05,-3.148760498840504e-05,9.031643810230081e-05,9.68464894495188e-05
201.3451160276441,216.1722072852282,12.5,0.003500889123535078,15.25086778348782,9.6359726396464,-3.988109094918951,4.123836975559358e-05,1.869988444213305e-05,-3.201696058844435e-05,9.146233734931531e-05,0.0001003395140504902
198.9096009202194,216.1536614648217,12.5,0,14.5405351857915,9.468714260268833,-4.131031745705882,3.895474118631773e-05,1.866745748422706e-05,-3.304825396564706e-05,8.797874377653531e-05,9.212112488518308e-05
200.0814243734414,217.4603158060096,12.5,0,14.88848575902294,9.420916285965996,-4.200019181977235,4.010642140010062e-05,1.823614350787283e-05,-3.360015345581788e-05,8.911634036933496e-05,9.470329253714009e-05
200.9392586786642,218.416853171649,12.5,0,14.61731342515468,10.11461117995933,-4.257152373036914,3.868371401652751e-05,2.067290503574612e-05,-3.405721898429531e-05,9.05639513576246e-05,9.678551169945865e-05
202.2048678564109,217.1506699039601,12.5,0.03169924477962516,14.76762993859944,10.05590587348739,-3.859605230293509,4.049536354621984e-05,2.103147677463629e-05,-3.188765647024703e-05,9.376641177713519e-05,0.0001031606587008984
202.1110821318861,219.723507512837,12.5,0,15.22680932958715,10.16079989447853,-4.424290232369914,4.059714993909606e-05,2.033311219866159e-05,-3.539432185895931e-05,9.30196641268167e-05,9.989207259169134e-05
203.3793106955065,218.4872746978581,12.5,0.0710626641598906,14.73198794483138,9.691986002676481,-3.853395629524796,4.240196954264622e-05,2.069974379413826e-05,-3.318540858121392e-05,9.622204987505222e-05,0.0001073751446206709
203.1313580770076,216.2237594203576,12.5,0.0821599211090146,15.3238721101033,10.93550598548843,-4.120796825754078,4.389434160754807e-05,2.476958893857652e-05,-3.591734046509004e-05,0.0001046028743374329,0.0001086262765974398
204.3969672547544,214.9575761526687,12.5,0.1517030953206074,14.91711925908339,10.238166227866,-3.543051673592569,4.661604731626304e-05,2.455323885659636e-05,-3.341331700302869e-05,0.0001083363843876715,0.0001171834753847439
204.3077184396473,217.5822894673482,12.5,0.124784830161545,15.4987111670667,10.70553969018602,-4.238398754288921,4.688155027070441e-05,2.497529616514362e-05,-3.874154745349064e-05,0.0001095453645462508,0.0001137159024826307
205.5759470032678,216.3460566523693,12.5,0.1972299705787256,14.92625805404667,9.941538108534484,-3.630197054905959,4.959178074301275e-05,2.475418211414656e-05,-3.617670736933722e-05,0.0001132518679370205,0.0001235561030917536
201.0938421609422,213.8707163554034,12.5,0.009465662062570268,15.23016787744596,10.59974611272145,-4.020335110706692,4.064143843965644e-05,2.194275597149954e-05,-3.247003122842289e-05,9.535624576206536e-05,0.000100923318217143
202.3549144292712,212.5526573819119,12.5,0.07071179536439209,15.07518588204658,10.09551829269519,-3.504159783795532,4.322037015862271e-05,2.178603982058074e-05,-3.016639846554025e-05,9.897156447409805e-05,0.0001073360569801886
202.2702025235818,215.2292464023939,12.5,0.05112694571201715,15.46111740996946,10.41613344980937,-4.15087618224534,4.33595081724894e-05,2.209224196712432e-05,-3.499626141547528e-05,9.979810364824177e-05,0.000105198513974502
203.5338941777846,213.9411378816125,12.5,0.1177016777908064,15.12029824976623,9.827161641923578,-3.599614264060075,4.592916484783363e-05,2.193212677305126e-05,-3.263852303422247e-05,0.0001033919412745161,0.0001128373271280898
163.988456747927,150.4910272575866,12.5,0,4.641961501334975,2.039379314275793,1.57822450301571,1.322277335285128e-05,2.812444604614558e-06,1.262579602412568e-05,2.479535900058013e-05,2.441378961570944e-05
164.9194333505145,151.5000884624078,12.5,0,4.740998019007107,2.132141198653167,1.520751211399061,1.346548070190021e-05,3.030053420484447e-06,1.216600969119249e-05,2.54545636168441e-05,2.545312824191459e-05
162.878562590277,151.6301893266041,12.5,0,4.58334214800503,2.092893726803359,1.578151992836276,1.299237989217341e-05,3.030586207366722e-06,1.262521594269021e-05,2.475855623983525e-05,2.471538430034342e-05
163.9859641047091,152.6419885247832,12.5,0,4.668575662550916,2.181339480684637,1.525980911124472,1.319437053561522e-05,3.245425808150106e-06,1.220784728899577e-05,2.535423797990511e-05,2.582420004616771e-05
162.0660636758878,152.4641138391447,12.5,0,4.936274117124968,1.842605819211411,1.512145007217871,1.432199251943077e-05,1.947319327776542e-06,1.209716005774297e-05,2.520511767280171e-05,2.492879100696531e-05
163.3026171895056,153.4779173875726,12.5,0,5.012279763403933,1.974694547508155,1.454087532004753,1.445953960488606e-05,2.30919874130295e-06,1.163270025603802e-05,2.591029470297341e-05,2.608880043371868e-05
160.9561695182377,153.6032759081622,12.5,0,4.91521252892734,1.924775033609131,1.531827118484634,1.418886006568018e-05,2.227110084407347e-06,1.225461694787707e-05,2.540920658482433e-05,2.521023428752306e-05
162.3691479437003,154.6198174499481,12.5,0,4.98372435293954,2.051973977221608,1.479739979016746,1.430633874762924e-05,2.579337244757514e-06,1.183791983213397e-05,2.607302528901864e-05,2.644063033198794e-05
164.2078371877133,154.2200730938838,12.5,0,5.329121187408667,2.067740802967713,1.460114312832288,1.539899515733356e-05,2.353473619569747e-06,1.16809145026583e-05,2.741093866475242e-05,2.695173315339848e-05
165.4443907013311,155.2338766423116,12.5,0,5.390034204001922,2.18943932812743,1.410323048529376,1.549655799030421e-05,2.694178486806239e-06,1.128258438823501e-05,2.80320908988779e-05,2.814929976042415e-05
163.4035199410935,155.3639775065081,12.5,0,5.313736332768115,2.12235048845294,1.485202003465377,1.530607587409561e-05,2.540532496834915e-06,1.188161602772302e-05,2.754571075050202e-05,2.735848267841029e-05
164.8164983665561,156.3805190482938,12.5,0,5.367951489261662,2.237298496324346,1.441857804983094,1.538760596857784e-05,2.864993996828577e-06,1.153486243986475e-05,2.812144661155515e-05,2.863570587832418e-05
165.6009555242373,152.2387725322521,12.5,0,4.987434153800881,2.194719463212191,1.506015074102173,1.420401372159306e-05,3.033154959238308e-06,1.204812059281738e-05,2.657881525757086e-05,2.622056247315563e-05
166.5319321268248,153.2478337370731,12.5,0,5.057157781822053,2.304629808803161,1.450329896177441,1.433920105478804e-05,3.329089162712473e-06,1.160263916941953e-05,2.719179545104917e-05,2.727789315825773e-05
164.7966382776177,153.3826769448762,12.5,0,4.963087402576211,2.253957286248068,1.532164212874227,1.407871385924542e-05,3.242193393932847e-06,1.225731370299381e-05,2.669862523358451e-05,2.664682835335892e-05
165.9040397920498,154.3944761430553,12.5,0,5.023101836624122,2.357553677471922,1.48485087394029,1.418788293521965e-05,3.525690298610852e-06,1.187880699152232e-05,2.72570728723757e-05,2.778547493862097e-05
126.9368866690124,111.2059036059707,12.5,0,-2.747322568836354,0.1165626353901179,2.036853312483309,-8.884682328588425e-06,2.57085848831746e-06,1.629482649986647e-05,1.881283314639901e-06,1.952404228040435e-06
128.5562331668489,110.4319470808609,12.5,0,-2.637668831557193,0.07038770177173237,2.124217288059898,-8.496850422400402e-06,2.335375710915298e-06,1.699373830447918e-05,1.948992455076422e-06,1.998550833702133e-06
127.4599494141957,112.8321121698816,12.5,0,-2.494322315071364,0.2014470709564185,1.980128407895307,-8.142989064993498e-06,2.64008847911763e-06,1.584102726316246e-05,1.929649983100665e-06,2.004315768173412e-06
129.2912759957606,111.999341907337,12.5,0,-2.401491370024008,0.158573194888981,2.059193816983433,-7.81163093998801e-06,2.428627319663946e-06,1.647355053586747e-05,1.995865152472215e-06,2.05883224340843e-06
129.7416770782736,109.8653715816552,12.5,0,-2.898569878729889,0.1884117942902339,2.073503630528332,-9.42615304736783e-06,2.921773644712659e-06,1.658802904422666e-05,1.963129347094934e-06,2.032633016148638e-06
131.3610235761102,109.0914150565454,12.5,0,-2.824462733595818,0.1302626604983813,2.133033089712554,-9.142490875905321e-06,2.676410700471474e-06,1.706426471770044e-05,1.983135228216857e-06,2.079600664567581e-06
130.6319000986606,111.3897117641478,12.5,0,-2.718241774089791,0.2719869361433755,2.009894523745011,-8.91596322600203e-06,3.044951614930634e-06,1.607915618996009e-05,1.992371473218562e-06,2.098266297439803e-06
132.4632266802255,110.5569415016032,12.5,0,-2.655306202401387,0.2183029536635497,2.064433411114607,-8.671622210615278e-06,2.822814413644468e-06,1.651546728891686e-05,2.010582999493991e-06,2.151485661371493e-06
128.1997655769237,107.2251369376066,12.5,0,-3.323822409391157,0.1417571842873596,2.104624585696629,-1.074963745748159e-05,3.112680917232477e-06,1.683699668557304e-05,1.926879729417496e-06,1.954119743923833e-06
129.4519517995566,106.5530487939153,12.5,0,-3.259382779851268,0.08494318274022938,2.147577240020729,-1.049797944171624e-05,2.879324408649748e-06,1.718061792016583e-05,1.924834902766325e-06,1.991509627323864e-06
129.0899885973107,108.7494771200993,12.5,0,-3.141450022399335,0.2336789434973641,2.035658614609007,-1.023958322647576e-05,3.260932637111033e-06,1.628526891687206e-05,1.945585108282623e-06,1.994009063543506e-06
130.554154903672,108.018575238973,12.5,0,-3.089461451357799,0.1819495327357905,2.0747548704729,-1.003183627053359e-05,3.053807665840769e-06,1.65980389637832e-05,1.942998340758092e-06,2.036735215437519e-06
126.0309154188248,108.389227749624,12.5,0,-3.178203560894713,0.03358299310690782,2.071815148728851,-1.019711778934861e-05,2.650028426657875e-06,1.65745211898308e-05,1.818494016234537e-06,1.891789919558848e-06
127.2831016414576,107.7171396059325,12.5,0,-3.081259950377009,0.04534278242251966,2.139192959993559,-9.896306067144443e-06,2.610104864053669e-06,1.711354367994847e-05,1.896359601579541e-06,1.927399928759561e-06
126.553978164008,110.0154363135349,12.5,0,-2.961274432601301,0.092448442246156,2.040036984775872,-9.550036938121088e-06,2.66485456126874e-06,1.632029587820698e-05,1.845567203728279e-06,1.922253017777474e-06
128.0181444703693,109.2845344324086,12.5,0,-2.882455049094809,0.1012186597058204,2.099254125632262,-9.304831084868044e-06,2.629863750334472e-06,1.679403300505809e-05,1.917946267989534e-06,1.963333651133712e-06
112.1810652021368,81.70999619672166,12.5,0,-7.023876690509251,-0.1698770330310655,1.988452868590876,-2.234050378320475e-05,5.075494846707991e-06,1.590762294872701e-05,2.057020347729219e-06,2.136067087509997e-06
114.1997688332242,83.49504134111343,12.5,0,-7.339855757209482,-0.2666589515966171,2.126735173937345,-2.327421126179305e-05,5.01857596065841e-06,1.701388139149876e-05,2.120237880350031e-06,2.116217937254862e-06
112.5574002053804,84.45763766458586,12.5,0,-6.630775777612778,-0.06888592086000567,1.960367912945133,-2.116337375167288e-05,5.084185675338204e-06,1.568294330356107e-05,2.033515836942563e-06,2.061470809644979e-06
114.5755634886799,85.8626275540597,12.5,0,-6.86536078327629,-0.1442373220766087,2.088981664576082,-2.185376464882284e-05,5.030729195975884e-06,1.671185331660865e-05,2.089874858996768e-06,2.055994188410275e-06
112.8328965484096,86.46905081996005,12.5,0,-6.391108051315521,-0.1449048233040864,1.983179108334095,-2.033562190556639e-05,4.649191006479339e-06,1.586543286667276e-05,1.957638465845041e-06,2.009682456700722e-06
114.8506642696747,87.59582095316227,12.5,0,-6.598785974882625,-0.2203045840476752,2.1236816497192,-2.093987145238626e-05,4.574054110953539e-06,1.69894531977536e-05,2.017173488869344e-06,2.013285368220742e-06
113.2092315516532,89.21669228782423,12.5,0,-5.983725786038788,-0.03943551202203444,1.951721725718884,-1.911637410570649e-05,4.66078699036052e-06,1.561377380575107e-05,1.937720607966385e-06,1.942790323075703e-06
115.2264589251304,89.96340716610852,12.5,0,-6.115424304467662,-0.09448342107628416,2.08243824743316,-1.949377103743549e-05,4.58999249613002e-06,1.665950597946528e-05,1.992799798509768e-06,1.95682645037124e-06
116.3277727594503,88.42067393908238,12.5,0,-6.116536178382729,-0.04931182212837482,2.00458155213148,-1.953346631312203e-05,4.735431111895384e-06,1.603665241705184e-05,1.980079777161951e-06,2.015863728542613e-06
118.3455404807154,89.54744407228461,12.5,0,-6.383642457835646,-0.191029891519511,2.187271610371385,-2.027483195185845e-05,4.495618313406081e-06,1.749817288297108e-05,2.032115913338783e-06,2.019305028422466e-06
116.7031718528716,90.51004039575702,12.5,0,-5.76116906221162,0.05025555773185153,1.956952510598864,-1.847594544526266e-05,4.76975303451122e-06,1.565562008479091e-05,1.961365357391082e-06,1.967045478460916e-06
118.7203992263488,91.25675527404131,12.5,0,-5.930392323794778,-0.0610494961956829,2.119960923921391,-1.892841583918674e-05,4.548955471209636e-06,1.695968739137113e-05,2.005480815273257e-06,1.980928255111536e-06
115.6775624565412,84.80178508055677,12.5,0,-6.521363782378318,-0.008092321206731645,1.984907265076285,-2.086189024664523e-05,5.191195598041112e-06,1.587925812061028e-05,2.06299922339972e-06,2.103447574108717e-06
117.6962660876286,86.58683022494853,12.5,0,-6.862238652899365,-0.1489500179498504,2.142855134016597,-2.184000367491808e-05,5.01315086487997e-06,1.714284107213278e-05,2.112376355419415e-06,2.088407443415995e-06
116.0529615499624,86.89115153723142,12.5,0,-6.231565668022427,0.07215790336863459,1.948155176923112,-1.999873646036667e-05,5.216157825197571e-06,1.55852414153849e-05,2.046209956731693e-06,2.052412559916217e-06
118.0711248332619,88.29614142670526,12.5,0,-6.479964314362483,-0.04084154275635776,2.088820120134975,-2.070321257175486e-05,5.053278514669641e-06,1.67105609610798e-05,2.087023394193713e-06,2.048103990130903e-06
136.4719988710831,181.7558665312725,12.5,0,7.442341378678777,-0.04504110164868824,-0.1885018457886857,2.385152529309103e-05,-6.098004628218824e-06,-1.508014766309486e-06,2.846773918421957e-05,2.863631028201489e-05
137.9839744101526,180.5074716002952,12.5,0,7.570131918497252,-0.08846475245823404,-0.1462267496464422,2.429519394115779e-05,-6.33919274266415e-06,-1.169813997171538e-06,2.882629050790969e-05,2.883791994056655e-05
138.8992175371013,183.2247726725591,12.5,0,7.614653202038924,0.09910933717748849,-0.3030404322608659,2.428760277678256e-05,-5.774572682663176e-06,-2.424323458086927e-06,2.957276672303716e-05,3.019131406657777e-05
140.1302208225313,181.7337902185952,12.5,0,7.763918880632532,0.07927183968309603,-0.2797969253902468,2.478112294627762e-05,-5.957465217520117e-06,-2.238375403121974e-06,3.008443172484397e-05,3.019531398167698e-05
141.7013822418882,182.6315177534204,12.5,0,8.144004319617839,0.1542283538027487,-0.3434373209276805,2.593743113973488e-05,-6.021672723525474e-06,-2.747498567421444e-06,3.177681199958717e-05,3.121754256550984e-05
143.8476286542669,183.8578363717205,12.5,0,8.286344222536389,0.287283979126552,-0.4420742822895888,2.62864743288152e-05,-5.709766644824144e-06,-3.53659425831671e-06,3.273820736365322e-05,3.265292895249868e-05
140.6760649216306,184.300086599485,12.5,0,8.012332404194124,0.1633367672572021,-0.3490044376917026,2.550879427961543e-05,-5.887188268132251e-06,-2.792035501533621e-06,3.129921559309154e-05,3.135399004413686e-05
143.1032835876488,185.7689927407716,12.5,0,8.140899183547132,0.2794567267167207,-0.4351230375948407,2.582731200597745e-05,-5.618457821344199e-06,-3.480984300758725e-06,3.21550956674839e-05,3.297547610314027e-05
143.4772839344228,179.7414717361617,12.5,0,7.957981563754468,0.2452990117156015,-0.1259409211080192,2.526930179464181e-05,-5.581428413513648e-06,-1.007527368864153e-06,3.133050224650126e-05,3.093509837723315e-05
145.1368721279897,180.5476164393745,12.5,0,8.040140619141797,0.3650981881401552,-0.1882197336746275,2.543637143074162e-05,-5.263798293264941e-06,-1.50575786939702e-06,3.201645310424252e-05,3.201417417413475e-05
142.4519666141652,181.4100405822264,12.5,0,7.871484132094364,0.2773002899872006,-0.1142605923187259,2.49669089907122e-05,-5.409826377716448e-06,-9.140847385498072e-07,3.109609923676863e-05,3.110530088165035e-05
144.3925270613715,182.4587728084257,12.5,0,7.943904132207583,0.3766961848541297,-0.1670432492375046,2.511913627518096e-05,-5.149695514232851e-06,-1.336345993900037e-06,3.168182523169203e-05,3.239534887694719e-05
140.6027928635753,178.3451881519697,12.5,0,7.569802611278199,0.06708449286911566,0.01988334771569483,2.416970076179494e-05,-5.841171711841388e-06,1.590667817255587e-07,2.929330488858275e-05,2.915061572072123e-05
142.2623810571421,179.1513328551825,12.5,0,7.690226396794077,0.2059642943264501,-0.07182586803387551,2.444395303427988e-05,-5.493095375590621e-06,-5.746069442710041e-07,3.018012562213245e-05,3.016781020218555e-05
139.0908173245057,179.5935830829471,12.5,0,7.470214261806746,0.1278994026458911,-0.007420183280586624,2.380236611566487e-05,-5.566893320978544e-06,-5.936146624469299e-08,2.909568017654985e-05,2.897572766752656e-05
141.031377771712,180.6423153091464,12.5,0,7.574178188195003,0.2404040969278374,-0.08225361486149659,2.404504692468174e-05,-5.290049440386923e-06,-6.580289188919727e-07,2.983993720032521e-05,3.018901614019427e-05
123.6599365927492,101.4866414579179,12.5,0,-3.987512955981697,-0.06301115332323115,2.05290297219776,-1.270963253648284e-05,2.988374674151018e-06,1.642322377758208e-05,1.746841494203672e-06,1.869830197020428e-06
125.3992678754731,102.9488351285186,12.5,0,-4.036943946351705,-0.005372583490767857,2.059741890541064,-1.291392256153284e-05,3.212362889910906e-06,1.647793512432852e-05,1.793744342074533e-06,1.891102886294096e-06
123.2349924325972,103.0603132534525,12.5,0,-3.900299750947247,-0.02204960828250058,2.089596127628109,-1.246331951640519e-05,3.049681054253796e-06,1.671676902102487e-05,1.798341555170991e-06,1.840363985252587e-06
124.73235033713,104.224544281796,12.5,0,-3.953728233433741,0.04898187326963499,2.09997257248304,-1.269111584560368e-05,3.319724581209824e-06,1.679978057986432e-05,1.858322527587609e-06,1.862162642615541e-06
122.9239117169994,104.2123209621729,12.5,0,-3.6105559463245,-0.09043839759400507,2.040222726657376,-1.14814283101632e-05,2.599041884758784e-06,1.632178181325901e-05,1.7018479232741e-06,1.82223307264676e-06
124.2441328146248,105.1584281976361,12.5,0,-3.656316797788948,-0.0299716286617151,2.053590511068187,-1.167623644999526e-05,2.829144226513669e-06,1.64287240885455e-05,1.755308920956098e-06,1.843797646405125e-06
122.4989675568473,105.7859927577074,12.5,0,-3.476519611576053,-0.02975958563819003,2.093308367746521,-1.110105508853282e-05,2.685985015218634e-06,1.674646694197217e-05,1.786150162670008e-06,1.802164709985786e-06
123.5772152762817,106.4341373509135,12.5,0,-3.522931978089324,0.05319837787765891,2.115257059579165,-1.131594103218796e-05,2.988580391679967e-06,1.692205647663332e-05,1.865106936585726e-06,1.822563787353884e-06
125.2106017352699,105.8510267633742,12.5,0,-3.354998789605082,-0.05416667227538363,2.052331460917795,-1.069266278891595e-05,2.510665680402837e-06,1.641865168734236e-05,1.733624961774602e-06,1.864910560604322e-06
126.5308228328953,106.7971339988373,12.5,0,-3.350417202936969,-0.000603350536887981,2.042222855873531,-1.072085236896879e-05,2.678403040631533e-06,1.633778284698825e-05,1.762999614121364e-06,1.901027541136457e-06
124.3665473900194,106.9086121237712,12.5,0,-3.331607307792613,-0.007995295469022667,2.076323859505997,-1.065474714856114e-05,2.639700900733218e-06,1.661059087604798e-05,1.787867120349892e-06,1.840725367981492e-06
125.4447951094538,107.5567567169772,12.5,0,-3.322973558030974,0.0683990576153396,2.065437989413558,-1.068823463179139e-05,2.877255830793866e-06,1.652350391530847e-05,1.8348115694216e-06,1.869944651635887e-06
125.8284924003163,105.0768205462554,12.5,0,-3.58213858957537,0.07287708138850346,2.106712919088273,-1.152114515175199e-05,3.098917532103507e-06,1.685370335270618e-05,1.872272146928298e-06,1.884802745409935e-06
126.6725467455668,104.0192351858584,12.5,0,-3.592677140453987,0.02044486636336695,2.08257500475394,-1.151292274254345e-05,2.939565284725964e-06,1.666060003803152e-05,1.813607784693716e-06,1.914964012351897e-06
127.3258503048491,106.241051574599,12.5,0,-3.548130093597404,0.1944316988268796,2.069690287289202,-1.150956165857319e-05,3.460685511123937e-06,1.655752229831362e-05,1.933111302734167e-06,1.924857999172477e-06
128.4118780282906,105.4814288564591,12.5,0,-3.565195844965839,0.1178350994644056,2.050645186564346,-1.150289478346221e-05,3.229228994258769e-06,1.640516149251477e-05,1.85792894796572e-06,1.95888113179672e-06
111.0512507501889,75.98266495350889,12.5,0,-8.179175760287594,-0.1482171754661454,1.957247231516013,-2.605478869254738e-05,6.069045646738409e-06,1.56579778521281e-05,2.277156453937559e-06,2.303610896492005e-06
111.7650161611795,75.78060418742662,12.5,0,-8.140857558041832,-0.1379797174403286,2.007847959995924,-2.594036041178159e-05,6.071150950624413e-06,1.606278367996739e-05,2.294930654492712e-06,2.318459524346576e-06
111.4600111101295,78.57423452226531,12.5,0,-7.909197787146755,-0.08093065310910541,1.941802820705653,-2.524468839638233e-05,6.068380139768266e-06,1.553442256564523e-05,2.257184324334491e-06,2.22188840404661e-06
112.2618238952857,77.56572214325084,12.5,0,-7.804005169356514,-0.05422454875868432,1.973337959711238,-2.492943690293389e-05,6.069685579457421e-06,1.57867036776899e-05,2.264968301847508e-06,2.264694738908002e-06
112.1348093674354,75.20257791357039,12.5,0,-8.21308918551367,-0.05755328068828502,1.942168360230531,-2.623584276909311e-05,6.386300850208423e-06,1.553734688184425e-05,2.331120951357377e-06,2.341808659548851e-06
112.4313377842725,73.82544153130061,12.5,0,-8.290687129349063,-0.07238241696898529,1.944294473974488,-2.647229288034181e-05,6.400925969178497e-06,1.55543557917959e-05,2.338657955236247e-06,2.390751055382404e-06
112.8078705685334,76.71219287730061,12.5,0,-8.30225429058377,-0.09021835207679185,1.965920670324987,-2.649503904820663e-05,6.353104705821282e-06,1.57273653625999e-05,2.338593868705609e-06,2.299300510560756e-06
113.4978850380572,75.38881993589298,12.5,0,-8.342495770950082,-0.09440834710032675,1.962249778070954,-2.662045978936e-05,6.37188990603902e-06,1.569799822456763e-05,2.342791858732481e-06,2.351038902093835e-06
110.5400000649971,71.52081650958368,12.5,0,-8.749296081611616,-0.09230146500236058,1.952908051464991,-2.792390628915528e-05,6.704072177281738e-06,1.562326441171993e-05,2.422711756105326e-06,2.44325338590464e-06
111.6387748944615,72.78901313693248,12.5,0,-8.920637509656189,-0.1668063469842127,2.020454559670846,-2.841259495331243e-05,6.602729697375469e-06,1.616363647736677e-05,2.438578596670507e-06,2.415459851849193e-06
110.8047345336256,74.09270729319053,12.5,0,-8.416909328264412,-0.001574446373984184,1.910504996890944,-2.693285029334693e-05,6.728489234214779e-06,1.528403997512755e-05,2.393551641985722e-06,2.362925464611549e-06
111.5980706845689,74.50068886674498,12.5,0,-8.522894147507722,-0.06949594050066876,1.988255408003173,-2.721766451962418e-05,6.595928308404038e-06,1.590604326402538e-05,2.403146900665637e-06,2.358856914604698e-06
114.321660647415,76.46606496351475,12.5,0,-7.930798122518815,-0.1213280690912155,1.984748514375495,-2.528149153678723e-05,5.956388676923161e-06,1.587798811500396e-05,2.254581836500731e-06,2.326180003476641e-06
115.5057102125276,77.84577470671111,12.5,0,-7.918693209463348,-0.07411589801316953,1.964049881810803,-2.528052555187218e-05,6.097783693928535e-06,1.571239905448642e-05,2.271752780430689e-06,2.297976382719944e-06
113.4610967065949,77.56641167322724,12.5,0,-7.922491127895717,-0.08713709971577721,2.001098140072116,-2.528226192949367e-05,6.059154183226087e-06,1.600878512057692e-05,2.27949621460338e-06,2.279540859815462e-06
114.5726825035889,78.39056586084807,12.5,0,-7.902102503018564,-0.006889302202710113,1.97863456127252,-2.528121656789723e-05,6.299636235366178e-06,1.582907649018016e-05,2.314345384361948e-06,2.2680646390253e-06
112.9150500333472,78.41994093917745,12.5,0,-7.646004820628572,-0.1782965461568362,1.92088606331475,-2.432457818908596e-05,5.546254908800981e-06,1.5367088506518e-05,2.141110594376388e-06,2.245111064090319e-06
114.202889297333,78.96859213470429,12.5,0,-7.770722359027424,-0.1722987728425462,2.033057466981005,-2.472847253061372e-05,5.66522181412579e-06,1.626445973584804e-05,2.21369603071057e-06,2.245372254925799e-06
112.2837867194873,79.65147954988709,12.5,0,-7.476512193154728,-0.1258645095288498,1.960799570110732,-2.382414741047205e-05,5.578443324031463e-06,1.568639656088585e-05,2.154978734012117e-06,2.197686256532191e-06
114.125623178444,80.00299812891939,12.5,0,-7.516298572319632,-0.1064623190024825,2.052111915672049,-2.396698557622084e-05,5.672359437047762e-06,1.641689532537639e-05,2.21226982972755e-06,2.213287252313104e-06
115.1094211864554,79.09245490767348,12.5,0,-7.699973789949926,-0.1227492042235407,2.026493225091856,-2.454171676446093e-05,5.76718157844461e-06,1.621194580073485e-05,2.226336809060472e-06,2.254149140229565e-06
116.2982731023385,78.88220310107926,12.5,0,-7.671018090629554,-0.1649649023750936,2.112356344488974,-2.441528596811449e-05,5.608926784903342e-06,1.689885075591179e-05,2.232596351148857e-06,2.277866845977196e-06
115.4642327415025,80.1858972573373,12.5,0,-7.476864512066394,-0.05221220657078884,1.981629068787126,-2.388419667335583e-05,5.81441254862659e-06,1.585303255029701e-05,2.207182280802991e-06,2.227607511295499e-06
117.279545620475,80.33406838982404,12.5,0,-7.504373696151164,-0.1007721374354988,2.058308041713631,-2.393337811773533e-05,5.681028117127335e-06,1.646646433370904e-05,2.21608649937469e-06,2.251130190633694e-06
